<?xml version="1.0" encoding="ISO-8859-1"?>
<modeling>
 <generator>
  <i name="program" type="string">vasp </i>
  <i name="version" type="string">6.4.2  </i>
  <i name="subversion" type="string">20Jul23 (build Nov 12 2023 22:16:35) complex                          parallel </i>
  <i name="platform" type="string">LinuxNV </i>
  <i name="date" type="string">2025 05 31 </i>
  <i name="time" type="string">20:22:58 </i>
 </generator>
 <incar>
  <i type="int" name="ISTART">     0</i>
  <i type="string" name="PREC">Normal</i>
  <i type="int" name="ISPIN">     1</i>
  <i type="int" name="ICHARG">     0</i>
  <i type="int" name="NELM">   300</i>
  <i type="int" name="IBRION">    -1</i>
  <i name="EDIFF">      0.00001000</i>
  <i name="EDIFFG">     -0.00500000</i>
  <i type="int" name="NSW">     0</i>
  <i type="int" name="ISIF">     2</i>
  <i type="int" name="ISYM">     0</i>
  <i name="ENCUT">    450.00000000</i>
  <i type="string" name="LREAL">Auto</i>
  <i type="logical" name="LPLANE"> T  </i>
  <i type="int" name="ISMEAR">     0</i>
  <i name="SIGMA">      0.05000000</i>
  <i type="logical" name="LWAVE"> T  </i>
  <i type="logical" name="LCHARG"> T  </i>
  <i type="int" name="ICORELEVEL">     1</i>
 </incar>
 <primitive_cell>
  <structure name="primitive_cell" >
   <crystal>
    <varray name="basis" >
     <v>       3.54552899       0.00000000       0.00000000 </v>
     <v>      -0.00000000       3.54552899       0.00000000 </v>
     <v>       0.00000000       0.00000000       3.54552899 </v>
    </varray>
    <i name="volume">     44.57005022 </i>
    <varray name="rec_basis" >
     <v>       0.28204536       0.00000000      -0.00000000 </v>
     <v>       0.00000000       0.28204536       0.00000000 </v>
     <v>      -0.00000000      -0.00000000       0.28204536 </v>
    </varray>
   </crystal>
   <varray name="positions" >
    <v>       0.00000000       0.00000000       0.00000000 </v>
    <v>       0.50000000       0.50000000       0.50000000 </v>
   </varray>
  </structure>
  <varray name="primitive_index" >
   <v type="int" >        1 </v>
   <v type="int" >        2 </v>
  </varray>
 </primitive_cell>
 <kpoints>
  <generation param="Gamma">
   <v type="int" name="divisions">       2        2        2 </v>
   <v name="usershift">      0.00000000       0.00000000       0.00000000 </v>
   <v name="genvec1">      0.50000000       0.00000000       0.00000000 </v>
   <v name="genvec2">      0.00000000       0.50000000       0.00000000 </v>
   <v name="genvec3">     -0.00000000      -0.00000000       0.50000000 </v>
   <v name="shift">      0.00000000       0.00000000       0.00000000 </v>
  </generation>
  <varray name="kpointlist" >
   <v>       0.00000000       0.00000000       0.00000000 </v>
   <v>       0.50000000       0.00000000       0.00000000 </v>
   <v>       0.00000000       0.50000000       0.00000000 </v>
   <v>       0.00000000       0.00000000       0.50000000 </v>
   <v>       0.50000000       0.50000000       0.00000000 </v>
   <v>       0.00000000       0.50000000       0.50000000 </v>
   <v>       0.50000000       0.00000000       0.50000000 </v>
   <v>       0.50000000       0.50000000       0.50000000 </v>
  </varray>
  <varray name="weights" >
   <v>       0.12500000 </v>
   <v>       0.12500000 </v>
   <v>       0.12500000 </v>
   <v>       0.12500000 </v>
   <v>       0.12500000 </v>
   <v>       0.12500000 </v>
   <v>       0.12500000 </v>
   <v>       0.12500000 </v>
  </varray>
 </kpoints>
 <parameters>
  <separator name="general" >
   <i type="string" name="SYSTEM">unknown system</i>
   <i type="logical" name="LCOMPAT"> F  </i>
  </separator>
  <separator name="electronic" >
   <i type="string" name="PREC">normal</i>
   <i name="ENMAX">    450.00000000</i>
   <i name="ENAUG">    454.73400000</i>
   <i name="EDIFF">      0.00001000</i>
   <i type="int" name="IALGO">    38</i>
   <i type="int" name="IWAVPR">    10</i>
   <i type="int" name="NBANDS">     6</i>
   <i type="int" name="NBANDSLOW">    -1</i>
   <i type="int" name="NBANDSHIGH">    -1</i>
   <i name="NELECT">      4.00000000</i>
   <i type="int" name="TURBO">     0</i>
   <i type="int" name="IRESTART">     0</i>
   <i type="int" name="NREBOOT">     0</i>
   <i type="int" name="NMIN">     0</i>
   <i name="EREF">      0.00000000</i>
   <separator name="electronic smearing" >
    <i type="int" name="ISMEAR">     0</i>
    <i name="SIGMA">      0.05000000</i>
    <i name="KSPACING">      0.50000000</i>
    <i type="logical" name="KGAMMA"> T  </i>
    <i type="logical" name="KBLOWUP"> T  </i>
   </separator>
   <separator name="electronic projectors" >
    <i type="logical" name="LREAL"> T  </i>
    <v name="ROPT">     -0.00050000</v>
    <i type="int" name="LMAXPAW">  -100</i>
    <i type="int" name="LMAXMIX">     2</i>
    <i type="logical" name="NLSPLINE"> F  </i>
   </separator>
   <separator name="electronic startup" >
    <i type="int" name="ISTART">     0</i>
    <i type="int" name="ICHARG">     0</i>
    <i type="int" name="INIWAV">     1</i>
   </separator>
   <separator name="electronic spin" >
    <i type="int" name="ISPIN">     1</i>
    <i type="logical" name="LNONCOLLINEAR"> F  </i>
    <v name="MAGMOM">      1.00000000      1.00000000</v>
    <i name="NUPDOWN">     -1.00000000</i>
    <i type="logical" name="LSORBIT"> F  </i>
    <v name="SAXIS">      0.00000000      0.00000000      1.00000000</v>
    <i type="logical" name="LSPIRAL"> F  </i>
    <v name="QSPIRAL">      0.00000000      0.00000000      0.00000000</v>
    <i type="logical" name="LZEROZ"> F  </i>
   </separator>
   <separator name="electronic exchange-correlation" >
    <i type="logical" name="LASPH"> F  </i>
    <i type="logical" name="LMETAGGA"> F  </i>
   </separator>
   <separator name="electronic convergence" >
    <i type="int" name="NELM">   300</i>
    <i type="int" name="NELMDL">    -5</i>
    <i type="int" name="NELMIN">     2</i>
    <i name="ENINI">    450.00000000</i>
    <separator name="electronic convergence detail" >
     <i type="logical" name="LDIAG"> T  </i>
     <i type="logical" name="LSUBROT"> F  </i>
     <i name="WEIMIN">      0.00000000</i>
     <i name="EBREAK">      0.00000042</i>
     <i name="DEPER">      0.30000000</i>
     <i type="int" name="NRMM">     4</i>
     <i name="TIME">      0.40000000</i>
    </separator>
   </separator>
   <separator name="electronic mixer" >
    <i name="AMIX">      0.40000000</i>
    <i name="BMIX">      1.00000000</i>
    <i name="AMIN">      0.10000000</i>
    <i name="AMIX_MAG">      1.60000000</i>
    <i name="BMIX_MAG">      1.00000000</i>
    <separator name="electronic mixer details" >
     <i type="int" name="IMIX">     4</i>
     <i type="logical" name="MIXFIRST"> F  </i>
     <i type="int" name="MAXMIX">   -45</i>
     <i name="WC">    100.00000000</i>
     <i type="int" name="INIMIX">     1</i>
     <i type="int" name="MIXPRE">     1</i>
     <i type="int" name="MREMOVE">     5</i>
    </separator>
   </separator>
   <separator name="electronic dipolcorrection" >
    <i type="logical" name="LDIPOL"> F  </i>
    <i type="logical" name="LMONO"> F  </i>
    <i type="int" name="IDIPOL">     0</i>
    <i name="EPSILON">      1.00000000</i>
    <v name="DIPOL">   -100.00000000   -100.00000000   -100.00000000</v>
    <i name="EFIELD">      0.00000000</i>
   </separator>
  </separator>
  <separator name="grids" >
   <i type="int" name="NGX">    18</i>
   <i type="int" name="NGY">    18</i>
   <i type="int" name="NGZ">    18</i>
   <i type="int" name="NGXF">    36</i>
   <i type="int" name="NGYF">    36</i>
   <i type="int" name="NGZF">    36</i>
   <i type="logical" name="ADDGRID"> F  </i>
  </separator>
  <separator name="ionic" >
   <i type="int" name="NSW">     0</i>
   <i type="int" name="IBRION">    -1</i>
   <i type="int" name="MDALGO">     0</i>
   <i type="int" name="ISIF">     2</i>
   <i name="PSTRESS">      0.00000000</i>
   <i name="EDIFFG">     -0.00500000</i>
   <i type="int" name="NFREE">     0</i>
   <i name="POTIM">      0.50000000</i>
   <i name="SMASS">     -3.00000000</i>
   <i name="SCALEE">      1.00000000</i>
  </separator>
  <separator name="ionic md" >
   <i name="TEBEG">      0.00010000</i>
   <i name="TEEND">      0.00010000</i>
   <i type="int" name="NBLOCK">     1</i>
   <i type="int" name="KBLOCK">     1</i>
   <i type="int" name="NPACO">   256</i>
   <i name="APACO">     10.00000000</i>
  </separator>
  <separator name="symmetry" >
   <i type="int" name="ISYM">     0</i>
   <i name="SYMPREC">      0.00001000</i>
  </separator>
  <separator name="dos" >
   <i type="int" name="LORBIT">     0</i>
   <v name="RWIGS">     -1.00000000</v>
   <i type="int" name="NEDOS">   301</i>
   <i name="EMIN">     10.00000000</i>
   <i name="EMAX">    -10.00000000</i>
   <i name="EFERMI">      0.00000000</i>
  </separator>
  <separator name="writing" >
   <i type="int" name="NWRITE">     2</i>
   <i type="logical" name="LWAVE"> T  </i>
   <i type="logical" name="LDOWNSAMPLE"> F  </i>
   <i type="logical" name="LCHARG"> T  </i>
   <i type="logical" name="LPARD"> F  </i>
   <i type="logical" name="LVTOT"> F  </i>
   <i type="logical" name="LVHAR"> F  </i>
   <i type="logical" name="LELF"> F  </i>
   <i type="logical" name="LOPTICS"> F  </i>
   <v name="STM">      0.00000000      0.00000000      0.00000000      0.00000000      0.00000000      0.00000000      0.00000000</v>
  </separator>
  <separator name="performance" >
   <i type="int" name="NPAR">     1</i>
   <i type="int" name="NSIM">     4</i>
   <i type="int" name="NBLK">    -1</i>
   <i type="logical" name="LPLANE"> T  </i>
   <i type="logical" name="LSCALAPACK"> T  </i>
   <i type="logical" name="LSCAAWARE"> F  </i>
   <i type="logical" name="LSCALU"> F  </i>
   <i type="logical" name="LASYNC"> F  </i>
   <i type="logical" name="LORBITALREAL"> F  </i>
  </separator>
  <separator name="miscellaneous" >
   <i type="int" name="IDIOT">     3</i>
   <i type="int" name="PHON_NSTRUCT">    -1</i>
   <i type="logical" name="LMUSIC"> F  </i>
   <v name="POMASS">     24.30500000</v>
   <v name="DARWINR">      0.00000000</v>
   <v name="DARWINV">      1.00000000</v>
   <i type="logical" name="LCORR"> T  </i>
  </separator>
  <i type="logical" name="GGA_COMPAT"> T  </i>
  <i type="logical" name="LBERRY"> F  </i>
  <i type="int" name="ICORELEVEL">     1</i>
  <i type="int" name="CLNT">     1</i>
  <i type="int" name="CLN">     1</i>
  <i type="int" name="CLL">     0</i>
  <i name="CLZ">      0.00000000</i>
  <i type="logical" name="LDAU"> F  </i>
  <i type="int" name="I_CONSTRAINED_M">     0</i>
  <separator name="electronic exchange-correlation" >
   <i type="string" name="GGA">--</i>
   <i type="int" name="VOSKOWN">     0</i>
   <i type="logical" name="LHFCALC"> F  </i>
   <i type="string" name="PRECFOCK"></i>
   <i type="logical" name="LSYMGRAD"> F  </i>
   <i type="logical" name="LHFONE"> F  </i>
   <i type="logical" name="LRHFCALC"> F  </i>
   <i type="logical" name="LTHOMAS"> F  </i>
   <i type="logical" name="LMODELHF"> F  </i>
   <i type="logical" name="LFOCKACE"> F  </i>
   <i name="ENCUT4O">     -1.00000000</i>
   <i type="int" name="EXXOEP">     0</i>
   <i type="int" name="FOURORBIT">     0</i>
   <i name="AEXX">      0.00000000</i>
   <i name="HFALPHA">      0.00000000</i>
   <i name="MCALPHA">      0.00000000</i>
   <i name="ALDAX">      1.00000000</i>
   <i name="AGGAX">      1.00000000</i>
   <i name="ALDAC">      1.00000000</i>
   <i name="AGGAC">      1.00000000</i>
   <i type="int" name="NKREDX">     1</i>
   <i type="int" name="NKREDY">     1</i>
   <i type="int" name="NKREDZ">     1</i>
   <i type="logical" name="SHIFTRED"> F  </i>
   <i type="logical" name="ODDONLY"> F  </i>
   <i type="logical" name="EVENONLY"> F  </i>
   <i type="int" name="LMAXFOCK">     0</i>
   <i type="int" name="NMAXFOCKAE">     0</i>
   <i type="logical" name="LFOCKAEDFT"> F  </i>
   <i name="HFSCREEN">      0.00000000</i>
   <i name="HFSCREENC">      0.00000000</i>
   <i type="int" name="NBANDSGWLOW">     0</i>
  </separator>
  <separator name="vdW DFT" >
   <i type="logical" name="LUSE_VDW"> F  </i>
   <i type="int" name="IVDW_NL">     1</i>
   <i type="logical" name="LSPIN_VDW"> F  </i>
   <i name="Zab_VDW">     -0.84910000</i>
   <i name="PARAM1">      0.12340000</i>
   <i name="PARAM2">      1.00000000</i>
   <i name="PARAM3">      0.00000000</i>
  </separator>
  <separator name="model GW" >
   <i type="int" name="MODEL_GW">     0</i>
   <i name="MODEL_EPS0">     13.37101507</i>
   <i name="MODEL_ALPHA">      1.00000000</i>
  </separator>
  <separator name="linear response parameters" >
   <i type="logical" name="LEPSILON"> F  </i>
   <i type="logical" name="LRPA"> F  </i>
   <i type="logical" name="LNABLA"> F  </i>
   <i type="logical" name="LVEL"> F  </i>
   <i name="CSHIFT">      0.10000000</i>
   <i name="OMEGAMAX">     -1.00000000</i>
   <i name="DEG_THRESHOLD">      0.00200000</i>
   <i name="RTIME">     -0.10000000</i>
   <i name="WPLASMAI">      0.00000000</i>
   <v name="DFIELD">      0.00000000      0.00000000      0.00000000</v>
   <v name="WPLASMA">      0.00000000      0.00000000      0.00000000      0.00000000      0.00000000      0.00000000      0.00000000      0.00000000      0.00000000</v>
  </separator>
  <separator name="orbital magnetization" >
   <i type="logical" name="NUCIND"> F  </i>
   <v name="MAGPOS">      0.00000000      0.00000000      0.00000000</v>
   <i type="logical" name="LNICSALL"> T  </i>
   <i type="logical" name="ORBITALMAG"> F  </i>
   <i type="logical" name="LMAGBLOCH"> F  </i>
   <i type="logical" name="LCHIMAG"> F  </i>
   <i type="logical" name="LGAUGE"> T  </i>
   <i type="int" name="MAGATOM">     0</i>
   <v name="MAGDIPOL">      0.00000000      0.00000000      0.00000000</v>
   <v name="AVECCONST">      0.00000000      0.00000000      0.00000000</v>
  </separator>
  <separator name="response functions" >
   <i type="logical" name="LALL_IN_ONE"> F  </i>
   <i type="int" name="IALL_IN_ONE">    -1</i>
   <i type="int" name="NBANDS_WAVE">    -1</i>
   <i type="logical" name="LFINITE_TEMPERATURE"> F  </i>
   <i type="logical" name="LADDER"> F  </i>
   <i type="logical" name="LRPAFORCE"> F  </i>
   <i type="logical" name="LFXC"> F  </i>
   <i type="logical" name="LHARTREE"> T  </i>
   <i type="int" name="IBSE">     0</i>
   <v type="int" name="KPOINT">    -1     0     0     0</v>
   <i type="logical" name="LTCTC"> F  </i>
   <i type="logical" name="LTCTE"> F  </i>
   <i type="logical" name="LTETE"> F  </i>
   <i type="logical" name="LTRIPLET"> F  </i>
   <i type="logical" name="LFXCEPS"> F  </i>
   <i type="logical" name="LFXHEG"> F  </i>
   <i type="int" name="NATURALO">     2</i>
   <i type="logical" name="LHOLEGF"> F  </i>
   <i type="logical" name="L2ORDER"> F  </i>
   <i type="logical" name="LDMP1"> F  </i>
   <i type="logical" name="LMP2LT"> F  </i>
   <i type="logical" name="LSMP2LT"> F  </i>
   <i type="logical" name="LGWLF"> F  </i>
   <i name="ENCUTGW">     -1.60000002</i>
   <i name="ENCUTGWSOFT">     -1.60000002</i>
   <i name="ENCUTLF">     -1.00000000</i>
   <i type="logical" name="LESF_SPLINES"> F  </i>
   <i type="int" name="LMAXMP2">    -1</i>
   <i name="SCISSOR">      0.00000000</i>
   <i type="int" name="NOMEGA">     0</i>
   <i type="int" name="NOMEGAR">     0</i>
   <i type="int" name="NBANDSGW">    -1</i>
   <i type="int" name="NBANDSO">    -1</i>
   <i type="int" name="NBANDSV">    -1</i>
   <i type="int" name="NELMGW">     1</i>
   <i type="int" name="NELMHF">     1</i>
   <i type="int" name="DIM">     3</i>
   <i type="int" name="IESPILON">     4</i>
   <i type="int" name="ANTIRES">     0</i>
   <i name="OMEGAMAX">    -30.00000000</i>
   <i name="OMEGAMIN">    -30.00000000</i>
   <i name="OMEGATL">   -200.00000000</i>
   <i type="int" name="OMEGAGRID">     0</i>
   <i name="CSHIFT">     -0.10000000</i>
   <i type="logical" name="LSELFENERGY"> F  </i>
   <i type="logical" name="LSPECTRAL"> F  </i>
   <i type="logical" name="LSPECTRALGW"> F  </i>
   <i type="logical" name="LSINGLES"> F  </i>
   <i type="logical" name="LFERMIGW"> F  </i>
   <i type="logical" name="ODDONLYGW"> F  </i>
   <i type="logical" name="EVENONLYGW"> F  </i>
   <i type="int" name="NKREDLFX">     1</i>
   <i type="int" name="NKREDLFY">     1</i>
   <i type="int" name="NKREDLFZ">     1</i>
   <i type="int" name="MAXMEM">  2800</i>
   <i type="int" name="TELESCOPE">     0</i>
   <i type="int" name="NTAUPAR">    -1</i>
   <i type="int" name="NOMEGAPAR">    -1</i>
   <i name="DAMP_NEWTON">      0.80000001</i>
   <i name="LAMBDA">      1.00000000</i>
  </separator>
  <separator name="External order field" >
   <i name="OFIELD_KAPPA">      0.00000000</i>
   <v name="OFIELD_K">      0.00000000      0.00000000      0.00000000</v>
   <i name="OFIELD_Q6_NEAR">      0.00000000</i>
   <i name="OFIELD_Q6_FAR">      0.00000000</i>
   <i name="OFIELD_A">      0.00000000</i>
  </separator>
  <separator name="optional k-points parameters" >
   <i type="int" name="KPOINTS_OPT_MODE">     1</i>
   <i type="logical" name="LKPOINTS_OPT"> F  </i>
  </separator>
 </parameters>
 <atominfo>
  <atoms>       2 </atoms>
  <types>       1 </types>
  <array name="atoms" >
   <dimension dim="1">ion</dimension>
   <field type="string">element</field>
   <field type="int">atomtype</field>
   <set>
    <rc><c>Mg</c><c>   1</c></rc>
    <rc><c>Mg</c><c>   1</c></rc>
   </set>
  </array>
  <array name="atomtypes" >
   <dimension dim="1">type</dimension>
   <field type="int">atomspertype</field>
   <field type="string">element</field>
   <field>mass</field>
   <field>valence</field>
   <field type="string">pseudopotential</field>
   <set>
    <rc><c>   2</c><c>Mg</c><c>     24.30500000</c><c>      2.00000000</c><c>  PAW_PBE Mg 13Apr2007                  </c></rc>
   </set>
  </array>
 </atominfo>
 <structure name="initialpos" >
  <crystal>
   <varray name="basis" >
    <v>       3.54552899       0.00000000       0.00000000 </v>
    <v>      -0.00000000       3.54552899       0.00000000 </v>
    <v>       0.00000000       0.00000000       3.54552899 </v>
   </varray>
   <i name="volume">     44.57005022 </i>
   <varray name="rec_basis" >
    <v>       0.28204536       0.00000000      -0.00000000 </v>
    <v>       0.00000000       0.28204536       0.00000000 </v>
    <v>      -0.00000000      -0.00000000       0.28204536 </v>
   </varray>
  </crystal>
  <varray name="positions" >
   <v>       0.00000000       0.00000000       0.00000000 </v>
   <v>       0.50000000       0.50000000       0.50000000 </v>
  </varray>
 </structure>
 <calculation>
  <scstep>
   <time name="dav">    0.05    0.05</time>
   <time name="total">    0.07    0.07</time>
   <energy>
    <i name="alphaZ">      4.03909888 </i>
    <i name="ewald">    -59.12143154 </i>
    <i name="hartreedc">    -12.22148558 </i>
    <i name="XCdc">    -97.59529636 </i>
    <i name="pawpsdc">  27512.13885922 </i>
    <i name="pawaedc"> -27407.72012026 </i>
    <i name="eentropy">     -0.00000000 </i>
    <i name="bandstr">      3.60994404 </i>
    <i name="atom">     46.07364995 </i>
    <i name="e_fr_energy">    -10.79678166 </i>
    <i name="e_wo_entrp">    -10.79678166 </i>
    <i name="e_0_energy">    -10.79678166 </i>
   </energy>
  </scstep>
  <scstep>
   <time name="dav">    0.02    0.02</time>
   <time name="total">    0.02    0.02</time>
   <energy>
    <i name="e_fr_energy">    -14.47590277 </i>
    <i name="e_wo_entrp">    -14.47590277 </i>
    <i name="e_0_energy">    -14.47590277 </i>
   </energy>
  </scstep>
  <scstep>
   <time name="dav">    0.03    0.03</time>
   <time name="total">    0.03    0.03</time>
   <energy>
    <i name="e_fr_energy">    -14.51535861 </i>
    <i name="e_wo_entrp">    -14.51535861 </i>
    <i name="e_0_energy">    -14.51535861 </i>
   </energy>
  </scstep>
  <scstep>
   <time name="dav">    0.03    0.03</time>
   <time name="total">    0.03    0.03</time>
   <energy>
    <i name="e_fr_energy">    -14.51539467 </i>
    <i name="e_wo_entrp">    -14.51539467 </i>
    <i name="e_0_energy">    -14.51539467 </i>
   </energy>
  </scstep>
  <scstep>
   <time name="dav">    0.03    0.03</time>
   <time name="total">    0.03    0.03</time>
   <energy>
    <i name="e_fr_energy">    -14.51539468 </i>
    <i name="e_wo_entrp">    -14.51539468 </i>
    <i name="e_0_energy">    -14.51539468 </i>
   </energy>
  </scstep>
  <scstep>
   <time name="dav">    0.02    0.02</time>
   <time name="total">    0.03    0.03</time>
   <energy>
    <i name="e_fr_energy">     -7.29250131 </i>
    <i name="e_wo_entrp">     -7.29250131 </i>
    <i name="e_0_energy">     -7.29250131 </i>
   </energy>
  </scstep>
  <scstep>
   <time name="dav">    0.02    0.02</time>
   <time name="total">    0.04    0.04</time>
   <energy>
    <i name="e_fr_energy">     -2.89049712 </i>
    <i name="e_wo_entrp">     -2.89049698 </i>
    <i name="e_0_energy">     -2.89049705 </i>
   </energy>
  </scstep>
  <scstep>
   <time name="dav">    0.03    0.03</time>
   <time name="total">    0.04    0.04</time>
   <energy>
    <i name="e_fr_energy">     -2.86488646 </i>
    <i name="e_wo_entrp">     -2.86488462 </i>
    <i name="e_0_energy">     -2.86488554 </i>
   </energy>
  </scstep>
  <scstep>
   <time name="dav">    0.02    0.02</time>
   <time name="total">    0.03    0.03</time>
   <energy>
    <i name="e_fr_energy">     -2.88579504 </i>
    <i name="e_wo_entrp">     -2.88579497 </i>
    <i name="e_0_energy">     -2.88579500 </i>
   </energy>
  </scstep>
  <scstep>
   <time name="dav">    0.02    0.02</time>
   <time name="total">    0.03    0.03</time>
   <energy>
    <i name="e_fr_energy">     -2.75113153 </i>
    <i name="e_wo_entrp">     -2.74930225 </i>
    <i name="e_0_energy">     -2.75021689 </i>
   </energy>
  </scstep>
  <scstep>
   <time name="dav">    0.02    0.02</time>
   <time name="total">    0.03    0.03</time>
   <energy>
    <i name="e_fr_energy">     -2.79984579 </i>
    <i name="e_wo_entrp">     -2.79977145 </i>
    <i name="e_0_energy">     -2.79980862 </i>
   </energy>
  </scstep>
  <scstep>
   <time name="dav">    0.02    0.02</time>
   <time name="total">    0.03    0.03</time>
   <energy>
    <i name="e_fr_energy">     -2.70018059 </i>
    <i name="e_wo_entrp">     -2.67976555 </i>
    <i name="e_0_energy">     -2.68997307 </i>
   </energy>
  </scstep>
  <scstep>
   <time name="dav">    0.03    0.03</time>
   <time name="total">    0.04    0.04</time>
   <energy>
    <i name="e_fr_energy">     -2.69927560 </i>
    <i name="e_wo_entrp">     -2.67815910 </i>
    <i name="e_0_energy">     -2.68871735 </i>
   </energy>
  </scstep>
  <scstep>
   <time name="dav">    0.02    0.02</time>
   <time name="total">    0.03    0.03</time>
   <energy>
    <i name="e_fr_energy">     -2.70094823 </i>
    <i name="e_wo_entrp">     -2.68112104 </i>
    <i name="e_0_energy">     -2.69103463 </i>
   </energy>
  </scstep>
  <scstep>
   <time name="dav">    0.02    0.02</time>
   <time name="total">    0.03    0.03</time>
   <energy>
    <i name="e_fr_energy">     -2.69929543 </i>
    <i name="e_wo_entrp">     -2.67820296 </i>
    <i name="e_0_energy">     -2.68874919 </i>
   </energy>
  </scstep>
  <scstep>
   <time name="dav">    0.03    0.03</time>
   <time name="total">    0.04    0.04</time>
   <energy>
    <i name="e_fr_energy">     -2.69921579 </i>
    <i name="e_wo_entrp">     -2.67806098 </i>
    <i name="e_0_energy">     -2.68863839 </i>
   </energy>
  </scstep>
  <scstep>
   <time name="dav">    0.01    0.01</time>
   <time name="total">    0.04    0.04</time>
   <energy>
    <i name="alphaZ">      4.03909888 </i>
    <i name="ewald">    -59.12143154 </i>
    <i name="hartreedc">     -0.11107737 </i>
    <i name="XCdc">    -97.57894986 </i>
    <i name="pawpsdc">    117.92201854 </i>
    <i name="pawaedc">    -14.21119223 </i>
    <i name="eentropy">     -0.02115511 </i>
    <i name="bandstr">      0.30982324 </i>
    <i name="atom">     46.07364995 </i>
    <i name="e_fr_energy">     -2.69921551 </i>
    <i name="e_wo_entrp">     -2.67806040 </i>
    <i name="e_0_energy">     -2.68863795 </i>
   </energy>
  </scstep>
  <structure>
   <crystal>
    <varray name="basis" >
     <v>       3.54552899       0.00000000       0.00000000 </v>
     <v>      -0.00000000       3.54552899       0.00000000 </v>
     <v>       0.00000000       0.00000000       3.54552899 </v>
    </varray>
    <i name="volume">     44.57005022 </i>
    <varray name="rec_basis" >
     <v>       0.28204536       0.00000000      -0.00000000 </v>
     <v>       0.00000000       0.28204536       0.00000000 </v>
     <v>      -0.00000000      -0.00000000       0.28204536 </v>
    </varray>
   </crystal>
   <varray name="positions" >
    <v>       0.00000000       0.00000000       0.00000000 </v>
    <v>       0.50000000       0.50000000       0.50000000 </v>
   </varray>
  </structure>
  <varray name="forces" >
   <v>       0.00000501      -0.00000387       0.00000030 </v>
   <v>      -0.00000501       0.00000387      -0.00000030 </v>
  </varray>
  <varray name="stress" >
   <v>      14.00720890      -0.00017205      -0.00035894 </v>
   <v>      -0.00017204      14.00676273       0.00006610 </v>
   <v>      -0.00035894       0.00006610      14.00667635 </v>
  </varray>
  <energy>
   <i name="e_fr_energy">     -2.69921551 </i>
   <i name="e_wo_entrp">     -2.67806040 </i>
   <i name="e_0_energy">     -2.68863795 </i>
  </energy>
  <time name="totalsc">    0.74    0.84</time>
  <eigenvalues>
   <array>
    <dimension dim="1">band</dimension>
    <dimension dim="2">kpoint</dimension>
    <dimension dim="3">spin</dimension>
    <field>eigene</field>
    <field>occ</field>
    <set>
     <set comment="spin 1">
      <set comment="kpoint 1">
       <r>   -4.2669    1.0000 </r>
       <r>    6.7514    0.0000 </r>
       <r>    6.7514    0.0000 </r>
       <r>    6.7514    0.0000 </r>
       <r>    6.8201    0.0000 </r>
       <r>    6.8201    0.0000 </r>
      </set>
      <set comment="kpoint 2">
       <r>   -1.3103    1.0000 </r>
       <r>   -1.3098    1.0000 </r>
       <r>    9.3227    0.0000 </r>
       <r>    9.3227    0.0000 </r>
       <r>    9.3233    0.0000 </r>
       <r>    9.3233    0.0000 </r>
      </set>
      <set comment="kpoint 3">
       <r>   -1.3103    1.0000 </r>
       <r>   -1.3098    1.0000 </r>
       <r>    9.3227    0.0000 </r>
       <r>    9.3227    0.0000 </r>
       <r>    9.3233    0.0000 </r>
       <r>    9.3233    0.0000 </r>
      </set>
      <set comment="kpoint 4">
       <r>   -1.3103    1.0000 </r>
       <r>   -1.3098    1.0000 </r>
       <r>    9.3227    0.0000 </r>
       <r>    9.3227    0.0000 </r>
       <r>    9.3233    0.0000 </r>
       <r>    9.3233    0.0000 </r>
      </set>
      <set comment="kpoint 5">
       <r>    1.2778    1.0000 </r>
       <r>    1.2778    1.0000 </r>
       <r>    1.8995    0.5055 </r>
       <r>    1.9005    0.4945 </r>
       <r>   11.5415    0.0000 </r>
       <r>   11.5415    0.0000 </r>
      </set>
      <set comment="kpoint 6">
       <r>    1.2778    1.0000 </r>
       <r>    1.2778    1.0000 </r>
       <r>    1.8995    0.5055 </r>
       <r>    1.9005    0.4945 </r>
       <r>   11.5415    0.0000 </r>
       <r>   11.5415    0.0000 </r>
      </set>
      <set comment="kpoint 7">
       <r>    1.2778    1.0000 </r>
       <r>    1.2778    1.0000 </r>
       <r>    1.8995    0.5055 </r>
       <r>    1.9005    0.4945 </r>
       <r>   11.5415    0.0000 </r>
       <r>   11.5415    0.0000 </r>
      </set>
      <set comment="kpoint 8">
       <r>    4.0083    0.0000 </r>
       <r>    4.0084    0.0000 </r>
       <r>    4.0084    0.0000 </r>
       <r>    4.0090    0.0000 </r>
       <r>    4.0090    0.0000 </r>
       <r>    4.0090    0.0000 </r>
      </set>
     </set>
    </set>
   </array>
  </eigenvalues>
  <separator name="orbital magnetization" >
   <v name="MAGDIPOLOUT">      0.00000000      0.00000000      0.00000000</v>
  </separator>
  <dos>
   <i name="efermi">      1.89996855 </i>
   <total>
    <array>
     <dimension dim="1">gridpoints</dimension>
     <dimension dim="2">spin</dimension>
     <field>energy</field>
     <field>total</field>
     <field>integrated</field>
     <set>
      <set comment="spin 1">
       <r>    -5.0573     0.0000     0.0000 </r>
       <r>    -4.9993     0.0000     0.0000 </r>
       <r>    -4.9414     0.0000     0.0000 </r>
       <r>    -4.8834     0.0000     0.0000 </r>
       <r>    -4.8254     0.0000     0.0000 </r>
       <r>    -4.7675     0.0000     0.0000 </r>
       <r>    -4.7095     0.0000     0.0000 </r>
       <r>    -4.6516     0.0000     0.0000 </r>
       <r>    -4.5936     0.0000     0.0000 </r>
       <r>    -4.5356     0.0000     0.0000 </r>
       <r>    -4.4777     0.0000     0.0000 </r>
       <r>    -4.4197     0.0000     0.0000 </r>
       <r>    -4.3617     0.0157     0.0009 </r>
       <r>    -4.3038     0.6243     0.0371 </r>
       <r>    -4.2458     2.4846     0.1811 </r>
       <r>    -4.1878     1.1336     0.2468 </r>
       <r>    -4.1299     0.0545     0.2500 </r>
       <r>    -4.0719     0.0002     0.2500 </r>
       <r>    -4.0139     0.0000     0.2500 </r>
       <r>    -3.9560     0.0000     0.2500 </r>
       <r>    -3.8980     0.0000     0.2500 </r>
       <r>    -3.8401     0.0000     0.2500 </r>
       <r>    -3.7821     0.0000     0.2500 </r>
       <r>    -3.7241     0.0000     0.2500 </r>
       <r>    -3.6662     0.0000     0.2500 </r>
       <r>    -3.6082     0.0000     0.2500 </r>
       <r>    -3.5502     0.0000     0.2500 </r>
       <r>    -3.4923     0.0000     0.2500 </r>
       <r>    -3.4343     0.0000     0.2500 </r>
       <r>    -3.3763     0.0000     0.2500 </r>
       <r>    -3.3184     0.0000     0.2500 </r>
       <r>    -3.2604     0.0000     0.2500 </r>
       <r>    -3.2024     0.0000     0.2500 </r>
       <r>    -3.1445     0.0000     0.2500 </r>
       <r>    -3.0865     0.0000     0.2500 </r>
       <r>    -3.0286     0.0000     0.2500 </r>
       <r>    -2.9706     0.0000     0.2500 </r>
       <r>    -2.9126     0.0000     0.2500 </r>
       <r>    -2.8547     0.0000     0.2500 </r>
       <r>    -2.7967     0.0000     0.2500 </r>
       <r>    -2.7387     0.0000     0.2500 </r>
       <r>    -2.6808     0.0000     0.2500 </r>
       <r>    -2.6228     0.0000     0.2500 </r>
       <r>    -2.5648     0.0000     0.2500 </r>
       <r>    -2.5069     0.0000     0.2500 </r>
       <r>    -2.4489     0.0000     0.2500 </r>
       <r>    -2.3909     0.0000     0.2500 </r>
       <r>    -2.3330     0.0000     0.2500 </r>
       <r>    -2.2750     0.0000     0.2500 </r>
       <r>    -2.2171     0.0000     0.2500 </r>
       <r>    -2.1591     0.0000     0.2500 </r>
       <r>    -2.1011     0.0000     0.2500 </r>
       <r>    -2.0432     0.0000     0.2500 </r>
       <r>    -1.9852     0.0000     0.2500 </r>
       <r>    -1.9272     0.0000     0.2500 </r>
       <r>    -1.8693     0.0000     0.2500 </r>
       <r>    -1.8113     0.0000     0.2500 </r>
       <r>    -1.7533     0.0000     0.2500 </r>
       <r>    -1.6954     0.0000     0.2500 </r>
       <r>    -1.6374     0.0000     0.2500 </r>
       <r>    -1.5794     0.0000     0.2500 </r>
       <r>    -1.5215     0.0000     0.2500 </r>
       <r>    -1.4635     0.0002     0.2500 </r>
       <r>    -1.4056     0.0892     0.2552 </r>
       <r>    -1.3476     3.6416     0.4663 </r>
       <r>    -1.2896    14.8564     1.3274 </r>
       <r>    -1.2317     6.9463     1.7300 </r>
       <r>    -1.1737     0.3429     1.7499 </r>
       <r>    -1.1157     0.0015     1.7500 </r>
       <r>    -1.0578     0.0000     1.7500 </r>
       <r>    -0.9998     0.0000     1.7500 </r>
       <r>    -0.9418     0.0000     1.7500 </r>
       <r>    -0.8839     0.0000     1.7500 </r>
       <r>    -0.8259     0.0000     1.7500 </r>
       <r>    -0.7679     0.0000     1.7500 </r>
       <r>    -0.7100     0.0000     1.7500 </r>
       <r>    -0.6520     0.0000     1.7500 </r>
       <r>    -0.5941     0.0000     1.7500 </r>
       <r>    -0.5361     0.0000     1.7500 </r>
       <r>    -0.4781     0.0000     1.7500 </r>
       <r>    -0.4202     0.0000     1.7500 </r>
       <r>    -0.3622     0.0000     1.7500 </r>
       <r>    -0.3042     0.0000     1.7500 </r>
       <r>    -0.2463     0.0000     1.7500 </r>
       <r>    -0.1883     0.0000     1.7500 </r>
       <r>    -0.1303     0.0000     1.7500 </r>
       <r>    -0.0724     0.0000     1.7500 </r>
       <r>    -0.0144     0.0000     1.7500 </r>
       <r>     0.0436     0.0000     1.7500 </r>
       <r>     0.1015     0.0000     1.7500 </r>
       <r>     0.1595     0.0000     1.7500 </r>
       <r>     0.2174     0.0000     1.7500 </r>
       <r>     0.2754     0.0000     1.7500 </r>
       <r>     0.3334     0.0000     1.7500 </r>
       <r>     0.3913     0.0000     1.7500 </r>
       <r>     0.4493     0.0000     1.7500 </r>
       <r>     0.5073     0.0000     1.7500 </r>
       <r>     0.5652     0.0000     1.7500 </r>
       <r>     0.6232     0.0000     1.7500 </r>
       <r>     0.6812     0.0000     1.7500 </r>
       <r>     0.7391     0.0000     1.7500 </r>
       <r>     0.7971     0.0000     1.7500 </r>
       <r>     0.8551     0.0000     1.7500 </r>
       <r>     0.9130     0.0000     1.7500 </r>
       <r>     0.9710     0.0000     1.7500 </r>
       <r>     1.0289     0.0000     1.7500 </r>
       <r>     1.0869     0.0000     1.7500 </r>
       <r>     1.1449     0.0022     1.7501 </r>
       <r>     1.2028     0.4385     1.7755 </r>
       <r>     1.2608     7.7278     2.2235 </r>
       <r>     1.3188    14.5237     3.0653 </r>
       <r>     1.3767     3.1195     3.2462 </r>
       <r>     1.4347     0.0662     3.2500 </r>
       <r>     1.4927     0.0001     3.2500 </r>
       <r>     1.5506     0.0000     3.2500 </r>
       <r>     1.6086     0.0000     3.2500 </r>
       <r>     1.6665     0.0000     3.2500 </r>
       <r>     1.7245     0.0000     3.2500 </r>
       <r>     1.7825     0.0115     3.2507 </r>
       <r>     1.8404     1.1825     3.3192 </r>
       <r>     1.8984    11.2891     3.9736 </r>
       <r>     1.9564    11.9628     4.6670 </r>
       <r>     2.0143     1.4163     4.7491 </r>
       <r>     2.0723     0.0158     4.7500 </r>
       <r>     2.1303     0.0000     4.7500 </r>
       <r>     2.1882     0.0000     4.7500 </r>
       <r>     2.2462     0.0000     4.7500 </r>
       <r>     2.3042     0.0000     4.7500 </r>
       <r>     2.3621     0.0000     4.7500 </r>
       <r>     2.4201     0.0000     4.7500 </r>
       <r>     2.4780     0.0000     4.7500 </r>
       <r>     2.5360     0.0000     4.7500 </r>
       <r>     2.5940     0.0000     4.7500 </r>
       <r>     2.6519     0.0000     4.7500 </r>
       <r>     2.7099     0.0000     4.7500 </r>
       <r>     2.7679     0.0000     4.7500 </r>
       <r>     2.8258     0.0000     4.7500 </r>
       <r>     2.8838     0.0000     4.7500 </r>
       <r>     2.9418     0.0000     4.7500 </r>
       <r>     2.9997     0.0000     4.7500 </r>
       <r>     3.0577     0.0000     4.7500 </r>
       <r>     3.1157     0.0000     4.7500 </r>
       <r>     3.1736     0.0000     4.7500 </r>
       <r>     3.2316     0.0000     4.7500 </r>
       <r>     3.2895     0.0000     4.7500 </r>
       <r>     3.3475     0.0000     4.7500 </r>
       <r>     3.4055     0.0000     4.7500 </r>
       <r>     3.4634     0.0000     4.7500 </r>
       <r>     3.5214     0.0000     4.7500 </r>
       <r>     3.5794     0.0000     4.7500 </r>
       <r>     3.6373     0.0000     4.7500 </r>
       <r>     3.6953     0.0000     4.7500 </r>
       <r>     3.7533     0.0000     4.7500 </r>
       <r>     3.8112     0.0000     4.7500 </r>
       <r>     3.8692     0.0010     4.7501 </r>
       <r>     3.9272     0.2726     4.7659 </r>
       <r>     3.9851     6.2665     5.1291 </r>
       <r>     4.0431    15.0640     6.0023 </r>
       <r>     4.1010     4.1577     6.2433 </r>
       <r>     4.1590     0.1159     6.2500 </r>
       <r>     4.2170     0.0003     6.2500 </r>
       <r>     4.2749     0.0000     6.2500 </r>
       <r>     4.3329     0.0000     6.2500 </r>
       <r>     4.3909     0.0000     6.2500 </r>
       <r>     4.4488     0.0000     6.2500 </r>
       <r>     4.5068     0.0000     6.2500 </r>
       <r>     4.5648     0.0000     6.2500 </r>
       <r>     4.6227     0.0000     6.2500 </r>
       <r>     4.6807     0.0000     6.2500 </r>
       <r>     4.7387     0.0000     6.2500 </r>
       <r>     4.7966     0.0000     6.2500 </r>
       <r>     4.8546     0.0000     6.2500 </r>
       <r>     4.9125     0.0000     6.2500 </r>
       <r>     4.9705     0.0000     6.2500 </r>
       <r>     5.0285     0.0000     6.2500 </r>
       <r>     5.0864     0.0000     6.2500 </r>
       <r>     5.1444     0.0000     6.2500 </r>
       <r>     5.2024     0.0000     6.2500 </r>
       <r>     5.2603     0.0000     6.2500 </r>
       <r>     5.3183     0.0000     6.2500 </r>
       <r>     5.3763     0.0000     6.2500 </r>
       <r>     5.4342     0.0000     6.2500 </r>
       <r>     5.4922     0.0000     6.2500 </r>
       <r>     5.5502     0.0000     6.2500 </r>
       <r>     5.6081     0.0000     6.2500 </r>
       <r>     5.6661     0.0000     6.2500 </r>
       <r>     5.7240     0.0000     6.2500 </r>
       <r>     5.7820     0.0000     6.2500 </r>
       <r>     5.8400     0.0000     6.2500 </r>
       <r>     5.8979     0.0000     6.2500 </r>
       <r>     5.9559     0.0000     6.2500 </r>
       <r>     6.0139     0.0000     6.2500 </r>
       <r>     6.0718     0.0000     6.2500 </r>
       <r>     6.1298     0.0000     6.2500 </r>
       <r>     6.1878     0.0000     6.2500 </r>
       <r>     6.2457     0.0000     6.2500 </r>
       <r>     6.3037     0.0000     6.2500 </r>
       <r>     6.3617     0.0000     6.2500 </r>
       <r>     6.4196     0.0000     6.2500 </r>
       <r>     6.4776     0.0000     6.2500 </r>
       <r>     6.5355     0.0000     6.2500 </r>
       <r>     6.5935     0.0001     6.2500 </r>
       <r>     6.6515     0.0304     6.2518 </r>
       <r>     6.7094     1.4991     6.3387 </r>
       <r>     6.7674     7.7850     6.7899 </r>
       <r>     6.8254     8.2105     7.2658 </r>
       <r>     6.8833     3.7204     7.4815 </r>
       <r>     6.9413     0.3169     7.4998 </r>
       <r>     6.9993     0.0026     7.5000 </r>
       <r>     7.0572     0.0000     7.5000 </r>
       <r>     7.1152     0.0000     7.5000 </r>
       <r>     7.1732     0.0000     7.5000 </r>
       <r>     7.2311     0.0000     7.5000 </r>
       <r>     7.2891     0.0000     7.5000 </r>
       <r>     7.3470     0.0000     7.5000 </r>
       <r>     7.4050     0.0000     7.5000 </r>
       <r>     7.4630     0.0000     7.5000 </r>
       <r>     7.5209     0.0000     7.5000 </r>
       <r>     7.5789     0.0000     7.5000 </r>
       <r>     7.6369     0.0000     7.5000 </r>
       <r>     7.6948     0.0000     7.5000 </r>
       <r>     7.7528     0.0000     7.5000 </r>
       <r>     7.8108     0.0000     7.5000 </r>
       <r>     7.8687     0.0000     7.5000 </r>
       <r>     7.9267     0.0000     7.5000 </r>
       <r>     7.9847     0.0000     7.5000 </r>
       <r>     8.0426     0.0000     7.5000 </r>
       <r>     8.1006     0.0000     7.5000 </r>
       <r>     8.1585     0.0000     7.5000 </r>
       <r>     8.2165     0.0000     7.5000 </r>
       <r>     8.2745     0.0000     7.5000 </r>
       <r>     8.3324     0.0000     7.5000 </r>
       <r>     8.3904     0.0000     7.5000 </r>
       <r>     8.4484     0.0000     7.5000 </r>
       <r>     8.5063     0.0000     7.5000 </r>
       <r>     8.5643     0.0000     7.5000 </r>
       <r>     8.6223     0.0000     7.5000 </r>
       <r>     8.6802     0.0000     7.5000 </r>
       <r>     8.7382     0.0000     7.5000 </r>
       <r>     8.7962     0.0000     7.5000 </r>
       <r>     8.8541     0.0000     7.5000 </r>
       <r>     8.9121     0.0000     7.5000 </r>
       <r>     8.9700     0.0000     7.5000 </r>
       <r>     9.0280     0.0000     7.5000 </r>
       <r>     9.0860     0.0000     7.5000 </r>
       <r>     9.1439     0.0000     7.5000 </r>
       <r>     9.2019     0.0159     7.5009 </r>
       <r>     9.2599     1.9035     7.6113 </r>
       <r>     9.3178    20.9517     8.8257 </r>
       <r>     9.3758    25.3819    10.2969 </r>
       <r>     9.4338     3.4582    10.4974 </r>
       <r>     9.4917     0.0448    10.5000 </r>
       <r>     9.5497     0.0000    10.5000 </r>
       <r>     9.6077     0.0000    10.5000 </r>
       <r>     9.6656     0.0000    10.5000 </r>
       <r>     9.7236     0.0000    10.5000 </r>
       <r>     9.7815     0.0000    10.5000 </r>
       <r>     9.8395     0.0000    10.5000 </r>
       <r>     9.8975     0.0000    10.5000 </r>
       <r>     9.9554     0.0000    10.5000 </r>
       <r>    10.0134     0.0000    10.5000 </r>
       <r>    10.0714     0.0000    10.5000 </r>
       <r>    10.1293     0.0000    10.5000 </r>
       <r>    10.1873     0.0000    10.5000 </r>
       <r>    10.2453     0.0000    10.5000 </r>
       <r>    10.3032     0.0000    10.5000 </r>
       <r>    10.3612     0.0000    10.5000 </r>
       <r>    10.4192     0.0000    10.5000 </r>
       <r>    10.4771     0.0000    10.5000 </r>
       <r>    10.5351     0.0000    10.5000 </r>
       <r>    10.5930     0.0000    10.5000 </r>
       <r>    10.6510     0.0000    10.5000 </r>
       <r>    10.7090     0.0000    10.5000 </r>
       <r>    10.7669     0.0000    10.5000 </r>
       <r>    10.8249     0.0000    10.5000 </r>
       <r>    10.8829     0.0000    10.5000 </r>
       <r>    10.9408     0.0000    10.5000 </r>
       <r>    10.9988     0.0000    10.5000 </r>
       <r>    11.0568     0.0000    10.5000 </r>
       <r>    11.1147     0.0000    10.5000 </r>
       <r>    11.1727     0.0000    10.5000 </r>
       <r>    11.2307     0.0000    10.5000 </r>
       <r>    11.2886     0.0000    10.5000 </r>
       <r>    11.3466     0.0000    10.5000 </r>
       <r>    11.4045     0.0014    10.5001 </r>
       <r>    11.4625     0.3270    10.5190 </r>
       <r>    11.5205     6.8025    10.9133 </r>
       <r>    11.5784    14.9072    11.7774 </r>
       <r>    11.6364     3.7454    11.9945 </r>
       <r>    11.6944     0.0942    12.0000 </r>
       <r>    11.7523     0.0002    12.0000 </r>
       <r>    11.8103     0.0000    12.0000 </r>
       <r>    11.8683     0.0000    12.0000 </r>
       <r>    11.9262     0.0000    12.0000 </r>
       <r>    11.9842     0.0000    12.0000 </r>
       <r>    12.0421     0.0000    12.0000 </r>
       <r>    12.1001     0.0000    12.0000 </r>
       <r>    12.1581     0.0000    12.0000 </r>
       <r>    12.2160     0.0000    12.0000 </r>
       <r>    12.2740     0.0000    12.0000 </r>
       <r>    12.3320     0.0000    12.0000 </r>
      </set>
     </set>
    </array>
   </total>
  </dos>
 </calculation>
 <structure name="finalpos" >
  <crystal>
   <varray name="basis" >
    <v>       3.54552899       0.00000000       0.00000000 </v>
    <v>      -0.00000000       3.54552899       0.00000000 </v>
    <v>       0.00000000       0.00000000       3.54552899 </v>
   </varray>
   <i name="volume">     44.57005022 </i>
   <varray name="rec_basis" >
    <v>       0.28204536       0.00000000      -0.00000000 </v>
    <v>       0.00000000       0.28204536       0.00000000 </v>
    <v>      -0.00000000      -0.00000000       0.28204536 </v>
   </varray>
  </crystal>
  <varray name="positions" >
   <v>       0.00000000       0.00000000       0.00000000 </v>
   <v>       0.50000000       0.50000000       0.50000000 </v>
  </varray>
 </structure>
</modeling>
