 running    4 mpi-ranks, on    1 nodes
 distrk:  each k-point on    1 cores,    4 groups
 distr:  one band on    1 cores,    1 groups
 OpenACC runtime initialized ...    4 GPUs detected
 vasp.6.4.2 20Jul23 (build Nov 12 2023 22:16:35) complex                         
 POSCAR found type information on POSCAR GaO N Fe
 POSCAR found :  4 types and     120 ions
 scaLAPACK will be used selectively (only on CPU)
 LDA part: xc-table for Pade appr. of Perdew
 POSCAR, INCAR and KPOINTS ok, starting setup
 FFT: planning ... GRIDC
 FFT: planning ... GRID_SOFT
 FFT: planning ... GRID
 WAVECAR not read
 entering main loop
       N       E                     dE             d eps       ncg     rms          rms(c)
DAV:   1     0.218473923329E+05    0.21847E+05   -0.32061E+05 10080   0.281E+03
DAV:   2     0.486502290638E+04   -0.16982E+05   -0.16007E+05 10080   0.817E+02
DAV:   3    -0.136877351248E+03   -0.50019E+04   -0.46957E+04 12800   0.321E+02
DAV:   4    -0.784716976336E+03   -0.64784E+03   -0.63175E+03 12416   0.123E+02
DAV:   5    -0.832397661184E+03   -0.47681E+02   -0.47172E+02 14704   0.359E+01BRMIX: very serious problems
 the old and the new charge density differ
 old charge density:  1050.00000 new 1050.99974
BRMIX: very serious problems
 the old and the new charge density differ
 old charge density:  1050.00000 new 1050.99974
BRMIX: very serious problems
 the old and the new charge density differ
 old charge density:  1050.00000 new 1050.99974
BRMIX: very serious problems
 the old and the new charge density differ
 old charge density:  1050.00000 new 1050.99974
    0.757E+01
RMM:   6    -0.849846006012E+03   -0.17448E+02   -0.84578E+02 13906   0.338E+01    0.230E+02
RMM:   7    -0.808495361598E+03    0.41351E+02   -0.87139E+01 15418   0.116E+01    0.147E+02
RMM:   8    -0.717657582725E+03    0.90838E+02   -0.49362E+01 13068   0.653E+00    0.437E+01
RMM:   9    -0.717460467968E+03    0.19711E+00   -0.72897E+00 12858   0.368E+00    0.243E+01
RMM:  10    -0.714131089527E+03    0.33294E+01   -0.80203E+00 12931   0.340E+00    0.195E+01
RMM:  11    -0.713643260577E+03    0.48783E+00   -0.24598E+00 13712   0.198E+00    0.146E+01
RMM:  12    -0.712495107298E+03    0.11482E+01   -0.93326E-01 14245   0.133E+00    0.687E+00
RMM:  13    -0.712057437824E+03    0.43767E+00   -0.44521E-01 14922   0.747E-01    0.464E+00
RMM:  14    -0.711907890852E+03    0.14955E+00   -0.14235E-01 14785   0.368E-01    0.357E+00
RMM:  15    -0.711730385584E+03    0.17751E+00   -0.10495E-01 13574   0.303E-01    0.263E+00
RMM:  16    -0.711672331631E+03    0.58054E-01   -0.42079E-01 13976   0.557E-01    0.284E+00
RMM:  17    -0.711659577395E+03    0.12754E-01   -0.48512E-02 14683   0.281E-01    0.146E+00
RMM:  18    -0.711634647603E+03    0.24930E-01   -0.17626E-02 13811   0.151E-01    0.134E+00
RMM:  19    -0.711637898638E+03   -0.32510E-02   -0.63183E-03 14169   0.934E-02    0.143E+00
RMM:  20    -0.711639104109E+03   -0.12055E-02   -0.74976E-03 12892   0.964E-02    0.151E+00
RMM:  21    -0.711639262592E+03   -0.15848E-03   -0.46675E-03 12688   0.839E-02    0.134E+00
RMM:  22    -0.711641196208E+03   -0.19336E-02   -0.43857E-03 13193   0.842E-02    0.155E+00
RMM:  23    -0.711641639094E+03   -0.44289E-03   -0.44450E-03 13529   0.871E-02    0.131E+00
RMM:  24    -0.711643016578E+03   -0.13775E-02   -0.35218E-03 12271   0.824E-02    0.158E+00
RMM:  25    -0.711642181667E+03    0.83491E-03   -0.34859E-03 12039   0.792E-02    0.132E+00
RMM:  26    -0.711644552393E+03   -0.23707E-02   -0.34621E-03 12391   0.817E-02    0.160E+00
RMM:  27    -0.711643461369E+03    0.10910E-02   -0.35985E-03 12340   0.824E-02    0.135E+00
RMM:  28    -0.711645599722E+03   -0.21384E-02   -0.35436E-03 12473   0.836E-02    0.164E+00
RMM:  29    -0.711644911739E+03    0.68798E-03   -0.37717E-03 12526   0.849E-02    0.136E+00
RMM:  30    -0.711646172475E+03   -0.12607E-02   -0.36905E-03 12563   0.858E-02    0.163E+00
RMM:  31    -0.711645084696E+03    0.10878E-02   -0.38169E-03 12529   0.857E-02    0.137E+00
RMM:  32    -0.711646201042E+03   -0.11163E-02   -0.36920E-03 12662   0.859E-02    0.163E+00
RMM:  33    -0.711645312493E+03    0.88855E-03   -0.38484E-03 12575   0.862E-02    0.138E+00
RMM:  34    -0.711646413710E+03   -0.11012E-02   -0.37339E-03 12623   0.864E-02    0.162E+00
RMM:  35    -0.711645560203E+03    0.85351E-03   -0.38874E-03 12628   0.866E-02    0.139E+00
RMM:  36    -0.711646622190E+03   -0.10620E-02   -0.37727E-03 12637   0.869E-02    0.162E+00
RMM:  37    -0.711645860274E+03    0.76192E-03   -0.39282E-03 12661   0.872E-02    0.141E+00
RMM:  38    -0.711646795778E+03   -0.93550E-03   -0.37995E-03 12692   0.873E-02    0.162E+00
RMM:  39    -0.711646097471E+03    0.69831E-03   -0.39582E-03 12659   0.875E-02    0.142E+00
RMM:  40    -0.711646887478E+03   -0.79001E-03   -0.38207E-03 12704   0.876E-02    0.161E+00
RMM:  41    -0.711646247152E+03    0.64033E-03   -0.39729E-03 12695   0.877E-02    0.143E+00
RMM:  42    -0.711646918309E+03   -0.67116E-03   -0.38322E-03 12703   0.877E-02    0.161E+00
RMM:  43    -0.711646324098E+03    0.59421E-03   -0.39805E-03 12705   0.877E-02    0.143E+00
RMM:  44    -0.711646915341E+03   -0.59124E-03   -0.38356E-03 12730   0.876E-02    0.160E+00
RMM:  45    -0.711646360856E+03    0.55449E-03   -0.39822E-03 12723   0.877E-02    0.144E+00
RMM:  46    -0.711646899062E+03   -0.53821E-03   -0.38380E-03 12738   0.877E-02    0.160E+00
RMM:  47    -0.711646376842E+03    0.52222E-03   -0.39820E-03 12731   0.877E-02    0.144E+00
RMM:  48    -0.711646877382E+03   -0.50054E-03   -0.38381E-03 12745   0.876E-02    0.159E+00
RMM:  49    -0.711646384304E+03    0.49308E-03   -0.39815E-03 12762   0.877E-02    0.145E+00
RMM:  50    -0.711646853912E+03   -0.46961E-03   -0.38374E-03 12751   0.876E-02    0.159E+00
RMM:  51    -0.711646362014E+03    0.49190E-03   -0.39782E-03 12753   0.877E-02    0.145E+00
RMM:  52    -0.711646817033E+03   -0.45502E-03   -0.38472E-03 12774   0.877E-02    0.157E+00
RMM:  53    -0.711646216565E+03    0.60047E-03   -0.39680E-03 12764   0.876E-02    0.145E+00
RMM:  54    -0.711646745018E+03   -0.52845E-03   -0.38312E-03 12798   0.875E-02    0.157E+00
RMM:  55    -0.711646220498E+03    0.52452E-03   -0.39671E-03 12761   0.876E-02    0.146E+00
RMM:  56    -0.711646744799E+03   -0.52430E-03   -0.38331E-03 12791   0.875E-02    0.157E+00
RMM:  57    -0.711646238281E+03    0.50652E-03   -0.39695E-03 12816   0.877E-02    0.146E+00
RMM:  58    -0.711646724887E+03   -0.48661E-03   -0.38315E-03 12791   0.875E-02    0.156E+00
RMM:  59    -0.711646248547E+03    0.47634E-03   -0.39681E-03 12792   0.876E-02    0.146E+00
RMM:  60    -0.711646717046E+03   -0.46850E-03   -0.38310E-03 12815   0.875E-02    0.156E+00
RMM:  61    -0.711646256943E+03    0.46010E-03   -0.39686E-03 12807   0.876E-02    0.146E+00
RMM:  62    -0.711646695051E+03   -0.43811E-03   -0.38269E-03 12817   0.875E-02    0.156E+00
RMM:  63    -0.711646239441E+03    0.45561E-03   -0.39656E-03 12802   0.876E-02    0.146E+00
RMM:  64    -0.711646675786E+03   -0.43634E-03   -0.38238E-03 12826   0.875E-02    0.156E+00
RMM:  65    -0.711646241546E+03    0.43424E-03   -0.39638E-03 12830   0.876E-02    0.147E+00
RMM:  66    -0.711646664925E+03   -0.42338E-03   -0.38233E-03 12823   0.874E-02    0.156E+00
RMM:  67    -0.711646237078E+03    0.42785E-03   -0.39631E-03 12814   0.876E-02    0.147E+00
RMM:  68    -0.711646662420E+03   -0.42534E-03   -0.38279E-03 12838   0.874E-02    0.156E+00
RMM:  69    -0.711646202219E+03    0.46020E-03   -0.39590E-03 12836   0.875E-02    0.147E+00
RMM:  70    -0.711646637279E+03   -0.43506E-03   -0.38404E-03 12843   0.875E-02    0.155E+00
RMM:  71    -0.711646077230E+03    0.56005E-03   -0.39478E-03 12828   0.875E-02    0.147E+00
RMM:  72    -0.711646584660E+03   -0.50743E-03   -0.38715E-03 12847   0.875E-02    0.154E+00
RMM:  73    -0.711645821503E+03    0.76316E-03   -0.39281E-03 12831   0.872E-02    0.146E+00
RMM:  74    -0.711646513420E+03   -0.69192E-03   -0.38264E-03 12837   0.871E-02    0.155E+00
RMM:  75    -0.711646011958E+03    0.50146E-03   -0.39416E-03 12843   0.874E-02    0.147E+00
RMM:  76    -0.711646605660E+03   -0.59370E-03   -0.38131E-03 12829   0.872E-02    0.155E+00
RMM:  77    -0.711646213779E+03    0.39188E-03   -0.39588E-03 12855   0.875E-02    0.147E+00
RMM:  78    -0.711646674261E+03   -0.46048E-03   -0.38246E-03 12873   0.874E-02    0.156E+00
RMM:  79    -0.711646268579E+03    0.40568E-03   -0.39649E-03 12829   0.876E-02    0.147E+00
RMM:  80    -0.711646672183E+03   -0.40360E-03   -0.38257E-03 12871   0.874E-02    0.156E+00
RMM:  81    -0.711646266305E+03    0.40588E-03   -0.39633E-03 12863   0.875E-02    0.147E+00
RMM:  82    -0.711646670187E+03   -0.40388E-03   -0.38228E-03 12863   0.874E-02    0.156E+00
RMM:  83    -0.711646268264E+03    0.40192E-03   -0.39610E-03 12849   0.875E-02    0.147E+00
RMM:  84    -0.711646660035E+03   -0.39177E-03   -0.38192E-03 12869   0.872E-02    0.156E+00
RMM:  85    -0.711646260874E+03    0.39916E-03   -0.39578E-03 12860   0.874E-02    0.147E+00
RMM:  86    -0.711646664136E+03   -0.40326E-03   -0.38218E-03 12878   0.872E-02    0.155E+00
RMM:  87    -0.711646224840E+03    0.43930E-03   -0.39539E-03 12861   0.873E-02    0.147E+00
RMM:  88    -0.711646651037E+03   -0.42620E-03   -0.38203E-03 12879   0.872E-02    0.155E+00
RMM:  89    -0.711646214865E+03    0.43617E-03   -0.39527E-03 12867   0.873E-02    0.147E+00
RMM:  90    -0.711646648827E+03   -0.43396E-03   -0.38200E-03 12892   0.872E-02    0.155E+00
RMM:  91    -0.711646213275E+03    0.43555E-03   -0.39535E-03 12876   0.874E-02    0.147E+00
RMM:  92    -0.711646644522E+03   -0.43125E-03   -0.38196E-03 12893   0.872E-02    0.155E+00
RMM:  93    -0.711646210522E+03    0.43400E-03   -0.39535E-03 12884   0.874E-02    0.147E+00
RMM:  94    -0.711646641407E+03   -0.43089E-03   -0.38202E-03 12893   0.872E-02    0.155E+00
RMM:  95    -0.711646205678E+03    0.43573E-03   -0.39536E-03 12882   0.874E-02    0.147E+00
RMM:  96    -0.711646638057E+03   -0.43238E-03   -0.38201E-03 12904   0.872E-02    0.155E+00
RMM:  97    -0.711646206204E+03    0.43185E-03   -0.39546E-03 12906   0.874E-02    0.147E+00
RMM:  98    -0.711646634309E+03   -0.42810E-03   -0.38206E-03 12895   0.873E-02    0.155E+00
RMM:  99    -0.711646201670E+03    0.43264E-03   -0.39552E-03 12900   0.874E-02    0.147E+00
RMM: 100    -0.711646631517E+03   -0.42985E-03   -0.38213E-03 12910   0.873E-02    0.155E+00
RMM: 101    -0.711646197853E+03    0.43366E-03   -0.39555E-03 12901   0.874E-02    0.147E+00
RMM: 102    -0.711646622305E+03   -0.42445E-03   -0.38196E-03 12940   0.873E-02    0.155E+00
RMM: 103    -0.711646204615E+03    0.41769E-03   -0.39565E-03 12875   0.875E-02    0.147E+00
RMM: 104    -0.711646622568E+03   -0.41795E-03   -0.38200E-03 12924   0.873E-02    0.155E+00
RMM: 105    -0.711646202997E+03    0.41957E-03   -0.39579E-03 12934   0.875E-02    0.147E+00
RMM: 106    -0.711646619857E+03   -0.41686E-03   -0.38185E-03 12907   0.873E-02    0.155E+00
RMM: 107    -0.711646224740E+03    0.39512E-03   -0.39605E-03 12905   0.875E-02    0.147E+00
RMM: 108    -0.711646607447E+03   -0.38271E-03   -0.38167E-03 12929   0.873E-02    0.155E+00
RMM: 109    -0.711646235016E+03    0.37243E-03   -0.39614E-03 12915   0.876E-02    0.147E+00
RMM: 110    -0.711646602652E+03   -0.36764E-03   -0.38187E-03 12943   0.874E-02    0.155E+00
 running    4 mpi-ranks, on    1 nodes
 distrk:  each k-point on    1 cores,    4 groups
 distr:  one band on    1 cores,    1 groups
 OpenACC runtime initialized ...    4 GPUs detected
 vasp.6.4.2 20Jul23 (build Nov 12 2023 22:16:35) complex                         
 POSCAR found type information on POSCAR GaO N Fe
 POSCAR found :  4 types and     120 ions
 scaLAPACK will be used selectively (only on CPU)
 LDA part: xc-table for Pade appr. of Perdew
 POSCAR, INCAR and KPOINTS ok, starting setup
 FFT: planning ... GRIDC
 FFT: planning ... GRID_SOFT
 FFT: planning ... GRID
 WAVECAR not read
 entering main loop
       N       E                     dE             d eps       ncg     rms          rms(c)
DAV:   1     0.218388934754E+05    0.21839E+05   -0.32069E+05 10080   0.281E+03
DAV:   2     0.486007605348E+04   -0.16979E+05   -0.16009E+05 10080   0.816E+02
DAV:   3    -0.136944518799E+03   -0.49970E+04   -0.46916E+04 12784   0.321E+02
DAV:   4    -0.784463294093E+03   -0.64752E+03   -0.62947E+03 12408   0.123E+02
DAV:   5    -0.832074250065E+03   -0.47611E+02   -0.47110E+02 14616   0.360E+01BRMIX: very serious problems
 the old and the new charge density differ
BRMIX: very serious problems
 the old and the new charge density differ
 old charge density:  1050.00000 new 1050.99974
 old charge density:  1050.00000 new 1050.99974
BRMIX: very serious problems
 the old and the new charge density differ
 old charge density:  1050.00000 new 1050.99974
BRMIX: very serious problems
 the old and the new charge density differ
 old charge density:  1050.00000 new 1050.99974
    0.758E+01
RMM:   6    -0.844222090350E+03   -0.12148E+02   -0.84507E+02 13840   0.339E+01    0.224E+02
RMM:   7    -0.804307567936E+03    0.39915E+02   -0.87806E+01 15321   0.117E+01    0.141E+02
RMM:   8    -0.717252877003E+03    0.87055E+02   -0.49164E+01 13145   0.655E+00    0.418E+01
RMM:   9    -0.716627823442E+03    0.62505E+00   -0.73362E+00 12878   0.347E+00    0.247E+01
RMM:  10    -0.712885816512E+03    0.37420E+01   -0.65135E+00 13105   0.286E+00    0.168E+01
RMM:  11    -0.711900275399E+03    0.98554E+00   -0.31283E+00 13358   0.189E+00    0.139E+01
RMM:  12    -0.711357417689E+03    0.54286E+00   -0.76108E-01 13796   0.127E+00    0.884E+00
RMM:  13    -0.711048412218E+03    0.30901E+00   -0.29646E-01 15358   0.675E-01    0.716E+00
RMM:  14    -0.710713589441E+03    0.33482E+00   -0.49913E-01 13400   0.717E-01    0.413E+00
RMM:  15    -0.710669777494E+03    0.43812E-01   -0.11721E-01 14083   0.411E-01    0.302E+00
RMM:  16    -0.710647522717E+03    0.22255E-01   -0.73490E-02 14949   0.271E-01    0.236E+00
RMM:  17    -0.710631602419E+03    0.15920E-01   -0.54118E-02 13311   0.243E-01    0.127E+00
RMM:  18    -0.710621817541E+03    0.97849E-02   -0.21488E-02 15515   0.162E-01    0.910E-01
RMM:  19    -0.710620341540E+03    0.14760E-02   -0.88968E-03 13633   0.801E-02    0.531E-01
RMM:  20    -0.710620085036E+03    0.25650E-03   -0.34893E-03 11905   0.556E-02    0.534E-01
RMM:  21    -0.710619868680E+03    0.21636E-03   -0.15102E-03 11476   0.330E-02    0.274E-01
RMM:  22    -0.710619942846E+03   -0.74166E-04   -0.81630E-04 10436   0.240E-02    0.345E-01
RMM:  23    -0.710619814573E+03    0.12827E-03   -0.36972E-04  9792   0.163E-02    0.209E-01
RMM:  24    -0.710619835488E+03   -0.20916E-04   -0.20877E-04  8937   0.127E-02    0.193E-01
RMM:  25    -0.710619828138E+03    0.73502E-05   -0.75773E-05  7428   0.814E-03
   1 F= -.71061983E+03 E0= -.71060950E+03  d E =-.710620E+03
 curvature:   0.00 expect dE= 0.000E+00 dE for cont linesearch  0.000E+00
 trial: gam= 0.00000 g(F)=  0.116E+01 g(S)=  0.000E+00 ort = 0.000E+00 (trialstep = 0.100E+01)
 search vector abs. value=  0.116E+01
 bond charge predicted
       N       E                     dE             d eps       ncg     rms          rms(c)
DAV:   1    -0.710150996584E+03    0.46884E+00   -0.23896E+02 11120   0.174E+01    0.684E+00
RMM:   2    -0.711013506736E+03   -0.86251E+00   -0.87748E+00 13076   0.542E+00    0.107E+01
RMM:   3    -0.710890468529E+03    0.12304E+00   -0.27444E+00 14693   0.248E+00    0.545E+00
RMM:   4    -0.710715112665E+03    0.17536E+00   -0.52211E-01 14362   0.105E+00    0.545E+00
RMM:   5    -0.710640188206E+03    0.74924E-01   -0.18816E-01 15042   0.465E-01    0.230E+00
RMM:   6    -0.710640810422E+03   -0.62222E-03   -0.14314E-01 12844   0.355E-01    0.162E+00
RMM:   7    -0.710627412244E+03    0.13398E-01   -0.18085E-02 15228   0.190E-01    0.649E-01
RMM:   8    -0.710624129682E+03    0.32826E-02   -0.90943E-03 13881   0.896E-02    0.415E-01
RMM:   9    -0.710623350697E+03    0.77898E-03   -0.22911E-03 12735   0.494E-02    0.251E-01
RMM:  10    -0.710622643427E+03    0.70727E-03   -0.27205E-03 12676   0.483E-02    0.796E-02
RMM:  11    -0.710622666396E+03   -0.22969E-04   -0.69540E-04 11481   0.286E-02    0.280E-02
RMM:  12    -0.710622687325E+03   -0.20929E-04   -0.26420E-04  9152   0.160E-02    0.145E-02
RMM:  13    -0.710622695041E+03   -0.77163E-05   -0.90869E-05  7793   0.856E-03
   2 F= -.71062270E+03 E0= -.71061378E+03  d E =-.286690E-02
 trial-energy change:   -0.002867  1 .order    0.255867   -1.156281    1.668016
 step:   0.5457(harm=  0.4094)  dis= 0.07185  next Energy=  -710.977343 (dE=-0.358E+00)
 bond charge predicted
       N       E                     dE             d eps       ncg     rms          rms(c)
DAV:   1    -0.710911230986E+03   -0.28854E+00   -0.48932E+01 11120   0.841E+00    0.450E+00
RMM:   2    -0.711792627478E+03   -0.88140E+00   -0.27810E+00 12755   0.297E+00    0.110E+01
RMM:   3    -0.711066507880E+03    0.72612E+00   -0.77765E-01 13664   0.138E+00    0.420E+00
RMM:   4    -0.711017846607E+03    0.48661E-01   -0.15553E-01 14777   0.510E-01    0.366E+00
RMM:   5    -0.710986603754E+03    0.31243E-01   -0.33811E-02 14999   0.212E-01    0.238E+00
RMM:   6    -0.710991951398E+03   -0.53476E-02   -0.51956E-02 12850   0.212E-01    0.216E+00
RMM:   7    -0.710978939527E+03    0.13012E-01   -0.28871E-02 13412   0.180E-01    0.120E+00
RMM:   8    -0.710969311529E+03    0.96280E-02   -0.50913E-03 13671   0.774E-02    0.404E-01
RMM:   9    -0.710968305870E+03    0.10057E-02   -0.15617E-03 12069   0.418E-02    0.266E-01
RMM:  10    -0.710967979813E+03    0.32606E-03   -0.82263E-04 11630   0.285E-02    0.463E-02
RMM:  11    -0.710967979113E+03    0.69942E-06   -0.18507E-04  9994   0.174E-02    0.635E-02
RMM:  12    -0.710967975972E+03    0.31409E-05   -0.56793E-05  7121   0.963E-03
   3 F= -.71096798E+03 E0= -.71095864E+03  d E =-.348148E+00
 curvature:  -0.19 expect dE=-0.223E-01 dE for cont linesearch -0.165E-06
 trial: gam= 0.09878 g(F)=  0.115E+00 g(S)=  0.000E+00 ort = 0.992E-03 (trialstep = 0.909E+00)
 search vector abs. value=  0.127E+00
 bond charge predicted
       N       E                     dE             d eps       ncg     rms          rms(c)
DAV:   1    -0.710937129535E+03    0.30850E-01   -0.23253E+01 11256   0.692E+00    0.890E-01
RMM:   2    -0.711014702291E+03   -0.77573E-01   -0.83291E-01 13602   0.194E+00    0.658E-01
RMM:   3    -0.711035860974E+03   -0.21159E-01   -0.19779E-01 14803   0.786E-01    0.875E-01
RMM:   4    -0.711034300908E+03    0.15601E-02   -0.28993E-02 15062   0.286E-01    0.574E-01
RMM:   5    -0.711032364448E+03    0.19365E-02   -0.56728E-03 15172   0.105E-01    0.276E-01
RMM:   6    -0.711031158414E+03    0.12060E-02   -0.27603E-03 13216   0.653E-02    0.198E-01
RMM:   7    -0.711030968248E+03    0.19017E-03   -0.23641E-03 13042   0.585E-02    0.980E-02
RMM:   8    -0.711030894765E+03    0.73483E-04   -0.40783E-04 12723   0.311E-02    0.675E-02
RMM:   9    -0.711030860294E+03    0.34470E-04   -0.18416E-04  9974   0.147E-02    0.238E-02
RMM:  10    -0.711030854620E+03    0.56742E-05   -0.65398E-05  8588   0.110E-02
   4 F= -.71103085E+03 E0= -.71102152E+03  d E =-.628786E-01
 trial-energy change:   -0.062879  1 .order   -0.062407   -0.104833   -0.019981
 step:   1.1148(harm=  1.1232)  dis= 0.02185  next Energy=  -711.033120 (dE=-0.651E-01)
 bond charge predicted
       N       E                     dE             d eps       ncg     rms          rms(c)
DAV:   1    -0.711028997489E+03    0.18628E-02   -0.11952E+00 11568   0.157E+00    0.194E-01
RMM:   2    -0.711032835429E+03   -0.38379E-02   -0.41374E-02 13612   0.424E-01    0.138E-01
RMM:   3    -0.711033639673E+03   -0.80424E-03   -0.86454E-03 14932   0.165E-01    0.124E-01
RMM:   4    -0.711033729737E+03   -0.90063E-04   -0.12217E-03 14416   0.597E-02    0.146E-01
RMM:   5    -0.711033604170E+03    0.12557E-03   -0.26536E-04 12002   0.257E-02    0.627E-02
RMM:   6    -0.711033548582E+03    0.55588E-04   -0.19416E-04 10652   0.173E-02    0.480E-02
RMM:   7    -0.711033543831E+03    0.47508E-05   -0.11016E-04  9892   0.138E-02    0.210E-02
RMM:   8    -0.711033539850E+03    0.39813E-05   -0.22541E-05  6616   0.907E-03
   5 F= -.71103354E+03 E0= -.71102419E+03  d E =-.655639E-01
 curvature:  -0.62 expect dE=-0.410E-01 dE for cont linesearch -0.220E-04
 trial: gam= 0.54981 g(F)=  0.666E-01 g(S)=  0.000E+00 ort = 0.213E-02 (trialstep = 0.950E+00)
 search vector abs. value=  0.107E+00
 bond charge predicted
       N       E                     dE             d eps       ncg     rms          rms(c)
DAV:   1    -0.710983087904E+03    0.50456E-01   -0.23446E+01 10496   0.667E+00    0.102E+00
RMM:   2    -0.711062575107E+03   -0.79487E-01   -0.78012E-01 13113   0.174E+00    0.127E+00
RMM:   3    -0.711077401354E+03   -0.14826E-01   -0.18043E-01 15127   0.711E-01    0.111E+00
RMM:   4    -0.711072590456E+03    0.48109E-02   -0.23622E-02 14796   0.260E-01    0.578E-01
RMM:   5    -0.711070382689E+03    0.22078E-02   -0.60401E-03 15027   0.103E-01    0.326E-01
RMM:   6    -0.711069432305E+03    0.95038E-03   -0.21636E-03 13151   0.539E-02    0.214E-01
RMM:   7    -0.711068871300E+03    0.56101E-03   -0.29569E-03 12879   0.632E-02    0.117E-01
RMM:   8    -0.711068789970E+03    0.81329E-04   -0.41813E-04 12563   0.296E-02    0.428E-02
RMM:   9    -0.711068751043E+03    0.38927E-04   -0.16485E-04  9723   0.151E-02    0.443E-02
RMM:  10    -0.711068741618E+03    0.94258E-05   -0.66819E-05  8463   0.102E-02
   6 F= -.71106874E+03 E0= -.71105925E+03  d E =-.352018E-01
 trial-energy change:   -0.035202  1 .order   -0.034413   -0.064426   -0.004400
 step:   1.0145(harm=  1.0199)  dis= 0.01411  next Energy=  -711.068891 (dE=-0.354E-01)
 bond charge predicted
       N       E                     dE             d eps       ncg     rms          rms(c)
DAV:   1    -0.711068594814E+03    0.15623E-03   -0.10820E-01 11640   0.453E-01    0.747E-02
RMM:   2    -0.711068983775E+03   -0.38896E-03   -0.36144E-03 13114   0.117E-01    0.109E-01
RMM:   3    -0.711069030440E+03   -0.46665E-04   -0.83656E-04 14523   0.486E-02    0.765E-02
RMM:   4    -0.711069000014E+03    0.30427E-04   -0.11532E-04  9999   0.186E-02    0.371E-02
RMM:   5    -0.711068990190E+03    0.98238E-05   -0.34016E-05  6931   0.946E-03
   7 F= -.71106899E+03 E0= -.71105947E+03  d E =-.354503E-01
 curvature:  -0.80 expect dE=-0.256E-01 dE for cont linesearch -0.248E-04
 trial: gam= 0.48227 g(F)=  0.319E-01 g(S)=  0.000E+00 ort = 0.182E-02 (trialstep = 0.963E+00)
 search vector abs. value=  0.586E-01
 bond charge predicted
       N       E                     dE             d eps       ncg     rms          rms(c)
DAV:   1    -0.711037316447E+03    0.31684E-01   -0.13054E+01 10560   0.513E+00    0.699E-01
RMM:   2    -0.711080589155E+03   -0.43273E-01   -0.42677E-01 12925   0.134E+00    0.915E-01
RMM:   3    -0.711089776788E+03   -0.91876E-02   -0.11298E-01 15018   0.577E-01    0.641E-01
RMM:   4    -0.711088390436E+03    0.13864E-02   -0.14325E-02 14912   0.201E-01    0.421E-01
RMM:   5    -0.711087802724E+03    0.58771E-03   -0.35361E-03 14966   0.764E-02    0.215E-01
RMM:   6    -0.711087171558E+03    0.63117E-03   -0.13731E-03 12641   0.449E-02    0.148E-01
RMM:   7    -0.711087091982E+03    0.79576E-04   -0.12738E-03 12450   0.435E-02    0.543E-02
RMM:   8    -0.711087057513E+03    0.34469E-04   -0.19509E-04 10725   0.220E-02    0.508E-02
RMM:   9    -0.711087042240E+03    0.15272E-04   -0.10351E-04  9132   0.119E-02    0.128E-02
RMM:  10    -0.711087041603E+03    0.63768E-06   -0.31943E-05  6923   0.791E-03
   8 F= -.71108704E+03 E0= -.71107756E+03  d E =-.180514E-01
 trial-energy change:   -0.018051  1 .order   -0.017731   -0.031572   -0.003890
 step:   1.0886(harm=  1.0984)  dis= 0.01247  next Energy=  -711.087296 (dE=-0.183E-01)
 bond charge predicted
       N       E                     dE             d eps       ncg     rms          rms(c)
DAV:   1    -0.711086563357E+03    0.47888E-03   -0.22279E-01 11528   0.669E-01    0.913E-02
RMM:   2    -0.711087313519E+03   -0.75016E-03   -0.72861E-03 12953   0.174E-01    0.128E-01
RMM:   3    -0.711087448418E+03   -0.13490E-03   -0.19070E-03 14882   0.753E-02    0.773E-02
RMM:   4    -0.711087431133E+03    0.17285E-04   -0.23882E-04 12104   0.264E-02    0.572E-02
RMM:   5    -0.711087420654E+03    0.10480E-04   -0.72737E-05  8456   0.139E-02    0.277E-02
RMM:   6    -0.711087410032E+03    0.10622E-04   -0.32487E-05  6880   0.851E-03    0.197E-02
RMM:   7    -0.711087408669E+03    0.13625E-05   -0.24094E-05  6778   0.745E-03
   9 F= -.71108741E+03 E0= -.71107794E+03  d E =-.184185E-01
 curvature:  -0.98 expect dE=-0.199E-01 dE for cont linesearch -0.491E-04
 trial: gam= 0.62022 g(F)=  0.204E-01 g(S)=  0.000E+00 ort = 0.172E-02 (trialstep = 0.988E+00)
 search vector abs. value=  0.451E-01
 bond charge predicted
       N       E                     dE             d eps       ncg     rms          rms(c)
DAV:   1    -0.711057984919E+03    0.29425E-01   -0.10524E+01 10584   0.464E+00    0.650E-01
RMM:   2    -0.711094187564E+03   -0.36203E-01   -0.34418E-01 12899   0.121E+00    0.104E+00
RMM:   3    -0.711099840592E+03   -0.56530E-02   -0.92960E-02 14859   0.531E-01    0.549E-01
RMM:   4    -0.711099265100E+03    0.57549E-03   -0.11158E-02 14812   0.180E-01    0.461E-01
RMM:   5    -0.711098492513E+03    0.77259E-03   -0.25560E-03 15058   0.704E-02    0.228E-01
RMM:   6    -0.711097889885E+03    0.60263E-03   -0.14259E-03 12466   0.451E-02    0.141E-01
RMM:   7    -0.711097806919E+03    0.82966E-04   -0.87611E-04 12250   0.369E-02    0.760E-02
RMM:   8    -0.711097783187E+03    0.23733E-04   -0.16581E-04 10151   0.193E-02    0.441E-02
RMM:   9    -0.711097751456E+03    0.31731E-04   -0.93307E-05  9203   0.119E-02    0.265E-02
RMM:  10    -0.711097748147E+03    0.33083E-05   -0.38060E-05  7265   0.782E-03
  10 F= -.71109775E+03 E0= -.71108817E+03  d E =-.103395E-01
 trial-energy change:   -0.010339  1 .order   -0.010246   -0.021218    0.000725
 step:   0.9563(harm=  0.9556)  dis= 0.00677  next Energy=  -711.097760 (dE=-0.104E-01)
 bond charge predicted
       N       E                     dE             d eps       ncg     rms          rms(c)
DAV:   1    -0.711097695068E+03    0.56388E-04   -0.10740E-02 10976   0.149E-01    0.225E-02
RMM:   2    -0.711097730405E+03   -0.35338E-04   -0.37094E-04 12719   0.397E-02    0.161E-02
RMM:   3    -0.711097739254E+03   -0.88483E-05   -0.94604E-05 10423   0.171E-02
  11 F= -.71109774E+03 E0= -.71108815E+03  d E =-.103306E-01
 curvature:  -1.00 expect dE=-0.121E-01 dE for cont linesearch -0.560E-04
 trial: gam= 0.58827 g(F)=  0.121E-01 g(S)=  0.000E+00 ort = 0.159E-02 (trialstep = 0.982E+00)
 search vector abs. value=  0.296E-01
 bond charge predicted
       N       E                     dE             d eps       ncg     rms          rms(c)
DAV:   1    -0.711078072714E+03    0.19658E-01   -0.69590E+00 10520   0.375E+00    0.548E-01
RMM:   2    -0.711102784785E+03   -0.24712E-01   -0.22529E-01 12770   0.969E-01    0.940E-01
RMM:   3    -0.711105689160E+03   -0.29044E-02   -0.60985E-02 14975   0.427E-01    0.491E-01
RMM:   4    -0.711104621392E+03    0.10678E-02   -0.71143E-03 14726   0.149E-01    0.357E-01
RMM:   5    -0.711104099642E+03    0.52175E-03   -0.17777E-03 15005   0.577E-02    0.165E-01
RMM:   6    -0.711103647313E+03    0.45233E-03   -0.75200E-04 12291   0.336E-02    0.113E-01
RMM:   7    -0.711103534065E+03    0.11325E-03   -0.80921E-04 12327   0.348E-02    0.459E-02
RMM:   8    -0.711103511824E+03    0.22241E-04   -0.11209E-04  9934   0.170E-02    0.322E-02
RMM:   9    -0.711103501384E+03    0.10440E-04   -0.56988E-05  8445   0.978E-03    0.925E-03
RMM:  10    -0.711103500206E+03    0.11775E-05   -0.18941E-05  6610   0.660E-03
  12 F= -.71110350E+03 E0= -.71109394E+03  d E =-.576095E-02
 trial-energy change:   -0.005761  1 .order   -0.005859   -0.012802    0.001084
 step:   0.9021(harm=  0.9052)  dis= 0.00482  next Energy=  -711.103544 (dE=-0.581E-02)
 bond charge predicted
       N       E                     dE             d eps       ncg     rms          rms(c)
DAV:   1    -0.711103352416E+03    0.14897E-03   -0.45598E-02 11080   0.304E-01    0.458E-02
RMM:   2    -0.711103519873E+03   -0.16746E-03   -0.15199E-03 12825   0.778E-02    0.769E-02
RMM:   3    -0.711103534488E+03   -0.14615E-04   -0.38236E-04 13225   0.341E-02    0.408E-02
RMM:   4    -0.711103526700E+03    0.77872E-05   -0.47112E-05  7463   0.138E-02
  13 F= -.71110353E+03 E0= -.71109397E+03  d E =-.578745E-02
 curvature:  -1.02 expect dE=-0.687E-02 dE for cont linesearch -0.273E-04
 trial: gam= 0.53101 g(F)=  0.671E-02 g(S)=  0.000E+00 ort = 0.888E-03 (trialstep = 0.966E+00)
 search vector abs. value=  0.160E-01
 bond charge predicted
       N       E                     dE             d eps       ncg     rms          rms(c)
DAV:   1    -0.711093032011E+03    0.10502E-01   -0.36662E+00 10520   0.273E+00    0.347E-01
RMM:   2    -0.711104824932E+03   -0.11793E-01   -0.11961E-01 12913   0.699E-01    0.362E-01
RMM:   3    -0.711107964408E+03   -0.31395E-02   -0.30011E-02 15091   0.295E-01    0.381E-01
RMM:   4    -0.711107366033E+03    0.59838E-03   -0.35461E-03 14678   0.107E-01    0.194E-01
RMM:   5    -0.711107148451E+03    0.21758E-03   -0.86026E-04 14182   0.414E-02    0.104E-01
RMM:   6    -0.711107011278E+03    0.13717E-03   -0.28555E-04 10663   0.213E-02    0.726E-02
RMM:   7    -0.711106933276E+03    0.78002E-04   -0.47275E-04 11625   0.265E-02    0.338E-02
RMM:   8    -0.711106920936E+03    0.12340E-04   -0.61929E-05  8653   0.127E-02    0.193E-02
RMM:   9    -0.711106914667E+03    0.62692E-05   -0.24760E-05  7089   0.736E-03
  14 F= -.71110691E+03 E0= -.71109734E+03  d E =-.338797E-02
 trial-energy change:   -0.003388  1 .order   -0.003386   -0.006934    0.000162
 step:   0.9439(harm=  0.9439)  dis= 0.00550  next Energy=  -711.106915 (dE=-0.339E-02)
 bond charge predicted
       N       E                     dE             d eps       ncg     rms          rms(c)
DAV:   1    -0.711106901242E+03    0.19694E-04   -0.17857E-03 11024   0.622E-02    0.967E-03
RMM:   2    -0.711106908648E+03   -0.74060E-05   -0.81915E-05 10080   0.196E-02
  15 F= -.71110691E+03 E0= -.71109733E+03  d E =-.338195E-02
 curvature:  -1.05 expect dE=-0.333E-02 dE for cont linesearch -0.649E-04
 ZBRENT: interpolating
 opt :   0.9627  next Energy=  -711.106915 (dE=-0.339E-02)
 bond charge predicted
       N       E                     dE             d eps       ncg     rms          rms(c)
DAV:   1    -0.711106908954E+03   -0.77121E-05   -0.13116E-03 11400   0.510E-02    0.767E-03
RMM:   2    -0.711106914432E+03   -0.54778E-05   -0.44109E-05  7614   0.135E-02
  16 F= -.71110691E+03 E0= -.71109734E+03  d E =-.338773E-02
 curvature:  -0.00 expect dE=-0.142E-04 dE for cont linesearch -0.326E-07
 trial: gam= 0.51227 g(F)=  0.330E-02 g(S)=  0.000E+00 ort =-0.348E-03 (trialstep = 0.965E+00)
 search vector abs. value=  0.714E-02
 bond charge predicted
       N       E                     dE             d eps       ncg     rms          rms(c)
DAV:   1    -0.711102691292E+03    0.42177E-02   -0.16151E+00 10560   0.182E+00    0.234E-01
RMM:   2    -0.711107587378E+03   -0.48961E-02   -0.50442E-02 12772   0.463E-01    0.205E-01
RMM:   3    -0.711109039483E+03   -0.14521E-02   -0.13220E-02 15128   0.194E-01    0.239E-01
RMM:   4    -0.711108865006E+03    0.17448E-03   -0.15998E-03 14599   0.708E-02    0.145E-01
RMM:   5    -0.711108739993E+03    0.12501E-03   -0.35177E-04 12664   0.294E-02    0.714E-02
RMM:   6    -0.711108695920E+03    0.44073E-04   -0.15633E-04  9992   0.164E-02    0.537E-02
RMM:   7    -0.711108674531E+03    0.21389E-04   -0.15665E-04 10371   0.166E-02    0.216E-02
RMM:   8    -0.711108668049E+03    0.64823E-05   -0.25678E-05  7109   0.933E-03
  17 F= -.71110867E+03 E0= -.71109914E+03  d E =-.175362E-02
 trial-energy change:   -0.001754  1 .order   -0.001564   -0.003014   -0.000114
 step:   0.9923(harm=  1.0032)  dis= 0.00299  next Energy=  -711.108670 (dE=-0.176E-02)
 bond charge predicted
       N       E                     dE             d eps       ncg     rms          rms(c)
DAV:   1    -0.711108663663E+03    0.10868E-04   -0.13528E-03 10984   0.536E-02    0.124E-02
RMM:   2    -0.711108670533E+03   -0.68698E-05   -0.68695E-05  8874   0.164E-02
  18 F= -.71110867E+03 E0= -.71109914E+03  d E =-.175610E-02
 curvature:  -1.05 expect dE=-0.146E-02 dE for cont linesearch -0.933E-05
 trial: gam= 0.42899 g(F)=  0.139E-02 g(S)=  0.000E+00 ort =-0.252E-03 (trialstep = 0.971E+00)
 search vector abs. value=  0.249E-02
 bond charge predicted
       N       E                     dE             d eps       ncg     rms          rms(c)
DAV:   1    -0.711107258737E+03    0.14049E-02   -0.54847E-01 10656   0.108E+00    0.165E-01
RMM:   2    -0.711109459060E+03   -0.22003E-02   -0.18401E-02 13089   0.284E-01    0.343E-01
RMM:   3    -0.711109452916E+03    0.61441E-05   -0.48059E-03 14726   0.125E-01    0.131E-01
RMM:   4    -0.711109384853E+03    0.68063E-04   -0.62961E-04 13750   0.436E-02    0.122E-01
RMM:   5    -0.711109333555E+03    0.51298E-04   -0.15109E-04 10381   0.195E-02    0.586E-02
RMM:   6    -0.711109285650E+03    0.47905E-04   -0.94847E-05  8981   0.136E-02    0.327E-02
RMM:   7    -0.711109280242E+03    0.54077E-05   -0.61694E-05  8768   0.106E-02
  19 F= -.71110928E+03 E0= -.71109979E+03  d E =-.609709E-03
 trial-energy change:   -0.000610  1 .order   -0.000584   -0.001243    0.000074
 step:   0.9160(harm=  0.9160)  dis= 0.00220  next Energy=  -711.109257 (dE=-0.586E-03)
 bond charge predicted
       N       E                     dE             d eps       ncg     rms          rms(c)
DAV:   1    -0.711109281029E+03    0.46205E-05   -0.17649E-03 11320   0.611E-02    0.110E-02
RMM:   2    -0.711109288395E+03   -0.73657E-05   -0.69492E-05  9409   0.169E-02
  20 F= -.71110929E+03 E0= -.71109979E+03  d E =-.617862E-03
 curvature:  -0.89 expect dE=-0.776E-03 dE for cont linesearch -0.482E-05
 trial: gam= 0.64002 g(F)=  0.873E-03 g(S)=  0.000E+00 ort = 0.116E-03 (trialstep = 0.960E+00)
 search vector abs. value=  0.204E-02
 bond charge predicted
       N       E                     dE             d eps       ncg     rms          rms(c)
DAV:   1    -0.711108091010E+03    0.11900E-02   -0.43336E-01 10856   0.963E-01    0.146E-01
RMM:   2    -0.711109801770E+03   -0.17108E-02   -0.13829E-02 12844   0.251E-01    0.308E-01
RMM:   3    -0.711109742838E+03    0.58932E-04   -0.37898E-03 14515   0.113E-01    0.108E-01
RMM:   4    -0.711109719923E+03    0.22914E-04   -0.52924E-04 13291   0.392E-02    0.109E-01
RMM:   5    -0.711109683634E+03    0.36289E-04   -0.11370E-04  9752   0.183E-02    0.524E-02
RMM:   6    -0.711109648907E+03    0.34727E-04   -0.80921E-05  8479   0.125E-02    0.352E-02
RMM:   7    -0.711109644446E+03    0.44602E-05   -0.45637E-05  7959   0.942E-03
  21 F= -.71110964E+03 E0= -.71110011E+03  d E =-.356052E-03
 trial-energy change:   -0.000356  1 .order   -0.000436   -0.000909    0.000037
 step:   0.8894(harm=  0.9225)  dis= 0.00184  next Energy=  -711.109646 (dE=-0.357E-03)
 bond charge predicted
       N       E                     dE             d eps       ncg     rms          rms(c)
DAV:   1    -0.711109639983E+03    0.89232E-05   -0.23574E-03 11320   0.710E-02    0.155E-02
RMM:   2    -0.711109652482E+03   -0.12499E-04   -0.88771E-05  9942   0.192E-02    0.331E-02
RMM:   3    -0.711109648640E+03    0.38421E-05   -0.18779E-05  6236   0.967E-03
  22 F= -.71110965E+03 E0= -.71110012E+03  d E =-.360245E-03
 curvature:  -0.20 expect dE=-0.108E-03 dE for cont linesearch -0.458E-06
 trial: gam= 0.47297 g(F)=  0.528E-03 g(S)=  0.000E+00 ort = 0.677E-04 (trialstep = 0.946E+00)
 search vector abs. value=  0.105E-02
 bond charge predicted
       N       E                     dE             d eps       ncg     rms          rms(c)
DAV:   1    -0.711109022454E+03    0.63003E-03   -0.21516E-01 10800   0.690E-01    0.802E-02
RMM:   2    -0.711109732447E+03   -0.70999E-03   -0.73020E-03 13156   0.183E-01    0.711E-02
RMM:   3    -0.711109941794E+03   -0.20935E-03   -0.18692E-03 14951   0.764E-02    0.965E-02
RMM:   4    -0.711109907449E+03    0.34345E-04   -0.24228E-04 12237   0.282E-02    0.426E-02
RMM:   5    -0.711109893345E+03    0.14103E-04   -0.63315E-05  8786   0.150E-02    0.272E-02
RMM:   6    -0.711109887430E+03    0.59154E-05   -0.18599E-05  6442   0.751E-03
  23 F= -.71110989E+03 E0= -.71110036E+03  d E =-.238790E-03
 trial-energy change:   -0.000239  1 .order   -0.000270   -0.000530   -0.000011
 step:   0.9654(harm=  0.9654)  dis= 0.00143  next Energy=  -711.109919 (dE=-0.271E-03)
 bond charge predicted
       N       E                     dE             d eps       ncg     rms          rms(c)
DAV:   1    -0.711109878000E+03    0.15346E-04   -0.47078E-05  9664   0.406E-02    0.107E-02
RMM:   2    -0.711109880983E+03   -0.29832E-05   -0.39282E-05  8118   0.120E-02
  24 F= -.71110988E+03 E0= -.71110035E+03  d E =-.232343E-03
 curvature:  -0.90 expect dE=-0.345E-03 dE for cont linesearch -0.344E-04
 ZBRENT: interpolating
 opt :   0.9467  next Energy=  -711.109887 (dE=-0.239E-03)
 bond charge predicted
       N       E                     dE             d eps       ncg     rms          rms(c)
DAV:   1    -0.711109882619E+03   -0.46187E-05   -0.58808E-05  9464   0.158E-02    0.104E-02
RMM:   2    -0.711109890852E+03   -0.82339E-05   -0.14631E-05  5852   0.746E-03
  25 F= -.71110989E+03 E0= -.71110035E+03  d E =-.242212E-03
 curvature:  -0.00 expect dE=-0.532E-07 dE for cont linesearch -0.620E-09
 trial: gam= 0.49009 g(F)=  0.328E-03 g(S)=  0.000E+00 ort = 0.633E-04 (trialstep = 0.946E+00)
 search vector abs. value=  0.642E-03
 bond charge predicted
       N       E                     dE             d eps       ncg     rms          rms(c)
DAV:   1    -0.711109554432E+03    0.32819E-03   -0.12859E-01 10904   0.535E-01    0.682E-02
RMM:   2    -0.711110001688E+03   -0.44726E-03   -0.42421E-03 13099   0.140E-01    0.108E-01
RMM:   3    -0.711110068492E+03   -0.66804E-04   -0.11500E-03 14744   0.603E-02    0.599E-02
RMM:   4    -0.711110058747E+03    0.97451E-05   -0.14938E-04 11370   0.221E-02    0.422E-02
RMM:   5    -0.711110050870E+03    0.78772E-05   -0.37129E-05  7267   0.120E-02
  26 F= -.71111005E+03 E0= -.71110054E+03  d E =-.160017E-03
 trial-energy change:   -0.000160  1 .order   -0.000165   -0.000340    0.000010
 step:   0.9180(harm=  0.9180)  dis= 0.00127  next Energy=  -711.110056 (dE=-0.165E-03)
 bond charge predicted
       N       E                     dE             d eps       ncg     rms          rms(c)
DAV:   1    -0.711110041658E+03    0.17089E-04   -0.13673E-04  9850   0.279E-02    0.134E-02
RMM:   2    -0.711110044399E+03   -0.27402E-05   -0.32307E-05  6318   0.121E-02
  27 F= -.71111004E+03 E0= -.71110054E+03  d E =-.153546E-03
 curvature:  -0.82 expect dE=-0.256E-03 dE for cont linesearch -0.214E-04
 ZBRENT: interpolating
 opt :   0.9437  next Energy=  -711.110051 (dE=-0.160E-03)
 bond charge predicted
       N       E                     dE             d eps       ncg     rms          rms(c)
DAV:   1    -0.711110043198E+03   -0.15395E-05   -0.81759E-05 10400   0.215E-02    0.140E-02
RMM:   2    -0.711110059953E+03   -0.16755E-04   -0.29027E-05  6266   0.987E-03    0.503E-02
RMM:   3    -0.711110045168E+03    0.14785E-04   -0.98684E-06  5645   0.584E-03    0.103E-02
RMM:   4    -0.711110043604E+03    0.15638E-05   -0.15302E-06  5524   0.251E-03
  28 F= -.71111004E+03 E0= -.71110052E+03  d E =-.152752E-03
 curvature:  -0.00 expect dE=-0.131E-06 dE for cont linesearch -0.194E-09
 trial: gam= 0.86985 g(F)=  0.290E-03 g(S)=  0.000E+00 ort =-0.166E-04 (trialstep = 0.813E+00)
 search vector abs. value=  0.747E-03
 bond charge predicted
       N       E                     dE             d eps       ncg     rms          rms(c)
DAV:   1    -0.711109779638E+03    0.26553E-03   -0.11039E-01 11032   0.489E-01    0.855E-02
RMM:   2    -0.711110250773E+03   -0.47114E-03   -0.35393E-03 12837   0.130E-01    0.181E-01
RMM:   3    -0.711110204067E+03    0.46706E-04   -0.10087E-03 14092   0.589E-02    0.665E-02
RMM:   4    -0.711110187860E+03    0.16207E-04   -0.15604E-04 11373   0.222E-02    0.633E-02
RMM:   5    -0.711110175096E+03    0.12765E-04   -0.39063E-05  7268   0.116E-02    0.295E-02
RMM:   6    -0.711110164394E+03    0.10702E-04   -0.21375E-05  6256   0.721E-03    0.199E-02
RMM:   7    -0.711110162916E+03    0.14770E-05   -0.11955E-05  6077   0.586E-03
  29 F= -.71111016E+03 E0= -.71110063E+03  d E =-.119312E-03
 trial-energy change:   -0.000119  1 .order   -0.000127   -0.000224   -0.000031
 step:   0.9415(harm=  0.9415)  dis= 0.00160  next Energy=  -711.110173 (dE=-0.130E-03)
 bond charge predicted
       N       E                     dE             d eps       ncg     rms          rms(c)
DAV:   1    -0.711110146353E+03    0.18041E-04   -0.27070E-03 11920   0.773E-02    0.136E-02
RMM:   2    -0.711110158136E+03   -0.11783E-04   -0.10940E-04 10669   0.220E-02    0.208E-02
RMM:   3    -0.711110158019E+03    0.11688E-06   -0.26515E-05  6478   0.104E-02
  30 F= -.71111016E+03 E0= -.71110063E+03  d E =-.114415E-03
 curvature:  -1.28 expect dE=-0.392E-03 dE for cont linesearch -0.381E-04
 ZBRENT: interpolating
 opt :   0.8388  next Energy=  -711.110163 (dE=-0.120E-03)
 bond charge predicted
       N       E                     dE             d eps       ncg     rms          rms(c)
DAV:   1    -0.711110155712E+03    0.24231E-05   -0.16858E-03 11040   0.613E-02    0.191E-02
RMM:   2    -0.711110177736E+03   -0.22023E-04   -0.87797E-05  9030   0.195E-02    0.508E-02
RMM:   3    -0.711110164918E+03    0.12818E-04   -0.19859E-05  6114   0.963E-03    0.143E-02
RMM:   4    -0.711110163137E+03    0.17813E-05   -0.53616E-06  5825   0.595E-03
  31 F= -.71111016E+03 E0= -.71110063E+03  d E =-.119533E-03
 curvature:  -0.02 expect dE=-0.393E-05 dE for cont linesearch -0.425E-07
 trial: gam= 0.86920 g(F)=  0.240E-03 g(S)=  0.000E+00 ort = 0.441E-04 (trialstep = 0.693E+00)
 search vector abs. value=  0.882E-03
 bond charge predicted
       N       E                     dE             d eps       ncg     rms          rms(c)
DAV:   1    -0.711109908266E+03    0.25665E-03   -0.93619E-02 11056   0.464E-01    0.451E-02
RMM:   2    -0.711110188688E+03   -0.28042E-03   -0.29230E-03 13083   0.117E-01    0.188E-02
RMM:   3    -0.711110265522E+03   -0.76834E-04   -0.73701E-04 14808   0.477E-02    0.359E-02
RMM:   4    -0.711110268646E+03   -0.31240E-05   -0.99832E-05 10886   0.178E-02
  32 F= -.71111027E+03 E0= -.71110074E+03  d E =-.105509E-03
 trial-energy change:   -0.000106  1 .order   -0.000087   -0.000193    0.000020
 step:   0.6286(harm=  0.6286)  dis= 0.00063  next Energy=  -711.110251 (dE=-0.876E-04)
 bond charge predicted
       N       E                     dE             d eps       ncg     rms          rms(c)
DAV:   1    -0.711110253934E+03    0.11588E-04   -0.80866E-04 11864   0.452E-02    0.152E-02
RMM:   2    -0.711110259004E+03   -0.50699E-05   -0.47084E-05  7933   0.145E-02
  33 F= -.71111026E+03 E0= -.71110073E+03  d E =-.958667E-04
 curvature:  -0.99 expect dE=-0.186E-03 dE for cont linesearch -0.569E-04
 ZBRENT: interpolating
 opt :   0.6860  next Energy=  -711.110269 (dE=-0.106E-03)
 bond charge predicted
       N       E                     dE             d eps       ncg     rms          rms(c)
DAV:   1    -0.711110260863E+03   -0.69292E-05   -0.58466E-04 11320   0.387E-02    0.150E-02
RMM:   2    -0.711110279789E+03   -0.18926E-04   -0.42382E-05  7035   0.146E-02    0.533E-02
RMM:   3    -0.711110264517E+03    0.15271E-04   -0.10714E-05  5700   0.694E-03    0.973E-03
RMM:   4    -0.711110262722E+03    0.17958E-05   -0.31406E-06  5669   0.421E-03
  34 F= -.71111026E+03 E0= -.71110073E+03  d E =-.995847E-04
 curvature:  -0.00 expect dE=-0.280E-06 dE for cont linesearch -0.103E-08
 trial: gam= 0.18366 g(F)=  0.153E-03 g(S)=  0.000E+00 ort = 0.223E-04 (trialstep = 0.692E+00)
 search vector abs. value=  0.191E-03
 bond charge predicted
       N       E                     dE             d eps       ncg     rms          rms(c)
DAV:   1    -0.711110257620E+03    0.68970E-05   -0.19676E-02 10856   0.199E-01    0.526E-02
RMM:   2    -0.711110407929E+03   -0.15031E-03   -0.73130E-04 12935   0.570E-02    0.138E-01
RMM:   3    -0.711110338892E+03    0.69036E-04   -0.19798E-04 11614   0.263E-02    0.369E-02
RMM:   4    -0.711110328968E+03    0.99241E-05   -0.37019E-05  6941   0.123E-02
  35 F= -.71111033E+03 E0= -.71110080E+03  d E =-.662468E-04
 trial-energy change:   -0.000066  1 .order   -0.000037   -0.000108    0.000035
 step:   0.5247(harm=  0.5247)  dis= 0.00041  next Energy=  -711.110304 (dE=-0.411E-04)
 bond charge predicted
       N       E                     dE             d eps       ncg     rms          rms(c)
DAV:   1    -0.711110316471E+03    0.22422E-04   -0.11122E-03 10808   0.489E-02    0.295E-02
RMM:   2    -0.711110363124E+03   -0.46653E-04   -0.12263E-04  9157   0.200E-02    0.788E-02
RMM:   3    -0.711110319912E+03    0.43212E-04   -0.34624E-05  6152   0.104E-02    0.265E-02
RMM:   4    -0.711110315795E+03    0.41174E-05   -0.57287E-06  5931   0.522E-03
  36 F= -.71111032E+03 E0= -.71110079E+03  d E =-.530734E-04
 curvature:  -0.32 expect dE=-0.302E-04 dE for cont linesearch -0.993E-05
 ZBRENT: interpolating
 opt :   0.6261  next Energy=  -711.110331 (dE=-0.679E-04)
 bond charge predicted
       N       E                     dE             d eps       ncg     rms          rms(c)
DAV:   1    -0.711110315768E+03    0.41444E-05   -0.38959E-04 10728   0.288E-02    0.795E-03
RMM:   2    -0.711110317286E+03   -0.15182E-05   -0.16771E-05  5891   0.101E-02
  37 F= -.71111032E+03 E0= -.71110079E+03  d E =-.545647E-04
 curvature:  -0.05 expect dE=-0.509E-05 dE for cont linesearch -0.187E-06
 ZBRENT: interpolating
 opt :   0.5726  next Energy=  -711.110318 (dE=-0.554E-04)
 bond charge predicted
       N       E                     dE             d eps       ncg     rms          rms(c)
DAV:   1    -0.711110315677E+03    0.91211E-07   -0.10278E-04 10552   0.155E-02    0.517E-03
RMM:   2    -0.711110317893E+03   -0.22156E-05   -0.98749E-06  5350   0.678E-03
  38 F= -.71111032E+03 E0= -.71110080E+03  d E =-.551709E-04
 curvature:  -0.25 expect dE=-0.256E-04 dE for cont linesearch -0.362E-05
 ZBRENT: interpolating
 opt :   0.6085  next Energy=  -711.110318 (dE=-0.548E-04)
 bond charge predicted
       N       E                     dE             d eps       ncg     rms          rms(c)
DAV:   1    -0.711110316743E+03   -0.10665E-05   -0.43325E-05  8152   0.121E-02    0.637E-03
RMM:   2    -0.711110318636E+03   -0.18921E-05   -0.70469E-06  5278   0.661E-03
  39 F= -.71111032E+03 E0= -.71110079E+03  d E =-.559139E-04
 curvature:  -0.02 expect dE=-0.164E-05 dE for cont linesearch -0.799E-07
 ZBRENT: bisectioning
 opt :   0.5906  next Energy=  -711.110319 (dE=-0.565E-04)
 bond charge predicted
       N       E                     dE             d eps       ncg     rms          rms(c)
DAV:   1    -0.711110316870E+03   -0.12705E-06   -0.93090E-06  5672   0.719E-03    0.428E-03
RMM:   2    -0.711110318307E+03   -0.14368E-05   -0.37091E-06  4912   0.395E-03
  40 F= -.71111032E+03 E0= -.71110079E+03  d E =-.555856E-04
 curvature:  -0.12 expect dE=-0.133E-04 dE for cont linesearch -0.165E-05
 ZBRENT: interpolating
 opt :   0.6017  next Energy=  -711.110319 (dE=-0.560E-04)
 bond charge predicted
       N       E                     dE             d eps       ncg     rms          rms(c)
DAV:   1    -0.711110317173E+03   -0.30240E-06   -0.38866E-06  5448   0.566E-03    0.255E-03
RMM:   2    -0.711110317289E+03   -0.11604E-06   -0.10613E-06  4704   0.199E-03
  41 F= -.71111032E+03 E0= -.71110079E+03  d E =-.545673E-04
 curvature:  -0.01 expect dE=-0.640E-06 dE for cont linesearch -0.478E-09
 trial: gam= 0.64091 g(F)=  0.840E-04 g(S)=  0.000E+00 ort =-0.346E-05 (trialstep = 0.674E+00)
 search vector abs. value=  0.158E-03
 bond charge predicted
       N       E                     dE             d eps       ncg     rms          rms(c)
DAV:   1    -0.711110305897E+03    0.11276E-04   -0.15746E-02 10920   0.187E-01    0.251E-02
RMM:   2    -0.711110359348E+03   -0.53451E-04   -0.51337E-04 12976   0.493E-02    0.377E-02
RMM:   3    -0.711110367703E+03   -0.83548E-05   -0.14394E-04 11645   0.216E-02    0.243E-02
RMM:   4    -0.711110365532E+03    0.21710E-05   -0.20474E-05  6303   0.105E-02
  42 F= -.71111037E+03 E0= -.71110083E+03  d E =-.482430E-04
 trial-energy change:   -0.000048  1 .order   -0.000032   -0.000055   -0.000008
 step:   0.7916(harm=  0.7916)  dis= 0.00039  next Energy=  -711.110350 (dE=-0.324E-04)
 reached required accuracy - stopping structural energy minimisation
Warning: ieee_invalid is signaling
Warning: ieee_divide_by_zero is signaling
Warning: ieee_underflow is signaling
Warning: ieee_inexact is signaling
FORTRAN STOP
Warning: ieee_invalid is signaling
Warning: ieee_divide_by_zero is signaling
Warning: ieee_underflow is signaling
Warning: ieee_inexact is signaling
FORTRAN STOP
Warning: ieee_invalid is signaling
Warning: ieee_divide_by_zero is signaling
Warning: ieee_underflow is signaling
Warning: ieee_inexact is signaling
FORTRAN STOP
Warning: ieee_invalid is signaling
Warning: ieee_divide_by_zero is signaling
Warning: ieee_underflow is signaling
Warning: ieee_inexact is signaling
FORTRAN STOP
