Ga8 O12                                 
    1.000000000000000     
     0.0000000000000000   12.2804737091000007    0.0000000000000000
     9.1427011490000005    0.0000000000000000    0.0000000000000000
     0.0000000000000000   -2.7682616411000001  -11.3006974810000003
   Ga   O    Cu   N 
    47    71     1     1
Direct
  0.6598020746582520  0.0000000000000000  0.1578766091439476
  0.6590069132035410  0.0000000000000000  0.6556778623830013
  0.6597276913971299  0.3328024450164619  0.1579592614520564
  0.6583624758554336  0.3332644216377858  0.6559270038078466
  0.6597276913971299  0.6671975549835381  0.1579592614520564
  0.6583624758554336  0.6667355783622142  0.6559270038078466
  0.8466923716456591  0.1649456009144146  0.3434647696234663
  0.8400200228189689  0.1664227663148381  0.8427837938215177
  0.8428899457841652  0.5000000000000000  0.3430518554716073
  0.8401174037720409  0.5000000000000000  0.8415357559911172
  0.8466923716456591  0.8350543990855854  0.3434647696234663
  0.8400200228189689  0.8335772336851619  0.8427837938215177
  0.5903764263020435  0.1656463242981587  0.3963107910672079
  0.5912632462977996  0.1665163638932796  0.8979172516720340
  0.5908371947924849  0.5000000000000000  0.3971796303623805
  0.5922328190009551  0.5000000000000000  0.8981810307896509
  0.5903764263020435  0.8343536757018413  0.3963107910672079
  0.5912632462977996  0.8334836361067204  0.8979172516720340
  0.9085868975806761  0.0000000000000000  0.1019880770185040
  0.9101177260880675  0.0000000000000000  0.6010335990581481
  0.9063958376291055  0.3345103629934272  0.1001990266160320
  0.9082278254415996  0.3336869807979781  0.6017118801565786
  0.9063958376291055  0.6654896370065728  0.1001990266160320
  0.9082278254415996  0.6663130192020219  0.6017118801565786
  0.1559424551876134  0.1639069039607008  0.1576441655958263
  0.1577907977275146  0.1674679562237955  0.6585001250049203
  0.1585047226270646  0.5000000000000000  0.1587766455455721
  0.1586011005390944  0.5000000000000000  0.6570749218152443
  0.1559424551876134  0.8360930960392992  0.1576441655958263
  0.1577907977275146  0.8325320437762045  0.6585001250049203
  0.3357682548762426  0.0000000000000000  0.3433603196977160
  0.3404604887335694  0.0000000000000000  0.8446906616663554
  0.3404365500079010  0.3332095527001897  0.3429543853947479
  0.3415291497697197  0.3334852491969045  0.8439979568000666
  0.3404365500079010  0.6667904472998103  0.3429543853947479
  0.3415291497697197  0.6665147508030955  0.8439979568000666
  0.0894860134373161  0.0000000000000000  0.8975112042214519
  0.0914893023119348  0.3314340301688787  0.3981869048273623
  0.0906587634627201  0.3329018980009977  0.8994105766102365
  0.0914893023119348  0.6685659698311213  0.3981869048273623
  0.0906587634627201  0.6670981019990023  0.8994105766102365
  0.4092802385014664  0.1666616565991319  0.1035863670997514
  0.4090859075490911  0.1669080697506402  0.6034180317076405
  0.4097978088657044  0.5000000000000000  0.1032266403930322
  0.4085985834845971  0.5000000000000000  0.6027487598848182
  0.4092802385014664  0.8333383434008681  0.1035863670997514
  0.4090859075490911  0.8330919302493598  0.6034180317076405
  0.9920412134876386  0.1686119389823872  0.1187914024814276
  0.9952893348984233  0.1679085122191069  0.6291385966873051
  0.9947813358419850  0.5000000000000000  0.1258702606221647
  0.9958543273207212  0.5000000000000000  0.6287389399712850
  0.9920412134876386  0.8313880610176128  0.1187914024814276
  0.9952893348984233  0.8320914877808931  0.6291385966873051
  0.5014300488324750  0.0000000000000000  0.3731761108249145
  0.5037377789446893  0.0000000000000000  0.8727648734805413
  0.5038768369832667  0.3332421886073291  0.3732095051796094
  0.5043696807830926  0.3336873124506639  0.8729725141121278
  0.5038768369832667  0.6667578113926709  0.3732095051796094
  0.5043696807830926  0.6663126875493361  0.8729725141121278
  0.6737939321319502  0.1663438061025317  0.2809541224828251
  0.6717152222464406  0.1665613827698422  0.7796367651995695
  0.6732729362821104  0.5000000000000000  0.2811520013771300
  0.6713800990024978  0.5000000000000000  0.7791467397977740
  0.6737939321319502  0.8336561938974683  0.2809541224828251
  0.6717152222464406  0.8334386172301578  0.7796367651995695
  0.8274363439800965  0.0000000000000000  0.2189531102989619
  0.8268847849385850  0.0000000000000000  0.7179957880947825
  0.8272672513550177  0.3338993128416377  0.2190877224747965
  0.8262681255578386  0.3337720850442096  0.7184126575276011
  0.8272672513550177  0.6661006871583623  0.2190877224747965
  0.8262681255578386  0.6662279149557904  0.7184126575276011
  0.8317194641626386  0.0000000000000000  0.4454462331239668
  0.8299708998311814  0.0000000000000000  0.9445385540021221
  0.8330491025220397  0.3326195517025496  0.4449350946989838
  0.8288987763103464  0.3345133989077027  0.9435188276170550
  0.8330491025220397  0.6673804482974504  0.4449350946989838
  0.8288987763103464  0.6654866010922973  0.9435188276170550
  0.6681347272431140  0.1666196622285980  0.0543799959499509
  0.6668669626960622  0.1667712047841974  0.5533693942472553
  0.6683045061076882  0.5000000000000000  0.0549166108883057
  0.6678691749280645  0.5000000000000000  0.5536625523417484
  0.6681347272431140  0.8333803377714020  0.0543799959499509
  0.6668669626960622  0.8332287952158026  0.5533693942472553
  0.4970351602930876  0.0000000000000000  0.1274969724441135
  0.4963528481568531  0.0000000000000000  0.6279746671173996
  0.4973731106780548  0.3333881212642424  0.1276127471568316
  0.4963548474098189  0.3336285071345415  0.6282058905881627
  0.4973731106780548  0.6666118787357576  0.1276127471568316
  0.4963548474098189  0.6663714928654585  0.6282058905881627
  0.0068518120439052  0.1665929285543228  0.3701730713152571
  0.0020321727662704  0.1672065226099448  0.8710973027895434
  0.0046443975918606  0.5000000000000000  0.3742140400454090
  0.0031127783910421  0.5000000000000000  0.8732010058507385
  0.0068518120439052  0.8334070714456772  0.3701730713152571
  0.0020321727662704  0.8327934773900552  0.8710973027895434
  0.1735370016466433  0.0000000000000000  0.7839826603273679
  0.1733319449847670  0.3372079494318641  0.2813156077755821
  0.1727448256902235  0.3336316226145541  0.7823778654572351
  0.1733319449847670  0.6627920505681359  0.2813156077755821
  0.1727448256902235  0.6663683773854459  0.7823778654572351
  0.3294111922837288  0.1689318231557237  0.2207259412210050
  0.3276278056870296  0.1666476345755470  0.7204152496337670
  0.3286277796626180  0.5000000000000000  0.2196437253715686
  0.3278040263799085  0.5000000000000000  0.7205575836648777
  0.3294111922837288  0.8310681768442763  0.2207259412210050
  0.3276278056870296  0.8333523654244530  0.7204152496337670
  0.3319296930143736  0.1680114683262204  0.4475571169382562
  0.3348027371841695  0.1677195554701001  0.9465335675156936
  0.3337543790678978  0.5000000000000000  0.4462794601902687
  0.3330146711001305  0.5000000000000000  0.9466243936506871
  0.3319296930143736  0.8319885316737796  0.4475571169382562
  0.3348027371841695  0.8322804445298999  0.9465335675156936
  0.1727856123125235  0.0000000000000000  0.0491963899155934
  0.1603518486841793  0.0000000000000000  0.5613909303408846
  0.1671285988863147  0.3325451173292677  0.0557762949905083
  0.1679235795568346  0.3338422051677554  0.5559796339134380
  0.1671285988863147  0.6674548826707323  0.0557762949905083
  0.1679235795568346  0.6661577948322446  0.5559796339134380
  0.1121127661128796  0.0000000000000000  0.3995939519714682
  0.1666919863710419  0.0000000000000000  0.2692705124212509
 
  0.00000000E+00  0.00000000E+00  0.00000000E+00
  0.00000000E+00  0.00000000E+00  0.00000000E+00
  0.00000000E+00  0.00000000E+00  0.00000000E+00
  0.00000000E+00  0.00000000E+00  0.00000000E+00
  0.00000000E+00  0.00000000E+00  0.00000000E+00
  0.00000000E+00  0.00000000E+00  0.00000000E+00
  0.00000000E+00  0.00000000E+00  0.00000000E+00
  0.00000000E+00  0.00000000E+00  0.00000000E+00
  0.00000000E+00  0.00000000E+00  0.00000000E+00
  0.00000000E+00  0.00000000E+00  0.00000000E+00
  0.00000000E+00  0.00000000E+00  0.00000000E+00
  0.00000000E+00  0.00000000E+00  0.00000000E+00
  0.00000000E+00  0.00000000E+00  0.00000000E+00
  0.00000000E+00  0.00000000E+00  0.00000000E+00
  0.00000000E+00  0.00000000E+00  0.00000000E+00
  0.00000000E+00  0.00000000E+00  0.00000000E+00
  0.00000000E+00  0.00000000E+00  0.00000000E+00
  0.00000000E+00  0.00000000E+00  0.00000000E+00
  0.00000000E+00  0.00000000E+00  0.00000000E+00
  0.00000000E+00  0.00000000E+00  0.00000000E+00
  0.00000000E+00  0.00000000E+00  0.00000000E+00
  0.00000000E+00  0.00000000E+00  0.00000000E+00
  0.00000000E+00  0.00000000E+00  0.00000000E+00
  0.00000000E+00  0.00000000E+00  0.00000000E+00
  0.00000000E+00  0.00000000E+00  0.00000000E+00
  0.00000000E+00  0.00000000E+00  0.00000000E+00
  0.00000000E+00  0.00000000E+00  0.00000000E+00
  0.00000000E+00  0.00000000E+00  0.00000000E+00
  0.00000000E+00  0.00000000E+00  0.00000000E+00
  0.00000000E+00  0.00000000E+00  0.00000000E+00
  0.00000000E+00  0.00000000E+00  0.00000000E+00
  0.00000000E+00  0.00000000E+00  0.00000000E+00
  0.00000000E+00  0.00000000E+00  0.00000000E+00
  0.00000000E+00  0.00000000E+00  0.00000000E+00
  0.00000000E+00  0.00000000E+00  0.00000000E+00
  0.00000000E+00  0.00000000E+00  0.00000000E+00
  0.00000000E+00  0.00000000E+00  0.00000000E+00
  0.00000000E+00  0.00000000E+00  0.00000000E+00
  0.00000000E+00  0.00000000E+00  0.00000000E+00
  0.00000000E+00  0.00000000E+00  0.00000000E+00
  0.00000000E+00  0.00000000E+00  0.00000000E+00
  0.00000000E+00  0.00000000E+00  0.00000000E+00
  0.00000000E+00  0.00000000E+00  0.00000000E+00
  0.00000000E+00  0.00000000E+00  0.00000000E+00
  0.00000000E+00  0.00000000E+00  0.00000000E+00
  0.00000000E+00  0.00000000E+00  0.00000000E+00
  0.00000000E+00  0.00000000E+00  0.00000000E+00
  0.00000000E+00  0.00000000E+00  0.00000000E+00
  0.00000000E+00  0.00000000E+00  0.00000000E+00
  0.00000000E+00  0.00000000E+00  0.00000000E+00
  0.00000000E+00  0.00000000E+00  0.00000000E+00
  0.00000000E+00  0.00000000E+00  0.00000000E+00
  0.00000000E+00  0.00000000E+00  0.00000000E+00
  0.00000000E+00  0.00000000E+00  0.00000000E+00
  0.00000000E+00  0.00000000E+00  0.00000000E+00
  0.00000000E+00  0.00000000E+00  0.00000000E+00
  0.00000000E+00  0.00000000E+00  0.00000000E+00
  0.00000000E+00  0.00000000E+00  0.00000000E+00
  0.00000000E+00  0.00000000E+00  0.00000000E+00
  0.00000000E+00  0.00000000E+00  0.00000000E+00
  0.00000000E+00  0.00000000E+00  0.00000000E+00
  0.00000000E+00  0.00000000E+00  0.00000000E+00
  0.00000000E+00  0.00000000E+00  0.00000000E+00
  0.00000000E+00  0.00000000E+00  0.00000000E+00
  0.00000000E+00  0.00000000E+00  0.00000000E+00
  0.00000000E+00  0.00000000E+00  0.00000000E+00
  0.00000000E+00  0.00000000E+00  0.00000000E+00
  0.00000000E+00  0.00000000E+00  0.00000000E+00
  0.00000000E+00  0.00000000E+00  0.00000000E+00
  0.00000000E+00  0.00000000E+00  0.00000000E+00
  0.00000000E+00  0.00000000E+00  0.00000000E+00
  0.00000000E+00  0.00000000E+00  0.00000000E+00
  0.00000000E+00  0.00000000E+00  0.00000000E+00
  0.00000000E+00  0.00000000E+00  0.00000000E+00
  0.00000000E+00  0.00000000E+00  0.00000000E+00
  0.00000000E+00  0.00000000E+00  0.00000000E+00
  0.00000000E+00  0.00000000E+00  0.00000000E+00
  0.00000000E+00  0.00000000E+00  0.00000000E+00
  0.00000000E+00  0.00000000E+00  0.00000000E+00
  0.00000000E+00  0.00000000E+00  0.00000000E+00
  0.00000000E+00  0.00000000E+00  0.00000000E+00
  0.00000000E+00  0.00000000E+00  0.00000000E+00
  0.00000000E+00  0.00000000E+00  0.00000000E+00
  0.00000000E+00  0.00000000E+00  0.00000000E+00
  0.00000000E+00  0.00000000E+00  0.00000000E+00
  0.00000000E+00  0.00000000E+00  0.00000000E+00
  0.00000000E+00  0.00000000E+00  0.00000000E+00
  0.00000000E+00  0.00000000E+00  0.00000000E+00
  0.00000000E+00  0.00000000E+00  0.00000000E+00
  0.00000000E+00  0.00000000E+00  0.00000000E+00
  0.00000000E+00  0.00000000E+00  0.00000000E+00
  0.00000000E+00  0.00000000E+00  0.00000000E+00
  0.00000000E+00  0.00000000E+00  0.00000000E+00
  0.00000000E+00  0.00000000E+00  0.00000000E+00
  0.00000000E+00  0.00000000E+00  0.00000000E+00
  0.00000000E+00  0.00000000E+00  0.00000000E+00
  0.00000000E+00  0.00000000E+00  0.00000000E+00
  0.00000000E+00  0.00000000E+00  0.00000000E+00
  0.00000000E+00  0.00000000E+00  0.00000000E+00
  0.00000000E+00  0.00000000E+00  0.00000000E+00
  0.00000000E+00  0.00000000E+00  0.00000000E+00
  0.00000000E+00  0.00000000E+00  0.00000000E+00
  0.00000000E+00  0.00000000E+00  0.00000000E+00
  0.00000000E+00  0.00000000E+00  0.00000000E+00
  0.00000000E+00  0.00000000E+00  0.00000000E+00
  0.00000000E+00  0.00000000E+00  0.00000000E+00
  0.00000000E+00  0.00000000E+00  0.00000000E+00
  0.00000000E+00  0.00000000E+00  0.00000000E+00
  0.00000000E+00  0.00000000E+00  0.00000000E+00
  0.00000000E+00  0.00000000E+00  0.00000000E+00
  0.00000000E+00  0.00000000E+00  0.00000000E+00
  0.00000000E+00  0.00000000E+00  0.00000000E+00
  0.00000000E+00  0.00000000E+00  0.00000000E+00
  0.00000000E+00  0.00000000E+00  0.00000000E+00
  0.00000000E+00  0.00000000E+00  0.00000000E+00
  0.00000000E+00  0.00000000E+00  0.00000000E+00
  0.00000000E+00  0.00000000E+00  0.00000000E+00
  0.00000000E+00  0.00000000E+00  0.00000000E+00
  0.00000000E+00  0.00000000E+00  0.00000000E+00
  0.00000000E+00  0.00000000E+00  0.00000000E+00
