       N       E                     dE             d eps       ncg     rms          ort
DAV:   1    -0.184022003124E+05   -0.18402E+05   -0.54625E+05  5056   0.743E+03
DAV:   2    -0.623187828068E+05   -0.43917E+05   -0.42626E+05  5056   0.119E+03
DAV:   3    -0.668318497380E+05   -0.45131E+04   -0.40345E+04  5056   0.348E+02
DAV:   4    -0.673816380855E+05   -0.54979E+03   -0.45536E+03  5056   0.103E+02
DAV:   5    -0.373162430181E+05    0.30065E+05   -0.75437E+02  5056   0.536E+01
SDA:   6     0.198053600865E+05    0.57122E+05   -0.75437E+02  5056   0.120E+06 0.000E+00
CGA:   7     0.474786939258E+04   -0.15057E+05   -0.15719E+05  5056   0.297E+05-0.266E+04
CGA:   8     0.154251126156E+04   -0.32054E+04   -0.30585E+04  5056   0.660E+04 0.230E+04
CGA:   9     0.566852059855E+03   -0.97566E+03   -0.71407E+03  5056   0.648E+04 0.342E+03
CGA:  10     0.291167826386E+03   -0.27568E+03   -0.54428E+03  5056   0.604E+04-0.115E+04
CGA:  11    -0.192052788699E+03   -0.48322E+03   -0.43471E+03  5056   0.309E+04-0.659E+03
CGA:  12    -0.512661179726E+03   -0.32061E+03   -0.35085E+03  5056   0.128E+04 0.139E+03
CGA:  13    -0.722489733277E+03   -0.20983E+03   -0.21234E+03  5056   0.456E+03 0.611E+02
CGA:  14    -0.831904349327E+03   -0.10941E+03   -0.10926E+03  5056   0.267E+03 0.287E+01
CGA:  15    -0.888420116023E+03   -0.56516E+02   -0.56455E+02  5056   0.141E+03 0.905E+00
CGA:  16    -0.919000936722E+03   -0.30581E+02   -0.31098E+02  5056   0.704E+02-0.737E+01
CGA:  17    -0.933742132178E+03   -0.14741E+02   -0.15418E+02  5056   0.357E+02-0.781E+01
CGA:  18    -0.939745094670E+03   -0.60030E+01   -0.60028E+01  5056   0.164E+02-0.462E-01
CGA:  19    -0.943399083832E+03   -0.36540E+01   -0.36547E+01  5056   0.756E+01-0.457E-01
CGA:  20    -0.945270871630E+03   -0.18718E+01   -0.18733E+01  5056   0.420E+01-0.227E-01
CGA:  21    -0.946193505380E+03   -0.92263E+00   -0.92467E+00  5056   0.209E+01-0.413E-01
CGA:  22    -0.946662021317E+03   -0.46852E+00   -0.46885E+00  5056   0.107E+01-0.511E-02
CGA:  23    -0.946891671052E+03   -0.22965E+00   -0.22967E+00  5056   0.543E+00 0.554E-05
CGA:  24    -0.947005295045E+03   -0.11362E+00   -0.11361E+00  5056   0.242E+00 0.549E-03
CGA:  25    -0.947068194779E+03   -0.62900E-01   -0.62878E-01  5056   0.134E+00 0.218E-03
CGA:  26    -0.947099778459E+03   -0.31584E-01   -0.31577E-01  5056   0.797E-01 0.137E-03
CGA:  27    -0.947117348940E+03   -0.17570E-01   -0.17569E-01  5056   0.428E-01 0.384E-04
CGA:  28    -0.947127264134E+03   -0.99152E-02   -0.99171E-02  5056   0.252E-01-0.567E-04
CGA:  29    -0.947132368429E+03   -0.51043E-02   -0.51044E-02  5056   0.135E-01-0.851E-04
CGA:  30    -0.947135459924E+03   -0.30915E-02   -0.30928E-02  5056   0.688E-02-0.483E-04
CGA:  31    -0.947137330404E+03   -0.18705E-02   -0.18714E-02  5056   0.446E-02-0.144E-04
CGA:  32    -0.947138449797E+03   -0.11194E-02   -0.11196E-02  5056   0.310E-02-0.343E-05
CGA:  33    -0.947139244174E+03   -0.79438E-03   -0.79411E-03  5056   0.201E-02 0.543E-05
CGA:  34    -0.947139764489E+03   -0.52031E-03   -0.52024E-03  5056   0.149E-02 0.154E-05
CGA:  35    -0.947140086649E+03   -0.32216E-03   -0.32216E-03  5056   0.933E-03 0.502E-06
CGA:  36    -0.947140318942E+03   -0.23229E-03   -0.23203E-03  5056   0.552E-03 0.772E-05
SDA:  37    -0.947140471523E+03   -0.15258E-03   -0.15187E-03  5056   0.396E-03 0.123E-04
CGA:  38    -0.947140588180E+03   -0.11666E-03   -0.11667E-03  5056   0.246E-03-0.978E-07
CGA:  39    -0.947140640548E+03   -0.52369E-04   -0.52365E-04  5056   0.878E-04-0.415E-06
CGA:  40    -0.947140677156E+03   -0.36608E-04   -0.37237E-04  5056   0.441E-04-0.311E-05
CGA:  41    -0.947140693963E+03   -0.16807E-04   -0.16976E-04  5056   0.308E-04-0.101E-05
CGA:  42    -0.947140706511E+03   -0.12547E-04   -0.12688E-04  5056   0.241E-04-0.774E-06
CGA:  43    -0.947140714922E+03   -0.84116E-05   -0.84362E-05  5056   0.189E-04-0.218E-06
   1 F= -.94714071E+03 E0= -.94714071E+03  d E =-.359677E-19
