       N       E                     dE             d eps       ncg     rms          ort
SDA:   1    -0.947212105566E+03   -0.94721E+03    0.00000E+00  5040   0.262E+02 0.000E+00
CGA:   2    -0.952340473610E+03   -0.51284E+01   -0.51297E+01  5040   0.832E+01 0.173E+00
CGA:   3    -0.955356848069E+03   -0.30164E+01   -0.29439E+01  5040   0.286E+01 0.541E+00
CGA:   4    -0.955910712187E+03   -0.55386E+00   -0.55747E+00  5040   0.121E+01 0.584E-01
CGA:   5    -0.956146937140E+03   -0.23622E+00   -0.42073E+00  5040   0.339E+01-0.874E+00
CGA:   6    -0.956334994127E+03   -0.18806E+00   -0.27508E+00  5040   0.129E+01-0.165E+01
CGA:   7    -0.956457811090E+03   -0.12282E+00   -0.11795E+00  5040   0.240E+00-0.850E-01
CGA:   8    -0.956488857867E+03   -0.31047E-01   -0.30988E-01  5040   0.178E+00 0.680E-04
CGA:   9    -0.956518609231E+03   -0.29751E-01   -0.30828E-01  5040   0.126E+00 0.133E-01
CGA:  10    -0.956550577316E+03   -0.31968E-01   -0.32205E-01  5040   0.804E-01-0.410E-02
CGA:  11    -0.956567107671E+03   -0.16530E-01   -0.16361E-01  5040   0.228E-01 0.110E-01
CGA:  12    -0.956573580148E+03   -0.64725E-02   -0.64083E-02  5040   0.136E-01 0.999E-03
CGA:  13    -0.956578064333E+03   -0.44842E-02   -0.44633E-02  5040   0.936E-02 0.180E-03
CGA:  14    -0.956580366590E+03   -0.23023E-02   -0.23005E-02  5040   0.488E-02 0.403E-04
CGA:  15    -0.956581996069E+03   -0.16295E-02   -0.16271E-02  5040   0.422E-02 0.197E-04
CGA:  16    -0.956583127749E+03   -0.11317E-02   -0.11338E-02  5040   0.235E-02-0.404E-04
CGA:  17    -0.956583625603E+03   -0.49785E-03   -0.49751E-03  5040   0.902E-03-0.523E-04
CGA:  18    -0.956583838556E+03   -0.21295E-03   -0.21350E-03  5040   0.471E-03-0.244E-04
CGA:  19    -0.956583957225E+03   -0.11867E-03   -0.11945E-03  5040   0.360E-03-0.195E-04
CGA:  20    -0.956584050416E+03   -0.93191E-04   -0.93936E-04  5040   0.270E-03-0.152E-04
CGA:  21    -0.956584113219E+03   -0.62803E-04   -0.62790E-04  5040   0.181E-03 0.825E-06
CGA:  22    -0.956584154622E+03   -0.41403E-04   -0.41398E-04  5040   0.121E-03 0.391E-05
CGA:  23    -0.956584185214E+03   -0.30592E-04   -0.30553E-04  5040   0.902E-04 0.180E-05
CGA:  24    -0.956584206838E+03   -0.21625E-04   -0.21583E-04  5040   0.638E-04 0.499E-05
CGA:  25    -0.956584222871E+03   -0.16033E-04   -0.15989E-04  5040   0.510E-04 0.446E-05
CGA:  26    -0.956584235712E+03   -0.12841E-04   -0.12832E-04  5040   0.437E-04 0.130E-05
CGA:  27    -0.956584246114E+03   -0.10402E-04   -0.10396E-04  5040   0.282E-04 0.213E-05
CGA:  28    -0.956584252778E+03   -0.66641E-05   -0.66674E-05  5040   0.199E-04 0.947E-06
   1 F= -.95658425E+03 E0= -.95657910E+03  d E =-.103124E-01
