Ga8 O12                                 
    1.000000000000000     
     0.0000000000000000   12.2804737091000007    0.0000000000000000
     9.1427011490000005    0.0000000000000000    0.0000000000000000
     0.0000000000000000   -2.7682616411000001  -11.3006974810000003
   Ga   O    N    Fe
    47    71     1     1
Direct
  0.6585957559980949  0.0000001106801299  0.1577848102304951
  0.6586101819264373  0.0000001155857611  0.6569849220444667
  0.6578651379343442  0.3364978530096892  0.1603747949571934
  0.6585194252158693  0.3330581490909604  0.6557749318422385
  0.6578650688499724  0.6635024283398148  0.1603730750963770
  0.6585195307194913  0.6669423300188820  0.6557749789965009
  0.8412435750308100  0.1665977040441334  0.3428834241267633
  0.8409066292313090  0.1666230483984304  0.8433139658010887
  0.8355633419633032  0.5000003901827920  0.3441070313011977
  0.8406749016622233  0.5000002808319357  0.8432633331387627
  0.8412433877999280  0.8334025136522986  0.3428838583634635
  0.8409067471664856  0.8333773963290612  0.8433141861267586
  0.5909340581508340  0.1687073305915624  0.3976019778387602
  0.5917163499591828  0.1671760492461973  0.8994424071573680
  0.5911591625236484  0.5000001752685984  0.8975285392673121
  0.5909330574870163  0.8312921083971749  0.3976010016340269
  0.5917160013179458  0.8328243399138811  0.8994416143293841
  0.9091021953686754  0.0000002487334615  0.1025686937633440
  0.9091248982487810  0.0000004824020185  0.6024221885914985
  0.9085857130695255  0.3330973909998183  0.1026609687952251
  0.9102929095655483  0.3328621775535756  0.6032346611129155
  0.9085858106726883  0.6669030586862769  0.1026613199188224
  0.9102935017799043  0.6671374142582870  0.6032352731077113
  0.1592354343555647  0.1669027068244952  0.1571545629476798
  0.1594197732768738  0.1666853170051387  0.6564991890829185
  0.1587767667964277  0.5000001189186402  0.1568022920383988
  0.1596695508973564  0.4999945479301508  0.6562718365379570
  0.1592353760685349  0.8330978403892731  0.1571538697188261
  0.1594191597966685  0.8333115999272959  0.6564984700477414
  0.3419991590366440  0.0000004348654149  0.3431116016630829
  0.3411998610521257 -0.0000002610185705  0.8425852101107885
  0.3422567612819924  0.3347678481531081  0.3434625655551701
  0.3410939169830036  0.3336760070368767  0.8436246018507824
  0.3422561652263589  0.6652310174008385  0.3434598035398722
  0.3410929098783742  0.6663244101663610  0.8436234130254739
  0.0919478995708246  0.0000001217657999  0.3978144925234637
  0.0918289709035754  0.0000002662442811  0.8977817098315981
  0.0896924068935545  0.3343695687820106  0.3969221377314341
  0.0912807365040328  0.3333134703338996  0.8976548753237589
  0.0896925646009449  0.6656304077650708  0.3969222677298883
  0.0912811668071215  0.6666869817922579  0.8976542978538939
  0.4072820029804760  0.1659204976458138  0.1010892011539170
  0.4087240142777333  0.1666347816540227  0.6021045789704640
  0.4091946379029661  0.5000002422041449  0.1030929624075784
  0.4095032081505780  0.5000004239009354  0.6015694615299910
  0.4072822330769489  0.8340798877895140  0.1010892318092334
  0.4087236475357768  0.8333652647440537  0.6021038521579332
  0.9969165514995130  0.1664669724906407  0.1262691300531573
  0.9973753142195397  0.1659903146928917  0.6286233241385282
  0.9962980048123331  0.5000001531398118  0.1263861387854920
  0.9972260296997358  0.4999994096058371  0.6284079028908917
  0.9969165779277680  0.8335335336058648  0.1262693202913468
  0.9973746740331134  0.8340101654466027  0.6286239643042758
  0.5040663338589559  0.0000002484213291  0.3734791126236686
  0.5040324927038370  0.0000002929409565  0.8732271514554015
  0.5049585385301966  0.3371439609082178  0.3733104318285431
  0.5032660082917081  0.3331949512855524  0.8715055499895681
  0.5049581665746643  0.6628559428530546  0.3733068084733954
  0.5032657331860086  0.6668052521177906  0.8715056976933867
  0.6728276906056797  0.1633983646610744  0.2815426912408488
  0.6725391323788973  0.1667395362286245  0.7810262847278346
  0.6724683343367828  0.5000002364141923  0.7796572457497726
  0.6728277470150832  0.8366021128354594  0.2815427134735283
  0.6725393109843173  0.8332608794951502  0.7810260944327727
  0.8282417636207775  0.0000002080811454  0.2195767309353754
  0.8275283320417561  0.0000002072599261  0.7196404479262400
  0.8295432317188748  0.3301742884292960  0.2203610142583072
  0.8275285288766846  0.3336809317900627  0.7192501236452171
  0.8295433750985772  0.6698260462790866  0.2203615469725152
  0.8275286017321606  0.6663193820448274  0.7192502372894164
  0.8338203728524799  0.0000002901861162  0.4460473324617871
  0.8319512954681669  0.0000002788148043  0.9458937578490315
  0.8336776904414225  0.3309486374818391  0.4475986513021686
  0.8329671749957387  0.3330596350016120  0.9454897407176415
  0.8336778822912084  0.6690515687177249  0.4475993986636422
  0.8329671609990678  0.6669407717692181  0.9454900126890918
  0.6673158279395184  0.1679488302423663  0.0561262016037734
  0.6675261868558179  0.1661129894004913  0.5546103556040246
  0.6703419056191376  0.4999998822896958  0.0520279164450709
  0.6623608838799833  0.5000001363134515  0.5523843500229295
  0.6673157896609824  0.8320516819703331  0.0561255595949059
  0.6675255146043905  0.8338870953968457  0.5546096828234384
  0.4951399259401840  0.0000002207805271  0.1265307062940914
  0.4960328658786018 -0.0000001226706442  0.6277942110616672
  0.4936372866235491  0.3317291548900494  0.1229875337164355
  0.4959831505447791  0.3328546612252128  0.6275845683046074
  0.4936373540968628  0.6682712635725898  0.1229878746335835
  0.4959832150581839  0.6671458726095508  0.6275847377984018
  0.0044453457853719  0.1660867258514496  0.3730347252385919
  0.0038508244635985  0.1664499708101340  0.8727880355842007
  0.0011517263172682  0.4999999738808715  0.3729022069852076
  0.0037397560195436  0.5000002427031881  0.8726782012782297
  0.0044452713621556  0.8339134191314145  0.3730348841388715
  0.0038508745788935  0.8335504684652586  0.8727885097174689
  0.1731553367762395  0.0000000308231482  0.2805173633601113
  0.1725148954588401 -0.0000001053156367  0.7799677869408898
  0.1723538173776593  0.3335904979305712  0.2805132113972910
  0.1726174301787893  0.3334543262250716  0.7802534411412384
  0.1723534888447888  0.6664098241052397  0.2805126172257660
  0.1726172845065481  0.6665444125611373  0.7802528829366302
  0.3275127412911612  0.1668526021195612  0.2197544365552844
  0.3273467773615109  0.1666789494129745  0.7192081092724214
  0.3267745542427569  0.4999997107115690  0.2194762934158977
  0.3275871120310852  0.4999994953730291  0.7190331717578551
  0.3275120846898851  0.8331481419752339  0.2197533892415052
  0.3273465255748763  0.8333213827299893  0.7192072432281050
  0.3327761159618124  0.1670943846219412  0.4453269679154468
  0.3303483379132965  0.1660060010737345  0.9444552662302244
  0.3301974610866714  0.5000001225561786  0.4459660000548308
  0.3315231960068694  0.5000001795239493  0.9456966619550168
  0.3327790079327644  0.8329047929414554  0.4453256262902691
  0.3303485084749687  0.8339942249830937  0.9444552913568534
  0.1687691039009216  0.0000004504058199  0.0544628291825906
  0.1691454949054302 -0.0000006379679752  0.5542689771672914
  0.1682132664380589  0.3333056220354542  0.0542048804901504
  0.1673849384162663  0.3332759308913688  0.5536689110919594
  0.1682132406137557  0.6666946158341852  0.0542046390348184
  0.1673842676625286  0.6667202287472418  0.5536695678777009
  0.6681810036094511  0.5000006837268356  0.2794095146791760
  0.5968825872227143  0.5000004936777640  0.3943076598088095
 
  0.00000000E+00  0.00000000E+00  0.00000000E+00
  0.00000000E+00  0.00000000E+00  0.00000000E+00
  0.00000000E+00  0.00000000E+00  0.00000000E+00
  0.00000000E+00  0.00000000E+00  0.00000000E+00
  0.00000000E+00  0.00000000E+00  0.00000000E+00
  0.00000000E+00  0.00000000E+00  0.00000000E+00
  0.00000000E+00  0.00000000E+00  0.00000000E+00
  0.00000000E+00  0.00000000E+00  0.00000000E+00
  0.00000000E+00  0.00000000E+00  0.00000000E+00
  0.00000000E+00  0.00000000E+00  0.00000000E+00
  0.00000000E+00  0.00000000E+00  0.00000000E+00
  0.00000000E+00  0.00000000E+00  0.00000000E+00
  0.00000000E+00  0.00000000E+00  0.00000000E+00
  0.00000000E+00  0.00000000E+00  0.00000000E+00
  0.00000000E+00  0.00000000E+00  0.00000000E+00
  0.00000000E+00  0.00000000E+00  0.00000000E+00
  0.00000000E+00  0.00000000E+00  0.00000000E+00
  0.00000000E+00  0.00000000E+00  0.00000000E+00
  0.00000000E+00  0.00000000E+00  0.00000000E+00
  0.00000000E+00  0.00000000E+00  0.00000000E+00
  0.00000000E+00  0.00000000E+00  0.00000000E+00
  0.00000000E+00  0.00000000E+00  0.00000000E+00
  0.00000000E+00  0.00000000E+00  0.00000000E+00
  0.00000000E+00  0.00000000E+00  0.00000000E+00
  0.00000000E+00  0.00000000E+00  0.00000000E+00
  0.00000000E+00  0.00000000E+00  0.00000000E+00
  0.00000000E+00  0.00000000E+00  0.00000000E+00
  0.00000000E+00  0.00000000E+00  0.00000000E+00
  0.00000000E+00  0.00000000E+00  0.00000000E+00
  0.00000000E+00  0.00000000E+00  0.00000000E+00
  0.00000000E+00  0.00000000E+00  0.00000000E+00
  0.00000000E+00  0.00000000E+00  0.00000000E+00
  0.00000000E+00  0.00000000E+00  0.00000000E+00
  0.00000000E+00  0.00000000E+00  0.00000000E+00
  0.00000000E+00  0.00000000E+00  0.00000000E+00
  0.00000000E+00  0.00000000E+00  0.00000000E+00
  0.00000000E+00  0.00000000E+00  0.00000000E+00
  0.00000000E+00  0.00000000E+00  0.00000000E+00
  0.00000000E+00  0.00000000E+00  0.00000000E+00
  0.00000000E+00  0.00000000E+00  0.00000000E+00
  0.00000000E+00  0.00000000E+00  0.00000000E+00
  0.00000000E+00  0.00000000E+00  0.00000000E+00
  0.00000000E+00  0.00000000E+00  0.00000000E+00
  0.00000000E+00  0.00000000E+00  0.00000000E+00
  0.00000000E+00  0.00000000E+00  0.00000000E+00
  0.00000000E+00  0.00000000E+00  0.00000000E+00
  0.00000000E+00  0.00000000E+00  0.00000000E+00
  0.00000000E+00  0.00000000E+00  0.00000000E+00
  0.00000000E+00  0.00000000E+00  0.00000000E+00
  0.00000000E+00  0.00000000E+00  0.00000000E+00
  0.00000000E+00  0.00000000E+00  0.00000000E+00
  0.00000000E+00  0.00000000E+00  0.00000000E+00
  0.00000000E+00  0.00000000E+00  0.00000000E+00
  0.00000000E+00  0.00000000E+00  0.00000000E+00
  0.00000000E+00  0.00000000E+00  0.00000000E+00
  0.00000000E+00  0.00000000E+00  0.00000000E+00
  0.00000000E+00  0.00000000E+00  0.00000000E+00
  0.00000000E+00  0.00000000E+00  0.00000000E+00
  0.00000000E+00  0.00000000E+00  0.00000000E+00
  0.00000000E+00  0.00000000E+00  0.00000000E+00
  0.00000000E+00  0.00000000E+00  0.00000000E+00
  0.00000000E+00  0.00000000E+00  0.00000000E+00
  0.00000000E+00  0.00000000E+00  0.00000000E+00
  0.00000000E+00  0.00000000E+00  0.00000000E+00
  0.00000000E+00  0.00000000E+00  0.00000000E+00
  0.00000000E+00  0.00000000E+00  0.00000000E+00
  0.00000000E+00  0.00000000E+00  0.00000000E+00
  0.00000000E+00  0.00000000E+00  0.00000000E+00
  0.00000000E+00  0.00000000E+00  0.00000000E+00
  0.00000000E+00  0.00000000E+00  0.00000000E+00
  0.00000000E+00  0.00000000E+00  0.00000000E+00
  0.00000000E+00  0.00000000E+00  0.00000000E+00
  0.00000000E+00  0.00000000E+00  0.00000000E+00
  0.00000000E+00  0.00000000E+00  0.00000000E+00
  0.00000000E+00  0.00000000E+00  0.00000000E+00
  0.00000000E+00  0.00000000E+00  0.00000000E+00
  0.00000000E+00  0.00000000E+00  0.00000000E+00
  0.00000000E+00  0.00000000E+00  0.00000000E+00
  0.00000000E+00  0.00000000E+00  0.00000000E+00
  0.00000000E+00  0.00000000E+00  0.00000000E+00
  0.00000000E+00  0.00000000E+00  0.00000000E+00
  0.00000000E+00  0.00000000E+00  0.00000000E+00
  0.00000000E+00  0.00000000E+00  0.00000000E+00
  0.00000000E+00  0.00000000E+00  0.00000000E+00
  0.00000000E+00  0.00000000E+00  0.00000000E+00
  0.00000000E+00  0.00000000E+00  0.00000000E+00
  0.00000000E+00  0.00000000E+00  0.00000000E+00
  0.00000000E+00  0.00000000E+00  0.00000000E+00
  0.00000000E+00  0.00000000E+00  0.00000000E+00
  0.00000000E+00  0.00000000E+00  0.00000000E+00
  0.00000000E+00  0.00000000E+00  0.00000000E+00
  0.00000000E+00  0.00000000E+00  0.00000000E+00
  0.00000000E+00  0.00000000E+00  0.00000000E+00
  0.00000000E+00  0.00000000E+00  0.00000000E+00
  0.00000000E+00  0.00000000E+00  0.00000000E+00
  0.00000000E+00  0.00000000E+00  0.00000000E+00
  0.00000000E+00  0.00000000E+00  0.00000000E+00
  0.00000000E+00  0.00000000E+00  0.00000000E+00
  0.00000000E+00  0.00000000E+00  0.00000000E+00
  0.00000000E+00  0.00000000E+00  0.00000000E+00
  0.00000000E+00  0.00000000E+00  0.00000000E+00
  0.00000000E+00  0.00000000E+00  0.00000000E+00
  0.00000000E+00  0.00000000E+00  0.00000000E+00
  0.00000000E+00  0.00000000E+00  0.00000000E+00
  0.00000000E+00  0.00000000E+00  0.00000000E+00
  0.00000000E+00  0.00000000E+00  0.00000000E+00
  0.00000000E+00  0.00000000E+00  0.00000000E+00
  0.00000000E+00  0.00000000E+00  0.00000000E+00
  0.00000000E+00  0.00000000E+00  0.00000000E+00
  0.00000000E+00  0.00000000E+00  0.00000000E+00
  0.00000000E+00  0.00000000E+00  0.00000000E+00
  0.00000000E+00  0.00000000E+00  0.00000000E+00
  0.00000000E+00  0.00000000E+00  0.00000000E+00
  0.00000000E+00  0.00000000E+00  0.00000000E+00
  0.00000000E+00  0.00000000E+00  0.00000000E+00
  0.00000000E+00  0.00000000E+00  0.00000000E+00
  0.00000000E+00  0.00000000E+00  0.00000000E+00
  0.00000000E+00  0.00000000E+00  0.00000000E+00
  0.00000000E+00  0.00000000E+00  0.00000000E+00
  0.00000000E+00  0.00000000E+00  0.00000000E+00
