 vasp.6.4.2 20Jul23 (build Nov 12 2023 22:16:35) complex                         
 executed on              LinuxNV date 2025.05.16  14:14:03
 running    4 mpi-ranks, on    1 nodes
 distrk:  each k-point on    1 cores,    4 groups
 distr:  one band on NCORE=   1 cores,    1 groups
 OpenACC runtime initialized ...    4 GPUs detected


--------------------------------------------------------------------------------------------------------


 INCAR:
   PREC = Normal
   ENCUT = 450
   NELM = 500
   IBRION = -1
   ISPIN = 1
   NSW = 0
   ISIF = 2
   EDIFF = 1E-5
   EDIFFG = -5E-3
   ISTART = 0
   ICHARG = 0
   ISMEAR = 0
   SIGMA = 0.05
   LWAVE = .T.
   LCHARG = .T.
   LREAL = Auto
   LPLANE = .TRUE.
   NPAR = 1
   KPAR = 4
   NCORE = 1
   NELECT = 1051
   ICORELEVEL = 1
   ISYM = 0

 POTCAR:    PAW_PBE Ga_d 06Jul2010                
 POTCAR:   PAW_PBE N 08Apr2002                    
 POTCAR:    PAW_PBE O 08Apr2002                   
 POTCAR:    PAW_PBE Ga_d 06Jul2010                
   SHA256 =  a60ddf36e14f00ea098d9e3914b3745f1b7105e68786148f49ae384e44b4226c Ga_d/POTCAR           
   COPYR  = (c) Copyright 06Jul2010 Georg Kresse                                                    
   COPYR  = This file is part of the software VASP. Any use, copying, and all other rights are regul
   COPYR  = If you do not have a valid VASP license, you may not use, copy or distribute this file. 
   VRHFIN =Ga: s2p1                                                                                 
   LEXCH  = PE                                                                                      
   EATOM  =  2148.8298 eV,  157.9345 Ry                                                             
                                                                                                    
   TITEL  = PAW_PBE Ga_d 06Jul2010                                                                  
   LULTRA =        F    use ultrasoft PP ?                                                          
   IUNSCR =        1    unscreen: 0-lin 1-nonlin 2-no                                               
   RPACOR =    1.700    partial core radius                                                         
   POMASS =   69.723; ZVAL   =   13.000    mass and valenz                                          
   RCORE  =    2.300    outmost cutoff radius                                                       
   RWIGS  =    2.300; RWIGS  =    1.217    wigner-seitz radius (au A)                               
   ENMAX  =  282.691; ENMIN  =  212.018 eV                                                          
   ICORE  =        3    local potential                                                             
   LCOR   =        T    correct aug charges                                                         
   LPAW   =        T    paw PP                                                                      
   EAUG   =  490.690                                                                                
   DEXC   =    0.000                                                                                
   RMAX   =    2.341    core radius for proj-oper                                                   
   RAUG   =    1.300    factor for augmentation sphere                                              
   RDEP   =    2.413    radius for radial grids                                                     
   RDEPT  =    1.856    core radius for aug-charge                                                  
                                                                                                    
   Atomic configuration                                                                             
    9 entries                                                                                       
     n  l   j            E        occ.                                                              
     1  0  0.50    -10228.7831   2.0000                                                             
     2  0  0.50     -1262.1604   2.0000                                                             
     2  1  1.50     -1098.6333   6.0000                                                             
     3  0  0.50      -148.1110   2.0000                                                             
     3  1  1.50       -98.8436   6.0000                                                             
     3  2  2.50       -19.1549  10.0000                                                             
     4  0  0.50        -8.9483   2.0000                                                             
     4  1  0.50        -2.5791   1.0000                                                             
     4  3  2.50        -2.7416   0.0000                                                             
   Description                                                                                      
     l       E           TYP  RCUT    TYP  RCUT                                                     
     2    -19.1549037     23  2.300                                                                 
     2     -5.4423304     23  2.300                                                                 
     0     -8.9483111     23  2.300                                                                 
     0     68.0291300     23  2.300                                                                 
     1     -2.5790802     23  2.100                                                                 
     1     81.6349560     23  2.300                                                                 
     3      6.8029130     23  2.300                                                                 
  local pseudopotential read in
  partial core-charges read in
  partial kinetic energy density read in
  atomic valenz-charges read in
  non local Contribution for L=            2  read in
    real space projection operators read in
  non local Contribution for L=            2  read in
    real space projection operators read in
  non local Contribution for L=            0  read in
    real space projection operators read in
  non local Contribution for L=            0  read in
    real space projection operators read in
  non local Contribution for L=            1  read in
    real space projection operators read in
  non local Contribution for L=            1  read in
    real space projection operators read in
    PAW grid and wavefunctions read in
 
   number of l-projection  operators is LMAX  =            6
   number of lm-projection operators is LMMAX =           18
 
 POTCAR:   PAW_PBE N 08Apr2002                    
   SHA256 =  e053789ff3a61a86a1b75d8a110fcc91f86041011e7b0817c7c99e4e8a6349d7 N/POTCAR              
   COPYR  = (c) Copyright 08Apr2002 Georg Kresse                                                    
   COPYR  = This file is part of the software VASP. Any use, copying, and all other rights are regul
   COPYR  = If you do not have a valid VASP license, you may not use, copy or distribute this file. 
   VRHFIN =N: s2p3                                                                                  
   LEXCH  = PE                                                                                      
   EATOM  =   264.5486 eV,   19.4438 Ry                                                             
                                                                                                    
   TITEL  = PAW_PBE N 08Apr2002                                                                     
   LULTRA =        F    use ultrasoft PP ?                                                          
   IUNSCR =        1    unscreen: 0-lin 1-nonlin 2-no                                               
   RPACOR =    1.200    partial core radius                                                         
   POMASS =   14.001; ZVAL   =    5.000    mass and valenz                                          
   RCORE  =    1.500    outmost cutoff radius                                                       
   RWIGS  =    1.400; RWIGS  =    0.741    wigner-seitz radius (au A)                               
   ENMAX  =  400.000; ENMIN  =  300.000 eV                                                          
   ICORE  =        2    local potential                                                             
   LCOR   =        T    correct aug charges                                                         
   LPAW   =        T    paw PP                                                                      
   EAUG   =  627.112                                                                                
   DEXC   =    0.000                                                                                
   RMAX   =    1.529    core radius for proj-oper                                                   
   RAUG   =    1.300    factor for augmentation sphere                                              
   RDEP   =    1.514    radius for radial grids                                                     
   RDEPT  =    1.338    core radius for aug-charge                                                  
                                                                                                    
   Atomic configuration                                                                             
    4 entries                                                                                       
     n  l   j            E        occ.                                                              
     1  0  0.50      -384.7179   2.0000                                                             
     2  0  0.50       -18.5828   2.0000                                                             
     2  1  0.50        -7.0898   3.0000                                                             
     3  2  1.50        -6.8029   0.0000                                                             
   Description                                                                                      
     l       E           TYP  RCUT    TYP  RCUT                                                     
     0    -18.5828119     23  1.200                                                                 
     0    -13.5018863     23  1.200                                                                 
     1     -7.0897853     23  1.500                                                                 
     1      9.5240782     23  1.500                                                                 
     2     -6.8029130      7  1.500                                                                 
  local pseudopotential read in
  partial core-charges read in
  partial kinetic energy density read in
  atomic valenz-charges read in
  non local Contribution for L=            0  read in
    real space projection operators read in
  non local Contribution for L=            0  read in
    real space projection operators read in
  non local Contribution for L=            1  read in
    real space projection operators read in
  non local Contribution for L=            1  read in
    real space projection operators read in
    PAW grid and wavefunctions read in
 
   number of l-projection  operators is LMAX  =            4
   number of lm-projection operators is LMMAX =            8
 
 POTCAR:    PAW_PBE O 08Apr2002                   
   SHA256 =  818f92134a0a090dccd8ba1447fa70422a3b330e708bb4f08108d8ae51209ddf O/POTCAR              
   COPYR  = (c) Copyright 08Apr2002 Georg Kresse                                                    
   COPYR  = This file is part of the software VASP. Any use, copying, and all other rights are regul
   COPYR  = If you do not have a valid VASP license, you may not use, copy or distribute this file. 
   VRHFIN =O: s2p4                                                                                  
   LEXCH  = PE                                                                                      
   EATOM  =   432.3788 eV,   31.7789 Ry                                                             
                                                                                                    
   TITEL  = PAW_PBE O 08Apr2002                                                                     
   LULTRA =        F    use ultrasoft PP ?                                                          
   IUNSCR =        1    unscreen: 0-lin 1-nonlin 2-no                                               
   RPACOR =    1.200    partial core radius                                                         
   POMASS =   16.000; ZVAL   =    6.000    mass and valenz                                          
   RCORE  =    1.520    outmost cutoff radius                                                       
   RWIGS  =    1.550; RWIGS  =    0.820    wigner-seitz radius (au A)                               
   ENMAX  =  400.000; ENMIN  =  300.000 eV                                                          
   ICORE  =        2    local potential                                                             
   LCOR   =        T    correct aug charges                                                         
   LPAW   =        T    paw PP                                                                      
   EAUG   =  605.392                                                                                
   DEXC   =    0.000                                                                                
   RMAX   =    1.553    core radius for proj-oper                                                   
   RAUG   =    1.300    factor for augmentation sphere                                              
   RDEP   =    1.550    radius for radial grids                                                     
   RDEPT  =    1.329    core radius for aug-charge                                                  
                                                                                                    
   Atomic configuration                                                                             
    4 entries                                                                                       
     n  l   j            E        occ.                                                              
     1  0  0.50      -514.6923   2.0000                                                             
     2  0  0.50       -23.9615   2.0000                                                             
     2  1  0.50        -9.0305   4.0000                                                             
     3  2  1.50        -9.5241   0.0000                                                             
   Description                                                                                      
     l       E           TYP  RCUT    TYP  RCUT                                                     
     0    -23.9615318     23  1.200                                                                 
     0     -9.5240782     23  1.200                                                                 
     1     -9.0304911     23  1.520                                                                 
     1      8.1634956     23  1.520                                                                 
     2     -9.5240782      7  1.500                                                                 
  local pseudopotential read in
  partial core-charges read in
  partial kinetic energy density read in
  kinetic energy density of atom read in
  atomic valenz-charges read in
  non local Contribution for L=            0  read in
    real space projection operators read in
  non local Contribution for L=            0  read in
    real space projection operators read in
  non local Contribution for L=            1  read in
    real space projection operators read in
  non local Contribution for L=            1  read in
    real space projection operators read in
    PAW grid and wavefunctions read in
 
   number of l-projection  operators is LMAX  =            4
   number of lm-projection operators is LMMAX =            8
 
 Optimization of the real space projectors (new method)

 maximal supplied QI-value         = 16.25
 optimisation between [QCUT,QGAM] = [ 10.73, 21.61] = [ 32.22,130.83] Ry 
 Optimized for a Real-space Cutoff    1.42 Angstroem

   l    n(q)    QCUT    max X(q) W(low)/X(q) W(high)/X(q)  e(spline) 
   2      8    10.726     7.143    0.22E-03    0.16E-03    0.73E-07
   2      8    10.726     5.586    0.40E-03    0.26E-03    0.10E-06
   0      9    10.726    12.382    0.25E-04    0.21E-05    0.37E-07
   0      9    10.726     6.622    0.42E-04    0.48E-05    0.77E-07
   1      9    10.726     7.935    0.27E-03    0.13E-04    0.16E-06
   1      9    10.726     2.425    0.23E-03    0.15E-04    0.14E-06
 Optimization of the real space projectors (new method)

 maximal supplied QI-value         = 25.13
 optimisation between [QCUT,QGAM] = [ 10.81, 21.61] = [ 32.71,130.83] Ry 
 Optimized for a Real-space Cutoff    1.23 Angstroem

   l    n(q)    QCUT    max X(q) W(low)/X(q) W(high)/X(q)  e(spline) 
   0      8    10.807    79.467    0.34E-03    0.68E-03    0.21E-06
   0      8    10.807    66.151    0.34E-03    0.67E-03    0.21E-06
   1      7    10.807    14.030    0.45E-03    0.13E-02    0.11E-05
   1      7    10.807     9.831    0.48E-03    0.13E-02    0.11E-05
 Optimization of the real space projectors (new method)

 maximal supplied QI-value         = 24.76
 optimisation between [QCUT,QGAM] = [ 10.64, 21.54] = [ 31.73,129.89] Ry 
 Optimized for a Real-space Cutoff    1.23 Angstroem

   l    n(q)    QCUT    max X(q) W(low)/X(q) W(high)/X(q)  e(spline) 
   0      8    10.645    20.381    0.38E-03    0.60E-03    0.15E-06
   0      8    10.645    15.268    0.40E-03    0.65E-03    0.17E-06
   1      7    10.645     5.964    0.30E-03    0.63E-03    0.18E-06
   1      7    10.645     5.382    0.24E-03    0.53E-03    0.16E-06
  PAW_PBE Ga_d 06Jul2010                :
 energy of atom  1       EATOM=-2148.8298
 kinetic energy error for atom=    0.0038 (will be added to EATOM!!)
 PAW_PBE N 08Apr2002                    :
 energy of atom  2       EATOM= -264.5486
 kinetic energy error for atom=    0.0253 (will be added to EATOM!!)
  PAW_PBE O 08Apr2002                   :
 energy of atom  3       EATOM= -432.3788
 kinetic energy error for atom=    0.0389 (will be added to EATOM!!)
 
 
 POSCAR: Ga N  O
  positions in direct lattice
  velocities in cartesian coordinates
 exchange correlation table for  LEXCH =        8
   RHO(1)=    0.500       N(1)  =     2000
   RHO(2)=  100.500       N(2)  =     4000
 


--------------------------------------------------------------------------------------------------------


 ion  position               nearest neighbor table
   1  0.659  0.000  0.157-  56 1.94  59 1.95 114 1.95  57 2.02  94 2.08  64 2.08
   2  0.160  0.167  0.656- 119 1.95  70 1.95  99 1.97  51 2.02 117 2.07  50 2.08
   3  0.840  0.166  0.343-  60 1.94  58 1.95  75 1.95  64 2.02  57 2.07  66 2.08
   4  0.591  0.167  0.398- 107 1.84  55 1.85  72 1.85  64 1.87
   5  0.908  0.000  0.102- 106 1.84  96 1.85  54 1.85  57 1.87
   6  0.158  0.166  0.156-  54 1.94 109 1.95  83 1.95  61 2.03  53 2.07  78 2.08
   7  0.341  0.000  0.343- 103 1.94  68 1.94  55 1.95  53 2.03  61 2.08 118 2.08
   8  0.091  1.000  0.397-  70 1.84 116 1.85  60 1.85  53 1.87
   9  0.409  0.167  0.102-  69 1.84  76 1.85  56 1.85  61 1.87
  10  0.659  0.667  0.157- 115 1.94 114 1.95  82 1.95 112 2.02  94 2.08  73 2.08
  11  0.409  0.833  0.102-  80 1.84 115 1.85  56 1.85 118 1.87
  12  0.411  0.500  0.608-  90 1.85  88 1.85  97 1.86  49 1.87
  13  0.840  0.834  0.343- 116 1.94  58 1.95 113 1.95  94 2.02  57 2.07 112 2.08
  14  0.341  0.333  0.844-  67 1.95  69 1.95  98 1.95 117 2.03  97 2.06  51 2.08
  15  0.159  0.500  0.657-  81 1.94  99 1.96 120 1.96  97 2.03  93 2.07 117 2.07
  16  0.909  0.333  0.602-  75 1.84 119 1.85  81 1.85  65 1.87
  17  0.091  0.667  0.897- 102 1.84  91 1.85 110 1.85  93 1.87
  18  0.659  1.000  0.657-  63 1.94 107 1.95  89 1.95 105 2.02  86 2.08 104 2.08
  19  0.841  0.166  0.843-  52 1.94 106 1.95  62 1.95 104 2.02 105 2.08  65 2.08
  20  0.591  0.167  0.898-  59 1.84  67 1.85  85 1.85 104 1.87
  21  0.910  1.000  0.602-  58 1.84 101 1.85 119 1.85 105 1.87
  22  0.091  0.333  0.897- 109 1.84  52 1.85 110 1.85 117 1.87
  23  0.341  0.000  0.843-  85 1.94  80 1.96  69 1.96  50 2.02  51 2.08 100 2.08
  24  0.091  0.000  0.897-  83 1.84  52 1.85  91 1.85  50 1.87
  25  0.410  0.833  0.602- 103 1.84  63 1.85  90 1.85 100 1.88
  26  0.089  0.667  0.397- 116 1.84  77 1.85 120 1.85  95 1.87
  27  0.158  0.834  0.156-  96 1.94 102 1.95  83 1.95 118 2.03  53 2.07  95 2.08
  28  0.341  0.667  0.844-  92 1.95  80 1.95  98 1.95  93 2.03  97 2.06 100 2.08
  29  0.160  0.833  0.656- 101 1.95  70 1.95 120 1.97 100 2.02  93 2.07  50 2.08
  30  0.909  0.667  0.602- 113 1.84 101 1.85  81 1.85  87 1.87
  31  0.841  0.834  0.843-  91 1.94 106 1.95  84 1.95  86 2.02 105 2.08  87 2.08
  32  0.660  0.667  0.657-  90 1.94  89 1.95 108 1.95  87 2.02  86 2.08  74 2.08
  33  0.592  0.500  0.898-  82 1.84  92 1.85  67 1.85  74 1.87
  34  0.841  0.500  0.844- 110 1.94  84 1.95  62 1.95  74 2.02  65 2.08  87 2.08
  35  0.660  0.333  0.657-  88 1.94 107 1.95 108 1.95  65 2.02 104 2.08  74 2.08
  36  0.591  0.833  0.398-  89 1.84  55 1.85 111 1.85  94 1.87
  37  0.591  0.833  0.898- 114 1.84  92 1.85  85 1.85  86 1.87
  38  0.909  0.667  0.102-  84 1.84  71 1.85  96 1.85 112 1.87
  39  0.410  0.167  0.602-  68 1.84  63 1.85  88 1.85  51 1.88
  40  0.409  0.500  0.102-  98 1.84  76 1.85 115 1.85  79 1.86
  41  0.089  0.333  0.397-  60 1.84  77 1.85  99 1.85  78 1.87
  42  0.340  0.668  0.343- 103 1.96  49 1.96 111 1.96  95 2.03 118 2.06  79 2.11
  43  0.159  0.500  0.156-  71 1.95 109 1.95 102 1.95  79 2.01  95 2.08  78 2.08
  44  0.340  0.332  0.343-  68 1.96  49 1.96  72 1.96  78 2.03  61 2.06  79 2.11
  45  0.591  0.500  0.398- 108 1.84 111 1.85  72 1.85  73 1.87
  46  0.840  0.500  0.343-  77 1.94 113 1.95  75 1.95  73 2.02  66 2.08 112 2.08
  47  0.659  0.333  0.157-  76 1.94  59 1.95  82 1.95  66 2.02  64 2.08  73 2.08
  48  0.909  0.333  0.102-  62 1.84  71 1.85  54 1.85  66 1.87
  49  0.337  0.500  0.447-  12 1.87  44 1.96  42 1.96
  50  0.173  1.000  0.780-  24 1.87  23 2.02   2 2.08  29 2.08
  51  0.328  0.167  0.719-  39 1.88   2 2.02  23 2.08  14 2.08
  52  0.004  0.166  0.872-  22 1.85  24 1.85  19 1.94
  53  0.172  0.000  0.280-   8 1.87   7 2.03   6 2.07  27 2.07
  54  0.996  0.166  0.127-   5 1.85  48 1.85   6 1.94
  55  0.504  1.000  0.372-   4 1.85  36 1.85   7 1.95
  56  0.496  0.000  0.127-  11 1.85   9 1.85   1 1.94
  57  0.827  0.000  0.220-   5 1.87   1 2.02  13 2.07   3 2.07
  58  0.832  1.000  0.446-  21 1.84   3 1.95  13 1.95
  59  0.668  0.166  0.054-  20 1.84   1 1.95  47 1.95
  60  0.003  0.166  0.373-  41 1.84   8 1.85   3 1.94
  61  0.327  0.167  0.219-   9 1.87   6 2.03  44 2.06   7 2.08
  62  0.832  0.333  0.946-  48 1.84  34 1.95  19 1.95
  63  0.497  1.000  0.628-  39 1.85  25 1.85  18 1.94
  64  0.672  0.167  0.280-   4 1.87   3 2.02  47 2.08   1 2.08
  65  0.828  0.333  0.720-  16 1.87  35 2.02  19 2.08  34 2.08
  66  0.827  0.333  0.220-  48 1.87  47 2.02  46 2.08   3 2.08
  67  0.504  0.333  0.874-  20 1.85  33 1.85  14 1.95
  68  0.332  0.164  0.446-  39 1.84   7 1.94  44 1.96
  69  0.332  0.166  0.946-   9 1.84  14 1.95  23 1.96
  70  0.168  0.000  0.554-   8 1.84   2 1.95  29 1.95
  71  0.996  0.500  0.127-  48 1.85  38 1.85  43 1.95
  72  0.504  0.334  0.373-  45 1.85   4 1.85  44 1.96
  73  0.672  0.500  0.280-  45 1.87  46 2.02  47 2.08  10 2.08
  74  0.673  0.500  0.781-  33 1.87  34 2.02  35 2.08  32 2.08
  75  0.832  0.333  0.446-  16 1.84   3 1.95  46 1.95
  76  0.497  0.333  0.127-   9 1.85  40 1.85  47 1.94
  77  0.003  0.500  0.373-  41 1.85  26 1.85  46 1.94
  78  0.171  0.333  0.280-  41 1.87  44 2.03   6 2.08  43 2.08
  79  0.326  0.500  0.217-  40 1.86  43 2.01  42 2.11  44 2.11
  80  0.332  0.834  0.946-  11 1.84  28 1.95  23 1.96
  81  0.996  0.500  0.627-  16 1.85  30 1.85  15 1.94
  82  0.668  0.500  0.055-  33 1.84  10 1.95  47 1.95
  83  0.168  0.000  0.054-  24 1.84  27 1.95   6 1.95
  84  0.832  0.667  0.946-  38 1.84  34 1.95  31 1.95
  85  0.504  0.000  0.873-  20 1.85  37 1.85  23 1.94
  86  0.673  0.834  0.781-  37 1.87  31 2.02  18 2.08  32 2.08
  87  0.828  0.667  0.720-  30 1.87  32 2.02  31 2.08  34 2.08
  88  0.498  0.333  0.631-  39 1.85  12 1.85  35 1.94
  89  0.668  0.833  0.554-  36 1.84  32 1.95  18 1.95
  90  0.498  0.667  0.631-  25 1.85  12 1.85  32 1.94
  91  0.004  0.834  0.872-  17 1.85  24 1.85  31 1.94
  92  0.504  0.667  0.874-  37 1.85  33 1.85  28 1.95
  93  0.172  0.667  0.780-  17 1.87  28 2.03  15 2.07  29 2.07
  94  0.672  0.833  0.280-  36 1.87  13 2.02  10 2.08   1 2.08
  95  0.171  0.667  0.280-  26 1.87  42 2.03  27 2.08  43 2.08
  96  0.996  0.834  0.127-   5 1.85  38 1.85  27 1.94
  97  0.328  0.500  0.722-  12 1.86  15 2.03  28 2.06  14 2.06
  98  0.331  0.500  0.946-  40 1.84  14 1.95  28 1.95
  99  0.169  0.335  0.553-  41 1.85  15 1.96   2 1.97
 100  0.328  0.833  0.719-  25 1.88  29 2.02  23 2.08  28 2.08
 101  0.997  0.833  0.626-  30 1.85  21 1.85  29 1.95
 102  0.167  0.667  0.054-  17 1.84  27 1.95  43 1.95
 103  0.332  0.836  0.446-  25 1.84   7 1.94  42 1.96
 104  0.673  0.166  0.781-  20 1.87  19 2.02  18 2.08  35 2.08
 105  0.828  0.000  0.719-  21 1.87  18 2.02  31 2.08  19 2.08
 106  0.832  1.000  0.946-   5 1.84  19 1.95  31 1.95
 107  0.668  0.167  0.554-   4 1.84  35 1.95  18 1.95
 108  0.668  0.500  0.555-  45 1.84  32 1.95  35 1.95
 109  0.167  0.333  0.054-  22 1.84   6 1.95  43 1.95
 110  0.004  0.500  0.872-  17 1.85  22 1.85  34 1.94
 111  0.504  0.666  0.373-  45 1.85  36 1.85  42 1.96
 112  0.827  0.667  0.220-  38 1.87  10 2.02  46 2.08  13 2.08
 113  0.832  0.667  0.446-  30 1.84  13 1.95  46 1.95
 114  0.668  0.834  0.054-  37 1.84   1 1.95  10 1.95
 115  0.497  0.667  0.127-  11 1.85  40 1.85  10 1.94
 116  0.003  0.834  0.373-  26 1.84   8 1.85  13 1.94
 117  0.172  0.333  0.780-  22 1.87  14 2.03  15 2.07   2 2.07
 118  0.327  0.833  0.219-  11 1.87  27 2.03  42 2.06   7 2.08
 119  0.997  0.167  0.626-  16 1.85  21 1.85   2 1.95
 120  0.169  0.665  0.553-  26 1.85  15 1.96  29 1.97
 

IMPORTANT INFORMATION: All symmetrisations will be switched off!
NOSYMM: (Re-)initialisation of all symmetry stuff for point group C_1.


----------------------------------------------------------------------------------------

                                     Primitive cell                                     

  volume of cell :    1268.8052

  direct lattice vectors                    reciprocal lattice vectors
    12.280473709  0.000000000  0.000000000     0.081430084 -0.000000000  0.019947422
     0.000000000  9.142702103  0.000000000     0.000000000  0.109376855 -0.000000000
    -2.768261641  0.000000000 11.300697481     0.000000000  0.000000000  0.088490113

  length of vectors
    12.280473709  9.142702103 11.634819984     0.083837689  0.109376855  0.088490113

  position of ions in fractional coordinates (direct lattice)
     0.658608169  0.000000003  0.156630675
     0.159704764  0.166894438  0.656220313
     0.840344833  0.166456796  0.343327017
     0.591089924  0.166734685  0.398008133
     0.908230063  0.000000011  0.102366471
     0.158259503  0.166457831  0.156151562
     0.341019266  0.000000013  0.343334689
     0.091222375  0.999999995  0.397407915
     0.408784914  0.166911045  0.102344711
     0.658995364  0.666841015  0.156538705
     0.408784976  0.833088987  0.102344628
     0.410614059  0.500000038  0.607503604
     0.840344854  0.833543201  0.343326949
     0.340947061  0.333265570  0.844052814
     0.159016601  0.500000002  0.656873192
     0.908943169  0.333271066  0.602142583
     0.090728829  0.666884922  0.897020101
     0.659482612  0.999999983  0.656909815
     0.841167047  0.166462947  0.843447926
     0.591168029  0.166678090  0.897583544
     0.909599530  0.999999990  0.602245582
     0.090728846  0.333115068  0.897020197
     0.341044766  0.000000002  0.842961116
     0.091346106  0.000000016  0.897255808
     0.409637091  0.833166082  0.602066147
     0.089368218  0.667038452  0.396897580
     0.158259475  0.833542188  0.156151399
     0.340947086  0.666734431  0.844052743
     0.159704787  0.833105552  0.656220314
     0.908943172  0.666728937  0.602142530
     0.841167060  0.833537053  0.843447878
     0.659819419  0.666819225  0.657090936
     0.591502240  0.499999990  0.898070977
     0.841158028  0.500000001  0.843566386
     0.659819417  0.333180778  0.657090983
     0.591089968  0.833265315  0.398008113
     0.591168013  0.833321921  0.897583474
     0.908819383  0.666601158  0.102357070
     0.409637230  0.166833845  0.602066482
     0.408987460  0.499999997  0.102086164
     0.089368132  0.332961560  0.396897667
     0.339555813  0.668498323  0.342954143
     0.159069073  0.499999995  0.155644555
     0.339555777  0.331501605  0.342954738
     0.591436651  0.499999983  0.397858947
     0.840192459  0.500000005  0.343144538
     0.658995357  0.333158992  0.156538773
     0.908819360  0.333398839  0.102357092
     0.337480188  0.500000150  0.446710806
     0.172788577  0.999999994  0.780112349
     0.327692651  0.167052339  0.719216679
     0.003582030  0.166339318  0.872172532
     0.172065301  0.000000003  0.279918001
     0.995828441  0.166407669  0.127121086
     0.503794172  0.999999984  0.372414843
     0.495965043  0.000000030  0.127108184
     0.827007657  0.000000005  0.219645113
     0.831673763  0.999999979  0.445961283
     0.667971643  0.166452770  0.054278203
     0.002965083  0.166023795  0.372973302
     0.327012740  0.166867860  0.219425121
     0.832380509  0.333240181  0.945697034
     0.497028067  0.999999925  0.627663180
     0.672192556  0.166714026  0.280470907
     0.827885490  0.333284858  0.719536610
     0.827370579  0.333156637  0.219556576
     0.503755210  0.333469230  0.873961451
     0.332142959  0.164466910  0.445917831
     0.331823895  0.166485077  0.945702398
     0.167834671  0.000000001  0.554008391
     0.996254312  0.499999988  0.126878576
     0.503609680  0.333586696  0.372780913
     0.672372166  0.499999994  0.280366772
     0.673139978  0.500000005  0.781084302
     0.831733833  0.333260650  0.445693423
     0.496534373  0.333246893  0.127165501
     0.002582784  0.500000028  0.372660484
     0.170736623  0.333182310  0.279709662
     0.326157836  0.500000013  0.216638972
     0.331823916  0.833514911  0.945702330
     0.996477400  0.500000000  0.626530530
     0.668462667  0.499999985  0.054563680
     0.167783411  0.000000044  0.053969818
     0.832380525  0.666759828  0.945697013
     0.503594498  0.000000014  0.872867790
     0.673202549  0.833708093  0.780977528
     0.827885502  0.666715129  0.719536578
     0.498170398  0.332550631  0.630729270
     0.668148378  0.833339031  0.554435866
     0.498170405  0.667449417  0.630729213
     0.003582041  0.833660700  0.872172500
     0.503755223  0.666530758  0.873961422
     0.172229180  0.666931600  0.779798852
     0.672192563  0.833285983  0.280470860
     0.170736585  0.666817699  0.279709492
     0.995828436  0.833592350  0.127121037
     0.327521072  0.499999990  0.722101601
     0.331310278  0.500000019  0.945972974
     0.168850697  0.334628618  0.553033550
     0.327692667  0.832947658  0.719216562
     0.996975705  0.832998202  0.626492285
     0.167026729  0.667330116  0.053612108
     0.332142890  0.835532951  0.445917544
     0.673202526  0.166291895  0.780977554
     0.828005638  0.000000008  0.719299996
     0.832141098  0.999999993  0.945698530
     0.668148340  0.166660967  0.554435891
     0.668100591  0.499999987  0.554542209
     0.167026753  0.332669855  0.053612205
     0.003618869  0.499999987  0.872097448
     0.503609729  0.666413303  0.372780847
     0.827370575  0.666843364  0.219556532
     0.831733813  0.666739371  0.445693383
     0.667971608  0.833547256  0.054278152
     0.496534384  0.666753103  0.127165473
     0.002965106  0.833976182  0.372973253
     0.172229166  0.333068402  0.779798901
     0.327012721  0.833132182  0.219424940
     0.996975694  0.167001791  0.626492295
     0.168850683  0.665371369  0.553033511

  ion indices of the primitive-cell ions
   primitive index   ion index
                 1           1
                 2           2
                 3           3
                 4           4
                 5           5
                 6           6
                 7           7
                 8           8
                 9           9
                10          10
                11          11
                12          12
                13          13
                14          14
                15          15
                16          16
                17          17
                18          18
                19          19
                20          20
                21          21
                22          22
                23          23
                24          24
                25          25
                26          26
                27          27
                28          28
                29          29
                30          30
                31          31
                32          32
                33          33
                34          34
                35          35
                36          36
                37          37
                38          38
                39          39
                40          40
                41          41
                42          42
                43          43
                44          44
                45          45
                46          46
                47          47
                48          48
                49          49
                50          50
                51          51
                52          52
                53          53
                54          54
                55          55
                56          56
                57          57
                58          58
                59          59
                60          60
                61          61
                62          62
                63          63
                64          64
                65          65
                66          66
                67          67
                68          68
                69          69
                70          70
                71          71
                72          72
                73          73
                74          74
                75          75
                76          76
                77          77
                78          78
                79          79
                80          80
                81          81
                82          82
                83          83
                84          84
                85          85
                86          86
                87          87
                88          88
                89          89
                90          90
                91          91
                92          92
                93          93
                94          94
                95          95
                96          96
                97          97
                98          98
                99          99
               100         100
               101         101
               102         102
               103         103
               104         104
               105         105
               106         106
               107         107
               108         108
               109         109
               110         110
               111         111
               112         112
               113         113
               114         114
               115         115
               116         116
               117         117
               118         118
               119         119
               120         120

----------------------------------------------------------------------------------------

 
 
 KPOINTS: Automatic mesh                          

Automatic generation of k-mesh.
 Grid dimensions read from file:
 generate k-points for:    2    2    2

 Generating k-lattice:

  Cartesian coordinates                     Fractional coordinates (reciprocal lattice)
     0.040715042 -0.000000000  0.009973711     0.500000000  0.000000000  0.000000000
     0.000000000  0.054688427 -0.000000000     0.000000000  0.500000000  0.000000000
     0.000000000  0.000000000  0.044245057     0.000000000  0.000000000  0.500000000

  Length of vectors
     0.041918845  0.054688427  0.044245057

  Shift w.r.t. Gamma in fractional coordinates (k-lattice)
     0.000000000  0.000000000  0.000000000

 
 Subroutine IBZKPT returns following result:
 ===========================================
 
 Found      8 irreducible k-points:
 
 Following reciprocal coordinates:
            Coordinates               Weight
  0.000000  0.000000  0.000000      1.000000
  0.500000  0.000000  0.000000      1.000000
  0.000000  0.500000  0.000000      1.000000
  0.500000  0.500000  0.000000      1.000000
  0.000000  0.000000  0.500000      1.000000
  0.500000  0.000000  0.500000      1.000000
  0.000000  0.500000  0.500000      1.000000
  0.500000  0.500000  0.500000      1.000000
 
 Following cartesian coordinates:
            Coordinates               Weight
  0.000000  0.000000  0.000000      1.000000
  0.040715  0.000000  0.009974      1.000000
  0.000000  0.054688  0.000000      1.000000
  0.040715  0.054688  0.009974      1.000000
  0.000000  0.000000  0.044245      1.000000
  0.040715  0.000000  0.054219      1.000000
  0.000000  0.054688  0.044245      1.000000
  0.040715  0.054688  0.054219      1.000000
 


--------------------------------------------------------------------------------------------------------




 Dimension of arrays:
   k-points           NKPTS =      8   k-points in BZ     NKDIM =      8   number of bands    NBANDS=    630
   number of dos      NEDOS =    301   number of ions     NIONS =    120
   non local maximal  LDIM  =      6   non local SUM 2l+1 LMDIM =     18
   total plane-waves  NPLWV = 184320
   max r-space proj   IRMAX =   1800   max aug-charges    IRDMAX=   5704
   dimension x,y,z NGX =    64 NGY =   48 NGZ =   60
   dimension x,y,z NGXF=   128 NGYF=   96 NGZF=  120
   support grid    NGXF=   128 NGYF=   96 NGZF=  120
   ions per type =              48   1  71
   NGX,Y,Z   is equivalent  to a cutoff of   8.66,  8.73,  8.57 a.u.
   NGXF,Y,Z  is equivalent  to a cutoff of  17.33, 17.46, 17.15 a.u.

 SYSTEM =  unknown system                          
 POSCAR =  Ga N  O                                 

 Startparameter for this run:
   NWRITE =      2    write-flag & timer
   PREC   = normal    normal or accurate (medium, high low for compatibility)
   ISTART =      0    job   : 0-new  1-cont  2-samecut
   ICHARG =      0    charge: 1-file 2-atom 10-const
   ISPIN  =      1    spin polarized calculation?
   LNONCOLLINEAR =      F non collinear calculations
   LSORBIT =      F    spin-orbit coupling
   INIWAV =      1    electr: 0-lowe 1-rand  2-diag
   LASPH  =      F    aspherical Exc in radial PAW
 Electronic Relaxation 1
   ENCUT  =  450.0 eV  33.07 Ry    5.75 a.u.  21.24 15.81 20.12*2*pi/ulx,y,z
   ENINI  =  450.0     initial cutoff
   ENAUG  =  627.1 eV  augmentation charge cutoff
   NELM   =    500;   NELMIN=  2; NELMDL= -5     # of ELM steps 
   EDIFF  = 0.1E-04   stopping-criterion for ELM
   LREAL  =      T    real-space projection
   NLSPLINE    = F    spline interpolate recip. space projectors
   LCOMPAT=      F    compatible to vasp.4.4
   GGA_COMPAT  = T    GGA compatible to vasp.4.4-vasp.4.6
   LMAXPAW     = -100 max onsite density
   LMAXMIX     =    2 max onsite mixed and CHGCAR
   VOSKOWN=      0    Vosko Wilk Nusair interpolation
   ROPT   =   -0.00050  -0.00050  -0.00050
 Ionic relaxation
   EDIFFG = -.5E-02   stopping-criterion for IOM
   NSW    =      0    number of steps for IOM
   NBLOCK =      1;   KBLOCK =      1    inner block; outer block 
   IBRION =     -1    ionic relax: 0-MD 1-quasi-New 2-CG
   NFREE  =      0    steps in history (QN), initial steepest desc. (CG)
   ISIF   =      2    stress and relaxation
   IWAVPR =     10    prediction:  0-non 1-charg 2-wave 3-comb
   ISYM   =      0    0-nonsym 1-usesym 2-fastsym
   LCORR  =      T    Harris-Foulkes like correction to forces

   POTIM  = 0.5000    time-step for ionic-motion
   TEIN   =    0.0    initial temperature
   TEBEG  =    0.0;   TEEND  =   0.0 temperature during run
   SMASS  =  -3.00    Nose mass-parameter (am)
   estimated Nose-frequenzy (Omega)   =  0.10E-29 period in steps = 0.13E+47 mass=  -0.345E-26a.u.
   SCALEE = 1.0000    scale energy and forces
   NPACO  =    256;   APACO  = 10.0  distance and # of slots for P.C.
   PSTRESS=    0.0 pullay stress

  Mass of Ions in am
   POMASS =  69.72 14.00 16.00
  Ionic Valenz
   ZVAL   =  13.00  5.00  6.00
  Atomic Wigner-Seitz radii
   RWIGS  =  -1.00 -1.00 -1.00
  virtual crystal weights 
   VCA    =   1.00  1.00  1.00
   NELECT =    1051.0000    total number of electrons
   NUPDOWN=      -1.0000    fix difference up-down

 DOS related values:
   EMIN   =  10.00;   EMAX   =-10.00  energy-range for DOS
   EFERMI =   0.00;   METHOD = LEGACY      
   ISMEAR =     0;   SIGMA  =   0.05  broadening in eV -4-tet -1-fermi 0-gaus

 Electronic relaxation 2 (details)
   IALGO  =     38    algorithm
   LDIAG  =      T    sub-space diagonalisation (order eigenvalues)
   LSUBROT=      F    optimize rotation matrix (better conditioning)
   TURBO    =      0    0=normal 1=particle mesh
   IRESTART =      0    0=no restart 2=restart with 2 vectors
   NREBOOT  =      0    no. of reboots
   NMIN     =      0    reboot dimension
   EREF     =   0.00    reference energy to select bands
   IMIX   =      4    mixing-type and parameters
     AMIX     =   0.40;   BMIX     =  1.00
     AMIX_MAG =   1.60;   BMIX_MAG =  1.00
     AMIN     =   0.10
     WC   =   100.;   INIMIX=   1;  MIXPRE=   1;  MAXMIX= -45

 Intra band minimization:
   WEIMIN = 0.0000     energy-eigenvalue tresh-hold
   EBREAK =  0.40E-08  absolut break condition
   DEPER  =   0.30     relativ break condition  

   TIME   =   0.40     timestep for ELM

  volume/ion in A,a.u.               =      10.57        71.35
  Fermi-wavevector in a.u.,A,eV,Ry     =   1.537485  2.905424 32.162250  2.363859
  Thomas-Fermi vector in A             =   2.643987
 
 Write flags
   LWAVE        =      T    write WAVECAR
   LDOWNSAMPLE  =      F    k-point downsampling of WAVECAR
   LCHARG       =      T    write CHGCAR
   LVTOT        =      F    write LOCPOT, total local potential
   LVHAR        =      F    write LOCPOT, Hartree potential only
   LELF         =      F    write electronic localiz. function (ELF)
   LORBIT       =      0    0 simple, 1 ext, 2 COOP (PROOUT), +10 PAW based schemes


 Dipole corrections
   LMONO  =      F    monopole corrections only (constant potential shift)
   LDIPOL =      F    correct potential (dipole corrections)
   IDIPOL =      0    1-x, 2-y, 3-z, 4-all directions 
   EPSILON=  1.0000000 bulk dielectric constant

 Core level calculations are selected ICORELEVEL =  1
 Exchange correlation treatment:
   GGA     =    --    GGA type
   LEXCH   =     8    internal setting for exchange type
   LIBXC   =     F    Libxc                    
   VOSKOWN =     0    Vosko Wilk Nusair interpolation
   LHFCALC =     F    Hartree Fock is set to
   LHFONE  =     F    Hartree Fock one center treatment
   AEXX    =    0.0000 exact exchange contribution

 Linear response parameters
   LEPSILON=     F    determine dielectric tensor
   LRPA    =     F    only Hartree local field effects (RPA)
   LNABLA  =     F    use nabla operator in PAW spheres
   LVEL    =     F    velocity operator in full k-point grid
   CSHIFT  =0.1000    complex shift for real part using Kramers Kronig
   OMEGAMAX=  -1.0    maximum frequency
   DEG_THRESHOLD= 0.2000000E-02 threshold for treating states as degnerate
   RTIME   =   -0.100 relaxation time in fs
  (WPLASMAI=    0.000 imaginary part of plasma frequency in eV, 0.658/RTIME)
   DFIELD  = 0.0000000 0.0000000 0.0000000 field for delta impulse in time
 
  Optional k-point grid parameters
   LKPOINTS_OPT  =     F    use optional k-point grid
   KPOINTS_OPT_MODE=     1    mode for optional k-point grid
 
 Orbital magnetization related:
   ORBITALMAG=     F  switch on orbital magnetization
   LCHIMAG   =     F  perturbation theory with respect to B field
   DQ        =  0.001000  dq finite difference perturbation B field
   LLRAUG    =     F  two centre corrections for induced B field
   LBONE     =     F  B-component reconstruction in AE one-centre
   LVGVCALC  =     T  calculate vGv susceptibility
   LVGVAPPL  =     F  apply vGv susceptibility instead of pGv for G=0

 Random number generation:
   RANDOM_GENERATOR = DEFAULT
   PCG_SEED         = not used


--------------------------------------------------------------------------------------------------------


 Static calculation
 charge density and potential will be updated during run
 non-spin polarized calculation
 Variant of blocked Davidson
 Davidson routine will perform the subspace rotation
 perform sub-space diagonalisation
    after iterative eigenvector-optimisation
 modified Broyden-mixing scheme, WC =      100.0
 initial mixing is a Kerker type mixing with AMIX =  0.4000 and BMIX =      1.0000
 Hartree-type preconditioning will be used
 using additional bands           104
 real space projection scheme for non local part
 use partial core corrections
 calculate Harris-corrections to forces 
   (improved forces if not selfconsistent)
 use gradient corrections 
 use of overlap-Matrix (Vanderbilt PP)
 Gauss-broadening in eV      SIGMA  =   0.05


--------------------------------------------------------------------------------------------------------


  energy-cutoff  :      450.00
  volume of cell :     1268.81
      direct lattice vectors                 reciprocal lattice vectors
    12.280473709  0.000000000  0.000000000     0.081430084 -0.000000000  0.019947422
     0.000000000  9.142702103  0.000000000     0.000000000  0.109376855 -0.000000000
    -2.768261641  0.000000000 11.300697481     0.000000000  0.000000000  0.088490113

  length of vectors
    12.280473709  9.142702103 11.634819984     0.083837689  0.109376855  0.088490113


 
 k-points in units of 2pi/SCALE and weight: Automatic mesh                          
   0.00000000  0.00000000  0.00000000       0.125
   0.04071504  0.00000000  0.00997371       0.125
   0.00000000  0.05468843  0.00000000       0.125
   0.04071504  0.05468843  0.00997371       0.125
   0.00000000  0.00000000  0.04424506       0.125
   0.04071504  0.00000000  0.05421877       0.125
   0.00000000  0.05468843  0.04424506       0.125
   0.04071504  0.05468843  0.05421877       0.125
 
 k-points in reciprocal lattice and weights: Automatic mesh                          
   0.00000000  0.00000000  0.00000000       0.125
   0.50000000  0.00000000  0.00000000       0.125
   0.00000000  0.50000000  0.00000000       0.125
   0.50000000  0.50000000  0.00000000       0.125
   0.00000000  0.00000000  0.50000000       0.125
   0.50000000  0.00000000  0.50000000       0.125
   0.00000000  0.50000000  0.50000000       0.125
   0.50000000  0.50000000  0.50000000       0.125
 
 position of ions in fractional coordinates (direct lattice) 
   0.65860817  0.00000000  0.15663068
   0.15970476  0.16689444  0.65622031
   0.84034483  0.16645680  0.34332702
   0.59108992  0.16673468  0.39800813
   0.90823006  0.00000001  0.10236647
   0.15825950  0.16645783  0.15615156
   0.34101927  0.00000001  0.34333469
   0.09122238  0.99999999  0.39740792
   0.40878491  0.16691105  0.10234471
   0.65899536  0.66684102  0.15653870
   0.40878498  0.83308899  0.10234463
   0.41061406  0.50000004  0.60750360
   0.84034485  0.83354320  0.34332695
   0.34094706  0.33326557  0.84405281
   0.15901660  0.50000000  0.65687319
   0.90894317  0.33327107  0.60214258
   0.09072883  0.66688492  0.89702010
   0.65948261  0.99999998  0.65690981
   0.84116705  0.16646295  0.84344793
   0.59116803  0.16667809  0.89758354
   0.90959953  0.99999999  0.60224558
   0.09072885  0.33311507  0.89702020
   0.34104477  0.00000000  0.84296112
   0.09134611  0.00000002  0.89725581
   0.40963709  0.83316608  0.60206615
   0.08936822  0.66703845  0.39689758
   0.15825948  0.83354219  0.15615140
   0.34094709  0.66673443  0.84405274
   0.15970479  0.83310555  0.65622031
   0.90894317  0.66672894  0.60214253
   0.84116706  0.83353705  0.84344788
   0.65981942  0.66681923  0.65709094
   0.59150224  0.49999999  0.89807098
   0.84115803  0.50000000  0.84356639
   0.65981942  0.33318078  0.65709098
   0.59108997  0.83326531  0.39800811
   0.59116801  0.83332192  0.89758347
   0.90881938  0.66660116  0.10235707
   0.40963723  0.16683384  0.60206648
   0.40898746  0.50000000  0.10208616
   0.08936813  0.33296156  0.39689767
   0.33955581  0.66849832  0.34295414
   0.15906907  0.49999999  0.15564456
   0.33955578  0.33150160  0.34295474
   0.59143665  0.49999998  0.39785895
   0.84019246  0.50000000  0.34314454
   0.65899536  0.33315899  0.15653877
   0.90881936  0.33339884  0.10235709
   0.33748019  0.50000015  0.44671081
   0.17278858  0.99999999  0.78011235
   0.32769265  0.16705234  0.71921668
   0.00358203  0.16633932  0.87217253
   0.17206530  0.00000000  0.27991800
   0.99582844  0.16640767  0.12712109
   0.50379417  0.99999998  0.37241484
   0.49596504  0.00000003  0.12710818
   0.82700766  0.00000000  0.21964511
   0.83167376  0.99999998  0.44596128
   0.66797164  0.16645277  0.05427820
   0.00296508  0.16602379  0.37297330
   0.32701274  0.16686786  0.21942512
   0.83238051  0.33324018  0.94569703
   0.49702807  0.99999993  0.62766318
   0.67219256  0.16671403  0.28047091
   0.82788549  0.33328486  0.71953661
   0.82737058  0.33315664  0.21955658
   0.50375521  0.33346923  0.87396145
   0.33214296  0.16446691  0.44591783
   0.33182389  0.16648508  0.94570240
   0.16783467  0.00000000  0.55400839
   0.99625431  0.49999999  0.12687858
   0.50360968  0.33358670  0.37278091
   0.67237217  0.49999999  0.28036677
   0.67313998  0.50000001  0.78108430
   0.83173383  0.33326065  0.44569342
   0.49653437  0.33324689  0.12716550
   0.00258278  0.50000003  0.37266048
   0.17073662  0.33318231  0.27970966
   0.32615784  0.50000001  0.21663897
   0.33182392  0.83351491  0.94570233
   0.99647740  0.50000000  0.62653053
   0.66846267  0.49999999  0.05456368
   0.16778341  0.00000004  0.05396982
   0.83238053  0.66675983  0.94569701
   0.50359450  0.00000001  0.87286779
   0.67320255  0.83370809  0.78097753
   0.82788550  0.66671513  0.71953658
   0.49817040  0.33255063  0.63072927
   0.66814838  0.83333903  0.55443587
   0.49817041  0.66744942  0.63072921
   0.00358204  0.83366070  0.87217250
   0.50375522  0.66653076  0.87396142
   0.17222918  0.66693160  0.77979885
   0.67219256  0.83328598  0.28047086
   0.17073658  0.66681770  0.27970949
   0.99582844  0.83359235  0.12712104
   0.32752107  0.49999999  0.72210160
   0.33131028  0.50000002  0.94597297
   0.16885070  0.33462862  0.55303355
   0.32769267  0.83294766  0.71921656
   0.99697571  0.83299820  0.62649228
   0.16702673  0.66733012  0.05361211
   0.33214289  0.83553295  0.44591754
   0.67320253  0.16629189  0.78097755
   0.82800564  0.00000001  0.71930000
   0.83214110  0.99999999  0.94569853
   0.66814834  0.16666097  0.55443589
   0.66810059  0.49999999  0.55454221
   0.16702675  0.33266986  0.05361221
   0.00361887  0.49999999  0.87209745
   0.50360973  0.66641330  0.37278085
   0.82737057  0.66684336  0.21955653
   0.83173381  0.66673937  0.44569338
   0.66797161  0.83354726  0.05427815
   0.49653438  0.66675310  0.12716547
   0.00296511  0.83397618  0.37297325
   0.17222917  0.33306840  0.77979890
   0.32701272  0.83313218  0.21942494
   0.99697569  0.16700179  0.62649230
   0.16885068  0.66537137  0.55303351
 
 position of ions in cartesian coordinates  (Angst):
   7.65442562  0.00000003  1.77003588
   0.14466064  1.52586613  7.41574723
   9.36941361  1.52186490  3.87983475
   6.15707363  1.52440555  4.49776950
  10.87011824  0.00000010  1.15681252
   1.51123328  1.52187436  1.76462156
   3.23743788  0.00000012  3.87992146
   0.02012489  9.14270205  4.49098663
   4.73675545  1.52601796  1.15656662
   7.65943515  6.09672875  1.76899655
   4.73675644  7.61668443  1.15656568
   3.36080623  4.57135140  6.86521445
   9.36941406  7.62083718  3.87983399
   1.85043239  3.04694783  9.53838551
   0.13440233  4.57135107  7.42312522
   9.49536448  3.04699808  6.80463117
  -1.36899334  6.09713018 10.13695280
   6.28026064  9.14270195  7.42353909
   7.99504527  1.52192113  9.53154986
   4.77507734  1.52388812 10.14332009
   9.50313977  9.14270201  6.80579513
  -1.36899339  3.04557183 10.13695388
   1.85465436  0.00000002  9.52604856
  -1.36206539  0.00000015 10.13961645
   3.36386090  7.61738929  6.80376739
  -0.00123229  6.09853386  4.48521948
   1.51123340  7.62082792  1.76461972
   1.85043289  6.09575429  9.53838470
   0.14466092  7.61683588  7.41574725
   9.49536466  6.09570406  6.80463057
   7.99504556  7.62078096  9.53154931
   6.28389540  6.09652953  7.42558589
   4.77783226  4.57135096 10.14882843
   7.99460658  4.57135106  9.53288853
   6.28389524  3.04617260  7.42558641
   6.15707422  7.61829655  4.49776928
   4.77507735  7.61881408 10.14331931
  10.87738139  6.09453581  1.15670629
   3.36386168  1.52531214  6.80377118
   4.73995854  4.57135102  1.15364486
  -0.00123359  3.04416835  4.48522046
   3.22051944  6.11188102  3.87562102
   1.52257872  4.57135100  1.75889203
   3.22051735  3.03082042  3.87562774
   6.16174458  4.57135089  4.49608360
   9.36804754  4.57135110  3.87777262
   7.65943488  3.04597341  1.76899732
  10.87738105  3.04816626  1.15670653
   2.90780419  4.57135242  5.04814368
  -0.03762952  9.14270205  8.81581366
   2.03324104  1.52730977  8.12765011
  -2.37041274  1.52079083  9.85615793
   1.33815714  0.00000003  3.16326865
  11.87734057  1.52141575  1.43655694
   5.15588937  9.14270195  4.20854747
   5.73881696  0.00000028  1.43641114
   9.54801065  0.00000005  2.48214297
   8.97881027  9.14270191  5.03967355
   8.05275193  1.52182809  0.61338155
  -0.99607506  1.51790610  4.21485845
   3.40844522  1.52562313  2.47965691
   7.60409014  3.04671571 10.68703609
   4.36620421  9.14270142  7.09303172
   7.47842616  1.52421668  3.16951687
   8.17496040  3.04712417  8.13126556
   9.55271260  3.04595189  2.48114245
   3.76699865  3.04880983  9.87637396
   2.84445565  1.50367197  5.03918251
   1.45700294  1.52212346 10.68709671
   0.52744909  0.00000001  6.26068123
  11.88324179  4.57135094  1.43381640
   5.15261033  3.04988379  4.21268432
   7.48092013  4.57135099  3.16834008
   6.10423209  4.57135110  8.82679740
   8.98028946  3.04690285  5.03664654
   5.74564993  3.04677707  1.43705886
  -0.99990391  4.57135130  4.21132340
   1.32241708  3.04618660  3.16091427
   3.40565937  4.57135117  2.44817148
   1.45700340  7.62057853 10.68709594
  10.50281408  4.57135105  7.08023198
   8.05799167  4.57135091  0.61660764
   1.91105719  0.00000040  0.60989659
   7.60409039  6.09598648 10.68703586
   3.76805258  0.00000013  9.86401484
   6.10529607  7.62234474  8.82559078
   8.17496063  6.09557781  8.13126520
   4.37174483  3.04041135  7.12768068
   6.67035505  7.61897051  6.26551200
   4.37174508  6.10229119  7.12768002
  -2.37041252  7.62191144  9.85615758
   3.76699889  6.09389216  9.87637364
  -0.04363134  6.09755694  8.81227092
   7.47842638  7.61848551  3.16951635
   1.32241709  6.09651558  3.16091235
  11.87734064  7.62128653  1.43655639
   2.02314776  4.57135096  8.16025174
   1.44994646  4.57135122 10.69015441
   0.54262498  3.05940977  6.24966485
   2.03324156  7.61539231  8.12764879
  10.50903937  7.61585441  7.07979979
   1.90275501  6.10120046  0.60585421
   2.84445560  7.63902887  5.03917926
   6.10529571  1.52035726  8.82559108
   8.17709088  0.00000007  8.12859165
   7.60114591  9.14270204 10.68705299
   6.67035451  1.52373157  6.26551228
   6.66947382  4.57135094  6.26671375
   1.90275504  3.04150139  0.60585531
  -2.36975248  4.57135094  9.85530943
   5.15261112  6.09281830  4.21268358
   9.55271267  6.09675022  2.48114195
   8.98028933  6.09579945  5.03664609
   8.05275164  7.62087425  0.61338098
   5.74565014  6.09592500  1.43705854
  -0.99607464  7.62479580  4.21485791
  -0.04363164  3.04514518  8.81227147
   3.40844547  7.61707935  2.47965487
  10.50903921  1.52684763  7.07979990
   0.54262492  6.08329221  6.24966440
 


--------------------------------------------------------------------------------------------------------


 k-point   1 :   0.0000 0.0000 0.0000  plane waves:   27533
 k-point   2 :   0.5000 0.0000 0.0000  plane waves:   27522
 k-point   3 :   0.0000 0.5000 0.0000  plane waves:   27488
 k-point   4 :   0.5000 0.5000 0.0000  plane waves:   27488
 k-point   5 :   0.0000 0.0000 0.5000  plane waves:   27482
 k-point   6 :   0.5000 0.0000 0.5000  plane waves:   27476
 k-point   7 :   0.0000 0.5000 0.5000  plane waves:   27468
 k-point   8 :   0.5000 0.5000 0.5000  plane waves:   27564

 maximum and minimum number of plane-waves per node :     27564    27468

 maximum number of plane-waves:     27564
 maximum index in each direction: 
   IXMAX=   21   IYMAX=   15   IZMAX=   20
   IXMIN=  -21   IYMIN=  -16   IZMIN=  -20


 serial   3D FFT for wavefunctions
 parallel 3D FFT for charge:
    minimum data exchange during FFTs selected (reduces bandwidth)


 total amount of memory used by VASP MPI-rank0  2546874. kBytes
=======================================================================

   base      :      30000. kBytes
   nonlr-proj:      22141. kBytes
   fftplans  :      51012. kBytes
   grid      :     102973. kBytes
   one-center:       1866. kBytes
   wavefun   :    2338882. kBytes
 
     INWAV:  cpu time      0.0001: real time      0.0001
 Broyden mixing: mesh for mixing (old mesh)
   NGX = 43   NGY = 31   NGZ = 41
  (NGX  =128   NGY  = 96   NGZ  =120)
  gives a total of  54653 points

 charge density for first step will be calculated from the start-wavefunctions


--------------------------------------------------------------------------------------------------------


 Maximum index for non-local projection operator          1715
 Maximum index for augmentation-charges          5356 (set IRDMAX)


--------------------------------------------------------------------------------------------------------


 initial charge from wavefunction
 First call to EWALD:  gamma=   0.164
 Maximum number of real-space cells 3x 3x 3
 Maximum number of reciprocal cells 3x 2x 3

    FEWALD:  cpu time      0.0772: real time      0.0772


--------------------------------------- Ionic step        1  -------------------------------------------




--------------------------------------- Iteration      1(   1)  ---------------------------------------


    POTLOK:  cpu time      0.0343: real time      0.0343
    SETDIJ:  cpu time      0.0956: real time      0.0956
     EDDAV:  cpu time      1.8780: real time      1.8777
       DOS:  cpu time      0.0017: real time      0.0017
    --------------------------------------------
      LOOP:  cpu time      2.0097: real time      2.0094

 eigenvalue-minimisations  : 10552
 total energy-change (2. order) : 0.1200949E+05  (-0.5891296E+05)
 number of electron    1050.4999329 magnetization 
 augmentation part      120.8725644 magnetization 

 Free energy of the ion-electron system (eV)
  ---------------------------------------------------
  alpha Z        PSCENC =      5530.94808130
  Ewald energy   TEWEN  =    -88753.28323933
  -Hartree energ DENC   =     -2111.86520118
  -exchange      EXHF   =         0.00000000
  -V(xc)+E(xc)   XCENC  =      2782.25934510
  PAW double counting   =     60996.79117416   -63108.10973930
  entropy T*S    EENTRO =        -0.01154648
  eigenvalues    EBANDS =    -37431.53984763
  atomic energy  EATOM  =    134104.30092448
  Solvation  Ediel_sol  =         0.00000000
  ---------------------------------------------------
  free energy    TOTEN  =     12009.48995111 eV

  energy without entropy =    12009.50149758  energy(sigma->0) =    12009.49572435


--------------------------------------------------------------------------------------------------------




--------------------------------------- Iteration      1(   2)  ---------------------------------------


     EDDAV:  cpu time      2.1525: real time      2.1531
       DOS:  cpu time      0.0017: real time      0.0017
    --------------------------------------------
      LOOP:  cpu time      2.1542: real time      2.1548

 eigenvalue-minimisations  : 13504
 total energy-change (2. order) :-0.4320915E+05  (-0.4186039E+05)
 number of electron    1050.4999329 magnetization 
 augmentation part      120.8725644 magnetization 

 Free energy of the ion-electron system (eV)
  ---------------------------------------------------
  alpha Z        PSCENC =      5530.94808130
  Ewald energy   TEWEN  =    -88753.28323933
  -Hartree energ DENC   =     -2111.86520118
  -exchange      EXHF   =         0.00000000
  -V(xc)+E(xc)   XCENC  =      2782.25934510
  PAW double counting   =     60996.79117416   -63108.10973930
  entropy T*S    EENTRO =        -0.01882008
  eigenvalues    EBANDS =    -80640.68166403
  atomic energy  EATOM  =    134104.30092448
  Solvation  Ediel_sol  =         0.00000000
  ---------------------------------------------------
  free energy    TOTEN  =    -31199.65913889 eV

  energy without entropy =   -31199.64031881  energy(sigma->0) =   -31199.64972885


--------------------------------------------------------------------------------------------------------




--------------------------------------- Iteration      1(   3)  ---------------------------------------


     EDDAV:  cpu time      2.3021: real time      2.3023
       DOS:  cpu time      0.0020: real time      0.0020
    --------------------------------------------
      LOOP:  cpu time      2.3041: real time      2.3043

 eigenvalue-minimisations  : 14392
 total energy-change (2. order) :-0.4346265E+04  (-0.3905133E+04)
 number of electron    1050.4999329 magnetization 
 augmentation part      120.8725644 magnetization 

 Free energy of the ion-electron system (eV)
  ---------------------------------------------------
  alpha Z        PSCENC =      5530.94808130
  Ewald energy   TEWEN  =    -88753.28323933
  -Hartree energ DENC   =     -2111.86520118
  -exchange      EXHF   =         0.00000000
  -V(xc)+E(xc)   XCENC  =      2782.25934510
  PAW double counting   =     60996.79117416   -63108.10973930
  entropy T*S    EENTRO =        -0.04700482
  eigenvalues    EBANDS =    -84986.91824629
  atomic energy  EATOM  =    134104.30092448
  Solvation  Ediel_sol  =         0.00000000
  ---------------------------------------------------
  free energy    TOTEN  =    -35545.92390589 eV

  energy without entropy =   -35545.87690107  energy(sigma->0) =   -35545.90040348


--------------------------------------------------------------------------------------------------------




--------------------------------------- Iteration      1(   4)  ---------------------------------------


     EDDAV:  cpu time      2.6513: real time      2.6514
       DOS:  cpu time      0.0020: real time      0.0020
    --------------------------------------------
      LOOP:  cpu time      2.6533: real time      2.6534

 eigenvalue-minimisations  : 16968
 total energy-change (2. order) :-0.4385125E+03  (-0.3883730E+03)
 number of electron    1050.4999329 magnetization 
 augmentation part      120.8725644 magnetization 

 Free energy of the ion-electron system (eV)
  ---------------------------------------------------
  alpha Z        PSCENC =      5530.94808130
  Ewald energy   TEWEN  =    -88753.28323933
  -Hartree energ DENC   =     -2111.86520118
  -exchange      EXHF   =         0.00000000
  -V(xc)+E(xc)   XCENC  =      2782.25934510
  PAW double counting   =     60996.79117416   -63108.10973930
  entropy T*S    EENTRO =        -0.04861671
  eigenvalues    EBANDS =    -85425.42912863
  atomic energy  EATOM  =    134104.30092448
  Solvation  Ediel_sol  =         0.00000000
  ---------------------------------------------------
  free energy    TOTEN  =    -35984.43640013 eV

  energy without entropy =   -35984.38778342  energy(sigma->0) =   -35984.41209177


--------------------------------------------------------------------------------------------------------




--------------------------------------- Iteration      1(   5)  ---------------------------------------


     EDDAV:  cpu time      3.0737: real time      3.0738
       DOS:  cpu time      0.0019: real time      0.0019
    CHARGE:  cpu time      0.2348: real time      0.2348
    MIXING:  cpu time      0.0265: real time      0.0265
    --------------------------------------------
      LOOP:  cpu time      3.3370: real time      3.3370

 eigenvalue-minimisations  : 19712
 total energy-change (2. order) :-0.4249206E+02  (-0.3918505E+02)
 number of electron    1050.9997408 magnetization 
 augmentation part      498.6553896 magnetization 

 Broyden mixing:
  rms(total) = 0.70652E+02    rms(broyden)= 0.70631E+02
  rms(prec ) = 0.87163E+02
  weight for this iteration     100.00

 Free energy of the ion-electron system (eV)
  ---------------------------------------------------
  alpha Z        PSCENC =      5530.94808130
  Ewald energy   TEWEN  =    -88753.28323933
  -Hartree energ DENC   =     -2111.86520118
  -exchange      EXHF   =         0.00000000
  -V(xc)+E(xc)   XCENC  =      2782.25934510
  PAW double counting   =     60996.79117416   -63108.10973930
  entropy T*S    EENTRO =        -0.10453524
  eigenvalues    EBANDS =    -85467.86527292
  atomic energy  EATOM  =    134104.30092448
  Solvation  Ediel_sol  =         0.00000000
  ---------------------------------------------------
  free energy    TOTEN  =    -36026.92846294 eV

  energy without entropy =   -36026.82392770  energy(sigma->0) =   -36026.87619532


--------------------------------------------------------------------------------------------------------




--------------------------------------- Iteration      1(   6)  ---------------------------------------


    POTLOK:  cpu time      0.0128: real time      0.0155
    SETDIJ:  cpu time      0.0962: real time      0.0962
     EDDAV:  cpu time      2.2265: real time      2.2262
       DOS:  cpu time      0.0019: real time      0.0019
    CHARGE:  cpu time      0.2352: real time      0.2352
    MIXING:  cpu time      0.0274: real time      0.0274
    --------------------------------------------
      LOOP:  cpu time      2.6001: real time      2.6023

 eigenvalue-minimisations  : 14120
 total energy-change (2. order) : 0.2522603E+05  (-0.1565286E+04)
 number of electron    1050.9999494 magnetization 
 augmentation part      502.9959512 magnetization 

 Broyden mixing:
  rms(total) = 0.41134E+02    rms(broyden)= 0.41106E+02
  rms(prec ) = 0.51561E+02
  weight for this iteration     100.00

 eigenvalues of (default mixing * dielectric matrix)
  average eigenvalue GAMMA=   1.2213
  1.2213

 Free energy of the ion-electron system (eV)
  ---------------------------------------------------
  alpha Z        PSCENC =      5530.94808130
  Ewald energy   TEWEN  =    -88753.28323933
  -Hartree energ DENC   =    -12205.27526115
  -exchange      EXHF   =         0.00000000
  -V(xc)+E(xc)   XCENC  =      3226.51768922
  PAW double counting   =     82120.24018080   -90888.06036262
  entropy T*S    EENTRO =        -0.03800316
  eigenvalues    EBANDS =    -43936.24876228
  atomic energy  EATOM  =    134104.30092448
  Solvation  Ediel_sol  =         0.00000000
  ---------------------------------------------------
  free energy    TOTEN  =    -10800.89875276 eV

  energy without entropy =   -10800.86074960  energy(sigma->0) =   -10800.87975118


--------------------------------------------------------------------------------------------------------




--------------------------------------- Iteration      1(   7)  ---------------------------------------


    POTLOK:  cpu time      0.0126: real time      0.0131
    SETDIJ:  cpu time      0.0970: real time      0.0970
     EDDAV:  cpu time      2.9001: real time      2.8997
       DOS:  cpu time      0.0021: real time      0.0021
    CHARGE:  cpu time      0.2344: real time      0.2344
    MIXING:  cpu time      0.0278: real time      0.0278
    --------------------------------------------
      LOOP:  cpu time      3.2741: real time      3.2740

 eigenvalue-minimisations  : 15360
 total energy-change (2. order) : 0.8204674E+04  (-0.1213993E+04)
 number of electron    1050.9997999 magnetization 
 augmentation part      473.2984947 magnetization 

 Broyden mixing:
  rms(total) = 0.18786E+02    rms(broyden)= 0.18766E+02
  rms(prec ) = 0.25708E+02
  weight for this iteration     100.00

 eigenvalues of (default mixing * dielectric matrix)
  average eigenvalue GAMMA=   1.1979
  1.7392  0.6567

 Free energy of the ion-electron system (eV)
  ---------------------------------------------------
  alpha Z        PSCENC =      5530.94808130
  Ewald energy   TEWEN  =    -88753.28323933
  -Hartree energ DENC   =    -23137.64290354
  -exchange      EXHF   =         0.00000000
  -V(xc)+E(xc)   XCENC  =      3748.04682100
  PAW double counting   =    100143.84467905  -114440.33446334
  entropy T*S    EENTRO =        -0.04870044
  eigenvalues    EBANDS =    -19792.05629619
  atomic energy  EATOM  =    134104.30092448
  Solvation  Ediel_sol  =         0.00000000
  ---------------------------------------------------
  free energy    TOTEN  =     -2596.22509701 eV

  energy without entropy =    -2596.17639657  energy(sigma->0) =    -2596.20074679


--------------------------------------------------------------------------------------------------------




--------------------------------------- Iteration      1(   8)  ---------------------------------------


    POTLOK:  cpu time      0.0130: real time      0.0134
    SETDIJ:  cpu time      0.0964: real time      0.0964
     EDDAV:  cpu time      2.5058: real time      2.5054
       DOS:  cpu time      0.0021: real time      0.0021
    CHARGE:  cpu time      0.2327: real time      0.2327
    MIXING:  cpu time      0.0310: real time      0.0310
    --------------------------------------------
      LOOP:  cpu time      2.8810: real time      2.8809

 eigenvalue-minimisations  : 15800
 total energy-change (2. order) : 0.1681264E+04  (-0.5698381E+03)
 number of electron    1050.9997959 magnetization 
 augmentation part      448.2023400 magnetization 

 Broyden mixing:
  rms(total) = 0.10419E+02    rms(broyden)= 0.10407E+02
  rms(prec ) = 0.13213E+02
  weight for this iteration     100.00

 eigenvalues of (default mixing * dielectric matrix)
  average eigenvalue GAMMA=   1.0505
  1.6892  0.7311  0.7311

 Free energy of the ion-electron system (eV)
  ---------------------------------------------------
  alpha Z        PSCENC =      5530.94808130
  Ewald energy   TEWEN  =    -88753.28323933
  -Hartree energ DENC   =    -31684.62200694
  -exchange      EXHF   =         0.00000000
  -V(xc)+E(xc)   XCENC  =      4129.87506812
  PAW double counting   =    116006.38312142  -133847.68972993
  entropy T*S    EENTRO =        -0.01860522
  eigenvalues    EBANDS =     -6400.85494164
  atomic energy  EATOM  =    134104.30092448
  Solvation  Ediel_sol  =         0.00000000
  ---------------------------------------------------
  free energy    TOTEN  =      -914.96132776 eV

  energy without entropy =     -914.94272254  energy(sigma->0) =     -914.95202515


--------------------------------------------------------------------------------------------------------




--------------------------------------- Iteration      1(   9)  ---------------------------------------


    POTLOK:  cpu time      0.0127: real time      0.0131
    SETDIJ:  cpu time      0.0960: real time      0.0959
     EDDAV:  cpu time      2.2628: real time      2.2625
       DOS:  cpu time      0.0022: real time      0.0022
    CHARGE:  cpu time      0.2341: real time      0.2341
    MIXING:  cpu time      0.0302: real time      0.0302
    --------------------------------------------
      LOOP:  cpu time      2.6379: real time      2.6381

 eigenvalue-minimisations  : 13928
 total energy-change (2. order) : 0.1617389E+03  (-0.9914358E+02)
 number of electron    1050.9998248 magnetization 
 augmentation part      454.1878879 magnetization 

 Broyden mixing:
  rms(total) = 0.53761E+01    rms(broyden)= 0.53715E+01
  rms(prec ) = 0.64461E+01
  weight for this iteration     100.00

 eigenvalues of (default mixing * dielectric matrix)
  average eigenvalue GAMMA=   1.0947
  1.5295  1.5295  0.6598  0.6598

 Free energy of the ion-electron system (eV)
  ---------------------------------------------------
  alpha Z        PSCENC =      5530.94808130
  Ewald energy   TEWEN  =    -88753.28323933
  -Hartree energ DENC   =    -31929.39105552
  -exchange      EXHF   =         0.00000000
  -V(xc)+E(xc)   XCENC  =      4124.02770783
  PAW double counting   =    117215.13967482  -134575.07711625
  entropy T*S    EENTRO =        -0.02557419
  eigenvalues    EBANDS =     -6469.86183014
  atomic energy  EATOM  =    134104.30092448
  Solvation  Ediel_sol  =         0.00000000
  ---------------------------------------------------
  free energy    TOTEN  =      -753.22242701 eV

  energy without entropy =     -753.19685283  energy(sigma->0) =     -753.20963992


--------------------------------------------------------------------------------------------------------




--------------------------------------- Iteration      1(  10)  ---------------------------------------


    POTLOK:  cpu time      0.0128: real time      0.0136
    SETDIJ:  cpu time      0.0965: real time      0.0965
     EDDAV:  cpu time      2.2956: real time      2.2953
       DOS:  cpu time      0.0022: real time      0.0022
    CHARGE:  cpu time      0.2353: real time      0.2353
    MIXING:  cpu time      0.0308: real time      0.0308
    --------------------------------------------
      LOOP:  cpu time      2.6732: real time      2.6736

 eigenvalue-minimisations  : 14456
 total energy-change (2. order) : 0.3216181E+00  (-0.6000397E+02)
 number of electron    1050.9998309 magnetization 
 augmentation part      457.4112367 magnetization 

 Broyden mixing:
  rms(total) = 0.37826E+01    rms(broyden)= 0.37772E+01
  rms(prec ) = 0.49052E+01
  weight for this iteration     100.00

 eigenvalues of (default mixing * dielectric matrix)
  average eigenvalue GAMMA=   1.0559
  1.6814  1.6814  0.6505  0.6330  0.6330

 Free energy of the ion-electron system (eV)
  ---------------------------------------------------
  alpha Z        PSCENC =      5530.94808130
  Ewald energy   TEWEN  =    -88753.28323933
  -Hartree energ DENC   =    -32317.68488548
  -exchange      EXHF   =         0.00000000
  -V(xc)+E(xc)   XCENC  =      4126.06005255
  PAW double counting   =    118415.25738238  -135156.50704734
  entropy T*S    EENTRO =        -0.02183168
  eigenvalues    EBANDS =     -6701.97024582
  atomic energy  EATOM  =    134104.30092448
  Solvation  Ediel_sol  =         0.00000000
  ---------------------------------------------------
  free energy    TOTEN  =      -752.90080896 eV

  energy without entropy =     -752.87897728  energy(sigma->0) =     -752.88989312


--------------------------------------------------------------------------------------------------------




--------------------------------------- Iteration      1(  11)  ---------------------------------------


    POTLOK:  cpu time      0.0130: real time      0.0137
    SETDIJ:  cpu time      0.0958: real time      0.0958
     EDDAV:  cpu time      2.2642: real time      2.2638
       DOS:  cpu time      0.0023: real time      0.0023
    CHARGE:  cpu time      0.2337: real time      0.2336
    MIXING:  cpu time      0.0326: real time      0.0326
    --------------------------------------------
      LOOP:  cpu time      2.6416: real time      2.6418

 eigenvalue-minimisations  : 12992
 total energy-change (2. order) : 0.1275165E+02  (-0.1818452E+02)
 number of electron    1050.9998322 magnetization 
 augmentation part      457.1599209 magnetization 

 Broyden mixing:
  rms(total) = 0.28418E+01    rms(broyden)= 0.28388E+01
  rms(prec ) = 0.36316E+01
  weight for this iteration     100.00

 eigenvalues of (default mixing * dielectric matrix)
  average eigenvalue GAMMA=   1.0222
  1.8307  1.3972  0.8914  0.8914  0.5613  0.5613

 Free energy of the ion-electron system (eV)
  ---------------------------------------------------
  alpha Z        PSCENC =      5530.94808130
  Ewald energy   TEWEN  =    -88753.28323933
  -Hartree energ DENC   =    -32856.05993562
  -exchange      EXHF   =         0.00000000
  -V(xc)+E(xc)   XCENC  =      4146.80717725
  PAW double counting   =    119174.40197359  -135776.60089395
  entropy T*S    EENTRO =        -0.04015073
  eigenvalues    EBANDS =     -6310.62310045
  atomic energy  EATOM  =    134104.30092448
  Solvation  Ediel_sol  =         0.00000000
  ---------------------------------------------------
  free energy    TOTEN  =      -740.14916347 eV

  energy without entropy =     -740.10901274  energy(sigma->0) =     -740.12908810


--------------------------------------------------------------------------------------------------------




--------------------------------------- Iteration      1(  12)  ---------------------------------------


    POTLOK:  cpu time      0.0128: real time      0.0133
    SETDIJ:  cpu time      0.0962: real time      0.0962
     EDDAV:  cpu time      2.2148: real time      2.2145
       DOS:  cpu time      0.0024: real time      0.0024
    CHARGE:  cpu time      0.2342: real time      0.2342
    MIXING:  cpu time      0.0347: real time      0.0346
    --------------------------------------------
      LOOP:  cpu time      2.5951: real time      2.5952

 eigenvalue-minimisations  : 13848
 total energy-change (2. order) : 0.9806655E+01  (-0.1018145E+02)
 number of electron    1050.9998241 magnetization 
 augmentation part      455.1487036 magnetization 

 Broyden mixing:
  rms(total) = 0.17169E+01    rms(broyden)= 0.17135E+01
  rms(prec ) = 0.22250E+01
  weight for this iteration     100.00

 eigenvalues of (default mixing * dielectric matrix)
  average eigenvalue GAMMA=   1.0284
  2.0433  1.7034  0.9225  0.9225  0.5843  0.5843  0.4388

 Free energy of the ion-electron system (eV)
  ---------------------------------------------------
  alpha Z        PSCENC =      5530.94808130
  Ewald energy   TEWEN  =    -88753.28323933
  -Hartree energ DENC   =    -33267.38970740
  -exchange      EXHF   =         0.00000000
  -V(xc)+E(xc)   XCENC  =      4165.78511169
  PAW double counting   =    119449.28027633  -136089.36559800
  entropy T*S    EENTRO =        -0.04974046
  eigenvalues    EBANDS =     -5870.56861695
  atomic energy  EATOM  =    134104.30092448
  Solvation  Ediel_sol  =         0.00000000
  ---------------------------------------------------
  free energy    TOTEN  =      -730.34250835 eV

  energy without entropy =     -730.29276789  energy(sigma->0) =     -730.31763812


--------------------------------------------------------------------------------------------------------




--------------------------------------- Iteration      1(  13)  ---------------------------------------


    POTLOK:  cpu time      0.0128: real time      0.0133
    SETDIJ:  cpu time      0.0965: real time      0.0965
     EDDAV:  cpu time      2.1583: real time      2.1580
       DOS:  cpu time      0.0023: real time      0.0023
    CHARGE:  cpu time      0.2348: real time      0.2347
    MIXING:  cpu time      0.0377: real time      0.0376
    --------------------------------------------
      LOOP:  cpu time      2.5424: real time      2.5424

 eigenvalue-minimisations  : 13248
 total energy-change (2. order) : 0.4789500E+00  (-0.3787159E+01)
 number of electron    1050.9998266 magnetization 
 augmentation part      455.8198487 magnetization 

 Broyden mixing:
  rms(total) = 0.12573E+01    rms(broyden)= 0.12546E+01
  rms(prec ) = 0.17880E+01
  weight for this iteration     100.00

 eigenvalues of (default mixing * dielectric matrix)
  average eigenvalue GAMMA=   1.0187
  2.4657  1.5304  1.2925  0.6012  0.6012  0.6509  0.6509  0.3567

 Free energy of the ion-electron system (eV)
  ---------------------------------------------------
  alpha Z        PSCENC =      5530.94808130
  Ewald energy   TEWEN  =    -88753.28323933
  -Hartree energ DENC   =    -33465.82756642
  -exchange      EXHF   =         0.00000000
  -V(xc)+E(xc)   XCENC  =      4172.70842128
  PAW double counting   =    119429.76395491  -135912.59792926
  entropy T*S    EENTRO =        -0.02656798
  eigenvalues    EBANDS =     -5835.84963731
  atomic energy  EATOM  =    134104.30092448
  Solvation  Ediel_sol  =         0.00000000
  ---------------------------------------------------
  free energy    TOTEN  =      -729.86355833 eV

  energy without entropy =     -729.83699035  energy(sigma->0) =     -729.85027434


--------------------------------------------------------------------------------------------------------




--------------------------------------- Iteration      1(  14)  ---------------------------------------


    POTLOK:  cpu time      0.0128: real time      0.0132
    SETDIJ:  cpu time      0.0970: real time      0.0970
     EDDAV:  cpu time      2.1838: real time      2.1889
       DOS:  cpu time      0.0024: real time      0.0024
    CHARGE:  cpu time      0.2337: real time      0.2360
    MIXING:  cpu time      0.0384: real time      0.0384
    --------------------------------------------
      LOOP:  cpu time      2.5680: real time      2.5759

 eigenvalue-minimisations  : 13208
 total energy-change (2. order) :-0.5682152E+00  (-0.4130028E+01)
 number of electron    1050.9998197 magnetization 
 augmentation part      455.5671399 magnetization 

 Broyden mixing:
  rms(total) = 0.11786E+01    rms(broyden)= 0.11759E+01
  rms(prec ) = 0.16354E+01
  weight for this iteration     100.00

 eigenvalues of (default mixing * dielectric matrix)
  average eigenvalue GAMMA=   0.9583
  2.5336  1.6052  1.1871  0.6359  0.6359  0.6886  0.5269  0.5269  0.2849

 Free energy of the ion-electron system (eV)
  ---------------------------------------------------
  alpha Z        PSCENC =      5530.94808130
  Ewald energy   TEWEN  =    -88753.28323933
  -Hartree energ DENC   =    -33659.86901459
  -exchange      EXHF   =         0.00000000
  -V(xc)+E(xc)   XCENC  =      4180.83841288
  PAW double counting   =    119404.04504248  -135829.70905064
  entropy T*S    EENTRO =        -0.05985370
  eigenvalues    EBANDS =     -5707.64307641
  atomic energy  EATOM  =    134104.30092448
  Solvation  Ediel_sol  =         0.00000000
  ---------------------------------------------------
  free energy    TOTEN  =      -730.43177354 eV

  energy without entropy =     -730.37191983  energy(sigma->0) =     -730.40184669


--------------------------------------------------------------------------------------------------------




--------------------------------------- Iteration      1(  15)  ---------------------------------------


    POTLOK:  cpu time      0.0128: real time      0.0131
    SETDIJ:  cpu time      0.0965: real time      0.0965
     EDDAV:  cpu time      2.1594: real time      2.1591
       DOS:  cpu time      0.0024: real time      0.0024
    CHARGE:  cpu time      0.2327: real time      0.2326
    MIXING:  cpu time      0.0409: real time      0.0409
    --------------------------------------------
      LOOP:  cpu time      2.5447: real time      2.5446

 eigenvalue-minimisations  : 13320
 total energy-change (2. order) : 0.1657564E+01  (-0.6346360E+00)
 number of electron    1050.9998225 magnetization 
 augmentation part      455.7821728 magnetization 

 Broyden mixing:
  rms(total) = 0.65138E+00    rms(broyden)= 0.64951E+00
  rms(prec ) = 0.84728E+00
  weight for this iteration     100.00

 eigenvalues of (default mixing * dielectric matrix)
  average eigenvalue GAMMA=   0.9258
  2.5913  1.6496  1.1497  0.6988  0.6988  0.6714  0.5490  0.5490  0.4011  0.2991

 Free energy of the ion-electron system (eV)
  ---------------------------------------------------
  alpha Z        PSCENC =      5530.94808130
  Ewald energy   TEWEN  =    -88753.28323933
  -Hartree energ DENC   =    -33667.90668107
  -exchange      EXHF   =         0.00000000
  -V(xc)+E(xc)   XCENC  =      4181.01164437
  PAW double counting   =    119348.47581599  -135752.25980121
  entropy T*S    EENTRO =        -0.06673408
  eigenvalues    EBANDS =     -5719.99422044
  atomic energy  EATOM  =    134104.30092448
  Solvation  Ediel_sol  =         0.00000000
  ---------------------------------------------------
  free energy    TOTEN  =      -728.77421000 eV

  energy without entropy =     -728.70747592  energy(sigma->0) =     -728.74084296


--------------------------------------------------------------------------------------------------------




--------------------------------------- Iteration      1(  16)  ---------------------------------------


    POTLOK:  cpu time      0.0132: real time      0.0137
    SETDIJ:  cpu time      0.0967: real time      0.0966
     EDDAV:  cpu time      2.1072: real time      2.1068
       DOS:  cpu time      0.0024: real time      0.0024
    CHARGE:  cpu time      0.2333: real time      0.2332
    MIXING:  cpu time      0.0424: real time      0.0424
    --------------------------------------------
      LOOP:  cpu time      2.4951: real time      2.4951

 eigenvalue-minimisations  : 13152
 total energy-change (2. order) : 0.2901078E+00  (-0.3088826E+00)
 number of electron    1050.9998244 magnetization 
 augmentation part      456.0000587 magnetization 

 Broyden mixing:
  rms(total) = 0.37885E+00    rms(broyden)= 0.37672E+00
  rms(prec ) = 0.48970E+00
  weight for this iteration     100.00

 eigenvalues of (default mixing * dielectric matrix)
  average eigenvalue GAMMA=   0.8897
  2.6027  1.6652  1.1584  0.7630  0.7630  0.6033  0.5492  0.5492  0.4015  0.3656
  0.3656

 Free energy of the ion-electron system (eV)
  ---------------------------------------------------
  alpha Z        PSCENC =      5530.94808130
  Ewald energy   TEWEN  =    -88753.28323933
  -Hartree energ DENC   =    -33666.90034548
  -exchange      EXHF   =         0.00000000
  -V(xc)+E(xc)   XCENC  =      4180.76964975
  PAW double counting   =    119253.49147886  -135640.57177989
  entropy T*S    EENTRO =        -0.07141779
  eigenvalues    EBANDS =     -5737.16745410
  atomic energy  EATOM  =    134104.30092448
  Solvation  Ediel_sol  =         0.00000000
  ---------------------------------------------------
  free energy    TOTEN  =      -728.48410222 eV

  energy without entropy =     -728.41268442  energy(sigma->0) =     -728.44839332


--------------------------------------------------------------------------------------------------------




--------------------------------------- Iteration      1(  17)  ---------------------------------------


    POTLOK:  cpu time      0.0128: real time      0.0131
    SETDIJ:  cpu time      0.0964: real time      0.0964
     EDDAV:  cpu time      2.0788: real time      2.0784
       DOS:  cpu time      0.0024: real time      0.0024
    CHARGE:  cpu time      0.2341: real time      0.2341
    MIXING:  cpu time      0.0426: real time      0.0425
    --------------------------------------------
      LOOP:  cpu time      2.4671: real time      2.4669

 eigenvalue-minimisations  : 12832
 total energy-change (2. order) :-0.6819871E-02  (-0.1931937E+00)
 number of electron    1050.9998248 magnetization 
 augmentation part      456.0491698 magnetization 

 Broyden mixing:
  rms(total) = 0.25499E+00    rms(broyden)= 0.25400E+00
  rms(prec ) = 0.33724E+00
  weight for this iteration     100.00

 eigenvalues of (default mixing * dielectric matrix)
  average eigenvalue GAMMA=   0.8680
  2.6016  1.6689  1.2171  0.7926  0.7926  0.6857  0.5344  0.5344  0.4429  0.4429
  0.4207  0.2825

 Free energy of the ion-electron system (eV)
  ---------------------------------------------------
  alpha Z        PSCENC =      5530.94808130
  Ewald energy   TEWEN  =    -88753.28323933
  -Hartree energ DENC   =    -33665.23242771
  -exchange      EXHF   =         0.00000000
  -V(xc)+E(xc)   XCENC  =      4180.61249361
  PAW double counting   =    119162.38851477  -135543.98636950
  entropy T*S    EENTRO =        -0.07548668
  eigenvalues    EBANDS =     -5744.16341300
  atomic energy  EATOM  =    134104.30092448
  Solvation  Ediel_sol  =         0.00000000
  ---------------------------------------------------
  free energy    TOTEN  =      -728.49092209 eV

  energy without entropy =     -728.41543540  energy(sigma->0) =     -728.45317875


--------------------------------------------------------------------------------------------------------




--------------------------------------- Iteration      1(  18)  ---------------------------------------


    POTLOK:  cpu time      0.0129: real time      0.0134
    SETDIJ:  cpu time      0.0962: real time      0.0962
     EDDAV:  cpu time      2.1353: real time      2.1350
       DOS:  cpu time      0.0024: real time      0.0024
    CHARGE:  cpu time      0.2322: real time      0.2321
    MIXING:  cpu time      0.0457: real time      0.0457
    --------------------------------------------
      LOOP:  cpu time      2.5247: real time      2.5247

 eigenvalue-minimisations  : 13016
 total energy-change (2. order) : 0.8611320E-02  (-0.7023519E-01)
 number of electron    1050.9998246 magnetization 
 augmentation part      456.0883388 magnetization 

 Broyden mixing:
  rms(total) = 0.19043E+00    rms(broyden)= 0.18988E+00
  rms(prec ) = 0.25517E+00
  weight for this iteration     100.00

 eigenvalues of (default mixing * dielectric matrix)
  average eigenvalue GAMMA=   0.8668
  2.6112  1.6359  1.3583  0.8206  0.8206  0.7443  0.7443  0.5859  0.5023  0.5023
  0.3556  0.2934  0.2934

 Free energy of the ion-electron system (eV)
  ---------------------------------------------------
  alpha Z        PSCENC =      5530.94808130
  Ewald energy   TEWEN  =    -88753.28323933
  -Hartree energ DENC   =    -33667.61524299
  -exchange      EXHF   =         0.00000000
  -V(xc)+E(xc)   XCENC  =      4180.70389757
  PAW double counting   =    119073.09667055  -135453.79046630
  entropy T*S    EENTRO =        -0.07766514
  eigenvalues    EBANDS =     -5742.76527089
  atomic energy  EATOM  =    134104.30092448
  Solvation  Ediel_sol  =         0.00000000
  ---------------------------------------------------
  free energy    TOTEN  =      -728.48231077 eV

  energy without entropy =     -728.40464563  energy(sigma->0) =     -728.44347820


--------------------------------------------------------------------------------------------------------




--------------------------------------- Iteration      1(  19)  ---------------------------------------


    POTLOK:  cpu time      0.0129: real time      0.0139
    SETDIJ:  cpu time      0.0965: real time      0.0965
     EDDAV:  cpu time      2.1699: real time      2.1696
       DOS:  cpu time      0.0024: real time      0.0024
    CHARGE:  cpu time      0.2343: real time      0.2342
    MIXING:  cpu time      0.0487: real time      0.0487
    --------------------------------------------
      LOOP:  cpu time      2.5646: real time      2.5653

 eigenvalue-minimisations  : 13504
 total energy-change (2. order) :-0.9363121E-02  (-0.4819404E-01)
 number of electron    1050.9998248 magnetization 
 augmentation part      456.0985622 magnetization 

 Broyden mixing:
  rms(total) = 0.17402E+00    rms(broyden)= 0.17343E+00
  rms(prec ) = 0.23901E+00
  weight for this iteration     100.00

 eigenvalues of (default mixing * dielectric matrix)
  average eigenvalue GAMMA=   0.8820
  2.6488  1.7184  1.7184  0.9449  0.7640  0.7640  0.7253  0.7253  0.5051  0.5051
  0.4281  0.3105  0.3105  0.2793

 Free energy of the ion-electron system (eV)
  ---------------------------------------------------
  alpha Z        PSCENC =      5530.94808130
  Ewald energy   TEWEN  =    -88753.28323933
  -Hartree energ DENC   =    -33671.59153868
  -exchange      EXHF   =         0.00000000
  -V(xc)+E(xc)   XCENC  =      4180.89420840
  PAW double counting   =    118994.74512953  -135374.93600652
  entropy T*S    EENTRO =        -0.07599328
  eigenvalues    EBANDS =     -5739.49323977
  atomic energy  EATOM  =    134104.30092448
  Solvation  Ediel_sol  =         0.00000000
  ---------------------------------------------------
  free energy    TOTEN  =      -728.49167389 eV

  energy without entropy =     -728.41568060  energy(sigma->0) =     -728.45367725


--------------------------------------------------------------------------------------------------------




--------------------------------------- Iteration      1(  20)  ---------------------------------------


    POTLOK:  cpu time      0.0128: real time      0.0133
    SETDIJ:  cpu time      0.0968: real time      0.0968
     EDDAV:  cpu time      2.0239: real time      2.0236
       DOS:  cpu time      0.0024: real time      0.0024
    CHARGE:  cpu time      0.2332: real time      0.2331
    MIXING:  cpu time      0.0527: real time      0.0527
    --------------------------------------------
      LOOP:  cpu time      2.4218: real time      2.4219

 eigenvalue-minimisations  : 12344
 total energy-change (2. order) : 0.3961173E-02  (-0.3036478E-01)
 number of electron    1050.9998247 magnetization 
 augmentation part      456.1007665 magnetization 

 Broyden mixing:
  rms(total) = 0.10037E+00    rms(broyden)= 0.99708E-01
  rms(prec ) = 0.13790E+00
  weight for this iteration     100.00

 eigenvalues of (default mixing * dielectric matrix)
  average eigenvalue GAMMA=   0.8756
  2.7076  1.8048  1.8048  0.9841  0.7694  0.7694  0.7792  0.7792  0.4809  0.4809
  0.4774  0.4146  0.3382  0.2717  0.2717

 Free energy of the ion-electron system (eV)
  ---------------------------------------------------
  alpha Z        PSCENC =      5530.94808130
  Ewald energy   TEWEN  =    -88753.28323933
  -Hartree energ DENC   =    -33677.21322125
  -exchange      EXHF   =         0.00000000
  -V(xc)+E(xc)   XCENC  =      4181.16436848
  PAW double counting   =    118909.44947247  -135290.09391811
  entropy T*S    EENTRO =        -0.07759116
  eigenvalues    EBANDS =     -5733.68258958
  atomic energy  EATOM  =    134104.30092448
  Solvation  Ediel_sol  =         0.00000000
  ---------------------------------------------------
  free energy    TOTEN  =      -728.48771271 eV

  energy without entropy =     -728.41012156  energy(sigma->0) =     -728.44891714


--------------------------------------------------------------------------------------------------------




--------------------------------------- Iteration      1(  21)  ---------------------------------------


    POTLOK:  cpu time      0.0130: real time      0.0135
    SETDIJ:  cpu time      0.0961: real time      0.0961
     EDDAV:  cpu time      2.0762: real time      2.0760
       DOS:  cpu time      0.0023: real time      0.0023
    CHARGE:  cpu time      0.2343: real time      0.2343
    MIXING:  cpu time      0.0545: real time      0.0545
    --------------------------------------------
      LOOP:  cpu time      2.4764: real time      2.4766

 eigenvalue-minimisations  : 12808
 total energy-change (2. order) :-0.8378166E-03  (-0.1126660E-01)
 number of electron    1050.9998247 magnetization 
 augmentation part      456.1027897 magnetization 

 Broyden mixing:
  rms(total) = 0.80637E-01    rms(broyden)= 0.80300E-01
  rms(prec ) = 0.11348E+00
  weight for this iteration     100.00

 eigenvalues of (default mixing * dielectric matrix)
  average eigenvalue GAMMA=   0.8644
  2.7485  2.0666  1.7442  1.0297  0.7584  0.7584  0.7900  0.7900  0.5221  0.5221
  0.5395  0.3530  0.3408  0.3408  0.2634  0.2634

 Free energy of the ion-electron system (eV)
  ---------------------------------------------------
  alpha Z        PSCENC =      5530.94808130
  Ewald energy   TEWEN  =    -88753.28323933
  -Hartree energ DENC   =    -33678.59004334
  -exchange      EXHF   =         0.00000000
  -V(xc)+E(xc)   XCENC  =      4181.22740101
  PAW double counting   =    118869.55360818  -135249.36989689
  entropy T*S    EENTRO =        -0.08053440
  eigenvalues    EBANDS =     -5733.19485153
  atomic energy  EATOM  =    134104.30092448
  Solvation  Ediel_sol  =         0.00000000
  ---------------------------------------------------
  free energy    TOTEN  =      -728.48855053 eV

  energy without entropy =     -728.40801613  energy(sigma->0) =     -728.44828333


--------------------------------------------------------------------------------------------------------




--------------------------------------- Iteration      1(  22)  ---------------------------------------


    POTLOK:  cpu time      0.0129: real time      0.0134
    SETDIJ:  cpu time      0.0964: real time      0.0964
     EDDAV:  cpu time      2.0716: real time      2.0714
       DOS:  cpu time      0.0024: real time      0.0024
    CHARGE:  cpu time      0.2327: real time      0.2327
    MIXING:  cpu time      0.0585: real time      0.0585
    --------------------------------------------
      LOOP:  cpu time      2.4745: real time      2.4747

 eigenvalue-minimisations  : 12656
 total energy-change (2. order) :-0.2134550E-02  (-0.9011299E-02)
 number of electron    1050.9998246 magnetization 
 augmentation part      456.1076181 magnetization 

 Broyden mixing:
  rms(total) = 0.73466E-01    rms(broyden)= 0.73103E-01
  rms(prec ) = 0.10231E+00
  weight for this iteration     100.00

 eigenvalues of (default mixing * dielectric matrix)
  average eigenvalue GAMMA=   0.8339
  2.7539  2.0586  1.7302  0.9148  0.8966  0.8966  0.7140  0.7140  0.5610  0.5610
  0.5535  0.3859  0.3563  0.3563  0.2708  0.2708  0.1814

 Free energy of the ion-electron system (eV)
  ---------------------------------------------------
  alpha Z        PSCENC =      5530.94808130
  Ewald energy   TEWEN  =    -88753.28323933
  -Hartree energ DENC   =    -33678.75232501
  -exchange      EXHF   =         0.00000000
  -V(xc)+E(xc)   XCENC  =      4181.23480832
  PAW double counting   =    118841.67663854  -135221.33922535
  entropy T*S    EENTRO =        -0.07945356
  eigenvalues    EBANDS =     -5733.19689445
  atomic energy  EATOM  =    134104.30092448
  Solvation  Ediel_sol  =         0.00000000
  ---------------------------------------------------
  free energy    TOTEN  =      -728.49068508 eV

  energy without entropy =     -728.41123152  energy(sigma->0) =     -728.45095830


--------------------------------------------------------------------------------------------------------




--------------------------------------- Iteration      1(  23)  ---------------------------------------


    POTLOK:  cpu time      0.0129: real time      0.0135
    SETDIJ:  cpu time      0.0963: real time      0.0962
     EDDAV:  cpu time      2.0225: real time      2.0222
       DOS:  cpu time      0.0024: real time      0.0024
    CHARGE:  cpu time      0.2339: real time      0.2339
    MIXING:  cpu time      0.0617: real time      0.0617
    --------------------------------------------
      LOOP:  cpu time      2.4296: real time      2.4299

 eigenvalue-minimisations  : 12552
 total energy-change (2. order) : 0.1864619E-02  (-0.2575728E-02)
 number of electron    1050.9998246 magnetization 
 augmentation part      456.1119555 magnetization 

 Broyden mixing:
  rms(total) = 0.38493E-01    rms(broyden)= 0.38343E-01
  rms(prec ) = 0.52003E-01
  weight for this iteration     100.00

 eigenvalues of (default mixing * dielectric matrix)
  average eigenvalue GAMMA=   0.8233
  2.7738  1.8929  1.8929  1.0981  1.0981  0.7489  0.7489  0.6613  0.6357  0.5590
  0.5590  0.3915  0.3666  0.3666  0.2954  0.2581  0.2362  0.2362

 Free energy of the ion-electron system (eV)
  ---------------------------------------------------
  alpha Z        PSCENC =      5530.94808130
  Ewald energy   TEWEN  =    -88753.28323933
  -Hartree energ DENC   =    -33678.51603526
  -exchange      EXHF   =         0.00000000
  -V(xc)+E(xc)   XCENC  =      4181.22317560
  PAW double counting   =    118838.60677036  -135218.19763993
  entropy T*S    EENTRO =        -0.07890578
  eigenvalues    EBANDS =     -5733.49195189
  atomic energy  EATOM  =    134104.30092448
  Solvation  Ediel_sol  =         0.00000000
  ---------------------------------------------------
  free energy    TOTEN  =      -728.48882046 eV

  energy without entropy =     -728.40991468  energy(sigma->0) =     -728.44936757


--------------------------------------------------------------------------------------------------------




--------------------------------------- Iteration      1(  24)  ---------------------------------------


    POTLOK:  cpu time      0.0128: real time      0.0133
    SETDIJ:  cpu time      0.0963: real time      0.0963
     EDDAV:  cpu time      2.2305: real time      2.2301
       DOS:  cpu time      0.0023: real time      0.0023
    CHARGE:  cpu time      0.2344: real time      0.2344
    MIXING:  cpu time      0.0638: real time      0.0638
    --------------------------------------------
      LOOP:  cpu time      2.6401: real time      2.6402

 eigenvalue-minimisations  : 13688
 total energy-change (2. order) : 0.5729370E-03  (-0.7291324E-03)
 number of electron    1050.9998246 magnetization 
 augmentation part      456.1068995 magnetization 

 Broyden mixing:
  rms(total) = 0.25135E-01    rms(broyden)= 0.25071E-01
  rms(prec ) = 0.33166E-01
  weight for this iteration     100.00

 eigenvalues of (default mixing * dielectric matrix)
  average eigenvalue GAMMA=   0.8335
  2.7838  1.9253  1.9253  1.2198  1.2198  0.7963  0.7963  0.6640  0.6640  0.5335
  0.5335  0.5690  0.4537  0.3602  0.3468  0.3468  0.2517  0.2517  0.1947

 Free energy of the ion-electron system (eV)
  ---------------------------------------------------
  alpha Z        PSCENC =      5530.94808130
  Ewald energy   TEWEN  =    -88753.28323933
  -Hartree energ DENC   =    -33679.31806903
  -exchange      EXHF   =         0.00000000
  -V(xc)+E(xc)   XCENC  =      4181.26443815
  PAW double counting   =    118837.16364932  -135217.19955394
  entropy T*S    EENTRO =        -0.08014517
  eigenvalues    EBANDS =     -5732.28433330
  atomic energy  EATOM  =    134104.30092448
  Solvation  Ediel_sol  =         0.00000000
  ---------------------------------------------------
  free energy    TOTEN  =      -728.48824753 eV

  energy without entropy =     -728.40810236  energy(sigma->0) =     -728.44817494


--------------------------------------------------------------------------------------------------------




--------------------------------------- Iteration      1(  25)  ---------------------------------------


    POTLOK:  cpu time      0.0128: real time      0.0133
    SETDIJ:  cpu time      0.0955: real time      0.0955
     EDDAV:  cpu time      2.3490: real time      2.3487
       DOS:  cpu time      0.0023: real time      0.0023
    CHARGE:  cpu time      0.2349: real time      0.2349
    MIXING:  cpu time      0.0669: real time      0.0669
    --------------------------------------------
      LOOP:  cpu time      2.7615: real time      2.7616

 eigenvalue-minimisations  : 14704
 total energy-change (2. order) : 0.1068791E-04  (-0.4211637E-03)
 number of electron    1050.9998247 magnetization 
 augmentation part      456.1053468 magnetization 

 Broyden mixing:
  rms(total) = 0.15510E-01    rms(broyden)= 0.15412E-01
  rms(prec ) = 0.21130E-01
  weight for this iteration     100.00

 eigenvalues of (default mixing * dielectric matrix)
  average eigenvalue GAMMA=   0.8356
  2.7804  1.9031  1.9031  1.4123  1.4123  0.7771  0.7771  0.7328  0.7328  0.6336
  0.5599  0.5599  0.4202  0.3883  0.3883  0.3134  0.3134  0.2553  0.2553  0.1937

 Free energy of the ion-electron system (eV)
  ---------------------------------------------------
  alpha Z        PSCENC =      5530.94808130
  Ewald energy   TEWEN  =    -88753.28323933
  -Hartree energ DENC   =    -33679.36437504
  -exchange      EXHF   =         0.00000000
  -V(xc)+E(xc)   XCENC  =      4181.27022561
  PAW double counting   =    118830.79825298  -135211.11566478
  entropy T*S    EENTRO =        -0.08018798
  eigenvalues    EBANDS =     -5731.96225406
  atomic energy  EATOM  =    134104.30092448
  Solvation  Ediel_sol  =         0.00000000
  ---------------------------------------------------
  free energy    TOTEN  =      -728.48823684 eV

  energy without entropy =     -728.40804885  energy(sigma->0) =     -728.44814285


--------------------------------------------------------------------------------------------------------




--------------------------------------- Iteration      1(  26)  ---------------------------------------


    POTLOK:  cpu time      0.0129: real time      0.0134
    SETDIJ:  cpu time      0.0963: real time      0.0963
     EDDAV:  cpu time      2.3689: real time      2.3685
       DOS:  cpu time      0.0024: real time      0.0024
    CHARGE:  cpu time      0.2343: real time      0.2343
    MIXING:  cpu time      0.0715: real time      0.0715
    --------------------------------------------
      LOOP:  cpu time      2.7863: real time      2.7864

 eigenvalue-minimisations  : 14552
 total energy-change (2. order) :-0.1912701E-03  (-0.2913365E-03)
 number of electron    1050.9998247 magnetization 
 augmentation part      456.1081719 magnetization 

 Broyden mixing:
  rms(total) = 0.16076E-01    rms(broyden)= 0.16001E-01
  rms(prec ) = 0.21938E-01
  weight for this iteration     100.00

 eigenvalues of (default mixing * dielectric matrix)
  average eigenvalue GAMMA=   0.8302
  2.7641  2.1648  1.6967  1.4617  1.4617  0.7898  0.7898  0.8238  0.7007  0.7007
  0.5659  0.5659  0.4837  0.4837  0.3561  0.3385  0.3385  0.2559  0.2559  0.2401
  0.1961

 Free energy of the ion-electron system (eV)
  ---------------------------------------------------
  alpha Z        PSCENC =      5530.94808130
  Ewald energy   TEWEN  =    -88753.28323933
  -Hartree energ DENC   =    -33678.89151058
  -exchange      EXHF   =         0.00000000
  -V(xc)+E(xc)   XCENC  =      4181.24720978
  PAW double counting   =    118827.48298098  -135207.81781088
  entropy T*S    EENTRO =        -0.08054243
  eigenvalues    EBANDS =     -5732.39452142
  atomic energy  EATOM  =    134104.30092448
  Solvation  Ediel_sol  =         0.00000000
  ---------------------------------------------------
  free energy    TOTEN  =      -728.48842811 eV

  energy without entropy =     -728.40788568  energy(sigma->0) =     -728.44815689


--------------------------------------------------------------------------------------------------------




--------------------------------------- Iteration      1(  27)  ---------------------------------------


    POTLOK:  cpu time      0.0129: real time      0.0154
    SETDIJ:  cpu time      0.0958: real time      0.0958
     EDDAV:  cpu time      2.1172: real time      2.1170
       DOS:  cpu time      0.0023: real time      0.0023
    CHARGE:  cpu time      0.2342: real time      0.2342
    MIXING:  cpu time      0.0766: real time      0.0765
    --------------------------------------------
      LOOP:  cpu time      2.5391: real time      2.5413

 eigenvalue-minimisations  : 12816
 total energy-change (2. order) : 0.9682123E-04  (-0.1234094E-03)
 number of electron    1050.9998247 magnetization 
 augmentation part      456.1064839 magnetization 

 Broyden mixing:
  rms(total) = 0.67631E-02    rms(broyden)= 0.67047E-02
  rms(prec ) = 0.90634E-02
  weight for this iteration     100.00

 eigenvalues of (default mixing * dielectric matrix)
  average eigenvalue GAMMA=   0.8380
  2.7667  2.3424  1.7728  1.7728  1.1116  1.1116  0.8024  0.8024  0.6993  0.6481
  0.6481  0.5359  0.5359  0.4705  0.4123  0.4123  0.3265  0.3265  0.2515  0.2515
  0.2412  0.1948

 Free energy of the ion-electron system (eV)
  ---------------------------------------------------
  alpha Z        PSCENC =      5530.94808130
  Ewald energy   TEWEN  =    -88753.28323933
  -Hartree energ DENC   =    -33678.72464948
  -exchange      EXHF   =         0.00000000
  -V(xc)+E(xc)   XCENC  =      4181.23841868
  PAW double counting   =    118825.11891582  -135205.56101126
  entropy T*S    EENTRO =        -0.08043822
  eigenvalues    EBANDS =     -5732.44533327
  atomic energy  EATOM  =    134104.30092448
  Solvation  Ediel_sol  =         0.00000000
  ---------------------------------------------------
  free energy    TOTEN  =      -728.48833129 eV

  energy without entropy =     -728.40789307  energy(sigma->0) =     -728.44811218


--------------------------------------------------------------------------------------------------------




--------------------------------------- Iteration      1(  28)  ---------------------------------------


    POTLOK:  cpu time      0.0130: real time      0.0135
    SETDIJ:  cpu time      0.0955: real time      0.0955
     EDDAV:  cpu time      2.0067: real time      2.0064
       DOS:  cpu time      0.0024: real time      0.0024
    CHARGE:  cpu time      0.2334: real time      0.2334
    MIXING:  cpu time      0.0811: real time      0.0810
    --------------------------------------------
      LOOP:  cpu time      2.4321: real time      2.4322

 eigenvalue-minimisations  : 12392
 total energy-change (2. order) :-0.4918162E-04  (-0.5736401E-04)
 number of electron    1050.9998247 magnetization 
 augmentation part      456.1087525 magnetization 

 Broyden mixing:
  rms(total) = 0.55665E-02    rms(broyden)= 0.55415E-02
  rms(prec ) = 0.74480E-02
  weight for this iteration     100.00

 eigenvalues of (default mixing * dielectric matrix)
  average eigenvalue GAMMA=   0.8418
  2.8178  2.4848  1.8090  1.8090  1.1280  1.1280  0.8312  0.8312  0.7529  0.6861
  0.6861  0.5169  0.5169  0.5311  0.5311  0.3577  0.3577  0.3275  0.3275  0.2526
  0.2526  0.2307  0.1953

 Free energy of the ion-electron system (eV)
  ---------------------------------------------------
  alpha Z        PSCENC =      5530.94808130
  Ewald energy   TEWEN  =    -88753.28323933
  -Hartree energ DENC   =    -33678.39090630
  -exchange      EXHF   =         0.00000000
  -V(xc)+E(xc)   XCENC  =      4181.21992536
  PAW double counting   =    118823.21604564  -135203.61581100
  entropy T*S    EENTRO =        -0.08046419
  eigenvalues    EBANDS =     -5732.80293641
  atomic energy  EATOM  =    134104.30092448
  Solvation  Ediel_sol  =         0.00000000
  ---------------------------------------------------
  free energy    TOTEN  =      -728.48838047 eV

  energy without entropy =     -728.40791628  energy(sigma->0) =     -728.44814837


--------------------------------------------------------------------------------------------------------




--------------------------------------- Iteration      1(  29)  ---------------------------------------


    POTLOK:  cpu time      0.0129: real time      0.0134
    SETDIJ:  cpu time      0.0956: real time      0.0956
     EDDAV:  cpu time      1.9492: real time      1.9489
       DOS:  cpu time      0.0024: real time      0.0024
    CHARGE:  cpu time      0.2325: real time      0.2325
    MIXING:  cpu time      0.0861: real time      0.0861
    --------------------------------------------
      LOOP:  cpu time      2.3787: real time      2.3789

 eigenvalue-minimisations  : 11888
 total energy-change (2. order) : 0.1053850E-06  (-0.1980344E-04)
 number of electron    1050.9998247 magnetization 
 augmentation part      456.1086512 magnetization 

 Broyden mixing:
  rms(total) = 0.27005E-02    rms(broyden)= 0.26895E-02
  rms(prec ) = 0.35988E-02
  weight for this iteration     100.00

 eigenvalues of (default mixing * dielectric matrix)
  average eigenvalue GAMMA=   0.8337
  2.8613  2.4950  1.8064  1.8064  1.0708  1.0708  0.8581  0.8581  0.7596  0.7596
  0.7856  0.5315  0.5315  0.5239  0.5032  0.5032  0.3511  0.3511  0.3246  0.3246
  0.2519  0.2519  0.2340  0.1951

 Free energy of the ion-electron system (eV)
  ---------------------------------------------------
  alpha Z        PSCENC =      5530.94808130
  Ewald energy   TEWEN  =    -88753.28323933
  -Hartree energ DENC   =    -33678.42673936
  -exchange      EXHF   =         0.00000000
  -V(xc)+E(xc)   XCENC  =      4181.22104462
  PAW double counting   =    118822.17935352  -135202.66323755
  entropy T*S    EENTRO =        -0.08043011
  eigenvalues    EBANDS =     -5732.68413792
  atomic energy  EATOM  =    134104.30092448
  Solvation  Ediel_sol  =         0.00000000
  ---------------------------------------------------
  free energy    TOTEN  =      -728.48838036 eV

  energy without entropy =     -728.40795025  energy(sigma->0) =     -728.44816531


--------------------------------------------------------------------------------------------------------




--------------------------------------- Iteration      1(  30)  ---------------------------------------


    POTLOK:  cpu time      0.0130: real time      0.0134
    SETDIJ:  cpu time      0.0960: real time      0.0960
     EDDAV:  cpu time      1.8114: real time      1.8111
       DOS:  cpu time      0.0023: real time      0.0023
    --------------------------------------------
      LOOP:  cpu time      2.4914: real time      2.4915

 eigenvalue-minimisations  : 10784
 total energy-change (2. order) :-0.3763271E-05  (-0.8355322E-05)
 number of electron    1050.9998247 magnetization 
 augmentation part      456.1086512 magnetization 

 Free energy of the ion-electron system (eV)
  ---------------------------------------------------
  alpha Z        PSCENC =      5530.94808130
  Ewald energy   TEWEN  =    -88753.28323933
  -Hartree energ DENC   =    -33678.53757497
  -exchange      EXHF   =         0.00000000
  -V(xc)+E(xc)   XCENC  =      4181.22667800
  PAW double counting   =    118822.09407751  -135202.65870430
  entropy T*S    EENTRO =        -0.08038692
  eigenvalues    EBANDS =     -5732.49823988
  atomic energy  EATOM  =    134104.30092448
  Solvation  Ediel_sol  =         0.00000000
  ---------------------------------------------------
  free energy    TOTEN  =      -728.48838413 eV

  energy without entropy =     -728.40799720  energy(sigma->0) =     -728.44819066


--------------------------------------------------------------------------------------------------------




 the core state eigenenergies are
   1-  1s -10217.5578  2s  -1250.8356  2p  -1087.2989  3s   -137.3858  3p    -88.1421
     
   2-  1s -10217.6220  2s  -1250.8978  2p  -1087.3614  3s   -137.4431  3p    -88.1991
     
   3-  1s -10217.5460  2s  -1250.8242  2p  -1087.2874  3s   -137.3754  3p    -88.1317
     
   4-  1s -10217.7661  2s  -1251.1332  2p  -1087.5888  3s   -137.6301  3p    -88.3847
     
   5-  1s -10217.7160  2s  -1251.0841  2p  -1087.5395  3s   -137.5840  3p    -88.3388
     
   6-  1s -10217.5986  2s  -1250.8766  2p  -1087.3399  3s   -137.4247  3p    -88.1808
     
   7-  1s -10217.5255  2s  -1250.8069  2p  -1087.2697  3s   -137.3633  3p    -88.1199
     
   8-  1s -10217.7237  2s  -1251.0914  2p  -1087.5469  3s   -137.5908  3p    -88.3455
     
   9-  1s -10217.7244  2s  -1251.0911  2p  -1087.5466  3s   -137.5899  3p    -88.3446
     
  10-  1s -10217.5438  2s  -1250.8219  2p  -1087.2851  3s   -137.3730  3p    -88.1293
     
  11-  1s -10217.7227  2s  -1251.0894  2p  -1087.5450  3s   -137.5890  3p    -88.3437
     
  12-  1s -10217.9170  2s  -1251.3056  2p  -1087.7606  3s   -137.7340  3p    -88.4852
     
  13-  1s -10217.5457  2s  -1250.8239  2p  -1087.2871  3s   -137.3753  3p    -88.1317
     
  14-  1s -10217.5653  2s  -1250.8440  2p  -1087.3071  3s   -137.3964  3p    -88.1528
     
  15-  1s -10217.6565  2s  -1250.9338  2p  -1087.3971  3s   -137.4844  3p    -88.2406
     
  16-  1s -10217.7080  2s  -1251.0755  2p  -1087.5310  3s   -137.5747  3p    -88.3294
     
  17-  1s -10217.7190  2s  -1251.0868  2p  -1087.5422  3s   -137.5874  3p    -88.3421
     
  18-  1s -10217.5484  2s  -1250.8264  2p  -1087.2897  3s   -137.3779  3p    -88.1343
     
  19-  1s -10217.5372  2s  -1250.8158  2p  -1087.2789  3s   -137.3687  3p    -88.1251
     
  20-  1s -10217.7171  2s  -1251.0839  2p  -1087.5395  3s   -137.5826  3p    -88.3373
     
  21-  1s -10217.7312  2s  -1251.0969  2p  -1087.5526  3s   -137.5929  3p    -88.3474
     
  22-  1s -10217.7195  2s  -1251.0873  2p  -1087.5427  3s   -137.5876  3p    -88.3424
     
  23-  1s -10217.5516  2s  -1250.8283  2p  -1087.2917  3s   -137.3775  3p    -88.1337
     
  24-  1s -10217.7044  2s  -1251.0720  2p  -1087.5274  3s   -137.5718  3p    -88.3266
     
  25-  1s -10217.7433  2s  -1251.1096  2p  -1087.5653  3s   -137.6068  3p    -88.3614
     
  26-  1s -10217.7949  2s  -1251.1641  2p  -1087.6194  3s   -137.6655  3p    -88.4204
     
  27-  1s -10217.5969  2s  -1250.8750  2p  -1087.3382  3s   -137.4238  3p    -88.1799
     
  28-  1s -10217.5646  2s  -1250.8433  2p  -1087.3064  3s   -137.3960  3p    -88.1524
     
  29-  1s -10217.6219  2s  -1250.8976  2p  -1087.3612  3s   -137.4430  3p    -88.1990
     
  30-  1s -10217.7079  2s  -1251.0754  2p  -1087.5309  3s   -137.5747  3p    -88.3294
     
  31-  1s -10217.5371  2s  -1250.8157  2p  -1087.2788  3s   -137.3687  3p    -88.1251
     
  32-  1s -10217.5538  2s  -1250.8335  2p  -1087.2965  3s   -137.3878  3p    -88.1443
     
  33-  1s -10217.7236  2s  -1251.0913  2p  -1087.5468  3s   -137.5903  3p    -88.3450
     
  34-  1s -10217.5375  2s  -1250.8159  2p  -1087.2791  3s   -137.3682  3p    -88.1245
     
  35-  1s -10217.5545  2s  -1250.8342  2p  -1087.2972  3s   -137.3882  3p    -88.1447
     
  36-  1s -10217.7659  2s  -1251.1330  2p  -1087.5886  3s   -137.6299  3p    -88.3845
     
  37-  1s -10217.7173  2s  -1251.0842  2p  -1087.5397  3s   -137.5827  3p    -88.3373
     
  38-  1s -10217.7022  2s  -1251.0701  2p  -1087.5255  3s   -137.5703  3p    -88.3251
     
  39-  1s -10217.7434  2s  -1251.1098  2p  -1087.5654  3s   -137.6069  3p    -88.3615
     
  40-  1s -10217.7016  2s  -1251.0729  2p  -1087.5280  3s   -137.5727  3p    -88.3275
     
  41-  1s -10217.7961  2s  -1251.1653  2p  -1087.6205  3s   -137.6661  3p    -88.4209
     
  42-  1s -10217.6145  2s  -1250.9097  2p  -1087.3719  3s   -137.4312  3p    -88.1862
     
  43-  1s -10217.5974  2s  -1250.8754  2p  -1087.3386  3s   -137.4279  3p    -88.1842
     
  44-  1s -10217.6150  2s  -1250.9102  2p  -1087.3724  3s   -137.4315  3p    -88.1866
     
  45-  1s -10217.7714  2s  -1251.1393  2p  -1087.5946  3s   -137.6418  3p    -88.3966
     
  46-  1s -10217.5328  2s  -1250.8115  2p  -1087.2746  3s   -137.3638  3p    -88.1201
     
  47-  1s -10217.5456  2s  -1250.8235  2p  -1087.2868  3s   -137.3739  3p    -88.1302
     
  48-  1s -10217.7034  2s  -1251.0712  2p  -1087.5267  3s   -137.5709  3p    -88.3256
     
  49-  1s   -371.9407
  50-  1s   -500.6336
  51-  1s   -500.6375
  52-  1s   -500.6922
  53-  1s   -500.6612
  54-  1s   -500.7110
  55-  1s   -500.7134
  56-  1s   -500.7208
  57-  1s   -500.6594
  58-  1s   -500.4290
  59-  1s   -500.4186
  60-  1s   -500.7147
  61-  1s   -500.7049
  62-  1s   -500.4169
  63-  1s   -500.7121
  64-  1s   -500.6641
  65-  1s   -500.6356
  66-  1s   -500.6282
  67-  1s   -500.7256
  68-  1s   -500.3854
  69-  1s   -500.4156
  70-  1s   -500.4388
  71-  1s   -500.7017
  72-  1s   -500.9035
  73-  1s   -500.6515
  74-  1s   -500.6598
  75-  1s   -500.3937
  76-  1s   -500.6892
  77-  1s   -500.7225
  78-  1s   -500.7973
  79-  1s   -500.7243
  80-  1s   -500.4161
  81-  1s   -500.7035
  82-  1s   -500.4101
  83-  1s   -500.4381
  84-  1s   -500.4165
  85-  1s   -500.7080
  86-  1s   -500.6520
  87-  1s   -500.6355
  88-  1s   -500.8168
  89-  1s   -500.4305
  90-  1s   -500.8188
  91-  1s   -500.6931
  92-  1s   -500.7253
  93-  1s   -500.6757
  94-  1s   -500.6642
  95-  1s   -500.7970
  96-  1s   -500.7113
  97-  1s   -500.7724
  98-  1s   -500.4239
  99-  1s   -500.6914
 100-  1s   -500.6375
 101-  1s   -500.7258
 102-  1s   -500.4612
 103-  1s   -500.3859
 104-  1s   -500.6518
 105-  1s   -500.6338
 106-  1s   -500.4426
 107-  1s   -500.4295
 108-  1s   -500.4340
 109-  1s   -500.4615
 110-  1s   -500.6890
 111-  1s   -500.9042
 112-  1s   -500.6284
 113-  1s   -500.3943
 114-  1s   -500.4194
 115-  1s   -500.6874
 116-  1s   -500.7140
 117-  1s   -500.6759
 118-  1s   -500.7048
 119-  1s   -500.7249
 120-  1s   -500.6920
 
 E-fermi :   3.5874     XC(G=0): -11.5470     alpha+bet :-12.5363

 Fermi energy:         3.5873933344

 k-point     1 :       0.0000    0.0000    0.0000
  band No.  band energies     occupation 
      1     -15.0938      2.00000
      2     -14.8033      2.00000
      3     -14.7106      2.00000
      4     -14.6638      2.00000
      5     -14.6488      2.00000
      6     -14.4494      2.00000
      7     -14.4456      2.00000
      8     -14.4269      2.00000
      9     -14.3629      2.00000
     10     -14.2476      2.00000
     11     -14.2358      2.00000
     12     -14.2243      2.00000
     13     -14.2018      2.00000
     14     -14.1649      2.00000
     15     -14.1282      2.00000
     16     -14.1278      2.00000
     17     -14.1167      2.00000
     18     -14.1107      2.00000
     19     -14.0676      2.00000
     20     -14.0544      2.00000
     21     -14.0373      2.00000
     22     -14.0368      2.00000
     23     -14.0283      2.00000
     24     -14.0063      2.00000
     25     -13.9933      2.00000
     26     -13.9687      2.00000
     27     -13.8593      2.00000
     28     -13.8501      2.00000
     29     -13.8394      2.00000
     30     -13.8359      2.00000
     31     -13.8174      2.00000
     32     -13.8001      2.00000
     33     -13.7992      2.00000
     34     -13.7875      2.00000
     35     -13.7821      2.00000
     36     -13.7763      2.00000
     37     -13.7459      2.00000
     38     -13.7378      2.00000
     39     -13.6506      2.00000
     40     -13.6172      2.00000
     41     -13.5934      2.00000
     42     -13.5742      2.00000
     43     -13.5581      2.00000
     44     -13.5437      2.00000
     45     -13.5388      2.00000
     46     -13.5361      2.00000
     47     -13.5207      2.00000
     48     -13.5108      2.00000
     49     -13.5008      2.00000
     50     -13.4819      2.00000
     51     -13.4734      2.00000
     52     -13.4634      2.00000
     53     -13.4588      2.00000
     54     -13.4352      2.00000
     55     -13.4230      2.00000
     56     -13.4208      2.00000
     57     -13.3801      2.00000
     58     -13.3786      2.00000
     59     -13.3580      2.00000
     60     -13.3538      2.00000
     61     -13.3515      2.00000
     62     -13.3493      2.00000
     63     -13.3444      2.00000
     64     -13.3441      2.00000
     65     -13.3423      2.00000
     66     -13.3399      2.00000
     67     -13.3387      2.00000
     68     -13.3240      2.00000
     69     -13.3212      2.00000
     70     -13.3064      2.00000
     71     -13.2551      2.00000
     72     -10.5073      2.00000
     73      -9.0943      2.00000
     74      -9.0906      2.00000
     75      -9.0868      2.00000
     76      -9.0823      2.00000
     77      -9.0696      2.00000
     78      -9.0390      2.00000
     79      -9.0350      2.00000
     80      -9.0331      2.00000
     81      -9.0296      2.00000
     82      -9.0272      2.00000
     83      -9.0256      2.00000
     84      -9.0250      2.00000
     85      -9.0217      2.00000
     86      -9.0115      2.00000
     87      -9.0037      2.00000
     88      -8.9939      2.00000
     89      -8.9887      2.00000
     90      -8.9837      2.00000
     91      -8.9749      2.00000
     92      -8.9722      2.00000
     93      -8.9708      2.00000
     94      -8.9675      2.00000
     95      -8.9637      2.00000
     96      -8.9593      2.00000
     97      -8.9532      2.00000
     98      -8.9521      2.00000
     99      -8.9405      2.00000
    100      -8.9393      2.00000
    101      -8.9386      2.00000
    102      -8.9357      2.00000
    103      -8.9345      2.00000
    104      -8.9293      2.00000
    105      -8.9291      2.00000
    106      -8.9272      2.00000
    107      -8.9204      2.00000
    108      -8.9194      2.00000
    109      -8.9137      2.00000
    110      -8.9115      2.00000
    111      -8.9107      2.00000
    112      -8.9103      2.00000
    113      -8.9026      2.00000
    114      -8.9025      2.00000
    115      -8.9005      2.00000
    116      -8.8997      2.00000
    117      -8.8913      2.00000
    118      -8.8896      2.00000
    119      -8.8875      2.00000
    120      -8.8848      2.00000
    121      -8.8795      2.00000
    122      -8.8782      2.00000
    123      -8.8754      2.00000
    124      -8.8720      2.00000
    125      -8.8661      2.00000
    126      -8.8657      2.00000
    127      -8.8626      2.00000
    128      -8.8535      2.00000
    129      -8.8521      2.00000
    130      -8.8502      2.00000
    131      -8.8479      2.00000
    132      -8.8465      2.00000
    133      -8.8462      2.00000
    134      -8.8392      2.00000
    135      -8.8390      2.00000
    136      -8.8368      2.00000
    137      -8.8354      2.00000
    138      -8.8326      2.00000
    139      -8.8311      2.00000
    140      -8.8271      2.00000
    141      -8.8247      2.00000
    142      -8.8239      2.00000
    143      -8.8231      2.00000
    144      -8.8203      2.00000
    145      -8.8177      2.00000
    146      -8.8163      2.00000
    147      -8.8144      2.00000
    148      -8.8129      2.00000
    149      -8.8124      2.00000
    150      -8.8120      2.00000
    151      -8.8078      2.00000
    152      -8.8066      2.00000
    153      -8.8042      2.00000
    154      -8.8037      2.00000
    155      -8.8034      2.00000
    156      -8.7971      2.00000
    157      -8.7961      2.00000
    158      -8.7918      2.00000
    159      -8.7912      2.00000
    160      -8.7902      2.00000
    161      -8.7877      2.00000
    162      -8.7862      2.00000
    163      -8.7861      2.00000
    164      -8.7848      2.00000
    165      -8.7835      2.00000
    166      -8.7818      2.00000
    167      -8.7803      2.00000
    168      -8.7762      2.00000
    169      -8.7747      2.00000
    170      -8.7732      2.00000
    171      -8.7718      2.00000
    172      -8.7687      2.00000
    173      -8.7619      2.00000
    174      -8.7584      2.00000
    175      -8.7575      2.00000
    176      -8.7522      2.00000
    177      -8.7469      2.00000
    178      -8.7441      2.00000
    179      -8.7424      2.00000
    180      -8.7402      2.00000
    181      -8.7373      2.00000
    182      -8.7215      2.00000
    183      -8.7184      2.00000
    184      -8.7176      2.00000
    185      -8.7157      2.00000
    186      -8.7145      2.00000
    187      -8.7133      2.00000
    188      -8.7114      2.00000
    189      -8.7091      2.00000
    190      -8.7048      2.00000
    191      -8.6972      2.00000
    192      -8.6893      2.00000
    193      -8.6884      2.00000
    194      -8.6765      2.00000
    195      -8.6745      2.00000
    196      -8.6708      2.00000
    197      -8.6677      2.00000
    198      -8.6569      2.00000
    199      -8.6567      2.00000
    200      -8.6511      2.00000
    201      -8.6471      2.00000
    202      -8.6461      2.00000
    203      -8.6426      2.00000
    204      -8.6378      2.00000
    205      -8.6360      2.00000
    206      -8.6327      2.00000
    207      -8.6310      2.00000
    208      -8.6283      2.00000
    209      -8.6226      2.00000
    210      -8.6127      2.00000
    211      -8.6089      2.00000
    212      -8.6083      2.00000
    213      -8.6073      2.00000
    214      -8.6034      2.00000
    215      -8.6003      2.00000
    216      -8.5998      2.00000
    217      -8.5955      2.00000
    218      -8.5943      2.00000
    219      -8.5871      2.00000
    220      -8.5865      2.00000
    221      -8.5855      2.00000
    222      -8.5838      2.00000
    223      -8.5803      2.00000
    224      -8.5719      2.00000
    225      -8.5649      2.00000
    226      -8.5614      2.00000
    227      -8.5612      2.00000
    228      -8.5552      2.00000
    229      -8.5526      2.00000
    230      -8.5516      2.00000
    231      -8.5495      2.00000
    232      -8.5488      2.00000
    233      -8.5436      2.00000
    234      -8.5398      2.00000
    235      -8.5347      2.00000
    236      -8.5345      2.00000
    237      -8.5287      2.00000
    238      -8.5279      2.00000
    239      -8.5272      2.00000
    240      -8.5257      2.00000
    241      -8.5215      2.00000
    242      -8.5212      2.00000
    243      -8.5195      2.00000
    244      -8.5158      2.00000
    245      -8.5122      2.00000
    246      -8.5106      2.00000
    247      -8.5077      2.00000
    248      -8.5072      2.00000
    249      -8.5047      2.00000
    250      -8.5028      2.00000
    251      -8.5024      2.00000
    252      -8.4994      2.00000
    253      -8.4985      2.00000
    254      -8.4927      2.00000
    255      -8.4912      2.00000
    256      -8.4873      2.00000
    257      -8.4872      2.00000
    258      -8.4855      2.00000
    259      -8.4824      2.00000
    260      -8.4787      2.00000
    261      -8.4779      2.00000
    262      -8.4768      2.00000
    263      -8.4758      2.00000
    264      -8.4748      2.00000
    265      -8.4585      2.00000
    266      -8.4487      2.00000
    267      -8.4482      2.00000
    268      -8.4453      2.00000
    269      -8.4433      2.00000
    270      -8.4432      2.00000
    271      -8.4329      2.00000
    272      -8.4232      2.00000
    273      -8.4095      2.00000
    274      -8.4015      2.00000
    275      -8.3560      2.00000
    276      -8.3452      2.00000
    277      -8.2982      2.00000
    278      -8.2864      2.00000
    279      -8.2774      2.00000
    280      -8.2683      2.00000
    281      -8.2677      2.00000
    282      -8.2585      2.00000
    283      -8.2568      2.00000
    284      -8.2465      2.00000
    285      -8.2454      2.00000
    286      -8.2247      2.00000
    287      -8.2217      2.00000
    288      -8.2145      2.00000
    289      -8.2051      2.00000
    290      -8.2018      2.00000
    291      -8.0351      2.00000
    292      -8.0182      2.00000
    293      -8.0133      2.00000
    294      -8.0094      2.00000
    295      -8.0006      2.00000
    296      -7.9867      2.00000
    297      -7.9713      2.00000
    298      -7.9696      2.00000
    299      -7.9629      2.00000
    300      -7.9545      2.00000
    301      -7.9532      2.00000
    302      -7.9297      2.00000
    303      -7.8956      2.00000
    304      -7.8790      2.00000
    305      -7.8773      2.00000
    306      -7.8682      2.00000
    307      -7.8637      2.00000
    308      -7.8232      2.00000
    309      -7.8052      2.00000
    310      -7.8029      2.00000
    311      -7.6875      2.00000
    312      -7.4081      2.00000
    313      -3.1787      2.00000
    314      -3.1673      2.00000
    315      -2.9158      2.00000
    316      -2.9143      2.00000
    317      -2.5749      2.00000
    318      -2.5696      2.00000
    319      -2.5634      2.00000
    320      -2.5518      2.00000
    321      -2.4703      2.00000
    322      -2.4663      2.00000
    323      -2.3572      2.00000
    324      -2.3385      2.00000
    325      -2.3301      2.00000
    326      -2.3214      2.00000
    327      -2.3121      2.00000
    328      -2.2962      2.00000
    329      -2.2908      2.00000
    330      -2.2648      2.00000
    331      -2.1111      2.00000
    332      -2.0812      2.00000
    333      -1.9865      2.00000
    334      -1.9771      2.00000
    335      -1.9043      2.00000
    336      -1.9042      2.00000
    337      -1.8850      2.00000
    338      -1.8682      2.00000
    339      -1.8581      2.00000
    340      -1.7852      2.00000
    341      -1.7789      2.00000
    342      -1.6574      2.00000
    343      -1.6433      2.00000
    344      -1.6096      2.00000
    345      -1.5878      2.00000
    346      -1.5797      2.00000
    347      -1.3790      2.00000
    348      -1.3754      2.00000
    349      -1.3742      2.00000
    350      -1.3389      2.00000
    351      -1.3251      2.00000
    352      -1.2945      2.00000
    353      -1.2924      2.00000
    354      -1.2534      2.00000
    355      -1.0190      2.00000
    356      -0.9807      2.00000
    357      -0.8645      2.00000
    358      -0.8567      2.00000
    359      -0.8459      2.00000
    360      -0.6393      2.00000
    361      -0.6228      2.00000
    362      -0.5585      2.00000
    363      -0.5424      2.00000
    364      -0.5319      2.00000
    365      -0.5287      2.00000
    366      -0.5012      2.00000
    367      -0.4953      2.00000
    368      -0.4524      2.00000
    369      -0.4316      2.00000
    370      -0.4050      2.00000
    371      -0.3432      2.00000
    372      -0.3161      2.00000
    373      -0.1793      2.00000
    374      -0.1760      2.00000
    375      -0.1047      2.00000
    376      -0.1025      2.00000
    377      -0.0453      2.00000
    378      -0.0403      2.00000
    379       0.0042      2.00000
    380       0.0086      2.00000
    381       0.1157      2.00000
    382       0.1215      2.00000
    383       0.1330      2.00000
    384       0.1430      2.00000
    385       0.1536      2.00000
    386       0.2231      2.00000
    387       0.2268      2.00000
    388       0.2370      2.00000
    389       0.3333      2.00000
    390       0.3382      2.00000
    391       0.3677      2.00000
    392       0.3774      2.00000
    393       0.5371      2.00000
    394       0.5454      2.00000
    395       0.5831      2.00000
    396       0.5926      2.00000
    397       0.5999      2.00000
    398       0.6479      2.00000
    399       0.6561      2.00000
    400       0.7986      2.00000
    401       0.8013      2.00000
    402       0.8184      2.00000
    403       0.8247      2.00000
    404       0.8629      2.00000
    405       0.9318      2.00000
    406       0.9370      2.00000
    407       1.0143      2.00000
    408       1.0676      2.00000
    409       1.0881      2.00000
    410       1.1135      2.00000
    411       1.1298      2.00000
    412       1.1342      2.00000
    413       1.1386      2.00000
    414       1.1398      2.00000
    415       1.1593      2.00000
    416       1.1818      2.00000
    417       1.2442      2.00000
    418       1.2596      2.00000
    419       1.2751      2.00000
    420       1.3084      2.00000
    421       1.3257      2.00000
    422       1.3445      2.00000
    423       1.3540      2.00000
    424       1.3946      2.00000
    425       1.4111      2.00000
    426       1.4270      2.00000
    427       1.4539      2.00000
    428       1.4577      2.00000
    429       1.4599      2.00000
    430       1.4633      2.00000
    431       1.4695      2.00000
    432       1.5155      2.00000
    433       1.5460      2.00000
    434       1.5729      2.00000
    435       1.5771      2.00000
    436       1.6007      2.00000
    437       1.6207      2.00000
    438       1.6214      2.00000
    439       1.6457      2.00000
    440       1.7269      2.00000
    441       1.7427      2.00000
    442       1.7489      2.00000
    443       1.7554      2.00000
    444       1.7834      2.00000
    445       1.8014      2.00000
    446       1.8033      2.00000
    447       1.8430      2.00000
    448       1.9309      2.00000
    449       2.0203      2.00000
    450       2.0359      2.00000
    451       2.0554      2.00000
    452       2.1887      2.00000
    453       2.2229      2.00000
    454       2.2318      2.00000
    455       2.2404      2.00000
    456       2.2461      2.00000
    457       2.2473      2.00000
    458       2.2916      2.00000
    459       2.3161      2.00000
    460       2.3174      2.00000
    461       2.3387      2.00000
    462       2.3830      2.00000
    463       2.3919      2.00000
    464       2.4433      2.00000
    465       2.4535      2.00000
    466       2.4738      2.00000
    467       2.4759      2.00000
    468       2.5172      2.00000
    469       2.5351      2.00000
    470       2.5416      2.00000
    471       2.5474      2.00000
    472       2.5492      2.00000
    473       2.5526      2.00000
    474       2.5635      2.00000
    475       2.5654      2.00000
    476       2.5771      2.00000
    477       2.5968      2.00000
    478       2.6082      2.00000
    479       2.6242      2.00000
    480       2.6779      2.00000
    481       2.7764      2.00000
    482       2.8024      2.00000
    483       2.8243      2.00000
    484       2.8435      2.00000
    485       2.8454      2.00000
    486       2.8574      2.00000
    487       2.8721      2.00000
    488       2.8821      2.00000
    489       2.9078      2.00000
    490       2.9094      2.00000
    491       2.9179      2.00000
    492       2.9515      2.00000
    493       2.9756      2.00000
    494       2.9763      2.00000
    495       3.0002      2.00000
    496       3.0270      2.00000
    497       3.0372      2.00000
    498       3.0511      2.00000
    499       3.0704      2.00000
    500       3.0779      2.00000
    501       3.1064      2.00000
    502       3.1162      2.00000
    503       3.1469      2.00000
    504       3.1568      2.00000
    505       3.1580      2.00000
    506       3.1600      2.00000
    507       3.1656      2.00000
    508       3.1714      2.00000
    509       3.1889      2.00000
    510       3.2103      2.00000
    511       3.2147      2.00000
    512       3.2323      2.00000
    513       3.2551      2.00000
    514       3.3000      2.00000
    515       3.3160      2.00000
    516       3.3379      2.00000
    517       3.3403      2.00000
    518       3.3755      2.00000
    519       3.4068      2.00000
    520       3.4605      1.99967
    521       3.4661      1.99940
    522       3.4973      1.98921
    523       3.5299      1.89600
    524       3.5435      1.78597
    525       3.5515      1.69018
    526       3.5840      1.07645
    527       3.6312      0.21486
    528       3.7172      0.00024
    529       6.1190      0.00000
    530       8.2733      0.00000
    531       8.4557      0.00000
    532       8.5032      0.00000
    533       8.5842      0.00000
    534       8.8569      0.00000
    535       8.9857      0.00000
    536       9.3683      0.00000
    537       9.3947      0.00000
    538       9.4230      0.00000
    539       9.5436      0.00000
    540       9.5657      0.00000
    541       9.5964      0.00000
    542       9.6719      0.00000
    543       9.7237      0.00000
    544       9.8782      0.00000
    545       9.9248      0.00000
    546       9.9397      0.00000
    547       9.9422      0.00000
    548       9.9520      0.00000
    549       9.9622      0.00000
    550       9.9885      0.00000
    551      10.0553      0.00000
    552      10.0651      0.00000
    553      10.1994      0.00000
    554      10.2294      0.00000
    555      10.4053      0.00000
    556      10.4203      0.00000
    557      10.4360      0.00000
    558      10.4467      0.00000
    559      10.4659      0.00000
    560      10.5210      0.00000
    561      10.5246      0.00000
    562      10.6707      0.00000
    563      10.7184      0.00000
    564      10.8705      0.00000
    565      10.8987      0.00000
    566      11.1107      0.00000
    567      11.1303      0.00000
    568      11.1747      0.00000
    569      11.2124      0.00000
    570      11.2624      0.00000
    571      11.2866      0.00000
    572      11.2934      0.00000
    573      11.3136      0.00000
    574      11.3561      0.00000
    575      11.5319      0.00000
    576      11.5790      0.00000
    577      11.6724      0.00000
    578      11.7670      0.00000
    579      11.8439      0.00000
    580      11.8720      0.00000
    581      11.9246      0.00000
    582      11.9663      0.00000
    583      12.0868      0.00000
    584      12.4063      0.00000
    585      12.4145      0.00000
    586      12.5002      0.00000
    587      12.5063      0.00000
    588      12.5242      0.00000
    589      12.6490      0.00000
    590      12.6500      0.00000
    591      12.7262      0.00000
    592      12.7287      0.00000
    593      12.8346      0.00000
    594      12.8619      0.00000
    595      12.9069      0.00000
    596      12.9239      0.00000
    597      12.9947      0.00000
    598      13.0654      0.00000
    599      13.0738      0.00000
    600      13.0857      0.00000
    601      13.1324      0.00000
    602      13.1429      0.00000
    603      13.1472      0.00000
    604      13.2035      0.00000
    605      13.2676      0.00000
    606      13.2714      0.00000
    607      13.3009      0.00000
    608      13.3746      0.00000
    609      13.3764      0.00000
    610      13.4108      0.00000
    611      13.5155      0.00000
    612      13.5893      0.00000
    613      13.6738      0.00000
    614      13.6845      0.00000
    615      13.6970      0.00000
    616      13.7122      0.00000
    617      13.7187      0.00000
    618      13.7212      0.00000
    619      13.7731      0.00000
    620      13.8379      0.00000
    621      13.8684      0.00000
    622      13.9312      0.00000
    623      13.9503      0.00000
    624      14.0596      0.00000
    625      14.1393      0.00000
    626      14.1434      0.00000
    627      14.5322      0.00000
    628      14.5578      0.00000
    629      14.6409      0.00000
    630      14.7539      0.00000

 k-point     2 :       0.5000    0.0000    0.0000
  band No.  band energies     occupation 
      1     -14.9881      2.00000
      2     -14.9777      2.00000
      3     -14.7607      2.00000
      4     -14.7349      2.00000
      5     -14.3905      2.00000
      6     -14.3882      2.00000
      7     -14.3853      2.00000
      8     -14.3586      2.00000
      9     -14.3561      2.00000
     10     -14.3498      2.00000
     11     -14.2866      2.00000
     12     -14.2684      2.00000
     13     -14.2152      2.00000
     14     -14.2005      2.00000
     15     -14.1862      2.00000
     16     -14.1787      2.00000
     17     -14.1250      2.00000
     18     -14.1067      2.00000
     19     -14.0449      2.00000
     20     -14.0414      2.00000
     21     -14.0274      2.00000
     22     -14.0260      2.00000
     23     -14.0105      2.00000
     24     -14.0058      2.00000
     25     -13.9475      2.00000
     26     -13.9333      2.00000
     27     -13.9244      2.00000
     28     -13.9184      2.00000
     29     -13.8465      2.00000
     30     -13.8134      2.00000
     31     -13.8002      2.00000
     32     -13.8000      2.00000
     33     -13.7940      2.00000
     34     -13.7929      2.00000
     35     -13.7847      2.00000
     36     -13.7822      2.00000
     37     -13.7365      2.00000
     38     -13.7021      2.00000
     39     -13.6349      2.00000
     40     -13.6060      2.00000
     41     -13.5999      2.00000
     42     -13.5664      2.00000
     43     -13.5586      2.00000
     44     -13.5495      2.00000
     45     -13.5380      2.00000
     46     -13.5339      2.00000
     47     -13.5171      2.00000
     48     -13.5139      2.00000
     49     -13.5080      2.00000
     50     -13.4967      2.00000
     51     -13.4654      2.00000
     52     -13.4619      2.00000
     53     -13.4601      2.00000
     54     -13.4456      2.00000
     55     -13.4240      2.00000
     56     -13.4222      2.00000
     57     -13.3788      2.00000
     58     -13.3769      2.00000
     59     -13.3562      2.00000
     60     -13.3559      2.00000
     61     -13.3515      2.00000
     62     -13.3495      2.00000
     63     -13.3452      2.00000
     64     -13.3439      2.00000
     65     -13.3411      2.00000
     66     -13.3397      2.00000
     67     -13.3395      2.00000
     68     -13.3244      2.00000
     69     -13.3225      2.00000
     70     -13.2960      2.00000
     71     -13.2619      2.00000
     72     -10.5073      2.00000
     73      -9.0939      2.00000
     74      -9.0907      2.00000
     75      -9.0827      2.00000
     76      -9.0820      2.00000
     77      -9.0722      2.00000
     78      -9.0365      2.00000
     79      -9.0327      2.00000
     80      -9.0312      2.00000
     81      -9.0292      2.00000
     82      -9.0279      2.00000
     83      -9.0258      2.00000
     84      -9.0217      2.00000
     85      -9.0208      2.00000
     86      -9.0145      2.00000
     87      -9.0030      2.00000
     88      -8.9940      2.00000
     89      -8.9907      2.00000
     90      -8.9807      2.00000
     91      -8.9797      2.00000
     92      -8.9749      2.00000
     93      -8.9728      2.00000
     94      -8.9659      2.00000
     95      -8.9625      2.00000
     96      -8.9581      2.00000
     97      -8.9559      2.00000
     98      -8.9511      2.00000
     99      -8.9435      2.00000
    100      -8.9399      2.00000
    101      -8.9385      2.00000
    102      -8.9373      2.00000
    103      -8.9334      2.00000
    104      -8.9327      2.00000
    105      -8.9300      2.00000
    106      -8.9246      2.00000
    107      -8.9234      2.00000
    108      -8.9210      2.00000
    109      -8.9176      2.00000
    110      -8.9096      2.00000
    111      -8.9068      2.00000
    112      -8.9052      2.00000
    113      -8.9023      2.00000
    114      -8.9022      2.00000
    115      -8.8968      2.00000
    116      -8.8919      2.00000
    117      -8.8883      2.00000
    118      -8.8871      2.00000
    119      -8.8863      2.00000
    120      -8.8838      2.00000
    121      -8.8829      2.00000
    122      -8.8800      2.00000
    123      -8.8756      2.00000
    124      -8.8694      2.00000
    125      -8.8687      2.00000
    126      -8.8658      2.00000
    127      -8.8620      2.00000
    128      -8.8583      2.00000
    129      -8.8575      2.00000
    130      -8.8528      2.00000
    131      -8.8496      2.00000
    132      -8.8464      2.00000
    133      -8.8455      2.00000
    134      -8.8449      2.00000
    135      -8.8421      2.00000
    136      -8.8398      2.00000
    137      -8.8336      2.00000
    138      -8.8317      2.00000
    139      -8.8267      2.00000
    140      -8.8243      2.00000
    141      -8.8231      2.00000
    142      -8.8224      2.00000
    143      -8.8205      2.00000
    144      -8.8175      2.00000
    145      -8.8150      2.00000
    146      -8.8146      2.00000
    147      -8.8134      2.00000
    148      -8.8119      2.00000
    149      -8.8102      2.00000
    150      -8.8083      2.00000
    151      -8.8080      2.00000
    152      -8.8043      2.00000
    153      -8.8036      2.00000
    154      -8.8009      2.00000
    155      -8.7993      2.00000
    156      -8.7974      2.00000
    157      -8.7965      2.00000
    158      -8.7957      2.00000
    159      -8.7936      2.00000
    160      -8.7919      2.00000
    161      -8.7897      2.00000
    162      -8.7890      2.00000
    163      -8.7865      2.00000
    164      -8.7837      2.00000
    165      -8.7810      2.00000
    166      -8.7797      2.00000
    167      -8.7752      2.00000
    168      -8.7724      2.00000
    169      -8.7700      2.00000
    170      -8.7630      2.00000
    171      -8.7602      2.00000
    172      -8.7537      2.00000
    173      -8.7526      2.00000
    174      -8.7499      2.00000
    175      -8.7497      2.00000
    176      -8.7465      2.00000
    177      -8.7434      2.00000
    178      -8.7432      2.00000
    179      -8.7367      2.00000
    180      -8.7272      2.00000
    181      -8.7212      2.00000
    182      -8.7203      2.00000
    183      -8.7193      2.00000
    184      -8.7176      2.00000
    185      -8.7165      2.00000
    186      -8.7147      2.00000
    187      -8.7106      2.00000
    188      -8.7095      2.00000
    189      -8.7069      2.00000
    190      -8.7041      2.00000
    191      -8.7037      2.00000
    192      -8.7003      2.00000
    193      -8.6975      2.00000
    194      -8.6946      2.00000
    195      -8.6938      2.00000
    196      -8.6845      2.00000
    197      -8.6839      2.00000
    198      -8.6747      2.00000
    199      -8.6603      2.00000
    200      -8.6573      2.00000
    201      -8.6540      2.00000
    202      -8.6532      2.00000
    203      -8.6509      2.00000
    204      -8.6416      2.00000
    205      -8.6353      2.00000
    206      -8.6353      2.00000
    207      -8.6322      2.00000
    208      -8.6298      2.00000
    209      -8.6189      2.00000
    210      -8.6172      2.00000
    211      -8.6134      2.00000
    212      -8.6122      2.00000
    213      -8.6086      2.00000
    214      -8.6068      2.00000
    215      -8.6016      2.00000
    216      -8.5969      2.00000
    217      -8.5955      2.00000
    218      -8.5946      2.00000
    219      -8.5878      2.00000
    220      -8.5863      2.00000
    221      -8.5816      2.00000
    222      -8.5799      2.00000
    223      -8.5741      2.00000
    224      -8.5650      2.00000
    225      -8.5644      2.00000
    226      -8.5629      2.00000
    227      -8.5594      2.00000
    228      -8.5537      2.00000
    229      -8.5529      2.00000
    230      -8.5477      2.00000
    231      -8.5465      2.00000
    232      -8.5454      2.00000
    233      -8.5429      2.00000
    234      -8.5409      2.00000
    235      -8.5379      2.00000
    236      -8.5360      2.00000
    237      -8.5318      2.00000
    238      -8.5272      2.00000
    239      -8.5245      2.00000
    240      -8.5222      2.00000
    241      -8.5215      2.00000
    242      -8.5202      2.00000
    243      -8.5188      2.00000
    244      -8.5162      2.00000
    245      -8.5157      2.00000
    246      -8.5116      2.00000
    247      -8.5092      2.00000
    248      -8.5081      2.00000
    249      -8.5054      2.00000
    250      -8.5030      2.00000
    251      -8.5026      2.00000
    252      -8.4994      2.00000
    253      -8.4993      2.00000
    254      -8.4938      2.00000
    255      -8.4903      2.00000
    256      -8.4859      2.00000
    257      -8.4845      2.00000
    258      -8.4840      2.00000
    259      -8.4834      2.00000
    260      -8.4793      2.00000
    261      -8.4782      2.00000
    262      -8.4750      2.00000
    263      -8.4728      2.00000
    264      -8.4693      2.00000
    265      -8.4684      2.00000
    266      -8.4662      2.00000
    267      -8.4649      2.00000
    268      -8.4503      2.00000
    269      -8.4467      2.00000
    270      -8.4442      2.00000
    271      -8.4395      2.00000
    272      -8.4339      2.00000
    273      -8.4306      2.00000
    274      -8.4267      2.00000
    275      -8.4227      2.00000
    276      -8.4198      2.00000
    277      -8.3879      2.00000
    278      -8.3786      2.00000
    279      -8.2544      2.00000
    280      -8.2435      2.00000
    281      -8.2396      2.00000
    282      -8.2349      2.00000
    283      -8.2321      2.00000
    284      -8.2204      2.00000
    285      -8.2068      2.00000
    286      -8.1930      2.00000
    287      -8.1585      2.00000
    288      -8.1475      2.00000
    289      -8.0948      2.00000
    290      -8.0744      2.00000
    291      -8.0698      2.00000
    292      -8.0638      2.00000
    293      -8.0055      2.00000
    294      -7.9957      2.00000
    295      -7.9950      2.00000
    296      -7.9821      2.00000
    297      -7.9719      2.00000
    298      -7.9709      2.00000
    299      -7.9667      2.00000
    300      -7.9604      2.00000
    301      -7.8898      2.00000
    302      -7.8872      2.00000
    303      -7.8758      2.00000
    304      -7.8691      2.00000
    305      -7.8671      2.00000
    306      -7.8587      2.00000
    307      -7.8560      2.00000
    308      -7.8526      2.00000
    309      -7.8472      2.00000
    310      -7.8446      2.00000
    311      -7.8444      2.00000
    312      -7.4138      2.00000
    313      -3.1725      2.00000
    314      -3.1615      2.00000
    315      -2.7938      2.00000
    316      -2.7846      2.00000
    317      -2.7766      2.00000
    318      -2.7730      2.00000
    319      -2.4031      2.00000
    320      -2.3963      2.00000
    321      -2.3831      2.00000
    322      -2.3750      2.00000
    323      -2.3100      2.00000
    324      -2.2993      2.00000
    325      -2.2961      2.00000
    326      -2.2883      2.00000
    327      -2.2515      2.00000
    328      -2.2360      2.00000
    329      -2.2332      2.00000
    330      -2.2265      2.00000
    331      -2.2211      2.00000
    332      -2.2194      2.00000
    333      -2.1957      2.00000
    334      -2.1759      2.00000
    335      -2.1530      2.00000
    336      -2.1344      2.00000
    337      -2.1342      2.00000
    338      -2.1099      2.00000
    339      -1.7738      2.00000
    340      -1.7710      2.00000
    341      -1.5954      2.00000
    342      -1.5936      2.00000
    343      -1.5863      2.00000
    344      -1.5746      2.00000
    345      -1.3839      2.00000
    346      -1.3761      2.00000
    347      -1.3755      2.00000
    348      -1.3619      2.00000
    349      -1.2536      2.00000
    350      -1.2349      2.00000
    351      -1.2144      2.00000
    352      -1.2101      2.00000
    353      -1.2049      2.00000
    354      -1.2035      2.00000
    355      -1.1453      2.00000
    356      -1.1299      2.00000
    357      -0.8425      2.00000
    358      -0.8371      2.00000
    359      -0.8223      2.00000
    360      -0.8161      2.00000
    361      -0.7905      2.00000
    362      -0.7709      2.00000
    363      -0.6261      2.00000
    364      -0.6155      2.00000
    365      -0.6101      2.00000
    366      -0.5942      2.00000
    367      -0.3834      2.00000
    368      -0.3617      2.00000
    369      -0.3586      2.00000
    370      -0.3463      2.00000
    371      -0.2789      2.00000
    372      -0.2623      2.00000
    373      -0.2325      2.00000
    374      -0.2276      2.00000
    375      -0.0311      2.00000
    376      -0.0213      2.00000
    377       0.0771      2.00000
    378       0.0940      2.00000
    379       0.1017      2.00000
    380       0.1038      2.00000
    381       0.1237      2.00000
    382       0.1367      2.00000
    383       0.1380      2.00000
    384       0.1453      2.00000
    385       0.3231      2.00000
    386       0.3461      2.00000
    387       0.3498      2.00000
    388       0.3511      2.00000
    389       0.3523      2.00000
    390       0.3570      2.00000
    391       0.3661      2.00000
    392       0.3684      2.00000
    393       0.5140      2.00000
    394       0.5326      2.00000
    395       0.5462      2.00000
    396       0.5542      2.00000
    397       0.6843      2.00000
    398       0.6884      2.00000
    399       0.7044      2.00000
    400       0.7094      2.00000
    401       0.7581      2.00000
    402       0.7858      2.00000
    403       0.7880      2.00000
    404       0.7947      2.00000
    405       0.8252      2.00000
    406       0.8352      2.00000
    407       0.8464      2.00000
    408       0.8873      2.00000
    409       1.0119      2.00000
    410       1.0121      2.00000
    411       1.0200      2.00000
    412       1.0245      2.00000
    413       1.0294      2.00000
    414       1.0315      2.00000
    415       1.0366      2.00000
    416       1.0635      2.00000
    417       1.1524      2.00000
    418       1.1718      2.00000
    419       1.1794      2.00000
    420       1.1905      2.00000
    421       1.1958      2.00000
    422       1.2006      2.00000
    423       1.4063      2.00000
    424       1.4096      2.00000
    425       1.4499      2.00000
    426       1.4544      2.00000
    427       1.4627      2.00000
    428       1.4697      2.00000
    429       1.4752      2.00000
    430       1.4779      2.00000
    431       1.4892      2.00000
    432       1.5315      2.00000
    433       1.6267      2.00000
    434       1.6490      2.00000
    435       1.6528      2.00000
    436       1.6761      2.00000
    437       1.7499      2.00000
    438       1.7707      2.00000
    439       1.7735      2.00000
    440       1.7797      2.00000
    441       1.7888      2.00000
    442       1.7969      2.00000
    443       1.7982      2.00000
    444       1.8098      2.00000
    445       1.8161      2.00000
    446       1.8168      2.00000
    447       1.8212      2.00000
    448       1.8405      2.00000
    449       1.8486      2.00000
    450       1.8702      2.00000
    451       2.2529      2.00000
    452       2.2667      2.00000
    453       2.2681      2.00000
    454       2.2889      2.00000
    455       2.2960      2.00000
    456       2.3021      2.00000
    457       2.3336      2.00000
    458       2.3590      2.00000
    459       2.3638      2.00000
    460       2.3755      2.00000
    461       2.3825      2.00000
    462       2.4069      2.00000
    463       2.4430      2.00000
    464       2.4626      2.00000
    465       2.4635      2.00000
    466       2.4655      2.00000
    467       2.4708      2.00000
    468       2.4745      2.00000
    469       2.4923      2.00000
    470       2.5162      2.00000
    471       2.6150      2.00000
    472       2.6304      2.00000
    473       2.6314      2.00000
    474       2.6459      2.00000
    475       2.6472      2.00000
    476       2.6724      2.00000
    477       2.6909      2.00000
    478       2.6969      2.00000
    479       2.7331      2.00000
    480       2.7439      2.00000
    481       2.8243      2.00000
    482       2.8305      2.00000
    483       2.8363      2.00000
    484       2.8453      2.00000
    485       2.8477      2.00000
    486       2.8638      2.00000
    487       2.8644      2.00000
    488       2.8731      2.00000
    489       2.8773      2.00000
    490       2.9056      2.00000
    491       2.9507      2.00000
    492       2.9599      2.00000
    493       2.9657      2.00000
    494       2.9921      2.00000
    495       2.9945      2.00000
    496       2.9957      2.00000
    497       3.0036      2.00000
    498       3.0094      2.00000
    499       3.0122      2.00000
    500       3.0161      2.00000
    501       3.0310      2.00000
    502       3.0584      2.00000
    503       3.0618      2.00000
    504       3.0996      2.00000
    505       3.1107      2.00000
    506       3.1168      2.00000
    507       3.1281      2.00000
    508       3.1312      2.00000
    509       3.1372      2.00000
    510       3.1499      2.00000
    511       3.1593      2.00000
    512       3.1678      2.00000
    513       3.1750      2.00000
    514       3.2321      2.00000
    515       3.2349      2.00000
    516       3.2823      2.00000
    517       3.3210      2.00000
    518       3.3219      2.00000
    519       3.4491      1.99991
    520       3.4606      1.99967
    521       3.5015      1.98486
    522       3.5394      1.82573
    523       3.5447      1.77319
    524       3.5488      1.72558
    525       3.5508      1.69905
    526       3.5633      1.50429
    527       3.5770      1.23092
    528       3.6789      0.00967
    529       6.9525      0.00000
    530       6.9785      0.00000
    531       8.5150      0.00000
    532       8.5277      0.00000
    533       8.9165      0.00000
    534       8.9307      0.00000
    535       9.2068      0.00000
    536       9.2303      0.00000
    537       9.4053      0.00000
    538       9.4267      0.00000
    539       9.4336      0.00000
    540       9.4787      0.00000
    541       9.7687      0.00000
    542       9.8001      0.00000
    543       9.8120      0.00000
    544       9.8414      0.00000
    545       9.9632      0.00000
    546       9.9716      0.00000
    547       9.9810      0.00000
    548       9.9914      0.00000
    549       9.9932      0.00000
    550      10.0037      0.00000
    551      10.0127      0.00000
    552      10.0380      0.00000
    553      10.2584      0.00000
    554      10.2801      0.00000
    555      10.2905      0.00000
    556      10.3208      0.00000
    557      10.3460      0.00000
    558      10.3779      0.00000
    559      10.4133      0.00000
    560      10.4447      0.00000
    561      10.4562      0.00000
    562      10.4716      0.00000
    563      10.6458      0.00000
    564      10.6732      0.00000
    565      11.2702      0.00000
    566      11.2913      0.00000
    567      11.3803      0.00000
    568      11.4022      0.00000
    569      11.4076      0.00000
    570      11.4263      0.00000
    571      11.4407      0.00000
    572      11.4520      0.00000
    573      11.4599      0.00000
    574      11.4670      0.00000
    575      11.5237      0.00000
    576      11.5434      0.00000
    577      11.6442      0.00000
    578      11.6484      0.00000
    579      11.6643      0.00000
    580      11.6692      0.00000
    581      11.6729      0.00000
    582      11.7353      0.00000
    583      12.1963      0.00000
    584      12.2023      0.00000
    585      12.5723      0.00000
    586      12.5881      0.00000
    587      12.6131      0.00000
    588      12.6314      0.00000
    589      12.7000      0.00000
    590      12.7043      0.00000
    591      12.7279      0.00000
    592      12.7506      0.00000
    593      12.7752      0.00000
    594      12.7768      0.00000
    595      12.7812      0.00000
    596      12.7934      0.00000
    597      12.9144      0.00000
    598      12.9261      0.00000
    599      12.9347      0.00000
    600      12.9493      0.00000
    601      12.9700      0.00000
    602      12.9882      0.00000
    603      13.1745      0.00000
    604      13.1846      0.00000
    605      13.1928      0.00000
    606      13.2012      0.00000
    607      13.2586      0.00000
    608      13.2719      0.00000
    609      13.2805      0.00000
    610      13.2968      0.00000
    611      13.5232      0.00000
    612      13.5300      0.00000
    613      13.5572      0.00000
    614      13.5673      0.00000
    615      13.8368      0.00000
    616      13.8371      0.00000
    617      13.8619      0.00000
    618      13.8634      0.00000
    619      13.9064      0.00000
    620      13.9081      0.00000
    621      13.9552      0.00000
    622      13.9552      0.00000
    623      13.9673      0.00000
    624      13.9969      0.00000
    625      14.4923      0.00000
    626      14.5117      0.00000
    627      14.5253      0.00000
    628      14.5692      0.00000
    629      14.7485      0.00000
    630      14.7738      0.00000

 k-point     3 :       0.0000    0.5000    0.0000
  band No.  band energies     occupation 
      1     -14.9060      2.00000
      2     -14.8999      2.00000
      3     -14.6476      2.00000
      4     -14.6245      2.00000
      5     -14.5547      2.00000
      6     -14.5306      2.00000
      7     -14.5118      2.00000
      8     -14.5094      2.00000
      9     -14.4912      2.00000
     10     -14.4897      2.00000
     11     -14.3225      2.00000
     12     -14.3213      2.00000
     13     -14.2652      2.00000
     14     -14.2432      2.00000
     15     -14.0863      2.00000
     16     -14.0787      2.00000
     17     -14.0548      2.00000
     18     -14.0481      2.00000
     19     -13.9988      2.00000
     20     -13.9914      2.00000
     21     -13.9524      2.00000
     22     -13.9472      2.00000
     23     -13.9315      2.00000
     24     -13.9294      2.00000
     25     -13.9182      2.00000
     26     -13.9179      2.00000
     27     -13.9082      2.00000
     28     -13.9039      2.00000
     29     -13.8921      2.00000
     30     -13.8883      2.00000
     31     -13.7957      2.00000
     32     -13.7928      2.00000
     33     -13.7616      2.00000
     34     -13.7464      2.00000
     35     -13.7363      2.00000
     36     -13.7074      2.00000
     37     -13.6908      2.00000
     38     -13.6830      2.00000
     39     -13.6529      2.00000
     40     -13.6467      2.00000
     41     -13.6372      2.00000
     42     -13.6314      2.00000
     43     -13.6088      2.00000
     44     -13.5884      2.00000
     45     -13.5787      2.00000
     46     -13.5781      2.00000
     47     -13.5267      2.00000
     48     -13.5200      2.00000
     49     -13.4993      2.00000
     50     -13.4992      2.00000
     51     -13.4713      2.00000
     52     -13.4505      2.00000
     53     -13.4395      2.00000
     54     -13.4236      2.00000
     55     -13.4183      2.00000
     56     -13.4125      2.00000
     57     -13.4034      2.00000
     58     -13.4008      2.00000
     59     -13.3574      2.00000
     60     -13.3530      2.00000
     61     -13.3512      2.00000
     62     -13.3477      2.00000
     63     -13.3460      2.00000
     64     -13.3432      2.00000
     65     -13.3397      2.00000
     66     -13.3371      2.00000
     67     -13.3248      2.00000
     68     -13.3243      2.00000
     69     -13.3150      2.00000
     70     -13.2780      2.00000
     71     -13.2779      2.00000
     72     -10.5054      2.00000
     73      -9.0860      2.00000
     74      -9.0849      2.00000
     75      -9.0834      2.00000
     76      -9.0673      2.00000
     77      -9.0649      2.00000
     78      -9.0548      2.00000
     79      -9.0313      2.00000
     80      -9.0280      2.00000
     81      -9.0215      2.00000
     82      -9.0189      2.00000
     83      -9.0128      2.00000
     84      -9.0124      2.00000
     85      -9.0119      2.00000
     86      -9.0073      2.00000
     87      -9.0063      2.00000
     88      -9.0026      2.00000
     89      -8.9988      2.00000
     90      -8.9974      2.00000
     91      -8.9837      2.00000
     92      -8.9805      2.00000
     93      -8.9759      2.00000
     94      -8.9721      2.00000
     95      -8.9685      2.00000
     96      -8.9682      2.00000
     97      -8.9576      2.00000
     98      -8.9551      2.00000
     99      -8.9533      2.00000
    100      -8.9485      2.00000
    101      -8.9447      2.00000
    102      -8.9445      2.00000
    103      -8.9369      2.00000
    104      -8.9364      2.00000
    105      -8.9335      2.00000
    106      -8.9332      2.00000
    107      -8.9278      2.00000
    108      -8.9256      2.00000
    109      -8.9242      2.00000
    110      -8.9220      2.00000
    111      -8.9183      2.00000
    112      -8.9167      2.00000
    113      -8.9117      2.00000
    114      -8.9094      2.00000
    115      -8.9072      2.00000
    116      -8.9050      2.00000
    117      -8.9042      2.00000
    118      -8.8995      2.00000
    119      -8.8958      2.00000
    120      -8.8956      2.00000
    121      -8.8944      2.00000
    122      -8.8929      2.00000
    123      -8.8902      2.00000
    124      -8.8866      2.00000
    125      -8.8842      2.00000
    126      -8.8837      2.00000
    127      -8.8801      2.00000
    128      -8.8779      2.00000
    129      -8.8731      2.00000
    130      -8.8640      2.00000
    131      -8.8636      2.00000
    132      -8.8608      2.00000
    133      -8.8603      2.00000
    134      -8.8582      2.00000
    135      -8.8562      2.00000
    136      -8.8488      2.00000
    137      -8.8474      2.00000
    138      -8.8470      2.00000
    139      -8.8447      2.00000
    140      -8.8391      2.00000
    141      -8.8301      2.00000
    142      -8.8249      2.00000
    143      -8.8207      2.00000
    144      -8.8207      2.00000
    145      -8.8163      2.00000
    146      -8.8159      2.00000
    147      -8.8100      2.00000
    148      -8.8063      2.00000
    149      -8.8036      2.00000
    150      -8.8015      2.00000
    151      -8.8005      2.00000
    152      -8.7994      2.00000
    153      -8.7981      2.00000
    154      -8.7966      2.00000
    155      -8.7923      2.00000
    156      -8.7915      2.00000
    157      -8.7901      2.00000
    158      -8.7888      2.00000
    159      -8.7837      2.00000
    160      -8.7807      2.00000
    161      -8.7799      2.00000
    162      -8.7788      2.00000
    163      -8.7753      2.00000
    164      -8.7748      2.00000
    165      -8.7666      2.00000
    166      -8.7659      2.00000
    167      -8.7626      2.00000
    168      -8.7592      2.00000
    169      -8.7563      2.00000
    170      -8.7557      2.00000
    171      -8.7511      2.00000
    172      -8.7501      2.00000
    173      -8.7483      2.00000
    174      -8.7469      2.00000
    175      -8.7461      2.00000
    176      -8.7454      2.00000
    177      -8.7440      2.00000
    178      -8.7415      2.00000
    179      -8.7315      2.00000
    180      -8.7299      2.00000
    181      -8.7283      2.00000
    182      -8.7234      2.00000
    183      -8.7197      2.00000
    184      -8.7190      2.00000
    185      -8.7185      2.00000
    186      -8.7171      2.00000
    187      -8.7122      2.00000
    188      -8.7120      2.00000
    189      -8.6960      2.00000
    190      -8.6960      2.00000
    191      -8.6943      2.00000
    192      -8.6937      2.00000
    193      -8.6915      2.00000
    194      -8.6891      2.00000
    195      -8.6880      2.00000
    196      -8.6831      2.00000
    197      -8.6812      2.00000
    198      -8.6781      2.00000
    199      -8.6766      2.00000
    200      -8.6757      2.00000
    201      -8.6694      2.00000
    202      -8.6647      2.00000
    203      -8.6637      2.00000
    204      -8.6612      2.00000
    205      -8.6206      2.00000
    206      -8.6190      2.00000
    207      -8.6128      2.00000
    208      -8.6127      2.00000
    209      -8.6111      2.00000
    210      -8.6047      2.00000
    211      -8.6021      2.00000
    212      -8.6014      2.00000
    213      -8.6007      2.00000
    214      -8.5937      2.00000
    215      -8.5917      2.00000
    216      -8.5895      2.00000
    217      -8.5873      2.00000
    218      -8.5856      2.00000
    219      -8.5790      2.00000
    220      -8.5784      2.00000
    221      -8.5736      2.00000
    222      -8.5685      2.00000
    223      -8.5577      2.00000
    224      -8.5569      2.00000
    225      -8.5561      2.00000
    226      -8.5549      2.00000
    227      -8.5543      2.00000
    228      -8.5474      2.00000
    229      -8.5454      2.00000
    230      -8.5443      2.00000
    231      -8.5429      2.00000
    232      -8.5419      2.00000
    233      -8.5391      2.00000
    234      -8.5351      2.00000
    235      -8.5346      2.00000
    236      -8.5323      2.00000
    237      -8.5273      2.00000
    238      -8.5241      2.00000
    239      -8.5205      2.00000
    240      -8.5180      2.00000
    241      -8.5139      2.00000
    242      -8.5119      2.00000
    243      -8.5107      2.00000
    244      -8.5085      2.00000
    245      -8.5064      2.00000
    246      -8.5059      2.00000
    247      -8.5005      2.00000
    248      -8.5003      2.00000
    249      -8.4993      2.00000
    250      -8.4973      2.00000
    251      -8.4936      2.00000
    252      -8.4928      2.00000
    253      -8.4901      2.00000
    254      -8.4898      2.00000
    255      -8.4878      2.00000
    256      -8.4778      2.00000
    257      -8.4731      2.00000
    258      -8.4690      2.00000
    259      -8.4687      2.00000
    260      -8.4670      2.00000
    261      -8.4645      2.00000
    262      -8.4600      2.00000
    263      -8.4535      2.00000
    264      -8.4461      2.00000
    265      -8.4331      2.00000
    266      -8.4253      2.00000
    267      -8.4237      2.00000
    268      -8.4174      2.00000
    269      -8.4096      2.00000
    270      -8.4040      2.00000
    271      -8.3975      2.00000
    272      -8.3969      2.00000
    273      -8.3657      2.00000
    274      -8.3654      2.00000
    275      -8.3587      2.00000
    276      -8.3568      2.00000
    277      -8.3541      2.00000
    278      -8.3362      2.00000
    279      -8.3272      2.00000
    280      -8.3168      2.00000
    281      -8.2673      2.00000
    282      -8.2624      2.00000
    283      -8.2610      2.00000
    284      -8.2585      2.00000
    285      -8.2542      2.00000
    286      -8.2429      2.00000
    287      -8.2154      2.00000
    288      -8.2039      2.00000
    289      -8.1947      2.00000
    290      -8.1844      2.00000
    291      -8.1838      2.00000
    292      -8.1736      2.00000
    293      -8.1285      2.00000
    294      -8.1043      2.00000
    295      -8.1041      2.00000
    296      -8.0846      2.00000
    297      -7.9781      2.00000
    298      -7.9671      2.00000
    299      -7.9634      2.00000
    300      -7.9337      2.00000
    301      -7.9153      2.00000
    302      -7.9143      2.00000
    303      -7.9057      2.00000
    304      -7.8431      2.00000
    305      -7.8275      2.00000
    306      -7.8242      2.00000
    307      -7.7948      2.00000
    308      -7.7538      2.00000
    309      -7.7428      2.00000
    310      -7.7382      2.00000
    311      -7.7280      2.00000
    312      -7.3815      2.00000
    313      -3.0519      2.00000
    314      -3.0367      2.00000
    315      -2.9936      2.00000
    316      -2.9892      2.00000
    317      -2.8717      2.00000
    318      -2.8690      2.00000
    319      -2.7983      2.00000
    320      -2.7890      2.00000
    321      -2.6011      2.00000
    322      -2.5906      2.00000
    323      -2.5796      2.00000
    324      -2.5626      2.00000
    325      -2.2916      2.00000
    326      -2.2872      2.00000
    327      -2.2825      2.00000
    328      -2.2786      2.00000
    329      -2.2437      2.00000
    330      -2.2395      2.00000
    331      -2.0923      2.00000
    332      -2.0891      2.00000
    333      -2.0626      2.00000
    334      -2.0543      2.00000
    335      -2.0444      2.00000
    336      -2.0370      2.00000
    337      -2.0192      2.00000
    338      -2.0114      2.00000
    339      -1.7458      2.00000
    340      -1.7367      2.00000
    341      -1.7319      2.00000
    342      -1.7195      2.00000
    343      -1.6450      2.00000
    344      -1.6242      2.00000
    345      -1.5696      2.00000
    346      -1.5531      2.00000
    347      -1.3756      2.00000
    348      -1.3658      2.00000
    349      -1.1234      2.00000
    350      -1.1121      2.00000
    351      -1.0535      2.00000
    352      -1.0473      2.00000
    353      -1.0397      2.00000
    354      -1.0393      2.00000
    355      -1.0024      2.00000
    356      -0.9849      2.00000
    357      -0.8723      2.00000
    358      -0.8599      2.00000
    359      -0.7553      2.00000
    360      -0.7348      2.00000
    361      -0.5814      2.00000
    362      -0.5692      2.00000
    363      -0.3477      2.00000
    364      -0.3460      2.00000
    365      -0.3094      2.00000
    366      -0.2877      2.00000
    367      -0.2041      2.00000
    368      -0.1844      2.00000
    369      -0.1211      2.00000
    370      -0.1200      2.00000
    371      -0.0725      2.00000
    372      -0.0695      2.00000
    373      -0.0383      2.00000
    374      -0.0273      2.00000
    375      -0.0064      2.00000
    376       0.0284      2.00000
    377       0.0444      2.00000
    378       0.0452      2.00000
    379       0.1226      2.00000
    380       0.1258      2.00000
    381       0.1408      2.00000
    382       0.1529      2.00000
    383       0.1655      2.00000
    384       0.1711      2.00000
    385       0.2356      2.00000
    386       0.2376      2.00000
    387       0.3392      2.00000
    388       0.3466      2.00000
    389       0.3922      2.00000
    390       0.3979      2.00000
    391       0.4105      2.00000
    392       0.4106      2.00000
    393       0.4326      2.00000
    394       0.4531      2.00000
    395       0.4573      2.00000
    396       0.4628      2.00000
    397       0.5895      2.00000
    398       0.6006      2.00000
    399       0.7124      2.00000
    400       0.7367      2.00000
    401       0.7895      2.00000
    402       0.7979      2.00000
    403       0.8163      2.00000
    404       0.8254      2.00000
    405       0.8337      2.00000
    406       0.8376      2.00000
    407       0.8576      2.00000
    408       0.8740      2.00000
    409       0.9178      2.00000
    410       0.9228      2.00000
    411       0.9423      2.00000
    412       0.9502      2.00000
    413       0.9565      2.00000
    414       0.9635      2.00000
    415       1.0114      2.00000
    416       1.0156      2.00000
    417       1.1281      2.00000
    418       1.1343      2.00000
    419       1.2128      2.00000
    420       1.2194      2.00000
    421       1.2798      2.00000
    422       1.2824      2.00000
    423       1.3364      2.00000
    424       1.3602      2.00000
    425       1.4338      2.00000
    426       1.4373      2.00000
    427       1.4495      2.00000
    428       1.4565      2.00000
    429       1.4605      2.00000
    430       1.4820      2.00000
    431       1.5025      2.00000
    432       1.5112      2.00000
    433       1.5148      2.00000
    434       1.5430      2.00000
    435       1.6019      2.00000
    436       1.6069      2.00000
    437       1.6257      2.00000
    438       1.6507      2.00000
    439       1.6904      2.00000
    440       1.7021      2.00000
    441       1.7751      2.00000
    442       1.7814      2.00000
    443       1.8037      2.00000
    444       1.8319      2.00000
    445       1.9141      2.00000
    446       1.9373      2.00000
    447       1.9931      2.00000
    448       2.0273      2.00000
    449       2.0319      2.00000
    450       2.0481      2.00000
    451       2.0545      2.00000
    452       2.0821      2.00000
    453       2.1222      2.00000
    454       2.1417      2.00000
    455       2.1458      2.00000
    456       2.1510      2.00000
    457       2.1726      2.00000
    458       2.1969      2.00000
    459       2.2022      2.00000
    460       2.2249      2.00000
    461       2.2985      2.00000
    462       2.3079      2.00000
    463       2.3146      2.00000
    464       2.3304      2.00000
    465       2.4158      2.00000
    466       2.4162      2.00000
    467       2.4855      2.00000
    468       2.5001      2.00000
    469       2.5045      2.00000
    470       2.5169      2.00000
    471       2.5305      2.00000
    472       2.5622      2.00000
    473       2.6243      2.00000
    474       2.6390      2.00000
    475       2.6468      2.00000
    476       2.6666      2.00000
    477       2.6730      2.00000
    478       2.7061      2.00000
    479       2.7626      2.00000
    480       2.7713      2.00000
    481       2.7845      2.00000
    482       2.7855      2.00000
    483       2.7947      2.00000
    484       2.8010      2.00000
    485       2.8081      2.00000
    486       2.8169      2.00000
    487       2.8263      2.00000
    488       2.8284      2.00000
    489       2.8602      2.00000
    490       2.8602      2.00000
    491       2.8744      2.00000
    492       2.8782      2.00000
    493       2.9068      2.00000
    494       2.9114      2.00000
    495       2.9376      2.00000
    496       2.9661      2.00000
    497       2.9800      2.00000
    498       3.0129      2.00000
    499       3.0339      2.00000
    500       3.0387      2.00000
    501       3.0533      2.00000
    502       3.0569      2.00000
    503       3.0611      2.00000
    504       3.0781      2.00000
    505       3.0899      2.00000
    506       3.0926      2.00000
    507       3.1022      2.00000
    508       3.1109      2.00000
    509       3.1440      2.00000
    510       3.1645      2.00000
    511       3.1800      2.00000
    512       3.1813      2.00000
    513       3.1864      2.00000
    514       3.2111      2.00000
    515       3.2391      2.00000
    516       3.2572      2.00000
    517       3.2663      2.00000
    518       3.3142      2.00000
    519       3.3841      2.00000
    520       3.4465      1.99993
    521       3.4862      1.99578
    522       3.4881      1.99504
    523       3.5066      1.97764
    524       3.5210      1.93954
    525       3.6146      0.44237
    526       3.6291      0.23861
    527       3.6647      0.02881
    528       3.7489      0.00000
    529       7.3788      0.00000
    530       7.3989      0.00000
    531       8.7058      0.00000
    532       8.7120      0.00000
    533       8.8798      0.00000
    534       8.9120      0.00000
    535       9.0280      0.00000
    536       9.0454      0.00000
    537       9.1594      0.00000
    538       9.1763      0.00000
    539       9.5003      0.00000
    540       9.5243      0.00000
    541       9.5313      0.00000
    542       9.5418      0.00000
    543       9.5762      0.00000
    544       9.5952      0.00000
    545       9.8210      0.00000
    546       9.8299      0.00000
    547      10.2830      0.00000
    548      10.3183      0.00000
    549      10.4592      0.00000
    550      10.4636      0.00000
    551      10.5232      0.00000
    552      10.5244      0.00000
    553      10.5515      0.00000
    554      10.5584      0.00000
    555      10.5968      0.00000
    556      10.5985      0.00000
    557      10.6456      0.00000
    558      10.6699      0.00000
    559      10.7257      0.00000
    560      10.7315      0.00000
    561      10.7374      0.00000
    562      10.7469      0.00000
    563      10.8057      0.00000
    564      10.8125      0.00000
    565      10.8974      0.00000
    566      10.9323      0.00000
    567      11.0540      0.00000
    568      11.0746      0.00000
    569      11.3182      0.00000
    570      11.3303      0.00000
    571      11.4258      0.00000
    572      11.4276      0.00000
    573      11.4469      0.00000
    574      11.4492      0.00000
    575      11.6593      0.00000
    576      11.6793      0.00000
    577      11.7115      0.00000
    578      11.7275      0.00000
    579      11.7673      0.00000
    580      11.7975      0.00000
    581      12.0244      0.00000
    582      12.0652      0.00000
    583      12.1333      0.00000
    584      12.1358      0.00000
    585      12.1617      0.00000
    586      12.1750      0.00000
    587      12.3180      0.00000
    588      12.3318      0.00000
    589      12.3510      0.00000
    590      12.3654      0.00000
    591      12.3903      0.00000
    592      12.3911      0.00000
    593      12.3973      0.00000
    594      12.4167      0.00000
    595      12.4732      0.00000
    596      12.4915      0.00000
    597      12.5886      0.00000
    598      12.6066      0.00000
    599      12.6740      0.00000
    600      12.7035      0.00000
    601      13.1503      0.00000
    602      13.1578      0.00000
    603      13.2129      0.00000
    604      13.2187      0.00000
    605      13.2728      0.00000
    606      13.3159      0.00000
    607      13.3843      0.00000
    608      13.4029      0.00000
    609      13.7190      0.00000
    610      13.7386      0.00000
    611      13.7772      0.00000
    612      13.7985      0.00000
    613      13.8161      0.00000
    614      13.8365      0.00000
    615      14.0216      0.00000
    616      14.0289      0.00000
    617      14.0814      0.00000
    618      14.1429      0.00000
    619      14.1541      0.00000
    620      14.1565      0.00000
    621      14.1858      0.00000
    622      14.1923      0.00000
    623      14.4052      0.00000
    624      14.4108      0.00000
    625      14.4745      0.00000
    626      14.4910      0.00000
    627      14.5480      0.00000
    628      14.5822      0.00000
    629      14.6164      0.00000
    630      14.7061      0.00000

 k-point     4 :       0.5000    0.5000    0.0000
  band No.  band energies     occupation 
      1     -14.8120      2.00000
      2     -14.8011      2.00000
      3     -14.7960      2.00000
      4     -14.7924      2.00000
      5     -14.6073      2.00000
      6     -14.5778      2.00000
      7     -14.5696      2.00000
      8     -14.5684      2.00000
      9     -14.2823      2.00000
     10     -14.2743      2.00000
     11     -14.2669      2.00000
     12     -14.2635      2.00000
     13     -14.1822      2.00000
     14     -14.1661      2.00000
     15     -14.1552      2.00000
     16     -14.1548      2.00000
     17     -14.0752      2.00000
     18     -14.0474      2.00000
     19     -14.0325      2.00000
     20     -14.0243      2.00000
     21     -14.0183      2.00000
     22     -14.0064      2.00000
     23     -13.9716      2.00000
     24     -13.9669      2.00000
     25     -13.9490      2.00000
     26     -13.9472      2.00000
     27     -13.9311      2.00000
     28     -13.9196      2.00000
     29     -13.9000      2.00000
     30     -13.8895      2.00000
     31     -13.8049      2.00000
     32     -13.7988      2.00000
     33     -13.7178      2.00000
     34     -13.7114      2.00000
     35     -13.6692      2.00000
     36     -13.6630      2.00000
     37     -13.6561      2.00000
     38     -13.6516      2.00000
     39     -13.6398      2.00000
     40     -13.6386      2.00000
     41     -13.6287      2.00000
     42     -13.6252      2.00000
     43     -13.6095      2.00000
     44     -13.5903      2.00000
     45     -13.5827      2.00000
     46     -13.5774      2.00000
     47     -13.5634      2.00000
     48     -13.5616      2.00000
     49     -13.5065      2.00000
     50     -13.5021      2.00000
     51     -13.4624      2.00000
     52     -13.4511      2.00000
     53     -13.4506      2.00000
     54     -13.4260      2.00000
     55     -13.4183      2.00000
     56     -13.4124      2.00000
     57     -13.4035      2.00000
     58     -13.4007      2.00000
     59     -13.3568      2.00000
     60     -13.3524      2.00000
     61     -13.3499      2.00000
     62     -13.3465      2.00000
     63     -13.3420      2.00000
     64     -13.3418      2.00000
     65     -13.3407      2.00000
     66     -13.3389      2.00000
     67     -13.3257      2.00000
     68     -13.3244      2.00000
     69     -13.3018      2.00000
     70     -13.2877      2.00000
     71     -13.2805      2.00000
     72     -10.5054      2.00000
     73      -9.0856      2.00000
     74      -9.0827      2.00000
     75      -9.0788      2.00000
     76      -9.0698      2.00000
     77      -9.0686      2.00000
     78      -9.0548      2.00000
     79      -9.0272      2.00000
     80      -9.0271      2.00000
     81      -9.0219      2.00000
     82      -9.0206      2.00000
     83      -9.0128      2.00000
     84      -9.0117      2.00000
     85      -9.0106      2.00000
     86      -9.0082      2.00000
     87      -9.0074      2.00000
     88      -9.0050      2.00000
     89      -8.9997      2.00000
     90      -8.9957      2.00000
     91      -8.9824      2.00000
     92      -8.9793      2.00000
     93      -8.9789      2.00000
     94      -8.9752      2.00000
     95      -8.9693      2.00000
     96      -8.9656      2.00000
     97      -8.9596      2.00000
     98      -8.9490      2.00000
     99      -8.9489      2.00000
    100      -8.9467      2.00000
    101      -8.9467      2.00000
    102      -8.9437      2.00000
    103      -8.9428      2.00000
    104      -8.9403      2.00000
    105      -8.9352      2.00000
    106      -8.9341      2.00000
    107      -8.9271      2.00000
    108      -8.9249      2.00000
    109      -8.9232      2.00000
    110      -8.9218      2.00000
    111      -8.9212      2.00000
    112      -8.9142      2.00000
    113      -8.9130      2.00000
    114      -8.9093      2.00000
    115      -8.9062      2.00000
    116      -8.9057      2.00000
    117      -8.9040      2.00000
    118      -8.8977      2.00000
    119      -8.8967      2.00000
    120      -8.8955      2.00000
    121      -8.8934      2.00000
    122      -8.8927      2.00000
    123      -8.8900      2.00000
    124      -8.8882      2.00000
    125      -8.8852      2.00000
    126      -8.8821      2.00000
    127      -8.8811      2.00000
    128      -8.8770      2.00000
    129      -8.8765      2.00000
    130      -8.8691      2.00000
    131      -8.8613      2.00000
    132      -8.8603      2.00000
    133      -8.8601      2.00000
    134      -8.8576      2.00000
    135      -8.8574      2.00000
    136      -8.8561      2.00000
    137      -8.8477      2.00000
    138      -8.8452      2.00000
    139      -8.8363      2.00000
    140      -8.8333      2.00000
    141      -8.8240      2.00000
    142      -8.8224      2.00000
    143      -8.8196      2.00000
    144      -8.8145      2.00000
    145      -8.8117      2.00000
    146      -8.8113      2.00000
    147      -8.8081      2.00000
    148      -8.8064      2.00000
    149      -8.8019      2.00000
    150      -8.7991      2.00000
    151      -8.7944      2.00000
    152      -8.7917      2.00000
    153      -8.7906      2.00000
    154      -8.7894      2.00000
    155      -8.7882      2.00000
    156      -8.7876      2.00000
    157      -8.7860      2.00000
    158      -8.7844      2.00000
    159      -8.7764      2.00000
    160      -8.7747      2.00000
    161      -8.7698      2.00000
    162      -8.7688      2.00000
    163      -8.7661      2.00000
    164      -8.7648      2.00000
    165      -8.7648      2.00000
    166      -8.7617      2.00000
    167      -8.7599      2.00000
    168      -8.7595      2.00000
    169      -8.7541      2.00000
    170      -8.7512      2.00000
    171      -8.7501      2.00000
    172      -8.7499      2.00000
    173      -8.7482      2.00000
    174      -8.7444      2.00000
    175      -8.7436      2.00000
    176      -8.7432      2.00000
    177      -8.7428      2.00000
    178      -8.7421      2.00000
    179      -8.7407      2.00000
    180      -8.7354      2.00000
    181      -8.7334      2.00000
    182      -8.7327      2.00000
    183      -8.7290      2.00000
    184      -8.7289      2.00000
    185      -8.7284      2.00000
    186      -8.7259      2.00000
    187      -8.7122      2.00000
    188      -8.7119      2.00000
    189      -8.7065      2.00000
    190      -8.7045      2.00000
    191      -8.7010      2.00000
    192      -8.7009      2.00000
    193      -8.6937      2.00000
    194      -8.6916      2.00000
    195      -8.6901      2.00000
    196      -8.6891      2.00000
    197      -8.6834      2.00000
    198      -8.6826      2.00000
    199      -8.6711      2.00000
    200      -8.6687      2.00000
    201      -8.6500      2.00000
    202      -8.6460      2.00000
    203      -8.6380      2.00000
    204      -8.6370      2.00000
    205      -8.6336      2.00000
    206      -8.6312      2.00000
    207      -8.6282      2.00000
    208      -8.6256      2.00000
    209      -8.6167      2.00000
    210      -8.6143      2.00000
    211      -8.6089      2.00000
    212      -8.6056      2.00000
    213      -8.5986      2.00000
    214      -8.5958      2.00000
    215      -8.5928      2.00000
    216      -8.5897      2.00000
    217      -8.5887      2.00000
    218      -8.5883      2.00000
    219      -8.5786      2.00000
    220      -8.5773      2.00000
    221      -8.5732      2.00000
    222      -8.5707      2.00000
    223      -8.5698      2.00000
    224      -8.5695      2.00000
    225      -8.5600      2.00000
    226      -8.5579      2.00000
    227      -8.5570      2.00000
    228      -8.5513      2.00000
    229      -8.5500      2.00000
    230      -8.5490      2.00000
    231      -8.5444      2.00000
    232      -8.5443      2.00000
    233      -8.5435      2.00000
    234      -8.5407      2.00000
    235      -8.5395      2.00000
    236      -8.5359      2.00000
    237      -8.5344      2.00000
    238      -8.5322      2.00000
    239      -8.5269      2.00000
    240      -8.5245      2.00000
    241      -8.5169      2.00000
    242      -8.5160      2.00000
    243      -8.5148      2.00000
    244      -8.5100      2.00000
    245      -8.5078      2.00000
    246      -8.5062      2.00000
    247      -8.5044      2.00000
    248      -8.5041      2.00000
    249      -8.5019      2.00000
    250      -8.4996      2.00000
    251      -8.4988      2.00000
    252      -8.4973      2.00000
    253      -8.4963      2.00000
    254      -8.4947      2.00000
    255      -8.4910      2.00000
    256      -8.4901      2.00000
    257      -8.4869      2.00000
    258      -8.4820      2.00000
    259      -8.4796      2.00000
    260      -8.4690      2.00000
    261      -8.4676      2.00000
    262      -8.4644      2.00000
    263      -8.4628      2.00000
    264      -8.4596      2.00000
    265      -8.4578      2.00000
    266      -8.4568      2.00000
    267      -8.4532      2.00000
    268      -8.4462      2.00000
    269      -8.4135      2.00000
    270      -8.4021      2.00000
    271      -8.3964      2.00000
    272      -8.3958      2.00000
    273      -8.3742      2.00000
    274      -8.3659      2.00000
    275      -8.3643      2.00000
    276      -8.3456      2.00000
    277      -8.3298      2.00000
    278      -8.3240      2.00000
    279      -8.3106      2.00000
    280      -8.3098      2.00000
    281      -8.2640      2.00000
    282      -8.2528      2.00000
    283      -8.2472      2.00000
    284      -8.2399      2.00000
    285      -8.2384      2.00000
    286      -8.2171      2.00000
    287      -8.2082      2.00000
    288      -8.1871      2.00000
    289      -8.1830      2.00000
    290      -8.1751      2.00000
    291      -8.1095      2.00000
    292      -8.0987      2.00000
    293      -8.0884      2.00000
    294      -8.0881      2.00000
    295      -8.0807      2.00000
    296      -8.0559      2.00000
    297      -7.9717      2.00000
    298      -7.9302      2.00000
    299      -7.9221      2.00000
    300      -7.9103      2.00000
    301      -7.9042      2.00000
    302      -7.9004      2.00000
    303      -7.8896      2.00000
    304      -7.8760      2.00000
    305      -7.8685      2.00000
    306      -7.8634      2.00000
    307      -7.8574      2.00000
    308      -7.8196      2.00000
    309      -7.7931      2.00000
    310      -7.7459      2.00000
    311      -7.7290      2.00000
    312      -7.3845      2.00000
    313      -3.0307      2.00000
    314      -3.0168      2.00000
    315      -3.0168      2.00000
    316      -3.0092      2.00000
    317      -3.0073      2.00000
    318      -3.0006      2.00000
    319      -2.7314      2.00000
    320      -2.7312      2.00000
    321      -2.5589      2.00000
    322      -2.5406      2.00000
    323      -2.4042      2.00000
    324      -2.3998      2.00000
    325      -2.3492      2.00000
    326      -2.3318      2.00000
    327      -2.2004      2.00000
    328      -2.1832      2.00000
    329      -2.1791      2.00000
    330      -2.1732      2.00000
    331      -2.1369      2.00000
    332      -2.1301      2.00000
    333      -2.1195      2.00000
    334      -2.1103      2.00000
    335      -2.0520      2.00000
    336      -2.0401      2.00000
    337      -1.9882      2.00000
    338      -1.9866      2.00000
    339      -1.8391      2.00000
    340      -1.8223      2.00000
    341      -1.8020      2.00000
    342      -1.8008      2.00000
    343      -1.7965      2.00000
    344      -1.7948      2.00000
    345      -1.4263      2.00000
    346      -1.4223      2.00000
    347      -1.4218      2.00000
    348      -1.4106      2.00000
    349      -1.1686      2.00000
    350      -1.1594      2.00000
    351      -1.0711      2.00000
    352      -1.0535      2.00000
    353      -1.0477      2.00000
    354      -1.0287      2.00000
    355      -0.8606      2.00000
    356      -0.8600      2.00000
    357      -0.8394      2.00000
    358      -0.8349      2.00000
    359      -0.8296      2.00000
    360      -0.7981      2.00000
    361      -0.7268      2.00000
    362      -0.7062      2.00000
    363      -0.3608      2.00000
    364      -0.3454      2.00000
    365      -0.3172      2.00000
    366      -0.3004      2.00000
    367      -0.2886      2.00000
    368      -0.2867      2.00000
    369      -0.0473      2.00000
    370      -0.0235      2.00000
    371       0.0003      2.00000
    372       0.0025      2.00000
    373       0.0059      2.00000
    374       0.0231      2.00000
    375       0.0832      2.00000
    376       0.0883      2.00000
    377       0.0896      2.00000
    378       0.0937      2.00000
    379       0.1304      2.00000
    380       0.1463      2.00000
    381       0.1709      2.00000
    382       0.1801      2.00000
    383       0.1919      2.00000
    384       0.1935      2.00000
    385       0.2062      2.00000
    386       0.2210      2.00000
    387       0.4119      2.00000
    388       0.4136      2.00000
    389       0.4237      2.00000
    390       0.4246      2.00000
    391       0.4595      2.00000
    392       0.4597      2.00000
    393       0.4757      2.00000
    394       0.4809      2.00000
    395       0.4952      2.00000
    396       0.5053      2.00000
    397       0.6286      2.00000
    398       0.6369      2.00000
    399       0.6751      2.00000
    400       0.6929      2.00000
    401       0.7168      2.00000
    402       0.7233      2.00000
    403       0.7409      2.00000
    404       0.7451      2.00000
    405       0.8826      2.00000
    406       0.8865      2.00000
    407       0.9021      2.00000
    408       0.9051      2.00000
    409       0.9182      2.00000
    410       0.9304      2.00000
    411       1.0217      2.00000
    412       1.0301      2.00000
    413       1.0432      2.00000
    414       1.0457      2.00000
    415       1.0748      2.00000
    416       1.0880      2.00000
    417       1.1540      2.00000
    418       1.1629      2.00000
    419       1.1634      2.00000
    420       1.1670      2.00000
    421       1.1784      2.00000
    422       1.1816      2.00000
    423       1.1925      2.00000
    424       1.1945      2.00000
    425       1.1972      2.00000
    426       1.2025      2.00000
    427       1.2298      2.00000
    428       1.2353      2.00000
    429       1.3541      2.00000
    430       1.3613      2.00000
    431       1.4032      2.00000
    432       1.4368      2.00000
    433       1.6365      2.00000
    434       1.6424      2.00000
    435       1.6539      2.00000
    436       1.6602      2.00000
    437       1.6715      2.00000
    438       1.6967      2.00000
    439       1.7396      2.00000
    440       1.7420      2.00000
    441       1.7421      2.00000
    442       1.7576      2.00000
    443       1.8432      2.00000
    444       1.8843      2.00000
    445       1.9799      2.00000
    446       1.9820      2.00000
    447       2.0001      2.00000
    448       2.0078      2.00000
    449       2.0265      2.00000
    450       2.0472      2.00000
    451       2.0518      2.00000
    452       2.0710      2.00000
    453       2.1438      2.00000
    454       2.1688      2.00000
    455       2.1892      2.00000
    456       2.2010      2.00000
    457       2.2086      2.00000
    458       2.2455      2.00000
    459       2.3837      2.00000
    460       2.3865      2.00000
    461       2.3897      2.00000
    462       2.4007      2.00000
    463       2.4242      2.00000
    464       2.4274      2.00000
    465       2.4304      2.00000
    466       2.4447      2.00000
    467       2.4459      2.00000
    468       2.4533      2.00000
    469       2.4578      2.00000
    470       2.4857      2.00000
    471       2.5305      2.00000
    472       2.5384      2.00000
    473       2.5783      2.00000
    474       2.5783      2.00000
    475       2.5908      2.00000
    476       2.6047      2.00000
    477       2.6059      2.00000
    478       2.6298      2.00000
    479       2.6339      2.00000
    480       2.6570      2.00000
    481       2.7688      2.00000
    482       2.7777      2.00000
    483       2.7871      2.00000
    484       2.7927      2.00000
    485       2.7944      2.00000
    486       2.8007      2.00000
    487       2.8047      2.00000
    488       2.8325      2.00000
    489       2.8400      2.00000
    490       2.8468      2.00000
    491       2.8746      2.00000
    492       2.8919      2.00000
    493       2.9261      2.00000
    494       2.9433      2.00000
    495       2.9589      2.00000
    496       2.9682      2.00000
    497       2.9777      2.00000
    498       2.9823      2.00000
    499       2.9872      2.00000
    500       2.9937      2.00000
    501       2.9975      2.00000
    502       3.0036      2.00000
    503       3.0158      2.00000
    504       3.0206      2.00000
    505       3.0244      2.00000
    506       3.0390      2.00000
    507       3.0658      2.00000
    508       3.0842      2.00000
    509       3.1330      2.00000
    510       3.1573      2.00000
    511       3.1785      2.00000
    512       3.2078      2.00000
    513       3.2631      2.00000
    514       3.2681      2.00000
    515       3.3289      2.00000
    516       3.3307      2.00000
    517       3.3427      2.00000
    518       3.4159      2.00000
    519       3.4495      1.99990
    520       3.4880      1.99508
    521       3.5625      1.51867
    522       3.5642      1.48894
    523       3.5680      1.41742
    524       3.5710      1.35714
    525       3.5727      1.32243
    526       3.5808      1.14878
    527       3.5905      0.93072
    528       3.7212      0.00015
    529       7.7902      0.00000
    530       7.7921      0.00000
    531       7.8041      0.00000
    532       7.8468      0.00000
    533       9.0893      0.00000
    534       9.1091      0.00000
    535       9.1129      0.00000
    536       9.1218      0.00000
    537       9.3821      0.00000
    538       9.3994      0.00000
    539       9.5262      0.00000
    540       9.5268      0.00000
    541       9.5351      0.00000
    542       9.5493      0.00000
    543       9.6059      0.00000
    544       9.6084      0.00000
    545       9.6178      0.00000
    546       9.6558      0.00000
    547      10.2170      0.00000
    548      10.2539      0.00000
    549      10.5601      0.00000
    550      10.5616      0.00000
    551      10.5732      0.00000
    552      10.5815      0.00000
    553      10.5969      0.00000
    554      10.6006      0.00000
    555      10.6160      0.00000
    556      10.6178      0.00000
    557      10.6341      0.00000
    558      10.6414      0.00000
    559      10.6570      0.00000
    560      10.6675      0.00000
    561      10.8941      0.00000
    562      10.9093      0.00000
    563      10.9397      0.00000
    564      10.9477      0.00000
    565      10.9566      0.00000
    566      10.9640      0.00000
    567      11.1639      0.00000
    568      11.1786      0.00000
    569      11.1980      0.00000
    570      11.2052      0.00000
    571      11.2160      0.00000
    572      11.2184      0.00000
    573      11.4933      0.00000
    574      11.5092      0.00000
    575      11.6607      0.00000
    576      11.6638      0.00000
    577      11.7012      0.00000
    578      11.7058      0.00000
    579      12.0747      0.00000
    580      12.1218      0.00000
    581      12.1310      0.00000
    582      12.1445      0.00000
    583      12.1520      0.00000
    584      12.1608      0.00000
    585      12.1695      0.00000
    586      12.1793      0.00000
    587      12.1973      0.00000
    588      12.2128      0.00000
    589      12.2493      0.00000
    590      12.2595      0.00000
    591      12.2809      0.00000
    592      12.2887      0.00000
    593      12.2991      0.00000
    594      12.3069      0.00000
    595      12.5027      0.00000
    596      12.5187      0.00000
    597      12.5406      0.00000
    598      12.5587      0.00000
    599      12.7677      0.00000
    600      12.7763      0.00000
    601      12.8686      0.00000
    602      12.8942      0.00000
    603      13.0774      0.00000
    604      13.0853      0.00000
    605      13.1185      0.00000
    606      13.1212      0.00000
    607      13.4164      0.00000
    608      13.4405      0.00000
    609      13.6495      0.00000
    610      13.6706      0.00000
    611      13.8782      0.00000
    612      13.8955      0.00000
    613      13.9147      0.00000
    614      13.9234      0.00000
    615      14.0771      0.00000
    616      14.1371      0.00000
    617      14.1514      0.00000
    618      14.1546      0.00000
    619      14.1555      0.00000
    620      14.1654      0.00000
    621      14.2409      0.00000
    622      14.2483      0.00000
    623      14.2758      0.00000
    624      14.2840      0.00000
    625      14.4617      0.00000
    626      14.4850      0.00000
    627      14.5019      0.00000
    628      14.5110      0.00000
    629      14.8163      0.00000
    630      14.8489      0.00000

 k-point     5 :       0.0000    0.0000    0.5000
  band No.  band energies     occupation 
      1     -14.9882      2.00000
      2     -14.9824      2.00000
      3     -14.7241      2.00000
      4     -14.7029      2.00000
      5     -14.5029      2.00000
      6     -14.4839      2.00000
      7     -14.3838      2.00000
      8     -14.3586      2.00000
      9     -14.3558      2.00000
     10     -14.3527      2.00000
     11     -14.2256      2.00000
     12     -14.2158      2.00000
     13     -14.2076      2.00000
     14     -14.1834      2.00000
     15     -14.1738      2.00000
     16     -14.1631      2.00000
     17     -14.1266      2.00000
     18     -14.0987      2.00000
     19     -14.0711      2.00000
     20     -14.0585      2.00000
     21     -14.0490      2.00000
     22     -14.0443      2.00000
     23     -13.9917      2.00000
     24     -13.9864      2.00000
     25     -13.9322      2.00000
     26     -13.9114      2.00000
     27     -13.9078      2.00000
     28     -13.8968      2.00000
     29     -13.8567      2.00000
     30     -13.8316      2.00000
     31     -13.8226      2.00000
     32     -13.8170      2.00000
     33     -13.7753      2.00000
     34     -13.7743      2.00000
     35     -13.7724      2.00000
     36     -13.7709      2.00000
     37     -13.7366      2.00000
     38     -13.6993      2.00000
     39     -13.6612      2.00000
     40     -13.6262      2.00000
     41     -13.5870      2.00000
     42     -13.5660      2.00000
     43     -13.5528      2.00000
     44     -13.5516      2.00000
     45     -13.5158      2.00000
     46     -13.5123      2.00000
     47     -13.5108      2.00000
     48     -13.5100      2.00000
     49     -13.5049      2.00000
     50     -13.4841      2.00000
     51     -13.4648      2.00000
     52     -13.4643      2.00000
     53     -13.4478      2.00000
     54     -13.4379      2.00000
     55     -13.4359      2.00000
     56     -13.4299      2.00000
     57     -13.4281      2.00000
     58     -13.4261      2.00000
     59     -13.4258      2.00000
     60     -13.4160      2.00000
     61     -13.3655      2.00000
     62     -13.3648      2.00000
     63     -13.3421      2.00000
     64     -13.3300      2.00000
     65     -13.3224      2.00000
     66     -13.3186      2.00000
     67     -13.3097      2.00000
     68     -13.3052      2.00000
     69     -13.2930      2.00000
     70     -13.2675      2.00000
     71     -13.2585      2.00000
     72     -10.5073      2.00000
     73      -9.0944      2.00000
     74      -9.0905      2.00000
     75      -9.0828      2.00000
     76      -9.0823      2.00000
     77      -9.0632      2.00000
     78      -9.0515      2.00000
     79      -9.0408      2.00000
     80      -9.0353      2.00000
     81      -9.0292      2.00000
     82      -9.0272      2.00000
     83      -9.0250      2.00000
     84      -9.0228      2.00000
     85      -9.0193      2.00000
     86      -9.0122      2.00000
     87      -8.9950      2.00000
     88      -8.9899      2.00000
     89      -8.9851      2.00000
     90      -8.9752      2.00000
     91      -8.9734      2.00000
     92      -8.9707      2.00000
     93      -8.9656      2.00000
     94      -8.9583      2.00000
     95      -8.9578      2.00000
     96      -8.9515      2.00000
     97      -8.9498      2.00000
     98      -8.9420      2.00000
     99      -8.9408      2.00000
    100      -8.9390      2.00000
    101      -8.9299      2.00000
    102      -8.9282      2.00000
    103      -8.9257      2.00000
    104      -8.9224      2.00000
    105      -8.9216      2.00000
    106      -8.9199      2.00000
    107      -8.9184      2.00000
    108      -8.9162      2.00000
    109      -8.9135      2.00000
    110      -8.9104      2.00000
    111      -8.9074      2.00000
    112      -8.9068      2.00000
    113      -8.9010      2.00000
    114      -8.9010      2.00000
    115      -8.8977      2.00000
    116      -8.8958      2.00000
    117      -8.8932      2.00000
    118      -8.8919      2.00000
    119      -8.8915      2.00000
    120      -8.8841      2.00000
    121      -8.8824      2.00000
    122      -8.8788      2.00000
    123      -8.8772      2.00000
    124      -8.8735      2.00000
    125      -8.8675      2.00000
    126      -8.8672      2.00000
    127      -8.8618      2.00000
    128      -8.8604      2.00000
    129      -8.8598      2.00000
    130      -8.8588      2.00000
    131      -8.8560      2.00000
    132      -8.8514      2.00000
    133      -8.8500      2.00000
    134      -8.8477      2.00000
    135      -8.8450      2.00000
    136      -8.8441      2.00000
    137      -8.8394      2.00000
    138      -8.8358      2.00000
    139      -8.8321      2.00000
    140      -8.8316      2.00000
    141      -8.8285      2.00000
    142      -8.8274      2.00000
    143      -8.8264      2.00000
    144      -8.8263      2.00000
    145      -8.8248      2.00000
    146      -8.8212      2.00000
    147      -8.8192      2.00000
    148      -8.8179      2.00000
    149      -8.8164      2.00000
    150      -8.8142      2.00000
    151      -8.8098      2.00000
    152      -8.8080      2.00000
    153      -8.8076      2.00000
    154      -8.8059      2.00000
    155      -8.8031      2.00000
    156      -8.8015      2.00000
    157      -8.8001      2.00000
    158      -8.7994      2.00000
    159      -8.7988      2.00000
    160      -8.7980      2.00000
    161      -8.7964      2.00000
    162      -8.7954      2.00000
    163      -8.7898      2.00000
    164      -8.7895      2.00000
    165      -8.7876      2.00000
    166      -8.7875      2.00000
    167      -8.7828      2.00000
    168      -8.7822      2.00000
    169      -8.7804      2.00000
    170      -8.7798      2.00000
    171      -8.7759      2.00000
    172      -8.7711      2.00000
    173      -8.7676      2.00000
    174      -8.7588      2.00000
    175      -8.7566      2.00000
    176      -8.7551      2.00000
    177      -8.7529      2.00000
    178      -8.7522      2.00000
    179      -8.7440      2.00000
    180      -8.7436      2.00000
    181      -8.7395      2.00000
    182      -8.7394      2.00000
    183      -8.7393      2.00000
    184      -8.7348      2.00000
    185      -8.7307      2.00000
    186      -8.7299      2.00000
    187      -8.7018      2.00000
    188      -8.7000      2.00000
    189      -8.6984      2.00000
    190      -8.6899      2.00000
    191      -8.6844      2.00000
    192      -8.6778      2.00000
    193      -8.6695      2.00000
    194      -8.6665      2.00000
    195      -8.6663      2.00000
    196      -8.6633      2.00000
    197      -8.6593      2.00000
    198      -8.6571      2.00000
    199      -8.6554      2.00000
    200      -8.6536      2.00000
    201      -8.6526      2.00000
    202      -8.6526      2.00000
    203      -8.6503      2.00000
    204      -8.6486      2.00000
    205      -8.6456      2.00000
    206      -8.6371      2.00000
    207      -8.6344      2.00000
    208      -8.6305      2.00000
    209      -8.6299      2.00000
    210      -8.6246      2.00000
    211      -8.6156      2.00000
    212      -8.6087      2.00000
    213      -8.6055      2.00000
    214      -8.5979      2.00000
    215      -8.5899      2.00000
    216      -8.5869      2.00000
    217      -8.5865      2.00000
    218      -8.5823      2.00000
    219      -8.5817      2.00000
    220      -8.5787      2.00000
    221      -8.5745      2.00000
    222      -8.5743      2.00000
    223      -8.5699      2.00000
    224      -8.5666      2.00000
    225      -8.5660      2.00000
    226      -8.5612      2.00000
    227      -8.5588      2.00000
    228      -8.5572      2.00000
    229      -8.5525      2.00000
    230      -8.5475      2.00000
    231      -8.5451      2.00000
    232      -8.5431      2.00000
    233      -8.5394      2.00000
    234      -8.5391      2.00000
    235      -8.5373      2.00000
    236      -8.5373      2.00000
    237      -8.5331      2.00000
    238      -8.5320      2.00000
    239      -8.5295      2.00000
    240      -8.5272      2.00000
    241      -8.5257      2.00000
    242      -8.5199      2.00000
    243      -8.5185      2.00000
    244      -8.5183      2.00000
    245      -8.5158      2.00000
    246      -8.5152      2.00000
    247      -8.5141      2.00000
    248      -8.5111      2.00000
    249      -8.5095      2.00000
    250      -8.5050      2.00000
    251      -8.5032      2.00000
    252      -8.5003      2.00000
    253      -8.4993      2.00000
    254      -8.4971      2.00000
    255      -8.4968      2.00000
    256      -8.4938      2.00000
    257      -8.4855      2.00000
    258      -8.4805      2.00000
    259      -8.4804      2.00000
    260      -8.4764      2.00000
    261      -8.4754      2.00000
    262      -8.4746      2.00000
    263      -8.4622      2.00000
    264      -8.4470      2.00000
    265      -8.4462      2.00000
    266      -8.4447      2.00000
    267      -8.4381      2.00000
    268      -8.4350      2.00000
    269      -8.4332      2.00000
    270      -8.4272      2.00000
    271      -8.4140      2.00000
    272      -8.3899      2.00000
    273      -8.3693      2.00000
    274      -8.3602      2.00000
    275      -8.3600      2.00000
    276      -8.3504      2.00000
    277      -8.3479      2.00000
    278      -8.3397      2.00000
    279      -8.2695      2.00000
    280      -8.2563      2.00000
    281      -8.2501      2.00000
    282      -8.2487      2.00000
    283      -8.2449      2.00000
    284      -8.2429      2.00000
    285      -8.2351      2.00000
    286      -8.2338      2.00000
    287      -8.1961      2.00000
    288      -8.1834      2.00000
    289      -8.1466      2.00000
    290      -8.1339      2.00000
    291      -8.1324      2.00000
    292      -8.0992      2.00000
    293      -8.0607      2.00000
    294      -8.0436      2.00000
    295      -8.0416      2.00000
    296      -8.0365      2.00000
    297      -8.0289      2.00000
    298      -7.9818      2.00000
    299      -7.9242      2.00000
    300      -7.9164      2.00000
    301      -7.9107      2.00000
    302      -7.9076      2.00000
    303      -7.9026      2.00000
    304      -7.8988      2.00000
    305      -7.8928      2.00000
    306      -7.8581      2.00000
    307      -7.8397      2.00000
    308      -7.8288      2.00000
    309      -7.8255      2.00000
    310      -7.7376      2.00000
    311      -7.7138      2.00000
    312      -7.4118      2.00000
    313      -2.9116      2.00000
    314      -2.8959      2.00000
    315      -2.7422      2.00000
    316      -2.7136      2.00000
    317      -2.7034      2.00000
    318      -2.7004      2.00000
    319      -2.6871      2.00000
    320      -2.6855      2.00000
    321      -2.4398      2.00000
    322      -2.4255      2.00000
    323      -2.4250      2.00000
    324      -2.4227      2.00000
    325      -2.3180      2.00000
    326      -2.3142      2.00000
    327      -2.2967      2.00000
    328      -2.2796      2.00000
    329      -2.2197      2.00000
    330      -2.2184      2.00000
    331      -2.2115      2.00000
    332      -2.2078      2.00000
    333      -2.0918      2.00000
    334      -2.0802      2.00000
    335      -1.9336      2.00000
    336      -1.9220      2.00000
    337      -1.9132      2.00000
    338      -1.9090      2.00000
    339      -1.8767      2.00000
    340      -1.8716      2.00000
    341      -1.8700      2.00000
    342      -1.8457      2.00000
    343      -1.8183      2.00000
    344      -1.8081      2.00000
    345      -1.5557      2.00000
    346      -1.5498      2.00000
    347      -1.5433      2.00000
    348      -1.5417      2.00000
    349      -1.3187      2.00000
    350      -1.3161      2.00000
    351      -1.1181      2.00000
    352      -1.1144      2.00000
    353      -1.0956      2.00000
    354      -1.0936      2.00000
    355      -0.9578      2.00000
    356      -0.9518      2.00000
    357      -0.7426      2.00000
    358      -0.7368      2.00000
    359      -0.7368      2.00000
    360      -0.7293      2.00000
    361      -0.6774      2.00000
    362      -0.6710      2.00000
    363      -0.6487      2.00000
    364      -0.6436      2.00000
    365      -0.4147      2.00000
    366      -0.4099      2.00000
    367      -0.4063      2.00000
    368      -0.3966      2.00000
    369      -0.3721      2.00000
    370      -0.3538      2.00000
    371      -0.3256      2.00000
    372      -0.3176      2.00000
    373      -0.3072      2.00000
    374      -0.3017      2.00000
    375      -0.3017      2.00000
    376      -0.2922      2.00000
    377      -0.1044      2.00000
    378      -0.1039      2.00000
    379      -0.0983      2.00000
    380      -0.0939      2.00000
    381       0.1058      2.00000
    382       0.1137      2.00000
    383       0.1261      2.00000
    384       0.1368      2.00000
    385       0.3224      2.00000
    386       0.3398      2.00000
    387       0.3535      2.00000
    388       0.3780      2.00000
    389       0.4196      2.00000
    390       0.4351      2.00000
    391       0.4519      2.00000
    392       0.4572      2.00000
    393       0.6479      2.00000
    394       0.6637      2.00000
    395       0.6691      2.00000
    396       0.6740      2.00000
    397       0.6747      2.00000
    398       0.6777      2.00000
    399       0.6863      2.00000
    400       0.6939      2.00000
    401       0.8060      2.00000
    402       0.8105      2.00000
    403       0.8200      2.00000
    404       0.8333      2.00000
    405       0.8583      2.00000
    406       0.8602      2.00000
    407       0.8702      2.00000
    408       0.8792      2.00000
    409       1.0129      2.00000
    410       1.0188      2.00000
    411       1.0293      2.00000
    412       1.0487      2.00000
    413       1.1144      2.00000
    414       1.1398      2.00000
    415       1.1584      2.00000
    416       1.1667      2.00000
    417       1.1704      2.00000
    418       1.1999      2.00000
    419       1.2967      2.00000
    420       1.3047      2.00000
    421       1.3561      2.00000
    422       1.3744      2.00000
    423       1.4531      2.00000
    424       1.4667      2.00000
    425       1.4733      2.00000
    426       1.4788      2.00000
    427       1.4939      2.00000
    428       1.5181      2.00000
    429       1.5772      2.00000
    430       1.5799      2.00000
    431       1.5889      2.00000
    432       1.6018      2.00000
    433       1.6190      2.00000
    434       1.6420      2.00000
    435       1.6494      2.00000
    436       1.6564      2.00000
    437       1.6664      2.00000
    438       1.6920      2.00000
    439       1.7545      2.00000
    440       1.7639      2.00000
    441       1.7789      2.00000
    442       1.7907      2.00000
    443       1.7948      2.00000
    444       1.8050      2.00000
    445       1.8887      2.00000
    446       1.9106      2.00000
    447       1.9118      2.00000
    448       1.9148      2.00000
    449       1.9159      2.00000
    450       1.9822      2.00000
    451       1.9957      2.00000
    452       2.0276      2.00000
    453       2.1753      2.00000
    454       2.1908      2.00000
    455       2.2038      2.00000
    456       2.2133      2.00000
    457       2.2305      2.00000
    458       2.2734      2.00000
    459       2.3095      2.00000
    460       2.3107      2.00000
    461       2.3349      2.00000
    462       2.3494      2.00000
    463       2.3755      2.00000
    464       2.3887      2.00000
    465       2.4028      2.00000
    466       2.4046      2.00000
    467       2.4445      2.00000
    468       2.4827      2.00000
    469       2.5107      2.00000
    470       2.5641      2.00000
    471       2.6042      2.00000
    472       2.6132      2.00000
    473       2.6333      2.00000
    474       2.6389      2.00000
    475       2.6824      2.00000
    476       2.6846      2.00000
    477       2.6901      2.00000
    478       2.6907      2.00000
    479       2.6998      2.00000
    480       2.7101      2.00000
    481       2.7196      2.00000
    482       2.7248      2.00000
    483       2.7269      2.00000
    484       2.7593      2.00000
    485       2.7920      2.00000
    486       2.8130      2.00000
    487       2.8262      2.00000
    488       2.8284      2.00000
    489       2.8299      2.00000
    490       2.8619      2.00000
    491       2.8905      2.00000
    492       2.9151      2.00000
    493       3.0100      2.00000
    494       3.0351      2.00000
    495       3.0392      2.00000
    496       3.0541      2.00000
    497       3.0560      2.00000
    498       3.0688      2.00000
    499       3.0836      2.00000
    500       3.1022      2.00000
    501       3.1065      2.00000
    502       3.1196      2.00000
    503       3.1380      2.00000
    504       3.1488      2.00000
    505       3.1491      2.00000
    506       3.1543      2.00000
    507       3.1648      2.00000
    508       3.1687      2.00000
    509       3.1718      2.00000
    510       3.1772      2.00000
    511       3.1926      2.00000
    512       3.1981      2.00000
    513       3.2031      2.00000
    514       3.2118      2.00000
    515       3.2641      2.00000
    516       3.2984      2.00000
    517       3.3196      2.00000
    518       3.3365      2.00000
    519       3.3466      2.00000
    520       3.4111      2.00000
    521       3.4228      2.00000
    522       3.4291      1.99999
    523       3.4374      1.99998
    524       3.4402      1.99997
    525       3.4744      1.99861
    526       3.5245      1.92493
    527       3.5553      1.63574
    528       3.6781      0.01027
    529       7.0314      0.00000
    530       7.0461      0.00000
    531       8.3786      0.00000
    532       8.4069      0.00000
    533       9.0062      0.00000
    534       9.0407      0.00000
    535       9.5072      0.00000
    536       9.5474      0.00000
    537       9.6731      0.00000
    538       9.6853      0.00000
    539       9.6961      0.00000
    540       9.7011      0.00000
    541       9.8002      0.00000
    542       9.8315      0.00000
    543       9.9283      0.00000
    544       9.9559      0.00000
    545       9.9742      0.00000
    546       9.9807      0.00000
    547       9.9862      0.00000
    548       9.9898      0.00000
    549       9.9915      0.00000
    550      10.0114      0.00000
    551      10.0256      0.00000
    552      10.0497      0.00000
    553      10.1508      0.00000
    554      10.1681      0.00000
    555      10.1739      0.00000
    556      10.1944      0.00000
    557      10.2028      0.00000
    558      10.2493      0.00000
    559      10.3383      0.00000
    560      10.3570      0.00000
    561      10.3765      0.00000
    562      10.3990      0.00000
    563      10.6279      0.00000
    564      10.6504      0.00000
    565      11.0033      0.00000
    566      11.0333      0.00000
    567      11.1308      0.00000
    568      11.1582      0.00000
    569      11.1896      0.00000
    570      11.2043      0.00000
    571      11.2758      0.00000
    572      11.2943      0.00000
    573      11.3178      0.00000
    574      11.3183      0.00000
    575      11.4255      0.00000
    576      11.4418      0.00000
    577      11.5715      0.00000
    578      11.6245      0.00000
    579      11.6368      0.00000
    580      11.6603      0.00000
    581      12.2701      0.00000
    582      12.3075      0.00000
    583      12.3218      0.00000
    584      12.3473      0.00000
    585      12.3702      0.00000
    586      12.4385      0.00000
    587      12.4609      0.00000
    588      12.4724      0.00000
    589      12.5819      0.00000
    590      12.5985      0.00000
    591      12.6141      0.00000
    592      12.6273      0.00000
    593      12.9873      0.00000
    594      13.0162      0.00000
    595      13.0414      0.00000
    596      13.0488      0.00000
    597      13.0582      0.00000
    598      13.0608      0.00000
    599      13.0735      0.00000
    600      13.0791      0.00000
    601      13.0904      0.00000
    602      13.1428      0.00000
    603      13.1643      0.00000
    604      13.1796      0.00000
    605      13.3387      0.00000
    606      13.3862      0.00000
    607      13.3957      0.00000
    608      13.3971      0.00000
    609      13.5212      0.00000
    610      13.5348      0.00000
    611      13.5408      0.00000
    612      13.5440      0.00000
    613      13.5742      0.00000
    614      13.5869      0.00000
    615      13.5951      0.00000
    616      13.6178      0.00000
    617      13.6473      0.00000
    618      13.6657      0.00000
    619      13.6767      0.00000
    620      13.6783      0.00000
    621      14.0454      0.00000
    622      14.0593      0.00000
    623      14.0759      0.00000
    624      14.0792      0.00000
    625      14.2041      0.00000
    626      14.2190      0.00000
    627      14.2474      0.00000
    628      14.2553      0.00000
    629      14.6038      0.00000
    630      14.6172      0.00000

 k-point     6 :       0.5000    0.0000    0.5000
  band No.  band energies     occupation 
      1     -14.9420      2.00000
      2     -14.9326      2.00000
      3     -14.8366      2.00000
      4     -14.8194      2.00000
      5     -14.4064      2.00000
      6     -14.3875      2.00000
      7     -14.3556      2.00000
      8     -14.3251      2.00000
      9     -14.3210      2.00000
     10     -14.3118      2.00000
     11     -14.2749      2.00000
     12     -14.2642      2.00000
     13     -14.2587      2.00000
     14     -14.2493      2.00000
     15     -14.1795      2.00000
     16     -14.1315      2.00000
     17     -14.1157      2.00000
     18     -14.1096      2.00000
     19     -14.1038      2.00000
     20     -14.0952      2.00000
     21     -14.0064      2.00000
     22     -13.9988      2.00000
     23     -13.9964      2.00000
     24     -13.9800      2.00000
     25     -13.9299      2.00000
     26     -13.8806      2.00000
     27     -13.8684      2.00000
     28     -13.8671      2.00000
     29     -13.8570      2.00000
     30     -13.8320      2.00000
     31     -13.8265      2.00000
     32     -13.8218      2.00000
     33     -13.8213      2.00000
     34     -13.8204      2.00000
     35     -13.8124      2.00000
     36     -13.8100      2.00000
     37     -13.7666      2.00000
     38     -13.7172      2.00000
     39     -13.6104      2.00000
     40     -13.5928      2.00000
     41     -13.5804      2.00000
     42     -13.5553      2.00000
     43     -13.5518      2.00000
     44     -13.5464      2.00000
     45     -13.5125      2.00000
     46     -13.5071      2.00000
     47     -13.5050      2.00000
     48     -13.5047      2.00000
     49     -13.5036      2.00000
     50     -13.4936      2.00000
     51     -13.4772      2.00000
     52     -13.4697      2.00000
     53     -13.4508      2.00000
     54     -13.4440      2.00000
     55     -13.4327      2.00000
     56     -13.4327      2.00000
     57     -13.4299      2.00000
     58     -13.4262      2.00000
     59     -13.4228      2.00000
     60     -13.4145      2.00000
     61     -13.3647      2.00000
     62     -13.3644      2.00000
     63     -13.3421      2.00000
     64     -13.3297      2.00000
     65     -13.3221      2.00000
     66     -13.3183      2.00000
     67     -13.3096      2.00000
     68     -13.3038      2.00000
     69     -13.2887      2.00000
     70     -13.2708      2.00000
     71     -13.2608      2.00000
     72     -10.5073      2.00000
     73      -9.0939      2.00000
     74      -9.0908      2.00000
     75      -9.0826      2.00000
     76      -9.0764      2.00000
     77      -9.0660      2.00000
     78      -9.0486      2.00000
     79      -9.0426      2.00000
     80      -9.0327      2.00000
     81      -9.0316      2.00000
     82      -9.0278      2.00000
     83      -9.0248      2.00000
     84      -9.0229      2.00000
     85      -9.0179      2.00000
     86      -9.0092      2.00000
     87      -8.9966      2.00000
     88      -8.9918      2.00000
     89      -8.9848      2.00000
     90      -8.9756      2.00000
     91      -8.9738      2.00000
     92      -8.9724      2.00000
     93      -8.9678      2.00000
     94      -8.9599      2.00000
     95      -8.9580      2.00000
     96      -8.9488      2.00000
     97      -8.9478      2.00000
     98      -8.9441      2.00000
     99      -8.9439      2.00000
    100      -8.9396      2.00000
    101      -8.9375      2.00000
    102      -8.9327      2.00000
    103      -8.9253      2.00000
    104      -8.9223      2.00000
    105      -8.9202      2.00000
    106      -8.9188      2.00000
    107      -8.9143      2.00000
    108      -8.9134      2.00000
    109      -8.9129      2.00000
    110      -8.9124      2.00000
    111      -8.9056      2.00000
    112      -8.9023      2.00000
    113      -8.8998      2.00000
    114      -8.8978      2.00000
    115      -8.8976      2.00000
    116      -8.8911      2.00000
    117      -8.8872      2.00000
    118      -8.8869      2.00000
    119      -8.8837      2.00000
    120      -8.8836      2.00000
    121      -8.8821      2.00000
    122      -8.8756      2.00000
    123      -8.8741      2.00000
    124      -8.8726      2.00000
    125      -8.8685      2.00000
    126      -8.8674      2.00000
    127      -8.8669      2.00000
    128      -8.8637      2.00000
    129      -8.8635      2.00000
    130      -8.8629      2.00000
    131      -8.8569      2.00000
    132      -8.8557      2.00000
    133      -8.8518      2.00000
    134      -8.8483      2.00000
    135      -8.8458      2.00000
    136      -8.8447      2.00000
    137      -8.8435      2.00000
    138      -8.8409      2.00000
    139      -8.8359      2.00000
    140      -8.8356      2.00000
    141      -8.8341      2.00000
    142      -8.8280      2.00000
    143      -8.8263      2.00000
    144      -8.8255      2.00000
    145      -8.8245      2.00000
    146      -8.8223      2.00000
    147      -8.8218      2.00000
    148      -8.8174      2.00000
    149      -8.8146      2.00000
    150      -8.8119      2.00000
    151      -8.8088      2.00000
    152      -8.8085      2.00000
    153      -8.8080      2.00000
    154      -8.8063      2.00000
    155      -8.8050      2.00000
    156      -8.8007      2.00000
    157      -8.8006      2.00000
    158      -8.7961      2.00000
    159      -8.7955      2.00000
    160      -8.7951      2.00000
    161      -8.7919      2.00000
    162      -8.7912      2.00000
    163      -8.7904      2.00000
    164      -8.7880      2.00000
    165      -8.7865      2.00000
    166      -8.7861      2.00000
    167      -8.7860      2.00000
    168      -8.7770      2.00000
    169      -8.7754      2.00000
    170      -8.7705      2.00000
    171      -8.7622      2.00000
    172      -8.7615      2.00000
    173      -8.7588      2.00000
    174      -8.7561      2.00000
    175      -8.7534      2.00000
    176      -8.7533      2.00000
    177      -8.7486      2.00000
    178      -8.7473      2.00000
    179      -8.7420      2.00000
    180      -8.7387      2.00000
    181      -8.7373      2.00000
    182      -8.7352      2.00000
    183      -8.7214      2.00000
    184      -8.7183      2.00000
    185      -8.7117      2.00000
    186      -8.7093      2.00000
    187      -8.7086      2.00000
    188      -8.7039      2.00000
    189      -8.7003      2.00000
    190      -8.6999      2.00000
    191      -8.6957      2.00000
    192      -8.6832      2.00000
    193      -8.6815      2.00000
    194      -8.6756      2.00000
    195      -8.6746      2.00000
    196      -8.6732      2.00000
    197      -8.6707      2.00000
    198      -8.6695      2.00000
    199      -8.6687      2.00000
    200      -8.6593      2.00000
    201      -8.6530      2.00000
    202      -8.6519      2.00000
    203      -8.6512      2.00000
    204      -8.6499      2.00000
    205      -8.6484      2.00000
    206      -8.6477      2.00000
    207      -8.6458      2.00000
    208      -8.6351      2.00000
    209      -8.6343      2.00000
    210      -8.6296      2.00000
    211      -8.6125      2.00000
    212      -8.6085      2.00000
    213      -8.5992      2.00000
    214      -8.5982      2.00000
    215      -8.5959      2.00000
    216      -8.5911      2.00000
    217      -8.5883      2.00000
    218      -8.5837      2.00000
    219      -8.5821      2.00000
    220      -8.5794      2.00000
    221      -8.5771      2.00000
    222      -8.5710      2.00000
    223      -8.5690      2.00000
    224      -8.5660      2.00000
    225      -8.5655      2.00000
    226      -8.5621      2.00000
    227      -8.5597      2.00000
    228      -8.5482      2.00000
    229      -8.5477      2.00000
    230      -8.5463      2.00000
    231      -8.5450      2.00000
    232      -8.5428      2.00000
    233      -8.5410      2.00000
    234      -8.5409      2.00000
    235      -8.5382      2.00000
    236      -8.5375      2.00000
    237      -8.5356      2.00000
    238      -8.5308      2.00000
    239      -8.5290      2.00000
    240      -8.5284      2.00000
    241      -8.5283      2.00000
    242      -8.5260      2.00000
    243      -8.5226      2.00000
    244      -8.5211      2.00000
    245      -8.5155      2.00000
    246      -8.5142      2.00000
    247      -8.5123      2.00000
    248      -8.5094      2.00000
    249      -8.5075      2.00000
    250      -8.5050      2.00000
    251      -8.5029      2.00000
    252      -8.4996      2.00000
    253      -8.4987      2.00000
    254      -8.4948      2.00000
    255      -8.4918      2.00000
    256      -8.4895      2.00000
    257      -8.4890      2.00000
    258      -8.4864      2.00000
    259      -8.4839      2.00000
    260      -8.4822      2.00000
    261      -8.4756      2.00000
    262      -8.4752      2.00000
    263      -8.4645      2.00000
    264      -8.4583      2.00000
    265      -8.4526      2.00000
    266      -8.4514      2.00000
    267      -8.4503      2.00000
    268      -8.4461      2.00000
    269      -8.4444      2.00000
    270      -8.4441      2.00000
    271      -8.4349      2.00000
    272      -8.4308      2.00000
    273      -8.3773      2.00000
    274      -8.3743      2.00000
    275      -8.3733      2.00000
    276      -8.3708      2.00000
    277      -8.3401      2.00000
    278      -8.3308      2.00000
    279      -8.3208      2.00000
    280      -8.3082      2.00000
    281      -8.3047      2.00000
    282      -8.3023      2.00000
    283      -8.2182      2.00000
    284      -8.2107      2.00000
    285      -8.2068      2.00000
    286      -8.1825      2.00000
    287      -8.1412      2.00000
    288      -8.1223      2.00000
    289      -8.0458      2.00000
    290      -8.0420      2.00000
    291      -8.0377      2.00000
    292      -8.0372      2.00000
    293      -8.0259      2.00000
    294      -8.0170      2.00000
    295      -8.0141      2.00000
    296      -8.0057      2.00000
    297      -7.9858      2.00000
    298      -7.9767      2.00000
    299      -7.9563      2.00000
    300      -7.9511      2.00000
    301      -7.9498      2.00000
    302      -7.9467      2.00000
    303      -7.9350      2.00000
    304      -7.9279      2.00000
    305      -7.9240      2.00000
    306      -7.8641      2.00000
    307      -7.8281      2.00000
    308      -7.8255      2.00000
    309      -7.8250      2.00000
    310      -7.7980      2.00000
    311      -7.7935      2.00000
    312      -7.4166      2.00000
    313      -2.9962      2.00000
    314      -2.9860      2.00000
    315      -2.6134      2.00000
    316      -2.5945      2.00000
    317      -2.5877      2.00000
    318      -2.5817      2.00000
    319      -2.5737      2.00000
    320      -2.5729      2.00000
    321      -2.5366      2.00000
    322      -2.5349      2.00000
    323      -2.5279      2.00000
    324      -2.5243      2.00000
    325      -2.3170      2.00000
    326      -2.3073      2.00000
    327      -2.3064      2.00000
    328      -2.2878      2.00000
    329      -2.1877      2.00000
    330      -2.1750      2.00000
    331      -2.1676      2.00000
    332      -2.1645      2.00000
    333      -2.1030      2.00000
    334      -2.0983      2.00000
    335      -2.0965      2.00000
    336      -2.0799      2.00000
    337      -1.9718      2.00000
    338      -1.9683      2.00000
    339      -1.9030      2.00000
    340      -1.9024      2.00000
    341      -1.8966      2.00000
    342      -1.8837      2.00000
    343      -1.8708      2.00000
    344      -1.8495      2.00000
    345      -1.4031      2.00000
    346      -1.3871      2.00000
    347      -1.2785      2.00000
    348      -1.2755      2.00000
    349      -1.2713      2.00000
    350      -1.2594      2.00000
    351      -1.2508      2.00000
    352      -1.2206      2.00000
    353      -1.1913      2.00000
    354      -1.1909      2.00000
    355      -1.1825      2.00000
    356      -1.1649      2.00000
    357      -0.8358      2.00000
    358      -0.8300      2.00000
    359      -0.8211      2.00000
    360      -0.8149      2.00000
    361      -0.6377      2.00000
    362      -0.6357      2.00000
    363      -0.6140      2.00000
    364      -0.6081      2.00000
    365      -0.4675      2.00000
    366      -0.4658      2.00000
    367      -0.4642      2.00000
    368      -0.4489      2.00000
    369      -0.3021      2.00000
    370      -0.2773      2.00000
    371      -0.1463      2.00000
    372      -0.1364      2.00000
    373      -0.1352      2.00000
    374      -0.1312      2.00000
    375       0.0286      2.00000
    376       0.0453      2.00000
    377       0.0530      2.00000
    378       0.0582      2.00000
    379       0.0814      2.00000
    380       0.0832      2.00000
    381       0.0980      2.00000
    382       0.1104      2.00000
    383       0.1386      2.00000
    384       0.1468      2.00000
    385       0.1812      2.00000
    386       0.1905      2.00000
    387       0.3205      2.00000
    388       0.3213      2.00000
    389       0.3277      2.00000
    390       0.3294      2.00000
    391       0.4156      2.00000
    392       0.4213      2.00000
    393       0.4293      2.00000
    394       0.4299      2.00000
    395       0.4866      2.00000
    396       0.4918      2.00000
    397       0.4961      2.00000
    398       0.5020      2.00000
    399       0.5679      2.00000
    400       0.5824      2.00000
    401       0.7945      2.00000
    402       0.8176      2.00000
    403       0.8261      2.00000
    404       0.8333      2.00000
    405       0.8509      2.00000
    406       0.8615      2.00000
    407       0.8834      2.00000
    408       0.8950      2.00000
    409       0.9064      2.00000
    410       0.9220      2.00000
    411       1.0011      2.00000
    412       1.0182      2.00000
    413       1.1982      2.00000
    414       1.2055      2.00000
    415       1.2069      2.00000
    416       1.2464      2.00000
    417       1.3124      2.00000
    418       1.3173      2.00000
    419       1.3180      2.00000
    420       1.3579      2.00000
    421       1.4204      2.00000
    422       1.4295      2.00000
    423       1.4662      2.00000
    424       1.4719      2.00000
    425       1.4861      2.00000
    426       1.4934      2.00000
    427       1.4971      2.00000
    428       1.5284      2.00000
    429       1.5565      2.00000
    430       1.5732      2.00000
    431       1.6069      2.00000
    432       1.6143      2.00000
    433       1.6185      2.00000
    434       1.6413      2.00000
    435       1.6431      2.00000
    436       1.6627      2.00000
    437       1.6848      2.00000
    438       1.6936      2.00000
    439       1.7695      2.00000
    440       1.7734      2.00000
    441       1.7810      2.00000
    442       1.7838      2.00000
    443       1.8132      2.00000
    444       1.8470      2.00000
    445       1.9273      2.00000
    446       1.9362      2.00000
    447       1.9400      2.00000
    448       1.9702      2.00000
    449       1.9754      2.00000
    450       1.9834      2.00000
    451       2.0337      2.00000
    452       2.0687      2.00000
    453       2.1990      2.00000
    454       2.2099      2.00000
    455       2.2250      2.00000
    456       2.2414      2.00000
    457       2.2751      2.00000
    458       2.2981      2.00000
    459       2.3063      2.00000
    460       2.3097      2.00000
    461       2.3132      2.00000
    462       2.3203      2.00000
    463       2.3226      2.00000
    464       2.3287      2.00000
    465       2.3736      2.00000
    466       2.3830      2.00000
    467       2.4378      2.00000
    468       2.4464      2.00000
    469       2.5041      2.00000
    470       2.5292      2.00000
    471       2.5341      2.00000
    472       2.5634      2.00000
    473       2.5850      2.00000
    474       2.6205      2.00000
    475       2.6329      2.00000
    476       2.6465      2.00000
    477       2.6485      2.00000
    478       2.6493      2.00000
    479       2.6801      2.00000
    480       2.7183      2.00000
    481       2.7398      2.00000
    482       2.7614      2.00000
    483       2.7645      2.00000
    484       2.7869      2.00000
    485       2.7911      2.00000
    486       2.8002      2.00000
    487       2.8725      2.00000
    488       2.8870      2.00000
    489       2.8954      2.00000
    490       2.8984      2.00000
    491       2.9226      2.00000
    492       2.9366      2.00000
    493       2.9645      2.00000
    494       2.9713      2.00000
    495       2.9728      2.00000
    496       2.9798      2.00000
    497       2.9978      2.00000
    498       3.0063      2.00000
    499       3.0673      2.00000
    500       3.0726      2.00000
    501       3.0916      2.00000
    502       3.0989      2.00000
    503       3.1011      2.00000
    504       3.1253      2.00000
    505       3.1308      2.00000
    506       3.1374      2.00000
    507       3.1504      2.00000
    508       3.1805      2.00000
    509       3.1844      2.00000
    510       3.1906      2.00000
    511       3.1944      2.00000
    512       3.1985      2.00000
    513       3.2059      2.00000
    514       3.2102      2.00000
    515       3.2757      2.00000
    516       3.3474      2.00000
    517       3.3538      2.00000
    518       3.3781      2.00000
    519       3.3831      2.00000
    520       3.3884      2.00000
    521       3.3902      2.00000
    522       3.4003      2.00000
    523       3.4677      1.99929
    524       3.4810      1.99738
    525       3.5380      1.83753
    526       3.5696      1.38566
    527       3.5815      1.13296
    528       3.6986      0.00165
    529       7.3034      0.00000
    530       7.3351      0.00000
    531       7.8138      0.00000
    532       7.8375      0.00000
    533       9.3370      0.00000
    534       9.3487      0.00000
    535       9.4860      0.00000
    536       9.5114      0.00000
    537       9.7132      0.00000
    538       9.7467      0.00000
    539       9.7558      0.00000
    540       9.7617      0.00000
    541       9.7756      0.00000
    542       9.7975      0.00000
    543       9.7987      0.00000
    544       9.8034      0.00000
    545       9.8134      0.00000
    546       9.8249      0.00000
    547       9.8445      0.00000
    548       9.8701      0.00000
    549       9.8716      0.00000
    550       9.9221      0.00000
    551      10.1457      0.00000
    552      10.1685      0.00000
    553      10.1766      0.00000
    554      10.2164      0.00000
    555      10.2755      0.00000
    556      10.3130      0.00000
    557      10.3188      0.00000
    558      10.3306      0.00000
    559      10.4876      0.00000
    560      10.5169      0.00000
    561      10.6247      0.00000
    562      10.6317      0.00000
    563      10.6563      0.00000
    564      10.6849      0.00000
    565      10.8969      0.00000
    566      10.9097      0.00000
    567      10.9143      0.00000
    568      10.9162      0.00000
    569      10.9559      0.00000
    570      11.0144      0.00000
    571      11.4577      0.00000
    572      11.4848      0.00000
    573      11.4972      0.00000
    574      11.5155      0.00000
    575      11.6214      0.00000
    576      11.6364      0.00000
    577      11.6396      0.00000
    578      11.6520      0.00000
    579      11.6551      0.00000
    580      11.6844      0.00000
    581      12.0642      0.00000
    582      12.0919      0.00000
    583      12.2853      0.00000
    584      12.3012      0.00000
    585      12.4522      0.00000
    586      12.4599      0.00000
    587      12.4644      0.00000
    588      12.5082      0.00000
    589      12.6029      0.00000
    590      12.6131      0.00000
    591      12.6205      0.00000
    592      12.6429      0.00000
    593      12.8319      0.00000
    594      12.8326      0.00000
    595      12.8464      0.00000
    596      12.8860      0.00000
    597      12.8979      0.00000
    598      12.8981      0.00000
    599      12.8984      0.00000
    600      12.9101      0.00000
    601      13.0095      0.00000
    602      13.0285      0.00000
    603      13.1674      0.00000
    604      13.1738      0.00000
    605      13.4063      0.00000
    606      13.4105      0.00000
    607      13.4243      0.00000
    608      13.4392      0.00000
    609      13.4591      0.00000
    610      13.4727      0.00000
    611      13.4728      0.00000
    612      13.4995      0.00000
    613      13.5416      0.00000
    614      13.5563      0.00000
    615      13.6070      0.00000
    616      13.6293      0.00000
    617      13.7978      0.00000
    618      13.8183      0.00000
    619      13.8316      0.00000
    620      13.8534      0.00000
    621      14.0106      0.00000
    622      14.0169      0.00000
    623      14.0307      0.00000
    624      14.0567      0.00000
    625      14.4776      0.00000
    626      14.5030      0.00000
    627      14.5208      0.00000
    628      14.5553      0.00000
    629      14.6671      0.00000
    630      14.6878      0.00000

 k-point     7 :       0.0000    0.5000    0.5000
  band No.  band energies     occupation 
      1     -14.8201      2.00000
      2     -14.8075      2.00000
      3     -14.7951      2.00000
      4     -14.7880      2.00000
      5     -14.5726      2.00000
      6     -14.5506      2.00000
      7     -14.5373      2.00000
      8     -14.5307      2.00000
      9     -14.3829      2.00000
     10     -14.3545      2.00000
     11     -14.3542      2.00000
     12     -14.3528      2.00000
     13     -14.1397      2.00000
     14     -14.1195      2.00000
     15     -14.1185      2.00000
     16     -14.1089      2.00000
     17     -14.0539      2.00000
     18     -14.0398      2.00000
     19     -14.0370      2.00000
     20     -14.0156      2.00000
     21     -14.0086      2.00000
     22     -14.0076      2.00000
     23     -14.0045      2.00000
     24     -13.9966      2.00000
     25     -13.9284      2.00000
     26     -13.9200      2.00000
     27     -13.9092      2.00000
     28     -13.9038      2.00000
     29     -13.8419      2.00000
     30     -13.8187      2.00000
     31     -13.8069      2.00000
     32     -13.8054      2.00000
     33     -13.7254      2.00000
     34     -13.7207      2.00000
     35     -13.6811      2.00000
     36     -13.6731      2.00000
     37     -13.6575      2.00000
     38     -13.6427      2.00000
     39     -13.6407      2.00000
     40     -13.6337      2.00000
     41     -13.6290      2.00000
     42     -13.6232      2.00000
     43     -13.6230      2.00000
     44     -13.6197      2.00000
     45     -13.5984      2.00000
     46     -13.5943      2.00000
     47     -13.5758      2.00000
     48     -13.5420      2.00000
     49     -13.4865      2.00000
     50     -13.4828      2.00000
     51     -13.4783      2.00000
     52     -13.4651      2.00000
     53     -13.4392      2.00000
     54     -13.4378      2.00000
     55     -13.4346      2.00000
     56     -13.4325      2.00000
     57     -13.4239      2.00000
     58     -13.4051      2.00000
     59     -13.3815      2.00000
     60     -13.3813      2.00000
     61     -13.3729      2.00000
     62     -13.3644      2.00000
     63     -13.3587      2.00000
     64     -13.3551      2.00000
     65     -13.3295      2.00000
     66     -13.3079      2.00000
     67     -13.2988      2.00000
     68     -13.2839      2.00000
     69     -13.2818      2.00000
     70     -13.2769      2.00000
     71     -13.2707      2.00000
     72     -10.5054      2.00000
     73      -9.0859      2.00000
     74      -9.0835      2.00000
     75      -9.0835      2.00000
     76      -9.0670      2.00000
     77      -9.0641      2.00000
     78      -9.0555      2.00000
     79      -9.0356      2.00000
     80      -9.0323      2.00000
     81      -9.0206      2.00000
     82      -9.0186      2.00000
     83      -9.0171      2.00000
     84      -9.0156      2.00000
     85      -9.0142      2.00000
     86      -9.0127      2.00000
     87      -9.0099      2.00000
     88      -9.0046      2.00000
     89      -9.0020      2.00000
     90      -8.9919      2.00000
     91      -8.9842      2.00000
     92      -8.9791      2.00000
     93      -8.9684      2.00000
     94      -8.9678      2.00000
     95      -8.9635      2.00000
     96      -8.9601      2.00000
     97      -8.9588      2.00000
     98      -8.9472      2.00000
     99      -8.9464      2.00000
    100      -8.9429      2.00000
    101      -8.9428      2.00000
    102      -8.9419      2.00000
    103      -8.9373      2.00000
    104      -8.9372      2.00000
    105      -8.9325      2.00000
    106      -8.9320      2.00000
    107      -8.9275      2.00000
    108      -8.9246      2.00000
    109      -8.9208      2.00000
    110      -8.9181      2.00000
    111      -8.9175      2.00000
    112      -8.9159      2.00000
    113      -8.9071      2.00000
    114      -8.9065      2.00000
    115      -8.9044      2.00000
    116      -8.9023      2.00000
    117      -8.8983      2.00000
    118      -8.8965      2.00000
    119      -8.8945      2.00000
    120      -8.8925      2.00000
    121      -8.8894      2.00000
    122      -8.8838      2.00000
    123      -8.8821      2.00000
    124      -8.8800      2.00000
    125      -8.8782      2.00000
    126      -8.8755      2.00000
    127      -8.8691      2.00000
    128      -8.8681      2.00000
    129      -8.8670      2.00000
    130      -8.8663      2.00000
    131      -8.8656      2.00000
    132      -8.8619      2.00000
    133      -8.8618      2.00000
    134      -8.8597      2.00000
    135      -8.8583      2.00000
    136      -8.8569      2.00000
    137      -8.8540      2.00000
    138      -8.8513      2.00000
    139      -8.8495      2.00000
    140      -8.8468      2.00000
    141      -8.8451      2.00000
    142      -8.8323      2.00000
    143      -8.8316      2.00000
    144      -8.8312      2.00000
    145      -8.8237      2.00000
    146      -8.8203      2.00000
    147      -8.8199      2.00000
    148      -8.8153      2.00000
    149      -8.8122      2.00000
    150      -8.8048      2.00000
    151      -8.8041      2.00000
    152      -8.8020      2.00000
    153      -8.8014      2.00000
    154      -8.7980      2.00000
    155      -8.7971      2.00000
    156      -8.7920      2.00000
    157      -8.7906      2.00000
    158      -8.7882      2.00000
    159      -8.7876      2.00000
    160      -8.7872      2.00000
    161      -8.7831      2.00000
    162      -8.7807      2.00000
    163      -8.7800      2.00000
    164      -8.7742      2.00000
    165      -8.7714      2.00000
    166      -8.7711      2.00000
    167      -8.7692      2.00000
    168      -8.7681      2.00000
    169      -8.7612      2.00000
    170      -8.7608      2.00000
    171      -8.7529      2.00000
    172      -8.7509      2.00000
    173      -8.7480      2.00000
    174      -8.7472      2.00000
    175      -8.7422      2.00000
    176      -8.7387      2.00000
    177      -8.7367      2.00000
    178      -8.7358      2.00000
    179      -8.7355      2.00000
    180      -8.7316      2.00000
    181      -8.7309      2.00000
    182      -8.7293      2.00000
    183      -8.7269      2.00000
    184      -8.7263      2.00000
    185      -8.7187      2.00000
    186      -8.7181      2.00000
    187      -8.7147      2.00000
    188      -8.7128      2.00000
    189      -8.6938      2.00000
    190      -8.6910      2.00000
    191      -8.6901      2.00000
    192      -8.6879      2.00000
    193      -8.6874      2.00000
    194      -8.6852      2.00000
    195      -8.6841      2.00000
    196      -8.6814      2.00000
    197      -8.6776      2.00000
    198      -8.6747      2.00000
    199      -8.6717      2.00000
    200      -8.6688      2.00000
    201      -8.6675      2.00000
    202      -8.6651      2.00000
    203      -8.6645      2.00000
    204      -8.6631      2.00000
    205      -8.6224      2.00000
    206      -8.6173      2.00000
    207      -8.6142      2.00000
    208      -8.6100      2.00000
    209      -8.6041      2.00000
    210      -8.6039      2.00000
    211      -8.5993      2.00000
    212      -8.5988      2.00000
    213      -8.5979      2.00000
    214      -8.5926      2.00000
    215      -8.5916      2.00000
    216      -8.5903      2.00000
    217      -8.5862      2.00000
    218      -8.5835      2.00000
    219      -8.5821      2.00000
    220      -8.5801      2.00000
    221      -8.5727      2.00000
    222      -8.5602      2.00000
    223      -8.5593      2.00000
    224      -8.5563      2.00000
    225      -8.5529      2.00000
    226      -8.5487      2.00000
    227      -8.5475      2.00000
    228      -8.5448      2.00000
    229      -8.5427      2.00000
    230      -8.5392      2.00000
    231      -8.5379      2.00000
    232      -8.5374      2.00000
    233      -8.5355      2.00000
    234      -8.5334      2.00000
    235      -8.5332      2.00000
    236      -8.5314      2.00000
    237      -8.5307      2.00000
    238      -8.5298      2.00000
    239      -8.5244      2.00000
    240      -8.5216      2.00000
    241      -8.5196      2.00000
    242      -8.5130      2.00000
    243      -8.5117      2.00000
    244      -8.5098      2.00000
    245      -8.5097      2.00000
    246      -8.5050      2.00000
    247      -8.5048      2.00000
    248      -8.5027      2.00000
    249      -8.5006      2.00000
    250      -8.4963      2.00000
    251      -8.4947      2.00000
    252      -8.4939      2.00000
    253      -8.4866      2.00000
    254      -8.4842      2.00000
    255      -8.4811      2.00000
    256      -8.4791      2.00000
    257      -8.4769      2.00000
    258      -8.4753      2.00000
    259      -8.4739      2.00000
    260      -8.4730      2.00000
    261      -8.4655      2.00000
    262      -8.4647      2.00000
    263      -8.4622      2.00000
    264      -8.4595      2.00000
    265      -8.4587      2.00000
    266      -8.4546      2.00000
    267      -8.4534      2.00000
    268      -8.4504      2.00000
    269      -8.3981      2.00000
    270      -8.3908      2.00000
    271      -8.3887      2.00000
    272      -8.3887      2.00000
    273      -8.3657      2.00000
    274      -8.3577      2.00000
    275      -8.3435      2.00000
    276      -8.3417      2.00000
    277      -8.3400      2.00000
    278      -8.3370      2.00000
    279      -8.3339      2.00000
    280      -8.3225      2.00000
    281      -8.2978      2.00000
    282      -8.2838      2.00000
    283      -8.2820      2.00000
    284      -8.2669      2.00000
    285      -8.2526      2.00000
    286      -8.2349      2.00000
    287      -8.2253      2.00000
    288      -8.2168      2.00000
    289      -8.1461      2.00000
    290      -8.1301      2.00000
    291      -8.1211      2.00000
    292      -8.1125      2.00000
    293      -8.0839      2.00000
    294      -8.0698      2.00000
    295      -8.0687      2.00000
    296      -8.0515      2.00000
    297      -8.0277      2.00000
    298      -8.0131      2.00000
    299      -8.0123      2.00000
    300      -7.9814      2.00000
    301      -7.8946      2.00000
    302      -7.8716      2.00000
    303      -7.8456      2.00000
    304      -7.8391      2.00000
    305      -7.8289      2.00000
    306      -7.8210      2.00000
    307      -7.8199      2.00000
    308      -7.7955      2.00000
    309      -7.7680      2.00000
    310      -7.7623      2.00000
    311      -7.7569      2.00000
    312      -7.3974      2.00000
    313      -2.8001      2.00000
    314      -2.7828      2.00000
    315      -2.7810      2.00000
    316      -2.7758      2.00000
    317      -2.7741      2.00000
    318      -2.7618      2.00000
    319      -2.7617      2.00000
    320      -2.7470      2.00000
    321      -2.6031      2.00000
    322      -2.5872      2.00000
    323      -2.5731      2.00000
    324      -2.5713      2.00000
    325      -2.5573      2.00000
    326      -2.5492      2.00000
    327      -2.5371      2.00000
    328      -2.5368      2.00000
    329      -2.3691      2.00000
    330      -2.3572      2.00000
    331      -2.3482      2.00000
    332      -2.3352      2.00000
    333      -2.0094      2.00000
    334      -2.0024      2.00000
    335      -1.9990      2.00000
    336      -1.9857      2.00000
    337      -1.8273      2.00000
    338      -1.8168      2.00000
    339      -1.8142      2.00000
    340      -1.7978      2.00000
    341      -1.7854      2.00000
    342      -1.7843      2.00000
    343      -1.7732      2.00000
    344      -1.7697      2.00000
    345      -1.5403      2.00000
    346      -1.5349      2.00000
    347      -1.5258      2.00000
    348      -1.5232      2.00000
    349      -1.0969      2.00000
    350      -1.0914      2.00000
    351      -1.0895      2.00000
    352      -1.0833      2.00000
    353      -0.9584      2.00000
    354      -0.9501      2.00000
    355      -0.9462      2.00000
    356      -0.9224      2.00000
    357      -0.5829      2.00000
    358      -0.5702      2.00000
    359      -0.5699      2.00000
    360      -0.5406      2.00000
    361      -0.4956      2.00000
    362      -0.4908      2.00000
    363      -0.4849      2.00000
    364      -0.4694      2.00000
    365      -0.4593      2.00000
    366      -0.4436      2.00000
    367      -0.4432      2.00000
    368      -0.4426      2.00000
    369      -0.1174      2.00000
    370      -0.0996      2.00000
    371      -0.0973      2.00000
    372      -0.0773      2.00000
    373      -0.0075      2.00000
    374       0.0032      2.00000
    375       0.0140      2.00000
    376       0.0147      2.00000
    377       0.0578      2.00000
    378       0.0646      2.00000
    379       0.0828      2.00000
    380       0.0846      2.00000
    381       0.1072      2.00000
    382       0.1143      2.00000
    383       0.1264      2.00000
    384       0.1310      2.00000
    385       0.2657      2.00000
    386       0.2739      2.00000
    387       0.2814      2.00000
    388       0.2870      2.00000
    389       0.4928      2.00000
    390       0.4969      2.00000
    391       0.5076      2.00000
    392       0.5100      2.00000
    393       0.5110      2.00000
    394       0.5157      2.00000
    395       0.5288      2.00000
    396       0.5483      2.00000
    397       0.6104      2.00000
    398       0.6193      2.00000
    399       0.6320      2.00000
    400       0.6352      2.00000
    401       0.7895      2.00000
    402       0.7935      2.00000
    403       0.8294      2.00000
    404       0.8335      2.00000
    405       0.8433      2.00000
    406       0.8472      2.00000
    407       0.8540      2.00000
    408       0.8590      2.00000
    409       0.9973      2.00000
    410       1.0319      2.00000
    411       1.0444      2.00000
    412       1.0458      2.00000
    413       1.0503      2.00000
    414       1.0536      2.00000
    415       1.0606      2.00000
    416       1.0623      2.00000
    417       1.0913      2.00000
    418       1.1023      2.00000
    419       1.1062      2.00000
    420       1.1164      2.00000
    421       1.1470      2.00000
    422       1.1514      2.00000
    423       1.1724      2.00000
    424       1.1759      2.00000
    425       1.2965      2.00000
    426       1.3041      2.00000
    427       1.3207      2.00000
    428       1.3319      2.00000
    429       1.6463      2.00000
    430       1.6508      2.00000
    431       1.6589      2.00000
    432       1.6824      2.00000
    433       1.7552      2.00000
    434       1.7665      2.00000
    435       1.7727      2.00000
    436       1.7728      2.00000
    437       1.8554      2.00000
    438       1.8648      2.00000
    439       1.8787      2.00000
    440       1.8789      2.00000
    441       1.8865      2.00000
    442       1.8970      2.00000
    443       1.9041      2.00000
    444       1.9196      2.00000
    445       1.9204      2.00000
    446       1.9242      2.00000
    447       1.9320      2.00000
    448       1.9397      2.00000
    449       1.9552      2.00000
    450       1.9603      2.00000
    451       1.9884      2.00000
    452       2.0503      2.00000
    453       2.1749      2.00000
    454       2.1907      2.00000
    455       2.2033      2.00000
    456       2.2311      2.00000
    457       2.2474      2.00000
    458       2.2659      2.00000
    459       2.2673      2.00000
    460       2.2783      2.00000
    461       2.2810      2.00000
    462       2.2862      2.00000
    463       2.2910      2.00000
    464       2.2929      2.00000
    465       2.2983      2.00000
    466       2.3041      2.00000
    467       2.3341      2.00000
    468       2.3433      2.00000
    469       2.4410      2.00000
    470       2.4489      2.00000
    471       2.4585      2.00000
    472       2.4778      2.00000
    473       2.4855      2.00000
    474       2.4976      2.00000
    475       2.5194      2.00000
    476       2.5209      2.00000
    477       2.5509      2.00000
    478       2.5528      2.00000
    479       2.5708      2.00000
    480       2.5757      2.00000
    481       2.7642      2.00000
    482       2.7756      2.00000
    483       2.7781      2.00000
    484       2.7858      2.00000
    485       2.7931      2.00000
    486       2.7974      2.00000
    487       2.8007      2.00000
    488       2.8027      2.00000
    489       2.8046      2.00000
    490       2.8206      2.00000
    491       2.8389      2.00000
    492       2.8614      2.00000
    493       2.9460      2.00000
    494       2.9509      2.00000
    495       2.9660      2.00000
    496       2.9769      2.00000
    497       2.9951      2.00000
    498       3.0231      2.00000
    499       3.0284      2.00000
    500       3.0573      2.00000
    501       3.0622      2.00000
    502       3.0797      2.00000
    503       3.0938      2.00000
    504       3.1032      2.00000
    505       3.1264      2.00000
    506       3.1289      2.00000
    507       3.1586      2.00000
    508       3.1683      2.00000
    509       3.2152      2.00000
    510       3.2325      2.00000
    511       3.2351      2.00000
    512       3.2526      2.00000
    513       3.2599      2.00000
    514       3.2694      2.00000
    515       3.2751      2.00000
    516       3.2786      2.00000
    517       3.2813      2.00000
    518       3.2890      2.00000
    519       3.3077      2.00000
    520       3.3156      2.00000
    521       3.3537      2.00000
    522       3.3553      2.00000
    523       3.3873      2.00000
    524       3.4909      1.99363
    525       3.6115      0.49596
    526       3.6145      0.44386
    527       3.6194      0.36593
    528       3.7303      0.00005
    529       7.9885      0.00000
    530       7.9937      0.00000
    531       7.9985      0.00000
    532       8.0218      0.00000
    533       8.9322      0.00000
    534       8.9388      0.00000
    535       8.9519      0.00000
    536       8.9810      0.00000
    537       9.4657      0.00000
    538       9.4756      0.00000
    539       9.4869      0.00000
    540       9.5263      0.00000
    541       9.7930      0.00000
    542       9.8336      0.00000
    543       9.8492      0.00000
    544       9.8636      0.00000
    545       9.8712      0.00000
    546       9.8804      0.00000
    547       9.8977      0.00000
    548       9.9254      0.00000
    549      10.2681      0.00000
    550      10.2691      0.00000
    551      10.2898      0.00000
    552      10.3020      0.00000
    553      10.6514      0.00000
    554      10.6563      0.00000
    555      10.6723      0.00000
    556      10.6782      0.00000
    557      10.7903      0.00000
    558      10.8070      0.00000
    559      10.8084      0.00000
    560      10.8298      0.00000
    561      10.8542      0.00000
    562      10.8831      0.00000
    563      10.9115      0.00000
    564      10.9124      0.00000
    565      10.9995      0.00000
    566      11.0062      0.00000
    567      11.0184      0.00000
    568      11.0343      0.00000
    569      11.3109      0.00000
    570      11.3202      0.00000
    571      11.3258      0.00000
    572      11.3454      0.00000
    573      11.4334      0.00000
    574      11.4353      0.00000
    575      11.4535      0.00000
    576      11.4681      0.00000
    577      11.5567      0.00000
    578      11.5672      0.00000
    579      11.5794      0.00000
    580      11.5908      0.00000
    581      11.7313      0.00000
    582      11.7612      0.00000
    583      11.7968      0.00000
    584      11.8357      0.00000
    585      12.1950      0.00000
    586      12.2016      0.00000
    587      12.2202      0.00000
    588      12.2408      0.00000
    589      12.4914      0.00000
    590      12.5165      0.00000
    591      12.5277      0.00000
    592      12.5364      0.00000
    593      12.6792      0.00000
    594      12.6855      0.00000
    595      12.7119      0.00000
    596      12.7340      0.00000
    597      12.7349      0.00000
    598      12.7399      0.00000
    599      12.7607      0.00000
    600      12.7637      0.00000
    601      13.3791      0.00000
    602      13.3869      0.00000
    603      13.3894      0.00000
    604      13.3982      0.00000
    605      13.4057      0.00000
    606      13.4122      0.00000
    607      13.4297      0.00000
    608      13.4448      0.00000
    609      13.6453      0.00000
    610      13.6539      0.00000
    611      13.6560      0.00000
    612      13.6611      0.00000
    613      13.6632      0.00000
    614      13.6741      0.00000
    615      13.7086      0.00000
    616      13.7448      0.00000
    617      13.8672      0.00000
    618      13.8839      0.00000
    619      13.9040      0.00000
    620      13.9072      0.00000
    621      14.2326      0.00000
    622      14.2611      0.00000
    623      14.2732      0.00000
    624      14.2926      0.00000
    625      14.4414      0.00000
    626      14.4651      0.00000
    627      14.5144      0.00000
    628      14.5518      0.00000
    629      14.6919      0.00000
    630      14.7378      0.00000

 k-point     8 :       0.5000    0.5000    0.5000
  band No.  band energies     occupation 
      1     -14.7770      2.00000
      2     -14.7618      2.00000
      3     -14.7491      2.00000
      4     -14.7460      2.00000
      5     -14.6761      2.00000
      6     -14.6556      2.00000
      7     -14.6476      2.00000
      8     -14.6467      2.00000
      9     -14.2908      2.00000
     10     -14.2661      2.00000
     11     -14.2624      2.00000
     12     -14.2583      2.00000
     13     -14.1166      2.00000
     14     -14.0776      2.00000
     15     -14.0584      2.00000
     16     -14.0467      2.00000
     17     -14.0409      2.00000
     18     -14.0315      2.00000
     19     -14.0284      2.00000
     20     -14.0205      2.00000
     21     -14.0185      2.00000
     22     -14.0166      2.00000
     23     -14.0120      2.00000
     24     -14.0061      2.00000
     25     -14.0042      2.00000
     26     -14.0004      2.00000
     27     -13.9982      2.00000
     28     -13.9948      2.00000
     29     -13.8471      2.00000
     30     -13.8225      2.00000
     31     -13.8109      2.00000
     32     -13.8087      2.00000
     33     -13.7193      2.00000
     34     -13.7183      2.00000
     35     -13.6748      2.00000
     36     -13.6732      2.00000
     37     -13.6636      2.00000
     38     -13.6606      2.00000
     39     -13.6472      2.00000
     40     -13.6445      2.00000
     41     -13.6390      2.00000
     42     -13.6294      2.00000
     43     -13.6247      2.00000
     44     -13.6083      2.00000
     45     -13.5570      2.00000
     46     -13.5525      2.00000
     47     -13.5438      2.00000
     48     -13.5428      2.00000
     49     -13.4879      2.00000
     50     -13.4831      2.00000
     51     -13.4809      2.00000
     52     -13.4672      2.00000
     53     -13.4460      2.00000
     54     -13.4382      2.00000
     55     -13.4368      2.00000
     56     -13.4360      2.00000
     57     -13.4268      2.00000
     58     -13.4049      2.00000
     59     -13.3819      2.00000
     60     -13.3804      2.00000
     61     -13.3733      2.00000
     62     -13.3648      2.00000
     63     -13.3590      2.00000
     64     -13.3554      2.00000
     65     -13.3270      2.00000
     66     -13.3046      2.00000
     67     -13.2937      2.00000
     68     -13.2881      2.00000
     69     -13.2830      2.00000
     70     -13.2802      2.00000
     71     -13.2715      2.00000
     72     -10.5054      2.00000
     73      -9.0856      2.00000
     74      -9.0828      2.00000
     75      -9.0767      2.00000
     76      -9.0685      2.00000
     77      -9.0682      2.00000
     78      -9.0564      2.00000
     79      -9.0307      2.00000
     80      -9.0284      2.00000
     81      -9.0246      2.00000
     82      -9.0230      2.00000
     83      -9.0190      2.00000
     84      -9.0153      2.00000
     85      -9.0150      2.00000
     86      -9.0115      2.00000
     87      -9.0091      2.00000
     88      -9.0071      2.00000
     89      -8.9982      2.00000
     90      -8.9924      2.00000
     91      -8.9812      2.00000
     92      -8.9802      2.00000
     93      -8.9721      2.00000
     94      -8.9699      2.00000
     95      -8.9625      2.00000
     96      -8.9575      2.00000
     97      -8.9547      2.00000
     98      -8.9471      2.00000
     99      -8.9468      2.00000
    100      -8.9432      2.00000
    101      -8.9410      2.00000
    102      -8.9409      2.00000
    103      -8.9402      2.00000
    104      -8.9389      2.00000
    105      -8.9343      2.00000
    106      -8.9339      2.00000
    107      -8.9243      2.00000
    108      -8.9240      2.00000
    109      -8.9218      2.00000
    110      -8.9186      2.00000
    111      -8.9178      2.00000
    112      -8.9135      2.00000
    113      -8.9085      2.00000
    114      -8.9071      2.00000
    115      -8.9043      2.00000
    116      -8.9028      2.00000
    117      -8.9011      2.00000
    118      -8.8961      2.00000
    119      -8.8950      2.00000
    120      -8.8911      2.00000
    121      -8.8901      2.00000
    122      -8.8845      2.00000
    123      -8.8833      2.00000
    124      -8.8793      2.00000
    125      -8.8759      2.00000
    126      -8.8736      2.00000
    127      -8.8722      2.00000
    128      -8.8711      2.00000
    129      -8.8710      2.00000
    130      -8.8662      2.00000
    131      -8.8648      2.00000
    132      -8.8646      2.00000
    133      -8.8612      2.00000
    134      -8.8590      2.00000
    135      -8.8579      2.00000
    136      -8.8561      2.00000
    137      -8.8557      2.00000
    138      -8.8474      2.00000
    139      -8.8443      2.00000
    140      -8.8383      2.00000
    141      -8.8356      2.00000
    142      -8.8304      2.00000
    143      -8.8282      2.00000
    144      -8.8246      2.00000
    145      -8.8237      2.00000
    146      -8.8233      2.00000
    147      -8.8230      2.00000
    148      -8.8201      2.00000
    149      -8.8087      2.00000
    150      -8.8063      2.00000
    151      -8.8032      2.00000
    152      -8.8008      2.00000
    153      -8.7999      2.00000
    154      -8.7937      2.00000
    155      -8.7878      2.00000
    156      -8.7851      2.00000
    157      -8.7834      2.00000
    158      -8.7831      2.00000
    159      -8.7804      2.00000
    160      -8.7803      2.00000
    161      -8.7795      2.00000
    162      -8.7732      2.00000
    163      -8.7715      2.00000
    164      -8.7705      2.00000
    165      -8.7692      2.00000
    166      -8.7648      2.00000
    167      -8.7638      2.00000
    168      -8.7623      2.00000
    169      -8.7607      2.00000
    170      -8.7547      2.00000
    171      -8.7527      2.00000
    172      -8.7506      2.00000
    173      -8.7475      2.00000
    174      -8.7470      2.00000
    175      -8.7437      2.00000
    176      -8.7395      2.00000
    177      -8.7389      2.00000
    178      -8.7335      2.00000
    179      -8.7327      2.00000
    180      -8.7313      2.00000
    181      -8.7288      2.00000
    182      -8.7282      2.00000
    183      -8.7279      2.00000
    184      -8.7252      2.00000
    185      -8.7241      2.00000
    186      -8.7216      2.00000
    187      -8.7188      2.00000
    188      -8.7175      2.00000
    189      -8.7031      2.00000
    190      -8.7004      2.00000
    191      -8.6948      2.00000
    192      -8.6940      2.00000
    193      -8.6905      2.00000
    194      -8.6900      2.00000
    195      -8.6878      2.00000
    196      -8.6865      2.00000
    197      -8.6828      2.00000
    198      -8.6824      2.00000
    199      -8.6784      2.00000
    200      -8.6782      2.00000
    201      -8.6436      2.00000
    202      -8.6396      2.00000
    203      -8.6340      2.00000
    204      -8.6335      2.00000
    205      -8.6324      2.00000
    206      -8.6299      2.00000
    207      -8.6275      2.00000
    208      -8.6258      2.00000
    209      -8.6152      2.00000
    210      -8.6152      2.00000
    211      -8.6087      2.00000
    212      -8.6063      2.00000
    213      -8.6040      2.00000
    214      -8.6033      2.00000
    215      -8.5997      2.00000
    216      -8.5942      2.00000
    217      -8.5809      2.00000
    218      -8.5790      2.00000
    219      -8.5727      2.00000
    220      -8.5712      2.00000
    221      -8.5688      2.00000
    222      -8.5675      2.00000
    223      -8.5639      2.00000
    224      -8.5636      2.00000
    225      -8.5589      2.00000
    226      -8.5545      2.00000
    227      -8.5545      2.00000
    228      -8.5492      2.00000
    229      -8.5480      2.00000
    230      -8.5438      2.00000
    231      -8.5427      2.00000
    232      -8.5409      2.00000
    233      -8.5374      2.00000
    234      -8.5368      2.00000
    235      -8.5352      2.00000
    236      -8.5337      2.00000
    237      -8.5317      2.00000
    238      -8.5308      2.00000
    239      -8.5250      2.00000
    240      -8.5248      2.00000
    241      -8.5198      2.00000
    242      -8.5156      2.00000
    243      -8.5143      2.00000
    244      -8.5104      2.00000
    245      -8.5093      2.00000
    246      -8.5076      2.00000
    247      -8.5070      2.00000
    248      -8.5053      2.00000
    249      -8.5020      2.00000
    250      -8.4995      2.00000
    251      -8.4967      2.00000
    252      -8.4959      2.00000
    253      -8.4941      2.00000
    254      -8.4912      2.00000
    255      -8.4890      2.00000
    256      -8.4826      2.00000
    257      -8.4804      2.00000
    258      -8.4796      2.00000
    259      -8.4789      2.00000
    260      -8.4768      2.00000
    261      -8.4743      2.00000
    262      -8.4727      2.00000
    263      -8.4706      2.00000
    264      -8.4690      2.00000
    265      -8.4601      2.00000
    266      -8.4571      2.00000
    267      -8.4544      2.00000
    268      -8.4540      2.00000
    269      -8.4539      2.00000
    270      -8.4529      2.00000
    271      -8.4507      2.00000
    272      -8.4503      2.00000
    273      -8.3861      2.00000
    274      -8.3814      2.00000
    275      -8.3767      2.00000
    276      -8.3553      2.00000
    277      -8.3000      2.00000
    278      -8.2976      2.00000
    279      -8.2966      2.00000
    280      -8.2889      2.00000
    281      -8.2549      2.00000
    282      -8.2349      2.00000
    283      -8.2247      2.00000
    284      -8.2237      2.00000
    285      -8.2178      2.00000
    286      -8.2148      2.00000
    287      -8.2123      2.00000
    288      -8.1719      2.00000
    289      -8.1460      2.00000
    290      -8.1285      2.00000
    291      -8.1192      2.00000
    292      -8.1097      2.00000
    293      -8.0402      2.00000
    294      -8.0286      2.00000
    295      -8.0283      2.00000
    296      -8.0180      2.00000
    297      -7.9901      2.00000
    298      -7.9851      2.00000
    299      -7.9818      2.00000
    300      -7.9588      2.00000
    301      -7.8973      2.00000
    302      -7.8750      2.00000
    303      -7.8541      2.00000
    304      -7.8493      2.00000
    305      -7.8420      2.00000
    306      -7.8361      2.00000
    307      -7.8359      2.00000
    308      -7.8352      2.00000
    309      -7.8220      2.00000
    310      -7.8181      2.00000
    311      -7.8176      2.00000
    312      -7.4019      2.00000
    313      -2.8506      2.00000
    314      -2.8428      2.00000
    315      -2.8401      2.00000
    316      -2.8372      2.00000
    317      -2.8301      2.00000
    318      -2.8254      2.00000
    319      -2.8212      2.00000
    320      -2.8196      2.00000
    321      -2.5404      2.00000
    322      -2.5315      2.00000
    323      -2.5205      2.00000
    324      -2.5196      2.00000
    325      -2.5103      2.00000
    326      -2.4977      2.00000
    327      -2.4865      2.00000
    328      -2.4777      2.00000
    329      -2.2536      2.00000
    330      -2.2520      2.00000
    331      -2.2370      2.00000
    332      -2.2348      2.00000
    333      -1.8824      2.00000
    334      -1.8613      2.00000
    335      -1.8589      2.00000
    336      -1.8553      2.00000
    337      -1.8544      2.00000
    338      -1.8478      2.00000
    339      -1.8473      2.00000
    340      -1.8432      2.00000
    341      -1.8344      2.00000
    342      -1.8329      2.00000
    343      -1.8205      2.00000
    344      -1.8169      2.00000
    345      -1.5916      2.00000
    346      -1.5878      2.00000
    347      -1.5771      2.00000
    348      -1.5585      2.00000
    349      -1.3884      2.00000
    350      -1.3822      2.00000
    351      -1.3719      2.00000
    352      -1.3513      2.00000
    353      -1.0103      2.00000
    354      -1.0094      2.00000
    355      -0.9956      2.00000
    356      -0.9824      2.00000
    357      -0.6235      2.00000
    358      -0.6172      2.00000
    359      -0.6164      2.00000
    360      -0.6155      2.00000
    361      -0.4394      2.00000
    362      -0.4230      2.00000
    363      -0.4141      2.00000
    364      -0.4117      2.00000
    365      -0.1886      2.00000
    366      -0.1843      2.00000
    367      -0.1757      2.00000
    368      -0.1757      2.00000
    369      -0.1063      2.00000
    370      -0.1002      2.00000
    371      -0.0857      2.00000
    372      -0.0807      2.00000
    373      -0.0325      2.00000
    374      -0.0214      2.00000
    375      -0.0158      2.00000
    376      -0.0150      2.00000
    377       0.1719      2.00000
    378       0.1835      2.00000
    379       0.1838      2.00000
    380       0.1882      2.00000
    381       0.1909      2.00000
    382       0.1917      2.00000
    383       0.1999      2.00000
    384       0.2024      2.00000
    385       0.3285      2.00000
    386       0.3335      2.00000
    387       0.3381      2.00000
    388       0.3422      2.00000
    389       0.3829      2.00000
    390       0.3854      2.00000
    391       0.3953      2.00000
    392       0.4028      2.00000
    393       0.4029      2.00000
    394       0.4209      2.00000
    395       0.4248      2.00000
    396       0.4377      2.00000
    397       0.6905      2.00000
    398       0.6932      2.00000
    399       0.7003      2.00000
    400       0.7086      2.00000
    401       0.8790      2.00000
    402       0.8917      2.00000
    403       0.8996      2.00000
    404       0.9128      2.00000
    405       0.9131      2.00000
    406       0.9211      2.00000
    407       0.9402      2.00000
    408       0.9411      2.00000
    409       0.9512      2.00000
    410       0.9574      2.00000
    411       0.9595      2.00000
    412       0.9624      2.00000
    413       0.9712      2.00000
    414       0.9743      2.00000
    415       0.9854      2.00000
    416       0.9976      2.00000
    417       1.0742      2.00000
    418       1.0809      2.00000
    419       1.0809      2.00000
    420       1.1143      2.00000
    421       1.2146      2.00000
    422       1.2219      2.00000
    423       1.2344      2.00000
    424       1.2544      2.00000
    425       1.3017      2.00000
    426       1.3022      2.00000
    427       1.3157      2.00000
    428       1.3160      2.00000
    429       1.4278      2.00000
    430       1.4321      2.00000
    431       1.4372      2.00000
    432       1.4626      2.00000
    433       1.6164      2.00000
    434       1.6349      2.00000
    435       1.6395      2.00000
    436       1.6592      2.00000
    437       1.7190      2.00000
    438       1.7232      2.00000
    439       1.7267      2.00000
    440       1.7535      2.00000
    441       1.7685      2.00000
    442       1.7856      2.00000
    443       1.7900      2.00000
    444       1.8260      2.00000
    445       1.8613      2.00000
    446       1.8639      2.00000
    447       1.8719      2.00000
    448       1.9299      2.00000
    449       2.1888      2.00000
    450       2.2024      2.00000
    451       2.2081      2.00000
    452       2.2155      2.00000
    453       2.2233      2.00000
    454       2.2278      2.00000
    455       2.2311      2.00000
    456       2.2355      2.00000
    457       2.2427      2.00000
    458       2.2447      2.00000
    459       2.2475      2.00000
    460       2.2610      2.00000
    461       2.3002      2.00000
    462       2.3105      2.00000
    463       2.3156      2.00000
    464       2.3574      2.00000
    465       2.4376      2.00000
    466       2.4450      2.00000
    467       2.4484      2.00000
    468       2.4742      2.00000
    469       2.4826      2.00000
    470       2.4828      2.00000
    471       2.5166      2.00000
    472       2.5490      2.00000
    473       2.5665      2.00000
    474       2.6047      2.00000
    475       2.6064      2.00000
    476       2.6219      2.00000
    477       2.6913      2.00000
    478       2.7008      2.00000
    479       2.7050      2.00000
    480       2.7079      2.00000
    481       2.7133      2.00000
    482       2.7163      2.00000
    483       2.7172      2.00000
    484       2.7382      2.00000
    485       2.8028      2.00000
    486       2.8068      2.00000
    487       2.8204      2.00000
    488       2.8250      2.00000
    489       2.8459      2.00000
    490       2.8478      2.00000
    491       2.8506      2.00000
    492       2.8583      2.00000
    493       2.8810      2.00000
    494       2.9022      2.00000
    495       2.9204      2.00000
    496       2.9296      2.00000
    497       2.9730      2.00000
    498       2.9775      2.00000
    499       2.9851      2.00000
    500       2.9937      2.00000
    501       2.9959      2.00000
    502       3.0031      2.00000
    503       3.0398      2.00000
    504       3.0735      2.00000
    505       3.1263      2.00000
    506       3.1501      2.00000
    507       3.1534      2.00000
    508       3.1619      2.00000
    509       3.1648      2.00000
    510       3.1734      2.00000
    511       3.1949      2.00000
    512       3.1966      2.00000
    513       3.1981      2.00000
    514       3.2180      2.00000
    515       3.2229      2.00000
    516       3.2429      2.00000
    517       3.2466      2.00000
    518       3.2599      2.00000
    519       3.2855      2.00000
    520       3.2946      2.00000
    521       3.5097      1.97194
    522       3.5157      1.95747
    523       3.5226      1.93319
    524       3.5443      1.77731
    525       3.5510      1.69629
    526       3.5554      1.63379
    527       3.5573      1.60470
    528       3.7229      0.00013
    529       8.1595      0.00000
    530       8.1692      0.00000
    531       8.1828      0.00000
    532       8.2100      0.00000
    533       8.5063      0.00000
    534       8.5198      0.00000
    535       8.5251      0.00000
    536       8.5565      0.00000
    537       9.7322      0.00000
    538       9.7718      0.00000
    539       9.7918      0.00000
    540       9.8003      0.00000
    541       9.8043      0.00000
    542       9.8154      0.00000
    543       9.8220      0.00000
    544       9.8334      0.00000
    545       9.9041      0.00000
    546       9.9063      0.00000
    547       9.9129      0.00000
    548       9.9467      0.00000
    549      10.1569      0.00000
    550      10.1572      0.00000
    551      10.1640      0.00000
    552      10.1901      0.00000
    553      10.6973      0.00000
    554      10.7005      0.00000
    555      10.7220      0.00000
    556      10.7253      0.00000
    557      10.8079      0.00000
    558      10.8390      0.00000
    559      10.8536      0.00000
    560      10.8581      0.00000
    561      11.0040      0.00000
    562      11.0271      0.00000
    563      11.0312      0.00000
    564      11.0356      0.00000
    565      11.1534      0.00000
    566      11.1686      0.00000
    567      11.1848      0.00000
    568      11.1854      0.00000
    569      11.1928      0.00000
    570      11.1977      0.00000
    571      11.2173      0.00000
    572      11.2296      0.00000
    573      11.2953      0.00000
    574      11.3000      0.00000
    575      11.3124      0.00000
    576      11.3139      0.00000
    577      11.6698      0.00000
    578      11.6753      0.00000
    579      11.6924      0.00000
    580      11.6990      0.00000
    581      11.7162      0.00000
    582      11.7232      0.00000
    583      11.7363      0.00000
    584      11.7602      0.00000
    585      12.3367      0.00000
    586      12.3769      0.00000
    587      12.3770      0.00000
    588      12.3994      0.00000
    589      12.4092      0.00000
    590      12.4244      0.00000
    591      12.4343      0.00000
    592      12.4455      0.00000
    593      12.4562      0.00000
    594      12.4723      0.00000
    595      12.4909      0.00000
    596      12.5208      0.00000
    597      12.8104      0.00000
    598      12.8366      0.00000
    599      12.8499      0.00000
    600      12.8592      0.00000
    601      13.1481      0.00000
    602      13.1687      0.00000
    603      13.1821      0.00000
    604      13.2022      0.00000
    605      13.3434      0.00000
    606      13.3654      0.00000
    607      13.3850      0.00000
    608      13.3862      0.00000
    609      13.4536      0.00000
    610      13.4568      0.00000
    611      13.4934      0.00000
    612      13.4977      0.00000
    613      13.7051      0.00000
    614      13.7171      0.00000
    615      13.7229      0.00000
    616      13.7408      0.00000
    617      14.0517      0.00000
    618      14.0693      0.00000
    619      14.0806      0.00000
    620      14.1065      0.00000
    621      14.2475      0.00000
    622      14.2751      0.00000
    623      14.3015      0.00000
    624      14.3123      0.00000
    625      14.5302      0.00000
    626      14.5366      0.00000
    627      14.5461      0.00000
    628      14.5831      0.00000
    629      14.6523      0.00000
    630      14.6790      0.00000


--------------------------------------------------------------------------------------------------------


 soft charge-density along one line, spin component            1
         0         1         2         3         4         5         6         7         8         9
 total charge-density along one line
 
 pseudopotential strength for first ion, spin component:            1
-11.947  -0.002   0.000   0.000   0.000   0.771   0.001  -0.000
 -0.002 -11.947   0.000   0.000  -0.000   0.001   0.772  -0.000
  0.000   0.000 -11.975  -0.001  -0.007  -0.000  -0.000   0.788
  0.000   0.000  -0.001 -11.966   0.010  -0.000   0.000   0.000
  0.000  -0.000  -0.007   0.010 -11.934  -0.000   0.000   0.003
  0.771   0.001  -0.000  -0.000  -0.000   4.730   0.000   0.000
  0.001   0.772  -0.000   0.000   0.000   0.000   4.729   0.000
 -0.000  -0.000   0.788   0.000   0.003   0.000   0.000   4.720
 -0.000   0.000   0.000   0.782  -0.006   0.000  -0.000   0.000
 -0.000   0.000   0.003  -0.006   0.763   0.000  -0.000  -0.002
  0.000   0.000   0.001  -0.001   0.000  -0.000  -0.000  -0.001
 -0.000  -0.000  -0.000   0.002  -0.001   0.000   0.000   0.001
 -0.001   0.005  -0.000  -0.000  -0.000   0.000  -0.002   0.000
 -0.000   0.000   0.005  -0.001  -0.000   0.000  -0.000  -0.002
  0.000  -0.000  -0.000   0.004  -0.000  -0.000   0.000   0.001
  0.001  -0.006   0.000   0.000   0.000   0.001  -0.001  -0.000
  0.000  -0.000  -0.007   0.001  -0.000   0.000   0.000   0.000
 -0.000   0.000   0.000  -0.006   0.000   0.000   0.000  -0.001
 total augmentation occupancy for first ion, spin component:            1
  2.008  -0.000  -0.000  -0.000  -0.000   0.018  -0.005  -0.000  -0.000   0.000  -0.000   0.000   0.002   0.000  -0.000   0.001
 -0.000   2.009  -0.000   0.000   0.000  -0.005   0.038  -0.000   0.000   0.000   0.000  -0.000  -0.009  -0.000   0.000  -0.002
 -0.000  -0.000   2.007  -0.000  -0.000  -0.000  -0.000   0.018  -0.003  -0.007   0.001  -0.001   0.000  -0.001   0.003   0.000
 -0.000   0.000  -0.000   2.007   0.002  -0.000   0.000  -0.003   0.018   0.010   0.000   0.000   0.000   0.002  -0.001   0.000
 -0.000   0.000  -0.000   0.002   2.010  -0.000  -0.000  -0.007   0.010   0.037  -0.001  -0.000   0.000   0.004  -0.006   0.000
  0.018  -0.005  -0.000  -0.000  -0.000   0.051  -0.034   0.000   0.000   0.000  -0.000  -0.000   0.038   0.000  -0.000   0.001
 -0.005   0.038  -0.000   0.000  -0.000  -0.034   0.180   0.000  -0.000  -0.000   0.000   0.000  -0.076  -0.000   0.000  -0.002
 -0.000  -0.000   0.018  -0.003  -0.007   0.000   0.000   0.055  -0.019  -0.048  -0.022  -0.002   0.000   0.008   0.028   0.000
 -0.000   0.000  -0.003   0.018   0.010   0.000  -0.000  -0.019   0.066   0.055   0.011   0.001   0.000   0.031   0.000   0.000
  0.000   0.000  -0.007   0.010   0.037   0.000  -0.000  -0.048   0.055   0.162  -0.008  -0.000   0.000   0.043  -0.050   0.000
 -0.000   0.000   0.001   0.000  -0.001  -0.000   0.000  -0.022   0.011  -0.008   1.091   0.038   0.000  -0.050   0.004  -0.000
  0.000  -0.000  -0.001   0.000  -0.000  -0.000   0.000  -0.002   0.001  -0.000   0.038   0.002  -0.000  -0.002  -0.001  -0.000
  0.002  -0.009   0.000   0.000   0.000   0.038  -0.076   0.000   0.000   0.000   0.000  -0.000   0.864   0.000  -0.000   0.022
  0.000  -0.000  -0.001   0.002   0.004   0.000  -0.000   0.008   0.031   0.043  -0.050  -0.002   0.000   0.779   0.020   0.000
 -0.000   0.000   0.003  -0.001  -0.006  -0.000   0.000   0.028   0.000  -0.050   0.004  -0.001  -0.000   0.020   0.840  -0.000
  0.001  -0.002   0.000   0.000   0.000   0.001  -0.002   0.000   0.000   0.000  -0.000  -0.000   0.022   0.000  -0.000   0.001
  0.000  -0.000  -0.000   0.001   0.001   0.000  -0.000   0.000   0.001   0.001  -0.002  -0.000   0.000   0.019   0.001   0.000
 -0.000  -0.000   0.000  -0.000  -0.001  -0.000   0.000   0.001  -0.000  -0.002  -0.000  -0.000  -0.000   0.001   0.022  -0.000


------------------------ aborting loop because EDIFF is reached ----------------------------------------


    CHARGE:  cpu time      0.5086: real time      0.5085
    FORLOC:  cpu time      0.0069: real time      0.0069
    FORNL :  cpu time      1.0298: real time      1.0296
    STRESS:  cpu time      3.1263: real time      3.1257
    FORCOR:  cpu time      0.0182: real time      0.0182
    FORHAR:  cpu time      0.0064: real time      0.0064
    MIXING:  cpu time      0.0865: real time      0.0865
    OFIELD:  cpu time      0.0000: real time      0.0000

  FORCE on cell =-STRESS in cart. coord.  units (eV):
  Direction    XX          YY          ZZ          XY          YZ          ZX
  --------------------------------------------------------------------------------------
  Alpha Z  5530.94808  5530.94808  5530.94808
  Ewald  -32230.08172-25085.35051-31438.64848     0.00004     0.00001  1718.49035
  Hartree  9565.82282 14048.92944 10063.89862     0.00166    -0.00038  1171.50320
  E(xc)   -5944.16066 -5938.02064 -5942.28604    -0.00000     0.00001     0.93109
  Local    5534.04931 -5975.30158  4213.86264    -0.00118    -0.00013 -2863.25732
  n-local -1427.63291 -1377.53072 -1404.18714     0.00010    -0.00031     3.55189
  augment  6395.46949  6373.68075  6399.99655    -0.00002     0.00015    -5.52909
  Kinetic 12578.32183 12438.27235 12575.30900    -0.00088     0.00075   -19.47884
  Fock        0.00000     0.00000     0.00000     0.00000     0.00000     0.00000
  -------------------------------------------------------------------------------------
  Total       2.73623    15.62718    -1.10677    -0.00028     0.00010     6.21128
  in kB       3.45516    19.73314    -1.39757    -0.00036     0.00013     7.84327
  external pressure =        7.26 kB  Pullay stress =        0.00 kB


 VOLUME and BASIS-vectors are now :
 -----------------------------------------------------------------------------
  energy-cutoff  :      450.00
  volume of cell :     1268.81
      direct lattice vectors                 reciprocal lattice vectors
    12.280473709  0.000000000  0.000000000     0.081430084 -0.000000000  0.019947422
     0.000000000  9.142702103  0.000000000     0.000000000  0.109376855 -0.000000000
    -2.768261641  0.000000000 11.300697481     0.000000000  0.000000000  0.088490113

  length of vectors
    12.280473709  9.142702103 11.634819984     0.083837689  0.109376855  0.088490113


 FORCES acting on ions
    electron-ion (+dipol)            ewald-force                    non-local-force                 convergence-correction
 -----------------------------------------------------------------------------------------------
   0.509E+02 0.104E-03 0.820E+02   -.499E+02 0.728E-04 -.851E+02   -.798E+00 -.696E-04 0.325E+01   -.236E-01 -.205E-03 -.352E-02
   0.334E+02 -.817E+01 0.962E+02   -.325E+02 0.727E+01 -.983E+02   -.770E+00 0.803E+00 0.235E+01   -.430E-02 -.104E-01 -.288E-02
   -.439E+02 -.172E+01 -.872E+02   0.430E+02 0.184E+01 0.902E+02   0.782E+00 -.753E-01 -.315E+01   -.657E-02 -.583E-02 -.296E-02
   -.294E+02 -.931E+01 -.310E+02   0.289E+02 0.871E+01 0.323E+02   0.777E+00 0.531E+00 -.141E+01   -.347E-02 -.442E-01 0.165E-02
   0.427E+02 -.156E-01 0.268E+02   -.416E+02 0.268E-04 -.279E+02   -.127E+01 -.177E-02 0.122E+01   -.111E-01 0.171E-01 -.394E-02
   0.343E+02 -.554E+01 0.736E+02   -.336E+02 0.515E+01 -.769E+02   -.545E+00 0.310E+00 0.343E+01   -.475E-02 -.220E-01 0.629E-03
   -.448E+02 0.759E-03 -.796E+02   0.438E+02 0.706E-04 0.835E+02   0.877E+00 -.273E-03 -.406E+01   0.365E-01 -.610E-03 0.831E-02
   -.562E+02 -.138E-01 -.328E+02   0.552E+02 -.507E-04 0.340E+02   0.123E+01 -.138E-02 -.122E+01   -.642E-02 0.148E-01 -.127E-01
   0.507E+02 -.194E+01 0.209E+02   -.495E+02 0.202E+01 -.223E+02   -.135E+01 -.314E-01 0.143E+01   0.136E-01 -.478E-01 0.963E-02
   0.501E+02 0.123E+01 0.804E+02   -.492E+02 -.127E+01 -.835E+02   -.752E+00 0.123E-01 0.320E+01   -.646E-02 0.149E-01 0.145E-02
   0.507E+02 0.196E+01 0.209E+02   -.495E+02 -.202E+01 -.223E+02   -.136E+01 0.332E-01 0.143E+01   0.245E-01 0.321E-01 0.162E-01
   0.623E+02 -.189E-02 0.117E+03   -.626E+02 0.189E-04 -.120E+03   0.263E+00 -.567E-03 0.364E+01   0.949E-03 0.240E-02 -.735E-02
   -.439E+02 0.171E+01 -.872E+02   0.430E+02 -.184E+01 0.902E+02   0.783E+00 0.741E-01 -.315E+01   -.175E-01 0.169E-01 -.568E-02
   -.405E+02 0.507E+01 -.787E+02   0.396E+02 -.520E+01 0.818E+02   0.754E+00 0.710E-01 -.332E+01   -.726E-03 -.198E-01 -.183E-02
   0.254E+02 0.593E-02 0.104E+03   -.253E+02 -.516E-04 -.106E+03   -.996E-02 -.651E-03 0.255E+01   0.157E-01 -.514E-02 0.195E-02
   0.410E+02 -.656E+00 0.311E+02   -.402E+02 0.729E+00 -.323E+02   -.104E+01 -.257E-01 0.134E+01   -.175E-01 -.325E-01 -.133E-01
   -.503E+02 0.138E+01 -.304E+02   0.490E+02 -.135E+01 0.315E+02   0.143E+01 -.482E-01 -.121E+01   0.837E-02 0.165E-01 0.273E-02
   0.481E+02 -.347E-02 0.920E+02   -.472E+02 0.752E-04 -.948E+02   -.685E+00 0.651E-03 0.309E+01   -.205E-01 0.250E-02 -.146E-01
   -.453E+02 -.108E+01 -.833E+02   0.445E+02 0.114E+01 0.862E+02   0.741E+00 -.223E-01 -.310E+01   -.793E-02 -.141E-01 0.324E-02
   -.399E+02 0.313E+00 -.259E+02   0.390E+02 -.360E+00 0.271E+02   0.110E+01 0.731E-01 -.135E+01   0.120E-02 -.442E-01 0.381E-02
   0.405E+02 -.172E-01 0.287E+02   -.398E+02 0.231E-04 -.299E+02   -.906E+00 -.221E-04 0.131E+01   -.127E-01 0.167E-01 -.708E-02
   -.503E+02 -.136E+01 -.304E+02   0.490E+02 0.135E+01 0.315E+02   0.143E+01 0.485E-01 -.122E+01   -.218E-02 -.323E-01 0.128E-02
   -.446E+02 -.642E-03 -.794E+02   0.436E+02 -.160E-03 0.823E+02   0.802E+00 -.728E-03 -.313E+01   0.319E-01 0.148E-02 0.772E-02
   -.504E+02 -.161E-01 -.307E+02   0.493E+02 0.491E-04 0.317E+02   0.125E+01 -.378E-03 -.111E+01   0.686E-03 0.158E-01 0.153E-01
   0.500E+02 0.186E+02 0.473E+02   -.494E+02 -.181E+02 -.484E+02   -.861E+00 -.541E+00 0.118E+01   0.242E-01 0.401E-01 0.691E-03
   -.738E+02 0.139E+02 -.390E+02   0.722E+02 -.138E+02 0.395E+02   0.161E+01 -.351E-01 -.717E+00   0.433E-02 0.191E-01 -.374E-02
   0.343E+02 0.553E+01 0.736E+02   -.336E+02 -.515E+01 -.769E+02   -.546E+00 -.311E+00 0.343E+01   0.106E-01 0.257E-01 0.321E-02
   -.405E+02 -.507E+01 -.787E+02   0.396E+02 0.520E+01 0.818E+02   0.753E+00 -.702E-01 -.332E+01   0.851E-02 0.182E-01 0.323E-02
   0.333E+02 0.816E+01 0.962E+02   -.325E+02 -.727E+01 -.983E+02   -.770E+00 -.802E+00 0.234E+01   0.103E-01 0.158E-01 0.280E-02
   0.410E+02 0.673E+00 0.311E+02   -.402E+02 -.729E+00 -.323E+02   -.104E+01 0.258E-01 0.134E+01   -.254E-01 0.159E-01 -.103E-01
   -.453E+02 0.108E+01 -.833E+02   0.445E+02 -.114E+01 0.862E+02   0.741E+00 0.226E-01 -.310E+01   -.207E-01 0.190E-01 -.146E-02
   0.508E+02 0.472E+01 0.993E+02   -.497E+02 -.465E+01 -.102E+03   -.816E+00 -.772E-01 0.307E+01   0.105E-02 0.146E-01 -.977E-02
   -.426E+02 -.530E-02 -.261E+02   0.417E+02 0.480E-04 0.275E+02   0.108E+01 -.111E-02 -.147E+01   0.195E-01 0.635E-02 0.111E-01
   -.446E+02 0.506E-02 -.830E+02   0.438E+02 0.296E-04 0.859E+02   0.736E+00 -.837E-04 -.317E+01   -.230E-01 -.497E-02 -.622E-02
   0.508E+02 -.471E+01 0.993E+02   -.497E+02 0.465E+01 -.102E+03   -.817E+00 0.763E-01 0.307E+01   0.875E-02 -.170E-01 -.861E-02
   -.294E+02 0.932E+01 -.309E+02   0.289E+02 -.871E+01 0.323E+02   0.779E+00 -.529E+00 -.141E+01   -.160E-01 0.323E-01 -.912E-02
   -.399E+02 -.308E+00 -.259E+02   0.390E+02 0.360E+00 0.271E+02   0.110E+01 -.719E-01 -.135E+01   -.754E-02 0.380E-01 0.358E-02
   0.413E+02 0.179E+01 0.251E+02   -.404E+02 -.182E+01 -.263E+02   -.111E+01 -.297E-02 0.126E+01   -.286E-01 0.234E-01 -.235E-02
   0.500E+02 -.186E+02 0.473E+02   -.494E+02 0.181E+02 -.484E+02   -.860E+00 0.541E+00 0.118E+01   0.186E-01 -.426E-01 -.114E-03
   0.458E+02 -.142E-01 0.114E+02   -.450E+02 -.327E-03 -.127E+02   -.764E+00 -.156E-02 0.123E+01   0.444E-02 0.156E-01 0.102E-01
   -.738E+02 -.138E+02 -.390E+02   0.722E+02 0.138E+02 0.395E+02   0.161E+01 0.363E-01 -.716E+00   -.526E-02 -.338E-01 -.387E-02
   -.304E+02 0.615E+02 -.123E+03   0.287E+02 -.627E+02 0.128E+03   0.155E+01 0.153E+01 -.536E+01   0.233E-01 0.171E-01 0.652E-04
   0.317E+02 0.379E-02 0.592E+02   -.308E+02 -.498E-03 -.626E+02   -.864E+00 0.416E-03 0.350E+01   0.183E-01 -.382E-02 0.992E-02
   -.304E+02 -.615E+02 -.123E+03   0.287E+02 0.627E+02 0.128E+03   0.155E+01 -.153E+01 -.536E+01   0.824E-02 -.159E-01 0.237E-02
   -.115E+02 -.955E-02 -.340E+02   0.112E+02 -.118E-03 0.352E+02   0.643E+00 -.212E-02 -.129E+01   0.108E-01 0.116E-01 0.411E-02
   -.441E+02 0.990E-02 -.877E+02   0.431E+02 0.497E-04 0.907E+02   0.815E+00 0.104E-02 -.311E+01   -.258E-01 -.110E-01 -.450E-02
   0.501E+02 -.123E+01 0.804E+02   -.492E+02 0.127E+01 -.835E+02   -.754E+00 -.123E-01 0.320E+01   0.110E-01 -.147E-01 0.320E-02
   0.413E+02 -.178E+01 0.251E+02   -.404E+02 0.182E+01 -.263E+02   -.111E+01 0.471E-02 0.126E+01   -.186E-01 -.404E-01 0.237E-02
   0.932E+02 -.110E-02 -.546E+02   -.973E+02 0.649E-03 0.522E+02   0.392E+01 -.247E-03 0.234E+01   0.205E-02 0.670E-03 0.633E-03
   0.648E+02 -.313E-02 -.343E+02   -.628E+02 -.324E-04 0.296E+02   -.197E+01 0.243E-04 0.465E+01   0.437E-02 0.302E-02 0.123E-02
   -.679E+02 -.291E+01 0.427E+02   0.662E+02 0.294E+01 -.381E+02   0.179E+01 0.708E-02 -.463E+01   0.753E-02 -.126E-01 0.244E-02
   0.155E+02 0.616E+00 0.152E+02   -.226E+02 -.719E+00 -.192E+02   0.707E+01 0.109E+00 0.395E+01   -.367E-02 -.423E-02 0.275E-02
   0.613E+02 -.377E-02 -.404E+02   -.590E+02 -.238E-03 0.359E+02   -.232E+01 -.578E-03 0.449E+01   -.120E-03 0.440E-02 -.103E-02
   -.201E+02 -.320E+00 -.169E+02   0.271E+02 0.298E+00 0.207E+02   -.696E+01 0.438E-01 -.372E+01   -.478E-02 -.549E-02 0.141E-02
   0.213E+02 0.261E-02 0.158E+02   -.285E+02 -.246E-04 -.199E+02   0.715E+01 0.338E-03 0.399E+01   0.756E-02 -.283E-02 -.126E-02
   -.144E+02 0.318E-02 -.164E+02   0.215E+02 0.176E-03 0.202E+02   -.707E+01 0.510E-03 -.371E+01   0.252E-02 -.381E-02 0.416E-02
   -.669E+02 -.454E-02 0.363E+02   0.649E+02 0.112E-03 -.318E+02   0.200E+01 -.639E-03 -.449E+01   -.551E-02 0.485E-02 0.331E-03
   0.122E+03 -.380E-02 -.646E+02   -.135E+03 -.100E-03 0.613E+02   0.123E+02 0.189E-04 0.334E+01   -.716E-02 0.377E-02 -.484E-02
   -.120E+03 0.139E+00 0.629E+02   0.132E+03 -.149E+00 -.595E+02   -.122E+02 0.192E-01 -.343E+01   -.192E-02 -.110E-01 0.195E-02
   0.133E+02 0.657E+00 0.118E+02   -.207E+02 -.115E+01 -.156E+02   0.742E+01 0.519E+00 0.372E+01   -.192E-02 -.453E-02 -.426E-02
   -.656E+02 -.366E+01 0.343E+02   0.636E+02 0.320E+01 -.302E+02   0.207E+01 0.510E+00 -.404E+01   0.706E-02 -.140E-01 0.130E-02
   0.120E+03 0.248E+00 -.633E+02   -.133E+03 -.285E+00 0.598E+02   0.121E+02 0.429E-01 0.353E+01   -.586E-02 -.980E-02 0.503E-03
   -.129E+02 0.166E-02 -.118E+02   0.199E+02 -.324E-03 0.159E+02   -.688E+01 0.514E-03 -.399E+01   0.275E-02 -.169E-02 -.276E-04
   0.714E+02 -.126E+01 -.382E+02   -.694E+02 0.125E+01 0.336E+02   -.202E+01 0.246E-01 0.464E+01   -.335E-02 -.110E-01 -.289E-04
   -.671E+02 -.484E+00 0.384E+02   0.653E+02 0.504E+00 -.337E+02   0.187E+01 -.139E-01 -.475E+01   -.647E-02 -.828E-02 -.155E-02
   -.674E+02 -.156E+00 0.359E+02   0.654E+02 0.144E+00 -.313E+02   0.200E+01 0.186E-01 -.457E+01   -.593E-02 -.103E-01 0.106E-02
   0.204E+02 0.721E+00 0.141E+02   -.277E+02 -.704E+00 -.176E+02   0.721E+01 0.516E-02 0.337E+01   0.328E-02 -.118E-01 0.199E-02
   0.122E+03 -.163E+02 -.652E+02   -.134E+03 0.165E+02 0.620E+02   0.124E+02 -.705E-01 0.328E+01   0.766E-02 -.140E-01 0.549E-03
   0.122E+03 0.216E+01 -.638E+02   -.134E+03 -.248E+01 0.604E+02   0.122E+02 0.339E+00 0.344E+01   0.624E-02 -.134E-01 0.273E-02
   -.124E+03 -.376E-02 0.640E+02   0.136E+03 -.195E-04 -.605E+02   -.121E+02 -.255E-03 -.348E+01   0.173E-02 0.386E-02 -.197E-02
   -.228E+02 0.501E-02 -.188E+02   0.301E+02 -.616E-04 0.226E+02   -.715E+01 0.750E-03 -.375E+01   -.363E-02 -.544E-02 0.301E-03
   0.364E+02 -.100E+02 0.106E+02   -.440E+02 0.101E+02 -.153E+02   0.739E+01 0.302E-01 0.465E+01   0.661E-02 -.104E-01 0.157E-02
   0.739E+02 -.167E-02 -.378E+02   -.720E+02 0.127E-03 0.330E+02   -.201E+01 -.457E-03 0.488E+01   0.568E-03 0.197E-02 -.289E-03
   0.684E+02 -.187E-03 -.334E+02   -.664E+02 0.126E-03 0.288E+02   -.205E+01 -.179E-03 0.459E+01   0.367E-02 0.240E-03 0.882E-03
   0.122E+03 -.755E+00 -.638E+02   -.134E+03 0.799E+00 0.603E+02   0.122E+02 -.431E-01 0.350E+01   -.611E-02 -.874E-02 -.470E-02
   -.129E+02 -.155E+01 -.204E+02   0.200E+02 0.163E+01 0.242E+02   -.713E+01 -.420E-01 -.373E+01   0.741E-02 -.976E-02 0.355E-02
   0.590E+01 0.544E-02 0.106E+02   -.132E+02 0.157E-03 -.144E+02   0.728E+01 0.723E-03 0.375E+01   -.488E-02 -.602E-02 -.140E-02
   0.544E+02 -.119E+02 -.497E+02   -.524E+02 0.121E+02 0.450E+02   -.191E+01 -.121E+00 0.478E+01   -.218E-02 -.115E-01 -.563E-03
   -.614E+02 -.122E-02 0.622E+01   0.594E+02 -.128E-02 -.524E+00   0.193E+01 -.426E-03 -.551E+01   0.435E-02 0.288E-02 0.772E-03
   0.122E+03 -.216E+01 -.638E+02   -.134E+03 0.248E+01 0.604E+02   0.122E+02 -.338E+00 0.344E+01   0.106E-01 0.111E-01 0.566E-02
   -.220E+02 0.420E-02 -.109E+02   0.289E+02 0.102E-04 0.145E+02   -.674E+01 0.407E-04 -.363E+01   -.425E-02 -.409E-02 -.314E-02
   -.121E+03 -.107E-02 0.616E+02   0.133E+03 -.899E-04 -.581E+02   -.123E+02 -.224E-03 -.355E+01   0.244E-02 0.144E-02 0.481E-02
   -.124E+03 -.377E-02 0.605E+02   0.136E+03 0.303E-03 -.571E+02   -.122E+02 -.454E-03 -.341E+01   0.324E-02 0.374E-02 0.259E-02
   0.120E+03 -.244E+00 -.633E+02   -.133E+03 0.285E+00 0.598E+02   0.121E+02 -.425E-01 0.353E+01   -.991E-02 0.550E-02 -.135E-02
   0.198E+02 0.124E-02 0.157E+02   -.269E+02 -.445E-04 -.194E+02   0.705E+01 0.119E-03 0.367E+01   0.403E-02 -.128E-02 0.149E-02
   0.687E+02 0.247E+00 -.353E+02   -.667E+02 -.262E+00 0.307E+02   -.203E+01 -.540E-02 0.453E+01   -.674E-02 0.109E-01 -.270E-02
   -.671E+02 0.487E+00 0.384E+02   0.653E+02 -.504E+00 -.337E+02   0.187E+01 0.136E-01 -.475E+01   -.996E-02 0.555E-02 -.202E-02
   -.559E+01 -.604E+01 -.774E+00   0.122E+02 0.613E+01 0.517E+01   -.662E+01 0.125E-01 -.436E+01   0.611E-02 -.118E-01 0.288E-03
   -.117E+03 0.189E+01 0.661E+02   0.129E+03 -.183E+01 -.626E+02   -.123E+02 -.772E-01 -.356E+01   -.808E-02 0.112E-01 -.527E-02
   -.559E+01 0.604E+01 -.773E+00   0.122E+02 -.613E+01 0.517E+01   -.662E+01 -.130E-01 -.436E+01   0.611E-02 0.137E-01 -.526E-03
   0.155E+02 -.620E+00 0.152E+02   -.226E+02 0.719E+00 -.192E+02   0.707E+01 -.109E+00 0.395E+01   -.346E-02 0.856E-02 0.179E-02
   0.204E+02 -.723E+00 0.141E+02   -.277E+02 0.704E+00 -.176E+02   0.721E+01 -.527E-02 0.337E+01   0.265E-02 0.130E-01 0.356E-02
   0.633E+02 -.476E+00 -.338E+02   -.612E+02 0.603E+00 0.297E+02   -.209E+01 -.142E+00 0.412E+01   0.620E-02 0.608E-02 0.164E-02
   0.714E+02 0.126E+01 -.382E+02   -.694E+02 -.125E+01 0.336E+02   -.202E+01 -.241E-01 0.464E+01   -.103E-01 0.899E-02 -.206E-02
   0.544E+02 0.119E+02 -.497E+02   -.524E+02 -.121E+02 0.450E+02   -.191E+01 0.122E+00 0.478E+01   0.372E-02 0.714E-02 -.249E-03
   -.201E+02 0.315E+00 -.169E+02   0.271E+02 -.298E+00 0.207E+02   -.696E+01 -.445E-01 -.372E+01   -.347E-02 0.109E-01 0.618E-03
   -.620E+02 -.338E-03 0.531E+02   0.593E+02 -.144E-03 -.486E+02   0.290E+01 -.246E-03 -.461E+01   0.122E-02 0.669E-03 0.109E-02
   0.125E+03 -.182E-02 -.642E+02   -.137E+03 0.114E-03 0.607E+02   0.124E+02 -.535E-03 0.350E+01   0.149E-02 0.226E-02 0.137E-02
   -.137E+03 -.718E+01 0.695E+02   0.149E+03 0.695E+01 -.660E+02   -.117E+02 0.351E+00 -.359E+01   0.655E-03 -.958E-02 -.304E-02
   -.679E+02 0.291E+01 0.427E+02   0.662E+02 -.294E+01 -.381E+02   0.179E+01 -.684E-02 -.463E+01   0.109E-01 0.120E-01 0.289E-02
   -.211E+02 0.928E+00 -.126E+02   0.282E+02 -.891E+00 0.163E+02   -.693E+01 -.681E-01 -.374E+01   -.378E-02 0.885E-02 -.264E-02
   -.123E+03 0.832E+00 0.574E+02   0.135E+03 -.801E+00 -.539E+02   -.121E+02 -.655E-01 -.344E+01   0.697E-02 0.747E-02 0.309E-02
   0.122E+03 0.163E+02 -.652E+02   -.134E+03 -.165E+02 0.620E+02   0.124E+02 0.707E-01 0.328E+01   0.127E-01 0.130E-01 0.104E-02
   0.687E+02 -.247E+00 -.353E+02   -.667E+02 0.262E+00 0.307E+02   -.203E+01 0.562E-02 0.453E+01   -.347E-02 -.113E-01 -.134E-02
   -.669E+02 -.314E-02 0.398E+02   0.649E+02 0.128E-03 -.353E+02   0.206E+01 0.286E-03 -.454E+01   -.784E-02 0.273E-02 -.242E-02
   0.120E+03 -.393E-02 -.633E+02   -.133E+03 -.125E-03 0.599E+02   0.121E+02 -.363E-03 0.354E+01   -.629E-02 0.426E-02 0.120E-02
   -.117E+03 -.188E+01 0.661E+02   0.129E+03 0.183E+01 -.626E+02   -.123E+02 0.776E-01 -.356E+01   -.333E-02 -.118E-01 -.438E-02
   -.110E+03 -.311E-03 0.678E+02   0.123E+03 -.606E-04 -.643E+02   -.123E+02 -.307E-03 -.364E+01   0.313E-02 0.568E-03 -.338E-02
   -.123E+03 -.828E+00 0.574E+02   0.135E+03 0.801E+00 -.539E+02   -.121E+02 0.660E-01 -.344E+01   0.105E-02 -.113E-01 0.153E-02
   0.148E+02 0.429E-02 0.149E+02   -.219E+02 -.518E-04 -.189E+02   0.707E+01 0.191E-03 0.395E+01   -.605E-02 -.428E-02 0.559E-03
   0.364E+02 0.100E+02 0.106E+02   -.440E+02 -.101E+02 -.153E+02   0.739E+01 -.306E-01 0.465E+01   0.782E-02 0.136E-01 -.163E-02
   -.674E+02 0.161E+00 0.359E+02   0.654E+02 -.144E+00 -.313E+02   0.200E+01 -.179E-01 -.457E+01   -.115E-01 0.542E-02 -.102E-02
   0.122E+03 0.759E+00 -.637E+02   -.134E+03 -.799E+00 0.603E+02   0.122E+02 0.430E-01 0.350E+01   -.105E-01 0.501E-02 -.529E-02
   -.120E+03 -.138E+00 0.629E+02   0.132E+03 0.149E+00 -.595E+02   -.122E+02 -.189E-01 -.343E+01   -.802E-02 0.957E-02 0.152E-02
   -.129E+02 0.155E+01 -.204E+02   0.200E+02 -.163E+01 0.242E+02   -.713E+01 0.414E-01 -.373E+01   0.477E-02 0.137E-01 0.502E-02
   0.133E+02 -.662E+00 0.118E+02   -.207E+02 0.115E+01 -.156E+02   0.742E+01 -.520E+00 0.372E+01   -.313E-02 0.106E-01 -.325E-02
   0.633E+02 0.479E+00 -.338E+02   -.612E+02 -.603E+00 0.297E+02   -.209E+01 0.142E+00 0.412E+01   0.294E-02 -.910E-02 0.129E-02
   -.656E+02 0.366E+01 0.343E+02   0.636E+02 -.320E+01 -.302E+02   0.207E+01 -.510E+00 -.404E+01   0.138E-01 0.108E-01 0.161E-02
   -.211E+02 -.932E+00 -.126E+02   0.282E+02 0.891E+00 0.163E+02   -.693E+01 0.681E-01 -.373E+01   -.339E-02 -.476E-02 -.275E-02
   -.137E+03 0.718E+01 0.695E+02   0.149E+03 -.695E+01 -.660E+02   -.117E+02 -.351E+00 -.359E+01   0.415E-02 0.553E-02 -.362E-03
 -----------------------------------------------------------------------------------------------
   -.219E+01 0.165E-03 0.517E+01   -.512E-12 0.906E-13 -.540E-12   0.210E+01 -.547E-03 -.524E+01   0.377E-02 0.248E-03 -.114E-02
 
 
 POSITION                                       TOTAL-FORCE (eV/Angst)
 -----------------------------------------------------------------------------------
      7.65443      0.00000      1.77004         0.129448     -0.000097      0.189015
      0.14466      1.52587      7.41575         0.130910     -0.108497      0.306921
      9.36941      1.52186      3.87983        -0.126269      0.033823     -0.188622
      6.15707      1.52441      4.49777         0.274652     -0.118764     -0.056879
     10.87012      0.00000      1.15681        -0.187784     -0.000270      0.121730
      1.51123      1.52187      1.76462         0.142145     -0.096526      0.147622
      3.23744      0.00000      3.87992        -0.133688     -0.000053     -0.222090
      0.02012      9.14270      4.49099         0.154946     -0.000343     -0.098912
      4.73676      1.52602      1.15657        -0.173042     -0.005341      0.055969
      7.65944      6.09673      1.76900         0.147232     -0.014343      0.195241
      4.73676      7.61668      1.15657        -0.173398      0.005930      0.055771
      3.36081      4.57135      6.86521        -0.090276     -0.000041      0.323398
      9.36941      7.62084      3.87983        -0.126062     -0.033887     -0.188460
      1.85043      3.04695      9.53839        -0.151400     -0.083934     -0.155457
      0.13440      4.57135      7.42313         0.008364      0.000088      0.319692
      9.49536      3.04700      6.80463        -0.207835      0.014779      0.090430
     -1.36899      6.09713     10.13695         0.148025     -0.006364     -0.144838
      6.28026      9.14270      7.42354         0.169984     -0.000245      0.211382
      7.99505      1.52192      9.53155        -0.101927      0.024120     -0.223654
      4.77508      1.52389     10.14332         0.183143     -0.018352     -0.077569
      9.50314      9.14270      6.80580        -0.187497     -0.000534      0.108633
     -1.36899      3.04557     10.13695         0.148424      0.006993     -0.144759
      1.85465      0.00000      9.52605        -0.142758     -0.000044     -0.193114
     -1.36207      0.00000     10.13962         0.186241     -0.000666     -0.120325
      3.36386      7.61739      6.80377        -0.249494      0.094231      0.119340
     -0.00123      6.09853      4.48522         0.035526      0.009050     -0.160141
      1.51123      7.62083      1.76462         0.141923      0.096607      0.147558
      1.85043      6.09575      9.53838        -0.151401      0.083987     -0.155400
      0.14466      7.61684      7.41575         0.130306      0.108360      0.306780
      9.49536      6.09570      6.80463        -0.207482     -0.014222      0.090380
      7.99505      7.62078      9.53155        -0.101402     -0.024094     -0.223686
      6.28390      6.09653      7.42559         0.272718      0.003247      0.233675
      4.77783      4.57135     10.14883         0.205816     -0.000016     -0.053555
      7.99461      4.57135      9.53289        -0.096467      0.000033     -0.214052
      6.28390      3.04617      7.42559         0.272625     -0.003032      0.233758
      6.15707      7.61830      4.49777         0.274857      0.118952     -0.056567
      4.77508      7.61881     10.14332         0.183196      0.018387     -0.077496
     10.87738      6.09454      1.15671        -0.215827     -0.007121      0.102397
      3.36386      1.52531      6.80377        -0.249476     -0.094159      0.119344
      4.73996      4.57135      1.15364        -0.008187     -0.000542     -0.001536
     -0.00123      3.04417      4.48522         0.035783     -0.008725     -0.160457
      3.22052      6.11188      3.87562        -0.125301      0.298341     -0.325679
      1.52258      4.57135      1.75889         0.008287     -0.000108      0.082009
      3.22052      3.03082      3.87563        -0.125156     -0.298313     -0.325851
      6.16174      4.57135      4.49608         0.368989     -0.000207     -0.095292
      9.36805      4.57135      3.87777        -0.146450      0.000036     -0.188001
      7.65943      3.04597      1.76900         0.146514      0.014466      0.195091
     10.87738      3.04817      1.15671        -0.216114      0.007398      0.102472
      2.90780      4.57135      5.04814        -0.101213     -0.000031      0.007636
     -0.03763      9.14270      8.81581        -0.043148     -0.000118     -0.023955
      2.03324      1.52731      8.12765         0.061467      0.030908     -0.015188
     -2.37041      1.52079      9.85616        -0.066463      0.002392     -0.043594
      1.33816      0.00000      3.16327        -0.037891     -0.000186     -0.011075
     11.87734      1.52142      1.43656         0.111787      0.016557      0.056682
      5.15589      9.14270      4.20855        -0.077543      0.000089     -0.042765
      5.73882      0.00000      1.43641         0.076428      0.000051      0.065565
      9.54801      0.00000      2.48214         0.033033     -0.000213      0.015257
      8.97881      9.14270      5.03967         0.021063     -0.000101      0.043437
      8.05275      1.52183      0.61338        -0.013616     -0.001880     -0.050791
     -0.99608      1.51791      4.21486        -0.036697      0.017658     -0.032897
      3.40845      1.52562      2.47966         0.029559      0.040547      0.035808
      7.60409      3.04672     10.68704         0.012673     -0.004037      0.046962
      4.36620      9.14270      7.09303         0.076927      0.000164      0.048161
      7.47843      1.52422      3.16952        -0.101004      0.011465      0.011931
      8.17496      3.04712      8.13127         0.037889     -0.002055      0.010737
      9.55271      3.04595      2.48114         0.049630     -0.003822      0.004346
      3.76700      3.04881      9.87637        -0.073923      0.010407     -0.095784
      2.84446      1.50367      5.03918         0.010761      0.096165      0.036806
      1.45700      1.52212     10.68710         0.018487      0.009817      0.054617
      0.52745      0.00000      6.26068        -0.009895     -0.000178     -0.055987
     11.88324      4.57135      1.43382         0.125264      0.000265      0.064611
      5.15261      3.04988      4.21268        -0.237132      0.159459     -0.106502
      7.48092      4.57135      3.16834        -0.113709     -0.000030      0.012792
      6.10423      4.57135      8.82680        -0.082683      0.000002     -0.026106
      8.98029      3.04690      5.03665         0.016853     -0.007558      0.043488
      5.74565      3.04678      1.43706         0.024916      0.028723      0.067376
     -0.99990      4.57135      4.21132        -0.004073      0.000298     -0.022991
      1.32242      3.04619      3.16091         0.013125      0.110520      0.053869
      3.40566      4.57135      2.44817         0.001743     -0.000045      0.193619
      1.45700      7.62058     10.68710         0.018646     -0.009832      0.054555
     10.50281      4.57135      7.08023         0.129186      0.000168      0.041696
      8.05799      4.57135      0.61661        -0.018049      0.000054     -0.061067
      1.91106      0.00000      0.60990        -0.016700     -0.000173     -0.030376
      7.60409      6.09599     10.68704         0.012832      0.004201      0.047222
      3.76805      0.00000      9.86401        -0.056376      0.000032     -0.057448
      6.10530      7.62234      8.82559        -0.073495     -0.009073     -0.023501
      8.17496      6.09558      8.13127         0.038102      0.002054      0.010643
      4.37174      3.04041      7.12768        -0.014847      0.093876      0.037623
      6.67036      7.61897      6.26551        -0.043256     -0.009534     -0.058024
      4.37175      6.10229      7.12768        -0.014682     -0.094017      0.037855
     -2.37041      7.62191      9.85616        -0.065930     -0.002535     -0.043060
      3.76700      6.09389      9.87637        -0.074035     -0.010460     -0.095608
     -0.04363      6.09756      8.81227        -0.026747     -0.009463     -0.050435
      7.47843      7.61849      3.16952        -0.100822     -0.011431      0.011904
      1.32242      6.09652      3.16091         0.012790     -0.110341      0.053934
     11.87734      7.62129      1.43656         0.111330     -0.016806      0.056431
      2.02315      4.57135      8.16025         0.115147     -0.000058     -0.115216
      1.44995      4.57135     10.69015         0.008103      0.000015      0.046956
      0.54262      3.05941      6.24966         0.095941      0.112319     -0.110582
      2.03324      7.61539      8.12765         0.061315     -0.030838     -0.015182
     10.50904      7.61585      7.07980         0.119318     -0.022222      0.050594
      1.90276      6.10120      0.60585         0.002151     -0.027491      0.039129
      2.84446      7.63903      5.03918         0.010612     -0.096085      0.036782
      6.10530      1.52036      8.82559        -0.073614      0.009078     -0.023718
      8.17709      0.00000      8.12859         0.056029      0.000000      0.017705
      7.60115      9.14270     10.68705         0.007535     -0.000161      0.051312
      6.67035      1.52373      6.26551        -0.043305      0.009666     -0.058040
      6.66947      4.57135      6.26671        -0.073135     -0.000110     -0.063790
      1.90276      3.04150      0.60586         0.002419      0.027665      0.039296
     -2.36975      4.57135      9.85531        -0.057254      0.000149     -0.030084
      5.15261      6.09282      4.21268        -0.237533     -0.159691     -0.107098
      9.55271      6.09675      2.48114         0.049792      0.004052      0.004296
      8.98029      6.09580      5.03665         0.017346      0.007665      0.043471
      8.05275      7.62087      0.61338        -0.013802      0.001821     -0.050585
      5.74565      6.09592      1.43706         0.025103     -0.028807      0.067487
     -0.99607      7.62480      4.21486        -0.036174     -0.017983     -0.032671
     -0.04363      3.04515      8.81227        -0.026652      0.009590     -0.050580
      3.40845      7.61708      2.47965         0.029347     -0.040484      0.035692
     10.50904      1.52685      7.07980         0.119777      0.022059      0.051064
      0.54262      6.08329      6.24966         0.095608     -0.112091     -0.110866
 -----------------------------------------------------------------------------------
    total drift:                               -0.084377     -0.000134     -0.069920


--------------------------------------------------------------------------------------------------------



  FREE ENERGIE OF THE ION-ELECTRON SYSTEM (eV)
  ---------------------------------------------------
  free  energy   TOTEN  =      -728.48838413 eV

  energy  without entropy=     -728.40799720  energy(sigma->0) =     -728.44819066
 


--------------------------------------------------------------------------------------------------------


    POTLOK:  cpu time      0.1182: real time      0.1200


--------------------------------------------------------------------------------------------------------


 writing wavefunctions
     LOOP+:  cpu time     85.8495: real time     88.3243
    4ORBIT:  cpu time      0.0000: real time      0.0000

 total amount of memory used by VASP MPI-rank0  2546874. kBytes
=======================================================================

   base      :      30000. kBytes
   nonlr-proj:      22141. kBytes
   fftplans  :      51012. kBytes
   grid      :     102973. kBytes
   one-center:       1866. kBytes
   wavefun   :    2338882. kBytes
 
  
  
 General timing and accounting informations for this job:
 ========================================================
  
                  Total CPU time used (sec):      111.494
                            User time (sec):      108.926
                          System time (sec):        2.568
                         Elapsed time (sec):      116.603
  
                   Maximum memory used (kb):     6085312.
                   Average memory used (kb):          N/A
  
                          Minor page faults:       259847
                          Major page faults:            3
                 Voluntary context switches:        22450
