Ga8 O12                                 
    1.000000000000000     
     0.0000000000000000   12.2804737091000007    0.0000000000000000
     9.1427011490000005    0.0000000000000000    0.0000000000000000
     0.0000000000000000   -2.7682616411000001  -11.3006974810000003
   Ga   O    Cu   N 
    47    71     1     1
Direct
  0.6590991051142085  0.0019413234359892  0.1584548746253976
  0.6586809648923957 -0.0013012718909648  0.6565248441987233
  0.6595740461918181  0.3349176855150762  0.1579182999605245
  0.6581891315591676  0.3319584552027584  0.6560980996317319
  0.6607600582962435  0.6682456538093212  0.1572941960529649
  0.6575984970080810  0.6649286209075493  0.6564869894536388
  0.8431381664990032  0.1681776216563418  0.3444755312205314
  0.8406466526211316  0.1668116454427685  0.8431812552140542
  0.8430729932828209  0.5002581604645775  0.3439915595593945
  0.8405631769555045  0.4996780097195949  0.8431429958276158
  0.8425453346370974  0.8342455059233588  0.3439899432773233
  0.8402722229261894  0.8332102704320020  0.8429987620573002
  0.5888848652267732  0.1695748027410174  0.3980849754589231
  0.5920010590647268  0.1668477130765565  0.8986807416515523
  0.5909736437403037  0.5010477381690042  0.3976579946149774
  0.5914891443260695  0.5001091942688572  0.8976590220699274
  0.5910317258836850  0.8347312668774182  0.3977085950424220
  0.5922005066661041  0.8339398234255004  0.8989279935822875
  0.9076095166983081  0.0013465259034814  0.1019048451639530
  0.9094061648733545 -0.0012747039717104  0.6031961470741617
  0.9097730152828433  0.3345167113904210  0.1027141916758001
  0.9100567987881470  0.3327248573954490  0.6030402901397657
  0.9098766551232929  0.6678231584564311  0.1019964960174221
  0.9086582805880846  0.6653193209782277  0.6025691129498049
  0.1592061504323403  0.1685052308064403  0.1575771961290850
  0.1592310829171023  0.1645036902325980  0.6582084402691136
  0.1607098597162513  0.5021774121501552  0.1544268531252625
  0.1606669006384670  0.4986400669058008  0.6565448337802183
  0.1589255980869411  0.8347898479894837  0.1567529695808780
  0.1592637606592672  0.8316036415006252  0.6570201002987333
  0.3398514527724423 -0.0008512067643221  0.3462223945236800
  0.3418459373253805  0.0001765034598214  0.8450739612291969
  0.3419330062312798  0.3330151390716269  0.8424866973111496
  0.3403548807436009  0.6597108015602084  0.3424401640320944
  0.3424043806223697  0.6663443607844469  0.8413176253906471
  0.0917789386072806  0.0018414043733407  0.3981311812131407
  0.0909300117995986  0.0007006120920653  0.8985607974411376
  0.0980696965435949  0.3358954142578758  0.3983622050481017
  0.0907788824295222  0.3336597646850977  0.8971250807771232
  0.0928017986116990  0.6666994231452755  0.3962864843337331
  0.0896128245138580  0.6677450994290635  0.8951603990503640
  0.4086314079380329  0.1699787998160880  0.1054427414258251
  0.4082169576703828  0.1612842071742253  0.6019714593766977
  0.4105189765154940  0.5039844922478446  0.1001512785110417
  0.4055459194898429  0.4918085639154512  0.5930128258753301
  0.4090381745473502  0.8351532587217702  0.1037757630897055
  0.4094235082856562  0.8278996855974867  0.6015764538829269
  0.9955656881993996  0.1669580800843634  0.1254621499706564
  0.9961892930179382  0.1653559507213802  0.6297835301058818
  0.9964848796068198  0.5011379732953367  0.1251535264374886
  0.9970320233376040  0.4997046143378076  0.6281094954405864
  0.9950944628005671  0.8356459831440139  0.1253855502608230
  0.9962247805630571  0.8316151145345378  0.6284045422731118
  0.5035803835089356  0.0011107986053146  0.3742653538158073
  0.5047053277416975  0.0002293213631932  0.8743015029282353
  0.5028566035840475  0.3365972525844271  0.3765235823170511
  0.5048188875051043  0.3331988792117679  0.8745597694350372
  0.5048846230890810  0.6680513499841494  0.3711677287116705
  0.5051729700863441  0.6673536906206141  0.8729857641653520
  0.6728860195112956  0.1687292970443553  0.2821449031569155
  0.6729647150341290  0.1656104462679259  0.7811086033073542
  0.6740829325318775  0.5013323826269105  0.2810952943404021
  0.6729069739195180  0.4986442875159756  0.7807251554943395
  0.6739869844005090  0.8354184627635054  0.2814221739488194
  0.6725577799639489  0.8318095977686295  0.7807728956593840
  0.8280253680855336  0.0022573871123189  0.2205958791661539
  0.8269366904120907 -0.0008730833020540  0.7194129146233194
  0.8283022782993967  0.3343814136106946  0.2200481293650221
  0.8273301485600986  0.3325806214308338  0.7194146749214333
  0.8288153959587646  0.6677717655009315  0.2198542713457171
  0.8269656549221355  0.6659330819413508  0.7194421132332136
  0.8338932640647324  0.0007174992152884  0.4463574093866611
  0.8308829282960252  0.0002734619114105  0.9452343855432362
  0.8330396100263262  0.3340113856904161  0.4466103703160484
  0.8320627318903235  0.3334877562037071  0.9460012456192631
  0.8328422025599178  0.6669440097720835  0.4458054741572419
  0.8318480784677744  0.6667474172154580  0.9455759861332880
  0.6686584415472830  0.1678939705393220  0.0555108352919055
  0.6683433865022166  0.1652560974900015  0.5543888223999830
  0.6687167219900916  0.5009915453671431  0.0544892069838144
  0.6688487978305730  0.4991401603994360  0.5545613693395471
  0.6700049002346784  0.8358306697528960  0.0552972299447278
  0.6681304561083624  0.8319866510579500  0.5544308708597481
  0.4965372822595166  0.0025848833865483  0.1286261274536429
  0.4973690637671801 -0.0051339824063462  0.6298453382396257
  0.4970878669471625  0.3361097998101266  0.1288936460091067
  0.4968388493375474  0.3276905279628852  0.6303407529453265
  0.4991163713034283  0.6702688248475194  0.1256070691931151
  0.4956870895133633  0.6601445963083864  0.6273737943266544
  0.0058732503146808  0.1699326994138690  0.3738439277629664
  0.0030424140079922  0.1669180659146935  0.8726979733811007
  0.0053198830045251  0.4998131667699281  0.3735977928266624
  0.0029350506755896  0.5001672872676513  0.8711576687592517
  0.0045398615471995  0.8339333933166081  0.3736143729067652
  0.0024859713540168  0.8348518841749260  0.8712500152714757
  0.1706451467771155 -0.0001731276217748  0.2792101001162089
  0.1732049969824356 -0.0012692715477708  0.7823650049560055
  0.1678905195772225  0.3337814825642951  0.2733662418776984
  0.1731281922619977  0.3324822609086300  0.7814012210940848
  0.1684841000429695  0.6711245187919221  0.2756053643370116
  0.1728811626538820  0.6661186399210572  0.7797238070434133
  0.3278203235283530  0.1684934410114797  0.2233700497573086
  0.3280759430618063  0.1646024796912927  0.7216952962034837
  0.3244178774247296  0.5151290825053887  0.2086848528505261
  0.3287176492219234  0.4981739223501749  0.7180181832558635
  0.3275256361390208  0.8365763912116359  0.2200023686297239
  0.3279730381642817  0.8324691401916587  0.7195383070544856
  0.3230670765106564  0.1525621074460491  0.4518113075567859
  0.3340412124020213  0.1675357832355754  0.9477141172053469
  0.3341735236871063  0.5007028326516140  0.9435230953877035
  0.3315648622913923  0.8283850780339541  0.4455691471049781
  0.3340648214475180  0.8327372891645147  0.9461031757982473
  0.1685448170541054  0.0020909688235713  0.0544746912779552
  0.1646386334486457 -0.0022864967563574  0.5559724554986317
  0.1683594099416120  0.3335750352090329  0.0523597232211440
  0.1651128261024933  0.3302989178903943  0.5570715678499324
  0.1645008621908443  0.6706522518510919  0.0508202188547786
  0.1682622207491708  0.6657101043791367  0.5538109273159743
  0.3379402207196585  0.3336640470377701  0.3404079360148456
  0.3166477560855273  0.4907023784239755  0.4378039880475468
 
  0.00000000E+00  0.00000000E+00  0.00000000E+00
  0.00000000E+00  0.00000000E+00  0.00000000E+00
  0.00000000E+00  0.00000000E+00  0.00000000E+00
  0.00000000E+00  0.00000000E+00  0.00000000E+00
  0.00000000E+00  0.00000000E+00  0.00000000E+00
  0.00000000E+00  0.00000000E+00  0.00000000E+00
  0.00000000E+00  0.00000000E+00  0.00000000E+00
  0.00000000E+00  0.00000000E+00  0.00000000E+00
  0.00000000E+00  0.00000000E+00  0.00000000E+00
  0.00000000E+00  0.00000000E+00  0.00000000E+00
  0.00000000E+00  0.00000000E+00  0.00000000E+00
  0.00000000E+00  0.00000000E+00  0.00000000E+00
  0.00000000E+00  0.00000000E+00  0.00000000E+00
  0.00000000E+00  0.00000000E+00  0.00000000E+00
  0.00000000E+00  0.00000000E+00  0.00000000E+00
  0.00000000E+00  0.00000000E+00  0.00000000E+00
  0.00000000E+00  0.00000000E+00  0.00000000E+00
  0.00000000E+00  0.00000000E+00  0.00000000E+00
  0.00000000E+00  0.00000000E+00  0.00000000E+00
  0.00000000E+00  0.00000000E+00  0.00000000E+00
  0.00000000E+00  0.00000000E+00  0.00000000E+00
  0.00000000E+00  0.00000000E+00  0.00000000E+00
  0.00000000E+00  0.00000000E+00  0.00000000E+00
  0.00000000E+00  0.00000000E+00  0.00000000E+00
  0.00000000E+00  0.00000000E+00  0.00000000E+00
  0.00000000E+00  0.00000000E+00  0.00000000E+00
  0.00000000E+00  0.00000000E+00  0.00000000E+00
  0.00000000E+00  0.00000000E+00  0.00000000E+00
  0.00000000E+00  0.00000000E+00  0.00000000E+00
  0.00000000E+00  0.00000000E+00  0.00000000E+00
  0.00000000E+00  0.00000000E+00  0.00000000E+00
  0.00000000E+00  0.00000000E+00  0.00000000E+00
  0.00000000E+00  0.00000000E+00  0.00000000E+00
  0.00000000E+00  0.00000000E+00  0.00000000E+00
  0.00000000E+00  0.00000000E+00  0.00000000E+00
  0.00000000E+00  0.00000000E+00  0.00000000E+00
  0.00000000E+00  0.00000000E+00  0.00000000E+00
  0.00000000E+00  0.00000000E+00  0.00000000E+00
  0.00000000E+00  0.00000000E+00  0.00000000E+00
  0.00000000E+00  0.00000000E+00  0.00000000E+00
  0.00000000E+00  0.00000000E+00  0.00000000E+00
  0.00000000E+00  0.00000000E+00  0.00000000E+00
  0.00000000E+00  0.00000000E+00  0.00000000E+00
  0.00000000E+00  0.00000000E+00  0.00000000E+00
  0.00000000E+00  0.00000000E+00  0.00000000E+00
  0.00000000E+00  0.00000000E+00  0.00000000E+00
  0.00000000E+00  0.00000000E+00  0.00000000E+00
  0.00000000E+00  0.00000000E+00  0.00000000E+00
  0.00000000E+00  0.00000000E+00  0.00000000E+00
  0.00000000E+00  0.00000000E+00  0.00000000E+00
  0.00000000E+00  0.00000000E+00  0.00000000E+00
  0.00000000E+00  0.00000000E+00  0.00000000E+00
  0.00000000E+00  0.00000000E+00  0.00000000E+00
  0.00000000E+00  0.00000000E+00  0.00000000E+00
  0.00000000E+00  0.00000000E+00  0.00000000E+00
  0.00000000E+00  0.00000000E+00  0.00000000E+00
  0.00000000E+00  0.00000000E+00  0.00000000E+00
  0.00000000E+00  0.00000000E+00  0.00000000E+00
  0.00000000E+00  0.00000000E+00  0.00000000E+00
  0.00000000E+00  0.00000000E+00  0.00000000E+00
  0.00000000E+00  0.00000000E+00  0.00000000E+00
  0.00000000E+00  0.00000000E+00  0.00000000E+00
  0.00000000E+00  0.00000000E+00  0.00000000E+00
  0.00000000E+00  0.00000000E+00  0.00000000E+00
  0.00000000E+00  0.00000000E+00  0.00000000E+00
  0.00000000E+00  0.00000000E+00  0.00000000E+00
  0.00000000E+00  0.00000000E+00  0.00000000E+00
  0.00000000E+00  0.00000000E+00  0.00000000E+00
  0.00000000E+00  0.00000000E+00  0.00000000E+00
  0.00000000E+00  0.00000000E+00  0.00000000E+00
  0.00000000E+00  0.00000000E+00  0.00000000E+00
  0.00000000E+00  0.00000000E+00  0.00000000E+00
  0.00000000E+00  0.00000000E+00  0.00000000E+00
  0.00000000E+00  0.00000000E+00  0.00000000E+00
  0.00000000E+00  0.00000000E+00  0.00000000E+00
  0.00000000E+00  0.00000000E+00  0.00000000E+00
  0.00000000E+00  0.00000000E+00  0.00000000E+00
  0.00000000E+00  0.00000000E+00  0.00000000E+00
  0.00000000E+00  0.00000000E+00  0.00000000E+00
  0.00000000E+00  0.00000000E+00  0.00000000E+00
  0.00000000E+00  0.00000000E+00  0.00000000E+00
  0.00000000E+00  0.00000000E+00  0.00000000E+00
  0.00000000E+00  0.00000000E+00  0.00000000E+00
  0.00000000E+00  0.00000000E+00  0.00000000E+00
  0.00000000E+00  0.00000000E+00  0.00000000E+00
  0.00000000E+00  0.00000000E+00  0.00000000E+00
  0.00000000E+00  0.00000000E+00  0.00000000E+00
  0.00000000E+00  0.00000000E+00  0.00000000E+00
  0.00000000E+00  0.00000000E+00  0.00000000E+00
  0.00000000E+00  0.00000000E+00  0.00000000E+00
  0.00000000E+00  0.00000000E+00  0.00000000E+00
  0.00000000E+00  0.00000000E+00  0.00000000E+00
  0.00000000E+00  0.00000000E+00  0.00000000E+00
  0.00000000E+00  0.00000000E+00  0.00000000E+00
  0.00000000E+00  0.00000000E+00  0.00000000E+00
  0.00000000E+00  0.00000000E+00  0.00000000E+00
  0.00000000E+00  0.00000000E+00  0.00000000E+00
  0.00000000E+00  0.00000000E+00  0.00000000E+00
  0.00000000E+00  0.00000000E+00  0.00000000E+00
  0.00000000E+00  0.00000000E+00  0.00000000E+00
  0.00000000E+00  0.00000000E+00  0.00000000E+00
  0.00000000E+00  0.00000000E+00  0.00000000E+00
  0.00000000E+00  0.00000000E+00  0.00000000E+00
  0.00000000E+00  0.00000000E+00  0.00000000E+00
  0.00000000E+00  0.00000000E+00  0.00000000E+00
  0.00000000E+00  0.00000000E+00  0.00000000E+00
  0.00000000E+00  0.00000000E+00  0.00000000E+00
  0.00000000E+00  0.00000000E+00  0.00000000E+00
  0.00000000E+00  0.00000000E+00  0.00000000E+00
  0.00000000E+00  0.00000000E+00  0.00000000E+00
  0.00000000E+00  0.00000000E+00  0.00000000E+00
  0.00000000E+00  0.00000000E+00  0.00000000E+00
  0.00000000E+00  0.00000000E+00  0.00000000E+00
  0.00000000E+00  0.00000000E+00  0.00000000E+00
  0.00000000E+00  0.00000000E+00  0.00000000E+00
  0.00000000E+00  0.00000000E+00  0.00000000E+00
  0.00000000E+00  0.00000000E+00  0.00000000E+00
  0.00000000E+00  0.00000000E+00  0.00000000E+00
  0.00000000E+00  0.00000000E+00  0.00000000E+00
  0.00000000E+00  0.00000000E+00  0.00000000E+00
