 running    4 mpi-ranks, on    1 nodes
 distrk:  each k-point on    1 cores,    4 groups
 distr:  one band on    1 cores,    1 groups
 OpenACC runtime initialized ...    4 GPUs detected
 vasp.6.4.2 20Jul23 (build Nov 12 2023 22:16:35) complex                         
 POSCAR found type information on POSCAR GaO N Fe
 POSCAR found :  4 types and     120 ions
 scaLAPACK will be used selectively (only on CPU)
 LDA part: xc-table for Pade appr. of Perdew
 found WAVECAR, reading the header
 POSCAR, INCAR and KPOINTS ok, starting setup
 FFT: planning ... GRIDC
 FFT: planning ... GRID_SOFT
 FFT: planning ... GRID
 reading WAVECAR
 the WAVECAR file was read successfully
 charge-density read from file: unknown                                 
 initial charge from wavefunction
 entering main loop
       N       E                     dE             d eps       ncg     rms          ort
 gam= 0.000 g(H,U,f)=  0.228E+02 0.497E+01 0.168E+01 ort(H,U,f) = 0.000E+00 0.000E+00 0.000E+00
SDA:   1    -0.951814802498E+03   -0.95181E+03    0.00000E+00  5040   0.294E+02 0.000E+00
 gam= 0.000 trial= 0.400  step= 0.422 mean= 0.400
 gam= 0.368 g(H,U,f)=  0.664E+01 0.287E+01 0.130E+01 ort(H,U,f) =-0.477E+01 0.264E+01 0.471E+00
CGA:   2    -0.957980662594E+03   -0.61659E+01   -0.62016E+01  5040   0.108E+02-0.166E+01
 gam= 0.368 trial= 0.401  step= 0.519 mean= 0.401
 gam= 0.200 g(H,U,f)=  0.109E+01 0.107E+01 0.931E-10 ort(H,U,f) = 0.502E+00 0.201E+01 0.179E-09
CGA:   3    -0.960865161957E+03   -0.28845E+01   -0.26489E+01  5040   0.217E+01 0.251E+01
 gam= 0.200 trial= 0.407  step= 0.464 mean= 0.407
 gam= 0.674 g(H,U,f)=  0.993E+00 0.466E+00 0.337E-11 ort(H,U,f) =-0.727E+00 0.782E+00 0.318E-11
CGA:   4    -0.961486977857E+03   -0.62182E+00   -0.61940E+00  5040   0.146E+01 0.554E-01
 gam= 0.674 trial= 0.410  step= 0.622 mean= 0.410
 gam= 0.406 g(H,U,f)=  0.492E+00 0.100E+00 0.747E-16 ort(H,U,f) =-0.285E+00 0.357E+00 0.436E-15
CGA:   5    -0.961961770729E+03   -0.47479E+00   -0.46547E+00  5040   0.592E+00 0.716E-01
 gam= 0.406 trial= 0.420  step= 0.385 mean= 0.420
 gam= 0.325 g(H,U,f)=  0.151E+00 0.409E-01 0.505E-14 ort(H,U,f) =-0.833E-01 0.876E-01 0.325E-13
CGA:   6    -0.962081169400E+03   -0.11940E+00   -0.11960E+00  5040   0.192E+00 0.436E-02
 gam= 0.325 trial= 0.419  step= 0.529 mean= 0.419
 gam= 0.426 g(H,U,f)=  0.694E-01 0.125E-01 0.837E-15 ort(H,U,f) =-0.196E-01 0.211E-01 0.348E-14
CGA:   7    -0.962132511841E+03   -0.51342E-01   -0.51230E-01  5040   0.819E-01 0.150E-02
 gam= 0.426 trial= 0.424  step= 0.437 mean= 0.424
 gam= 0.394 g(H,U,f)=  0.251E-01 0.718E-02 0.410E-16 ort(H,U,f) =-0.133E-01 0.137E-01 0.195E-15
CGA:   8    -0.962150543236E+03   -0.18031E-01   -0.18028E-01  5040   0.322E-01 0.357E-03
 gam= 0.394 trial= 0.425  step= 0.485 mean= 0.425
 gam= 0.538 g(H,U,f)=  0.130E-01 0.436E-02 0.904E-18 ort(H,U,f) =-0.900E-02 0.900E-02 0.385E-17
CGA:   9    -0.962158394359E+03   -0.78511E-02   -0.78507E-02  5040   0.173E-01-0.386E-05
 gam= 0.538 trial= 0.428  step= 0.551 mean= 0.428
 gam= 0.688 g(H,U,f)=  0.898E-02 0.294E-02 0.110E-17 ort(H,U,f) =-0.639E-02 0.630E-02 0.302E-18
CGA:  10    -0.962163168451E+03   -0.47741E-02   -0.47790E-02  5040   0.119E-01-0.862E-04
 gam= 0.688 trial= 0.434  step= 0.697 mean= 0.434
 gam= 0.817 g(H,U,f)=  0.827E-02 0.147E-02 0.155E-19 ort(H,U,f) =-0.386E-02 0.398E-02 0.159E-18
CGA:  11    -0.962167321273E+03   -0.41528E-02   -0.41362E-02  5040   0.974E-02 0.120E-03
 gam= 0.817 trial= 0.447  step= 0.488 mean= 0.447
 gam= 0.520 g(H,U,f)=  0.409E-02 0.978E-03 0.382E-18 ort(H,U,f) =-0.237E-02 0.244E-02-0.435E-18
CGA:  12    -0.962169724125E+03   -0.24029E-02   -0.24014E-02  5040   0.507E-02 0.742E-04
 gam= 0.520 trial= 0.449  step= 0.560 mean= 0.449
 gam= 0.715 g(H,U,f)=  0.289E-02 0.734E-03 0.120E-18 ort(H,U,f) =-0.129E-02 0.129E-02-0.820E-19
CGA:  13    -0.962171154280E+03   -0.14302E-02   -0.14298E-02  5040   0.362E-02 0.722E-05
 gam= 0.715 trial= 0.455  step= 0.591 mean= 0.455
 gam= 0.733 g(H,U,f)=  0.208E-02 0.582E-03 0.332E-18 ort(H,U,f) =-0.108E-02 0.105E-02-0.507E-18
CGA:  14    -0.962172223997E+03   -0.10697E-02   -0.10719E-02  5040   0.266E-02-0.318E-04
 gam= 0.733 trial= 0.462  step= 0.560 mean= 0.462
 gam= 0.835 g(H,U,f)=  0.179E-02 0.429E-03 0.633E-19 ort(H,U,f) =-0.962E-03 0.932E-03-0.114E-19
CGA:  15    -0.962172960398E+03   -0.73640E-03   -0.73794E-03  5040   0.222E-02-0.300E-04
 gam= 0.835 trial= 0.467  step= 0.553 mean= 0.467
 gam= 0.889 g(H,U,f)=  0.158E-02 0.390E-03 0.298E-18 ort(H,U,f) =-0.883E-03 0.865E-03 0.975E-19
CGA:  16    -0.962173566996E+03   -0.60660E-03   -0.60740E-03  5040   0.197E-02-0.180E-04
 gam= 0.889 trial= 0.471  step= 0.587 mean= 0.471
 gam= 1.054 g(H,U,f)=  0.166E-02 0.421E-03 0.199E-18 ort(H,U,f) =-0.870E-03 0.854E-03 0.173E-18
CGA:  17    -0.962174140694E+03   -0.57370E-03   -0.57466E-03  5040   0.208E-02-0.161E-04
 gam= 1.054 trial= 0.477  step= 0.662 mean= 0.477
 gam= 1.126 g(H,U,f)=  0.184E-02 0.505E-03 0.221E-18 ort(H,U,f) =-0.969E-03 0.932E-03-0.407E-18
CGA:  18    -0.962174820992E+03   -0.68030E-03   -0.68372E-03  5040   0.234E-02-0.366E-04
 gam= 1.126 trial= 0.486  step= 0.776 mean= 0.486
 gam= 1.445 g(H,U,f)=  0.271E-02 0.675E-03 0.205E-19 ort(H,U,f) =-0.116E-02 0.112E-02-0.334E-19
CGA:  19    -0.962175708196E+03   -0.88720E-03   -0.89334E-03  5040   0.339E-02-0.416E-04
 gam= 1.445 trial= 0.500  step= 0.698 mean= 0.500
 gam= 1.442 g(H,U,f)=  0.402E-02 0.864E-03 0.991E-20 ort(H,U,f) =-0.172E-02 0.172E-02-0.770E-21
CGA:  20    -0.962176869055E+03   -0.11609E-02   -0.11606E-02  5040   0.488E-02 0.402E-05
 gam= 1.442 trial= 0.510  step= 0.635 mean= 0.510
 gam= 1.152 g(H,U,f)=  0.465E-02 0.974E-03 0.318E-14 ort(H,U,f) =-0.240E-02 0.244E-02-0.713E-14
CGA:  21    -0.962178423494E+03   -0.15544E-02   -0.15517E-02  5040   0.562E-02 0.426E-04
 gam= 1.152 trial= 0.517  step= 0.642 mean= 0.517
 gam= 1.056 g(H,U,f)=  0.494E-02 0.991E-03 0.102E-14 ort(H,U,f) =-0.247E-02 0.244E-02-0.166E-14
CGA:  22    -0.962180241394E+03   -0.18179E-02   -0.18210E-02  5040   0.593E-02-0.278E-04
 gam= 1.056 trial= 0.523  step= 0.635 mean= 0.523
 gam= 0.890 g(H,U,f)=  0.432E-02 0.964E-03 0.405E-15 ort(H,U,f) =-0.192E-02 0.187E-02-0.276E-15
CGA:  23    -0.962182113703E+03   -0.18723E-02   -0.18762E-02  5040   0.528E-02-0.511E-04
 gam= 0.890 trial= 0.528  step= 0.517 mean= 0.528
 gam= 0.711 g(H,U,f)=  0.316E-02 0.598E-03 0.171E-15 ort(H,U,f) =-0.131E-02 0.133E-02 0.992E-16
CGA:  24    -0.962183467724E+03   -0.13540E-02   -0.13542E-02  5040   0.376E-02 0.132E-04
 gam= 0.711 trial= 0.528  step= 0.484 mean= 0.528
 gam= 0.621 g(H,U,f)=  0.187E-02 0.460E-03 0.338E-16 ort(H,U,f) =-0.775E-03 0.796E-03 0.106E-15
CGA:  25    -0.962184378723E+03   -0.91100E-03   -0.91143E-03  5040   0.233E-02 0.209E-04
 gam= 0.621 trial= 0.526  step= 0.499 mean= 0.526
 gam= 0.708 g(H,U,f)=  0.127E-02 0.379E-03 0.115E-17 ort(H,U,f) =-0.571E-03 0.584E-03-0.191E-16
CGA:  26    -0.962184964506E+03   -0.58578E-03   -0.58594E-03  5040   0.165E-02 0.135E-04
 gam= 0.708 trial= 0.524  step= 0.520 mean= 0.524
 gam= 0.706 g(H,U,f)=  0.886E-03 0.280E-03 0.277E-16 ort(H,U,f) =-0.490E-03 0.487E-03-0.615E-16
CGA:  27    -0.962185397103E+03   -0.43260E-03   -0.43259E-03  5040   0.117E-02-0.295E-05
 gam= 0.706 trial= 0.524  step= 0.605 mean= 0.524
 gam= 0.903 g(H,U,f)=  0.822E-03 0.232E-03 0.275E-16 ort(H,U,f) =-0.405E-03 0.390E-03-0.141E-16
CGA:  28    -0.962185748657E+03   -0.35155E-03   -0.35218E-03  5040   0.105E-02-0.150E-04
 gam= 0.903 trial= 0.528  step= 0.545 mean= 0.528
 gam= 0.965 g(H,U,f)=  0.806E-03 0.211E-03 0.152E-16 ort(H,U,f) =-0.397E-03 0.387E-03 0.112E-16
CGA:  29    -0.962186032201E+03   -0.28354E-03   -0.28364E-03  5040   0.102E-02-0.107E-04
 gam= 0.965 trial= 0.529  step= 0.542 mean= 0.529
 gam= 1.039 g(H,U,f)=  0.814E-03 0.242E-03 0.960E-17 ort(H,U,f) =-0.424E-03 0.416E-03 0.204E-16
CGA:  30    -0.962186305097E+03   -0.27290E-03   -0.27295E-03  5040   0.106E-02-0.778E-05
 gam= 1.039 trial= 0.530  step= 0.622 mean= 0.530
 gam= 1.280 g(H,U,f)=  0.103E-02 0.324E-03 0.352E-17 ort(H,U,f) =-0.536E-03 0.528E-03 0.180E-16
CGA:  31    -0.962186630570E+03   -0.32547E-03   -0.32581E-03  5040   0.135E-02-0.804E-05
 gam= 1.280 trial= 0.534  step= 0.702 mean= 0.534
 gam= 0.000 g(H,U,f)=  0.170E-02 0.483E-03 0.215E-17 ort(H,U,f) =-0.855E-03 0.844E-03-0.192E-16
SDA:  32    -0.962187100962E+03   -0.47039E-03   -0.47123E-03  5040   0.219E-02-0.113E-04
 gam= 0.000 trial= 0.543  step= 0.390 mean= 0.543
 gam= 0.585 g(H,U,f)=  0.859E-03 0.421E-03 0.300E-17 ort(H,U,f) =-0.440E-03 0.443E-03 0.258E-17
CGA:  33    -0.962187526556E+03   -0.42559E-03   -0.42583E-03  5040   0.128E-02 0.309E-05
 gam= 0.585 trial= 0.535  step= 0.607 mean= 0.535
 gam= 1.104 g(H,U,f)=  0.108E-02 0.330E-03 0.346E-17 ort(H,U,f) =-0.575E-03 0.584E-03 0.500E-17
CGA:  34    -0.962187915992E+03   -0.38944E-03   -0.38910E-03  5040   0.141E-02 0.935E-05
 gam= 1.104 trial= 0.539  step= 0.718 mean= 0.539
 gam= 1.137 g(H,U,f)=  0.136E-02 0.248E-03 0.546E-18 ort(H,U,f) =-0.704E-03 0.720E-03 0.381E-17
CGA:  35    -0.962188428301E+03   -0.51231E-03   -0.51077E-03  5040   0.161E-02 0.168E-04
 gam= 1.137 trial= 0.548  step= 0.652 mean= 0.548
 gam= 0.990 g(H,U,f)=  0.130E-02 0.285E-03 0.407E-17 ort(H,U,f) =-0.714E-03 0.732E-03-0.145E-16
CGA:  36    -0.962188958526E+03   -0.53022E-03   -0.52927E-03  5040   0.159E-02 0.179E-04
 gam= 0.990 trial= 0.553  step= 0.606 mean= 0.553
 gam= 1.393 g(H,U,f)=  0.184E-02 0.375E-03 0.145E-16 ort(H,U,f) =-0.776E-03 0.790E-03-0.207E-16
CGA:  37    -0.962189445895E+03   -0.48737E-03   -0.48698E-03  5040   0.221E-02 0.143E-04
 gam= 1.393 trial= 0.556  step= 0.654 mean= 0.556
 gam= 1.343 g(H,U,f)=  0.243E-02 0.543E-03 0.141E-16 ort(H,U,f) =-0.116E-02 0.117E-02-0.151E-16
CGA:  38    -0.962190176847E+03   -0.73095E-03   -0.73055E-03  5040   0.297E-02 0.858E-05
 gam= 1.343 trial= 0.560  step= 0.784 mean= 0.560
 gam= 1.641 g(H,U,f)=  0.405E-02 0.825E-03 0.700E-18 ort(H,U,f) =-0.179E-02 0.178E-02-0.165E-17
CGA:  39    -0.962191345358E+03   -0.11685E-02   -0.11700E-02  5040   0.488E-02-0.122E-04
 gam= 1.641 trial= 0.572  step= 0.838 mean= 0.572
 gam= 1.847 g(H,U,f)=  0.764E-02 0.137E-02 0.141E-16 ort(H,U,f) =-0.325E-02 0.320E-02 0.176E-16
CGA:  40    -0.962193373168E+03   -0.20278E-02   -0.20359E-02  5040   0.901E-02-0.546E-04
 gam= 1.847 trial= 0.585  step= 0.807 mean= 0.585
 gam= 2.092 g(H,U,f)=  0.153E-01 0.350E-02 0.789E-16 ort(H,U,f) =-0.618E-02 0.571E-02 0.258E-15
CGA:  41    -0.962196903732E+03   -0.35306E-02   -0.35954E-02  5040   0.189E-01-0.473E-03
 gam= 2.092 trial= 0.596  step= 0.586 mean= 0.596
 gam= 1.516 g(H,U,f)=  0.183E-01 0.103E-01 0.145E-16 ort(H,U,f) =-0.938E-02 0.769E-02-0.401E-16
CGA:  42    -0.962202154196E+03   -0.52505E-02   -0.52329E-02  5040   0.286E-01-0.169E-02
 gam= 1.516 trial= 0.596  step= 0.330 mean= 0.596
 gam= 1.167 g(H,U,f)=  0.173E-01 0.161E-01 0.238E-15 ort(H,U,f) =-0.835E-02 0.919E-02-0.526E-15
CGA:  43    -0.962206838164E+03   -0.46840E-02   -0.42915E-02  5040   0.334E-01 0.842E-03
 gam= 1.167 trial= 0.582  step= 0.277 mean= 0.582
 gam= 1.147 g(H,U,f)=  0.174E-01 0.209E-01 0.126E-14 ort(H,U,f) =-0.997E-02 0.113E-01-0.182E-14
CGA:  44    -0.962211957462E+03   -0.51193E-02   -0.47588E-02  5040   0.383E-01 0.134E-02
 gam= 1.147 trial= 0.567  step= 0.265 mean= 0.567
 gam= 1.289 g(H,U,f)=  0.222E-01 0.271E-01 0.293E-14 ort(H,U,f) =-0.134E-01 0.148E-01-0.215E-14
CGA:  45    -0.962217581844E+03   -0.56244E-02   -0.52659E-02  5040   0.493E-01 0.141E-02
 gam= 1.289 trial= 0.552  step= 0.220 mean= 0.552
 gam= 1.182 g(H,U,f)=  0.240E-01 0.343E-01 0.364E-14 ort(H,U,f) =-0.173E-01 0.198E-01-0.952E-16
CGA:  46    -0.962223656808E+03   -0.60750E-02   -0.56240E-02  5040   0.583E-01 0.249E-02
 gam= 1.182 trial= 0.535  step= 0.187 mean= 0.535
 gam= 1.124 g(H,U,f)=  0.243E-01 0.413E-01 0.281E-14 ort(H,U,f) =-0.216E-01 0.248E-01 0.276E-14
CGA:  47    -0.962229834149E+03   -0.61773E-02   -0.57212E-02  5040   0.655E-01 0.319E-02
 gam= 1.124 trial= 0.518  step= 0.170 mean= 0.518
 gam= 1.157 g(H,U,f)=  0.277E-01 0.481E-01 0.160E-14 ort(H,U,f) =-0.261E-01 0.294E-01 0.363E-14
CGA:  48    -0.962236146866E+03   -0.63127E-02   -0.58777E-02  5040   0.758E-01 0.336E-02
 gam= 1.157 trial= 0.500  step= 0.156 mean= 0.500
 gam= 1.153 g(H,U,f)=  0.326E-01 0.548E-01 0.733E-15 ort(H,U,f) =-0.289E-01 0.322E-01 0.291E-14
CGA:  49    -0.962242766165E+03   -0.66193E-02   -0.62181E-02  5040   0.874E-01 0.330E-02
 gam= 1.153 trial= 0.483  step= 0.144 mean= 0.483
 gam= 1.106 g(H,U,f)=  0.361E-01 0.606E-01 0.130E-15 ort(H,U,f) =-0.289E-01 0.314E-01 0.813E-15
CGA:  50    -0.962249662523E+03   -0.68964E-02   -0.65872E-02  5040   0.967E-01 0.251E-02
 gam= 1.106 trial= 0.466  step= 0.137 mean= 0.466
 gam= 1.050 g(H,U,f)=  0.371E-01 0.645E-01 0.324E-13 ort(H,U,f) =-0.274E-01 0.286E-01 0.102E-12
CGA:  51    -0.962256638318E+03   -0.69758E-02   -0.67909E-02  5040   0.102E+00 0.118E-02
 gam= 1.050 trial= 0.450  step= 0.133 mean= 0.450
 gam= 1.019 g(H,U,f)=  0.375E-01 0.660E-01 0.651E-14 ort(H,U,f) =-0.271E-01 0.273E-01 0.329E-13
CGA:  52    -0.962263571007E+03   -0.69327E-02   -0.68267E-02  5040   0.103E+00 0.285E-03
 gam= 1.019 trial= 0.434  step= 0.132 mean= 0.434
 gam= 1.013 g(H,U,f)=  0.392E-01 0.657E-01 0.149E-14 ort(H,U,f) =-0.272E-01 0.275E-01 0.120E-13
CGA:  53    -0.962270510692E+03   -0.69397E-02   -0.68357E-02  5040   0.105E+00 0.318E-03
 gam= 1.013 trial= 0.419  step= 0.130 mean= 0.419
 gam= 1.010 g(H,U,f)=  0.414E-01 0.645E-01 0.462E-15 ort(H,U,f) =-0.246E-01 0.256E-01 0.636E-14
CGA:  54    -0.962277522139E+03   -0.70114E-02   -0.68545E-02  5040   0.106E+00 0.106E-02
 gam= 1.010 trial= 0.404  step= 0.126 mean= 0.404
 gam= 0.986 g(H,U,f)=  0.412E-01 0.632E-01 0.189E-15 ort(H,U,f) =-0.174E-01 0.195E-01 0.521E-14
CGA:  55    -0.962284468400E+03   -0.69463E-02   -0.67219E-02  5040   0.104E+00 0.211E-02
 gam= 0.986 trial= 0.391  step= 0.118 mean= 0.391
 gam= 0.951 g(H,U,f)=  0.372E-01 0.622E-01 0.659E-16 ort(H,U,f) =-0.810E-02 0.111E-01 0.513E-14
CGA:  56    -0.962291035307E+03   -0.65669E-02   -0.63035E-02  5040   0.993E-01 0.299E-02
 gam= 0.951 trial= 0.377  step= 0.111 mean= 0.377
 gam= 0.930 g(H,U,f)=  0.314E-01 0.610E-01 0.163E-17 ort(H,U,f) =-0.131E-02 0.460E-02-0.577E-15
CGA:  57    -0.962296976207E+03   -0.59409E-02   -0.56837E-02  5040   0.924E-01 0.329E-02
 gam= 0.930 trial= 0.364  step= 0.106 mean= 0.364
 gam= 0.925 g(H,U,f)=  0.264E-01 0.590E-01 0.177E-16 ort(H,U,f) = 0.118E-02 0.189E-02-0.237E-15
CGA:  58    -0.962302234076E+03   -0.52579E-02   -0.50351E-02  5040   0.855E-01 0.307E-02
 gam= 0.925 trial= 0.351  step= 0.101 mean= 0.351
 gam= 0.925 g(H,U,f)=  0.232E-01 0.559E-01 0.517E-16 ort(H,U,f) = 0.133E-02 0.132E-02-0.584E-15
CGA:  59    -0.962306856380E+03   -0.46223E-02   -0.44410E-02  5040   0.791E-01 0.264E-02
 gam= 0.925 trial= 0.338  step= 0.096 mean= 0.338
 gam= 0.926 g(H,U,f)=  0.212E-01 0.521E-01 0.947E-16 ort(H,U,f) = 0.150E-02 0.754E-03-0.993E-15
CGA:  60    -0.962310911772E+03   -0.40554E-02   -0.39108E-02  5040   0.732E-01 0.225E-02
 gam= 0.926 trial= 0.326  step= 0.092 mean= 0.326
 gam= 0.929 g(H,U,f)=  0.197E-01 0.483E-01 0.183E-15 ort(H,U,f) = 0.260E-02-0.590E-03-0.194E-14
CGA:  61    -0.962314476574E+03   -0.35648E-02   -0.34470E-02  5040   0.680E-01 0.201E-02
 gam= 0.929 trial= 0.314  step= 0.088 mean= 0.314
 gam= 0.938 g(H,U,f)=  0.186E-01 0.453E-01 0.386E-15 ort(H,U,f) = 0.424E-02-0.230E-02-0.446E-14
CGA:  62    -0.962317637222E+03   -0.31606E-02   -0.30579E-02  5040   0.638E-01 0.194E-02
 gam= 0.938 trial= 0.303  step= 0.083 mean= 0.303
 gam= 0.000 g(H,U,f)=  0.173E-01 0.430E-01 0.900E-15 ort(H,U,f) = 0.571E-02-0.367E-02-0.122E-13
SDA:  63    -0.962320473278E+03   -0.28361E-02   -0.27381E-02  5040   0.603E-01 0.204E-02
 gam= 0.000 trial= 0.292  step= 1.619 mean= 0.292
 gam= 0.000 trial= 1.898  step= 1.898 mean= 0.461
 gam= 3.417 g(H,U,f)=  0.185E+00 0.216E-01 0.240E-21 ort(H,U,f) =-0.443E-01 0.318E-01-0.124E-21
CGA:  64    -0.962366654421E+03   -0.46181E-01   -0.28724E-03  5040   0.206E+00-0.124E-01
 gam= 3.417 trial= 0.533  step= 0.520 mean= 0.533
 gam= 0.732 g(H,U,f)=  0.142E+00 0.920E-02 0.126E-17 ort(H,U,f) =-0.566E-01 0.511E-01-0.148E-17
CGA:  65    -0.962409291203E+03   -0.42637E-01   -0.42566E-01  5040   0.151E+00-0.554E-02
 gam= 0.732 trial= 0.532  step= 0.400 mean= 0.532
 gam= 0.468 g(H,U,f)=  0.603E-01 0.103E-01 0.343E-16 ort(H,U,f) =-0.464E-02 0.431E-02-0.116E-16
CGA:  66    -0.962438802150E+03   -0.29511E-01   -0.29393E-01  5040   0.707E-01-0.332E-03
 gam= 0.468 trial= 0.525  step= 0.414 mean= 0.525
 gam= 0.578 g(H,U,f)=  0.310E-01 0.981E-02 0.293E-16 ort(H,U,f) =-0.237E-02 0.240E-02 0.395E-16
CGA:  67    -0.962453372118E+03   -0.14570E-01   -0.14577E-01  5040   0.408E-01 0.318E-04
 gam= 0.578 trial= 0.520  step= 0.489 mean= 0.520
 gam= 0.813 g(H,U,f)=  0.227E-01 0.105E-01 0.807E-18 ort(H,U,f) =-0.860E-02 0.863E-02 0.705E-17
CGA:  68    -0.962463348222E+03   -0.99761E-02   -0.99767E-02  5040   0.332E-01 0.268E-04
 gam= 0.813 trial= 0.518  step= 0.558 mean= 0.518
 gam= 0.990 g(H,U,f)=  0.229E-01 0.991E-02 0.358E-18 ort(H,U,f) =-0.146E-01 0.146E-01-0.274E-17
CGA:  69    -0.962472611359E+03   -0.92631E-02   -0.92633E-02  5040   0.329E-01 0.321E-05
 gam= 0.990 trial= 0.520  step= 0.618 mean= 0.520
 gam= 1.165 g(H,U,f)=  0.292E-01 0.911E-02 0.537E-17 ort(H,U,f) =-0.193E-01 0.193E-01 0.402E-17
CGA:  70    -0.962482756106E+03   -0.10145E-01   -0.10149E-01  5040   0.383E-01-0.510E-04
 gam= 1.165 trial= 0.525  step= 0.619 mean= 0.525
 gam= 1.179 g(H,U,f)=  0.343E-01 0.108E-01 0.233E-17 ort(H,U,f) =-0.219E-01 0.218E-01 0.499E-18
CGA:  71    -0.962494581801E+03   -0.11826E-01   -0.11839E-01  5040   0.452E-01-0.179E-03
 gam= 1.179 trial= 0.530  step= 0.707 mean= 0.530
 gam= 1.356 g(H,U,f)=  0.472E-01 0.140E-01 0.917E-19 ort(H,U,f) =-0.246E-01 0.243E-01 0.743E-19
CGA:  72    -0.962510440394E+03   -0.15859E-01   -0.15897E-01  5040   0.612E-01-0.303E-03
 gam= 1.356 trial= 0.539  step= 0.683 mean= 0.539
 gam= 1.293 g(H,U,f)=  0.599E-01 0.192E-01 0.927E-21 ort(H,U,f) =-0.302E-01 0.297E-01 0.414E-20
CGA:  73    -0.962531143374E+03   -0.20703E-01   -0.20763E-01  5040   0.791E-01-0.559E-03
 gam= 1.293 trial= 0.546  step= 0.683 mean= 0.546
 gam= 1.291 g(H,U,f)=  0.758E-01 0.264E-01 0.232E-21 ort(H,U,f) =-0.371E-01 0.352E-01-0.225E-20
CGA:  74    -0.962557709917E+03   -0.26567E-01   -0.26762E-01  5040   0.102E+00-0.191E-02
 gam= 1.291 trial= 0.553  step= 0.618 mean= 0.553
 gam= 1.163 g(H,U,f)=  0.853E-01 0.334E-01 0.531E-20 ort(H,U,f) =-0.415E-01 0.392E-01-0.495E-19
CGA:  75    -0.962588382105E+03   -0.30672E-01   -0.30798E-01  5040   0.119E+00-0.228E-02
 gam= 1.163 trial= 0.556  step= 0.546 mean= 0.556
 gam= 0.988 g(H,U,f)=  0.834E-01 0.340E-01 0.807E-18 ort(H,U,f) =-0.392E-01 0.371E-01 0.684E-17
CGA:  76    -0.962620103018E+03   -0.31721E-01   -0.31699E-01  5040   0.117E+00-0.204E-02
 gam= 0.988 trial= 0.556  step= 0.503 mean= 0.556
 gam= 0.928 g(H,U,f)=  0.741E-01 0.349E-01 0.450E-15 ort(H,U,f) =-0.284E-01 0.269E-01 0.145E-14
CGA:  77    -0.962649234551E+03   -0.29132E-01   -0.29033E-01  5040   0.109E+00-0.150E-02
 gam= 0.928 trial= 0.553  step= 0.465 mean= 0.553
 gam= 0.835 g(H,U,f)=  0.592E-01 0.318E-01 0.364E-14 ort(H,U,f) =-0.191E-01 0.182E-01 0.147E-13
CGA:  78    -0.962674379234E+03   -0.25145E-01   -0.25021E-01  5040   0.910E-01-0.900E-03
 gam= 0.835 trial= 0.549  step= 0.426 mean= 0.549
 gam= 0.788 g(H,U,f)=  0.434E-01 0.283E-01 0.224E-15 ort(H,U,f) =-0.110E-01 0.105E-01 0.259E-14
CGA:  79    -0.962693732801E+03   -0.19354E-01   -0.19212E-01  5040   0.717E-01-0.513E-03
 gam= 0.788 trial= 0.542  step= 0.401 mean= 0.542
 gam= 0.779 g(H,U,f)=  0.315E-01 0.243E-01 0.190E-15 ort(H,U,f) =-0.757E-02 0.735E-02-0.106E-14
CGA:  80    -0.962708118155E+03   -0.14385E-01   -0.14291E-01  5040   0.559E-01-0.218E-03
 gam= 0.779 trial= 0.535  step= 0.383 mean= 0.535
 gam= 0.769 g(H,U,f)=  0.241E-01 0.188E-01 0.734E-15 ort(H,U,f) =-0.659E-02 0.655E-02-0.897E-15
CGA:  81    -0.962718820320E+03   -0.10702E-01   -0.10677E-01  5040   0.430E-01-0.394E-04
 gam= 0.769 trial= 0.528  step= 0.388 mean= 0.528
 gam= 0.782 g(H,U,f)=  0.191E-01 0.145E-01 0.100E-14 ort(H,U,f) =-0.514E-02 0.516E-02 0.722E-16
CGA:  82    -0.962727143432E+03   -0.83231E-02   -0.83220E-02  5040   0.336E-01 0.154E-04
 gam= 0.782 trial= 0.521  step= 0.391 mean= 0.521
 gam= 0.754 g(H,U,f)=  0.145E-01 0.109E-01 0.109E-14 ort(H,U,f) =-0.377E-02 0.381E-02 0.136E-14
CGA:  83    -0.962733712477E+03   -0.65690E-02   -0.65733E-02  5040   0.253E-01 0.392E-04
 gam= 0.754 trial= 0.514  step= 0.393 mean= 0.514
 gam= 0.736 g(H,U,f)=  0.104E-01 0.823E-02 0.116E-14 ort(H,U,f) =-0.289E-02 0.294E-02 0.341E-14
CGA:  84    -0.962738683301E+03   -0.49708E-02   -0.49774E-02  5040   0.187E-01 0.475E-04
 gam= 0.736 trial= 0.508  step= 0.415 mean= 0.508
 gam= 0.795 g(H,U,f)=  0.830E-02 0.653E-02 0.654E-15 ort(H,U,f) =-0.251E-02 0.253E-02 0.510E-14
CGA:  85    -0.962742559240E+03   -0.38759E-02   -0.38761E-02  5040   0.148E-01 0.230E-04
 gam= 0.795 trial= 0.504  step= 0.428 mean= 0.504
 gam= 0.842 g(H,U,f)=  0.693E-02 0.556E-02 0.277E-17 ort(H,U,f) =-0.192E-02 0.191E-02-0.911E-17
CGA:  86    -0.962745737641E+03   -0.31784E-02   -0.31746E-02  5040   0.125E-01-0.114E-04
 gam= 0.842 trial= 0.500  step= 0.427 mean= 0.500
 gam= 0.888 g(H,U,f)=  0.571E-02 0.537E-02 0.225E-16 ort(H,U,f) =-0.174E-02 0.176E-02-0.248E-16
CGA:  87    -0.962748400993E+03   -0.26634E-02   -0.26626E-02  5040   0.111E-01 0.129E-04
 gam= 0.888 trial= 0.496  step= 0.432 mean= 0.496
 gam= 0.941 g(H,U,f)=  0.534E-02 0.509E-02 0.718E-16 ort(H,U,f) =-0.245E-02 0.249E-02 0.641E-17
CGA:  88    -0.962750793192E+03   -0.23922E-02   -0.23948E-02  5040   0.104E-01 0.452E-04
 gam= 0.941 trial= 0.493  step= 0.456 mean= 0.493
 gam= 1.044 g(H,U,f)=  0.587E-02 0.501E-02 0.912E-16 ort(H,U,f) =-0.323E-02 0.328E-02 0.114E-15
CGA:  89    -0.962753176341E+03   -0.23831E-02   -0.23850E-02  5040   0.109E-01 0.535E-04
 gam= 1.044 trial= 0.491  step= 0.478 mean= 0.491
 gam= 1.084 g(H,U,f)=  0.676E-02 0.504E-02 0.308E-16 ort(H,U,f) =-0.408E-02 0.413E-02 0.120E-15
CGA:  90    -0.962755789902E+03   -0.26136E-02   -0.26142E-02  5040   0.118E-01 0.522E-04
 gam= 1.084 trial= 0.490  step= 0.483 mean= 0.490
 gam= 1.055 g(H,U,f)=  0.769E-02 0.477E-02 0.148E-17 ort(H,U,f) =-0.462E-02 0.467E-02-0.559E-17
CGA:  91    -0.962758653445E+03   -0.28635E-02   -0.28639E-02  5040   0.125E-01 0.478E-04
 gam= 1.055 trial= 0.490  step= 0.482 mean= 0.490
 gam= 0.973 g(H,U,f)=  0.775E-02 0.437E-02 0.455E-17 ort(H,U,f) =-0.425E-02 0.426E-02-0.293E-16
CGA:  92    -0.962761670968E+03   -0.30175E-02   -0.30176E-02  5040   0.121E-01 0.866E-05
 gam= 0.973 trial= 0.490  step= 0.459 mean= 0.490
 gam= 0.878 g(H,U,f)=  0.685E-02 0.380E-02 0.140E-17 ort(H,U,f) =-0.298E-02 0.294E-02-0.713E-17
CGA:  93    -0.962764454528E+03   -0.27836E-02   -0.27822E-02  5040   0.106E-01-0.439E-04
 gam= 0.878 trial= 0.488  step= 0.447 mean= 0.488
 gam= 0.000 g(H,U,f)=  0.570E-02 0.326E-02 0.203E-15 ort(H,U,f) =-0.149E-02 0.145E-02-0.259E-14
SDA:  94    -0.962766826842E+03   -0.23723E-02   -0.23707E-02  5040   0.895E-02-0.390E-04
 gam= 0.000 trial= 0.486  step= 1.081 mean= 0.486
 gam= 0.789 g(H,U,f)=  0.469E-02 0.237E-02 0.187E-15 ort(H,U,f) =-0.190E-02 0.189E-02 0.202E-15
CGA:  95    -0.962771662700E+03   -0.48359E-02   -0.48399E-02  5040   0.706E-02-0.141E-04
 gam= 0.789 trial= 0.516  step= 0.861 mean= 0.516
 gam= 0.673 g(H,U,f)=  0.365E-02 0.110E-02 0.226E-15 ort(H,U,f) =-0.180E-02 0.180E-02 0.383E-15
CGA:  96    -0.962774697806E+03   -0.30351E-02   -0.30354E-02  5040   0.475E-02-0.143E-05
 gam= 0.673 trial= 0.533  step= 0.651 mean= 0.533
 gam= 0.560 g(H,U,f)=  0.242E-02 0.237E-03 0.999E-19 ort(H,U,f) =-0.106E-02 0.105E-02 0.752E-17
CGA:  97    -0.962776243412E+03   -0.15456E-02   -0.15466E-02  5040   0.266E-02-0.125E-04
 gam= 0.560 trial= 0.539  step= 0.458 mean= 0.539
 gam= 0.462 g(H,U,f)=  0.975E-03 0.254E-03 0.358E-16 ort(H,U,f) =-0.429E-03 0.427E-03-0.122E-15
CGA:  98    -0.962776851571E+03   -0.60816E-03   -0.60802E-03  5040   0.123E-02-0.139E-05
 gam= 0.462 trial= 0.535  step= 0.631 mean= 0.535
 gam= 0.472 g(H,U,f)=  0.486E-03 0.933E-04 0.864E-17 ort(H,U,f) =-0.194E-03 0.198E-03-0.936E-17
CGA:  99    -0.962777239234E+03   -0.38766E-03   -0.38742E-03  5040   0.580E-03 0.400E-05
 gam= 0.472 trial= 0.540  step= 0.696 mean= 0.540
 gam= 0.639 g(H,U,f)=  0.296E-03 0.745E-04 0.646E-19 ort(H,U,f) =-0.126E-03 0.126E-03 0.409E-18
CGA: 100    -0.962777441758E+03   -0.20252E-03   -0.20249E-03  5040   0.371E-03 0.358E-06
 gam= 0.639 trial= 0.548  step= 0.706 mean= 0.548
 gam= 0.718 g(H,U,f)=  0.203E-03 0.633E-04 0.502E-18 ort(H,U,f) =-0.111E-03 0.110E-03 0.955E-18
CGA: 101    -0.962777572447E+03   -0.13069E-03   -0.13079E-03  5040   0.266E-03-0.118E-05
 gam= 0.718 trial= 0.555  step= 0.740 mean= 0.555
 gam= 1.047 g(H,U,f)=  0.232E-03 0.461E-04 0.683E-18 ort(H,U,f) =-0.103E-03 0.103E-03 0.145E-17
CGA: 102    -0.962777670637E+03   -0.98190E-04   -0.98142E-04  5040   0.279E-03 0.469E-06
 gam= 1.047 trial= 0.565  step= 0.583 mean= 0.565
 gam= 0.877 g(H,U,f)=  0.192E-03 0.523E-04 0.618E-19 ort(H,U,f) =-0.118E-03 0.118E-03-0.585E-18
CGA: 103    -0.962777751949E+03   -0.81312E-04   -0.81306E-04  5040   0.244E-03 0.558E-06
 gam= 0.877 trial= 0.566  step= 0.835 mean= 0.566
 gam= 0.908 g(H,U,f)=  0.178E-03 0.436E-04 0.982E-17 ort(H,U,f) =-0.109E-03 0.109E-03-0.724E-17
CGA: 104    -0.962777854185E+03   -0.10224E-03   -0.10221E-03  5040   0.222E-03 0.211E-06
 gam= 0.908 trial= 0.579  step= 1.100 mean= 0.579
 gam= 1.394 g(H,U,f)=  0.260E-03 0.494E-04 0.435E-19 ort(H,U,f) =-0.104E-03 0.104E-03 0.738E-19
CGA: 105    -0.962777976116E+03   -0.12193E-03   -0.12209E-03  5040   0.309E-03-0.589E-06
 gam= 1.394 trial= 0.605  step= 0.684 mean= 0.605
 gam= 1.262 g(H,U,f)=  0.341E-03 0.494E-04 0.101E-19 ort(H,U,f) =-0.147E-03 0.147E-03 0.736E-19
CGA: 106    -0.962778081581E+03   -0.10546E-03   -0.10549E-03  5040   0.390E-03-0.537E-06
 gam= 1.262 trial= 0.609  step= 0.612 mean= 0.609
 gam= 0.868 g(H,U,f)=  0.285E-03 0.538E-04 0.255E-20 ort(H,U,f) =-0.174E-03 0.174E-03-0.519E-19
CGA: 107    -0.962778200825E+03   -0.11924E-03   -0.11925E-03  5040   0.339E-03-0.374E-06
 gam= 0.868 trial= 0.609  step= 0.782 mean= 0.609
 gam= 0.944 g(H,U,f)=  0.269E-03 0.509E-04 0.216E-19 ort(H,U,f) =-0.138E-03 0.137E-03-0.143E-18
CGA: 108    -0.962778333087E+03   -0.13226E-03   -0.13232E-03  5040   0.320E-03-0.673E-06
 gam= 0.944 trial= 0.618  step= 0.878 mean= 0.618
 gam= 0.927 g(H,U,f)=  0.255E-03 0.413E-04 0.402E-19 ort(H,U,f) =-0.116E-03 0.115E-03-0.186E-18
CGA: 109    -0.962778472999E+03   -0.13991E-03   -0.13999E-03  5040   0.296E-03-0.507E-06
 gam= 0.927 trial= 0.631  step= 0.723 mean= 0.631
 gam= 0.889 g(H,U,f)=  0.220E-03 0.429E-04 0.399E-19 ort(H,U,f) =-0.923E-04 0.921E-04-0.160E-18
CGA: 110    -0.962778579850E+03   -0.10685E-03   -0.10687E-03  5040   0.263E-03-0.236E-06
 gam= 0.889 trial= 0.635  step= 0.648 mean= 0.635
 gam= 0.814 g(H,U,f)=  0.180E-03 0.344E-04 0.169E-19 ort(H,U,f) =-0.855E-04 0.859E-04-0.680E-19
CGA: 111    -0.962778665067E+03   -0.85216E-04   -0.85213E-04  5040   0.214E-03 0.397E-06
 gam= 0.814 trial= 0.636  step= 0.777 mean= 0.636
 gam= 0.790 g(H,U,f)=  0.135E-03 0.348E-04 0.188E-20 ort(H,U,f) =-0.678E-04 0.684E-04 0.370E-20
CGA: 112    -0.962778748546E+03   -0.83479E-04   -0.83435E-04  5040   0.169E-03 0.567E-06
 gam= 0.790 trial= 0.643  step= 0.796 mean= 0.643
 gam= 0.970 g(H,U,f)=  0.137E-03 0.276E-04 0.297E-20 ort(H,U,f) =-0.598E-04 0.599E-04 0.670E-20
CGA: 113    -0.962778816202E+03   -0.67656E-04   -0.67644E-04  5040   0.164E-03 0.176E-06
 gam= 0.970 trial= 0.651  step= 0.722 mean= 0.651
 gam= 0.882 g(H,U,f)=  0.121E-03 0.241E-04 0.257E-19 ort(H,U,f) =-0.611E-04 0.610E-04 0.578E-19
CGA: 114    -0.962778875550E+03   -0.59348E-04   -0.59350E-04  5040   0.145E-03-0.862E-07
 gam= 0.882 trial= 0.654  step= 0.679 mean= 0.654
 gam= 0.835 g(H,U,f)=  0.101E-03 0.204E-04 0.668E-19 ort(H,U,f) =-0.519E-04 0.516E-04 0.143E-18
CGA: 115    -0.962778924725E+03   -0.49175E-04   -0.49178E-04  5040   0.121E-03-0.252E-06
 gam= 0.835 trial= 0.656  step= 0.739 mean= 0.656
 gam= 0.814 g(H,U,f)=  0.828E-04 0.158E-04 0.360E-19 ort(H,U,f) =-0.440E-04 0.436E-04 0.136E-18
CGA: 116    -0.962778969335E+03   -0.44611E-04   -0.44627E-04  5040   0.985E-04-0.382E-06
 gam= 0.814 trial= 0.660  step= 0.729 mean= 0.660
 gam= 0.844 g(H,U,f)=  0.684E-04 0.148E-04 0.319E-20 ort(H,U,f) =-0.331E-04 0.327E-04 0.150E-19
CGA: 117    -0.962779005128E+03   -0.35792E-04   -0.35804E-04  5040   0.832E-04-0.313E-06
 gam= 0.844 trial= 0.663  step= 0.753 mean= 0.663
 gam= 0.890 g(H,U,f)=  0.630E-04 0.111E-04 0.332E-20 ort(H,U,f) =-0.290E-04 0.286E-04-0.377E-19
CGA: 118    -0.962779036322E+03   -0.31195E-04   -0.31212E-04  5040   0.740E-04-0.382E-06
 gam= 0.890 trial= 0.668  step= 0.732 mean= 0.668
 gam= 0.758 g(H,U,f)=  0.437E-04 0.124E-04 0.598E-20 ort(H,U,f) =-0.248E-04 0.246E-04-0.407E-19
CGA: 119    -0.962779063270E+03   -0.26947E-04   -0.26954E-04  5040   0.561E-04-0.215E-06
 gam= 0.758 trial= 0.671  step= 0.893 mean= 0.671
 gam= 1.001 g(H,U,f)=  0.449E-04 0.113E-04 0.146E-19 ort(H,U,f) =-0.209E-04 0.212E-04-0.411E-19
CGA: 120    -0.962779088280E+03   -0.25011E-04   -0.24977E-04  5040   0.562E-04 0.307E-06
 gam= 1.001 trial= 0.682  step= 0.863 mean= 0.682
 gam= 1.236 g(H,U,f)=  0.579E-04 0.116E-04 0.142E-19 ort(H,U,f) =-0.251E-04 0.252E-04-0.253E-19
CGA: 121    -0.962779112678E+03   -0.24398E-04   -0.24386E-04  5040   0.695E-04 0.130E-06
 gam= 1.236 trial= 0.691  step= 0.760 mean= 0.691
 gam= 1.015 g(H,U,f)=  0.579E-04 0.126E-04 0.661E-20 ort(H,U,f) =-0.319E-04 0.321E-04-0.715E-20
CGA: 122    -0.962779139144E+03   -0.26466E-04   -0.26457E-04  5040   0.705E-04 0.242E-06
 gam= 1.015 trial= 0.695  step= 0.943 mean= 0.695
 gam= 1.148 g(H,U,f)=  0.674E-04 0.135E-04 0.138E-20 ort(H,U,f) =-0.348E-04 0.352E-04 0.752E-21
CGA: 123    -0.962779172544E+03   -0.33400E-04   -0.33353E-04  5040   0.809E-04 0.364E-06
 gam= 1.148 trial= 0.707  step= 1.023 mean= 0.707
 gam= 1.218 g(H,U,f)=  0.795E-04 0.190E-04 0.285E-20 ort(H,U,f) =-0.410E-04 0.411E-04 0.277E-20
CGA: 124    -0.962779214157E+03   -0.41613E-04   -0.41595E-04  5040   0.985E-04 0.111E-06
 gam= 1.218 trial= 0.723  step= 1.063 mean= 0.723
 gam= 0.000 g(H,U,f)=  0.121E-03 0.212E-04 0.282E-19 ort(H,U,f) =-0.537E-04 0.539E-04 0.272E-19
SDA: 125    -0.962779266615E+03   -0.52458E-04   -0.52420E-04  5040   0.142E-03 0.160E-06
 gam= 0.000 trial= 0.740  step= 0.495 mean= 0.740
 gam= 0.531 g(H,U,f)=  0.572E-04 0.182E-04 0.100E-19 ort(H,U,f) =-0.186E-04 0.186E-04 0.162E-19
CGA: 126    -0.962779301796E+03   -0.35180E-04   -0.35182E-04  5040   0.754E-04 0.209E-07
 gam= 0.531 trial= 0.727  step= 0.747 mean= 0.727
 gam= 0.869 g(H,U,f)=  0.513E-04 0.142E-04 0.131E-20 ort(H,U,f) =-0.244E-04 0.244E-04 0.398E-20
CGA: 127    -0.962779329977E+03   -0.28181E-04   -0.28182E-04  5040   0.655E-04-0.394E-07
 gam= 0.869 trial= 0.728  step= 0.875 mean= 0.728
 gam= 0.964 g(H,U,f)=  0.530E-04 0.102E-04 0.963E-21 ort(H,U,f) =-0.269E-04 0.268E-04-0.442E-20
CGA: 128    -0.962779358618E+03   -0.28641E-04   -0.28654E-04  5040   0.632E-04-0.183E-06
 gam= 0.964 trial= 0.736  step= 0.796 mean= 0.736
 gam= 0.936 g(H,U,f)=  0.516E-04 0.750E-05 0.426E-20 ort(H,U,f) =-0.262E-04 0.262E-04-0.803E-20
CGA: 129    -0.962779383691E+03   -0.25074E-04   -0.25074E-04  5040   0.591E-04-0.108E-07
 gam= 0.936 trial= 0.739  step= 0.763 mean= 0.739
 gam= 0.789 g(H,U,f)=  0.388E-04 0.784E-05 0.698E-20 ort(H,U,f) =-0.225E-04 0.225E-04-0.400E-20
CGA: 130    -0.962779406245E+03   -0.22554E-04   -0.22554E-04  5040   0.467E-04 0.351E-08
 gam= 0.789 trial= 0.740  step= 0.898 mean= 0.740
 gam= 1.064 g(H,U,f)=  0.421E-04 0.757E-05 0.431E-20 ort(H,U,f) =-0.186E-04 0.185E-04 0.246E-20
CGA: 131    -0.962779427181E+03   -0.20936E-04   -0.20942E-04  5040   0.496E-04-0.740E-07
 gam= 1.064 trial= 0.748  step= 0.815 mean= 0.748
 gam= 0.944 g(H,U,f)=  0.391E-04 0.771E-05 0.176E-20 ort(H,U,f) =-0.203E-04 0.206E-04 0.415E-20
CGA: 132    -0.962779447395E+03   -0.20214E-04   -0.20200E-04  5040   0.468E-04 0.394E-06
 gam= 0.944 trial= 0.751  step= 0.913 mean= 0.751
 gam= 0.974 g(H,U,f)=  0.379E-04 0.768E-05 0.108E-21 ort(H,U,f) =-0.197E-04 0.199E-04 0.106E-20
CGA: 133    -0.962779468946E+03   -0.21552E-04   -0.21539E-04  5040   0.456E-04 0.159E-06
 gam= 0.974 trial= 0.759  step= 0.808 mean= 0.759
 gam= 1.167 g(H,U,f)=  0.464E-04 0.686E-05 0.227E-20 ort(H,U,f) =-0.206E-04 0.209E-04-0.563E-20
CGA: 134    -0.962779487439E+03   -0.18493E-04   -0.18486E-04  5040   0.533E-04 0.283E-06
 gam= 1.167 trial= 0.762  step= 0.708 mean= 0.762
 gam= 0.928 g(H,U,f)=  0.417E-04 0.770E-05 0.652E-20 ort(H,U,f) =-0.237E-04 0.238E-04-0.711E-20
CGA: 135    -0.962779506416E+03   -0.18977E-04   -0.18980E-04  5040   0.494E-04 0.117E-06
 gam= 0.928 trial= 0.759  step= 0.957 mean= 0.759
 gam= 1.035 g(H,U,f)=  0.433E-04 0.791E-05 0.320E-20 ort(H,U,f) =-0.214E-04 0.213E-04 0.651E-22
CGA: 136    -0.962779530117E+03   -0.23701E-04   -0.23710E-04  5040   0.512E-04-0.850E-07
 gam= 1.035 trial= 0.769  step= 0.838 mean= 0.769
 gam= 1.196 g(H,U,f)=  0.524E-04 0.872E-05 0.135E-18 ort(H,U,f) =-0.230E-04 0.231E-04-0.355E-17
CGA: 137    -0.962779551521E+03   -0.21404E-04   -0.21402E-04  5040   0.612E-04 0.778E-07
 gam= 1.196 trial= 0.772  step= 0.684 mean= 0.772
 gam= 1.013 g(H,U,f)=  0.531E-04 0.881E-05 0.744E-18 ort(H,U,f) =-0.286E-04 0.285E-04 0.915E-17
CGA: 138    -0.962779572483E+03   -0.20961E-04   -0.20958E-04  5040   0.619E-04-0.856E-07
 gam= 1.013 trial= 0.768  step= 0.894 mean= 0.768
 gam= 1.131 g(H,U,f)=  0.609E-04 0.917E-05 0.210E-17 ort(H,U,f) =-0.279E-04 0.278E-04 0.155E-16
CGA: 139    -0.962779600133E+03   -0.27650E-04   -0.27659E-04  5040   0.701E-04-0.118E-06
 gam= 1.131 trial= 0.774  step= 0.719 mean= 0.774
 gam= 1.122 g(H,U,f)=  0.693E-04 0.933E-05 0.236E-17 ort(H,U,f) =-0.302E-04 0.301E-04 0.191E-16
CGA: 140    -0.962779625260E+03   -0.25127E-04   -0.25123E-04  5040   0.786E-04-0.698E-07
 gam= 1.122 trial= 0.772  step= 0.689 mean= 0.772
 gam= 0.909 g(H,U,f)=  0.614E-04 0.101E-04 0.296E-17 ort(H,U,f) =-0.312E-04 0.314E-04 0.245E-16
CGA: 141    -0.962779652314E+03   -0.27054E-04   -0.27063E-04  5040   0.715E-04 0.262E-06
 gam= 0.909 trial= 0.767  step= 0.693 mean= 0.767
 gam= 1.007 g(H,U,f)=  0.623E-04 0.978E-05 0.325E-17 ort(H,U,f) =-0.284E-04 0.285E-04 0.243E-16
CGA: 142    -0.962779677179E+03   -0.24865E-04   -0.24870E-04  5040   0.720E-04 0.146E-06
 gam= 1.007 trial= 0.764  step= 0.690 mean= 0.764
 gam= 0.980 g(H,U,f)=  0.610E-04 0.959E-05 0.135E-17 ort(H,U,f) =-0.286E-04 0.288E-04 0.163E-16
CGA: 143    -0.962779702067E+03   -0.24889E-04   -0.24897E-04  5040   0.706E-04 0.226E-06
 gam= 0.980 trial= 0.760  step= 0.618 mean= 0.760
 gam= 0.941 g(H,U,f)=  0.580E-04 0.845E-05 0.351E-20 ort(H,U,f) =-0.280E-04 0.284E-04 0.816E-18
CGA: 144    -0.962779723926E+03   -0.21859E-04   -0.21886E-04  5040   0.664E-04 0.410E-06
 gam= 0.941 trial= 0.753  step= 0.682 mean= 0.753
 gam= 0.918 g(H,U,f)=  0.532E-04 0.772E-05 0.890E-18 ort(H,U,f) =-0.253E-04 0.252E-04-0.113E-16
CGA: 145    -0.962779746715E+03   -0.22789E-04   -0.22787E-04  5040   0.610E-04-0.478E-07
 gam= 0.918 trial= 0.749  step= 0.564 mean= 0.749
 gam= 0.924 g(H,U,f)=  0.499E-04 0.648E-05 0.141E-17 ort(H,U,f) =-0.227E-04 0.228E-04-0.112E-16
CGA: 146    -0.962779763881E+03   -0.17166E-04   -0.17171E-04  5040   0.563E-04 0.182E-07
 gam= 0.924 trial= 0.740  step= 0.596 mean= 0.740
 gam= 0.736 g(H,U,f)=  0.349E-04 0.655E-05 0.109E-17 ort(H,U,f) =-0.198E-04 0.199E-04-0.746E-17
CGA: 147    -0.962779780664E+03   -0.16783E-04   -0.16794E-04  5040   0.415E-04 0.122E-06
 gam= 0.736 trial= 0.733  step= 0.815 mean= 0.733
 gam= 0.911 g(H,U,f)=  0.315E-04 0.631E-05 0.614E-18 ort(H,U,f) =-0.150E-04 0.149E-04-0.314E-17
CGA: 148    -0.962779797587E+03   -0.16923E-04   -0.16924E-04  5040   0.378E-04-0.447E-07
 gam= 0.911 trial= 0.737  step= 0.736 mean= 0.737
 gam= 1.094 g(H,U,f)=  0.347E-04 0.665E-05 0.260E-18 ort(H,U,f) =-0.159E-04 0.159E-04-0.141E-17
CGA: 149    -0.962779811468E+03   -0.13881E-04   -0.13881E-04  5040   0.413E-04 0.146E-07
 gam= 1.094 trial= 0.737  step= 0.722 mean= 0.737
 gam= 1.231 g(H,U,f)=  0.438E-04 0.702E-05 0.354E-19 ort(H,U,f) =-0.194E-04 0.194E-04-0.453E-18
CGA: 150    -0.962779826390E+03   -0.14922E-04   -0.14923E-04  5040   0.509E-04 0.471E-07
 gam= 1.231 trial= 0.736  step= 0.657 mean= 0.736
 gam= 1.014 g(H,U,f)=  0.436E-04 0.797E-05 0.971E-20 ort(H,U,f) =-0.260E-04 0.260E-04 0.263E-18
CGA: 151    -0.962779843120E+03   -0.16730E-04   -0.16729E-04  5040   0.516E-04-0.426E-07
 gam= 1.014 trial= 0.732  step= 0.898 mean= 0.732
 gam= 1.139 g(H,U,f)=  0.496E-04 0.914E-05 0.151E-18 ort(H,U,f) =-0.277E-04 0.279E-04 0.104E-17
CGA: 152    -0.962779866265E+03   -0.23145E-04   -0.23132E-04  5040   0.587E-04 0.155E-06
 gam= 1.139 trial= 0.741  step= 1.030 mean= 0.741
 gam= 1.477 g(H,U,f)=  0.769E-04 0.985E-05 0.531E-18 ort(H,U,f) =-0.336E-04 0.337E-04 0.236E-17
CGA: 153    -0.962779896645E+03   -0.30379E-04   -0.30357E-04  5040   0.868E-04 0.132E-06
 gam= 1.477 trial= 0.755  step= 0.739 mean= 0.755
 gam= 1.178 g(H,U,f)=  0.910E-04 0.113E-04 0.460E-18 ort(H,U,f) =-0.495E-04 0.498E-04 0.350E-17
CGA: 154    -0.962779928751E+03   -0.32107E-04   -0.32110E-04  5040   0.102E-03 0.259E-06
 gam= 1.178 trial= 0.754  step= 0.863 mean= 0.754
 gam= 1.278 g(H,U,f)=  0.119E-03 0.116E-04 0.184E-21 ort(H,U,f) =-0.568E-04 0.568E-04-0.441E-19
CGA: 155    -0.962779973015E+03   -0.44264E-04   -0.44260E-04  5040   0.131E-03 0.466E-07
 gam= 1.278 trial= 0.760  step= 0.714 mean= 0.760
 gam= 0.000 g(H,U,f)=  0.142E-03 0.131E-04 0.506E-18 ort(H,U,f) =-0.669E-04 0.668E-04-0.503E-17
SDA: 156    -0.962780019706E+03   -0.46690E-04   -0.46681E-04  5040   0.155E-03-0.180E-06
 gam= 0.000 trial= 0.757  step= 0.361 mean= 0.757
 gam= 0.477 g(H,U,f)=  0.636E-04 0.102E-04 0.271E-18 ort(H,U,f) =-0.109E-04 0.109E-04 0.372E-18
CGA: 157    -0.962780047646E+03   -0.27941E-04   -0.27953E-04  5040   0.738E-04 0.696E-07
 gam= 0.477 trial= 0.738  step= 0.684 mean= 0.738
 gam= 0.674 g(H,U,f)=  0.416E-04 0.813E-05 0.462E-19 ort(H,U,f) =-0.122E-04 0.122E-04 0.187E-18
CGA: 158    -0.962780072892E+03   -0.25246E-04   -0.25244E-04  5040   0.498E-04-0.893E-07
 gam= 0.674 trial= 0.735  step= 0.755 mean= 0.735
 gam= 0.879 g(H,U,f)=  0.394E-04 0.435E-05 0.293E-19 ort(H,U,f) =-0.112E-04 0.113E-04 0.139E-18
CGA: 159    -0.962780091656E+03   -0.18764E-04   -0.18763E-04  5040   0.438E-04 0.528E-07
 gam= 0.879 trial= 0.736  step= 0.563 mean= 0.736
 gam= 0.530 g(H,U,f)=  0.201E-04 0.311E-05 0.219E-19 ort(H,U,f) =-0.101E-04 0.101E-04 0.132E-18
CGA: 160    -0.962780103987E+03   -0.12331E-04   -0.12330E-04  5040   0.232E-04-0.369E-10
 gam= 0.530 trial= 0.727  step= 0.761 mean= 0.727
 gam= 0.805 g(H,U,f)=  0.162E-04 0.247E-05 0.161E-20 ort(H,U,f) =-0.554E-05 0.536E-05 0.251E-19
CGA: 161    -0.962780112817E+03   -0.88302E-05   -0.88333E-05  5040   0.187E-04-0.182E-06
 gam= 0.805 trial= 0.729  step= 0.609 mean= 0.729
 final diagonalization
   1 F= -.96278011E+03 E0= -.96278011E+03  d E =-.767226E-14
 writing wavefunctions
Warning: ieee_invalid is signaling
Warning: ieee_divide_by_zero is signaling
Warning: ieee_underflow is signaling
Warning: ieee_inexact is signaling
FORTRAN STOP
Warning: ieee_invalid is signaling
Warning: ieee_divide_by_zero is signaling
Warning: ieee_underflow is signaling
Warning: ieee_inexact is signaling
FORTRAN STOP
Warning: ieee_invalid is signaling
Warning: ieee_divide_by_zero is signaling
Warning: ieee_underflow is signaling
Warning: ieee_inexact is signaling
FORTRAN STOP
Warning: ieee_invalid is signaling
Warning: ieee_divide_by_zero is signaling
Warning: ieee_underflow is signaling
Warning: ieee_inexact is signaling
FORTRAN STOP
