<?xml version="1.0" encoding="ISO-8859-1"?>
<modeling>
 <generator>
  <i name="program" type="string">vasp </i>
  <i name="version" type="string">6.4.2  </i>
  <i name="subversion" type="string">20Jul23 (build Nov 12 2023 22:16:35) complex                          parallel </i>
  <i name="platform" type="string">LinuxNV </i>
  <i name="date" type="string">2025 05 16 </i>
  <i name="time" type="string">11:42:08 </i>
 </generator>
 <incar>
  <i type="int" name="ISTART">     1</i>
  <i type="string" name="PREC">Normal</i>
  <i type="string" name="ALGO">All</i>
  <i type="int" name="ISPIN">     1</i>
  <i type="int" name="ICHARG">     1</i>
  <i type="int" name="NELM">   500</i>
  <i type="int" name="IBRION">    -1</i>
  <i name="EDIFF">      0.00001000</i>
  <i name="EDIFFG">     -0.00500000</i>
  <i type="int" name="NSW">     0</i>
  <i type="int" name="ISIF">     2</i>
  <i type="int" name="ISYM">     0</i>
  <i name="ENCUT">    450.00000000</i>
  <i type="string" name="LREAL">Auto</i>
  <i type="logical" name="LPLANE"> T  </i>
  <i name="TIME">      0.40000000</i>
  <i type="int" name="ISMEAR">     0</i>
  <i name="SIGMA">      0.05000000</i>
  <i type="logical" name="LWAVE"> T  </i>
  <i type="logical" name="LCHARG"> T  </i>
  <i type="int" name="ICORELEVEL">     1</i>
  <i name="HFSCREEN">      0.20000000</i>
  <i type="logical" name="LHFCALC"> T  </i>
  <i type="int" name="LMAXFOCK">     4</i>
  <i name="AEXX">      0.32000000</i>
  <i type="string" name="PRECFOCK">Fast</i>
 </incar>
 <primitive_cell>
  <structure name="primitive_cell" >
   <crystal>
    <varray name="basis" >
     <v>       0.00000000      12.28047371       0.00000000 </v>
     <v>       9.14270115       0.00000000       0.00000000 </v>
     <v>       0.00000000      -2.76826164     -11.30069748 </v>
    </varray>
    <i name="volume">   1268.80503319 </i>
    <varray name="rec_basis" >
     <v>       0.00000000       0.08143008      -0.01994742 </v>
     <v>       0.10937687      -0.00000000       0.00000000 </v>
     <v>       0.00000000       0.00000000      -0.08849011 </v>
    </varray>
   </crystal>
   <varray name="positions" >
    <v>       0.65854710       0.00045250       0.15670063 </v>
    <v>       0.65823398       0.99957819       0.65643034 </v>
    <v>       0.65990472       0.33374759       0.15573231 </v>
    <v>       0.65955440       0.33283430       0.65694063 </v>
    <v>       0.65868429       0.66661868       0.15595499 </v>
    <v>       0.65802522       0.66559505       0.65591109 </v>
    <v>       0.84086257       0.16734914       0.34392572 </v>
    <v>       0.84087678       0.16635488       0.84329819 </v>
    <v>       0.84161510       0.49989285       0.34344058 </v>
    <v>       0.84095162       0.50017960       0.84345851 </v>
    <v>       0.84036178       0.83375288       0.34353495 </v>
    <v>       0.84072481       0.83309686       0.84332068 </v>
    <v>       0.58845808       0.16679581       0.39657113 </v>
    <v>       0.59140759       0.16654852       0.89772984 </v>
    <v>       0.58957436       0.50233396       0.39568382 </v>
    <v>       0.59087092       0.49996542       0.89767036 </v>
    <v>       0.59148384       0.83465804       0.39803763 </v>
    <v>       0.59123442       0.83328105       0.89764343 </v>
    <v>       0.90780662       0.00111085       0.10238277 </v>
    <v>       0.90925950       0.99962944       0.60263185 </v>
    <v>       0.91025654       0.33470363       0.10272506 </v>
    <v>       0.90960264       0.33307168       0.60245565 </v>
    <v>       0.91064299       0.66622579       0.10321133 </v>
    <v>       0.90912851       0.66657414       0.60249668 </v>
    <v>       0.15894402       0.16726213       0.15739162 </v>
    <v>       0.15968749       0.16612989       0.65776416 </v>
    <v>       0.16369188       0.50088366       0.15711068 </v>
    <v>       0.15937938       0.49989729       0.65773688 </v>
    <v>       0.15826081       0.83439932       0.15707728 </v>
    <v>       0.15991671       0.83284907       0.65677188 </v>
    <v>       0.34002038       0.00074401       0.34404943 </v>
    <v>       0.34163313       0.99986774       0.84342515 </v>
    <v>       0.34136887       0.33345549       0.84504006 </v>
    <v>       0.33987277       0.66405418       0.33700896 </v>
    <v>       0.34167111       0.66593656       0.84459708 </v>
    <v>       0.09053490       0.00069093       0.39781675 </v>
    <v>       0.09142192       0.00008638       0.89810326 </v>
    <v>       0.09344957       0.33306220       0.39923149 </v>
    <v>       0.09007117       0.33291239       0.89737570 </v>
    <v>       0.09007763       0.66780958       0.39789259 </v>
    <v>       0.09081649       0.66702876       0.89740110 </v>
    <v>       0.40942363       0.16823003       0.10354053 </v>
    <v>       0.40830692       0.16550091       0.60158680 </v>
    <v>       0.40647836       0.49859201       0.10726384 </v>
    <v>       0.40853285       0.49545455       0.60269170 </v>
    <v>       0.40937398       0.83306806       0.10225553 </v>
    <v>       0.40772697       0.83072862       0.60065117 </v>
    <v>       0.99627812       0.16703658       0.12841134 </v>
    <v>       0.99684687       0.16624652       0.62726608 </v>
    <v>       0.99926314       0.50005406       0.12836948 </v>
    <v>       0.99668783       0.49997201       0.62720958 </v>
    <v>       0.99550208       0.83498558       0.12694244 </v>
    <v>       0.99695211       0.83303266       0.62723346 </v>
    <v>       0.50264474       0.00006739       0.37244693 </v>
    <v>       0.50410696       0.00002741       0.87261462 </v>
    <v>       0.49516898       0.33497651       0.36800552 </v>
    <v>       0.50406100       0.33298371       0.87194669 </v>
    <v>       0.50430124       0.66896413       0.37487439 </v>
    <v>       0.50402174       0.66676685       0.87147862 </v>
    <v>       0.67153009       0.16866558       0.28121138 </v>
    <v>       0.67260399       0.16601404       0.78009623 </v>
    <v>       0.67227543       0.49952390       0.28040643 </v>
    <v>       0.67251023       0.49970350       0.78007277 </v>
    <v>       0.67249586       0.83388541       0.28053052 </v>
    <v>       0.67223143       0.83245927       0.78008588 </v>
    <v>       0.82672061       0.00130820       0.22004304 </v>
    <v>       0.82673077       0.99999151       0.71886551 </v>
    <v>       0.82770905       0.33392974       0.21947648 </v>
    <v>       0.82737262       0.33294731       0.71909441 </v>
    <v>       0.82765137       0.66633764       0.21962822 </v>
    <v>       0.82677849       0.66603136       0.71888645 </v>
    <v>       0.83168757       0.00057627       0.44620809 </v>
    <v>       0.83159418       0.00003696       0.94553430 </v>
    <v>       0.83223776       0.33371359       0.44610312 </v>
    <v>       0.83290273       0.33344696       0.94597467 </v>
    <v>       0.83219754       0.66641795       0.44585622 </v>
    <v>       0.83316218       0.66648942       0.94631836 </v>
    <v>       0.66880286       0.16631396       0.05419769 </v>
    <v>       0.66538807       0.16726478       0.55270406 </v>
    <v>       0.66903052       0.50044089       0.05374805 </v>
    <v>       0.66576977       0.49809822       0.55241926 </v>
    <v>       0.66785603       0.83379613       0.05431852 </v>
    <v>       0.66789675       0.83316128       0.55459347 </v>
    <v>       0.49618056       0.00077612       0.12793411 </v>
    <v>       0.49529334       0.99805491       0.62602788 </v>
    <v>       0.49826543       0.33332973       0.12663521 </v>
    <v>       0.49735567       0.33090575       0.62714141 </v>
    <v>       0.49648109       0.66613856       0.12640904 </v>
    <v>       0.49480055       0.66335915       0.62522060 </v>
    <v>       0.00384039       0.16791177       0.37315499 </v>
    <v>       0.00304595       0.16591096       0.87188792 </v>
    <v>       0.00467008       0.49901731       0.37303704 </v>
    <v>       0.00342928       0.50023123       0.87188674 </v>
    <v>       0.00253579       0.83462552       0.37385202 </v>
    <v>       0.00336050       0.83384501       0.87206071 </v>
    <v>       0.17234151       0.00185953       0.28090675 </v>
    <v>       0.17295050       0.99966675       0.78077789 </v>
    <v>       0.17763635       0.33049610       0.28386222 </v>
    <v>       0.17281911       0.33284453       0.78137043 </v>
    <v>       0.16904028       0.67271254       0.28037819 </v>
    <v>       0.17297015       0.66627014       0.78071080 </v>
    <v>       0.32862194       0.17215074       0.22299407 </v>
    <v>       0.32806515       0.16635293       0.72006747 </v>
    <v>       0.32764340       0.49908984       0.71995932 </v>
    <v>       0.32687188       0.83755230       0.21805774 </v>
    <v>       0.32775708       0.83264777       0.71929092 </v>
    <v>       0.33391494       0.17103486       0.44427004 </v>
    <v>       0.33278722       0.16627534       0.94671396 </v>
    <v>       0.33168430       0.48855227       0.44352696 </v>
    <v>       0.33444992       0.49978855       0.94709172 </v>
    <v>       0.33206350       0.83034332       0.44374175 </v>
    <v>       0.33292416       0.83356027       0.94551972 </v>
    <v>       0.16813607       0.00138024       0.05480894 </v>
    <v>       0.16892457       0.00008055       0.55415776 </v>
    <v>       0.16560761       0.33148017       0.05366008 </v>
    <v>       0.16877680       0.33305164       0.55581949 </v>
    <v>       0.16765559       0.66906277       0.05350944 </v>
    <v>       0.16879691       0.66576856       0.55412528 </v>
    <v>       0.32676617       0.49696629       0.22652236 </v>
    <v>       0.34183624       0.33824414       0.33806494 </v>
   </varray>
  </structure>
  <varray name="primitive_index" >
   <v type="int" >        1 </v>
   <v type="int" >        2 </v>
   <v type="int" >        3 </v>
   <v type="int" >        4 </v>
   <v type="int" >        5 </v>
   <v type="int" >        6 </v>
   <v type="int" >        7 </v>
   <v type="int" >        8 </v>
   <v type="int" >        9 </v>
   <v type="int" >       10 </v>
   <v type="int" >       11 </v>
   <v type="int" >       12 </v>
   <v type="int" >       13 </v>
   <v type="int" >       14 </v>
   <v type="int" >       15 </v>
   <v type="int" >       16 </v>
   <v type="int" >       17 </v>
   <v type="int" >       18 </v>
   <v type="int" >       19 </v>
   <v type="int" >       20 </v>
   <v type="int" >       21 </v>
   <v type="int" >       22 </v>
   <v type="int" >       23 </v>
   <v type="int" >       24 </v>
   <v type="int" >       25 </v>
   <v type="int" >       26 </v>
   <v type="int" >       27 </v>
   <v type="int" >       28 </v>
   <v type="int" >       29 </v>
   <v type="int" >       30 </v>
   <v type="int" >       31 </v>
   <v type="int" >       32 </v>
   <v type="int" >       33 </v>
   <v type="int" >       34 </v>
   <v type="int" >       35 </v>
   <v type="int" >       36 </v>
   <v type="int" >       37 </v>
   <v type="int" >       38 </v>
   <v type="int" >       39 </v>
   <v type="int" >       40 </v>
   <v type="int" >       41 </v>
   <v type="int" >       42 </v>
   <v type="int" >       43 </v>
   <v type="int" >       44 </v>
   <v type="int" >       45 </v>
   <v type="int" >       46 </v>
   <v type="int" >       47 </v>
   <v type="int" >       48 </v>
   <v type="int" >       49 </v>
   <v type="int" >       50 </v>
   <v type="int" >       51 </v>
   <v type="int" >       52 </v>
   <v type="int" >       53 </v>
   <v type="int" >       54 </v>
   <v type="int" >       55 </v>
   <v type="int" >       56 </v>
   <v type="int" >       57 </v>
   <v type="int" >       58 </v>
   <v type="int" >       59 </v>
   <v type="int" >       60 </v>
   <v type="int" >       61 </v>
   <v type="int" >       62 </v>
   <v type="int" >       63 </v>
   <v type="int" >       64 </v>
   <v type="int" >       65 </v>
   <v type="int" >       66 </v>
   <v type="int" >       67 </v>
   <v type="int" >       68 </v>
   <v type="int" >       69 </v>
   <v type="int" >       70 </v>
   <v type="int" >       71 </v>
   <v type="int" >       72 </v>
   <v type="int" >       73 </v>
   <v type="int" >       74 </v>
   <v type="int" >       75 </v>
   <v type="int" >       76 </v>
   <v type="int" >       77 </v>
   <v type="int" >       78 </v>
   <v type="int" >       79 </v>
   <v type="int" >       80 </v>
   <v type="int" >       81 </v>
   <v type="int" >       82 </v>
   <v type="int" >       83 </v>
   <v type="int" >       84 </v>
   <v type="int" >       85 </v>
   <v type="int" >       86 </v>
   <v type="int" >       87 </v>
   <v type="int" >       88 </v>
   <v type="int" >       89 </v>
   <v type="int" >       90 </v>
   <v type="int" >       91 </v>
   <v type="int" >       92 </v>
   <v type="int" >       93 </v>
   <v type="int" >       94 </v>
   <v type="int" >       95 </v>
   <v type="int" >       96 </v>
   <v type="int" >       97 </v>
   <v type="int" >       98 </v>
   <v type="int" >       99 </v>
   <v type="int" >      100 </v>
   <v type="int" >      101 </v>
   <v type="int" >      102 </v>
   <v type="int" >      103 </v>
   <v type="int" >      104 </v>
   <v type="int" >      105 </v>
   <v type="int" >      106 </v>
   <v type="int" >      107 </v>
   <v type="int" >      108 </v>
   <v type="int" >      109 </v>
   <v type="int" >      110 </v>
   <v type="int" >      111 </v>
   <v type="int" >      112 </v>
   <v type="int" >      113 </v>
   <v type="int" >      114 </v>
   <v type="int" >      115 </v>
   <v type="int" >      116 </v>
   <v type="int" >      117 </v>
   <v type="int" >      118 </v>
   <v type="int" >      119 </v>
   <v type="int" >      120 </v>
  </varray>
 </primitive_cell>
 <kpoints>
  <generation param="Gamma">
   <v type="int" name="divisions">       2        2        2 </v>
   <v name="usershift">      0.00000000       0.00000000       0.00000000 </v>
   <v name="genvec1">      0.50000000       0.00000000      -0.00000000 </v>
   <v name="genvec2">      0.00000000       0.50000000       0.00000000 </v>
   <v name="genvec3">      0.00000000       0.00000000       0.50000000 </v>
   <v name="shift">      0.00000000       0.00000000       0.00000000 </v>
  </generation>
  <varray name="kpointlist" >
   <v>       0.00000000       0.00000000       0.00000000 </v>
   <v>       0.50000000       0.00000000       0.00000000 </v>
   <v>       0.00000000       0.50000000       0.00000000 </v>
   <v>       0.50000000       0.50000000       0.00000000 </v>
   <v>       0.00000000       0.00000000       0.50000000 </v>
   <v>       0.50000000       0.00000000       0.50000000 </v>
   <v>       0.00000000       0.50000000       0.50000000 </v>
   <v>       0.50000000       0.50000000       0.50000000 </v>
  </varray>
  <varray name="weights" >
   <v>       0.12500000 </v>
   <v>       0.12500000 </v>
   <v>       0.12500000 </v>
   <v>       0.12500000 </v>
   <v>       0.12500000 </v>
   <v>       0.12500000 </v>
   <v>       0.12500000 </v>
   <v>       0.12500000 </v>
  </varray>
 </kpoints>
 <parameters>
  <separator name="general" >
   <i type="string" name="SYSTEM">unknown system</i>
   <i type="logical" name="LCOMPAT"> F  </i>
  </separator>
  <separator name="electronic" >
   <i type="string" name="PREC">normal</i>
   <i name="ENMAX">    450.00000000</i>
   <i name="ENAUG">    627.11200000</i>
   <i name="EDIFF">      0.00001000</i>
   <i type="int" name="IALGO">    58</i>
   <i type="int" name="IWAVPR">    10</i>
   <i type="int" name="NBANDS">   630</i>
   <i type="int" name="NBANDSLOW">    -1</i>
   <i type="int" name="NBANDSHIGH">    -1</i>
   <i name="NELECT">   1050.00000000</i>
   <i type="int" name="TURBO">     0</i>
   <i type="int" name="IRESTART">     0</i>
   <i type="int" name="NREBOOT">     0</i>
   <i type="int" name="NMIN">     0</i>
   <i name="EREF">      0.00000000</i>
   <separator name="electronic smearing" >
    <i type="int" name="ISMEAR">     0</i>
    <i name="SIGMA">      0.05000000</i>
    <i name="KSPACING">      0.50000000</i>
    <i type="logical" name="KGAMMA"> T  </i>
    <i type="logical" name="KBLOWUP"> T  </i>
   </separator>
   <separator name="electronic projectors" >
    <i type="logical" name="LREAL"> T  </i>
    <v name="ROPT">     -0.00050000     -0.00050000     -0.00050000     -0.00050000</v>
    <i type="int" name="LMAXPAW">  -100</i>
    <i type="int" name="LMAXMIX">     2</i>
    <i type="logical" name="NLSPLINE"> F  </i>
   </separator>
   <separator name="electronic startup" >
    <i type="int" name="ISTART">     1</i>
    <i type="int" name="ICHARG">     1</i>
    <i type="int" name="INIWAV">     1</i>
   </separator>
   <separator name="electronic spin" >
    <i type="int" name="ISPIN">     1</i>
    <i type="logical" name="LNONCOLLINEAR"> F  </i>
    <v name="MAGMOM">      1.00000000      1.00000000      1.00000000      1.00000000      1.00000000      1.00000000      1.00000000      1.00000000      1.00000000      1.00000000      1.00000000      1.00000000      1.00000000      1.00000000      1.00000000      1.00000000      1.00000000      1.00000000      1.00000000      1.00000000
      1.00000000      1.00000000      1.00000000      1.00000000      1.00000000      1.00000000      1.00000000      1.00000000      1.00000000      1.00000000      1.00000000      1.00000000      1.00000000      1.00000000      1.00000000      1.00000000      1.00000000      1.00000000      1.00000000      1.00000000
      1.00000000      1.00000000      1.00000000      1.00000000      1.00000000      1.00000000      1.00000000      1.00000000      1.00000000      1.00000000      1.00000000      1.00000000      1.00000000      1.00000000      1.00000000      1.00000000      1.00000000      1.00000000      1.00000000      1.00000000
      1.00000000      1.00000000      1.00000000      1.00000000      1.00000000      1.00000000      1.00000000      1.00000000      1.00000000      1.00000000      1.00000000      1.00000000      1.00000000      1.00000000      1.00000000      1.00000000      1.00000000      1.00000000      1.00000000      1.00000000
      1.00000000      1.00000000      1.00000000      1.00000000      1.00000000      1.00000000      1.00000000      1.00000000      1.00000000      1.00000000      1.00000000      1.00000000      1.00000000      1.00000000      1.00000000      1.00000000      1.00000000      1.00000000      1.00000000      1.00000000
      1.00000000      1.00000000      1.00000000      1.00000000      1.00000000      1.00000000      1.00000000      1.00000000      1.00000000      1.00000000      1.00000000      1.00000000      1.00000000      1.00000000      1.00000000      1.00000000      1.00000000      1.00000000      1.00000000      1.00000000
</v>
    <i name="NUPDOWN">     -1.00000000</i>
    <i type="logical" name="LSORBIT"> F  </i>
    <v name="SAXIS">      0.00000000      0.00000000      1.00000000</v>
    <i type="logical" name="LSPIRAL"> F  </i>
    <v name="QSPIRAL">      0.00000000      0.00000000      0.00000000</v>
    <i type="logical" name="LZEROZ"> F  </i>
   </separator>
   <separator name="electronic exchange-correlation" >
    <i type="logical" name="LASPH"> F  </i>
    <i type="logical" name="LMETAGGA"> F  </i>
   </separator>
   <separator name="electronic convergence" >
    <i type="int" name="NELM">   500</i>
    <i type="int" name="NELMDL">     0</i>
    <i type="int" name="NELMIN">     2</i>
    <i name="ENINI">    450.00000000</i>
    <separator name="electronic convergence detail" >
     <i type="logical" name="LDIAG"> T  </i>
     <i type="logical" name="LSUBROT"> F  </i>
     <i name="WEIMIN">      0.00000000</i>
     <i name="EBREAK">      0.00000000</i>
     <i name="DEPER">      0.30000000</i>
     <i type="int" name="NRMM">     4</i>
     <i name="TIME">      0.40000000</i>
    </separator>
   </separator>
   <separator name="electronic mixer" >
    <i name="AMIX">      0.40000000</i>
    <i name="BMIX">      1.00000000</i>
    <i name="AMIN">      0.10000000</i>
    <i name="AMIX_MAG">      1.60000000</i>
    <i name="BMIX_MAG">      1.00000000</i>
    <separator name="electronic mixer details" >
     <i type="int" name="IMIX">     4</i>
     <i type="logical" name="MIXFIRST"> F  </i>
     <i type="int" name="MAXMIX">   -45</i>
     <i name="WC">    100.00000000</i>
     <i type="int" name="INIMIX">     1</i>
     <i type="int" name="MIXPRE">     1</i>
     <i type="int" name="MREMOVE">     5</i>
    </separator>
   </separator>
   <separator name="electronic dipolcorrection" >
    <i type="logical" name="LDIPOL"> F  </i>
    <i type="logical" name="LMONO"> F  </i>
    <i type="int" name="IDIPOL">     0</i>
    <i name="EPSILON">      1.00000000</i>
    <v name="DIPOL">   -100.00000000   -100.00000000   -100.00000000</v>
    <i name="EFIELD">      0.00000000</i>
   </separator>
  </separator>
  <separator name="grids" >
   <i type="int" name="NGX">    64</i>
   <i type="int" name="NGY">    48</i>
   <i type="int" name="NGZ">    60</i>
   <i type="int" name="NGXF">   128</i>
   <i type="int" name="NGYF">    96</i>
   <i type="int" name="NGZF">   120</i>
   <i type="logical" name="ADDGRID"> F  </i>
  </separator>
  <separator name="ionic" >
   <i type="int" name="NSW">     0</i>
   <i type="int" name="IBRION">    -1</i>
   <i type="int" name="MDALGO">     0</i>
   <i type="int" name="ISIF">     2</i>
   <i name="PSTRESS">      0.00000000</i>
   <i name="EDIFFG">     -0.00500000</i>
   <i type="int" name="NFREE">     0</i>
   <i name="POTIM">      0.50000000</i>
   <i name="SMASS">     -3.00000000</i>
   <i name="SCALEE">      1.00000000</i>
  </separator>
  <separator name="ionic md" >
   <i name="TEBEG">      0.00010000</i>
   <i name="TEEND">      0.00010000</i>
   <i type="int" name="NBLOCK">     1</i>
   <i type="int" name="KBLOCK">     1</i>
   <i type="int" name="NPACO">   256</i>
   <i name="APACO">     10.00000000</i>
  </separator>
  <separator name="symmetry" >
   <i type="int" name="ISYM">     0</i>
   <i name="SYMPREC">      0.00001000</i>
  </separator>
  <separator name="dos" >
   <i type="int" name="LORBIT">     0</i>
   <v name="RWIGS">     -1.00000000     -1.00000000     -1.00000000     -1.00000000</v>
   <i type="int" name="NEDOS">   301</i>
   <i name="EMIN">     10.00000000</i>
   <i name="EMAX">    -10.00000000</i>
   <i name="EFERMI">      0.00000000</i>
  </separator>
  <separator name="writing" >
   <i type="int" name="NWRITE">     2</i>
   <i type="logical" name="LWAVE"> T  </i>
   <i type="logical" name="LDOWNSAMPLE"> F  </i>
   <i type="logical" name="LCHARG"> T  </i>
   <i type="logical" name="LPARD"> F  </i>
   <i type="logical" name="LVTOT"> F  </i>
   <i type="logical" name="LVHAR"> F  </i>
   <i type="logical" name="LELF"> F  </i>
   <i type="logical" name="LOPTICS"> F  </i>
   <v name="STM">      0.00000000      0.00000000      0.00000000      0.00000000      0.00000000      0.00000000      0.00000000</v>
  </separator>
  <separator name="performance" >
   <i type="int" name="NPAR">     1</i>
   <i type="int" name="NSIM">     4</i>
   <i type="int" name="NBLK">    -1</i>
   <i type="logical" name="LPLANE"> T  </i>
   <i type="logical" name="LSCALAPACK"> T  </i>
   <i type="logical" name="LSCAAWARE"> F  </i>
   <i type="logical" name="LSCALU"> F  </i>
   <i type="logical" name="LASYNC"> F  </i>
   <i type="logical" name="LORBITALREAL"> F  </i>
  </separator>
  <separator name="miscellaneous" >
   <i type="int" name="IDIOT">     3</i>
   <i type="int" name="PHON_NSTRUCT">    -1</i>
   <i type="logical" name="LMUSIC"> F  </i>
   <v name="POMASS">     69.72300000     16.00000000     14.00100000     55.84700000</v>
   <v name="DARWINR">      0.00000000      0.00000000      0.00000000      0.00000000</v>
   <v name="DARWINV">      1.00000000      1.00000000      1.00000000      1.00000000</v>
   <i type="logical" name="LCORR"> T  </i>
  </separator>
  <i type="logical" name="GGA_COMPAT"> T  </i>
  <i type="logical" name="LBERRY"> F  </i>
  <i type="int" name="ICORELEVEL">     1</i>
  <i type="int" name="CLNT">     1</i>
  <i type="int" name="CLN">     1</i>
  <i type="int" name="CLL">     0</i>
  <i name="CLZ">      0.00000000</i>
  <i type="logical" name="LDAU"> F  </i>
  <i type="int" name="I_CONSTRAINED_M">     0</i>
  <separator name="electronic exchange-correlation" >
   <i type="string" name="GGA">--</i>
   <i type="int" name="VOSKOWN">     0</i>
   <i type="logical" name="LHFCALC"> T  </i>
   <i type="string" name="PRECFOCK">fast</i>
   <i type="logical" name="LSYMGRAD"> F  </i>
   <i type="logical" name="LHFONE"> F  </i>
   <i type="logical" name="LRHFCALC"> F  </i>
   <i type="logical" name="LTHOMAS"> F  </i>
   <i type="logical" name="LMODELHF"> F  </i>
   <i type="logical" name="LFOCKACE"> T  </i>
   <i name="ENCUT4O">     -1.00000000</i>
   <i type="int" name="EXXOEP">     0</i>
   <i type="int" name="FOURORBIT">     0</i>
   <i name="AEXX">      0.32000000</i>
   <i name="HFALPHA">     -1.00000000</i>
   <i name="MCALPHA">      0.00000000</i>
   <i name="ALDAX">      0.68000000</i>
   <i name="AGGAX">      0.68000000</i>
   <i name="ALDAC">      1.00000000</i>
   <i name="AGGAC">      1.00000000</i>
   <i type="int" name="NKREDX">     1</i>
   <i type="int" name="NKREDY">     1</i>
   <i type="int" name="NKREDZ">     1</i>
   <i type="logical" name="SHIFTRED"> F  </i>
   <i type="logical" name="ODDONLY"> F  </i>
   <i type="logical" name="EVENONLY"> F  </i>
   <i type="int" name="LMAXFOCK">     4</i>
   <i type="int" name="NMAXFOCKAE">     1</i>
   <i type="logical" name="LFOCKAEDFT"> F  </i>
   <i name="HFSCREEN">      0.20000000</i>
   <i name="HFSCREENC">      0.20000000</i>
   <i type="int" name="NBANDSGWLOW">     1</i>
  </separator>
  <separator name="vdW DFT" >
   <i type="logical" name="LUSE_VDW"> F  </i>
   <i type="int" name="IVDW_NL">     1</i>
   <i type="logical" name="LSPIN_VDW"> F  </i>
   <i name="Zab_VDW">     -0.84910000</i>
   <i name="PARAM1">      0.12340000</i>
   <i name="PARAM2">      1.00000000</i>
   <i name="PARAM3">      0.00000000</i>
  </separator>
  <separator name="model GW" >
   <i type="int" name="MODEL_GW">     0</i>
   <i name="MODEL_EPS0">      6.34402517</i>
   <i name="MODEL_ALPHA">      1.00000000</i>
  </separator>
  <separator name="linear response parameters" >
   <i type="logical" name="LEPSILON"> F  </i>
   <i type="logical" name="LRPA"> F  </i>
   <i type="logical" name="LNABLA"> F  </i>
   <i type="logical" name="LVEL"> F  </i>
   <i name="CSHIFT">      0.10000000</i>
   <i name="OMEGAMAX">     -1.00000000</i>
   <i name="DEG_THRESHOLD">      0.00200000</i>
   <i name="RTIME">     -0.10000000</i>
   <i name="WPLASMAI">      0.00000000</i>
   <v name="DFIELD">      0.00000000      0.00000000      0.00000000</v>
   <v name="WPLASMA">      0.00000000      0.00000000      0.00000000      0.00000000      0.00000000      0.00000000      0.00000000      0.00000000      0.00000000</v>
  </separator>
  <separator name="orbital magnetization" >
   <i type="logical" name="NUCIND"> F  </i>
   <v name="MAGPOS">      0.00000000      0.00000000      0.00000000</v>
   <i type="logical" name="LNICSALL"> T  </i>
   <i type="logical" name="ORBITALMAG"> F  </i>
   <i type="logical" name="LMAGBLOCH"> F  </i>
   <i type="logical" name="LCHIMAG"> F  </i>
   <i type="logical" name="LGAUGE"> T  </i>
   <i type="int" name="MAGATOM">     0</i>
   <v name="MAGDIPOL">      0.00000000      0.00000000      0.00000000</v>
   <v name="AVECCONST">      0.00000000      0.00000000      0.00000000</v>
  </separator>
  <separator name="response functions" >
   <i type="logical" name="LALL_IN_ONE"> F  </i>
   <i type="int" name="IALL_IN_ONE">    -1</i>
   <i type="int" name="NBANDS_WAVE">    -1</i>
   <i type="logical" name="LFINITE_TEMPERATURE"> F  </i>
   <i type="logical" name="LADDER"> F  </i>
   <i type="logical" name="LRPAFORCE"> F  </i>
   <i type="logical" name="LFXC"> F  </i>
   <i type="logical" name="LHARTREE"> T  </i>
   <i type="int" name="IBSE">     0</i>
   <v type="int" name="KPOINT">    -1     0     0     0</v>
   <i type="logical" name="LTCTC"> F  </i>
   <i type="logical" name="LTCTE"> F  </i>
   <i type="logical" name="LTETE"> F  </i>
   <i type="logical" name="LTRIPLET"> F  </i>
   <i type="logical" name="LFXCEPS"> F  </i>
   <i type="logical" name="LFXHEG"> F  </i>
   <i type="int" name="NATURALO">     2</i>
   <i type="logical" name="LHOLEGF"> F  </i>
   <i type="logical" name="L2ORDER"> F  </i>
   <i type="logical" name="LDMP1"> F  </i>
   <i type="logical" name="LMP2LT"> F  </i>
   <i type="logical" name="LSMP2LT"> F  </i>
   <i type="logical" name="LGWLF"> F  </i>
   <i name="ENCUTGW">     -1.60000002</i>
   <i name="ENCUTGWSOFT">     -1.60000002</i>
   <i name="ENCUTLF">     -1.00000000</i>
   <i type="logical" name="LESF_SPLINES"> F  </i>
   <i type="int" name="LMAXMP2">    -1</i>
   <i name="SCISSOR">      0.00000000</i>
   <i type="int" name="NOMEGA">     0</i>
   <i type="int" name="NOMEGAR">     0</i>
   <i type="int" name="NBANDSGW">    -1</i>
   <i type="int" name="NBANDSO">    -1</i>
   <i type="int" name="NBANDSV">    -1</i>
   <i type="int" name="NELMGW">     1</i>
   <i type="int" name="NELMHF">     1</i>
   <i type="int" name="DIM">     3</i>
   <i type="int" name="IESPILON">     4</i>
   <i type="int" name="ANTIRES">     0</i>
   <i name="OMEGAMAX">    -30.00000000</i>
   <i name="OMEGAMIN">    -30.00000000</i>
   <i name="OMEGATL">   -200.00000000</i>
   <i type="int" name="OMEGAGRID">     0</i>
   <i name="CSHIFT">     -0.10000000</i>
   <i type="logical" name="LSELFENERGY"> F  </i>
   <i type="logical" name="LSPECTRAL"> F  </i>
   <i type="logical" name="LSPECTRALGW"> F  </i>
   <i type="logical" name="LSINGLES"> F  </i>
   <i type="logical" name="LFERMIGW"> F  </i>
   <i type="logical" name="ODDONLYGW"> F  </i>
   <i type="logical" name="EVENONLYGW"> F  </i>
   <i type="int" name="NKREDLFX">     1</i>
   <i type="int" name="NKREDLFY">     1</i>
   <i type="int" name="NKREDLFZ">     1</i>
   <i type="int" name="MAXMEM">  2800</i>
   <i type="int" name="TELESCOPE">     0</i>
   <i type="int" name="NTAUPAR">    -1</i>
   <i type="int" name="NOMEGAPAR">    -1</i>
   <i name="DAMP_NEWTON">      0.80000001</i>
   <i name="LAMBDA">      1.00000000</i>
  </separator>
  <separator name="External order field" >
   <i name="OFIELD_KAPPA">      0.00000000</i>
   <v name="OFIELD_K">      0.00000000      0.00000000      0.00000000</v>
   <i name="OFIELD_Q6_NEAR">      0.00000000</i>
   <i name="OFIELD_Q6_FAR">      0.00000000</i>
   <i name="OFIELD_A">      0.00000000</i>
  </separator>
  <separator name="optional k-points parameters" >
   <i type="int" name="KPOINTS_OPT_MODE">     1</i>
   <i type="logical" name="LKPOINTS_OPT"> F  </i>
  </separator>
 </parameters>
 <atominfo>
  <atoms>     120 </atoms>
  <types>       4 </types>
  <array name="atoms" >
   <dimension dim="1">ion</dimension>
   <field type="string">element</field>
   <field type="int">atomtype</field>
   <set>
    <rc><c>Ga</c><c>   1</c></rc>
    <rc><c>Ga</c><c>   1</c></rc>
    <rc><c>Ga</c><c>   1</c></rc>
    <rc><c>Ga</c><c>   1</c></rc>
    <rc><c>Ga</c><c>   1</c></rc>
    <rc><c>Ga</c><c>   1</c></rc>
    <rc><c>Ga</c><c>   1</c></rc>
    <rc><c>Ga</c><c>   1</c></rc>
    <rc><c>Ga</c><c>   1</c></rc>
    <rc><c>Ga</c><c>   1</c></rc>
    <rc><c>Ga</c><c>   1</c></rc>
    <rc><c>Ga</c><c>   1</c></rc>
    <rc><c>Ga</c><c>   1</c></rc>
    <rc><c>Ga</c><c>   1</c></rc>
    <rc><c>Ga</c><c>   1</c></rc>
    <rc><c>Ga</c><c>   1</c></rc>
    <rc><c>Ga</c><c>   1</c></rc>
    <rc><c>Ga</c><c>   1</c></rc>
    <rc><c>Ga</c><c>   1</c></rc>
    <rc><c>Ga</c><c>   1</c></rc>
    <rc><c>Ga</c><c>   1</c></rc>
    <rc><c>Ga</c><c>   1</c></rc>
    <rc><c>Ga</c><c>   1</c></rc>
    <rc><c>Ga</c><c>   1</c></rc>
    <rc><c>Ga</c><c>   1</c></rc>
    <rc><c>Ga</c><c>   1</c></rc>
    <rc><c>Ga</c><c>   1</c></rc>
    <rc><c>Ga</c><c>   1</c></rc>
    <rc><c>Ga</c><c>   1</c></rc>
    <rc><c>Ga</c><c>   1</c></rc>
    <rc><c>Ga</c><c>   1</c></rc>
    <rc><c>Ga</c><c>   1</c></rc>
    <rc><c>Ga</c><c>   1</c></rc>
    <rc><c>Ga</c><c>   1</c></rc>
    <rc><c>Ga</c><c>   1</c></rc>
    <rc><c>Ga</c><c>   1</c></rc>
    <rc><c>Ga</c><c>   1</c></rc>
    <rc><c>Ga</c><c>   1</c></rc>
    <rc><c>Ga</c><c>   1</c></rc>
    <rc><c>Ga</c><c>   1</c></rc>
    <rc><c>Ga</c><c>   1</c></rc>
    <rc><c>Ga</c><c>   1</c></rc>
    <rc><c>Ga</c><c>   1</c></rc>
    <rc><c>Ga</c><c>   1</c></rc>
    <rc><c>Ga</c><c>   1</c></rc>
    <rc><c>Ga</c><c>   1</c></rc>
    <rc><c>Ga</c><c>   1</c></rc>
    <rc><c>O </c><c>   2</c></rc>
    <rc><c>O </c><c>   2</c></rc>
    <rc><c>O </c><c>   2</c></rc>
    <rc><c>O </c><c>   2</c></rc>
    <rc><c>O </c><c>   2</c></rc>
    <rc><c>O </c><c>   2</c></rc>
    <rc><c>O </c><c>   2</c></rc>
    <rc><c>O </c><c>   2</c></rc>
    <rc><c>O </c><c>   2</c></rc>
    <rc><c>O </c><c>   2</c></rc>
    <rc><c>O </c><c>   2</c></rc>
    <rc><c>O </c><c>   2</c></rc>
    <rc><c>O </c><c>   2</c></rc>
    <rc><c>O </c><c>   2</c></rc>
    <rc><c>O </c><c>   2</c></rc>
    <rc><c>O </c><c>   2</c></rc>
    <rc><c>O </c><c>   2</c></rc>
    <rc><c>O </c><c>   2</c></rc>
    <rc><c>O </c><c>   2</c></rc>
    <rc><c>O </c><c>   2</c></rc>
    <rc><c>O </c><c>   2</c></rc>
    <rc><c>O </c><c>   2</c></rc>
    <rc><c>O </c><c>   2</c></rc>
    <rc><c>O </c><c>   2</c></rc>
    <rc><c>O </c><c>   2</c></rc>
    <rc><c>O </c><c>   2</c></rc>
    <rc><c>O </c><c>   2</c></rc>
    <rc><c>O </c><c>   2</c></rc>
    <rc><c>O </c><c>   2</c></rc>
    <rc><c>O </c><c>   2</c></rc>
    <rc><c>O </c><c>   2</c></rc>
    <rc><c>O </c><c>   2</c></rc>
    <rc><c>O </c><c>   2</c></rc>
    <rc><c>O </c><c>   2</c></rc>
    <rc><c>O </c><c>   2</c></rc>
    <rc><c>O </c><c>   2</c></rc>
    <rc><c>O </c><c>   2</c></rc>
    <rc><c>O </c><c>   2</c></rc>
    <rc><c>O </c><c>   2</c></rc>
    <rc><c>O </c><c>   2</c></rc>
    <rc><c>O </c><c>   2</c></rc>
    <rc><c>O </c><c>   2</c></rc>
    <rc><c>O </c><c>   2</c></rc>
    <rc><c>O </c><c>   2</c></rc>
    <rc><c>O </c><c>   2</c></rc>
    <rc><c>O </c><c>   2</c></rc>
    <rc><c>O </c><c>   2</c></rc>
    <rc><c>O </c><c>   2</c></rc>
    <rc><c>O </c><c>   2</c></rc>
    <rc><c>O </c><c>   2</c></rc>
    <rc><c>O </c><c>   2</c></rc>
    <rc><c>O </c><c>   2</c></rc>
    <rc><c>O </c><c>   2</c></rc>
    <rc><c>O </c><c>   2</c></rc>
    <rc><c>O </c><c>   2</c></rc>
    <rc><c>O </c><c>   2</c></rc>
    <rc><c>O </c><c>   2</c></rc>
    <rc><c>O </c><c>   2</c></rc>
    <rc><c>O </c><c>   2</c></rc>
    <rc><c>O </c><c>   2</c></rc>
    <rc><c>O </c><c>   2</c></rc>
    <rc><c>O </c><c>   2</c></rc>
    <rc><c>O </c><c>   2</c></rc>
    <rc><c>O </c><c>   2</c></rc>
    <rc><c>O </c><c>   2</c></rc>
    <rc><c>O </c><c>   2</c></rc>
    <rc><c>O </c><c>   2</c></rc>
    <rc><c>O </c><c>   2</c></rc>
    <rc><c>O </c><c>   2</c></rc>
    <rc><c>O </c><c>   2</c></rc>
    <rc><c>O </c><c>   2</c></rc>
    <rc><c>N </c><c>   3</c></rc>
    <rc><c>Fe</c><c>   4</c></rc>
   </set>
  </array>
  <array name="atomtypes" >
   <dimension dim="1">type</dimension>
   <field type="int">atomspertype</field>
   <field type="string">element</field>
   <field>mass</field>
   <field>valence</field>
   <field type="string">pseudopotential</field>
   <set>
    <rc><c>  47</c><c>Ga</c><c>     69.72300000</c><c>     13.00000000</c><c>  PAW_PBE Ga_d 06Jul2010                </c></rc>
    <rc><c>  71</c><c>O </c><c>     16.00000000</c><c>      6.00000000</c><c>  PAW_PBE O 08Apr2002                   </c></rc>
    <rc><c>   1</c><c>N </c><c>     14.00100000</c><c>      5.00000000</c><c>  PAW_PBE N 08Apr2002                   </c></rc>
    <rc><c>   1</c><c>Fe</c><c>     55.84700000</c><c>      8.00000000</c><c>  PAW_PBE Fe 06Sep2000                  </c></rc>
   </set>
  </array>
 </atominfo>
 <structure name="initialpos" >
  <crystal>
   <varray name="basis" >
    <v>       0.00000000      12.28047371       0.00000000 </v>
    <v>       9.14270115       0.00000000       0.00000000 </v>
    <v>       0.00000000      -2.76826164     -11.30069748 </v>
   </varray>
   <i name="volume">   1268.80503319 </i>
   <varray name="rec_basis" >
    <v>       0.00000000       0.08143008      -0.01994742 </v>
    <v>       0.10937687      -0.00000000       0.00000000 </v>
    <v>       0.00000000       0.00000000      -0.08849011 </v>
   </varray>
  </crystal>
  <varray name="positions" >
   <v>       0.65854710       0.00045250       0.15670063 </v>
   <v>       0.65823398       0.99957819       0.65643034 </v>
   <v>       0.65990472       0.33374759       0.15573231 </v>
   <v>       0.65955440       0.33283430       0.65694063 </v>
   <v>       0.65868429       0.66661868       0.15595499 </v>
   <v>       0.65802522       0.66559505       0.65591109 </v>
   <v>       0.84086257       0.16734914       0.34392572 </v>
   <v>       0.84087678       0.16635488       0.84329819 </v>
   <v>       0.84161510       0.49989285       0.34344058 </v>
   <v>       0.84095162       0.50017960       0.84345851 </v>
   <v>       0.84036178       0.83375288       0.34353495 </v>
   <v>       0.84072481       0.83309686       0.84332068 </v>
   <v>       0.58845808       0.16679581       0.39657113 </v>
   <v>       0.59140759       0.16654852       0.89772984 </v>
   <v>       0.58957436       0.50233396       0.39568382 </v>
   <v>       0.59087092       0.49996542       0.89767036 </v>
   <v>       0.59148384       0.83465804       0.39803763 </v>
   <v>       0.59123442       0.83328105       0.89764343 </v>
   <v>       0.90780662       0.00111085       0.10238277 </v>
   <v>       0.90925950       0.99962944       0.60263185 </v>
   <v>       0.91025654       0.33470363       0.10272506 </v>
   <v>       0.90960264       0.33307168       0.60245565 </v>
   <v>       0.91064299       0.66622579       0.10321133 </v>
   <v>       0.90912851       0.66657414       0.60249668 </v>
   <v>       0.15894402       0.16726213       0.15739162 </v>
   <v>       0.15968749       0.16612989       0.65776416 </v>
   <v>       0.16369188       0.50088366       0.15711068 </v>
   <v>       0.15937938       0.49989729       0.65773688 </v>
   <v>       0.15826081       0.83439932       0.15707728 </v>
   <v>       0.15991671       0.83284907       0.65677188 </v>
   <v>       0.34002038       0.00074401       0.34404943 </v>
   <v>       0.34163313       0.99986774       0.84342515 </v>
   <v>       0.34136887       0.33345549       0.84504006 </v>
   <v>       0.33987277       0.66405418       0.33700896 </v>
   <v>       0.34167111       0.66593656       0.84459708 </v>
   <v>       0.09053490       0.00069093       0.39781675 </v>
   <v>       0.09142192       0.00008638       0.89810326 </v>
   <v>       0.09344957       0.33306220       0.39923149 </v>
   <v>       0.09007117       0.33291239       0.89737570 </v>
   <v>       0.09007763       0.66780958       0.39789259 </v>
   <v>       0.09081649       0.66702876       0.89740110 </v>
   <v>       0.40942363       0.16823003       0.10354053 </v>
   <v>       0.40830692       0.16550091       0.60158680 </v>
   <v>       0.40647836       0.49859201       0.10726384 </v>
   <v>       0.40853285       0.49545455       0.60269170 </v>
   <v>       0.40937398       0.83306806       0.10225553 </v>
   <v>       0.40772697       0.83072862       0.60065117 </v>
   <v>       0.99627812       0.16703658       0.12841134 </v>
   <v>       0.99684687       0.16624652       0.62726608 </v>
   <v>       0.99926314       0.50005406       0.12836948 </v>
   <v>       0.99668783       0.49997201       0.62720958 </v>
   <v>       0.99550208       0.83498558       0.12694244 </v>
   <v>       0.99695211       0.83303266       0.62723346 </v>
   <v>       0.50264474       0.00006739       0.37244693 </v>
   <v>       0.50410696       0.00002741       0.87261462 </v>
   <v>       0.49516898       0.33497651       0.36800552 </v>
   <v>       0.50406100       0.33298371       0.87194669 </v>
   <v>       0.50430124       0.66896413       0.37487439 </v>
   <v>       0.50402174       0.66676685       0.87147862 </v>
   <v>       0.67153009       0.16866558       0.28121138 </v>
   <v>       0.67260399       0.16601404       0.78009623 </v>
   <v>       0.67227543       0.49952390       0.28040643 </v>
   <v>       0.67251023       0.49970350       0.78007277 </v>
   <v>       0.67249586       0.83388541       0.28053052 </v>
   <v>       0.67223143       0.83245927       0.78008588 </v>
   <v>       0.82672061       0.00130820       0.22004304 </v>
   <v>       0.82673077       0.99999151       0.71886551 </v>
   <v>       0.82770905       0.33392974       0.21947648 </v>
   <v>       0.82737262       0.33294731       0.71909441 </v>
   <v>       0.82765137       0.66633764       0.21962822 </v>
   <v>       0.82677849       0.66603136       0.71888645 </v>
   <v>       0.83168757       0.00057627       0.44620809 </v>
   <v>       0.83159418       0.00003696       0.94553430 </v>
   <v>       0.83223776       0.33371359       0.44610312 </v>
   <v>       0.83290273       0.33344696       0.94597467 </v>
   <v>       0.83219754       0.66641795       0.44585622 </v>
   <v>       0.83316218       0.66648942       0.94631836 </v>
   <v>       0.66880286       0.16631396       0.05419769 </v>
   <v>       0.66538807       0.16726478       0.55270406 </v>
   <v>       0.66903052       0.50044089       0.05374805 </v>
   <v>       0.66576977       0.49809822       0.55241926 </v>
   <v>       0.66785603       0.83379613       0.05431852 </v>
   <v>       0.66789675       0.83316128       0.55459347 </v>
   <v>       0.49618056       0.00077612       0.12793411 </v>
   <v>       0.49529334       0.99805491       0.62602788 </v>
   <v>       0.49826543       0.33332973       0.12663521 </v>
   <v>       0.49735567       0.33090575       0.62714141 </v>
   <v>       0.49648109       0.66613856       0.12640904 </v>
   <v>       0.49480055       0.66335915       0.62522060 </v>
   <v>       0.00384039       0.16791177       0.37315499 </v>
   <v>       0.00304595       0.16591096       0.87188792 </v>
   <v>       0.00467008       0.49901731       0.37303704 </v>
   <v>       0.00342928       0.50023123       0.87188674 </v>
   <v>       0.00253579       0.83462552       0.37385202 </v>
   <v>       0.00336050       0.83384501       0.87206071 </v>
   <v>       0.17234151       0.00185953       0.28090675 </v>
   <v>       0.17295050       0.99966675       0.78077789 </v>
   <v>       0.17763635       0.33049610       0.28386222 </v>
   <v>       0.17281911       0.33284453       0.78137043 </v>
   <v>       0.16904028       0.67271254       0.28037819 </v>
   <v>       0.17297015       0.66627014       0.78071080 </v>
   <v>       0.32862194       0.17215074       0.22299407 </v>
   <v>       0.32806515       0.16635293       0.72006747 </v>
   <v>       0.32764340       0.49908984       0.71995932 </v>
   <v>       0.32687188       0.83755230       0.21805774 </v>
   <v>       0.32775708       0.83264777       0.71929092 </v>
   <v>       0.33391494       0.17103486       0.44427004 </v>
   <v>       0.33278722       0.16627534       0.94671396 </v>
   <v>       0.33168430       0.48855227       0.44352696 </v>
   <v>       0.33444992       0.49978855       0.94709172 </v>
   <v>       0.33206350       0.83034332       0.44374175 </v>
   <v>       0.33292416       0.83356027       0.94551972 </v>
   <v>       0.16813607       0.00138024       0.05480894 </v>
   <v>       0.16892457       0.00008055       0.55415776 </v>
   <v>       0.16560761       0.33148017       0.05366008 </v>
   <v>       0.16877680       0.33305164       0.55581949 </v>
   <v>       0.16765559       0.66906277       0.05350944 </v>
   <v>       0.16879691       0.66576856       0.55412528 </v>
   <v>       0.32676617       0.49696629       0.22652236 </v>
   <v>       0.34183624       0.33824414       0.33806494 </v>
  </varray>
 </structure>
 <calculation>
  <scstep>
   <time name="total">  474.17  474.12</time>
   <energy>
    <i name="alphaZ">   5490.26774318 </i>
    <i name="ewald"> -87875.54849267 </i>
    <i name="hartreedc"> -33334.89584358 </i>
    <i name="XCdc">   2875.44466468 </i>
    <i name="pawpsdc"> 119846.65872042 </i>
    <i name="pawaedc">-134930.41913007 </i>
    <i name="eentropy">     -0.00277636 </i>
    <i name="bandstr">  -9034.41215101 </i>
    <i name="atom"> 132173.67027711 </i>
    <i name="e_fr_energy">   -951.81480250 </i>
    <i name="e_wo_entrp">   -951.81202614 </i>
    <i name="e_0_energy">   -951.81341432 </i>
   </energy>
  </scstep>
  <scstep>
   <time name="total">  473.10  473.04</time>
   <energy>
    <i name="e_fr_energy">   -957.98066259 </i>
    <i name="e_wo_entrp">   -957.98066259 </i>
    <i name="e_0_energy">   -957.98066259 </i>
   </energy>
  </scstep>
  <scstep>
   <time name="total">  472.97  472.91</time>
   <energy>
    <i name="e_fr_energy">   -960.86516196 </i>
    <i name="e_wo_entrp">   -960.86516196 </i>
    <i name="e_0_energy">   -960.86516196 </i>
   </energy>
  </scstep>
  <scstep>
   <time name="total">  472.46  472.40</time>
   <energy>
    <i name="e_fr_energy">   -961.48697786 </i>
    <i name="e_wo_entrp">   -961.48697786 </i>
    <i name="e_0_energy">   -961.48697786 </i>
   </energy>
  </scstep>
  <scstep>
   <time name="total">  472.46  472.40</time>
   <energy>
    <i name="e_fr_energy">   -961.96177073 </i>
    <i name="e_wo_entrp">   -961.96177073 </i>
    <i name="e_0_energy">   -961.96177073 </i>
   </energy>
  </scstep>
  <scstep>
   <time name="total">  472.56  472.49</time>
   <energy>
    <i name="e_fr_energy">   -962.08116940 </i>
    <i name="e_wo_entrp">   -962.08116940 </i>
    <i name="e_0_energy">   -962.08116940 </i>
   </energy>
  </scstep>
  <scstep>
   <time name="total">  472.45  472.39</time>
   <energy>
    <i name="e_fr_energy">   -962.13251184 </i>
    <i name="e_wo_entrp">   -962.13251184 </i>
    <i name="e_0_energy">   -962.13251184 </i>
   </energy>
  </scstep>
  <scstep>
   <time name="total">  472.62  472.56</time>
   <energy>
    <i name="e_fr_energy">   -962.15054324 </i>
    <i name="e_wo_entrp">   -962.15054324 </i>
    <i name="e_0_energy">   -962.15054324 </i>
   </energy>
  </scstep>
  <scstep>
   <time name="total">  472.60  472.53</time>
   <energy>
    <i name="e_fr_energy">   -962.15839436 </i>
    <i name="e_wo_entrp">   -962.15839436 </i>
    <i name="e_0_energy">   -962.15839436 </i>
   </energy>
  </scstep>
  <scstep>
   <time name="total">  472.48  472.41</time>
   <energy>
    <i name="e_fr_energy">   -962.16316845 </i>
    <i name="e_wo_entrp">   -962.16316845 </i>
    <i name="e_0_energy">   -962.16316845 </i>
   </energy>
  </scstep>
  <scstep>
   <time name="total">  472.69  472.63</time>
   <energy>
    <i name="e_fr_energy">   -962.16732127 </i>
    <i name="e_wo_entrp">   -962.16732127 </i>
    <i name="e_0_energy">   -962.16732127 </i>
   </energy>
  </scstep>
  <scstep>
   <time name="total">  472.61  472.57</time>
   <energy>
    <i name="e_fr_energy">   -962.16972413 </i>
    <i name="e_wo_entrp">   -962.16972413 </i>
    <i name="e_0_energy">   -962.16972413 </i>
   </energy>
  </scstep>
  <scstep>
   <time name="total">  472.64  472.57</time>
   <energy>
    <i name="e_fr_energy">   -962.17115428 </i>
    <i name="e_wo_entrp">   -962.17115428 </i>
    <i name="e_0_energy">   -962.17115428 </i>
   </energy>
  </scstep>
  <scstep>
   <time name="total">  472.58  472.52</time>
   <energy>
    <i name="e_fr_energy">   -962.17222400 </i>
    <i name="e_wo_entrp">   -962.17222400 </i>
    <i name="e_0_energy">   -962.17222400 </i>
   </energy>
  </scstep>
  <scstep>
   <time name="total">  472.43  472.37</time>
   <energy>
    <i name="e_fr_energy">   -962.17296040 </i>
    <i name="e_wo_entrp">   -962.17296040 </i>
    <i name="e_0_energy">   -962.17296040 </i>
   </energy>
  </scstep>
  <scstep>
   <time name="total">  472.50  472.44</time>
   <energy>
    <i name="e_fr_energy">   -962.17356700 </i>
    <i name="e_wo_entrp">   -962.17356700 </i>
    <i name="e_0_energy">   -962.17356700 </i>
   </energy>
  </scstep>
  <scstep>
   <time name="total">  472.67  472.60</time>
   <energy>
    <i name="e_fr_energy">   -962.17414069 </i>
    <i name="e_wo_entrp">   -962.17414069 </i>
    <i name="e_0_energy">   -962.17414069 </i>
   </energy>
  </scstep>
  <scstep>
   <time name="total">  472.60  472.54</time>
   <energy>
    <i name="e_fr_energy">   -962.17482099 </i>
    <i name="e_wo_entrp">   -962.17482099 </i>
    <i name="e_0_energy">   -962.17482099 </i>
   </energy>
  </scstep>
  <scstep>
   <time name="total">  472.52  472.47</time>
   <energy>
    <i name="e_fr_energy">   -962.17570820 </i>
    <i name="e_wo_entrp">   -962.17570820 </i>
    <i name="e_0_energy">   -962.17570820 </i>
   </energy>
  </scstep>
  <scstep>
   <time name="total">  472.60  472.54</time>
   <energy>
    <i name="e_fr_energy">   -962.17686905 </i>
    <i name="e_wo_entrp">   -962.17686905 </i>
    <i name="e_0_energy">   -962.17686905 </i>
   </energy>
  </scstep>
  <scstep>
   <time name="total">  472.75  472.68</time>
   <energy>
    <i name="e_fr_energy">   -962.17842349 </i>
    <i name="e_wo_entrp">   -962.17842349 </i>
    <i name="e_0_energy">   -962.17842349 </i>
   </energy>
  </scstep>
  <scstep>
   <time name="total">  472.50  472.43</time>
   <energy>
    <i name="e_fr_energy">   -962.18024139 </i>
    <i name="e_wo_entrp">   -962.18024139 </i>
    <i name="e_0_energy">   -962.18024139 </i>
   </energy>
  </scstep>
  <scstep>
   <time name="total">  472.40  472.33</time>
   <energy>
    <i name="e_fr_energy">   -962.18211370 </i>
    <i name="e_wo_entrp">   -962.18211370 </i>
    <i name="e_0_energy">   -962.18211370 </i>
   </energy>
  </scstep>
  <scstep>
   <time name="total">  472.36  472.30</time>
   <energy>
    <i name="e_fr_energy">   -962.18346772 </i>
    <i name="e_wo_entrp">   -962.18346772 </i>
    <i name="e_0_energy">   -962.18346772 </i>
   </energy>
  </scstep>
  <scstep>
   <time name="total">  472.61  472.55</time>
   <energy>
    <i name="e_fr_energy">   -962.18437872 </i>
    <i name="e_wo_entrp">   -962.18437872 </i>
    <i name="e_0_energy">   -962.18437872 </i>
   </energy>
  </scstep>
  <scstep>
   <time name="total">  472.56  472.49</time>
   <energy>
    <i name="e_fr_energy">   -962.18496451 </i>
    <i name="e_wo_entrp">   -962.18496451 </i>
    <i name="e_0_energy">   -962.18496451 </i>
   </energy>
  </scstep>
  <scstep>
   <time name="total">  472.48  472.41</time>
   <energy>
    <i name="e_fr_energy">   -962.18539710 </i>
    <i name="e_wo_entrp">   -962.18539710 </i>
    <i name="e_0_energy">   -962.18539710 </i>
   </energy>
  </scstep>
  <scstep>
   <time name="total">  472.59  472.51</time>
   <energy>
    <i name="e_fr_energy">   -962.18574866 </i>
    <i name="e_wo_entrp">   -962.18574866 </i>
    <i name="e_0_energy">   -962.18574866 </i>
   </energy>
  </scstep>
  <scstep>
   <time name="total">  472.45  472.36</time>
   <energy>
    <i name="e_fr_energy">   -962.18603220 </i>
    <i name="e_wo_entrp">   -962.18603220 </i>
    <i name="e_0_energy">   -962.18603220 </i>
   </energy>
  </scstep>
  <scstep>
   <time name="total">  472.80  472.72</time>
   <energy>
    <i name="e_fr_energy">   -962.18630510 </i>
    <i name="e_wo_entrp">   -962.18630510 </i>
    <i name="e_0_energy">   -962.18630510 </i>
   </energy>
  </scstep>
  <scstep>
   <time name="total">  472.55  472.47</time>
   <energy>
    <i name="e_fr_energy">   -962.18663057 </i>
    <i name="e_wo_entrp">   -962.18663057 </i>
    <i name="e_0_energy">   -962.18663057 </i>
   </energy>
  </scstep>
  <scstep>
   <time name="total">  472.54  472.48</time>
   <energy>
    <i name="e_fr_energy">   -962.18710096 </i>
    <i name="e_wo_entrp">   -962.18710096 </i>
    <i name="e_0_energy">   -962.18710096 </i>
   </energy>
  </scstep>
  <scstep>
   <time name="total">  472.46  472.39</time>
   <energy>
    <i name="e_fr_energy">   -962.18752656 </i>
    <i name="e_wo_entrp">   -962.18752656 </i>
    <i name="e_0_energy">   -962.18752656 </i>
   </energy>
  </scstep>
  <scstep>
   <time name="total">  472.55  472.50</time>
   <energy>
    <i name="e_fr_energy">   -962.18791599 </i>
    <i name="e_wo_entrp">   -962.18791599 </i>
    <i name="e_0_energy">   -962.18791599 </i>
   </energy>
  </scstep>
  <scstep>
   <time name="total">  472.57  472.51</time>
   <energy>
    <i name="e_fr_energy">   -962.18842830 </i>
    <i name="e_wo_entrp">   -962.18842830 </i>
    <i name="e_0_energy">   -962.18842830 </i>
   </energy>
  </scstep>
  <scstep>
   <time name="total">  472.49  472.42</time>
   <energy>
    <i name="e_fr_energy">   -962.18895853 </i>
    <i name="e_wo_entrp">   -962.18895853 </i>
    <i name="e_0_energy">   -962.18895853 </i>
   </energy>
  </scstep>
  <scstep>
   <time name="total">  472.37  472.29</time>
   <energy>
    <i name="e_fr_energy">   -962.18944590 </i>
    <i name="e_wo_entrp">   -962.18944590 </i>
    <i name="e_0_energy">   -962.18944590 </i>
   </energy>
  </scstep>
  <scstep>
   <time name="total">  472.44  472.37</time>
   <energy>
    <i name="e_fr_energy">   -962.19017685 </i>
    <i name="e_wo_entrp">   -962.19017685 </i>
    <i name="e_0_energy">   -962.19017685 </i>
   </energy>
  </scstep>
  <scstep>
   <time name="total">  472.47  472.40</time>
   <energy>
    <i name="e_fr_energy">   -962.19134536 </i>
    <i name="e_wo_entrp">   -962.19134536 </i>
    <i name="e_0_energy">   -962.19134536 </i>
   </energy>
  </scstep>
  <scstep>
   <time name="total">  472.56  472.51</time>
   <energy>
    <i name="e_fr_energy">   -962.19337317 </i>
    <i name="e_wo_entrp">   -962.19337317 </i>
    <i name="e_0_energy">   -962.19337317 </i>
   </energy>
  </scstep>
  <scstep>
   <time name="total">  472.46  472.39</time>
   <energy>
    <i name="e_fr_energy">   -962.19690373 </i>
    <i name="e_wo_entrp">   -962.19690373 </i>
    <i name="e_0_energy">   -962.19690373 </i>
   </energy>
  </scstep>
  <scstep>
   <time name="total">  472.60  472.53</time>
   <energy>
    <i name="e_fr_energy">   -962.20215420 </i>
    <i name="e_wo_entrp">   -962.20215420 </i>
    <i name="e_0_energy">   -962.20215420 </i>
   </energy>
  </scstep>
  <scstep>
   <time name="total">  472.41  472.35</time>
   <energy>
    <i name="e_fr_energy">   -962.20683816 </i>
    <i name="e_wo_entrp">   -962.20683816 </i>
    <i name="e_0_energy">   -962.20683816 </i>
   </energy>
  </scstep>
  <scstep>
   <time name="total">  472.61  472.54</time>
   <energy>
    <i name="e_fr_energy">   -962.21195746 </i>
    <i name="e_wo_entrp">   -962.21195746 </i>
    <i name="e_0_energy">   -962.21195746 </i>
   </energy>
  </scstep>
  <scstep>
   <time name="total">  472.78  472.71</time>
   <energy>
    <i name="e_fr_energy">   -962.21758184 </i>
    <i name="e_wo_entrp">   -962.21758184 </i>
    <i name="e_0_energy">   -962.21758184 </i>
   </energy>
  </scstep>
  <scstep>
   <time name="total">  472.76  472.68</time>
   <energy>
    <i name="e_fr_energy">   -962.22365681 </i>
    <i name="e_wo_entrp">   -962.22365681 </i>
    <i name="e_0_energy">   -962.22365681 </i>
   </energy>
  </scstep>
  <scstep>
   <time name="total">  472.73  472.65</time>
   <energy>
    <i name="e_fr_energy">   -962.22983415 </i>
    <i name="e_wo_entrp">   -962.22983415 </i>
    <i name="e_0_energy">   -962.22983415 </i>
   </energy>
  </scstep>
  <scstep>
   <time name="total">  472.62  472.55</time>
   <energy>
    <i name="e_fr_energy">   -962.23614687 </i>
    <i name="e_wo_entrp">   -962.23614687 </i>
    <i name="e_0_energy">   -962.23614687 </i>
   </energy>
  </scstep>
  <scstep>
   <time name="total">  472.63  472.56</time>
   <energy>
    <i name="e_fr_energy">   -962.24276617 </i>
    <i name="e_wo_entrp">   -962.24276617 </i>
    <i name="e_0_energy">   -962.24276617 </i>
   </energy>
  </scstep>
  <scstep>
   <time name="total">  472.45  472.39</time>
   <energy>
    <i name="e_fr_energy">   -962.24966252 </i>
    <i name="e_wo_entrp">   -962.24966252 </i>
    <i name="e_0_energy">   -962.24966252 </i>
   </energy>
  </scstep>
  <scstep>
   <time name="total">  472.55  472.48</time>
   <energy>
    <i name="e_fr_energy">   -962.25663832 </i>
    <i name="e_wo_entrp">   -962.25663832 </i>
    <i name="e_0_energy">   -962.25663832 </i>
   </energy>
  </scstep>
  <scstep>
   <time name="total">  472.59  472.51</time>
   <energy>
    <i name="e_fr_energy">   -962.26357101 </i>
    <i name="e_wo_entrp">   -962.26357101 </i>
    <i name="e_0_energy">   -962.26357101 </i>
   </energy>
  </scstep>
  <scstep>
   <time name="total">  472.67  472.60</time>
   <energy>
    <i name="e_fr_energy">   -962.27051069 </i>
    <i name="e_wo_entrp">   -962.27051069 </i>
    <i name="e_0_energy">   -962.27051069 </i>
   </energy>
  </scstep>
  <scstep>
   <time name="total">  472.65  472.57</time>
   <energy>
    <i name="e_fr_energy">   -962.27752214 </i>
    <i name="e_wo_entrp">   -962.27752214 </i>
    <i name="e_0_energy">   -962.27752214 </i>
   </energy>
  </scstep>
  <scstep>
   <time name="total">  472.59  472.53</time>
   <energy>
    <i name="e_fr_energy">   -962.28446840 </i>
    <i name="e_wo_entrp">   -962.28446840 </i>
    <i name="e_0_energy">   -962.28446840 </i>
   </energy>
  </scstep>
  <scstep>
   <time name="total">  472.56  472.49</time>
   <energy>
    <i name="e_fr_energy">   -962.29103531 </i>
    <i name="e_wo_entrp">   -962.29103531 </i>
    <i name="e_0_energy">   -962.29103531 </i>
   </energy>
  </scstep>
  <scstep>
   <time name="total">  472.72  472.68</time>
   <energy>
    <i name="e_fr_energy">   -962.29697621 </i>
    <i name="e_wo_entrp">   -962.29697621 </i>
    <i name="e_0_energy">   -962.29697621 </i>
   </energy>
  </scstep>
  <scstep>
   <time name="total">  472.69  472.63</time>
   <energy>
    <i name="e_fr_energy">   -962.30223408 </i>
    <i name="e_wo_entrp">   -962.30223408 </i>
    <i name="e_0_energy">   -962.30223408 </i>
   </energy>
  </scstep>
  <scstep>
   <time name="total">  472.63  472.57</time>
   <energy>
    <i name="e_fr_energy">   -962.30685638 </i>
    <i name="e_wo_entrp">   -962.30685638 </i>
    <i name="e_0_energy">   -962.30685638 </i>
   </energy>
  </scstep>
  <scstep>
   <time name="total">  472.63  472.58</time>
   <energy>
    <i name="e_fr_energy">   -962.31091177 </i>
    <i name="e_wo_entrp">   -962.31091177 </i>
    <i name="e_0_energy">   -962.31091177 </i>
   </energy>
  </scstep>
  <scstep>
   <time name="total">  472.72  472.66</time>
   <energy>
    <i name="e_fr_energy">   -962.31447657 </i>
    <i name="e_wo_entrp">   -962.31447657 </i>
    <i name="e_0_energy">   -962.31447657 </i>
   </energy>
  </scstep>
  <scstep>
   <time name="total">  472.51  472.44</time>
   <energy>
    <i name="e_fr_energy">   -962.31763722 </i>
    <i name="e_wo_entrp">   -962.31763722 </i>
    <i name="e_0_energy">   -962.31763722 </i>
   </energy>
  </scstep>
  <scstep>
   <time name="total"> 1180.92 1180.74</time>
   <energy>
    <i name="e_fr_energy">   -962.32047328 </i>
    <i name="e_wo_entrp">   -962.32047328 </i>
    <i name="e_0_energy">   -962.32047328 </i>
   </energy>
  </scstep>
  <scstep>
   <time name="total">  472.56  472.49</time>
   <energy>
    <i name="e_fr_energy">   -962.36665442 </i>
    <i name="e_wo_entrp">   -962.36665442 </i>
    <i name="e_0_energy">   -962.36665442 </i>
   </energy>
  </scstep>
  <scstep>
   <time name="total">  472.62  472.57</time>
   <energy>
    <i name="e_fr_energy">   -962.40929120 </i>
    <i name="e_wo_entrp">   -962.40929120 </i>
    <i name="e_0_energy">   -962.40929120 </i>
   </energy>
  </scstep>
  <scstep>
   <time name="total">  472.59  472.52</time>
   <energy>
    <i name="e_fr_energy">   -962.43880215 </i>
    <i name="e_wo_entrp">   -962.43880215 </i>
    <i name="e_0_energy">   -962.43880215 </i>
   </energy>
  </scstep>
  <scstep>
   <time name="total">  472.51  472.44</time>
   <energy>
    <i name="e_fr_energy">   -962.45337212 </i>
    <i name="e_wo_entrp">   -962.45337212 </i>
    <i name="e_0_energy">   -962.45337212 </i>
   </energy>
  </scstep>
  <scstep>
   <time name="total">  472.62  472.56</time>
   <energy>
    <i name="e_fr_energy">   -962.46334822 </i>
    <i name="e_wo_entrp">   -962.46334822 </i>
    <i name="e_0_energy">   -962.46334822 </i>
   </energy>
  </scstep>
  <scstep>
   <time name="total">  472.64  472.57</time>
   <energy>
    <i name="e_fr_energy">   -962.47261136 </i>
    <i name="e_wo_entrp">   -962.47261136 </i>
    <i name="e_0_energy">   -962.47261136 </i>
   </energy>
  </scstep>
  <scstep>
   <time name="total">  472.62  472.56</time>
   <energy>
    <i name="e_fr_energy">   -962.48275611 </i>
    <i name="e_wo_entrp">   -962.48275611 </i>
    <i name="e_0_energy">   -962.48275611 </i>
   </energy>
  </scstep>
  <scstep>
   <time name="total">  472.65  472.60</time>
   <energy>
    <i name="e_fr_energy">   -962.49458180 </i>
    <i name="e_wo_entrp">   -962.49458180 </i>
    <i name="e_0_energy">   -962.49458180 </i>
   </energy>
  </scstep>
  <scstep>
   <time name="total">  472.56  472.49</time>
   <energy>
    <i name="e_fr_energy">   -962.51044039 </i>
    <i name="e_wo_entrp">   -962.51044039 </i>
    <i name="e_0_energy">   -962.51044039 </i>
   </energy>
  </scstep>
  <scstep>
   <time name="total">  472.76  472.70</time>
   <energy>
    <i name="e_fr_energy">   -962.53114337 </i>
    <i name="e_wo_entrp">   -962.53114337 </i>
    <i name="e_0_energy">   -962.53114337 </i>
   </energy>
  </scstep>
  <scstep>
   <time name="total">  472.76  472.69</time>
   <energy>
    <i name="e_fr_energy">   -962.55770992 </i>
    <i name="e_wo_entrp">   -962.55770992 </i>
    <i name="e_0_energy">   -962.55770992 </i>
   </energy>
  </scstep>
  <scstep>
   <time name="total">  472.69  472.62</time>
   <energy>
    <i name="e_fr_energy">   -962.58838211 </i>
    <i name="e_wo_entrp">   -962.58838211 </i>
    <i name="e_0_energy">   -962.58838211 </i>
   </energy>
  </scstep>
  <scstep>
   <time name="total">  472.77  472.70</time>
   <energy>
    <i name="e_fr_energy">   -962.62010302 </i>
    <i name="e_wo_entrp">   -962.62010302 </i>
    <i name="e_0_energy">   -962.62010302 </i>
   </energy>
  </scstep>
  <scstep>
   <time name="total">  472.58  472.52</time>
   <energy>
    <i name="e_fr_energy">   -962.64923455 </i>
    <i name="e_wo_entrp">   -962.64923455 </i>
    <i name="e_0_energy">   -962.64923455 </i>
   </energy>
  </scstep>
  <scstep>
   <time name="total">  472.61  472.54</time>
   <energy>
    <i name="e_fr_energy">   -962.67437923 </i>
    <i name="e_wo_entrp">   -962.67437923 </i>
    <i name="e_0_energy">   -962.67437923 </i>
   </energy>
  </scstep>
  <scstep>
   <time name="total">  472.66  472.58</time>
   <energy>
    <i name="e_fr_energy">   -962.69373280 </i>
    <i name="e_wo_entrp">   -962.69373280 </i>
    <i name="e_0_energy">   -962.69373280 </i>
   </energy>
  </scstep>
  <scstep>
   <time name="total">  472.49  472.42</time>
   <energy>
    <i name="e_fr_energy">   -962.70811816 </i>
    <i name="e_wo_entrp">   -962.70811816 </i>
    <i name="e_0_energy">   -962.70811816 </i>
   </energy>
  </scstep>
  <scstep>
   <time name="total">  472.56  472.49</time>
   <energy>
    <i name="e_fr_energy">   -962.71882032 </i>
    <i name="e_wo_entrp">   -962.71882032 </i>
    <i name="e_0_energy">   -962.71882032 </i>
   </energy>
  </scstep>
  <scstep>
   <time name="total">  472.44  472.37</time>
   <energy>
    <i name="e_fr_energy">   -962.72714343 </i>
    <i name="e_wo_entrp">   -962.72714343 </i>
    <i name="e_0_energy">   -962.72714343 </i>
   </energy>
  </scstep>
  <scstep>
   <time name="total">  472.70  472.63</time>
   <energy>
    <i name="e_fr_energy">   -962.73371248 </i>
    <i name="e_wo_entrp">   -962.73371248 </i>
    <i name="e_0_energy">   -962.73371248 </i>
   </energy>
  </scstep>
  <scstep>
   <time name="total">  472.55  472.48</time>
   <energy>
    <i name="e_fr_energy">   -962.73868330 </i>
    <i name="e_wo_entrp">   -962.73868330 </i>
    <i name="e_0_energy">   -962.73868330 </i>
   </energy>
  </scstep>
  <scstep>
   <time name="total">  472.67  472.60</time>
   <energy>
    <i name="e_fr_energy">   -962.74255924 </i>
    <i name="e_wo_entrp">   -962.74255924 </i>
    <i name="e_0_energy">   -962.74255924 </i>
   </energy>
  </scstep>
  <scstep>
   <time name="total">  472.71  472.62</time>
   <energy>
    <i name="e_fr_energy">   -962.74573764 </i>
    <i name="e_wo_entrp">   -962.74573764 </i>
    <i name="e_0_energy">   -962.74573764 </i>
   </energy>
  </scstep>
  <scstep>
   <time name="total">  472.67  472.59</time>
   <energy>
    <i name="e_fr_energy">   -962.74840099 </i>
    <i name="e_wo_entrp">   -962.74840099 </i>
    <i name="e_0_energy">   -962.74840099 </i>
   </energy>
  </scstep>
  <scstep>
   <time name="total">  472.51  472.43</time>
   <energy>
    <i name="e_fr_energy">   -962.75079319 </i>
    <i name="e_wo_entrp">   -962.75079319 </i>
    <i name="e_0_energy">   -962.75079319 </i>
   </energy>
  </scstep>
  <scstep>
   <time name="total">  472.53  472.46</time>
   <energy>
    <i name="e_fr_energy">   -962.75317634 </i>
    <i name="e_wo_entrp">   -962.75317634 </i>
    <i name="e_0_energy">   -962.75317634 </i>
   </energy>
  </scstep>
  <scstep>
   <time name="total">  472.61  472.55</time>
   <energy>
    <i name="e_fr_energy">   -962.75578990 </i>
    <i name="e_wo_entrp">   -962.75578990 </i>
    <i name="e_0_energy">   -962.75578990 </i>
   </energy>
  </scstep>
  <scstep>
   <time name="total">  472.59  472.53</time>
   <energy>
    <i name="e_fr_energy">   -962.75865345 </i>
    <i name="e_wo_entrp">   -962.75865345 </i>
    <i name="e_0_energy">   -962.75865345 </i>
   </energy>
  </scstep>
  <scstep>
   <time name="total">  472.45  472.38</time>
   <energy>
    <i name="e_fr_energy">   -962.76167097 </i>
    <i name="e_wo_entrp">   -962.76167097 </i>
    <i name="e_0_energy">   -962.76167097 </i>
   </energy>
  </scstep>
  <scstep>
   <time name="total">  472.46  472.39</time>
   <energy>
    <i name="e_fr_energy">   -962.76445453 </i>
    <i name="e_wo_entrp">   -962.76445453 </i>
    <i name="e_0_energy">   -962.76445453 </i>
   </energy>
  </scstep>
  <scstep>
   <time name="total">  472.65  472.58</time>
   <energy>
    <i name="e_fr_energy">   -962.76682684 </i>
    <i name="e_wo_entrp">   -962.76682684 </i>
    <i name="e_0_energy">   -962.76682684 </i>
   </energy>
  </scstep>
  <scstep>
   <time name="total">  472.52  472.44</time>
   <energy>
    <i name="e_fr_energy">   -962.77166270 </i>
    <i name="e_wo_entrp">   -962.77166270 </i>
    <i name="e_0_energy">   -962.77166270 </i>
   </energy>
  </scstep>
  <scstep>
   <time name="total">  472.62  472.56</time>
   <energy>
    <i name="e_fr_energy">   -962.77469781 </i>
    <i name="e_wo_entrp">   -962.77469781 </i>
    <i name="e_0_energy">   -962.77469781 </i>
   </energy>
  </scstep>
  <scstep>
   <time name="total">  472.66  472.58</time>
   <energy>
    <i name="e_fr_energy">   -962.77624341 </i>
    <i name="e_wo_entrp">   -962.77624341 </i>
    <i name="e_0_energy">   -962.77624341 </i>
   </energy>
  </scstep>
  <scstep>
   <time name="total">  472.75  472.67</time>
   <energy>
    <i name="e_fr_energy">   -962.77685157 </i>
    <i name="e_wo_entrp">   -962.77685157 </i>
    <i name="e_0_energy">   -962.77685157 </i>
   </energy>
  </scstep>
  <scstep>
   <time name="total">  472.68  472.60</time>
   <energy>
    <i name="e_fr_energy">   -962.77723923 </i>
    <i name="e_wo_entrp">   -962.77723923 </i>
    <i name="e_0_energy">   -962.77723923 </i>
   </energy>
  </scstep>
  <scstep>
   <time name="total">  472.65  472.59</time>
   <energy>
    <i name="e_fr_energy">   -962.77744176 </i>
    <i name="e_wo_entrp">   -962.77744176 </i>
    <i name="e_0_energy">   -962.77744176 </i>
   </energy>
  </scstep>
  <scstep>
   <time name="total">  472.89  472.82</time>
   <energy>
    <i name="e_fr_energy">   -962.77757245 </i>
    <i name="e_wo_entrp">   -962.77757245 </i>
    <i name="e_0_energy">   -962.77757245 </i>
   </energy>
  </scstep>
  <scstep>
   <time name="total">  472.76  472.68</time>
   <energy>
    <i name="e_fr_energy">   -962.77767064 </i>
    <i name="e_wo_entrp">   -962.77767064 </i>
    <i name="e_0_energy">   -962.77767064 </i>
   </energy>
  </scstep>
  <scstep>
   <time name="total">  472.71  472.64</time>
   <energy>
    <i name="e_fr_energy">   -962.77775195 </i>
    <i name="e_wo_entrp">   -962.77775195 </i>
    <i name="e_0_energy">   -962.77775195 </i>
   </energy>
  </scstep>
  <scstep>
   <time name="total">  472.60  472.53</time>
   <energy>
    <i name="e_fr_energy">   -962.77785419 </i>
    <i name="e_wo_entrp">   -962.77785419 </i>
    <i name="e_0_energy">   -962.77785419 </i>
   </energy>
  </scstep>
  <scstep>
   <time name="total">  472.60  472.53</time>
   <energy>
    <i name="e_fr_energy">   -962.77797612 </i>
    <i name="e_wo_entrp">   -962.77797612 </i>
    <i name="e_0_energy">   -962.77797612 </i>
   </energy>
  </scstep>
  <scstep>
   <time name="total">  472.72  472.66</time>
   <energy>
    <i name="e_fr_energy">   -962.77808158 </i>
    <i name="e_wo_entrp">   -962.77808158 </i>
    <i name="e_0_energy">   -962.77808158 </i>
   </energy>
  </scstep>
  <scstep>
   <time name="total">  472.68  472.60</time>
   <energy>
    <i name="e_fr_energy">   -962.77820082 </i>
    <i name="e_wo_entrp">   -962.77820082 </i>
    <i name="e_0_energy">   -962.77820082 </i>
   </energy>
  </scstep>
  <scstep>
   <time name="total">  472.89  472.81</time>
   <energy>
    <i name="e_fr_energy">   -962.77833309 </i>
    <i name="e_wo_entrp">   -962.77833309 </i>
    <i name="e_0_energy">   -962.77833309 </i>
   </energy>
  </scstep>
  <scstep>
   <time name="total">  472.70  472.63</time>
   <energy>
    <i name="e_fr_energy">   -962.77847300 </i>
    <i name="e_wo_entrp">   -962.77847300 </i>
    <i name="e_0_energy">   -962.77847300 </i>
   </energy>
  </scstep>
  <scstep>
   <time name="total">  472.84  472.78</time>
   <energy>
    <i name="e_fr_energy">   -962.77857985 </i>
    <i name="e_wo_entrp">   -962.77857985 </i>
    <i name="e_0_energy">   -962.77857985 </i>
   </energy>
  </scstep>
  <scstep>
   <time name="total">  472.49  472.42</time>
   <energy>
    <i name="e_fr_energy">   -962.77866507 </i>
    <i name="e_wo_entrp">   -962.77866507 </i>
    <i name="e_0_energy">   -962.77866507 </i>
   </energy>
  </scstep>
  <scstep>
   <time name="total">  472.53  472.46</time>
   <energy>
    <i name="e_fr_energy">   -962.77874855 </i>
    <i name="e_wo_entrp">   -962.77874855 </i>
    <i name="e_0_energy">   -962.77874855 </i>
   </energy>
  </scstep>
  <scstep>
   <time name="total">  472.48  472.42</time>
   <energy>
    <i name="e_fr_energy">   -962.77881620 </i>
    <i name="e_wo_entrp">   -962.77881620 </i>
    <i name="e_0_energy">   -962.77881620 </i>
   </energy>
  </scstep>
  <scstep>
   <time name="total">  472.56  472.50</time>
   <energy>
    <i name="e_fr_energy">   -962.77887555 </i>
    <i name="e_wo_entrp">   -962.77887555 </i>
    <i name="e_0_energy">   -962.77887555 </i>
   </energy>
  </scstep>
  <scstep>
   <time name="total">  472.46  472.41</time>
   <energy>
    <i name="e_fr_energy">   -962.77892472 </i>
    <i name="e_wo_entrp">   -962.77892472 </i>
    <i name="e_0_energy">   -962.77892472 </i>
   </energy>
  </scstep>
  <scstep>
   <time name="total">  472.75  472.69</time>
   <energy>
    <i name="e_fr_energy">   -962.77896934 </i>
    <i name="e_wo_entrp">   -962.77896934 </i>
    <i name="e_0_energy">   -962.77896934 </i>
   </energy>
  </scstep>
  <scstep>
   <time name="total">  472.72  472.66</time>
   <energy>
    <i name="e_fr_energy">   -962.77900513 </i>
    <i name="e_wo_entrp">   -962.77900513 </i>
    <i name="e_0_energy">   -962.77900513 </i>
   </energy>
  </scstep>
  <scstep>
   <time name="total">  472.76  472.69</time>
   <energy>
    <i name="e_fr_energy">   -962.77903632 </i>
    <i name="e_wo_entrp">   -962.77903632 </i>
    <i name="e_0_energy">   -962.77903632 </i>
   </energy>
  </scstep>
  <scstep>
   <time name="total">  472.73  472.66</time>
   <energy>
    <i name="e_fr_energy">   -962.77906327 </i>
    <i name="e_wo_entrp">   -962.77906327 </i>
    <i name="e_0_energy">   -962.77906327 </i>
   </energy>
  </scstep>
  <scstep>
   <time name="total">  472.65  472.58</time>
   <energy>
    <i name="e_fr_energy">   -962.77908828 </i>
    <i name="e_wo_entrp">   -962.77908828 </i>
    <i name="e_0_energy">   -962.77908828 </i>
   </energy>
  </scstep>
  <scstep>
   <time name="total">  472.65  472.60</time>
   <energy>
    <i name="e_fr_energy">   -962.77911268 </i>
    <i name="e_wo_entrp">   -962.77911268 </i>
    <i name="e_0_energy">   -962.77911268 </i>
   </energy>
  </scstep>
  <scstep>
   <time name="total">  472.57  472.51</time>
   <energy>
    <i name="e_fr_energy">   -962.77913914 </i>
    <i name="e_wo_entrp">   -962.77913914 </i>
    <i name="e_0_energy">   -962.77913914 </i>
   </energy>
  </scstep>
  <scstep>
   <time name="total">  472.76  472.69</time>
   <energy>
    <i name="e_fr_energy">   -962.77917254 </i>
    <i name="e_wo_entrp">   -962.77917254 </i>
    <i name="e_0_energy">   -962.77917254 </i>
   </energy>
  </scstep>
  <scstep>
   <time name="total">  472.67  472.60</time>
   <energy>
    <i name="e_fr_energy">   -962.77921416 </i>
    <i name="e_wo_entrp">   -962.77921416 </i>
    <i name="e_0_energy">   -962.77921416 </i>
   </energy>
  </scstep>
  <scstep>
   <time name="total">  472.64  472.58</time>
   <energy>
    <i name="e_fr_energy">   -962.77926662 </i>
    <i name="e_wo_entrp">   -962.77926662 </i>
    <i name="e_0_energy">   -962.77926662 </i>
   </energy>
  </scstep>
  <scstep>
   <time name="total">  472.67  472.59</time>
   <energy>
    <i name="e_fr_energy">   -962.77930180 </i>
    <i name="e_wo_entrp">   -962.77930180 </i>
    <i name="e_0_energy">   -962.77930180 </i>
   </energy>
  </scstep>
  <scstep>
   <time name="total">  472.60  472.53</time>
   <energy>
    <i name="e_fr_energy">   -962.77932998 </i>
    <i name="e_wo_entrp">   -962.77932998 </i>
    <i name="e_0_energy">   -962.77932998 </i>
   </energy>
  </scstep>
  <scstep>
   <time name="total">  472.62  472.57</time>
   <energy>
    <i name="e_fr_energy">   -962.77935862 </i>
    <i name="e_wo_entrp">   -962.77935862 </i>
    <i name="e_0_energy">   -962.77935862 </i>
   </energy>
  </scstep>
  <scstep>
   <time name="total">  472.57  472.51</time>
   <energy>
    <i name="e_fr_energy">   -962.77938369 </i>
    <i name="e_wo_entrp">   -962.77938369 </i>
    <i name="e_0_energy">   -962.77938369 </i>
   </energy>
  </scstep>
  <scstep>
   <time name="total">  472.51  472.45</time>
   <energy>
    <i name="e_fr_energy">   -962.77940625 </i>
    <i name="e_wo_entrp">   -962.77940625 </i>
    <i name="e_0_energy">   -962.77940625 </i>
   </energy>
  </scstep>
  <scstep>
   <time name="total">  472.70  472.64</time>
   <energy>
    <i name="e_fr_energy">   -962.77942718 </i>
    <i name="e_wo_entrp">   -962.77942718 </i>
    <i name="e_0_energy">   -962.77942718 </i>
   </energy>
  </scstep>
  <scstep>
   <time name="total">  472.53  472.46</time>
   <energy>
    <i name="e_fr_energy">   -962.77944739 </i>
    <i name="e_wo_entrp">   -962.77944739 </i>
    <i name="e_0_energy">   -962.77944739 </i>
   </energy>
  </scstep>
  <scstep>
   <time name="total">  472.76  472.69</time>
   <energy>
    <i name="e_fr_energy">   -962.77946895 </i>
    <i name="e_wo_entrp">   -962.77946895 </i>
    <i name="e_0_energy">   -962.77946895 </i>
   </energy>
  </scstep>
  <scstep>
   <time name="total">  472.63  472.57</time>
   <energy>
    <i name="e_fr_energy">   -962.77948744 </i>
    <i name="e_wo_entrp">   -962.77948744 </i>
    <i name="e_0_energy">   -962.77948744 </i>
   </energy>
  </scstep>
  <scstep>
   <time name="total">  472.60  472.54</time>
   <energy>
    <i name="e_fr_energy">   -962.77950642 </i>
    <i name="e_wo_entrp">   -962.77950642 </i>
    <i name="e_0_energy">   -962.77950642 </i>
   </energy>
  </scstep>
  <scstep>
   <time name="total">  472.85  472.79</time>
   <energy>
    <i name="e_fr_energy">   -962.77953012 </i>
    <i name="e_wo_entrp">   -962.77953012 </i>
    <i name="e_0_energy">   -962.77953012 </i>
   </energy>
  </scstep>
  <scstep>
   <time name="total">  472.58  472.52</time>
   <energy>
    <i name="e_fr_energy">   -962.77955152 </i>
    <i name="e_wo_entrp">   -962.77955152 </i>
    <i name="e_0_energy">   -962.77955152 </i>
   </energy>
  </scstep>
  <scstep>
   <time name="total">  473.00  472.93</time>
   <energy>
    <i name="e_fr_energy">   -962.77957248 </i>
    <i name="e_wo_entrp">   -962.77957248 </i>
    <i name="e_0_energy">   -962.77957248 </i>
   </energy>
  </scstep>
  <scstep>
   <time name="total">  472.64  472.58</time>
   <energy>
    <i name="e_fr_energy">   -962.77960013 </i>
    <i name="e_wo_entrp">   -962.77960013 </i>
    <i name="e_0_energy">   -962.77960013 </i>
   </energy>
  </scstep>
  <scstep>
   <time name="total">  472.80  472.73</time>
   <energy>
    <i name="e_fr_energy">   -962.77962526 </i>
    <i name="e_wo_entrp">   -962.77962526 </i>
    <i name="e_0_energy">   -962.77962526 </i>
   </energy>
  </scstep>
  <scstep>
   <time name="total">  472.58  472.52</time>
   <energy>
    <i name="e_fr_energy">   -962.77965231 </i>
    <i name="e_wo_entrp">   -962.77965231 </i>
    <i name="e_0_energy">   -962.77965231 </i>
   </energy>
  </scstep>
  <scstep>
   <time name="total">  472.52  472.47</time>
   <energy>
    <i name="e_fr_energy">   -962.77967718 </i>
    <i name="e_wo_entrp">   -962.77967718 </i>
    <i name="e_0_energy">   -962.77967718 </i>
   </energy>
  </scstep>
  <scstep>
   <time name="total">  472.50  472.44</time>
   <energy>
    <i name="e_fr_energy">   -962.77970207 </i>
    <i name="e_wo_entrp">   -962.77970207 </i>
    <i name="e_0_energy">   -962.77970207 </i>
   </energy>
  </scstep>
  <scstep>
   <time name="total">  472.57  472.50</time>
   <energy>
    <i name="e_fr_energy">   -962.77972393 </i>
    <i name="e_wo_entrp">   -962.77972393 </i>
    <i name="e_0_energy">   -962.77972393 </i>
   </energy>
  </scstep>
  <scstep>
   <time name="total">  472.51  472.45</time>
   <energy>
    <i name="e_fr_energy">   -962.77974671 </i>
    <i name="e_wo_entrp">   -962.77974671 </i>
    <i name="e_0_energy">   -962.77974671 </i>
   </energy>
  </scstep>
  <scstep>
   <time name="total">  472.67  472.62</time>
   <energy>
    <i name="e_fr_energy">   -962.77976388 </i>
    <i name="e_wo_entrp">   -962.77976388 </i>
    <i name="e_0_energy">   -962.77976388 </i>
   </energy>
  </scstep>
  <scstep>
   <time name="total">  472.81  472.75</time>
   <energy>
    <i name="e_fr_energy">   -962.77978066 </i>
    <i name="e_wo_entrp">   -962.77978066 </i>
    <i name="e_0_energy">   -962.77978066 </i>
   </energy>
  </scstep>
  <scstep>
   <time name="total">  472.48  472.43</time>
   <energy>
    <i name="e_fr_energy">   -962.77979759 </i>
    <i name="e_wo_entrp">   -962.77979759 </i>
    <i name="e_0_energy">   -962.77979759 </i>
   </energy>
  </scstep>
  <scstep>
   <time name="total">  472.52  472.47</time>
   <energy>
    <i name="e_fr_energy">   -962.77981147 </i>
    <i name="e_wo_entrp">   -962.77981147 </i>
    <i name="e_0_energy">   -962.77981147 </i>
   </energy>
  </scstep>
  <scstep>
   <time name="total">  472.63  472.57</time>
   <energy>
    <i name="e_fr_energy">   -962.77982639 </i>
    <i name="e_wo_entrp">   -962.77982639 </i>
    <i name="e_0_energy">   -962.77982639 </i>
   </energy>
  </scstep>
  <scstep>
   <time name="total">  472.82  472.76</time>
   <energy>
    <i name="e_fr_energy">   -962.77984312 </i>
    <i name="e_wo_entrp">   -962.77984312 </i>
    <i name="e_0_energy">   -962.77984312 </i>
   </energy>
  </scstep>
  <scstep>
   <time name="total">  472.64  472.60</time>
   <energy>
    <i name="e_fr_energy">   -962.77986627 </i>
    <i name="e_wo_entrp">   -962.77986627 </i>
    <i name="e_0_energy">   -962.77986627 </i>
   </energy>
  </scstep>
  <scstep>
   <time name="total">  472.64  472.56</time>
   <energy>
    <i name="e_fr_energy">   -962.77989664 </i>
    <i name="e_wo_entrp">   -962.77989664 </i>
    <i name="e_0_energy">   -962.77989664 </i>
   </energy>
  </scstep>
  <scstep>
   <time name="total">  472.90  472.83</time>
   <energy>
    <i name="e_fr_energy">   -962.77992875 </i>
    <i name="e_wo_entrp">   -962.77992875 </i>
    <i name="e_0_energy">   -962.77992875 </i>
   </energy>
  </scstep>
  <scstep>
   <time name="total">  472.51  472.46</time>
   <energy>
    <i name="e_fr_energy">   -962.77997302 </i>
    <i name="e_wo_entrp">   -962.77997302 </i>
    <i name="e_0_energy">   -962.77997302 </i>
   </energy>
  </scstep>
  <scstep>
   <time name="total">  472.73  472.67</time>
   <energy>
    <i name="e_fr_energy">   -962.78001971 </i>
    <i name="e_wo_entrp">   -962.78001971 </i>
    <i name="e_0_energy">   -962.78001971 </i>
   </energy>
  </scstep>
  <scstep>
   <time name="total">  472.61  472.54</time>
   <energy>
    <i name="e_fr_energy">   -962.78004765 </i>
    <i name="e_wo_entrp">   -962.78004765 </i>
    <i name="e_0_energy">   -962.78004765 </i>
   </energy>
  </scstep>
  <scstep>
   <time name="total">  472.52  472.46</time>
   <energy>
    <i name="e_fr_energy">   -962.78007289 </i>
    <i name="e_wo_entrp">   -962.78007289 </i>
    <i name="e_0_energy">   -962.78007289 </i>
   </energy>
  </scstep>
  <scstep>
   <time name="total">  472.64  472.58</time>
   <energy>
    <i name="e_fr_energy">   -962.78009166 </i>
    <i name="e_wo_entrp">   -962.78009166 </i>
    <i name="e_0_energy">   -962.78009166 </i>
   </energy>
  </scstep>
  <scstep>
   <time name="total">  472.50  472.42</time>
   <energy>
    <i name="e_fr_energy">   -962.78010399 </i>
    <i name="e_wo_entrp">   -962.78010399 </i>
    <i name="e_0_energy">   -962.78010399 </i>
   </energy>
  </scstep>
  <scstep>
   <time name="total">  705.57  705.47</time>
   <energy>
    <i name="alphaZ">   5490.26774318 </i>
    <i name="ewald"> -87875.54849267 </i>
    <i name="hartreedc"> -33476.46852190 </i>
    <i name="XCdc">   2882.17827712 </i>
    <i name="pawpsdc"> 120424.17196540 </i>
    <i name="pawaedc">-135682.16209830 </i>
    <i name="eentropy">     -0.00000000 </i>
    <i name="bandstr">  -8760.68701680 </i>
    <i name="atom"> 132173.67027711 </i>
    <i name="e_fr_energy">   -962.78011282 </i>
    <i name="e_wo_entrp">   -962.78011282 </i>
    <i name="e_0_energy">   -962.78011282 </i>
   </energy>
  </scstep>
  <structure>
   <crystal>
    <varray name="basis" >
     <v>       0.00000000      12.28047371       0.00000000 </v>
     <v>       9.14270115       0.00000000       0.00000000 </v>
     <v>       0.00000000      -2.76826164     -11.30069748 </v>
    </varray>
    <i name="volume">   1268.80503319 </i>
    <varray name="rec_basis" >
     <v>       0.00000000       0.08143008      -0.01994742 </v>
     <v>       0.10937687      -0.00000000       0.00000000 </v>
     <v>       0.00000000       0.00000000      -0.08849011 </v>
    </varray>
   </crystal>
   <varray name="positions" >
    <v>       0.65854710       0.00045250       0.15670063 </v>
    <v>       0.65823398       0.99957819       0.65643034 </v>
    <v>       0.65990472       0.33374759       0.15573231 </v>
    <v>       0.65955440       0.33283430       0.65694063 </v>
    <v>       0.65868429       0.66661868       0.15595499 </v>
    <v>       0.65802522       0.66559505       0.65591109 </v>
    <v>       0.84086257       0.16734914       0.34392572 </v>
    <v>       0.84087678       0.16635488       0.84329819 </v>
    <v>       0.84161510       0.49989285       0.34344058 </v>
    <v>       0.84095162       0.50017960       0.84345851 </v>
    <v>       0.84036178       0.83375288       0.34353495 </v>
    <v>       0.84072481       0.83309686       0.84332068 </v>
    <v>       0.58845808       0.16679581       0.39657113 </v>
    <v>       0.59140759       0.16654852       0.89772984 </v>
    <v>       0.58957436       0.50233396       0.39568382 </v>
    <v>       0.59087092       0.49996542       0.89767036 </v>
    <v>       0.59148384       0.83465804       0.39803763 </v>
    <v>       0.59123442       0.83328105       0.89764343 </v>
    <v>       0.90780662       0.00111085       0.10238277 </v>
    <v>       0.90925950       0.99962944       0.60263185 </v>
    <v>       0.91025654       0.33470363       0.10272506 </v>
    <v>       0.90960264       0.33307168       0.60245565 </v>
    <v>       0.91064299       0.66622579       0.10321133 </v>
    <v>       0.90912851       0.66657414       0.60249668 </v>
    <v>       0.15894402       0.16726213       0.15739162 </v>
    <v>       0.15968749       0.16612989       0.65776416 </v>
    <v>       0.16369188       0.50088366       0.15711068 </v>
    <v>       0.15937938       0.49989729       0.65773688 </v>
    <v>       0.15826081       0.83439932       0.15707728 </v>
    <v>       0.15991671       0.83284907       0.65677188 </v>
    <v>       0.34002038       0.00074401       0.34404943 </v>
    <v>       0.34163313       0.99986774       0.84342515 </v>
    <v>       0.34136887       0.33345549       0.84504006 </v>
    <v>       0.33987277       0.66405418       0.33700896 </v>
    <v>       0.34167111       0.66593656       0.84459708 </v>
    <v>       0.09053490       0.00069093       0.39781675 </v>
    <v>       0.09142192       0.00008638       0.89810326 </v>
    <v>       0.09344957       0.33306220       0.39923149 </v>
    <v>       0.09007117       0.33291239       0.89737570 </v>
    <v>       0.09007763       0.66780958       0.39789259 </v>
    <v>       0.09081649       0.66702876       0.89740110 </v>
    <v>       0.40942363       0.16823003       0.10354053 </v>
    <v>       0.40830692       0.16550091       0.60158680 </v>
    <v>       0.40647836       0.49859201       0.10726384 </v>
    <v>       0.40853285       0.49545455       0.60269170 </v>
    <v>       0.40937398       0.83306806       0.10225553 </v>
    <v>       0.40772697       0.83072862       0.60065117 </v>
    <v>       0.99627812       0.16703658       0.12841134 </v>
    <v>       0.99684687       0.16624652       0.62726608 </v>
    <v>       0.99926314       0.50005406       0.12836948 </v>
    <v>       0.99668783       0.49997201       0.62720958 </v>
    <v>       0.99550208       0.83498558       0.12694244 </v>
    <v>       0.99695211       0.83303266       0.62723346 </v>
    <v>       0.50264474       0.00006739       0.37244693 </v>
    <v>       0.50410696       0.00002741       0.87261462 </v>
    <v>       0.49516898       0.33497651       0.36800552 </v>
    <v>       0.50406100       0.33298371       0.87194669 </v>
    <v>       0.50430124       0.66896413       0.37487439 </v>
    <v>       0.50402174       0.66676685       0.87147862 </v>
    <v>       0.67153009       0.16866558       0.28121138 </v>
    <v>       0.67260399       0.16601404       0.78009623 </v>
    <v>       0.67227543       0.49952390       0.28040643 </v>
    <v>       0.67251023       0.49970350       0.78007277 </v>
    <v>       0.67249586       0.83388541       0.28053052 </v>
    <v>       0.67223143       0.83245927       0.78008588 </v>
    <v>       0.82672061       0.00130820       0.22004304 </v>
    <v>       0.82673077       0.99999151       0.71886551 </v>
    <v>       0.82770905       0.33392974       0.21947648 </v>
    <v>       0.82737262       0.33294731       0.71909441 </v>
    <v>       0.82765137       0.66633764       0.21962822 </v>
    <v>       0.82677849       0.66603136       0.71888645 </v>
    <v>       0.83168757       0.00057627       0.44620809 </v>
    <v>       0.83159418       0.00003696       0.94553430 </v>
    <v>       0.83223776       0.33371359       0.44610312 </v>
    <v>       0.83290273       0.33344696       0.94597467 </v>
    <v>       0.83219754       0.66641795       0.44585622 </v>
    <v>       0.83316218       0.66648942       0.94631836 </v>
    <v>       0.66880286       0.16631396       0.05419769 </v>
    <v>       0.66538807       0.16726478       0.55270406 </v>
    <v>       0.66903052       0.50044089       0.05374805 </v>
    <v>       0.66576977       0.49809822       0.55241926 </v>
    <v>       0.66785603       0.83379613       0.05431852 </v>
    <v>       0.66789675       0.83316128       0.55459347 </v>
    <v>       0.49618056       0.00077612       0.12793411 </v>
    <v>       0.49529334       0.99805491       0.62602788 </v>
    <v>       0.49826543       0.33332973       0.12663521 </v>
    <v>       0.49735567       0.33090575       0.62714141 </v>
    <v>       0.49648109       0.66613856       0.12640904 </v>
    <v>       0.49480055       0.66335915       0.62522060 </v>
    <v>       0.00384039       0.16791177       0.37315499 </v>
    <v>       0.00304595       0.16591096       0.87188792 </v>
    <v>       0.00467008       0.49901731       0.37303704 </v>
    <v>       0.00342928       0.50023123       0.87188674 </v>
    <v>       0.00253579       0.83462552       0.37385202 </v>
    <v>       0.00336050       0.83384501       0.87206071 </v>
    <v>       0.17234151       0.00185953       0.28090675 </v>
    <v>       0.17295050       0.99966675       0.78077789 </v>
    <v>       0.17763635       0.33049610       0.28386222 </v>
    <v>       0.17281911       0.33284453       0.78137043 </v>
    <v>       0.16904028       0.67271254       0.28037819 </v>
    <v>       0.17297015       0.66627014       0.78071080 </v>
    <v>       0.32862194       0.17215074       0.22299407 </v>
    <v>       0.32806515       0.16635293       0.72006747 </v>
    <v>       0.32764340       0.49908984       0.71995932 </v>
    <v>       0.32687188       0.83755230       0.21805774 </v>
    <v>       0.32775708       0.83264777       0.71929092 </v>
    <v>       0.33391494       0.17103486       0.44427004 </v>
    <v>       0.33278722       0.16627534       0.94671396 </v>
    <v>       0.33168430       0.48855227       0.44352696 </v>
    <v>       0.33444992       0.49978855       0.94709172 </v>
    <v>       0.33206350       0.83034332       0.44374175 </v>
    <v>       0.33292416       0.83356027       0.94551972 </v>
    <v>       0.16813607       0.00138024       0.05480894 </v>
    <v>       0.16892457       0.00008055       0.55415776 </v>
    <v>       0.16560761       0.33148017       0.05366008 </v>
    <v>       0.16877680       0.33305164       0.55581949 </v>
    <v>       0.16765559       0.66906277       0.05350944 </v>
    <v>       0.16879691       0.66576856       0.55412528 </v>
    <v>       0.32676617       0.49696629       0.22652236 </v>
    <v>       0.34183624       0.33824414       0.33806494 </v>
   </varray>
  </structure>
  <varray name="forces" >
   <v>      -0.00567918       0.07916184       0.01706460 </v>
   <v>      -0.01418173       0.07781015       0.00109742 </v>
   <v>       0.00770523       0.02046191       0.02267313 </v>
   <v>       0.01133224       0.03855928       0.02851339 </v>
   <v>      -0.00414035       0.07627347       0.02097372 </v>
   <v>      -0.01199217       0.06595177       0.01272128 </v>
   <v>       0.00117910      -0.07430162      -0.01108748 </v>
   <v>      -0.00751244      -0.06728554      -0.00126531 </v>
   <v>       0.00171063      -0.06636272      -0.01262287 </v>
   <v>       0.00515842      -0.07150423      -0.00241315 </v>
   <v>      -0.00004455      -0.07242448      -0.01041068 </v>
   <v>       0.00128037      -0.07429224      -0.00397725 </v>
   <v>       0.05875650      -0.03967696       0.05655175 </v>
   <v>       0.01107020      -0.02975336       0.02238786 </v>
   <v>      -0.06487656      -0.11650942      -0.05526862 </v>
   <v>      -0.00804337      -0.02459814       0.01655008 </v>
   <v>      -0.04196104      -0.03858601       0.01000984 </v>
   <v>      -0.00333660      -0.02158774       0.02604963 </v>
   <v>      -0.01443294       0.02274183      -0.00985529 </v>
   <v>       0.00463515       0.01161813      -0.01678852 </v>
   <v>      -0.01625619       0.01125507      -0.00861295 </v>
   <v>       0.00247865       0.01645645      -0.01266436 </v>
   <v>       0.02366273       0.00591219      -0.00397952 </v>
   <v>      -0.00464301       0.01383158      -0.01328659 </v>
   <v>      -0.03486008       0.00416677       0.06466588 </v>
   <v>       0.02333003       0.06534231       0.00945993 </v>
   <v>       0.04053434      -0.20685545       0.19476345 </v>
   <v>      -0.01100490       0.07699808       0.02545877 </v>
   <v>      -0.00100283       0.04354056       0.02145241 </v>
   <v>      -0.00776324       0.07774736       0.00294263 </v>
   <v>      -0.14589282      -0.05676581       0.00140495 </v>
   <v>      -0.00154485      -0.06066984      -0.01006734 </v>
   <v>      -0.00355146      -0.04373355      -0.01907987 </v>
   <v>       0.15938028      -0.02125124      -0.33726660 </v>
   <v>       0.01015776      -0.04932932      -0.00824496 </v>
   <v>      -0.01092638      -0.04097553       0.00030513 </v>
   <v>       0.00408504      -0.03027136       0.02519046 </v>
   <v>       0.03936239      -0.04840206      -0.05252422 </v>
   <v>      -0.00486549      -0.02002142       0.02080469 </v>
   <v>      -0.00761596      -0.01727482      -0.00713090 </v>
   <v>       0.00139269      -0.02546100       0.02550698 </v>
   <v>       0.01625089       0.11712596       0.02953109 </v>
   <v>       0.04341219       0.09081275      -0.15815112 </v>
   <v>      -0.07583354       0.44457752       0.28904789 </v>
   <v>       0.00203096       0.06241387       0.10446962 </v>
   <v>       0.02831470       0.03556780       0.01953768 </v>
   <v>      -0.02306104       0.04162492      -0.02811822 </v>
   <v>       0.01455810      -0.15533900       0.11103594 </v>
   <v>      -0.00049867      -0.17190357       0.11263316 </v>
   <v>      -0.01018634      -0.19724529       0.11062467 </v>
   <v>      -0.00213940      -0.16770127       0.10904314 </v>
   <v>      -0.00838536      -0.15929345       0.10692908 </v>
   <v>       0.00097903      -0.17297338       0.11509673 </v>
   <v>       0.06193412       0.14295524      -0.11079584 </v>
   <v>       0.00043615       0.16689593      -0.12101101 </v>
   <v>       0.09510128       0.60585814      -0.42895908 </v>
   <v>       0.00064108       0.16825390      -0.13464452 </v>
   <v>      -0.01472540       0.18986532      -0.04791066 </v>
   <v>      -0.00114557       0.16191416      -0.13707846 </v>
   <v>      -0.00538441      -0.06678272      -0.12703767 </v>
   <v>      -0.00009096      -0.02742065      -0.10588971 </v>
   <v>      -0.00371790      -0.08955645      -0.13245519 </v>
   <v>      -0.00103516      -0.02705445      -0.10408660 </v>
   <v>       0.01432768      -0.02809523      -0.11550448 </v>
   <v>       0.00717126      -0.03452248      -0.11718303 </v>
   <v>       0.00215441       0.03969846       0.11050356 </v>
   <v>      -0.00222626       0.04581316       0.11070180 </v>
   <v>       0.00680187       0.03647824       0.10513467 </v>
   <v>      -0.00446455       0.03059755       0.11640920 </v>
   <v>      -0.00542705       0.04868350       0.10406779 </v>
   <v>       0.00019511       0.04955993       0.10560963 </v>
   <v>      -0.00003988       0.40510898      -0.06799645 </v>
   <v>       0.00571652       0.39899398      -0.07587145 </v>
   <v>      -0.00996529       0.40913631      -0.06285495 </v>
   <v>       0.00638565       0.39750260      -0.07682892 </v>
   <v>       0.00358442       0.40047883      -0.07037236 </v>
   <v>      -0.00340048       0.39494002      -0.06610003 </v>
   <v>       0.00027692      -0.40536421       0.06594360 </v>
   <v>       0.00968060      -0.40134353       0.11029180 </v>
   <v>       0.00164667      -0.40312000       0.06522671 </v>
   <v>       0.01606120      -0.38102125       0.06994286 </v>
   <v>      -0.00585378      -0.40112432       0.07205361 </v>
   <v>       0.01266113      -0.40229772       0.08295716 </v>
   <v>       0.00346432      -0.16313867       0.11023300 </v>
   <v>       0.02709849      -0.18555856       0.13389576 </v>
   <v>      -0.02979703      -0.23437123       0.12044091 </v>
   <v>       0.00341340      -0.23215022       0.09849011 </v>
   <v>       0.02155164      -0.20474407       0.07083286 </v>
   <v>       0.01512881      -0.16986607       0.09672747 </v>
   <v>      -0.00738720       0.20119867      -0.11827456 </v>
   <v>       0.00632691       0.16527093      -0.12433170 </v>
   <v>       0.01333305       0.16874905      -0.11638475 </v>
   <v>      -0.00014890       0.16405385      -0.12392748 </v>
   <v>      -0.00383562       0.17556122      -0.10397042 </v>
   <v>      -0.01030858       0.17339970      -0.12310178 </v>
   <v>       0.03132098       0.00819435      -0.12449848 </v>
   <v>       0.00975932      -0.03240654      -0.10545609 </v>
   <v>      -0.01917304      -0.01828026      -0.33939262 </v>
   <v>       0.00299665      -0.03743837      -0.11630899 </v>
   <v>      -0.05227351       0.07344468      -0.12018208 </v>
   <v>      -0.00717599      -0.03770164      -0.11081099 </v>
   <v>       0.17696084       0.19128412       0.19627409 </v>
   <v>      -0.01763808       0.02902528       0.14007150 </v>
   <v>      -0.01297015       0.03898484       0.13457813 </v>
   <v>      -0.06981234       0.03956781       0.10039678 </v>
   <v>       0.00154497       0.01670840       0.12845269 </v>
   <v>       0.08798308       0.37058299       0.11224578 </v>
   <v>       0.01532475       0.38733203      -0.08641985 </v>
   <v>       0.28117743       0.35172810      -0.37573506 </v>
   <v>       0.00052329       0.32785212      -0.08038929 </v>
   <v>       0.05169490       0.37186899      -0.07914134 </v>
   <v>      -0.00587956       0.39469882      -0.07249735 </v>
   <v>       0.00868509      -0.39499623       0.05423733 </v>
   <v>       0.00246295      -0.39690273       0.07997600 </v>
   <v>      -0.00339464      -0.35059616       0.02022879 </v>
   <v>      -0.02809050      -0.41024462       0.07835624 </v>
   <v>      -0.02900851      -0.35574361       0.04714644 </v>
   <v>       0.02585589      -0.41331388       0.06170703 </v>
   <v>      -0.59671050      -0.07052370      -0.22976785 </v>
   <v>      -0.04682715      -0.52416240       0.79835658 </v>
  </varray>
  <varray name="stress" >
   <v>     -55.50351937      -0.49514151      -0.67887319 </v>
   <v>      -0.49514120     -50.12671918       2.90548603 </v>
   <v>      -0.67887211       2.90548682     -48.41935912 </v>
  </varray>
  <energy>
   <i name="e_fr_energy">   -962.78011282 </i>
   <i name="e_wo_entrp">   -962.78011282 </i>
   <i name="e_0_energy">   -962.78011282 </i>
  </energy>
  <time name="totalsc">77634.4077625.77</time>
  <eigenvalues>
   <array>
    <dimension dim="1">band</dimension>
    <dimension dim="2">kpoint</dimension>
    <dimension dim="3">spin</dimension>
    <field>eigene</field>
    <field>occ</field>
    <set>
     <set comment="spin 1">
      <set comment="kpoint 1">
       <r>  -18.6641    1.0000 </r>
       <r>  -18.3900    1.0000 </r>
       <r>  -18.3141    1.0000 </r>
       <r>  -18.2450    1.0000 </r>
       <r>  -18.1458    1.0000 </r>
       <r>  -17.9966    1.0000 </r>
       <r>  -17.9616    1.0000 </r>
       <r>  -17.9237    1.0000 </r>
       <r>  -17.8536    1.0000 </r>
       <r>  -17.8162    1.0000 </r>
       <r>  -17.7884    1.0000 </r>
       <r>  -17.7409    1.0000 </r>
       <r>  -17.7190    1.0000 </r>
       <r>  -17.7125    1.0000 </r>
       <r>  -17.6921    1.0000 </r>
       <r>  -17.6818    1.0000 </r>
       <r>  -17.6633    1.0000 </r>
       <r>  -17.6172    1.0000 </r>
       <r>  -17.5618    1.0000 </r>
       <r>  -17.5448    1.0000 </r>
       <r>  -17.5279    1.0000 </r>
       <r>  -17.5197    1.0000 </r>
       <r>  -17.5083    1.0000 </r>
       <r>  -17.5013    1.0000 </r>
       <r>  -17.4988    1.0000 </r>
       <r>  -17.4691    1.0000 </r>
       <r>  -17.3917    1.0000 </r>
       <r>  -17.3731    1.0000 </r>
       <r>  -17.3691    1.0000 </r>
       <r>  -17.3554    1.0000 </r>
       <r>  -17.3348    1.0000 </r>
       <r>  -17.3287    1.0000 </r>
       <r>  -17.3265    1.0000 </r>
       <r>  -17.3144    1.0000 </r>
       <r>  -17.2977    1.0000 </r>
       <r>  -17.2666    1.0000 </r>
       <r>  -17.2569    1.0000 </r>
       <r>  -17.2458    1.0000 </r>
       <r>  -17.2339    1.0000 </r>
       <r>  -17.1880    1.0000 </r>
       <r>  -17.1822    1.0000 </r>
       <r>  -17.1776    1.0000 </r>
       <r>  -17.1754    1.0000 </r>
       <r>  -17.1653    1.0000 </r>
       <r>  -17.1519    1.0000 </r>
       <r>  -17.1427    1.0000 </r>
       <r>  -17.1204    1.0000 </r>
       <r>  -17.0834    1.0000 </r>
       <r>  -17.0391    1.0000 </r>
       <r>  -17.0356    1.0000 </r>
       <r>  -17.0213    1.0000 </r>
       <r>  -16.9887    1.0000 </r>
       <r>  -16.9719    1.0000 </r>
       <r>  -16.9508    1.0000 </r>
       <r>  -16.9375    1.0000 </r>
       <r>  -16.9216    1.0000 </r>
       <r>  -16.9178    1.0000 </r>
       <r>  -16.9121    1.0000 </r>
       <r>  -16.9087    1.0000 </r>
       <r>  -16.9056    1.0000 </r>
       <r>  -16.9027    1.0000 </r>
       <r>  -16.9004    1.0000 </r>
       <r>  -16.8781    1.0000 </r>
       <r>  -16.8752    1.0000 </r>
       <r>  -16.8674    1.0000 </r>
       <r>  -16.8548    1.0000 </r>
       <r>  -16.8291    1.0000 </r>
       <r>  -16.8121    1.0000 </r>
       <r>  -16.8085    1.0000 </r>
       <r>  -16.7829    1.0000 </r>
       <r>  -16.7402    1.0000 </r>
       <r>  -13.6707    1.0000 </r>
       <r>  -13.1462    1.0000 </r>
       <r>  -13.0984    1.0000 </r>
       <r>  -13.0675    1.0000 </r>
       <r>  -13.0552    1.0000 </r>
       <r>  -13.0508    1.0000 </r>
       <r>  -13.0414    1.0000 </r>
       <r>  -13.0356    1.0000 </r>
       <r>  -13.0258    1.0000 </r>
       <r>  -13.0208    1.0000 </r>
       <r>  -13.0163    1.0000 </r>
       <r>  -13.0117    1.0000 </r>
       <r>  -13.0104    1.0000 </r>
       <r>  -13.0048    1.0000 </r>
       <r>  -13.0033    1.0000 </r>
       <r>  -12.9986    1.0000 </r>
       <r>  -12.9970    1.0000 </r>
       <r>  -12.9936    1.0000 </r>
       <r>  -12.9772    1.0000 </r>
       <r>  -12.9708    1.0000 </r>
       <r>  -12.9677    1.0000 </r>
       <r>  -12.9614    1.0000 </r>
       <r>  -12.9598    1.0000 </r>
       <r>  -12.9578    1.0000 </r>
       <r>  -12.9529    1.0000 </r>
       <r>  -12.9485    1.0000 </r>
       <r>  -12.9473    1.0000 </r>
       <r>  -12.9451    1.0000 </r>
       <r>  -12.9427    1.0000 </r>
       <r>  -12.9409    1.0000 </r>
       <r>  -12.9368    1.0000 </r>
       <r>  -12.9343    1.0000 </r>
       <r>  -12.9313    1.0000 </r>
       <r>  -12.9275    1.0000 </r>
       <r>  -12.9256    1.0000 </r>
       <r>  -12.9250    1.0000 </r>
       <r>  -12.9226    1.0000 </r>
       <r>  -12.9222    1.0000 </r>
       <r>  -12.9194    1.0000 </r>
       <r>  -12.9182    1.0000 </r>
       <r>  -12.9147    1.0000 </r>
       <r>  -12.9122    1.0000 </r>
       <r>  -12.9111    1.0000 </r>
       <r>  -12.9084    1.0000 </r>
       <r>  -12.9030    1.0000 </r>
       <r>  -12.9013    1.0000 </r>
       <r>  -12.9008    1.0000 </r>
       <r>  -12.9000    1.0000 </r>
       <r>  -12.8982    1.0000 </r>
       <r>  -12.8953    1.0000 </r>
       <r>  -12.8919    1.0000 </r>
       <r>  -12.8887    1.0000 </r>
       <r>  -12.8854    1.0000 </r>
       <r>  -12.8832    1.0000 </r>
       <r>  -12.8804    1.0000 </r>
       <r>  -12.8775    1.0000 </r>
       <r>  -12.8715    1.0000 </r>
       <r>  -12.8693    1.0000 </r>
       <r>  -12.8640    1.0000 </r>
       <r>  -12.8558    1.0000 </r>
       <r>  -12.8522    1.0000 </r>
       <r>  -12.8513    1.0000 </r>
       <r>  -12.8496    1.0000 </r>
       <r>  -12.8406    1.0000 </r>
       <r>  -12.8373    1.0000 </r>
       <r>  -12.8351    1.0000 </r>
       <r>  -12.8251    1.0000 </r>
       <r>  -12.8193    1.0000 </r>
       <r>  -12.8169    1.0000 </r>
       <r>  -12.8142    1.0000 </r>
       <r>  -12.8116    1.0000 </r>
       <r>  -12.8100    1.0000 </r>
       <r>  -12.8046    1.0000 </r>
       <r>  -12.8011    1.0000 </r>
       <r>  -12.7996    1.0000 </r>
       <r>  -12.7965    1.0000 </r>
       <r>  -12.7938    1.0000 </r>
       <r>  -12.7912    1.0000 </r>
       <r>  -12.7897    1.0000 </r>
       <r>  -12.7871    1.0000 </r>
       <r>  -12.7862    1.0000 </r>
       <r>  -12.7850    1.0000 </r>
       <r>  -12.7837    1.0000 </r>
       <r>  -12.7785    1.0000 </r>
       <r>  -12.7778    1.0000 </r>
       <r>  -12.7758    1.0000 </r>
       <r>  -12.7725    1.0000 </r>
       <r>  -12.7714    1.0000 </r>
       <r>  -12.7702    1.0000 </r>
       <r>  -12.7668    1.0000 </r>
       <r>  -12.7661    1.0000 </r>
       <r>  -12.7641    1.0000 </r>
       <r>  -12.7628    1.0000 </r>
       <r>  -12.7611    1.0000 </r>
       <r>  -12.7602    1.0000 </r>
       <r>  -12.7562    1.0000 </r>
       <r>  -12.7536    1.0000 </r>
       <r>  -12.7516    1.0000 </r>
       <r>  -12.7485    1.0000 </r>
       <r>  -12.7480    1.0000 </r>
       <r>  -12.7454    1.0000 </r>
       <r>  -12.7440    1.0000 </r>
       <r>  -12.7409    1.0000 </r>
       <r>  -12.7399    1.0000 </r>
       <r>  -12.7386    1.0000 </r>
       <r>  -12.7360    1.0000 </r>
       <r>  -12.7337    1.0000 </r>
       <r>  -12.7294    1.0000 </r>
       <r>  -12.7276    1.0000 </r>
       <r>  -12.7239    1.0000 </r>
       <r>  -12.7189    1.0000 </r>
       <r>  -12.7131    1.0000 </r>
       <r>  -12.7098    1.0000 </r>
       <r>  -12.7095    1.0000 </r>
       <r>  -12.7082    1.0000 </r>
       <r>  -12.7033    1.0000 </r>
       <r>  -12.6963    1.0000 </r>
       <r>  -12.6929    1.0000 </r>
       <r>  -12.6902    1.0000 </r>
       <r>  -12.6874    1.0000 </r>
       <r>  -12.6840    1.0000 </r>
       <r>  -12.6825    1.0000 </r>
       <r>  -12.6777    1.0000 </r>
       <r>  -12.6719    1.0000 </r>
       <r>  -12.6682    1.0000 </r>
       <r>  -12.6632    1.0000 </r>
       <r>  -12.6586    1.0000 </r>
       <r>  -12.6565    1.0000 </r>
       <r>  -12.6563    1.0000 </r>
       <r>  -12.6540    1.0000 </r>
       <r>  -12.6518    1.0000 </r>
       <r>  -12.6511    1.0000 </r>
       <r>  -12.6506    1.0000 </r>
       <r>  -12.6475    1.0000 </r>
       <r>  -12.6448    1.0000 </r>
       <r>  -12.6397    1.0000 </r>
       <r>  -12.6386    1.0000 </r>
       <r>  -12.6377    1.0000 </r>
       <r>  -12.6346    1.0000 </r>
       <r>  -12.6314    1.0000 </r>
       <r>  -12.6308    1.0000 </r>
       <r>  -12.6266    1.0000 </r>
       <r>  -12.6237    1.0000 </r>
       <r>  -12.6217    1.0000 </r>
       <r>  -12.6196    1.0000 </r>
       <r>  -12.6189    1.0000 </r>
       <r>  -12.6174    1.0000 </r>
       <r>  -12.6153    1.0000 </r>
       <r>  -12.6102    1.0000 </r>
       <r>  -12.6081    1.0000 </r>
       <r>  -12.6064    1.0000 </r>
       <r>  -12.6037    1.0000 </r>
       <r>  -12.6008    1.0000 </r>
       <r>  -12.5982    1.0000 </r>
       <r>  -12.5979    1.0000 </r>
       <r>  -12.5932    1.0000 </r>
       <r>  -12.5907    1.0000 </r>
       <r>  -12.5890    1.0000 </r>
       <r>  -12.5878    1.0000 </r>
       <r>  -12.5853    1.0000 </r>
       <r>  -12.5836    1.0000 </r>
       <r>  -12.5825    1.0000 </r>
       <r>  -12.5799    1.0000 </r>
       <r>  -12.5784    1.0000 </r>
       <r>  -12.5762    1.0000 </r>
       <r>  -12.5723    1.0000 </r>
       <r>  -12.5624    1.0000 </r>
       <r>  -12.5609    1.0000 </r>
       <r>  -12.5591    1.0000 </r>
       <r>  -12.5574    1.0000 </r>
       <r>  -12.5563    1.0000 </r>
       <r>  -12.5479    1.0000 </r>
       <r>  -12.5468    1.0000 </r>
       <r>  -12.5440    1.0000 </r>
       <r>  -12.5411    1.0000 </r>
       <r>  -12.5345    1.0000 </r>
       <r>  -12.5328    1.0000 </r>
       <r>  -12.5264    1.0000 </r>
       <r>  -12.5228    1.0000 </r>
       <r>  -12.5209    1.0000 </r>
       <r>  -12.5176    1.0000 </r>
       <r>  -12.5135    1.0000 </r>
       <r>  -12.5082    1.0000 </r>
       <r>  -12.4979    1.0000 </r>
       <r>  -12.4902    1.0000 </r>
       <r>  -12.4832    1.0000 </r>
       <r>  -12.4701    1.0000 </r>
       <r>  -12.4558    1.0000 </r>
       <r>  -12.4485    1.0000 </r>
       <r>  -12.4402    1.0000 </r>
       <r>  -12.4316    1.0000 </r>
       <r>  -12.4243    1.0000 </r>
       <r>  -12.4059    1.0000 </r>
       <r>  -12.3976    1.0000 </r>
       <r>  -12.3893    1.0000 </r>
       <r>  -12.3773    1.0000 </r>
       <r>  -12.3722    1.0000 </r>
       <r>  -12.3540    1.0000 </r>
       <r>  -12.3483    1.0000 </r>
       <r>  -12.3259    1.0000 </r>
       <r>  -12.3009    1.0000 </r>
       <r>  -12.2865    1.0000 </r>
       <r>  -12.2594    1.0000 </r>
       <r>  -12.2510    1.0000 </r>
       <r>  -12.2222    1.0000 </r>
       <r>  -12.2145    1.0000 </r>
       <r>  -12.2076    1.0000 </r>
       <r>  -12.2026    1.0000 </r>
       <r>  -12.1679    1.0000 </r>
       <r>  -12.1424    1.0000 </r>
       <r>  -12.1384    1.0000 </r>
       <r>  -12.1332    1.0000 </r>
       <r>  -12.1157    1.0000 </r>
       <r>  -12.1045    1.0000 </r>
       <r>  -12.0251    1.0000 </r>
       <r>  -12.0038    1.0000 </r>
       <r>  -11.9599    1.0000 </r>
       <r>  -11.9550    1.0000 </r>
       <r>  -11.9416    1.0000 </r>
       <r>  -11.9282    1.0000 </r>
       <r>  -11.9112    1.0000 </r>
       <r>  -11.9024    1.0000 </r>
       <r>  -11.8845    1.0000 </r>
       <r>  -11.8843    1.0000 </r>
       <r>  -11.8715    1.0000 </r>
       <r>  -11.8526    1.0000 </r>
       <r>  -11.8383    1.0000 </r>
       <r>  -11.8330    1.0000 </r>
       <r>  -11.8183    1.0000 </r>
       <r>  -11.8089    1.0000 </r>
       <r>  -11.7927    1.0000 </r>
       <r>  -11.7502    1.0000 </r>
       <r>  -11.7238    1.0000 </r>
       <r>  -11.7191    1.0000 </r>
       <r>  -11.6103    1.0000 </r>
       <r>  -10.6687    1.0000 </r>
       <r>   -5.1626    1.0000 </r>
       <r>   -5.1414    1.0000 </r>
       <r>   -4.8681    1.0000 </r>
       <r>   -4.8369    1.0000 </r>
       <r>   -4.5267    1.0000 </r>
       <r>   -4.5237    1.0000 </r>
       <r>   -4.4622    1.0000 </r>
       <r>   -4.4291    1.0000 </r>
       <r>   -4.3786    1.0000 </r>
       <r>   -4.3720    1.0000 </r>
       <r>   -4.3415    1.0000 </r>
       <r>   -4.2827    1.0000 </r>
       <r>   -4.2357    1.0000 </r>
       <r>   -4.2267    1.0000 </r>
       <r>   -4.1937    1.0000 </r>
       <r>   -4.1768    1.0000 </r>
       <r>   -4.1557    1.0000 </r>
       <r>   -4.1344    1.0000 </r>
       <r>   -4.0552    1.0000 </r>
       <r>   -3.9905    1.0000 </r>
       <r>   -3.8942    1.0000 </r>
       <r>   -3.8138    1.0000 </r>
       <r>   -3.7613    1.0000 </r>
       <r>   -3.7524    1.0000 </r>
       <r>   -3.7409    1.0000 </r>
       <r>   -3.7187    1.0000 </r>
       <r>   -3.6542    1.0000 </r>
       <r>   -3.6101    1.0000 </r>
       <r>   -3.5779    1.0000 </r>
       <r>   -3.5530    1.0000 </r>
       <r>   -3.5184    1.0000 </r>
       <r>   -3.5018    1.0000 </r>
       <r>   -3.4437    1.0000 </r>
       <r>   -3.3455    1.0000 </r>
       <r>   -3.2513    1.0000 </r>
       <r>   -3.2160    1.0000 </r>
       <r>   -3.1986    1.0000 </r>
       <r>   -3.1647    1.0000 </r>
       <r>   -3.1420    1.0000 </r>
       <r>   -3.1197    1.0000 </r>
       <r>   -3.1031    1.0000 </r>
       <r>   -3.0356    1.0000 </r>
       <r>   -2.9672    1.0000 </r>
       <r>   -2.8488    1.0000 </r>
       <r>   -2.7371    1.0000 </r>
       <r>   -2.7161    1.0000 </r>
       <r>   -2.6407    1.0000 </r>
       <r>   -2.5827    1.0000 </r>
       <r>   -2.5523    1.0000 </r>
       <r>   -2.5134    1.0000 </r>
       <r>   -2.4439    1.0000 </r>
       <r>   -2.4227    1.0000 </r>
       <r>   -2.3801    1.0000 </r>
       <r>   -2.3565    1.0000 </r>
       <r>   -2.3066    1.0000 </r>
       <r>   -2.2927    1.0000 </r>
       <r>   -2.2617    1.0000 </r>
       <r>   -2.2403    1.0000 </r>
       <r>   -2.2242    1.0000 </r>
       <r>   -2.1369    1.0000 </r>
       <r>   -2.0905    1.0000 </r>
       <r>   -1.9939    1.0000 </r>
       <r>   -1.9727    1.0000 </r>
       <r>   -1.9615    1.0000 </r>
       <r>   -1.9266    1.0000 </r>
       <r>   -1.8648    1.0000 </r>
       <r>   -1.8254    1.0000 </r>
       <r>   -1.7918    1.0000 </r>
       <r>   -1.7412    1.0000 </r>
       <r>   -1.6964    1.0000 </r>
       <r>   -1.6632    1.0000 </r>
       <r>   -1.6361    1.0000 </r>
       <r>   -1.6231    1.0000 </r>
       <r>   -1.6071    1.0000 </r>
       <r>   -1.5913    1.0000 </r>
       <r>   -1.5535    1.0000 </r>
       <r>   -1.5204    1.0000 </r>
       <r>   -1.4995    1.0000 </r>
       <r>   -1.4406    1.0000 </r>
       <r>   -1.3727    1.0000 </r>
       <r>   -1.3286    1.0000 </r>
       <r>   -1.2957    1.0000 </r>
       <r>   -1.2003    1.0000 </r>
       <r>   -1.1837    1.0000 </r>
       <r>   -1.1494    1.0000 </r>
       <r>   -1.0964    1.0000 </r>
       <r>   -1.0696    1.0000 </r>
       <r>   -1.0593    1.0000 </r>
       <r>   -1.0160    1.0000 </r>
       <r>   -0.9788    1.0000 </r>
       <r>   -0.9184    1.0000 </r>
       <r>   -0.9106    1.0000 </r>
       <r>   -0.8913    1.0000 </r>
       <r>   -0.8717    1.0000 </r>
       <r>   -0.8337    1.0000 </r>
       <r>   -0.7796    1.0000 </r>
       <r>   -0.7604    1.0000 </r>
       <r>   -0.6896    1.0000 </r>
       <r>   -0.6511    1.0000 </r>
       <r>   -0.6159    1.0000 </r>
       <r>   -0.6023    1.0000 </r>
       <r>   -0.5780    1.0000 </r>
       <r>   -0.5724    1.0000 </r>
       <r>   -0.5538    1.0000 </r>
       <r>   -0.5137    1.0000 </r>
       <r>   -0.4797    1.0000 </r>
       <r>   -0.4589    1.0000 </r>
       <r>   -0.4488    1.0000 </r>
       <r>   -0.4149    1.0000 </r>
       <r>   -0.3587    1.0000 </r>
       <r>   -0.3378    1.0000 </r>
       <r>   -0.2939    1.0000 </r>
       <r>   -0.2678    1.0000 </r>
       <r>   -0.2552    1.0000 </r>
       <r>   -0.2535    1.0000 </r>
       <r>   -0.2434    1.0000 </r>
       <r>   -0.2245    1.0000 </r>
       <r>   -0.1896    1.0000 </r>
       <r>   -0.1733    1.0000 </r>
       <r>   -0.1589    1.0000 </r>
       <r>   -0.1404    1.0000 </r>
       <r>   -0.1114    1.0000 </r>
       <r>   -0.0922    1.0000 </r>
       <r>   -0.0710    1.0000 </r>
       <r>   -0.0351    1.0000 </r>
       <r>   -0.0160    1.0000 </r>
       <r>   -0.0104    1.0000 </r>
       <r>    0.0142    1.0000 </r>
       <r>    0.0504    1.0000 </r>
       <r>    0.0548    1.0000 </r>
       <r>    0.0870    1.0000 </r>
       <r>    0.1017    1.0000 </r>
       <r>    0.1275    1.0000 </r>
       <r>    0.1663    1.0000 </r>
       <r>    0.2125    1.0000 </r>
       <r>    0.2461    1.0000 </r>
       <r>    0.2828    1.0000 </r>
       <r>    0.3022    1.0000 </r>
       <r>    0.3584    1.0000 </r>
       <r>    0.3994    1.0000 </r>
       <r>    0.4491    1.0000 </r>
       <r>    0.4844    1.0000 </r>
       <r>    0.5165    1.0000 </r>
       <r>    0.5498    1.0000 </r>
       <r>    0.5732    1.0000 </r>
       <r>    0.6020    1.0000 </r>
       <r>    0.6207    1.0000 </r>
       <r>    0.6402    1.0000 </r>
       <r>    0.6705    1.0000 </r>
       <r>    0.6898    1.0000 </r>
       <r>    0.7048    1.0000 </r>
       <r>    0.7186    1.0000 </r>
       <r>    0.7464    1.0000 </r>
       <r>    0.7885    1.0000 </r>
       <r>    0.8003    1.0000 </r>
       <r>    0.8062    1.0000 </r>
       <r>    0.8309    1.0000 </r>
       <r>    0.8467    1.0000 </r>
       <r>    0.8638    1.0000 </r>
       <r>    0.8835    1.0000 </r>
       <r>    0.8873    1.0000 </r>
       <r>    0.8962    1.0000 </r>
       <r>    0.9005    1.0000 </r>
       <r>    0.9285    1.0000 </r>
       <r>    0.9383    1.0000 </r>
       <r>    0.9439    1.0000 </r>
       <r>    0.9659    1.0000 </r>
       <r>    1.0003    1.0000 </r>
       <r>    1.0311    1.0000 </r>
       <r>    1.0878    1.0000 </r>
       <r>    1.1191    1.0000 </r>
       <r>    1.1367    1.0000 </r>
       <r>    1.1854    1.0000 </r>
       <r>    1.1893    1.0000 </r>
       <r>    1.2107    1.0000 </r>
       <r>    1.2310    1.0000 </r>
       <r>    1.2507    1.0000 </r>
       <r>    1.2683    1.0000 </r>
       <r>    1.2950    1.0000 </r>
       <r>    1.3166    1.0000 </r>
       <r>    1.3380    1.0000 </r>
       <r>    1.3491    1.0000 </r>
       <r>    1.3571    1.0000 </r>
       <r>    1.3639    1.0000 </r>
       <r>    1.3809    1.0000 </r>
       <r>    1.4136    1.0000 </r>
       <r>    1.4265    1.0000 </r>
       <r>    1.4625    1.0000 </r>
       <r>    1.4691    1.0000 </r>
       <r>    1.4847    1.0000 </r>
       <r>    1.4931    1.0000 </r>
       <r>    1.5115    1.0000 </r>
       <r>    1.5190    1.0000 </r>
       <r>    1.5384    1.0000 </r>
       <r>    1.5474    1.0000 </r>
       <r>    1.5631    1.0000 </r>
       <r>    1.5677    1.0000 </r>
       <r>    1.5813    1.0000 </r>
       <r>    1.6017    1.0000 </r>
       <r>    1.6162    1.0000 </r>
       <r>    1.6339    1.0000 </r>
       <r>    1.6540    1.0000 </r>
       <r>    1.7017    1.0000 </r>
       <r>    1.7161    1.0000 </r>
       <r>    1.7205    1.0000 </r>
       <r>    1.7270    1.0000 </r>
       <r>    1.7727    1.0000 </r>
       <r>    1.8151    1.0000 </r>
       <r>    1.8435    1.0000 </r>
       <r>    1.8615    1.0000 </r>
       <r>    1.9008    1.0000 </r>
       <r>    1.9163    1.0000 </r>
       <r>    1.9421    1.0000 </r>
       <r>    1.9654    1.0000 </r>
       <r>    2.0578    1.0000 </r>
       <r>    2.1021    1.0000 </r>
       <r>    2.2610    1.0000 </r>
       <r>    2.5024    1.0000 </r>
       <r>    5.0863    0.0000 </r>
       <r>    6.7873    0.0000 </r>
       <r>    6.8417    0.0000 </r>
       <r>    7.0866    0.0000 </r>
       <r>    9.0075    0.0000 </r>
       <r>    9.2265    0.0000 </r>
       <r>    9.3321    0.0000 </r>
       <r>    9.3536    0.0000 </r>
       <r>    9.7074    0.0000 </r>
       <r>    9.8187    0.0000 </r>
       <r>   10.2406    0.0000 </r>
       <r>   10.2600    0.0000 </r>
       <r>   10.2835    0.0000 </r>
       <r>   10.2984    0.0000 </r>
       <r>   10.4013    0.0000 </r>
       <r>   10.4183    0.0000 </r>
       <r>   10.5619    0.0000 </r>
       <r>   10.5917    0.0000 </r>
       <r>   10.7641    0.0000 </r>
       <r>   10.7716    0.0000 </r>
       <r>   10.8258    0.0000 </r>
       <r>   10.8404    0.0000 </r>
       <r>   10.8485    0.0000 </r>
       <r>   10.9386    0.0000 </r>
       <r>   10.9673    0.0000 </r>
       <r>   10.9852    0.0000 </r>
       <r>   11.0440    0.0000 </r>
       <r>   11.1755    0.0000 </r>
       <r>   11.2026    0.0000 </r>
       <r>   11.2469    0.0000 </r>
       <r>   11.3483    0.0000 </r>
       <r>   11.3725    0.0000 </r>
       <r>   11.4310    0.0000 </r>
       <r>   11.4514    0.0000 </r>
       <r>   11.5231    0.0000 </r>
       <r>   11.5294    0.0000 </r>
       <r>   11.6475    0.0000 </r>
       <r>   11.7507    0.0000 </r>
       <r>   11.8032    0.0000 </r>
       <r>   11.9590    0.0000 </r>
       <r>   12.0388    0.0000 </r>
       <r>   12.0685    0.0000 </r>
       <r>   12.1124    0.0000 </r>
       <r>   12.1515    0.0000 </r>
       <r>   12.2138    0.0000 </r>
       <r>   12.2963    0.0000 </r>
       <r>   12.3332    0.0000 </r>
       <r>   12.3556    0.0000 </r>
       <r>   12.3654    0.0000 </r>
       <r>   12.3871    0.0000 </r>
       <r>   12.5090    0.0000 </r>
       <r>   12.6129    0.0000 </r>
       <r>   12.8354    0.0000 </r>
       <r>   13.0147    0.0000 </r>
       <r>   13.1029    0.0000 </r>
       <r>   13.1411    0.0000 </r>
       <r>   13.1670    0.0000 </r>
       <r>   13.2516    0.0000 </r>
       <r>   13.3023    0.0000 </r>
       <r>   13.3724    0.0000 </r>
       <r>   13.4084    0.0000 </r>
       <r>   13.4397    0.0000 </r>
       <r>   13.4994    0.0000 </r>
       <r>   13.5486    0.0000 </r>
       <r>   13.6491    0.0000 </r>
       <r>   13.6882    0.0000 </r>
       <r>   13.7031    0.0000 </r>
       <r>   13.7168    0.0000 </r>
       <r>   13.8820    0.0000 </r>
       <r>   13.9002    0.0000 </r>
       <r>   13.9226    0.0000 </r>
       <r>   13.9642    0.0000 </r>
       <r>   13.9727    0.0000 </r>
       <r>   14.0121    0.0000 </r>
       <r>   14.0191    0.0000 </r>
       <r>   14.0766    0.0000 </r>
       <r>   14.1006    0.0000 </r>
       <r>   14.1542    0.0000 </r>
       <r>   14.1709    0.0000 </r>
       <r>   14.2191    0.0000 </r>
       <r>   14.2780    0.0000 </r>
       <r>   14.3467    0.0000 </r>
       <r>   14.3605    0.0000 </r>
       <r>   14.3973    0.0000 </r>
       <r>   14.4793    0.0000 </r>
       <r>   14.5258    0.0000 </r>
       <r>   14.6168    0.0000 </r>
       <r>   14.7028    0.0000 </r>
       <r>   14.7115    0.0000 </r>
       <r>   14.7334    0.0000 </r>
       <r>   14.7488    0.0000 </r>
       <r>   14.7568    0.0000 </r>
       <r>   14.7949    0.0000 </r>
       <r>   14.8755    0.0000 </r>
       <r>   14.9252    0.0000 </r>
       <r>   15.0479    0.0000 </r>
       <r>   15.0704    0.0000 </r>
       <r>   15.1185    0.0000 </r>
       <r>   15.2090    0.0000 </r>
       <r>   15.2979    0.0000 </r>
       <r>   15.5246    0.0000 </r>
       <r>   15.5594    0.0000 </r>
       <r>   15.6312    0.0000 </r>
       <r>   15.6762    0.0000 </r>
       <r>   15.7015    0.0000 </r>
      </set>
      <set comment="kpoint 2">
       <r>  -18.5709    1.0000 </r>
       <r>  -18.5303    1.0000 </r>
       <r>  -18.3497    1.0000 </r>
       <r>  -18.3081    1.0000 </r>
       <r>  -17.9444    1.0000 </r>
       <r>  -17.9119    1.0000 </r>
       <r>  -17.9076    1.0000 </r>
       <r>  -17.8777    1.0000 </r>
       <r>  -17.8655    1.0000 </r>
       <r>  -17.8488    1.0000 </r>
       <r>  -17.8177    1.0000 </r>
       <r>  -17.8051    1.0000 </r>
       <r>  -17.7758    1.0000 </r>
       <r>  -17.7642    1.0000 </r>
       <r>  -17.7575    1.0000 </r>
       <r>  -17.6938    1.0000 </r>
       <r>  -17.6309    1.0000 </r>
       <r>  -17.6098    1.0000 </r>
       <r>  -17.5486    1.0000 </r>
       <r>  -17.5256    1.0000 </r>
       <r>  -17.5160    1.0000 </r>
       <r>  -17.5030    1.0000 </r>
       <r>  -17.4959    1.0000 </r>
       <r>  -17.4929    1.0000 </r>
       <r>  -17.4834    1.0000 </r>
       <r>  -17.4736    1.0000 </r>
       <r>  -17.4564    1.0000 </r>
       <r>  -17.4357    1.0000 </r>
       <r>  -17.3725    1.0000 </r>
       <r>  -17.3517    1.0000 </r>
       <r>  -17.3407    1.0000 </r>
       <r>  -17.3189    1.0000 </r>
       <r>  -17.3036    1.0000 </r>
       <r>  -17.2888    1.0000 </r>
       <r>  -17.2861    1.0000 </r>
       <r>  -17.2642    1.0000 </r>
       <r>  -17.2570    1.0000 </r>
       <r>  -17.2390    1.0000 </r>
       <r>  -17.2294    1.0000 </r>
       <r>  -17.2112    1.0000 </r>
       <r>  -17.1782    1.0000 </r>
       <r>  -17.1657    1.0000 </r>
       <r>  -17.1596    1.0000 </r>
       <r>  -17.1558    1.0000 </r>
       <r>  -17.1537    1.0000 </r>
       <r>  -17.1395    1.0000 </r>
       <r>  -17.1144    1.0000 </r>
       <r>  -17.0691    1.0000 </r>
       <r>  -17.0555    1.0000 </r>
       <r>  -17.0355    1.0000 </r>
       <r>  -17.0307    1.0000 </r>
       <r>  -16.9955    1.0000 </r>
       <r>  -16.9805    1.0000 </r>
       <r>  -16.9515    1.0000 </r>
       <r>  -16.9378    1.0000 </r>
       <r>  -16.9214    1.0000 </r>
       <r>  -16.9185    1.0000 </r>
       <r>  -16.9116    1.0000 </r>
       <r>  -16.9098    1.0000 </r>
       <r>  -16.9052    1.0000 </r>
       <r>  -16.9014    1.0000 </r>
       <r>  -16.8981    1.0000 </r>
       <r>  -16.8822    1.0000 </r>
       <r>  -16.8747    1.0000 </r>
       <r>  -16.8674    1.0000 </r>
       <r>  -16.8540    1.0000 </r>
       <r>  -16.8278    1.0000 </r>
       <r>  -16.8112    1.0000 </r>
       <r>  -16.8049    1.0000 </r>
       <r>  -16.7831    1.0000 </r>
       <r>  -16.7429    1.0000 </r>
       <r>  -13.6708    1.0000 </r>
       <r>  -13.1463    1.0000 </r>
       <r>  -13.0968    1.0000 </r>
       <r>  -13.0687    1.0000 </r>
       <r>  -13.0518    1.0000 </r>
       <r>  -13.0505    1.0000 </r>
       <r>  -13.0397    1.0000 </r>
       <r>  -13.0305    1.0000 </r>
       <r>  -13.0210    1.0000 </r>
       <r>  -13.0185    1.0000 </r>
       <r>  -13.0171    1.0000 </r>
       <r>  -13.0125    1.0000 </r>
       <r>  -13.0102    1.0000 </r>
       <r>  -13.0054    1.0000 </r>
       <r>  -13.0037    1.0000 </r>
       <r>  -12.9993    1.0000 </r>
       <r>  -12.9978    1.0000 </r>
       <r>  -12.9962    1.0000 </r>
       <r>  -12.9785    1.0000 </r>
       <r>  -12.9726    1.0000 </r>
       <r>  -12.9686    1.0000 </r>
       <r>  -12.9623    1.0000 </r>
       <r>  -12.9590    1.0000 </r>
       <r>  -12.9575    1.0000 </r>
       <r>  -12.9546    1.0000 </r>
       <r>  -12.9495    1.0000 </r>
       <r>  -12.9483    1.0000 </r>
       <r>  -12.9466    1.0000 </r>
       <r>  -12.9416    1.0000 </r>
       <r>  -12.9408    1.0000 </r>
       <r>  -12.9351    1.0000 </r>
       <r>  -12.9324    1.0000 </r>
       <r>  -12.9317    1.0000 </r>
       <r>  -12.9311    1.0000 </r>
       <r>  -12.9257    1.0000 </r>
       <r>  -12.9236    1.0000 </r>
       <r>  -12.9220    1.0000 </r>
       <r>  -12.9210    1.0000 </r>
       <r>  -12.9171    1.0000 </r>
       <r>  -12.9151    1.0000 </r>
       <r>  -12.9130    1.0000 </r>
       <r>  -12.9119    1.0000 </r>
       <r>  -12.9109    1.0000 </r>
       <r>  -12.9063    1.0000 </r>
       <r>  -12.9035    1.0000 </r>
       <r>  -12.9008    1.0000 </r>
       <r>  -12.9003    1.0000 </r>
       <r>  -12.8957    1.0000 </r>
       <r>  -12.8945    1.0000 </r>
       <r>  -12.8892    1.0000 </r>
       <r>  -12.8888    1.0000 </r>
       <r>  -12.8860    1.0000 </r>
       <r>  -12.8844    1.0000 </r>
       <r>  -12.8827    1.0000 </r>
       <r>  -12.8803    1.0000 </r>
       <r>  -12.8782    1.0000 </r>
       <r>  -12.8731    1.0000 </r>
       <r>  -12.8690    1.0000 </r>
       <r>  -12.8655    1.0000 </r>
       <r>  -12.8556    1.0000 </r>
       <r>  -12.8542    1.0000 </r>
       <r>  -12.8523    1.0000 </r>
       <r>  -12.8503    1.0000 </r>
       <r>  -12.8405    1.0000 </r>
       <r>  -12.8376    1.0000 </r>
       <r>  -12.8283    1.0000 </r>
       <r>  -12.8236    1.0000 </r>
       <r>  -12.8197    1.0000 </r>
       <r>  -12.8174    1.0000 </r>
       <r>  -12.8146    1.0000 </r>
       <r>  -12.8127    1.0000 </r>
       <r>  -12.8089    1.0000 </r>
       <r>  -12.8054    1.0000 </r>
       <r>  -12.8019    1.0000 </r>
       <r>  -12.7996    1.0000 </r>
       <r>  -12.7977    1.0000 </r>
       <r>  -12.7936    1.0000 </r>
       <r>  -12.7908    1.0000 </r>
       <r>  -12.7898    1.0000 </r>
       <r>  -12.7890    1.0000 </r>
       <r>  -12.7846    1.0000 </r>
       <r>  -12.7843    1.0000 </r>
       <r>  -12.7825    1.0000 </r>
       <r>  -12.7821    1.0000 </r>
       <r>  -12.7797    1.0000 </r>
       <r>  -12.7762    1.0000 </r>
       <r>  -12.7743    1.0000 </r>
       <r>  -12.7717    1.0000 </r>
       <r>  -12.7710    1.0000 </r>
       <r>  -12.7691    1.0000 </r>
       <r>  -12.7670    1.0000 </r>
       <r>  -12.7647    1.0000 </r>
       <r>  -12.7633    1.0000 </r>
       <r>  -12.7592    1.0000 </r>
       <r>  -12.7569    1.0000 </r>
       <r>  -12.7546    1.0000 </r>
       <r>  -12.7515    1.0000 </r>
       <r>  -12.7482    1.0000 </r>
       <r>  -12.7474    1.0000 </r>
       <r>  -12.7461    1.0000 </r>
       <r>  -12.7445    1.0000 </r>
       <r>  -12.7423    1.0000 </r>
       <r>  -12.7392    1.0000 </r>
       <r>  -12.7369    1.0000 </r>
       <r>  -12.7322    1.0000 </r>
       <r>  -12.7304    1.0000 </r>
       <r>  -12.7279    1.0000 </r>
       <r>  -12.7257    1.0000 </r>
       <r>  -12.7223    1.0000 </r>
       <r>  -12.7200    1.0000 </r>
       <r>  -12.7163    1.0000 </r>
       <r>  -12.7134    1.0000 </r>
       <r>  -12.7115    1.0000 </r>
       <r>  -12.7084    1.0000 </r>
       <r>  -12.7070    1.0000 </r>
       <r>  -12.7030    1.0000 </r>
       <r>  -12.7016    1.0000 </r>
       <r>  -12.7001    1.0000 </r>
       <r>  -12.6927    1.0000 </r>
       <r>  -12.6912    1.0000 </r>
       <r>  -12.6856    1.0000 </r>
       <r>  -12.6840    1.0000 </r>
       <r>  -12.6774    1.0000 </r>
       <r>  -12.6759    1.0000 </r>
       <r>  -12.6690    1.0000 </r>
       <r>  -12.6668    1.0000 </r>
       <r>  -12.6629    1.0000 </r>
       <r>  -12.6570    1.0000 </r>
       <r>  -12.6561    1.0000 </r>
       <r>  -12.6543    1.0000 </r>
       <r>  -12.6508    1.0000 </r>
       <r>  -12.6489    1.0000 </r>
       <r>  -12.6473    1.0000 </r>
       <r>  -12.6458    1.0000 </r>
       <r>  -12.6409    1.0000 </r>
       <r>  -12.6396    1.0000 </r>
       <r>  -12.6385    1.0000 </r>
       <r>  -12.6361    1.0000 </r>
       <r>  -12.6345    1.0000 </r>
       <r>  -12.6302    1.0000 </r>
       <r>  -12.6284    1.0000 </r>
       <r>  -12.6267    1.0000 </r>
       <r>  -12.6249    1.0000 </r>
       <r>  -12.6224    1.0000 </r>
       <r>  -12.6200    1.0000 </r>
       <r>  -12.6181    1.0000 </r>
       <r>  -12.6147    1.0000 </r>
       <r>  -12.6139    1.0000 </r>
       <r>  -12.6115    1.0000 </r>
       <r>  -12.6102    1.0000 </r>
       <r>  -12.6081    1.0000 </r>
       <r>  -12.6053    1.0000 </r>
       <r>  -12.6025    1.0000 </r>
       <r>  -12.6005    1.0000 </r>
       <r>  -12.5994    1.0000 </r>
       <r>  -12.5943    1.0000 </r>
       <r>  -12.5931    1.0000 </r>
       <r>  -12.5891    1.0000 </r>
       <r>  -12.5867    1.0000 </r>
       <r>  -12.5843    1.0000 </r>
       <r>  -12.5839    1.0000 </r>
       <r>  -12.5827    1.0000 </r>
       <r>  -12.5793    1.0000 </r>
       <r>  -12.5780    1.0000 </r>
       <r>  -12.5757    1.0000 </r>
       <r>  -12.5739    1.0000 </r>
       <r>  -12.5706    1.0000 </r>
       <r>  -12.5634    1.0000 </r>
       <r>  -12.5599    1.0000 </r>
       <r>  -12.5582    1.0000 </r>
       <r>  -12.5524    1.0000 </r>
       <r>  -12.5479    1.0000 </r>
       <r>  -12.5475    1.0000 </r>
       <r>  -12.5435    1.0000 </r>
       <r>  -12.5350    1.0000 </r>
       <r>  -12.5338    1.0000 </r>
       <r>  -12.5275    1.0000 </r>
       <r>  -12.5246    1.0000 </r>
       <r>  -12.5236    1.0000 </r>
       <r>  -12.5197    1.0000 </r>
       <r>  -12.5180    1.0000 </r>
       <r>  -12.5108    1.0000 </r>
       <r>  -12.5078    1.0000 </r>
       <r>  -12.4990    1.0000 </r>
       <r>  -12.4952    1.0000 </r>
       <r>  -12.4874    1.0000 </r>
       <r>  -12.4818    1.0000 </r>
       <r>  -12.4811    1.0000 </r>
       <r>  -12.4661    1.0000 </r>
       <r>  -12.4487    1.0000 </r>
       <r>  -12.4362    1.0000 </r>
       <r>  -12.4308    1.0000 </r>
       <r>  -12.4213    1.0000 </r>
       <r>  -12.4176    1.0000 </r>
       <r>  -12.4092    1.0000 </r>
       <r>  -12.4056    1.0000 </r>
       <r>  -12.3979    1.0000 </r>
       <r>  -12.3939    1.0000 </r>
       <r>  -12.3744    1.0000 </r>
       <r>  -12.3639    1.0000 </r>
       <r>  -12.3410    1.0000 </r>
       <r>  -12.3227    1.0000 </r>
       <r>  -12.2901    1.0000 </r>
       <r>  -12.2426    1.0000 </r>
       <r>  -12.1742    1.0000 </r>
       <r>  -12.1735    1.0000 </r>
       <r>  -12.1661    1.0000 </r>
       <r>  -12.1530    1.0000 </r>
       <r>  -12.1452    1.0000 </r>
       <r>  -12.1311    1.0000 </r>
       <r>  -12.1081    1.0000 </r>
       <r>  -12.0975    1.0000 </r>
       <r>  -12.0468    1.0000 </r>
       <r>  -12.0385    1.0000 </r>
       <r>  -12.0099    1.0000 </r>
       <r>  -12.0054    1.0000 </r>
       <r>  -11.9700    1.0000 </r>
       <r>  -11.9535    1.0000 </r>
       <r>  -11.9424    1.0000 </r>
       <r>  -11.9211    1.0000 </r>
       <r>  -11.9173    1.0000 </r>
       <r>  -11.9095    1.0000 </r>
       <r>  -11.9064    1.0000 </r>
       <r>  -11.8556    1.0000 </r>
       <r>  -11.8485    1.0000 </r>
       <r>  -11.8244    1.0000 </r>
       <r>  -11.8186    1.0000 </r>
       <r>  -11.8064    1.0000 </r>
       <r>  -11.7906    1.0000 </r>
       <r>  -11.7879    1.0000 </r>
       <r>  -11.7803    1.0000 </r>
       <r>  -11.7728    1.0000 </r>
       <r>  -11.7660    1.0000 </r>
       <r>  -11.7592    1.0000 </r>
       <r>  -11.7433    1.0000 </r>
       <r>  -10.6741    1.0000 </r>
       <r>   -5.1500    1.0000 </r>
       <r>   -5.1339    1.0000 </r>
       <r>   -4.7305    1.0000 </r>
       <r>   -4.7125    1.0000 </r>
       <r>   -4.6931    1.0000 </r>
       <r>   -4.6528    1.0000 </r>
       <r>   -4.3772    1.0000 </r>
       <r>   -4.3266    1.0000 </r>
       <r>   -4.3085    1.0000 </r>
       <r>   -4.2943    1.0000 </r>
       <r>   -4.2566    1.0000 </r>
       <r>   -4.2443    1.0000 </r>
       <r>   -4.2347    1.0000 </r>
       <r>   -4.2051    1.0000 </r>
       <r>   -4.1910    1.0000 </r>
       <r>   -4.1681    1.0000 </r>
       <r>   -4.1476    1.0000 </r>
       <r>   -4.1383    1.0000 </r>
       <r>   -4.1156    1.0000 </r>
       <r>   -4.1088    1.0000 </r>
       <r>   -4.0674    1.0000 </r>
       <r>   -4.0445    1.0000 </r>
       <r>   -4.0270    1.0000 </r>
       <r>   -4.0032    1.0000 </r>
       <r>   -3.9624    1.0000 </r>
       <r>   -3.8220    1.0000 </r>
       <r>   -3.6443    1.0000 </r>
       <r>   -3.6173    1.0000 </r>
       <r>   -3.4807    1.0000 </r>
       <r>   -3.4114    1.0000 </r>
       <r>   -3.3654    1.0000 </r>
       <r>   -3.3225    1.0000 </r>
       <r>   -3.2143    1.0000 </r>
       <r>   -3.2028    1.0000 </r>
       <r>   -3.1738    1.0000 </r>
       <r>   -3.1668    1.0000 </r>
       <r>   -3.1357    1.0000 </r>
       <r>   -3.1157    1.0000 </r>
       <r>   -3.1049    1.0000 </r>
       <r>   -3.0691    1.0000 </r>
       <r>   -3.0635    1.0000 </r>
       <r>   -3.0453    1.0000 </r>
       <r>   -3.0261    1.0000 </r>
       <r>   -2.9776    1.0000 </r>
       <r>   -2.7502    1.0000 </r>
       <r>   -2.6970    1.0000 </r>
       <r>   -2.6484    1.0000 </r>
       <r>   -2.6438    1.0000 </r>
       <r>   -2.5860    1.0000 </r>
       <r>   -2.5646    1.0000 </r>
       <r>   -2.5362    1.0000 </r>
       <r>   -2.5028    1.0000 </r>
       <r>   -2.4783    1.0000 </r>
       <r>   -2.3478    1.0000 </r>
       <r>   -2.2965    1.0000 </r>
       <r>   -2.2538    1.0000 </r>
       <r>   -2.2174    1.0000 </r>
       <r>   -2.1926    1.0000 </r>
       <r>   -2.1613    1.0000 </r>
       <r>   -2.0996    1.0000 </r>
       <r>   -2.0771    1.0000 </r>
       <r>   -2.0152    1.0000 </r>
       <r>   -1.9836    1.0000 </r>
       <r>   -1.9430    1.0000 </r>
       <r>   -1.8566    1.0000 </r>
       <r>   -1.8239    1.0000 </r>
       <r>   -1.7948    1.0000 </r>
       <r>   -1.7800    1.0000 </r>
       <r>   -1.7468    1.0000 </r>
       <r>   -1.7195    1.0000 </r>
       <r>   -1.6578    1.0000 </r>
       <r>   -1.6225    1.0000 </r>
       <r>   -1.6200    1.0000 </r>
       <r>   -1.4895    1.0000 </r>
       <r>   -1.4580    1.0000 </r>
       <r>   -1.4324    1.0000 </r>
       <r>   -1.4025    1.0000 </r>
       <r>   -1.3805    1.0000 </r>
       <r>   -1.3784    1.0000 </r>
       <r>   -1.3622    1.0000 </r>
       <r>   -1.2930    1.0000 </r>
       <r>   -1.2795    1.0000 </r>
       <r>   -1.2197    1.0000 </r>
       <r>   -1.1750    1.0000 </r>
       <r>   -1.1576    1.0000 </r>
       <r>   -1.1400    1.0000 </r>
       <r>   -1.0949    1.0000 </r>
       <r>   -1.0602    1.0000 </r>
       <r>   -1.0324    1.0000 </r>
       <r>   -0.9873    1.0000 </r>
       <r>   -0.9598    1.0000 </r>
       <r>   -0.9463    1.0000 </r>
       <r>   -0.9303    1.0000 </r>
       <r>   -0.8907    1.0000 </r>
       <r>   -0.8635    1.0000 </r>
       <r>   -0.8444    1.0000 </r>
       <r>   -0.8130    1.0000 </r>
       <r>   -0.7972    1.0000 </r>
       <r>   -0.7530    1.0000 </r>
       <r>   -0.7298    1.0000 </r>
       <r>   -0.7137    1.0000 </r>
       <r>   -0.6977    1.0000 </r>
       <r>   -0.6633    1.0000 </r>
       <r>   -0.6476    1.0000 </r>
       <r>   -0.6106    1.0000 </r>
       <r>   -0.5803    1.0000 </r>
       <r>   -0.5725    1.0000 </r>
       <r>   -0.5402    1.0000 </r>
       <r>   -0.5217    1.0000 </r>
       <r>   -0.4778    1.0000 </r>
       <r>   -0.4580    1.0000 </r>
       <r>   -0.4078    1.0000 </r>
       <r>   -0.3737    1.0000 </r>
       <r>   -0.2831    1.0000 </r>
       <r>   -0.1998    1.0000 </r>
       <r>   -0.1870    1.0000 </r>
       <r>   -0.1811    1.0000 </r>
       <r>   -0.1710    1.0000 </r>
       <r>   -0.1602    1.0000 </r>
       <r>   -0.1480    1.0000 </r>
       <r>   -0.1204    1.0000 </r>
       <r>   -0.1091    1.0000 </r>
       <r>   -0.0760    1.0000 </r>
       <r>   -0.0020    1.0000 </r>
       <r>    0.0151    1.0000 </r>
       <r>    0.0292    1.0000 </r>
       <r>    0.0761    1.0000 </r>
       <r>    0.0915    1.0000 </r>
       <r>    0.1042    1.0000 </r>
       <r>    0.1174    1.0000 </r>
       <r>    0.1381    1.0000 </r>
       <r>    0.1431    1.0000 </r>
       <r>    0.1588    1.0000 </r>
       <r>    0.1835    1.0000 </r>
       <r>    0.2032    1.0000 </r>
       <r>    0.2212    1.0000 </r>
       <r>    0.2687    1.0000 </r>
       <r>    0.2935    1.0000 </r>
       <r>    0.3179    1.0000 </r>
       <r>    0.3277    1.0000 </r>
       <r>    0.4329    1.0000 </r>
       <r>    0.4604    1.0000 </r>
       <r>    0.5811    1.0000 </r>
       <r>    0.6004    1.0000 </r>
       <r>    0.6221    1.0000 </r>
       <r>    0.6389    1.0000 </r>
       <r>    0.6588    1.0000 </r>
       <r>    0.6650    1.0000 </r>
       <r>    0.6784    1.0000 </r>
       <r>    0.7092    1.0000 </r>
       <r>    0.7149    1.0000 </r>
       <r>    0.7790    1.0000 </r>
       <r>    0.7855    1.0000 </r>
       <r>    0.7976    1.0000 </r>
       <r>    0.8279    1.0000 </r>
       <r>    0.8465    1.0000 </r>
       <r>    0.8582    1.0000 </r>
       <r>    0.8896    1.0000 </r>
       <r>    0.9052    1.0000 </r>
       <r>    0.9275    1.0000 </r>
       <r>    0.9648    1.0000 </r>
       <r>    0.9948    1.0000 </r>
       <r>    1.0135    1.0000 </r>
       <r>    1.0431    1.0000 </r>
       <r>    1.0503    1.0000 </r>
       <r>    1.0889    1.0000 </r>
       <r>    1.1047    1.0000 </r>
       <r>    1.1111    1.0000 </r>
       <r>    1.1317    1.0000 </r>
       <r>    1.1399    1.0000 </r>
       <r>    1.1673    1.0000 </r>
       <r>    1.1867    1.0000 </r>
       <r>    1.2015    1.0000 </r>
       <r>    1.2175    1.0000 </r>
       <r>    1.2258    1.0000 </r>
       <r>    1.2463    1.0000 </r>
       <r>    1.2520    1.0000 </r>
       <r>    1.2593    1.0000 </r>
       <r>    1.2785    1.0000 </r>
       <r>    1.2887    1.0000 </r>
       <r>    1.3100    1.0000 </r>
       <r>    1.3374    1.0000 </r>
       <r>    1.3453    1.0000 </r>
       <r>    1.3533    1.0000 </r>
       <r>    1.3600    1.0000 </r>
       <r>    1.3682    1.0000 </r>
       <r>    1.3759    1.0000 </r>
       <r>    1.3793    1.0000 </r>
       <r>    1.4169    1.0000 </r>
       <r>    1.4327    1.0000 </r>
       <r>    1.4559    1.0000 </r>
       <r>    1.4682    1.0000 </r>
       <r>    1.4782    1.0000 </r>
       <r>    1.4889    1.0000 </r>
       <r>    1.4935    1.0000 </r>
       <r>    1.5035    1.0000 </r>
       <r>    1.5066    1.0000 </r>
       <r>    1.5243    1.0000 </r>
       <r>    1.5286    1.0000 </r>
       <r>    1.5457    1.0000 </r>
       <r>    1.5963    1.0000 </r>
       <r>    1.6380    1.0000 </r>
       <r>    1.6595    1.0000 </r>
       <r>    1.6682    1.0000 </r>
       <r>    1.6736    1.0000 </r>
       <r>    1.6939    1.0000 </r>
       <r>    1.7123    1.0000 </r>
       <r>    1.7738    1.0000 </r>
       <r>    1.8752    1.0000 </r>
       <r>    1.9207    1.0000 </r>
       <r>    1.9293    1.0000 </r>
       <r>    1.9372    1.0000 </r>
       <r>    1.9470    1.0000 </r>
       <r>    1.9768    1.0000 </r>
       <r>    1.9900    1.0000 </r>
       <r>    2.0592    1.0000 </r>
       <r>    2.2343    1.0000 </r>
       <r>    2.4709    1.0000 </r>
       <r>    5.0861    0.0000 </r>
       <r>    6.8280    0.0000 </r>
       <r>    7.0850    0.0000 </r>
       <r>    7.5437    0.0000 </r>
       <r>    7.6826    0.0000 </r>
       <r>    9.2834    0.0000 </r>
       <r>    9.3253    0.0000 </r>
       <r>    9.7553    0.0000 </r>
       <r>    9.7759    0.0000 </r>
       <r>   10.0452    0.0000 </r>
       <r>   10.1057    0.0000 </r>
       <r>   10.2580    0.0000 </r>
       <r>   10.2771    0.0000 </r>
       <r>   10.3328    0.0000 </r>
       <r>   10.3653    0.0000 </r>
       <r>   10.6060    0.0000 </r>
       <r>   10.6323    0.0000 </r>
       <r>   10.6402    0.0000 </r>
       <r>   10.6527    0.0000 </r>
       <r>   10.7595    0.0000 </r>
       <r>   10.7671    0.0000 </r>
       <r>   10.8679    0.0000 </r>
       <r>   10.8713    0.0000 </r>
       <r>   10.8826    0.0000 </r>
       <r>   10.9262    0.0000 </r>
       <r>   10.9456    0.0000 </r>
       <r>   11.0527    0.0000 </r>
       <r>   11.2381    0.0000 </r>
       <r>   11.2738    0.0000 </r>
       <r>   11.2762    0.0000 </r>
       <r>   11.2951    0.0000 </r>
       <r>   11.3204    0.0000 </r>
       <r>   11.3723    0.0000 </r>
       <r>   11.4001    0.0000 </r>
       <r>   11.4379    0.0000 </r>
       <r>   11.4862    0.0000 </r>
       <r>   11.5160    0.0000 </r>
       <r>   11.5737    0.0000 </r>
       <r>   11.8431    0.0000 </r>
       <r>   12.0657    0.0000 </r>
       <r>   12.0757    0.0000 </r>
       <r>   12.2889    0.0000 </r>
       <r>   12.2997    0.0000 </r>
       <r>   12.3999    0.0000 </r>
       <r>   12.4478    0.0000 </r>
       <r>   12.4728    0.0000 </r>
       <r>   12.4910    0.0000 </r>
       <r>   12.5005    0.0000 </r>
       <r>   12.5058    0.0000 </r>
       <r>   12.5231    0.0000 </r>
       <r>   12.5559    0.0000 </r>
       <r>   12.6060    0.0000 </r>
       <r>   12.7518    0.0000 </r>
       <r>   12.8177    0.0000 </r>
       <r>   12.8199    0.0000 </r>
       <r>   12.8583    0.0000 </r>
       <r>   13.0344    0.0000 </r>
       <r>   13.1646    0.0000 </r>
       <r>   13.3461    0.0000 </r>
       <r>   13.3515    0.0000 </r>
       <r>   13.3718    0.0000 </r>
       <r>   13.4292    0.0000 </r>
       <r>   13.5099    0.0000 </r>
       <r>   13.5478    0.0000 </r>
       <r>   13.5654    0.0000 </r>
       <r>   13.6074    0.0000 </r>
       <r>   13.6787    0.0000 </r>
       <r>   13.7252    0.0000 </r>
       <r>   13.7466    0.0000 </r>
       <r>   13.7599    0.0000 </r>
       <r>   13.8536    0.0000 </r>
       <r>   13.8628    0.0000 </r>
       <r>   13.8799    0.0000 </r>
       <r>   13.9448    0.0000 </r>
       <r>   13.9757    0.0000 </r>
       <r>   14.1085    0.0000 </r>
       <r>   14.1129    0.0000 </r>
       <r>   14.1287    0.0000 </r>
       <r>   14.1343    0.0000 </r>
       <r>   14.1482    0.0000 </r>
       <r>   14.2209    0.0000 </r>
       <r>   14.2303    0.0000 </r>
       <r>   14.2719    0.0000 </r>
       <r>   14.3377    0.0000 </r>
       <r>   14.4596    0.0000 </r>
       <r>   14.4968    0.0000 </r>
       <r>   14.5119    0.0000 </r>
       <r>   14.5571    0.0000 </r>
       <r>   14.7657    0.0000 </r>
       <r>   14.8470    0.0000 </r>
       <r>   14.8670    0.0000 </r>
       <r>   14.9101    0.0000 </r>
       <r>   14.9236    0.0000 </r>
       <r>   14.9419    0.0000 </r>
       <r>   15.0410    0.0000 </r>
       <r>   15.0723    0.0000 </r>
       <r>   15.1301    0.0000 </r>
       <r>   15.1458    0.0000 </r>
       <r>   15.5807    0.0000 </r>
       <r>   15.5974    0.0000 </r>
       <r>   15.6231    0.0000 </r>
       <r>   15.6618    0.0000 </r>
       <r>   15.7055    0.0000 </r>
       <r>   15.7343    0.0000 </r>
       <r>   15.7592    0.0000 </r>
      </set>
      <set comment="kpoint 3">
       <r>  -18.4874    1.0000 </r>
       <r>  -18.4430    1.0000 </r>
       <r>  -18.2379    1.0000 </r>
       <r>  -18.1984    1.0000 </r>
       <r>  -18.1583    1.0000 </r>
       <r>  -18.1228    1.0000 </r>
       <r>  -18.1064    1.0000 </r>
       <r>  -18.0222    1.0000 </r>
       <r>  -17.9884    1.0000 </r>
       <r>  -17.9788    1.0000 </r>
       <r>  -17.8135    1.0000 </r>
       <r>  -17.7888    1.0000 </r>
       <r>  -17.7519    1.0000 </r>
       <r>  -17.7245    1.0000 </r>
       <r>  -17.6010    1.0000 </r>
       <r>  -17.5805    1.0000 </r>
       <r>  -17.5743    1.0000 </r>
       <r>  -17.5466    1.0000 </r>
       <r>  -17.5060    1.0000 </r>
       <r>  -17.4810    1.0000 </r>
       <r>  -17.4633    1.0000 </r>
       <r>  -17.4585    1.0000 </r>
       <r>  -17.4529    1.0000 </r>
       <r>  -17.4484    1.0000 </r>
       <r>  -17.4409    1.0000 </r>
       <r>  -17.4349    1.0000 </r>
       <r>  -17.4183    1.0000 </r>
       <r>  -17.4089    1.0000 </r>
       <r>  -17.4037    1.0000 </r>
       <r>  -17.3752    1.0000 </r>
       <r>  -17.3550    1.0000 </r>
       <r>  -17.3527    1.0000 </r>
       <r>  -17.3019    1.0000 </r>
       <r>  -17.2892    1.0000 </r>
       <r>  -17.2771    1.0000 </r>
       <r>  -17.2678    1.0000 </r>
       <r>  -17.2495    1.0000 </r>
       <r>  -17.2412    1.0000 </r>
       <r>  -17.2380    1.0000 </r>
       <r>  -17.2259    1.0000 </r>
       <r>  -17.2191    1.0000 </r>
       <r>  -17.2050    1.0000 </r>
       <r>  -17.1826    1.0000 </r>
       <r>  -17.1742    1.0000 </r>
       <r>  -17.1659    1.0000 </r>
       <r>  -17.1565    1.0000 </r>
       <r>  -17.1302    1.0000 </r>
       <r>  -17.1162    1.0000 </r>
       <r>  -17.0924    1.0000 </r>
       <r>  -17.0309    1.0000 </r>
       <r>  -17.0135    1.0000 </r>
       <r>  -16.9700    1.0000 </r>
       <r>  -16.9461    1.0000 </r>
       <r>  -16.9370    1.0000 </r>
       <r>  -16.9292    1.0000 </r>
       <r>  -16.9228    1.0000 </r>
       <r>  -16.9204    1.0000 </r>
       <r>  -16.9140    1.0000 </r>
       <r>  -16.9083    1.0000 </r>
       <r>  -16.9018    1.0000 </r>
       <r>  -16.8966    1.0000 </r>
       <r>  -16.8907    1.0000 </r>
       <r>  -16.8880    1.0000 </r>
       <r>  -16.8649    1.0000 </r>
       <r>  -16.8558    1.0000 </r>
       <r>  -16.8469    1.0000 </r>
       <r>  -16.8382    1.0000 </r>
       <r>  -16.8328    1.0000 </r>
       <r>  -16.7975    1.0000 </r>
       <r>  -16.7679    1.0000 </r>
       <r>  -16.7558    1.0000 </r>
       <r>  -13.6686    1.0000 </r>
       <r>  -13.1389    1.0000 </r>
       <r>  -13.1201    1.0000 </r>
       <r>  -13.0531    1.0000 </r>
       <r>  -13.0498    1.0000 </r>
       <r>  -13.0408    1.0000 </r>
       <r>  -13.0311    1.0000 </r>
       <r>  -13.0289    1.0000 </r>
       <r>  -13.0272    1.0000 </r>
       <r>  -13.0201    1.0000 </r>
       <r>  -13.0089    1.0000 </r>
       <r>  -13.0085    1.0000 </r>
       <r>  -13.0060    1.0000 </r>
       <r>  -13.0034    1.0000 </r>
       <r>  -13.0009    1.0000 </r>
       <r>  -12.9960    1.0000 </r>
       <r>  -12.9898    1.0000 </r>
       <r>  -12.9878    1.0000 </r>
       <r>  -12.9855    1.0000 </r>
       <r>  -12.9811    1.0000 </r>
       <r>  -12.9778    1.0000 </r>
       <r>  -12.9744    1.0000 </r>
       <r>  -12.9710    1.0000 </r>
       <r>  -12.9679    1.0000 </r>
       <r>  -12.9652    1.0000 </r>
       <r>  -12.9613    1.0000 </r>
       <r>  -12.9576    1.0000 </r>
       <r>  -12.9527    1.0000 </r>
       <r>  -12.9509    1.0000 </r>
       <r>  -12.9452    1.0000 </r>
       <r>  -12.9429    1.0000 </r>
       <r>  -12.9404    1.0000 </r>
       <r>  -12.9398    1.0000 </r>
       <r>  -12.9341    1.0000 </r>
       <r>  -12.9299    1.0000 </r>
       <r>  -12.9294    1.0000 </r>
       <r>  -12.9278    1.0000 </r>
       <r>  -12.9268    1.0000 </r>
       <r>  -12.9252    1.0000 </r>
       <r>  -12.9212    1.0000 </r>
       <r>  -12.9193    1.0000 </r>
       <r>  -12.9171    1.0000 </r>
       <r>  -12.9149    1.0000 </r>
       <r>  -12.9126    1.0000 </r>
       <r>  -12.9083    1.0000 </r>
       <r>  -12.9023    1.0000 </r>
       <r>  -12.8996    1.0000 </r>
       <r>  -12.8939    1.0000 </r>
       <r>  -12.8931    1.0000 </r>
       <r>  -12.8906    1.0000 </r>
       <r>  -12.8851    1.0000 </r>
       <r>  -12.8832    1.0000 </r>
       <r>  -12.8802    1.0000 </r>
       <r>  -12.8784    1.0000 </r>
       <r>  -12.8750    1.0000 </r>
       <r>  -12.8718    1.0000 </r>
       <r>  -12.8691    1.0000 </r>
       <r>  -12.8659    1.0000 </r>
       <r>  -12.8630    1.0000 </r>
       <r>  -12.8618    1.0000 </r>
       <r>  -12.8595    1.0000 </r>
       <r>  -12.8508    1.0000 </r>
       <r>  -12.8503    1.0000 </r>
       <r>  -12.8460    1.0000 </r>
       <r>  -12.8421    1.0000 </r>
       <r>  -12.8414    1.0000 </r>
       <r>  -12.8326    1.0000 </r>
       <r>  -12.8278    1.0000 </r>
       <r>  -12.8275    1.0000 </r>
       <r>  -12.8245    1.0000 </r>
       <r>  -12.8195    1.0000 </r>
       <r>  -12.8144    1.0000 </r>
       <r>  -12.8116    1.0000 </r>
       <r>  -12.8100    1.0000 </r>
       <r>  -12.8071    1.0000 </r>
       <r>  -12.8063    1.0000 </r>
       <r>  -12.8055    1.0000 </r>
       <r>  -12.8028    1.0000 </r>
       <r>  -12.8018    1.0000 </r>
       <r>  -12.7950    1.0000 </r>
       <r>  -12.7930    1.0000 </r>
       <r>  -12.7888    1.0000 </r>
       <r>  -12.7872    1.0000 </r>
       <r>  -12.7857    1.0000 </r>
       <r>  -12.7810    1.0000 </r>
       <r>  -12.7795    1.0000 </r>
       <r>  -12.7753    1.0000 </r>
       <r>  -12.7718    1.0000 </r>
       <r>  -12.7699    1.0000 </r>
       <r>  -12.7680    1.0000 </r>
       <r>  -12.7638    1.0000 </r>
       <r>  -12.7601    1.0000 </r>
       <r>  -12.7589    1.0000 </r>
       <r>  -12.7556    1.0000 </r>
       <r>  -12.7525    1.0000 </r>
       <r>  -12.7497    1.0000 </r>
       <r>  -12.7483    1.0000 </r>
       <r>  -12.7441    1.0000 </r>
       <r>  -12.7424    1.0000 </r>
       <r>  -12.7394    1.0000 </r>
       <r>  -12.7388    1.0000 </r>
       <r>  -12.7372    1.0000 </r>
       <r>  -12.7347    1.0000 </r>
       <r>  -12.7318    1.0000 </r>
       <r>  -12.7312    1.0000 </r>
       <r>  -12.7284    1.0000 </r>
       <r>  -12.7275    1.0000 </r>
       <r>  -12.7237    1.0000 </r>
       <r>  -12.7234    1.0000 </r>
       <r>  -12.7205    1.0000 </r>
       <r>  -12.7198    1.0000 </r>
       <r>  -12.7184    1.0000 </r>
       <r>  -12.7158    1.0000 </r>
       <r>  -12.7149    1.0000 </r>
       <r>  -12.7127    1.0000 </r>
       <r>  -12.7108    1.0000 </r>
       <r>  -12.7067    1.0000 </r>
       <r>  -12.7053    1.0000 </r>
       <r>  -12.7028    1.0000 </r>
       <r>  -12.7005    1.0000 </r>
       <r>  -12.6982    1.0000 </r>
       <r>  -12.6943    1.0000 </r>
       <r>  -12.6923    1.0000 </r>
       <r>  -12.6904    1.0000 </r>
       <r>  -12.6817    1.0000 </r>
       <r>  -12.6768    1.0000 </r>
       <r>  -12.6723    1.0000 </r>
       <r>  -12.6704    1.0000 </r>
       <r>  -12.6656    1.0000 </r>
       <r>  -12.6599    1.0000 </r>
       <r>  -12.6533    1.0000 </r>
       <r>  -12.6496    1.0000 </r>
       <r>  -12.6483    1.0000 </r>
       <r>  -12.6430    1.0000 </r>
       <r>  -12.6399    1.0000 </r>
       <r>  -12.6385    1.0000 </r>
       <r>  -12.6346    1.0000 </r>
       <r>  -12.6325    1.0000 </r>
       <r>  -12.6294    1.0000 </r>
       <r>  -12.6238    1.0000 </r>
       <r>  -12.6231    1.0000 </r>
       <r>  -12.6201    1.0000 </r>
       <r>  -12.6188    1.0000 </r>
       <r>  -12.6159    1.0000 </r>
       <r>  -12.6134    1.0000 </r>
       <r>  -12.6087    1.0000 </r>
       <r>  -12.6072    1.0000 </r>
       <r>  -12.6039    1.0000 </r>
       <r>  -12.6033    1.0000 </r>
       <r>  -12.5992    1.0000 </r>
       <r>  -12.5969    1.0000 </r>
       <r>  -12.5959    1.0000 </r>
       <r>  -12.5949    1.0000 </r>
       <r>  -12.5921    1.0000 </r>
       <r>  -12.5894    1.0000 </r>
       <r>  -12.5847    1.0000 </r>
       <r>  -12.5822    1.0000 </r>
       <r>  -12.5810    1.0000 </r>
       <r>  -12.5778    1.0000 </r>
       <r>  -12.5731    1.0000 </r>
       <r>  -12.5718    1.0000 </r>
       <r>  -12.5705    1.0000 </r>
       <r>  -12.5680    1.0000 </r>
       <r>  -12.5668    1.0000 </r>
       <r>  -12.5662    1.0000 </r>
       <r>  -12.5632    1.0000 </r>
       <r>  -12.5570    1.0000 </r>
       <r>  -12.5553    1.0000 </r>
       <r>  -12.5515    1.0000 </r>
       <r>  -12.5499    1.0000 </r>
       <r>  -12.5475    1.0000 </r>
       <r>  -12.5461    1.0000 </r>
       <r>  -12.5442    1.0000 </r>
       <r>  -12.5413    1.0000 </r>
       <r>  -12.5384    1.0000 </r>
       <r>  -12.5350    1.0000 </r>
       <r>  -12.5315    1.0000 </r>
       <r>  -12.5291    1.0000 </r>
       <r>  -12.5240    1.0000 </r>
       <r>  -12.5212    1.0000 </r>
       <r>  -12.5158    1.0000 </r>
       <r>  -12.5123    1.0000 </r>
       <r>  -12.5017    1.0000 </r>
       <r>  -12.4835    1.0000 </r>
       <r>  -12.4701    1.0000 </r>
       <r>  -12.4494    1.0000 </r>
       <r>  -12.4397    1.0000 </r>
       <r>  -12.4222    1.0000 </r>
       <r>  -12.4185    1.0000 </r>
       <r>  -12.4087    1.0000 </r>
       <r>  -12.3957    1.0000 </r>
       <r>  -12.3873    1.0000 </r>
       <r>  -12.3823    1.0000 </r>
       <r>  -12.3712    1.0000 </r>
       <r>  -12.3602    1.0000 </r>
       <r>  -12.3568    1.0000 </r>
       <r>  -12.3469    1.0000 </r>
       <r>  -12.3461    1.0000 </r>
       <r>  -12.3331    1.0000 </r>
       <r>  -12.3292    1.0000 </r>
       <r>  -12.3072    1.0000 </r>
       <r>  -12.3026    1.0000 </r>
       <r>  -12.2818    1.0000 </r>
       <r>  -12.2769    1.0000 </r>
       <r>  -12.2715    1.0000 </r>
       <r>  -12.2467    1.0000 </r>
       <r>  -12.2040    1.0000 </r>
       <r>  -12.1948    1.0000 </r>
       <r>  -12.1901    1.0000 </r>
       <r>  -12.1699    1.0000 </r>
       <r>  -12.1573    1.0000 </r>
       <r>  -12.1442    1.0000 </r>
       <r>  -12.1112    1.0000 </r>
       <r>  -12.0976    1.0000 </r>
       <r>  -12.0853    1.0000 </r>
       <r>  -12.0749    1.0000 </r>
       <r>  -12.0675    1.0000 </r>
       <r>  -12.0496    1.0000 </r>
       <r>  -12.0031    1.0000 </r>
       <r>  -12.0023    1.0000 </r>
       <r>  -11.9400    1.0000 </r>
       <r>  -11.9075    1.0000 </r>
       <r>  -11.8935    1.0000 </r>
       <r>  -11.8882    1.0000 </r>
       <r>  -11.8572    1.0000 </r>
       <r>  -11.8469    1.0000 </r>
       <r>  -11.8336    1.0000 </r>
       <r>  -11.8104    1.0000 </r>
       <r>  -11.7620    1.0000 </r>
       <r>  -11.7300    1.0000 </r>
       <r>  -11.7055    1.0000 </r>
       <r>  -11.7013    1.0000 </r>
       <r>  -11.6767    1.0000 </r>
       <r>  -11.6598    1.0000 </r>
       <r>  -11.6528    1.0000 </r>
       <r>  -10.6717    1.0000 </r>
       <r>   -5.0216    1.0000 </r>
       <r>   -4.9786    1.0000 </r>
       <r>   -4.9648    1.0000 </r>
       <r>   -4.9062    1.0000 </r>
       <r>   -4.8197    1.0000 </r>
       <r>   -4.7932    1.0000 </r>
       <r>   -4.7878    1.0000 </r>
       <r>   -4.7243    1.0000 </r>
       <r>   -4.5203    1.0000 </r>
       <r>   -4.4956    1.0000 </r>
       <r>   -4.4753    1.0000 </r>
       <r>   -4.4547    1.0000 </r>
       <r>   -4.3026    1.0000 </r>
       <r>   -4.2333    1.0000 </r>
       <r>   -4.2029    1.0000 </r>
       <r>   -4.1744    1.0000 </r>
       <r>   -4.1273    1.0000 </r>
       <r>   -4.0957    1.0000 </r>
       <r>   -4.0503    1.0000 </r>
       <r>   -3.9904    1.0000 </r>
       <r>   -3.9772    1.0000 </r>
       <r>   -3.9622    1.0000 </r>
       <r>   -3.9143    1.0000 </r>
       <r>   -3.8933    1.0000 </r>
       <r>   -3.8590    1.0000 </r>
       <r>   -3.7775    1.0000 </r>
       <r>   -3.6079    1.0000 </r>
       <r>   -3.5779    1.0000 </r>
       <r>   -3.5526    1.0000 </r>
       <r>   -3.5394    1.0000 </r>
       <r>   -3.5250    1.0000 </r>
       <r>   -3.4735    1.0000 </r>
       <r>   -3.4432    1.0000 </r>
       <r>   -3.3624    1.0000 </r>
       <r>   -3.2370    1.0000 </r>
       <r>   -3.1536    1.0000 </r>
       <r>   -2.9907    1.0000 </r>
       <r>   -2.9772    1.0000 </r>
       <r>   -2.9375    1.0000 </r>
       <r>   -2.8767    1.0000 </r>
       <r>   -2.8636    1.0000 </r>
       <r>   -2.8481    1.0000 </r>
       <r>   -2.8314    1.0000 </r>
       <r>   -2.7941    1.0000 </r>
       <r>   -2.7543    1.0000 </r>
       <r>   -2.7107    1.0000 </r>
       <r>   -2.6482    1.0000 </r>
       <r>   -2.5605    1.0000 </r>
       <r>   -2.5025    1.0000 </r>
       <r>   -2.4750    1.0000 </r>
       <r>   -2.3271    1.0000 </r>
       <r>   -2.2711    1.0000 </r>
       <r>   -2.1951    1.0000 </r>
       <r>   -2.1671    1.0000 </r>
       <r>   -2.1235    1.0000 </r>
       <r>   -2.0383    1.0000 </r>
       <r>   -1.9952    1.0000 </r>
       <r>   -1.9680    1.0000 </r>
       <r>   -1.9239    1.0000 </r>
       <r>   -1.8951    1.0000 </r>
       <r>   -1.8738    1.0000 </r>
       <r>   -1.8377    1.0000 </r>
       <r>   -1.8196    1.0000 </r>
       <r>   -1.7811    1.0000 </r>
       <r>   -1.7706    1.0000 </r>
       <r>   -1.7618    1.0000 </r>
       <r>   -1.7276    1.0000 </r>
       <r>   -1.7093    1.0000 </r>
       <r>   -1.6814    1.0000 </r>
       <r>   -1.6664    1.0000 </r>
       <r>   -1.6478    1.0000 </r>
       <r>   -1.6179    1.0000 </r>
       <r>   -1.5558    1.0000 </r>
       <r>   -1.5311    1.0000 </r>
       <r>   -1.4708    1.0000 </r>
       <r>   -1.4499    1.0000 </r>
       <r>   -1.4290    1.0000 </r>
       <r>   -1.4145    1.0000 </r>
       <r>   -1.3785    1.0000 </r>
       <r>   -1.3522    1.0000 </r>
       <r>   -1.3399    1.0000 </r>
       <r>   -1.2930    1.0000 </r>
       <r>   -1.2817    1.0000 </r>
       <r>   -1.2457    1.0000 </r>
       <r>   -1.2192    1.0000 </r>
       <r>   -1.1565    1.0000 </r>
       <r>   -1.1273    1.0000 </r>
       <r>   -1.1029    1.0000 </r>
       <r>   -1.0547    1.0000 </r>
       <r>   -0.9642    1.0000 </r>
       <r>   -0.9214    1.0000 </r>
       <r>   -0.9147    1.0000 </r>
       <r>   -0.8909    1.0000 </r>
       <r>   -0.8789    1.0000 </r>
       <r>   -0.8540    1.0000 </r>
       <r>   -0.8381    1.0000 </r>
       <r>   -0.8034    1.0000 </r>
       <r>   -0.7868    1.0000 </r>
       <r>   -0.7780    1.0000 </r>
       <r>   -0.7354    1.0000 </r>
       <r>   -0.7059    1.0000 </r>
       <r>   -0.7000    1.0000 </r>
       <r>   -0.6743    1.0000 </r>
       <r>   -0.6560    1.0000 </r>
       <r>   -0.6396    1.0000 </r>
       <r>   -0.5845    1.0000 </r>
       <r>   -0.5593    1.0000 </r>
       <r>   -0.5120    1.0000 </r>
       <r>   -0.4713    1.0000 </r>
       <r>   -0.4537    1.0000 </r>
       <r>   -0.4282    1.0000 </r>
       <r>   -0.3805    1.0000 </r>
       <r>   -0.3222    1.0000 </r>
       <r>   -0.3140    1.0000 </r>
       <r>   -0.2745    1.0000 </r>
       <r>   -0.2581    1.0000 </r>
       <r>   -0.2460    1.0000 </r>
       <r>   -0.2032    1.0000 </r>
       <r>   -0.1961    1.0000 </r>
       <r>   -0.1792    1.0000 </r>
       <r>   -0.1315    1.0000 </r>
       <r>   -0.1134    1.0000 </r>
       <r>   -0.0963    1.0000 </r>
       <r>   -0.0816    1.0000 </r>
       <r>   -0.0674    1.0000 </r>
       <r>   -0.0427    1.0000 </r>
       <r>   -0.0165    1.0000 </r>
       <r>    0.0198    1.0000 </r>
       <r>    0.0365    1.0000 </r>
       <r>    0.0762    1.0000 </r>
       <r>    0.0982    1.0000 </r>
       <r>    0.1153    1.0000 </r>
       <r>    0.1458    1.0000 </r>
       <r>    0.1925    1.0000 </r>
       <r>    0.2222    1.0000 </r>
       <r>    0.2618    1.0000 </r>
       <r>    0.2835    1.0000 </r>
       <r>    0.3255    1.0000 </r>
       <r>    0.3654    1.0000 </r>
       <r>    0.3895    1.0000 </r>
       <r>    0.4198    1.0000 </r>
       <r>    0.4404    1.0000 </r>
       <r>    0.4489    1.0000 </r>
       <r>    0.4774    1.0000 </r>
       <r>    0.5013    1.0000 </r>
       <r>    0.5153    1.0000 </r>
       <r>    0.5317    1.0000 </r>
       <r>    0.5512    1.0000 </r>
       <r>    0.5708    1.0000 </r>
       <r>    0.6006    1.0000 </r>
       <r>    0.6228    1.0000 </r>
       <r>    0.6529    1.0000 </r>
       <r>    0.6764    1.0000 </r>
       <r>    0.7027    1.0000 </r>
       <r>    0.7153    1.0000 </r>
       <r>    0.7791    1.0000 </r>
       <r>    0.8125    1.0000 </r>
       <r>    0.8457    1.0000 </r>
       <r>    0.8773    1.0000 </r>
       <r>    0.8879    1.0000 </r>
       <r>    0.9009    1.0000 </r>
       <r>    0.9374    1.0000 </r>
       <r>    0.9602    1.0000 </r>
       <r>    0.9690    1.0000 </r>
       <r>    0.9873    1.0000 </r>
       <r>    1.0117    1.0000 </r>
       <r>    1.0430    1.0000 </r>
       <r>    1.0512    1.0000 </r>
       <r>    1.0665    1.0000 </r>
       <r>    1.0996    1.0000 </r>
       <r>    1.1490    1.0000 </r>
       <r>    1.1589    1.0000 </r>
       <r>    1.1688    1.0000 </r>
       <r>    1.1762    1.0000 </r>
       <r>    1.1876    1.0000 </r>
       <r>    1.1911    1.0000 </r>
       <r>    1.2132    1.0000 </r>
       <r>    1.2226    1.0000 </r>
       <r>    1.2344    1.0000 </r>
       <r>    1.2501    1.0000 </r>
       <r>    1.2679    1.0000 </r>
       <r>    1.2870    1.0000 </r>
       <r>    1.3123    1.0000 </r>
       <r>    1.3224    1.0000 </r>
       <r>    1.3513    1.0000 </r>
       <r>    1.3735    1.0000 </r>
       <r>    1.3878    1.0000 </r>
       <r>    1.3943    1.0000 </r>
       <r>    1.4022    1.0000 </r>
       <r>    1.4387    1.0000 </r>
       <r>    1.4470    1.0000 </r>
       <r>    1.4498    1.0000 </r>
       <r>    1.4589    1.0000 </r>
       <r>    1.4650    1.0000 </r>
       <r>    1.4717    1.0000 </r>
       <r>    1.4744    1.0000 </r>
       <r>    1.5368    1.0000 </r>
       <r>    1.5568    1.0000 </r>
       <r>    1.5602    1.0000 </r>
       <r>    1.5714    1.0000 </r>
       <r>    1.5785    1.0000 </r>
       <r>    1.5928    1.0000 </r>
       <r>    1.6083    1.0000 </r>
       <r>    1.6398    1.0000 </r>
       <r>    1.6722    1.0000 </r>
       <r>    1.7093    1.0000 </r>
       <r>    1.7406    1.0000 </r>
       <r>    1.7820    1.0000 </r>
       <r>    1.8178    1.0000 </r>
       <r>    1.8307    1.0000 </r>
       <r>    1.8919    1.0000 </r>
       <r>    1.9226    1.0000 </r>
       <r>    2.0369    1.0000 </r>
       <r>    2.0512    1.0000 </r>
       <r>    2.0653    1.0000 </r>
       <r>    2.0814    1.0000 </r>
       <r>    2.2484    1.0000 </r>
       <r>    2.4639    1.0000 </r>
       <r>    5.0986    0.0000 </r>
       <r>    6.8520    0.0000 </r>
       <r>    6.9833    0.0000 </r>
       <r>    8.0316    0.0000 </r>
       <r>    8.1078    0.0000 </r>
       <r>    9.4805    0.0000 </r>
       <r>    9.5369    0.0000 </r>
       <r>    9.6842    0.0000 </r>
       <r>    9.7442    0.0000 </r>
       <r>    9.8694    0.0000 </r>
       <r>    9.9494    0.0000 </r>
       <r>    9.9912    0.0000 </r>
       <r>   10.0311    0.0000 </r>
       <r>   10.2907    0.0000 </r>
       <r>   10.3355    0.0000 </r>
       <r>   10.4329    0.0000 </r>
       <r>   10.4437    0.0000 </r>
       <r>   10.4890    0.0000 </r>
       <r>   10.5286    0.0000 </r>
       <r>   10.7463    0.0000 </r>
       <r>   10.7936    0.0000 </r>
       <r>   11.2429    0.0000 </r>
       <r>   11.2580    0.0000 </r>
       <r>   11.3267    0.0000 </r>
       <r>   11.3471    0.0000 </r>
       <r>   11.4426    0.0000 </r>
       <r>   11.4789    0.0000 </r>
       <r>   11.5146    0.0000 </r>
       <r>   11.5304    0.0000 </r>
       <r>   11.5549    0.0000 </r>
       <r>   11.5570    0.0000 </r>
       <r>   11.5828    0.0000 </r>
       <r>   11.6110    0.0000 </r>
       <r>   11.6736    0.0000 </r>
       <r>   11.7185    0.0000 </r>
       <r>   11.8031    0.0000 </r>
       <r>   11.8289    0.0000 </r>
       <r>   11.8380    0.0000 </r>
       <r>   11.9146    0.0000 </r>
       <r>   11.9276    0.0000 </r>
       <r>   12.0896    0.0000 </r>
       <r>   12.1686    0.0000 </r>
       <r>   12.1999    0.0000 </r>
       <r>   12.2052    0.0000 </r>
       <r>   12.4200    0.0000 </r>
       <r>   12.4323    0.0000 </r>
       <r>   12.4697    0.0000 </r>
       <r>   12.4905    0.0000 </r>
       <r>   12.5217    0.0000 </r>
       <r>   12.5660    0.0000 </r>
       <r>   12.6257    0.0000 </r>
       <r>   12.6762    0.0000 </r>
       <r>   12.8190    0.0000 </r>
       <r>   12.8318    0.0000 </r>
       <r>   12.8977    0.0000 </r>
       <r>   12.9100    0.0000 </r>
       <r>   12.9725    0.0000 </r>
       <r>   13.0402    0.0000 </r>
       <r>   13.0784    0.0000 </r>
       <r>   13.1142    0.0000 </r>
       <r>   13.1439    0.0000 </r>
       <r>   13.1652    0.0000 </r>
       <r>   13.1708    0.0000 </r>
       <r>   13.1787    0.0000 </r>
       <r>   13.2307    0.0000 </r>
       <r>   13.2380    0.0000 </r>
       <r>   13.2521    0.0000 </r>
       <r>   13.2640    0.0000 </r>
       <r>   13.3016    0.0000 </r>
       <r>   13.3856    0.0000 </r>
       <r>   13.4593    0.0000 </r>
       <r>   13.5358    0.0000 </r>
       <r>   13.6653    0.0000 </r>
       <r>   13.7461    0.0000 </r>
       <r>   13.9532    0.0000 </r>
       <r>   14.1062    0.0000 </r>
       <r>   14.1540    0.0000 </r>
       <r>   14.2538    0.0000 </r>
       <r>   14.2830    0.0000 </r>
       <r>   14.3260    0.0000 </r>
       <r>   14.3976    0.0000 </r>
       <r>   14.4407    0.0000 </r>
       <r>   14.7244    0.0000 </r>
       <r>   14.7597    0.0000 </r>
       <r>   14.7925    0.0000 </r>
       <r>   14.8229    0.0000 </r>
       <r>   14.8730    0.0000 </r>
       <r>   14.9604    0.0000 </r>
       <r>   14.9821    0.0000 </r>
       <r>   14.9987    0.0000 </r>
       <r>   15.0950    0.0000 </r>
       <r>   15.1349    0.0000 </r>
       <r>   15.1681    0.0000 </r>
       <r>   15.1831    0.0000 </r>
       <r>   15.2076    0.0000 </r>
       <r>   15.2747    0.0000 </r>
       <r>   15.3705    0.0000 </r>
       <r>   15.4263    0.0000 </r>
       <r>   15.4598    0.0000 </r>
       <r>   15.4733    0.0000 </r>
       <r>   15.4941    0.0000 </r>
       <r>   15.5982    0.0000 </r>
       <r>   15.6365    0.0000 </r>
       <r>   15.6719    0.0000 </r>
       <r>   15.7011    0.0000 </r>
      </set>
      <set comment="kpoint 4">
       <r>  -18.3899    1.0000 </r>
       <r>  -18.3767    1.0000 </r>
       <r>  -18.3663    1.0000 </r>
       <r>  -18.3106    1.0000 </r>
       <r>  -18.1861    1.0000 </r>
       <r>  -18.1807    1.0000 </r>
       <r>  -18.1651    1.0000 </r>
       <r>  -18.0561    1.0000 </r>
       <r>  -17.8005    1.0000 </r>
       <r>  -17.7477    1.0000 </r>
       <r>  -17.7432    1.0000 </r>
       <r>  -17.7273    1.0000 </r>
       <r>  -17.7141    1.0000 </r>
       <r>  -17.7055    1.0000 </r>
       <r>  -17.6914    1.0000 </r>
       <r>  -17.6618    1.0000 </r>
       <r>  -17.5920    1.0000 </r>
       <r>  -17.5717    1.0000 </r>
       <r>  -17.5606    1.0000 </r>
       <r>  -17.5416    1.0000 </r>
       <r>  -17.5226    1.0000 </r>
       <r>  -17.5037    1.0000 </r>
       <r>  -17.4764    1.0000 </r>
       <r>  -17.4586    1.0000 </r>
       <r>  -17.4550    1.0000 </r>
       <r>  -17.4417    1.0000 </r>
       <r>  -17.4323    1.0000 </r>
       <r>  -17.4148    1.0000 </r>
       <r>  -17.4100    1.0000 </r>
       <r>  -17.3989    1.0000 </r>
       <r>  -17.3668    1.0000 </r>
       <r>  -17.3542    1.0000 </r>
       <r>  -17.2719    1.0000 </r>
       <r>  -17.2602    1.0000 </r>
       <r>  -17.2505    1.0000 </r>
       <r>  -17.2435    1.0000 </r>
       <r>  -17.2263    1.0000 </r>
       <r>  -17.2130    1.0000 </r>
       <r>  -17.2032    1.0000 </r>
       <r>  -17.2005    1.0000 </r>
       <r>  -17.1912    1.0000 </r>
       <r>  -17.1853    1.0000 </r>
       <r>  -17.1851    1.0000 </r>
       <r>  -17.1777    1.0000 </r>
       <r>  -17.1734    1.0000 </r>
       <r>  -17.1593    1.0000 </r>
       <r>  -17.1359    1.0000 </r>
       <r>  -17.0975    1.0000 </r>
       <r>  -17.0780    1.0000 </r>
       <r>  -17.0723    1.0000 </r>
       <r>  -17.0545    1.0000 </r>
       <r>  -16.9702    1.0000 </r>
       <r>  -16.9462    1.0000 </r>
       <r>  -16.9374    1.0000 </r>
       <r>  -16.9293    1.0000 </r>
       <r>  -16.9238    1.0000 </r>
       <r>  -16.9202    1.0000 </r>
       <r>  -16.9163    1.0000 </r>
       <r>  -16.9109    1.0000 </r>
       <r>  -16.9016    1.0000 </r>
       <r>  -16.8968    1.0000 </r>
       <r>  -16.8892    1.0000 </r>
       <r>  -16.8878    1.0000 </r>
       <r>  -16.8636    1.0000 </r>
       <r>  -16.8518    1.0000 </r>
       <r>  -16.8441    1.0000 </r>
       <r>  -16.8380    1.0000 </r>
       <r>  -16.8317    1.0000 </r>
       <r>  -16.7981    1.0000 </r>
       <r>  -16.7691    1.0000 </r>
       <r>  -16.7573    1.0000 </r>
       <r>  -13.6688    1.0000 </r>
       <r>  -13.1392    1.0000 </r>
       <r>  -13.1183    1.0000 </r>
       <r>  -13.0554    1.0000 </r>
       <r>  -13.0506    1.0000 </r>
       <r>  -13.0352    1.0000 </r>
       <r>  -13.0347    1.0000 </r>
       <r>  -13.0309    1.0000 </r>
       <r>  -13.0227    1.0000 </r>
       <r>  -13.0166    1.0000 </r>
       <r>  -13.0128    1.0000 </r>
       <r>  -13.0111    1.0000 </r>
       <r>  -13.0063    1.0000 </r>
       <r>  -13.0035    1.0000 </r>
       <r>  -13.0014    1.0000 </r>
       <r>  -12.9956    1.0000 </r>
       <r>  -12.9921    1.0000 </r>
       <r>  -12.9871    1.0000 </r>
       <r>  -12.9850    1.0000 </r>
       <r>  -12.9822    1.0000 </r>
       <r>  -12.9762    1.0000 </r>
       <r>  -12.9753    1.0000 </r>
       <r>  -12.9722    1.0000 </r>
       <r>  -12.9673    1.0000 </r>
       <r>  -12.9613    1.0000 </r>
       <r>  -12.9585    1.0000 </r>
       <r>  -12.9566    1.0000 </r>
       <r>  -12.9544    1.0000 </r>
       <r>  -12.9521    1.0000 </r>
       <r>  -12.9460    1.0000 </r>
       <r>  -12.9452    1.0000 </r>
       <r>  -12.9424    1.0000 </r>
       <r>  -12.9412    1.0000 </r>
       <r>  -12.9362    1.0000 </r>
       <r>  -12.9307    1.0000 </r>
       <r>  -12.9299    1.0000 </r>
       <r>  -12.9284    1.0000 </r>
       <r>  -12.9261    1.0000 </r>
       <r>  -12.9254    1.0000 </r>
       <r>  -12.9237    1.0000 </r>
       <r>  -12.9198    1.0000 </r>
       <r>  -12.9159    1.0000 </r>
       <r>  -12.9114    1.0000 </r>
       <r>  -12.9074    1.0000 </r>
       <r>  -12.9034    1.0000 </r>
       <r>  -12.8994    1.0000 </r>
       <r>  -12.8964    1.0000 </r>
       <r>  -12.8959    1.0000 </r>
       <r>  -12.8908    1.0000 </r>
       <r>  -12.8904    1.0000 </r>
       <r>  -12.8867    1.0000 </r>
       <r>  -12.8824    1.0000 </r>
       <r>  -12.8776    1.0000 </r>
       <r>  -12.8760    1.0000 </r>
       <r>  -12.8732    1.0000 </r>
       <r>  -12.8723    1.0000 </r>
       <r>  -12.8666    1.0000 </r>
       <r>  -12.8663    1.0000 </r>
       <r>  -12.8613    1.0000 </r>
       <r>  -12.8603    1.0000 </r>
       <r>  -12.8589    1.0000 </r>
       <r>  -12.8514    1.0000 </r>
       <r>  -12.8489    1.0000 </r>
       <r>  -12.8473    1.0000 </r>
       <r>  -12.8447    1.0000 </r>
       <r>  -12.8413    1.0000 </r>
       <r>  -12.8350    1.0000 </r>
       <r>  -12.8259    1.0000 </r>
       <r>  -12.8233    1.0000 </r>
       <r>  -12.8217    1.0000 </r>
       <r>  -12.8172    1.0000 </r>
       <r>  -12.8099    1.0000 </r>
       <r>  -12.8070    1.0000 </r>
       <r>  -12.8060    1.0000 </r>
       <r>  -12.8028    1.0000 </r>
       <r>  -12.7977    1.0000 </r>
       <r>  -12.7961    1.0000 </r>
       <r>  -12.7929    1.0000 </r>
       <r>  -12.7912    1.0000 </r>
       <r>  -12.7898    1.0000 </r>
       <r>  -12.7866    1.0000 </r>
       <r>  -12.7834    1.0000 </r>
       <r>  -12.7820    1.0000 </r>
       <r>  -12.7813    1.0000 </r>
       <r>  -12.7781    1.0000 </r>
       <r>  -12.7754    1.0000 </r>
       <r>  -12.7741    1.0000 </r>
       <r>  -12.7702    1.0000 </r>
       <r>  -12.7681    1.0000 </r>
       <r>  -12.7655    1.0000 </r>
       <r>  -12.7649    1.0000 </r>
       <r>  -12.7625    1.0000 </r>
       <r>  -12.7601    1.0000 </r>
       <r>  -12.7584    1.0000 </r>
       <r>  -12.7542    1.0000 </r>
       <r>  -12.7534    1.0000 </r>
       <r>  -12.7489    1.0000 </r>
       <r>  -12.7480    1.0000 </r>
       <r>  -12.7439    1.0000 </r>
       <r>  -12.7432    1.0000 </r>
       <r>  -12.7416    1.0000 </r>
       <r>  -12.7379    1.0000 </r>
       <r>  -12.7362    1.0000 </r>
       <r>  -12.7324    1.0000 </r>
       <r>  -12.7304    1.0000 </r>
       <r>  -12.7297    1.0000 </r>
       <r>  -12.7285    1.0000 </r>
       <r>  -12.7273    1.0000 </r>
       <r>  -12.7252    1.0000 </r>
       <r>  -12.7221    1.0000 </r>
       <r>  -12.7207    1.0000 </r>
       <r>  -12.7197    1.0000 </r>
       <r>  -12.7160    1.0000 </r>
       <r>  -12.7128    1.0000 </r>
       <r>  -12.7106    1.0000 </r>
       <r>  -12.7094    1.0000 </r>
       <r>  -12.7054    1.0000 </r>
       <r>  -12.7026    1.0000 </r>
       <r>  -12.6962    1.0000 </r>
       <r>  -12.6933    1.0000 </r>
       <r>  -12.6918    1.0000 </r>
       <r>  -12.6904    1.0000 </r>
       <r>  -12.6849    1.0000 </r>
       <r>  -12.6815    1.0000 </r>
       <r>  -12.6809    1.0000 </r>
       <r>  -12.6772    1.0000 </r>
       <r>  -12.6754    1.0000 </r>
       <r>  -12.6733    1.0000 </r>
       <r>  -12.6673    1.0000 </r>
       <r>  -12.6654    1.0000 </r>
       <r>  -12.6504    1.0000 </r>
       <r>  -12.6495    1.0000 </r>
       <r>  -12.6484    1.0000 </r>
       <r>  -12.6434    1.0000 </r>
       <r>  -12.6397    1.0000 </r>
       <r>  -12.6368    1.0000 </r>
       <r>  -12.6357    1.0000 </r>
       <r>  -12.6351    1.0000 </r>
       <r>  -12.6316    1.0000 </r>
       <r>  -12.6287    1.0000 </r>
       <r>  -12.6258    1.0000 </r>
       <r>  -12.6197    1.0000 </r>
       <r>  -12.6186    1.0000 </r>
       <r>  -12.6159    1.0000 </r>
       <r>  -12.6147    1.0000 </r>
       <r>  -12.6139    1.0000 </r>
       <r>  -12.6122    1.0000 </r>
       <r>  -12.6065    1.0000 </r>
       <r>  -12.6045    1.0000 </r>
       <r>  -12.6033    1.0000 </r>
       <r>  -12.6011    1.0000 </r>
       <r>  -12.5962    1.0000 </r>
       <r>  -12.5950    1.0000 </r>
       <r>  -12.5931    1.0000 </r>
       <r>  -12.5898    1.0000 </r>
       <r>  -12.5888    1.0000 </r>
       <r>  -12.5859    1.0000 </r>
       <r>  -12.5843    1.0000 </r>
       <r>  -12.5813    1.0000 </r>
       <r>  -12.5771    1.0000 </r>
       <r>  -12.5737    1.0000 </r>
       <r>  -12.5718    1.0000 </r>
       <r>  -12.5707    1.0000 </r>
       <r>  -12.5695    1.0000 </r>
       <r>  -12.5662    1.0000 </r>
       <r>  -12.5628    1.0000 </r>
       <r>  -12.5608    1.0000 </r>
       <r>  -12.5592    1.0000 </r>
       <r>  -12.5529    1.0000 </r>
       <r>  -12.5517    1.0000 </r>
       <r>  -12.5488    1.0000 </r>
       <r>  -12.5452    1.0000 </r>
       <r>  -12.5444    1.0000 </r>
       <r>  -12.5415    1.0000 </r>
       <r>  -12.5364    1.0000 </r>
       <r>  -12.5343    1.0000 </r>
       <r>  -12.5310    1.0000 </r>
       <r>  -12.5279    1.0000 </r>
       <r>  -12.5269    1.0000 </r>
       <r>  -12.5253    1.0000 </r>
       <r>  -12.5224    1.0000 </r>
       <r>  -12.5207    1.0000 </r>
       <r>  -12.5130    1.0000 </r>
       <r>  -12.5106    1.0000 </r>
       <r>  -12.5032    1.0000 </r>
       <r>  -12.4956    1.0000 </r>
       <r>  -12.4876    1.0000 </r>
       <r>  -12.4682    1.0000 </r>
       <r>  -12.4516    1.0000 </r>
       <r>  -12.4362    1.0000 </r>
       <r>  -12.4245    1.0000 </r>
       <r>  -12.4056    1.0000 </r>
       <r>  -12.3925    1.0000 </r>
       <r>  -12.3815    1.0000 </r>
       <r>  -12.3700    1.0000 </r>
       <r>  -12.3515    1.0000 </r>
       <r>  -12.3476    1.0000 </r>
       <r>  -12.3361    1.0000 </r>
       <r>  -12.3174    1.0000 </r>
       <r>  -12.3118    1.0000 </r>
       <r>  -12.2889    1.0000 </r>
       <r>  -12.2864    1.0000 </r>
       <r>  -12.2811    1.0000 </r>
       <r>  -12.2581    1.0000 </r>
       <r>  -12.2382    1.0000 </r>
       <r>  -12.2363    1.0000 </r>
       <r>  -12.2269    1.0000 </r>
       <r>  -12.2121    1.0000 </r>
       <r>  -12.1564    1.0000 </r>
       <r>  -12.1532    1.0000 </r>
       <r>  -12.1278    1.0000 </r>
       <r>  -12.1121    1.0000 </r>
       <r>  -12.0899    1.0000 </r>
       <r>  -12.0811    1.0000 </r>
       <r>  -12.0640    1.0000 </r>
       <r>  -12.0449    1.0000 </r>
       <r>  -12.0153    1.0000 </r>
       <r>  -12.0075    1.0000 </r>
       <r>  -11.9897    1.0000 </r>
       <r>  -11.9756    1.0000 </r>
       <r>  -11.9370    1.0000 </r>
       <r>  -11.8969    1.0000 </r>
       <r>  -11.8835    1.0000 </r>
       <r>  -11.8558    1.0000 </r>
       <r>  -11.8446    1.0000 </r>
       <r>  -11.8231    1.0000 </r>
       <r>  -11.8158    1.0000 </r>
       <r>  -11.7989    1.0000 </r>
       <r>  -11.7918    1.0000 </r>
       <r>  -11.7859    1.0000 </r>
       <r>  -11.7668    1.0000 </r>
       <r>  -11.7238    1.0000 </r>
       <r>  -11.7026    1.0000 </r>
       <r>  -11.6999    1.0000 </r>
       <r>  -11.6572    1.0000 </r>
       <r>  -10.6774    1.0000 </r>
       <r>   -5.0422    1.0000 </r>
       <r>   -5.0288    1.0000 </r>
       <r>   -4.9820    1.0000 </r>
       <r>   -4.9485    1.0000 </r>
       <r>   -4.9328    1.0000 </r>
       <r>   -4.8964    1.0000 </r>
       <r>   -4.6451    1.0000 </r>
       <r>   -4.6188    1.0000 </r>
       <r>   -4.5200    1.0000 </r>
       <r>   -4.4648    1.0000 </r>
       <r>   -4.2813    1.0000 </r>
       <r>   -4.2653    1.0000 </r>
       <r>   -4.2495    1.0000 </r>
       <r>   -4.2227    1.0000 </r>
       <r>   -4.1781    1.0000 </r>
       <r>   -4.1607    1.0000 </r>
       <r>   -4.1051    1.0000 </r>
       <r>   -4.0959    1.0000 </r>
       <r>   -4.0383    1.0000 </r>
       <r>   -4.0191    1.0000 </r>
       <r>   -3.9900    1.0000 </r>
       <r>   -3.9601    1.0000 </r>
       <r>   -3.9358    1.0000 </r>
       <r>   -3.8950    1.0000 </r>
       <r>   -3.8474    1.0000 </r>
       <r>   -3.8137    1.0000 </r>
       <r>   -3.7479    1.0000 </r>
       <r>   -3.6984    1.0000 </r>
       <r>   -3.6782    1.0000 </r>
       <r>   -3.6461    1.0000 </r>
       <r>   -3.6096    1.0000 </r>
       <r>   -3.4344    1.0000 </r>
       <r>   -3.3102    1.0000 </r>
       <r>   -3.2742    1.0000 </r>
       <r>   -3.2674    1.0000 </r>
       <r>   -3.2458    1.0000 </r>
       <r>   -3.0679    1.0000 </r>
       <r>   -3.0409    1.0000 </r>
       <r>   -2.9757    1.0000 </r>
       <r>   -2.9415    1.0000 </r>
       <r>   -2.9199    1.0000 </r>
       <r>   -2.8625    1.0000 </r>
       <r>   -2.8444    1.0000 </r>
       <r>   -2.7793    1.0000 </r>
       <r>   -2.6779    1.0000 </r>
       <r>   -2.6272    1.0000 </r>
       <r>   -2.6036    1.0000 </r>
       <r>   -2.5686    1.0000 </r>
       <r>   -2.5553    1.0000 </r>
       <r>   -2.4998    1.0000 </r>
       <r>   -2.3847    1.0000 </r>
       <r>   -2.2987    1.0000 </r>
       <r>   -2.2090    1.0000 </r>
       <r>   -2.1783    1.0000 </r>
       <r>   -2.1467    1.0000 </r>
       <r>   -2.1249    1.0000 </r>
       <r>   -2.0741    1.0000 </r>
       <r>   -1.9119    1.0000 </r>
       <r>   -1.8851    1.0000 </r>
       <r>   -1.8326    1.0000 </r>
       <r>   -1.8104    1.0000 </r>
       <r>   -1.7912    1.0000 </r>
       <r>   -1.7814    1.0000 </r>
       <r>   -1.7479    1.0000 </r>
       <r>   -1.7342    1.0000 </r>
       <r>   -1.7161    1.0000 </r>
       <r>   -1.6872    1.0000 </r>
       <r>   -1.6663    1.0000 </r>
       <r>   -1.6498    1.0000 </r>
       <r>   -1.6014    1.0000 </r>
       <r>   -1.5806    1.0000 </r>
       <r>   -1.5575    1.0000 </r>
       <r>   -1.5444    1.0000 </r>
       <r>   -1.5122    1.0000 </r>
       <r>   -1.4585    1.0000 </r>
       <r>   -1.4056    1.0000 </r>
       <r>   -1.3761    1.0000 </r>
       <r>   -1.3549    1.0000 </r>
       <r>   -1.3351    1.0000 </r>
       <r>   -1.3139    1.0000 </r>
       <r>   -1.2992    1.0000 </r>
       <r>   -1.2638    1.0000 </r>
       <r>   -1.2570    1.0000 </r>
       <r>   -1.2318    1.0000 </r>
       <r>   -1.1895    1.0000 </r>
       <r>   -1.1768    1.0000 </r>
       <r>   -1.1098    1.0000 </r>
       <r>   -1.0881    1.0000 </r>
       <r>   -1.0249    1.0000 </r>
       <r>   -1.0077    1.0000 </r>
       <r>   -0.9844    1.0000 </r>
       <r>   -0.9600    1.0000 </r>
       <r>   -0.9229    1.0000 </r>
       <r>   -0.8737    1.0000 </r>
       <r>   -0.8292    1.0000 </r>
       <r>   -0.8231    1.0000 </r>
       <r>   -0.8079    1.0000 </r>
       <r>   -0.7801    1.0000 </r>
       <r>   -0.7406    1.0000 </r>
       <r>   -0.7121    1.0000 </r>
       <r>   -0.6963    1.0000 </r>
       <r>   -0.6659    1.0000 </r>
       <r>   -0.6163    1.0000 </r>
       <r>   -0.5939    1.0000 </r>
       <r>   -0.5862    1.0000 </r>
       <r>   -0.5706    1.0000 </r>
       <r>   -0.5573    1.0000 </r>
       <r>   -0.5427    1.0000 </r>
       <r>   -0.5221    1.0000 </r>
       <r>   -0.5000    1.0000 </r>
       <r>   -0.4812    1.0000 </r>
       <r>   -0.4468    1.0000 </r>
       <r>   -0.4297    1.0000 </r>
       <r>   -0.4217    1.0000 </r>
       <r>   -0.4117    1.0000 </r>
       <r>   -0.3946    1.0000 </r>
       <r>   -0.3620    1.0000 </r>
       <r>   -0.3280    1.0000 </r>
       <r>   -0.3066    1.0000 </r>
       <r>   -0.2857    1.0000 </r>
       <r>   -0.2439    1.0000 </r>
       <r>   -0.2035    1.0000 </r>
       <r>   -0.1062    1.0000 </r>
       <r>   -0.0573    1.0000 </r>
       <r>   -0.0126    1.0000 </r>
       <r>   -0.0026    1.0000 </r>
       <r>    0.0138    1.0000 </r>
       <r>    0.0307    1.0000 </r>
       <r>    0.0382    1.0000 </r>
       <r>    0.0657    1.0000 </r>
       <r>    0.0860    1.0000 </r>
       <r>    0.1010    1.0000 </r>
       <r>    0.1628    1.0000 </r>
       <r>    0.2624    1.0000 </r>
       <r>    0.2899    1.0000 </r>
       <r>    0.3072    1.0000 </r>
       <r>    0.3684    1.0000 </r>
       <r>    0.3914    1.0000 </r>
       <r>    0.3998    1.0000 </r>
       <r>    0.4192    1.0000 </r>
       <r>    0.4223    1.0000 </r>
       <r>    0.4498    1.0000 </r>
       <r>    0.4631    1.0000 </r>
       <r>    0.4823    1.0000 </r>
       <r>    0.5344    1.0000 </r>
       <r>    0.5445    1.0000 </r>
       <r>    0.5565    1.0000 </r>
       <r>    0.5900    1.0000 </r>
       <r>    0.6367    1.0000 </r>
       <r>    0.6850    1.0000 </r>
       <r>    0.7264    1.0000 </r>
       <r>    0.7417    1.0000 </r>
       <r>    0.7602    1.0000 </r>
       <r>    0.7720    1.0000 </r>
       <r>    0.7761    1.0000 </r>
       <r>    0.7845    1.0000 </r>
       <r>    0.7923    1.0000 </r>
       <r>    0.8059    1.0000 </r>
       <r>    0.8250    1.0000 </r>
       <r>    0.8496    1.0000 </r>
       <r>    0.8754    1.0000 </r>
       <r>    0.8832    1.0000 </r>
       <r>    0.9107    1.0000 </r>
       <r>    0.9322    1.0000 </r>
       <r>    0.9447    1.0000 </r>
       <r>    0.9698    1.0000 </r>
       <r>    0.9985    1.0000 </r>
       <r>    1.0057    1.0000 </r>
       <r>    1.0230    1.0000 </r>
       <r>    1.0516    1.0000 </r>
       <r>    1.1000    1.0000 </r>
       <r>    1.1446    1.0000 </r>
       <r>    1.1708    1.0000 </r>
       <r>    1.1822    1.0000 </r>
       <r>    1.1879    1.0000 </r>
       <r>    1.1965    1.0000 </r>
       <r>    1.2072    1.0000 </r>
       <r>    1.2166    1.0000 </r>
       <r>    1.2182    1.0000 </r>
       <r>    1.2424    1.0000 </r>
       <r>    1.2640    1.0000 </r>
       <r>    1.2928    1.0000 </r>
       <r>    1.2992    1.0000 </r>
       <r>    1.3067    1.0000 </r>
       <r>    1.3128    1.0000 </r>
       <r>    1.3241    1.0000 </r>
       <r>    1.3306    1.0000 </r>
       <r>    1.3387    1.0000 </r>
       <r>    1.3466    1.0000 </r>
       <r>    1.3659    1.0000 </r>
       <r>    1.3688    1.0000 </r>
       <r>    1.3814    1.0000 </r>
       <r>    1.3904    1.0000 </r>
       <r>    1.4082    1.0000 </r>
       <r>    1.4337    1.0000 </r>
       <r>    1.4898    1.0000 </r>
       <r>    1.5115    1.0000 </r>
       <r>    1.5394    1.0000 </r>
       <r>    1.5666    1.0000 </r>
       <r>    1.5824    1.0000 </r>
       <r>    1.6038    1.0000 </r>
       <r>    1.6685    1.0000 </r>
       <r>    1.7108    1.0000 </r>
       <r>    1.7257    1.0000 </r>
       <r>    1.7522    1.0000 </r>
       <r>    1.7729    1.0000 </r>
       <r>    1.8157    1.0000 </r>
       <r>    1.8309    1.0000 </r>
       <r>    1.9424    1.0000 </r>
       <r>    1.9519    1.0000 </r>
       <r>    1.9649    1.0000 </r>
       <r>    1.9679    1.0000 </r>
       <r>    1.9726    1.0000 </r>
       <r>    1.9885    1.0000 </r>
       <r>    1.9990    1.0000 </r>
       <r>    2.0605    1.0000 </r>
       <r>    2.2491    1.0000 </r>
       <r>    2.4821    1.0000 </r>
       <r>    5.0979    0.0000 </r>
       <r>    6.8673    0.0000 </r>
       <r>    6.9834    0.0000 </r>
       <r>    8.4581    0.0000 </r>
       <r>    8.4750    0.0000 </r>
       <r>    8.5149    0.0000 </r>
       <r>    8.6554    0.0000 </r>
       <r>    9.9116    0.0000 </r>
       <r>    9.9284    0.0000 </r>
       <r>    9.9700    0.0000 </r>
       <r>    9.9974    0.0000 </r>
       <r>   10.1377    0.0000 </r>
       <r>   10.1800    0.0000 </r>
       <r>   10.4104    0.0000 </r>
       <r>   10.4369    0.0000 </r>
       <r>   10.4431    0.0000 </r>
       <r>   10.4713    0.0000 </r>
       <r>   10.4924    0.0000 </r>
       <r>   10.5203    0.0000 </r>
       <r>   10.5339    0.0000 </r>
       <r>   10.6604    0.0000 </r>
       <r>   11.1549    0.0000 </r>
       <r>   11.1958    0.0000 </r>
       <r>   11.4975    0.0000 </r>
       <r>   11.5285    0.0000 </r>
       <r>   11.5323    0.0000 </r>
       <r>   11.5529    0.0000 </r>
       <r>   11.5636    0.0000 </r>
       <r>   11.5889    0.0000 </r>
       <r>   11.5933    0.0000 </r>
       <r>   11.6109    0.0000 </r>
       <r>   11.6330    0.0000 </r>
       <r>   11.6532    0.0000 </r>
       <r>   11.6855    0.0000 </r>
       <r>   11.7716    0.0000 </r>
       <r>   11.8240    0.0000 </r>
       <r>   11.8321    0.0000 </r>
       <r>   11.8485    0.0000 </r>
       <r>   11.9846    0.0000 </r>
       <r>   11.9967    0.0000 </r>
       <r>   12.0534    0.0000 </r>
       <r>   12.1787    0.0000 </r>
       <r>   12.2093    0.0000 </r>
       <r>   12.2293    0.0000 </r>
       <r>   12.2741    0.0000 </r>
       <r>   12.2941    0.0000 </r>
       <r>   12.5270    0.0000 </r>
       <r>   12.5785    0.0000 </r>
       <r>   12.5928    0.0000 </r>
       <r>   12.6187    0.0000 </r>
       <r>   12.7210    0.0000 </r>
       <r>   12.7360    0.0000 </r>
       <r>   12.8613    0.0000 </r>
       <r>   12.9288    0.0000 </r>
       <r>   12.9369    0.0000 </r>
       <r>   12.9602    0.0000 </r>
       <r>   12.9651    0.0000 </r>
       <r>   12.9675    0.0000 </r>
       <r>   13.0147    0.0000 </r>
       <r>   13.0442    0.0000 </r>
       <r>   13.0677    0.0000 </r>
       <r>   13.0794    0.0000 </r>
       <r>   13.1172    0.0000 </r>
       <r>   13.1290    0.0000 </r>
       <r>   13.1458    0.0000 </r>
       <r>   13.1603    0.0000 </r>
       <r>   13.1769    0.0000 </r>
       <r>   13.2128    0.0000 </r>
       <r>   13.3376    0.0000 </r>
       <r>   13.3489    0.0000 </r>
       <r>   13.3837    0.0000 </r>
       <r>   13.5267    0.0000 </r>
       <r>   13.6550    0.0000 </r>
       <r>   13.7438    0.0000 </r>
       <r>   13.8249    0.0000 </r>
       <r>   13.9079    0.0000 </r>
       <r>   14.0134    0.0000 </r>
       <r>   14.0790    0.0000 </r>
       <r>   14.1280    0.0000 </r>
       <r>   14.2182    0.0000 </r>
       <r>   14.3418    0.0000 </r>
       <r>   14.4201    0.0000 </r>
       <r>   14.6713    0.0000 </r>
       <r>   14.8039    0.0000 </r>
       <r>   14.8773    0.0000 </r>
       <r>   14.9006    0.0000 </r>
       <r>   14.9343    0.0000 </r>
       <r>   14.9643    0.0000 </r>
       <r>   15.0665    0.0000 </r>
       <r>   15.1113    0.0000 </r>
       <r>   15.1494    0.0000 </r>
       <r>   15.1592    0.0000 </r>
       <r>   15.1729    0.0000 </r>
       <r>   15.2037    0.0000 </r>
       <r>   15.2280    0.0000 </r>
       <r>   15.2656    0.0000 </r>
       <r>   15.2749    0.0000 </r>
       <r>   15.3618    0.0000 </r>
       <r>   15.4492    0.0000 </r>
       <r>   15.4600    0.0000 </r>
       <r>   15.4808    0.0000 </r>
       <r>   15.5810    0.0000 </r>
       <r>   15.7464    0.0000 </r>
       <r>   15.7739    0.0000 </r>
       <r>   15.8124    0.0000 </r>
      </set>
      <set comment="kpoint 5">
       <r>  -18.5713    1.0000 </r>
       <r>  -18.5392    1.0000 </r>
       <r>  -18.3135    1.0000 </r>
       <r>  -18.2740    1.0000 </r>
       <r>  -18.0254    1.0000 </r>
       <r>  -18.0008    1.0000 </r>
       <r>  -17.9330    1.0000 </r>
       <r>  -17.9169    1.0000 </r>
       <r>  -17.9104    1.0000 </r>
       <r>  -17.8625    1.0000 </r>
       <r>  -17.7605    1.0000 </r>
       <r>  -17.7252    1.0000 </r>
       <r>  -17.7171    1.0000 </r>
       <r>  -17.7143    1.0000 </r>
       <r>  -17.7011    1.0000 </r>
       <r>  -17.6664    1.0000 </r>
       <r>  -17.6276    1.0000 </r>
       <r>  -17.6067    1.0000 </r>
       <r>  -17.5984    1.0000 </r>
       <r>  -17.5813    1.0000 </r>
       <r>  -17.5756    1.0000 </r>
       <r>  -17.5514    1.0000 </r>
       <r>  -17.5161    1.0000 </r>
       <r>  -17.4887    1.0000 </r>
       <r>  -17.4330    1.0000 </r>
       <r>  -17.4248    1.0000 </r>
       <r>  -17.4076    1.0000 </r>
       <r>  -17.3989    1.0000 </r>
       <r>  -17.3538    1.0000 </r>
       <r>  -17.3288    1.0000 </r>
       <r>  -17.3242    1.0000 </r>
       <r>  -17.3203    1.0000 </r>
       <r>  -17.3168    1.0000 </r>
       <r>  -17.3156    1.0000 </r>
       <r>  -17.3016    1.0000 </r>
       <r>  -17.2883    1.0000 </r>
       <r>  -17.2722    1.0000 </r>
       <r>  -17.2497    1.0000 </r>
       <r>  -17.2060    1.0000 </r>
       <r>  -17.1944    1.0000 </r>
       <r>  -17.1810    1.0000 </r>
       <r>  -17.1718    1.0000 </r>
       <r>  -17.1676    1.0000 </r>
       <r>  -17.1643    1.0000 </r>
       <r>  -17.1512    1.0000 </r>
       <r>  -17.1403    1.0000 </r>
       <r>  -17.1175    1.0000 </r>
       <r>  -17.0536    1.0000 </r>
       <r>  -17.0401    1.0000 </r>
       <r>  -17.0081    1.0000 </r>
       <r>  -16.9997    1.0000 </r>
       <r>  -16.9924    1.0000 </r>
       <r>  -16.9899    1.0000 </r>
       <r>  -16.9849    1.0000 </r>
       <r>  -16.9779    1.0000 </r>
       <r>  -16.9714    1.0000 </r>
       <r>  -16.9454    1.0000 </r>
       <r>  -16.9330    1.0000 </r>
       <r>  -16.9290    1.0000 </r>
       <r>  -16.9120    1.0000 </r>
       <r>  -16.9039    1.0000 </r>
       <r>  -16.8941    1.0000 </r>
       <r>  -16.8920    1.0000 </r>
       <r>  -16.8653    1.0000 </r>
       <r>  -16.8453    1.0000 </r>
       <r>  -16.8277    1.0000 </r>
       <r>  -16.8165    1.0000 </r>
       <r>  -16.8113    1.0000 </r>
       <r>  -16.7911    1.0000 </r>
       <r>  -16.7644    1.0000 </r>
       <r>  -16.7427    1.0000 </r>
       <r>  -13.6705    1.0000 </r>
       <r>  -13.1463    1.0000 </r>
       <r>  -13.0977    1.0000 </r>
       <r>  -13.0644    1.0000 </r>
       <r>  -13.0534    1.0000 </r>
       <r>  -13.0509    1.0000 </r>
       <r>  -13.0411    1.0000 </r>
       <r>  -13.0381    1.0000 </r>
       <r>  -13.0202    1.0000 </r>
       <r>  -13.0190    1.0000 </r>
       <r>  -13.0140    1.0000 </r>
       <r>  -13.0124    1.0000 </r>
       <r>  -13.0113    1.0000 </r>
       <r>  -13.0067    1.0000 </r>
       <r>  -13.0044    1.0000 </r>
       <r>  -12.9981    1.0000 </r>
       <r>  -12.9972    1.0000 </r>
       <r>  -12.9781    1.0000 </r>
       <r>  -12.9753    1.0000 </r>
       <r>  -12.9710    1.0000 </r>
       <r>  -12.9656    1.0000 </r>
       <r>  -12.9615    1.0000 </r>
       <r>  -12.9591    1.0000 </r>
       <r>  -12.9530    1.0000 </r>
       <r>  -12.9492    1.0000 </r>
       <r>  -12.9463    1.0000 </r>
       <r>  -12.9443    1.0000 </r>
       <r>  -12.9410    1.0000 </r>
       <r>  -12.9376    1.0000 </r>
       <r>  -12.9360    1.0000 </r>
       <r>  -12.9333    1.0000 </r>
       <r>  -12.9313    1.0000 </r>
       <r>  -12.9286    1.0000 </r>
       <r>  -12.9269    1.0000 </r>
       <r>  -12.9250    1.0000 </r>
       <r>  -12.9241    1.0000 </r>
       <r>  -12.9234    1.0000 </r>
       <r>  -12.9190    1.0000 </r>
       <r>  -12.9161    1.0000 </r>
       <r>  -12.9145    1.0000 </r>
       <r>  -12.9120    1.0000 </r>
       <r>  -12.9098    1.0000 </r>
       <r>  -12.9070    1.0000 </r>
       <r>  -12.9041    1.0000 </r>
       <r>  -12.9021    1.0000 </r>
       <r>  -12.9000    1.0000 </r>
       <r>  -12.8978    1.0000 </r>
       <r>  -12.8973    1.0000 </r>
       <r>  -12.8946    1.0000 </r>
       <r>  -12.8892    1.0000 </r>
       <r>  -12.8884    1.0000 </r>
       <r>  -12.8871    1.0000 </r>
       <r>  -12.8839    1.0000 </r>
       <r>  -12.8813    1.0000 </r>
       <r>  -12.8784    1.0000 </r>
       <r>  -12.8737    1.0000 </r>
       <r>  -12.8707    1.0000 </r>
       <r>  -12.8686    1.0000 </r>
       <r>  -12.8671    1.0000 </r>
       <r>  -12.8591    1.0000 </r>
       <r>  -12.8535    1.0000 </r>
       <r>  -12.8529    1.0000 </r>
       <r>  -12.8520    1.0000 </r>
       <r>  -12.8484    1.0000 </r>
       <r>  -12.8431    1.0000 </r>
       <r>  -12.8398    1.0000 </r>
       <r>  -12.8381    1.0000 </r>
       <r>  -12.8353    1.0000 </r>
       <r>  -12.8274    1.0000 </r>
       <r>  -12.8222    1.0000 </r>
       <r>  -12.8207    1.0000 </r>
       <r>  -12.8157    1.0000 </r>
       <r>  -12.8136    1.0000 </r>
       <r>  -12.8082    1.0000 </r>
       <r>  -12.8076    1.0000 </r>
       <r>  -12.8012    1.0000 </r>
       <r>  -12.7998    1.0000 </r>
       <r>  -12.7967    1.0000 </r>
       <r>  -12.7947    1.0000 </r>
       <r>  -12.7931    1.0000 </r>
       <r>  -12.7900    1.0000 </r>
       <r>  -12.7846    1.0000 </r>
       <r>  -12.7828    1.0000 </r>
       <r>  -12.7826    1.0000 </r>
       <r>  -12.7800    1.0000 </r>
       <r>  -12.7782    1.0000 </r>
       <r>  -12.7756    1.0000 </r>
       <r>  -12.7735    1.0000 </r>
       <r>  -12.7725    1.0000 </r>
       <r>  -12.7701    1.0000 </r>
       <r>  -12.7691    1.0000 </r>
       <r>  -12.7681    1.0000 </r>
       <r>  -12.7666    1.0000 </r>
       <r>  -12.7646    1.0000 </r>
       <r>  -12.7629    1.0000 </r>
       <r>  -12.7606    1.0000 </r>
       <r>  -12.7559    1.0000 </r>
       <r>  -12.7544    1.0000 </r>
       <r>  -12.7525    1.0000 </r>
       <r>  -12.7517    1.0000 </r>
       <r>  -12.7481    1.0000 </r>
       <r>  -12.7452    1.0000 </r>
       <r>  -12.7410    1.0000 </r>
       <r>  -12.7398    1.0000 </r>
       <r>  -12.7369    1.0000 </r>
       <r>  -12.7354    1.0000 </r>
       <r>  -12.7319    1.0000 </r>
       <r>  -12.7300    1.0000 </r>
       <r>  -12.7259    1.0000 </r>
       <r>  -12.7203    1.0000 </r>
       <r>  -12.7167    1.0000 </r>
       <r>  -12.7135    1.0000 </r>
       <r>  -12.7097    1.0000 </r>
       <r>  -12.7071    1.0000 </r>
       <r>  -12.7035    1.0000 </r>
       <r>  -12.7016    1.0000 </r>
       <r>  -12.6991    1.0000 </r>
       <r>  -12.6957    1.0000 </r>
       <r>  -12.6906    1.0000 </r>
       <r>  -12.6884    1.0000 </r>
       <r>  -12.6873    1.0000 </r>
       <r>  -12.6842    1.0000 </r>
       <r>  -12.6821    1.0000 </r>
       <r>  -12.6762    1.0000 </r>
       <r>  -12.6723    1.0000 </r>
       <r>  -12.6695    1.0000 </r>
       <r>  -12.6663    1.0000 </r>
       <r>  -12.6656    1.0000 </r>
       <r>  -12.6638    1.0000 </r>
       <r>  -12.6568    1.0000 </r>
       <r>  -12.6538    1.0000 </r>
       <r>  -12.6527    1.0000 </r>
       <r>  -12.6521    1.0000 </r>
       <r>  -12.6505    1.0000 </r>
       <r>  -12.6444    1.0000 </r>
       <r>  -12.6414    1.0000 </r>
       <r>  -12.6405    1.0000 </r>
       <r>  -12.6367    1.0000 </r>
       <r>  -12.6303    1.0000 </r>
       <r>  -12.6291    1.0000 </r>
       <r>  -12.6280    1.0000 </r>
       <r>  -12.6279    1.0000 </r>
       <r>  -12.6222    1.0000 </r>
       <r>  -12.6205    1.0000 </r>
       <r>  -12.6176    1.0000 </r>
       <r>  -12.6169    1.0000 </r>
       <r>  -12.6142    1.0000 </r>
       <r>  -12.6129    1.0000 </r>
       <r>  -12.6105    1.0000 </r>
       <r>  -12.6087    1.0000 </r>
       <r>  -12.6072    1.0000 </r>
       <r>  -12.6067    1.0000 </r>
       <r>  -12.6045    1.0000 </r>
       <r>  -12.6008    1.0000 </r>
       <r>  -12.5983    1.0000 </r>
       <r>  -12.5975    1.0000 </r>
       <r>  -12.5948    1.0000 </r>
       <r>  -12.5930    1.0000 </r>
       <r>  -12.5902    1.0000 </r>
       <r>  -12.5863    1.0000 </r>
       <r>  -12.5846    1.0000 </r>
       <r>  -12.5827    1.0000 </r>
       <r>  -12.5811    1.0000 </r>
       <r>  -12.5795    1.0000 </r>
       <r>  -12.5785    1.0000 </r>
       <r>  -12.5775    1.0000 </r>
       <r>  -12.5726    1.0000 </r>
       <r>  -12.5689    1.0000 </r>
       <r>  -12.5685    1.0000 </r>
       <r>  -12.5656    1.0000 </r>
       <r>  -12.5594    1.0000 </r>
       <r>  -12.5575    1.0000 </r>
       <r>  -12.5525    1.0000 </r>
       <r>  -12.5483    1.0000 </r>
       <r>  -12.5444    1.0000 </r>
       <r>  -12.5415    1.0000 </r>
       <r>  -12.5396    1.0000 </r>
       <r>  -12.5314    1.0000 </r>
       <r>  -12.5296    1.0000 </r>
       <r>  -12.5224    1.0000 </r>
       <r>  -12.5191    1.0000 </r>
       <r>  -12.5005    1.0000 </r>
       <r>  -12.4981    1.0000 </r>
       <r>  -12.4944    1.0000 </r>
       <r>  -12.4808    1.0000 </r>
       <r>  -12.4537    1.0000 </r>
       <r>  -12.4482    1.0000 </r>
       <r>  -12.4454    1.0000 </r>
       <r>  -12.4290    1.0000 </r>
       <r>  -12.4216    1.0000 </r>
       <r>  -12.4171    1.0000 </r>
       <r>  -12.4095    1.0000 </r>
       <r>  -12.3975    1.0000 </r>
       <r>  -12.3863    1.0000 </r>
       <r>  -12.3529    1.0000 </r>
       <r>  -12.3508    1.0000 </r>
       <r>  -12.3430    1.0000 </r>
       <r>  -12.3337    1.0000 </r>
       <r>  -12.3184    1.0000 </r>
       <r>  -12.2960    1.0000 </r>
       <r>  -12.2905    1.0000 </r>
       <r>  -12.2826    1.0000 </r>
       <r>  -12.2642    1.0000 </r>
       <r>  -12.2347    1.0000 </r>
       <r>  -12.2158    1.0000 </r>
       <r>  -12.1982    1.0000 </r>
       <r>  -12.1919    1.0000 </r>
       <r>  -12.1697    1.0000 </r>
       <r>  -12.1593    1.0000 </r>
       <r>  -12.1538    1.0000 </r>
       <r>  -12.1442    1.0000 </r>
       <r>  -12.1396    1.0000 </r>
       <r>  -12.1099    1.0000 </r>
       <r>  -12.0885    1.0000 </r>
       <r>  -12.0763    1.0000 </r>
       <r>  -12.0596    1.0000 </r>
       <r>  -12.0341    1.0000 </r>
       <r>  -11.9920    1.0000 </r>
       <r>  -11.9748    1.0000 </r>
       <r>  -11.9702    1.0000 </r>
       <r>  -11.9583    1.0000 </r>
       <r>  -11.9270    1.0000 </r>
       <r>  -11.9011    1.0000 </r>
       <r>  -11.8583    1.0000 </r>
       <r>  -11.8375    1.0000 </r>
       <r>  -11.8373    1.0000 </r>
       <r>  -11.8318    1.0000 </r>
       <r>  -11.8124    1.0000 </r>
       <r>  -11.8037    1.0000 </r>
       <r>  -11.7873    1.0000 </r>
       <r>  -11.7802    1.0000 </r>
       <r>  -11.7452    1.0000 </r>
       <r>  -11.7400    1.0000 </r>
       <r>  -11.6880    1.0000 </r>
       <r>  -11.6285    1.0000 </r>
       <r>  -10.6696    1.0000 </r>
       <r>   -4.8727    1.0000 </r>
       <r>   -4.8577    1.0000 </r>
       <r>   -4.7066    1.0000 </r>
       <r>   -4.6654    1.0000 </r>
       <r>   -4.6502    1.0000 </r>
       <r>   -4.6087    1.0000 </r>
       <r>   -4.6058    1.0000 </r>
       <r>   -4.5860    1.0000 </r>
       <r>   -4.3813    1.0000 </r>
       <r>   -4.3708    1.0000 </r>
       <r>   -4.3543    1.0000 </r>
       <r>   -4.3424    1.0000 </r>
       <r>   -4.2046    1.0000 </r>
       <r>   -4.1743    1.0000 </r>
       <r>   -4.1495    1.0000 </r>
       <r>   -4.1368    1.0000 </r>
       <r>   -4.1137    1.0000 </r>
       <r>   -4.0989    1.0000 </r>
       <r>   -4.0720    1.0000 </r>
       <r>   -4.0559    1.0000 </r>
       <r>   -4.0174    1.0000 </r>
       <r>   -3.9655    1.0000 </r>
       <r>   -3.8752    1.0000 </r>
       <r>   -3.8160    1.0000 </r>
       <r>   -3.7931    1.0000 </r>
       <r>   -3.7796    1.0000 </r>
       <r>   -3.7649    1.0000 </r>
       <r>   -3.7463    1.0000 </r>
       <r>   -3.7212    1.0000 </r>
       <r>   -3.7130    1.0000 </r>
       <r>   -3.6842    1.0000 </r>
       <r>   -3.5618    1.0000 </r>
       <r>   -3.4842    1.0000 </r>
       <r>   -3.3951    1.0000 </r>
       <r>   -3.3722    1.0000 </r>
       <r>   -3.3078    1.0000 </r>
       <r>   -3.2138    1.0000 </r>
       <r>   -3.1407    1.0000 </r>
       <r>   -3.0084    1.0000 </r>
       <r>   -2.9705    1.0000 </r>
       <r>   -2.9366    1.0000 </r>
       <r>   -2.9201    1.0000 </r>
       <r>   -2.8201    1.0000 </r>
       <r>   -2.7581    1.0000 </r>
       <r>   -2.6596    1.0000 </r>
       <r>   -2.6384    1.0000 </r>
       <r>   -2.6294    1.0000 </r>
       <r>   -2.5977    1.0000 </r>
       <r>   -2.5438    1.0000 </r>
       <r>   -2.4719    1.0000 </r>
       <r>   -2.4584    1.0000 </r>
       <r>   -2.4226    1.0000 </r>
       <r>   -2.3524    1.0000 </r>
       <r>   -2.2659    1.0000 </r>
       <r>   -2.2490    1.0000 </r>
       <r>   -2.2099    1.0000 </r>
       <r>   -2.2046    1.0000 </r>
       <r>   -2.1856    1.0000 </r>
       <r>   -2.1744    1.0000 </r>
       <r>   -2.1653    1.0000 </r>
       <r>   -2.1568    1.0000 </r>
       <r>   -2.1346    1.0000 </r>
       <r>   -2.1003    1.0000 </r>
       <r>   -2.0562    1.0000 </r>
       <r>   -2.0143    1.0000 </r>
       <r>   -1.9393    1.0000 </r>
       <r>   -1.9207    1.0000 </r>
       <r>   -1.8896    1.0000 </r>
       <r>   -1.8511    1.0000 </r>
       <r>   -1.7520    1.0000 </r>
       <r>   -1.7083    1.0000 </r>
       <r>   -1.6494    1.0000 </r>
       <r>   -1.5991    1.0000 </r>
       <r>   -1.5277    1.0000 </r>
       <r>   -1.4652    1.0000 </r>
       <r>   -1.4417    1.0000 </r>
       <r>   -1.4134    1.0000 </r>
       <r>   -1.3912    1.0000 </r>
       <r>   -1.3387    1.0000 </r>
       <r>   -1.3304    1.0000 </r>
       <r>   -1.3192    1.0000 </r>
       <r>   -1.2459    1.0000 </r>
       <r>   -1.1970    1.0000 </r>
       <r>   -1.1870    1.0000 </r>
       <r>   -1.1645    1.0000 </r>
       <r>   -1.1262    1.0000 </r>
       <r>   -1.1011    1.0000 </r>
       <r>   -1.0774    1.0000 </r>
       <r>   -1.0275    1.0000 </r>
       <r>   -0.9608    1.0000 </r>
       <r>   -0.9314    1.0000 </r>
       <r>   -0.9006    1.0000 </r>
       <r>   -0.8853    1.0000 </r>
       <r>   -0.8625    1.0000 </r>
       <r>   -0.8345    1.0000 </r>
       <r>   -0.8067    1.0000 </r>
       <r>   -0.7651    1.0000 </r>
       <r>   -0.7256    1.0000 </r>
       <r>   -0.6436    1.0000 </r>
       <r>   -0.6283    1.0000 </r>
       <r>   -0.6110    1.0000 </r>
       <r>   -0.5973    1.0000 </r>
       <r>   -0.5689    1.0000 </r>
       <r>   -0.5391    1.0000 </r>
       <r>   -0.5246    1.0000 </r>
       <r>   -0.4959    1.0000 </r>
       <r>   -0.4655    1.0000 </r>
       <r>   -0.4346    1.0000 </r>
       <r>   -0.4153    1.0000 </r>
       <r>   -0.3892    1.0000 </r>
       <r>   -0.3340    1.0000 </r>
       <r>   -0.2940    1.0000 </r>
       <r>   -0.2673    1.0000 </r>
       <r>   -0.2361    1.0000 </r>
       <r>   -0.1990    1.0000 </r>
       <r>   -0.1682    1.0000 </r>
       <r>   -0.1397    1.0000 </r>
       <r>   -0.1153    1.0000 </r>
       <r>   -0.0890    1.0000 </r>
       <r>   -0.0743    1.0000 </r>
       <r>   -0.0608    1.0000 </r>
       <r>   -0.0422    1.0000 </r>
       <r>   -0.0278    1.0000 </r>
       <r>   -0.0172    1.0000 </r>
       <r>   -0.0034    1.0000 </r>
       <r>    0.0521    1.0000 </r>
       <r>    0.0698    1.0000 </r>
       <r>    0.0831    1.0000 </r>
       <r>    0.1153    1.0000 </r>
       <r>    0.1278    1.0000 </r>
       <r>    0.1393    1.0000 </r>
       <r>    0.1495    1.0000 </r>
       <r>    0.1820    1.0000 </r>
       <r>    0.2005    1.0000 </r>
       <r>    0.2219    1.0000 </r>
       <r>    0.2557    1.0000 </r>
       <r>    0.2721    1.0000 </r>
       <r>    0.3058    1.0000 </r>
       <r>    0.3372    1.0000 </r>
       <r>    0.3591    1.0000 </r>
       <r>    0.3848    1.0000 </r>
       <r>    0.4273    1.0000 </r>
       <r>    0.4591    1.0000 </r>
       <r>    0.5052    1.0000 </r>
       <r>    0.5368    1.0000 </r>
       <r>    0.5652    1.0000 </r>
       <r>    0.5988    1.0000 </r>
       <r>    0.6133    1.0000 </r>
       <r>    0.6450    1.0000 </r>
       <r>    0.6708    1.0000 </r>
       <r>    0.6762    1.0000 </r>
       <r>    0.6833    1.0000 </r>
       <r>    0.7099    1.0000 </r>
       <r>    0.7430    1.0000 </r>
       <r>    0.7712    1.0000 </r>
       <r>    0.7815    1.0000 </r>
       <r>    0.8203    1.0000 </r>
       <r>    0.8967    1.0000 </r>
       <r>    0.9117    1.0000 </r>
       <r>    0.9259    1.0000 </r>
       <r>    0.9432    1.0000 </r>
       <r>    0.9630    1.0000 </r>
       <r>    0.9720    1.0000 </r>
       <r>    0.9801    1.0000 </r>
       <r>    0.9940    1.0000 </r>
       <r>    1.0318    1.0000 </r>
       <r>    1.0419    1.0000 </r>
       <r>    1.0607    1.0000 </r>
       <r>    1.0827    1.0000 </r>
       <r>    1.1028    1.0000 </r>
       <r>    1.1107    1.0000 </r>
       <r>    1.1143    1.0000 </r>
       <r>    1.1469    1.0000 </r>
       <r>    1.1623    1.0000 </r>
       <r>    1.1909    1.0000 </r>
       <r>    1.1987    1.0000 </r>
       <r>    1.2007    1.0000 </r>
       <r>    1.2201    1.0000 </r>
       <r>    1.2338    1.0000 </r>
       <r>    1.2795    1.0000 </r>
       <r>    1.3046    1.0000 </r>
       <r>    1.3584    1.0000 </r>
       <r>    1.3702    1.0000 </r>
       <r>    1.4065    1.0000 </r>
       <r>    1.4282    1.0000 </r>
       <r>    1.4382    1.0000 </r>
       <r>    1.4454    1.0000 </r>
       <r>    1.4538    1.0000 </r>
       <r>    1.4652    1.0000 </r>
       <r>    1.4770    1.0000 </r>
       <r>    1.4894    1.0000 </r>
       <r>    1.5007    1.0000 </r>
       <r>    1.5146    1.0000 </r>
       <r>    1.5180    1.0000 </r>
       <r>    1.5257    1.0000 </r>
       <r>    1.5352    1.0000 </r>
       <r>    1.5493    1.0000 </r>
       <r>    1.5642    1.0000 </r>
       <r>    1.5715    1.0000 </r>
       <r>    1.5919    1.0000 </r>
       <r>    1.5987    1.0000 </r>
       <r>    1.6297    1.0000 </r>
       <r>    1.6473    1.0000 </r>
       <r>    1.6641    1.0000 </r>
       <r>    1.6801    1.0000 </r>
       <r>    1.6949    1.0000 </r>
       <r>    1.7229    1.0000 </r>
       <r>    1.7443    1.0000 </r>
       <r>    1.7918    1.0000 </r>
       <r>    1.7965    1.0000 </r>
       <r>    1.8248    1.0000 </r>
       <r>    1.8382    1.0000 </r>
       <r>    1.8614    1.0000 </r>
       <r>    1.8898    1.0000 </r>
       <r>    1.9601    1.0000 </r>
       <r>    2.0238    1.0000 </r>
       <r>    2.2258    1.0000 </r>
       <r>    2.4685    1.0000 </r>
       <r>    5.0864    0.0000 </r>
       <r>    6.8432    0.0000 </r>
       <r>    7.0505    0.0000 </r>
       <r>    7.6423    0.0000 </r>
       <r>    7.7414    0.0000 </r>
       <r>    9.1404    0.0000 </r>
       <r>    9.1713    0.0000 </r>
       <r>    9.8583    0.0000 </r>
       <r>    9.8942    0.0000 </r>
       <r>   10.4462    0.0000 </r>
       <r>   10.4629    0.0000 </r>
       <r>   10.5532    0.0000 </r>
       <r>   10.5687    0.0000 </r>
       <r>   10.5900    0.0000 </r>
       <r>   10.6011    0.0000 </r>
       <r>   10.6402    0.0000 </r>
       <r>   10.6613    0.0000 </r>
       <r>   10.8059    0.0000 </r>
       <r>   10.8087    0.0000 </r>
       <r>   10.8311    0.0000 </r>
       <r>   10.8400    0.0000 </r>
       <r>   10.8478    0.0000 </r>
       <r>   10.8755    0.0000 </r>
       <r>   10.8873    0.0000 </r>
       <r>   10.8997    0.0000 </r>
       <r>   10.9308    0.0000 </r>
       <r>   10.9671    0.0000 </r>
       <r>   11.0541    0.0000 </r>
       <r>   11.0674    0.0000 </r>
       <r>   11.0859    0.0000 </r>
       <r>   11.1221    0.0000 </r>
       <r>   11.1577    0.0000 </r>
       <r>   11.2732    0.0000 </r>
       <r>   11.3290    0.0000 </r>
       <r>   11.3638    0.0000 </r>
       <r>   11.4407    0.0000 </r>
       <r>   11.4610    0.0000 </r>
       <r>   11.5007    0.0000 </r>
       <r>   11.6952    0.0000 </r>
       <r>   11.8498    0.0000 </r>
       <r>   11.8885    0.0000 </r>
       <r>   12.1529    0.0000 </r>
       <r>   12.2022    0.0000 </r>
       <r>   12.2528    0.0000 </r>
       <r>   12.2547    0.0000 </r>
       <r>   12.2738    0.0000 </r>
       <r>   12.2905    0.0000 </r>
       <r>   12.3070    0.0000 </r>
       <r>   12.3116    0.0000 </r>
       <r>   12.4272    0.0000 </r>
       <r>   12.4619    0.0000 </r>
       <r>   12.5317    0.0000 </r>
       <r>   12.5604    0.0000 </r>
       <r>   12.6162    0.0000 </r>
       <r>   13.0207    0.0000 </r>
       <r>   13.1513    0.0000 </r>
       <r>   13.1589    0.0000 </r>
       <r>   13.2013    0.0000 </r>
       <r>   13.2958    0.0000 </r>
       <r>   13.3194    0.0000 </r>
       <r>   13.3919    0.0000 </r>
       <r>   13.4419    0.0000 </r>
       <r>   13.5528    0.0000 </r>
       <r>   13.6460    0.0000 </r>
       <r>   13.6950    0.0000 </r>
       <r>   13.7280    0.0000 </r>
       <r>   13.8715    0.0000 </r>
       <r>   13.9149    0.0000 </r>
       <r>   13.9230    0.0000 </r>
       <r>   13.9529    0.0000 </r>
       <r>   13.9774    0.0000 </r>
       <r>   13.9789    0.0000 </r>
       <r>   13.9897    0.0000 </r>
       <r>   14.0056    0.0000 </r>
       <r>   14.0319    0.0000 </r>
       <r>   14.0583    0.0000 </r>
       <r>   14.0799    0.0000 </r>
       <r>   14.1143    0.0000 </r>
       <r>   14.2647    0.0000 </r>
       <r>   14.2896    0.0000 </r>
       <r>   14.3169    0.0000 </r>
       <r>   14.3449    0.0000 </r>
       <r>   14.4407    0.0000 </r>
       <r>   14.5257    0.0000 </r>
       <r>   14.5343    0.0000 </r>
       <r>   14.5514    0.0000 </r>
       <r>   14.5918    0.0000 </r>
       <r>   14.6027    0.0000 </r>
       <r>   14.6312    0.0000 </r>
       <r>   14.6594    0.0000 </r>
       <r>   14.6635    0.0000 </r>
       <r>   14.6999    0.0000 </r>
       <r>   14.7117    0.0000 </r>
       <r>   14.7615    0.0000 </r>
       <r>   15.0908    0.0000 </r>
       <r>   15.1323    0.0000 </r>
       <r>   15.1831    0.0000 </r>
       <r>   15.2129    0.0000 </r>
       <r>   15.2286    0.0000 </r>
       <r>   15.2341    0.0000 </r>
       <r>   15.2842    0.0000 </r>
       <r>   15.3448    0.0000 </r>
       <r>   15.5799    0.0000 </r>
       <r>   15.6183    0.0000 </r>
       <r>   15.6743    0.0000 </r>
      </set>
      <set comment="kpoint 6">
       <r>  -18.5153    1.0000 </r>
       <r>  -18.5041    1.0000 </r>
       <r>  -18.4171    1.0000 </r>
       <r>  -18.3706    1.0000 </r>
       <r>  -17.9475    1.0000 </r>
       <r>  -17.9026    1.0000 </r>
       <r>  -17.8925    1.0000 </r>
       <r>  -17.8767    1.0000 </r>
       <r>  -17.8660    1.0000 </r>
       <r>  -17.8569    1.0000 </r>
       <r>  -17.8305    1.0000 </r>
       <r>  -17.8117    1.0000 </r>
       <r>  -17.8074    1.0000 </r>
       <r>  -17.7374    1.0000 </r>
       <r>  -17.6905    1.0000 </r>
       <r>  -17.6454    1.0000 </r>
       <r>  -17.6154    1.0000 </r>
       <r>  -17.5972    1.0000 </r>
       <r>  -17.5872    1.0000 </r>
       <r>  -17.5657    1.0000 </r>
       <r>  -17.5544    1.0000 </r>
       <r>  -17.5279    1.0000 </r>
       <r>  -17.5167    1.0000 </r>
       <r>  -17.4992    1.0000 </r>
       <r>  -17.4351    1.0000 </r>
       <r>  -17.4058    1.0000 </r>
       <r>  -17.4014    1.0000 </r>
       <r>  -17.3709    1.0000 </r>
       <r>  -17.3635    1.0000 </r>
       <r>  -17.3566    1.0000 </r>
       <r>  -17.3534    1.0000 </r>
       <r>  -17.3468    1.0000 </r>
       <r>  -17.3442    1.0000 </r>
       <r>  -17.3210    1.0000 </r>
       <r>  -17.2901    1.0000 </r>
       <r>  -17.2874    1.0000 </r>
       <r>  -17.2791    1.0000 </r>
       <r>  -17.2707    1.0000 </r>
       <r>  -17.2002    1.0000 </r>
       <r>  -17.1990    1.0000 </r>
       <r>  -17.1743    1.0000 </r>
       <r>  -17.1621    1.0000 </r>
       <r>  -17.1591    1.0000 </r>
       <r>  -17.1543    1.0000 </r>
       <r>  -17.1501    1.0000 </r>
       <r>  -17.1364    1.0000 </r>
       <r>  -17.1081    1.0000 </r>
       <r>  -17.0424    1.0000 </r>
       <r>  -17.0348    1.0000 </r>
       <r>  -17.0132    1.0000 </r>
       <r>  -17.0018    1.0000 </r>
       <r>  -16.9990    1.0000 </r>
       <r>  -16.9962    1.0000 </r>
       <r>  -16.9886    1.0000 </r>
       <r>  -16.9855    1.0000 </r>
       <r>  -16.9664    1.0000 </r>
       <r>  -16.9434    1.0000 </r>
       <r>  -16.9331    1.0000 </r>
       <r>  -16.9299    1.0000 </r>
       <r>  -16.9109    1.0000 </r>
       <r>  -16.9032    1.0000 </r>
       <r>  -16.8926    1.0000 </r>
       <r>  -16.8912    1.0000 </r>
       <r>  -16.8660    1.0000 </r>
       <r>  -16.8452    1.0000 </r>
       <r>  -16.8204    1.0000 </r>
       <r>  -16.8185    1.0000 </r>
       <r>  -16.8085    1.0000 </r>
       <r>  -16.7926    1.0000 </r>
       <r>  -16.7655    1.0000 </r>
       <r>  -16.7440    1.0000 </r>
       <r>  -13.6707    1.0000 </r>
       <r>  -13.1464    1.0000 </r>
       <r>  -13.0957    1.0000 </r>
       <r>  -13.0647    1.0000 </r>
       <r>  -13.0573    1.0000 </r>
       <r>  -13.0508    1.0000 </r>
       <r>  -13.0412    1.0000 </r>
       <r>  -13.0335    1.0000 </r>
       <r>  -13.0204    1.0000 </r>
       <r>  -13.0173    1.0000 </r>
       <r>  -13.0150    1.0000 </r>
       <r>  -13.0121    1.0000 </r>
       <r>  -13.0084    1.0000 </r>
       <r>  -13.0044    1.0000 </r>
       <r>  -12.9998    1.0000 </r>
       <r>  -12.9992    1.0000 </r>
       <r>  -12.9955    1.0000 </r>
       <r>  -12.9815    1.0000 </r>
       <r>  -12.9761    1.0000 </r>
       <r>  -12.9696    1.0000 </r>
       <r>  -12.9628    1.0000 </r>
       <r>  -12.9572    1.0000 </r>
       <r>  -12.9548    1.0000 </r>
       <r>  -12.9529    1.0000 </r>
       <r>  -12.9480    1.0000 </r>
       <r>  -12.9471    1.0000 </r>
       <r>  -12.9420    1.0000 </r>
       <r>  -12.9403    1.0000 </r>
       <r>  -12.9389    1.0000 </r>
       <r>  -12.9370    1.0000 </r>
       <r>  -12.9343    1.0000 </r>
       <r>  -12.9325    1.0000 </r>
       <r>  -12.9309    1.0000 </r>
       <r>  -12.9277    1.0000 </r>
       <r>  -12.9249    1.0000 </r>
       <r>  -12.9225    1.0000 </r>
       <r>  -12.9220    1.0000 </r>
       <r>  -12.9206    1.0000 </r>
       <r>  -12.9178    1.0000 </r>
       <r>  -12.9172    1.0000 </r>
       <r>  -12.9124    1.0000 </r>
       <r>  -12.9102    1.0000 </r>
       <r>  -12.9074    1.0000 </r>
       <r>  -12.9056    1.0000 </r>
       <r>  -12.9044    1.0000 </r>
       <r>  -12.9012    1.0000 </r>
       <r>  -12.8987    1.0000 </r>
       <r>  -12.8945    1.0000 </r>
       <r>  -12.8933    1.0000 </r>
       <r>  -12.8909    1.0000 </r>
       <r>  -12.8878    1.0000 </r>
       <r>  -12.8841    1.0000 </r>
       <r>  -12.8829    1.0000 </r>
       <r>  -12.8804    1.0000 </r>
       <r>  -12.8770    1.0000 </r>
       <r>  -12.8734    1.0000 </r>
       <r>  -12.8707    1.0000 </r>
       <r>  -12.8637    1.0000 </r>
       <r>  -12.8607    1.0000 </r>
       <r>  -12.8545    1.0000 </r>
       <r>  -12.8518    1.0000 </r>
       <r>  -12.8510    1.0000 </r>
       <r>  -12.8484    1.0000 </r>
       <r>  -12.8448    1.0000 </r>
       <r>  -12.8431    1.0000 </r>
       <r>  -12.8425    1.0000 </r>
       <r>  -12.8375    1.0000 </r>
       <r>  -12.8333    1.0000 </r>
       <r>  -12.8290    1.0000 </r>
       <r>  -12.8235    1.0000 </r>
       <r>  -12.8179    1.0000 </r>
       <r>  -12.8159    1.0000 </r>
       <r>  -12.8139    1.0000 </r>
       <r>  -12.8117    1.0000 </r>
       <r>  -12.8082    1.0000 </r>
       <r>  -12.8013    1.0000 </r>
       <r>  -12.7986    1.0000 </r>
       <r>  -12.7955    1.0000 </r>
       <r>  -12.7945    1.0000 </r>
       <r>  -12.7937    1.0000 </r>
       <r>  -12.7902    1.0000 </r>
       <r>  -12.7875    1.0000 </r>
       <r>  -12.7862    1.0000 </r>
       <r>  -12.7829    1.0000 </r>
       <r>  -12.7799    1.0000 </r>
       <r>  -12.7782    1.0000 </r>
       <r>  -12.7761    1.0000 </r>
       <r>  -12.7758    1.0000 </r>
       <r>  -12.7738    1.0000 </r>
       <r>  -12.7717    1.0000 </r>
       <r>  -12.7688    1.0000 </r>
       <r>  -12.7669    1.0000 </r>
       <r>  -12.7659    1.0000 </r>
       <r>  -12.7644    1.0000 </r>
       <r>  -12.7610    1.0000 </r>
       <r>  -12.7595    1.0000 </r>
       <r>  -12.7588    1.0000 </r>
       <r>  -12.7539    1.0000 </r>
       <r>  -12.7519    1.0000 </r>
       <r>  -12.7479    1.0000 </r>
       <r>  -12.7450    1.0000 </r>
       <r>  -12.7436    1.0000 </r>
       <r>  -12.7385    1.0000 </r>
       <r>  -12.7377    1.0000 </r>
       <r>  -12.7353    1.0000 </r>
       <r>  -12.7324    1.0000 </r>
       <r>  -12.7272    1.0000 </r>
       <r>  -12.7224    1.0000 </r>
       <r>  -12.7212    1.0000 </r>
       <r>  -12.7198    1.0000 </r>
       <r>  -12.7160    1.0000 </r>
       <r>  -12.7145    1.0000 </r>
       <r>  -12.7138    1.0000 </r>
       <r>  -12.7090    1.0000 </r>
       <r>  -12.7055    1.0000 </r>
       <r>  -12.7009    1.0000 </r>
       <r>  -12.6961    1.0000 </r>
       <r>  -12.6951    1.0000 </r>
       <r>  -12.6921    1.0000 </r>
       <r>  -12.6907    1.0000 </r>
       <r>  -12.6860    1.0000 </r>
       <r>  -12.6853    1.0000 </r>
       <r>  -12.6817    1.0000 </r>
       <r>  -12.6789    1.0000 </r>
       <r>  -12.6746    1.0000 </r>
       <r>  -12.6722    1.0000 </r>
       <r>  -12.6679    1.0000 </r>
       <r>  -12.6659    1.0000 </r>
       <r>  -12.6618    1.0000 </r>
       <r>  -12.6609    1.0000 </r>
       <r>  -12.6529    1.0000 </r>
       <r>  -12.6506    1.0000 </r>
       <r>  -12.6478    1.0000 </r>
       <r>  -12.6466    1.0000 </r>
       <r>  -12.6435    1.0000 </r>
       <r>  -12.6431    1.0000 </r>
       <r>  -12.6403    1.0000 </r>
       <r>  -12.6367    1.0000 </r>
       <r>  -12.6305    1.0000 </r>
       <r>  -12.6299    1.0000 </r>
       <r>  -12.6280    1.0000 </r>
       <r>  -12.6244    1.0000 </r>
       <r>  -12.6233    1.0000 </r>
       <r>  -12.6216    1.0000 </r>
       <r>  -12.6206    1.0000 </r>
       <r>  -12.6177    1.0000 </r>
       <r>  -12.6156    1.0000 </r>
       <r>  -12.6138    1.0000 </r>
       <r>  -12.6095    1.0000 </r>
       <r>  -12.6092    1.0000 </r>
       <r>  -12.6079    1.0000 </r>
       <r>  -12.6050    1.0000 </r>
       <r>  -12.6036    1.0000 </r>
       <r>  -12.6029    1.0000 </r>
       <r>  -12.5989    1.0000 </r>
       <r>  -12.5974    1.0000 </r>
       <r>  -12.5941    1.0000 </r>
       <r>  -12.5927    1.0000 </r>
       <r>  -12.5916    1.0000 </r>
       <r>  -12.5896    1.0000 </r>
       <r>  -12.5874    1.0000 </r>
       <r>  -12.5851    1.0000 </r>
       <r>  -12.5817    1.0000 </r>
       <r>  -12.5808    1.0000 </r>
       <r>  -12.5804    1.0000 </r>
       <r>  -12.5773    1.0000 </r>
       <r>  -12.5753    1.0000 </r>
       <r>  -12.5719    1.0000 </r>
       <r>  -12.5700    1.0000 </r>
       <r>  -12.5643    1.0000 </r>
       <r>  -12.5587    1.0000 </r>
       <r>  -12.5571    1.0000 </r>
       <r>  -12.5547    1.0000 </r>
       <r>  -12.5498    1.0000 </r>
       <r>  -12.5422    1.0000 </r>
       <r>  -12.5388    1.0000 </r>
       <r>  -12.5370    1.0000 </r>
       <r>  -12.5310    1.0000 </r>
       <r>  -12.5278    1.0000 </r>
       <r>  -12.5229    1.0000 </r>
       <r>  -12.5155    1.0000 </r>
       <r>  -12.5086    1.0000 </r>
       <r>  -12.5059    1.0000 </r>
       <r>  -12.4936    1.0000 </r>
       <r>  -12.4802    1.0000 </r>
       <r>  -12.4724    1.0000 </r>
       <r>  -12.4680    1.0000 </r>
       <r>  -12.4602    1.0000 </r>
       <r>  -12.4411    1.0000 </r>
       <r>  -12.4367    1.0000 </r>
       <r>  -12.4319    1.0000 </r>
       <r>  -12.4163    1.0000 </r>
       <r>  -12.4127    1.0000 </r>
       <r>  -12.3968    1.0000 </r>
       <r>  -12.3862    1.0000 </r>
       <r>  -12.3683    1.0000 </r>
       <r>  -12.3535    1.0000 </r>
       <r>  -12.3425    1.0000 </r>
       <r>  -12.3171    1.0000 </r>
       <r>  -12.3046    1.0000 </r>
       <r>  -12.3004    1.0000 </r>
       <r>  -12.2852    1.0000 </r>
       <r>  -12.2819    1.0000 </r>
       <r>  -12.2551    1.0000 </r>
       <r>  -12.2482    1.0000 </r>
       <r>  -12.2308    1.0000 </r>
       <r>  -12.2219    1.0000 </r>
       <r>  -12.1878    1.0000 </r>
       <r>  -12.1637    1.0000 </r>
       <r>  -12.1521    1.0000 </r>
       <r>  -12.1211    1.0000 </r>
       <r>  -12.0671    1.0000 </r>
       <r>  -12.0380    1.0000 </r>
       <r>  -11.9922    1.0000 </r>
       <r>  -11.9814    1.0000 </r>
       <r>  -11.9780    1.0000 </r>
       <r>  -11.9612    1.0000 </r>
       <r>  -11.9548    1.0000 </r>
       <r>  -11.9465    1.0000 </r>
       <r>  -11.9276    1.0000 </r>
       <r>  -11.9244    1.0000 </r>
       <r>  -11.9153    1.0000 </r>
       <r>  -11.8982    1.0000 </r>
       <r>  -11.8880    1.0000 </r>
       <r>  -11.8756    1.0000 </r>
       <r>  -11.8700    1.0000 </r>
       <r>  -11.8595    1.0000 </r>
       <r>  -11.8549    1.0000 </r>
       <r>  -11.8511    1.0000 </r>
       <r>  -11.7804    1.0000 </r>
       <r>  -11.7619    1.0000 </r>
       <r>  -11.7585    1.0000 </r>
       <r>  -11.7413    1.0000 </r>
       <r>  -11.7340    1.0000 </r>
       <r>  -11.6993    1.0000 </r>
       <r>  -10.6752    1.0000 </r>
       <r>   -4.9823    1.0000 </r>
       <r>   -4.9557    1.0000 </r>
       <r>   -4.5920    1.0000 </r>
       <r>   -4.5319    1.0000 </r>
       <r>   -4.5207    1.0000 </r>
       <r>   -4.5072    1.0000 </r>
       <r>   -4.4770    1.0000 </r>
       <r>   -4.4625    1.0000 </r>
       <r>   -4.4351    1.0000 </r>
       <r>   -4.4141    1.0000 </r>
       <r>   -4.3949    1.0000 </r>
       <r>   -4.3543    1.0000 </r>
       <r>   -4.2435    1.0000 </r>
       <r>   -4.2290    1.0000 </r>
       <r>   -4.2220    1.0000 </r>
       <r>   -4.2073    1.0000 </r>
       <r>   -4.1193    1.0000 </r>
       <r>   -4.1042    1.0000 </r>
       <r>   -4.0741    1.0000 </r>
       <r>   -4.0613    1.0000 </r>
       <r>   -3.9829    1.0000 </r>
       <r>   -3.9704    1.0000 </r>
       <r>   -3.9511    1.0000 </r>
       <r>   -3.9262    1.0000 </r>
       <r>   -3.9203    1.0000 </r>
       <r>   -3.8663    1.0000 </r>
       <r>   -3.7943    1.0000 </r>
       <r>   -3.7803    1.0000 </r>
       <r>   -3.7563    1.0000 </r>
       <r>   -3.7397    1.0000 </r>
       <r>   -3.6947    1.0000 </r>
       <r>   -3.5787    1.0000 </r>
       <r>   -3.3404    1.0000 </r>
       <r>   -3.2703    1.0000 </r>
       <r>   -3.2189    1.0000 </r>
       <r>   -3.1350    1.0000 </r>
       <r>   -3.0908    1.0000 </r>
       <r>   -3.0655    1.0000 </r>
       <r>   -3.0466    1.0000 </r>
       <r>   -3.0401    1.0000 </r>
       <r>   -3.0193    1.0000 </r>
       <r>   -3.0128    1.0000 </r>
       <r>   -3.0058    1.0000 </r>
       <r>   -2.9640    1.0000 </r>
       <r>   -2.7713    1.0000 </r>
       <r>   -2.7230    1.0000 </r>
       <r>   -2.6944    1.0000 </r>
       <r>   -2.6710    1.0000 </r>
       <r>   -2.5185    1.0000 </r>
       <r>   -2.4382    1.0000 </r>
       <r>   -2.4024    1.0000 </r>
       <r>   -2.3743    1.0000 </r>
       <r>   -2.3625    1.0000 </r>
       <r>   -2.3171    1.0000 </r>
       <r>   -2.2664    1.0000 </r>
       <r>   -2.2474    1.0000 </r>
       <r>   -2.2313    1.0000 </r>
       <r>   -2.1331    1.0000 </r>
       <r>   -2.0941    1.0000 </r>
       <r>   -2.0722    1.0000 </r>
       <r>   -2.0452    1.0000 </r>
       <r>   -1.9623    1.0000 </r>
       <r>   -1.9385    1.0000 </r>
       <r>   -1.8779    1.0000 </r>
       <r>   -1.8171    1.0000 </r>
       <r>   -1.7703    1.0000 </r>
       <r>   -1.7483    1.0000 </r>
       <r>   -1.7170    1.0000 </r>
       <r>   -1.6981    1.0000 </r>
       <r>   -1.6883    1.0000 </r>
       <r>   -1.6846    1.0000 </r>
       <r>   -1.6557    1.0000 </r>
       <r>   -1.6141    1.0000 </r>
       <r>   -1.5865    1.0000 </r>
       <r>   -1.5475    1.0000 </r>
       <r>   -1.5213    1.0000 </r>
       <r>   -1.4498    1.0000 </r>
       <r>   -1.4406    1.0000 </r>
       <r>   -1.4138    1.0000 </r>
       <r>   -1.3973    1.0000 </r>
       <r>   -1.3663    1.0000 </r>
       <r>   -1.3406    1.0000 </r>
       <r>   -1.3308    1.0000 </r>
       <r>   -1.2986    1.0000 </r>
       <r>   -1.2493    1.0000 </r>
       <r>   -1.2369    1.0000 </r>
       <r>   -1.2023    1.0000 </r>
       <r>   -1.1144    1.0000 </r>
       <r>   -1.0805    1.0000 </r>
       <r>   -1.0180    1.0000 </r>
       <r>   -0.9619    1.0000 </r>
       <r>   -0.9478    1.0000 </r>
       <r>   -0.9208    1.0000 </r>
       <r>   -0.8997    1.0000 </r>
       <r>   -0.8857    1.0000 </r>
       <r>   -0.8538    1.0000 </r>
       <r>   -0.8385    1.0000 </r>
       <r>   -0.8061    1.0000 </r>
       <r>   -0.7894    1.0000 </r>
       <r>   -0.7698    1.0000 </r>
       <r>   -0.7068    1.0000 </r>
       <r>   -0.6374    1.0000 </r>
       <r>   -0.5897    1.0000 </r>
       <r>   -0.5056    1.0000 </r>
       <r>   -0.4571    1.0000 </r>
       <r>   -0.4311    1.0000 </r>
       <r>   -0.3655    1.0000 </r>
       <r>   -0.3032    1.0000 </r>
       <r>   -0.2895    1.0000 </r>
       <r>   -0.2824    1.0000 </r>
       <r>   -0.2632    1.0000 </r>
       <r>   -0.2559    1.0000 </r>
       <r>   -0.2377    1.0000 </r>
       <r>   -0.2015    1.0000 </r>
       <r>   -0.1728    1.0000 </r>
       <r>   -0.1584    1.0000 </r>
       <r>   -0.1539    1.0000 </r>
       <r>   -0.1280    1.0000 </r>
       <r>   -0.0979    1.0000 </r>
       <r>   -0.0787    1.0000 </r>
       <r>   -0.0691    1.0000 </r>
       <r>   -0.0323    1.0000 </r>
       <r>   -0.0081    1.0000 </r>
       <r>    0.0023    1.0000 </r>
       <r>    0.0307    1.0000 </r>
       <r>    0.0562    1.0000 </r>
       <r>    0.1034    1.0000 </r>
       <r>    0.1231    1.0000 </r>
       <r>    0.1335    1.0000 </r>
       <r>    0.1465    1.0000 </r>
       <r>    0.1696    1.0000 </r>
       <r>    0.1886    1.0000 </r>
       <r>    0.2253    1.0000 </r>
       <r>    0.2315    1.0000 </r>
       <r>    0.2801    1.0000 </r>
       <r>    0.2969    1.0000 </r>
       <r>    0.3163    1.0000 </r>
       <r>    0.3272    1.0000 </r>
       <r>    0.3814    1.0000 </r>
       <r>    0.4002    1.0000 </r>
       <r>    0.4116    1.0000 </r>
       <r>    0.4342    1.0000 </r>
       <r>    0.4855    1.0000 </r>
       <r>    0.5191    1.0000 </r>
       <r>    0.5459    1.0000 </r>
       <r>    0.5572    1.0000 </r>
       <r>    0.5805    1.0000 </r>
       <r>    0.5995    1.0000 </r>
       <r>    0.6425    1.0000 </r>
       <r>    0.6547    1.0000 </r>
       <r>    0.6570    1.0000 </r>
       <r>    0.6698    1.0000 </r>
       <r>    0.6963    1.0000 </r>
       <r>    0.7127    1.0000 </r>
       <r>    0.7394    1.0000 </r>
       <r>    0.7670    1.0000 </r>
       <r>    0.8010    1.0000 </r>
       <r>    0.8262    1.0000 </r>
       <r>    0.8516    1.0000 </r>
       <r>    0.8650    1.0000 </r>
       <r>    0.8854    1.0000 </r>
       <r>    0.9246    1.0000 </r>
       <r>    0.9540    1.0000 </r>
       <r>    0.9784    1.0000 </r>
       <r>    1.0044    1.0000 </r>
       <r>    1.0210    1.0000 </r>
       <r>    1.0288    1.0000 </r>
       <r>    1.0483    1.0000 </r>
       <r>    1.0823    1.0000 </r>
       <r>    1.1040    1.0000 </r>
       <r>    1.1201    1.0000 </r>
       <r>    1.1344    1.0000 </r>
       <r>    1.1390    1.0000 </r>
       <r>    1.1518    1.0000 </r>
       <r>    1.1750    1.0000 </r>
       <r>    1.2209    1.0000 </r>
       <r>    1.2468    1.0000 </r>
       <r>    1.2494    1.0000 </r>
       <r>    1.2616    1.0000 </r>
       <r>    1.2812    1.0000 </r>
       <r>    1.2947    1.0000 </r>
       <r>    1.3104    1.0000 </r>
       <r>    1.3342    1.0000 </r>
       <r>    1.3673    1.0000 </r>
       <r>    1.3751    1.0000 </r>
       <r>    1.3880    1.0000 </r>
       <r>    1.3969    1.0000 </r>
       <r>    1.4283    1.0000 </r>
       <r>    1.4460    1.0000 </r>
       <r>    1.4545    1.0000 </r>
       <r>    1.4584    1.0000 </r>
       <r>    1.4658    1.0000 </r>
       <r>    1.4870    1.0000 </r>
       <r>    1.4932    1.0000 </r>
       <r>    1.5191    1.0000 </r>
       <r>    1.5568    1.0000 </r>
       <r>    1.5736    1.0000 </r>
       <r>    1.5851    1.0000 </r>
       <r>    1.5869    1.0000 </r>
       <r>    1.6025    1.0000 </r>
       <r>    1.6122    1.0000 </r>
       <r>    1.6371    1.0000 </r>
       <r>    1.6483    1.0000 </r>
       <r>    1.6697    1.0000 </r>
       <r>    1.7121    1.0000 </r>
       <r>    1.7290    1.0000 </r>
       <r>    1.7425    1.0000 </r>
       <r>    1.7517    1.0000 </r>
       <r>    1.7670    1.0000 </r>
       <r>    1.7716    1.0000 </r>
       <r>    1.7957    1.0000 </r>
       <r>    1.8398    1.0000 </r>
       <r>    1.9485    1.0000 </r>
       <r>    1.9572    1.0000 </r>
       <r>    1.9954    1.0000 </r>
       <r>    2.0451    1.0000 </r>
       <r>    2.2256    1.0000 </r>
       <r>    2.4843    1.0000 </r>
       <r>    5.0843    0.0000 </r>
       <r>    6.8546    0.0000 </r>
       <r>    7.0524    0.0000 </r>
       <r>    7.9413    0.0000 </r>
       <r>    8.0123    0.0000 </r>
       <r>    8.4995    0.0000 </r>
       <r>    8.5886    0.0000 </r>
       <r>   10.2335    0.0000 </r>
       <r>   10.2490    0.0000 </r>
       <r>   10.3805    0.0000 </r>
       <r>   10.4015    0.0000 </r>
       <r>   10.6041    0.0000 </r>
       <r>   10.6148    0.0000 </r>
       <r>   10.6279    0.0000 </r>
       <r>   10.6307    0.0000 </r>
       <r>   10.6374    0.0000 </r>
       <r>   10.6414    0.0000 </r>
       <r>   10.6633    0.0000 </r>
       <r>   10.6784    0.0000 </r>
       <r>   10.6960    0.0000 </r>
       <r>   10.7404    0.0000 </r>
       <r>   10.7678    0.0000 </r>
       <r>   10.7936    0.0000 </r>
       <r>   10.8692    0.0000 </r>
       <r>   10.8736    0.0000 </r>
       <r>   10.9753    0.0000 </r>
       <r>   11.0059    0.0000 </r>
       <r>   11.0836    0.0000 </r>
       <r>   11.1255    0.0000 </r>
       <r>   11.1704    0.0000 </r>
       <r>   11.2130    0.0000 </r>
       <r>   11.2435    0.0000 </r>
       <r>   11.2968    0.0000 </r>
       <r>   11.3557    0.0000 </r>
       <r>   11.4439    0.0000 </r>
       <r>   11.6275    0.0000 </r>
       <r>   11.6485    0.0000 </r>
       <r>   11.6713    0.0000 </r>
       <r>   11.7062    0.0000 </r>
       <r>   11.7696    0.0000 </r>
       <r>   11.8274    0.0000 </r>
       <r>   11.9713    0.0000 </r>
       <r>   12.0064    0.0000 </r>
       <r>   12.0321    0.0000 </r>
       <r>   12.1938    0.0000 </r>
       <r>   12.4607    0.0000 </r>
       <r>   12.5118    0.0000 </r>
       <r>   12.5780    0.0000 </r>
       <r>   12.5967    0.0000 </r>
       <r>   12.6043    0.0000 </r>
       <r>   12.6373    0.0000 </r>
       <r>   12.6703    0.0000 </r>
       <r>   12.6970    0.0000 </r>
       <r>   12.7306    0.0000 </r>
       <r>   12.8747    0.0000 </r>
       <r>   12.9580    0.0000 </r>
       <r>   13.0821    0.0000 </r>
       <r>   13.1025    0.0000 </r>
       <r>   13.2578    0.0000 </r>
       <r>   13.3054    0.0000 </r>
       <r>   13.3325    0.0000 </r>
       <r>   13.3628    0.0000 </r>
       <r>   13.4819    0.0000 </r>
       <r>   13.5097    0.0000 </r>
       <r>   13.5561    0.0000 </r>
       <r>   13.6085    0.0000 </r>
       <r>   13.6530    0.0000 </r>
       <r>   13.6914    0.0000 </r>
       <r>   13.7203    0.0000 </r>
       <r>   13.7576    0.0000 </r>
       <r>   13.8053    0.0000 </r>
       <r>   13.8158    0.0000 </r>
       <r>   13.8715    0.0000 </r>
       <r>   13.8894    0.0000 </r>
       <r>   13.9605    0.0000 </r>
       <r>   14.0346    0.0000 </r>
       <r>   14.1065    0.0000 </r>
       <r>   14.1591    0.0000 </r>
       <r>   14.2809    0.0000 </r>
       <r>   14.3916    0.0000 </r>
       <r>   14.4027    0.0000 </r>
       <r>   14.4170    0.0000 </r>
       <r>   14.4264    0.0000 </r>
       <r>   14.4429    0.0000 </r>
       <r>   14.4472    0.0000 </r>
       <r>   14.4947    0.0000 </r>
       <r>   14.5047    0.0000 </r>
       <r>   14.5343    0.0000 </r>
       <r>   14.6244    0.0000 </r>
       <r>   14.6998    0.0000 </r>
       <r>   14.8597    0.0000 </r>
       <r>   14.8711    0.0000 </r>
       <r>   14.9273    0.0000 </r>
       <r>   14.9432    0.0000 </r>
       <r>   15.0952    0.0000 </r>
       <r>   15.1148    0.0000 </r>
       <r>   15.1677    0.0000 </r>
       <r>   15.1728    0.0000 </r>
       <r>   15.4574    0.0000 </r>
       <r>   15.4743    0.0000 </r>
       <r>   15.5170    0.0000 </r>
       <r>   15.5876    0.0000 </r>
       <r>   15.6637    0.0000 </r>
       <r>   15.7113    0.0000 </r>
       <r>   15.7364    0.0000 </r>
      </set>
      <set comment="kpoint 7">
       <r>  -18.3981    1.0000 </r>
       <r>  -18.3822    1.0000 </r>
       <r>  -18.3704    1.0000 </r>
       <r>  -18.3111    1.0000 </r>
       <r>  -18.1520    1.0000 </r>
       <r>  -18.1404    1.0000 </r>
       <r>  -18.1277    1.0000 </r>
       <r>  -18.0269    1.0000 </r>
       <r>  -17.9129    1.0000 </r>
       <r>  -17.8824    1.0000 </r>
       <r>  -17.8714    1.0000 </r>
       <r>  -17.8414    1.0000 </r>
       <r>  -17.6370    1.0000 </r>
       <r>  -17.6181    1.0000 </r>
       <r>  -17.6083    1.0000 </r>
       <r>  -17.5970    1.0000 </r>
       <r>  -17.5615    1.0000 </r>
       <r>  -17.5457    1.0000 </r>
       <r>  -17.5325    1.0000 </r>
       <r>  -17.5186    1.0000 </r>
       <r>  -17.5115    1.0000 </r>
       <r>  -17.5012    1.0000 </r>
       <r>  -17.4931    1.0000 </r>
       <r>  -17.4631    1.0000 </r>
       <r>  -17.4508    1.0000 </r>
       <r>  -17.4411    1.0000 </r>
       <r>  -17.4353    1.0000 </r>
       <r>  -17.3890    1.0000 </r>
       <r>  -17.3820    1.0000 </r>
       <r>  -17.3806    1.0000 </r>
       <r>  -17.3601    1.0000 </r>
       <r>  -17.3497    1.0000 </r>
       <r>  -17.2807    1.0000 </r>
       <r>  -17.2755    1.0000 </r>
       <r>  -17.2689    1.0000 </r>
       <r>  -17.2618    1.0000 </r>
       <r>  -17.2511    1.0000 </r>
       <r>  -17.2386    1.0000 </r>
       <r>  -17.2264    1.0000 </r>
       <r>  -17.2117    1.0000 </r>
       <r>  -17.2035    1.0000 </r>
       <r>  -17.1974    1.0000 </r>
       <r>  -17.1780    1.0000 </r>
       <r>  -17.1642    1.0000 </r>
       <r>  -17.1518    1.0000 </r>
       <r>  -17.1447    1.0000 </r>
       <r>  -17.1210    1.0000 </r>
       <r>  -17.0683    1.0000 </r>
       <r>  -17.0604    1.0000 </r>
       <r>  -17.0488    1.0000 </r>
       <r>  -17.0415    1.0000 </r>
       <r>  -16.9940    1.0000 </r>
       <r>  -16.9863    1.0000 </r>
       <r>  -16.9751    1.0000 </r>
       <r>  -16.9654    1.0000 </r>
       <r>  -16.9618    1.0000 </r>
       <r>  -16.9360    1.0000 </r>
       <r>  -16.9337    1.0000 </r>
       <r>  -16.9245    1.0000 </r>
       <r>  -16.9201    1.0000 </r>
       <r>  -16.8973    1.0000 </r>
       <r>  -16.8788    1.0000 </r>
       <r>  -16.8625    1.0000 </r>
       <r>  -16.8485    1.0000 </r>
       <r>  -16.8431    1.0000 </r>
       <r>  -16.8359    1.0000 </r>
       <r>  -16.8185    1.0000 </r>
       <r>  -16.8070    1.0000 </r>
       <r>  -16.7976    1.0000 </r>
       <r>  -16.7612    1.0000 </r>
       <r>  -16.7513    1.0000 </r>
       <r>  -13.6685    1.0000 </r>
       <r>  -13.1392    1.0000 </r>
       <r>  -13.1201    1.0000 </r>
       <r>  -13.0521    1.0000 </r>
       <r>  -13.0498    1.0000 </r>
       <r>  -13.0406    1.0000 </r>
       <r>  -13.0320    1.0000 </r>
       <r>  -13.0250    1.0000 </r>
       <r>  -13.0244    1.0000 </r>
       <r>  -13.0196    1.0000 </r>
       <r>  -13.0148    1.0000 </r>
       <r>  -13.0076    1.0000 </r>
       <r>  -13.0053    1.0000 </r>
       <r>  -13.0009    1.0000 </r>
       <r>  -12.9995    1.0000 </r>
       <r>  -12.9969    1.0000 </r>
       <r>  -12.9938    1.0000 </r>
       <r>  -12.9903    1.0000 </r>
       <r>  -12.9858    1.0000 </r>
       <r>  -12.9850    1.0000 </r>
       <r>  -12.9797    1.0000 </r>
       <r>  -12.9766    1.0000 </r>
       <r>  -12.9728    1.0000 </r>
       <r>  -12.9687    1.0000 </r>
       <r>  -12.9646    1.0000 </r>
       <r>  -12.9578    1.0000 </r>
       <r>  -12.9560    1.0000 </r>
       <r>  -12.9501    1.0000 </r>
       <r>  -12.9440    1.0000 </r>
       <r>  -12.9422    1.0000 </r>
       <r>  -12.9410    1.0000 </r>
       <r>  -12.9396    1.0000 </r>
       <r>  -12.9356    1.0000 </r>
       <r>  -12.9338    1.0000 </r>
       <r>  -12.9292    1.0000 </r>
       <r>  -12.9276    1.0000 </r>
       <r>  -12.9214    1.0000 </r>
       <r>  -12.9185    1.0000 </r>
       <r>  -12.9173    1.0000 </r>
       <r>  -12.9147    1.0000 </r>
       <r>  -12.9139    1.0000 </r>
       <r>  -12.9103    1.0000 </r>
       <r>  -12.9080    1.0000 </r>
       <r>  -12.9072    1.0000 </r>
       <r>  -12.9059    1.0000 </r>
       <r>  -12.9029    1.0000 </r>
       <r>  -12.9017    1.0000 </r>
       <r>  -12.8998    1.0000 </r>
       <r>  -12.8988    1.0000 </r>
       <r>  -12.8944    1.0000 </r>
       <r>  -12.8916    1.0000 </r>
       <r>  -12.8890    1.0000 </r>
       <r>  -12.8872    1.0000 </r>
       <r>  -12.8861    1.0000 </r>
       <r>  -12.8800    1.0000 </r>
       <r>  -12.8739    1.0000 </r>
       <r>  -12.8726    1.0000 </r>
       <r>  -12.8713    1.0000 </r>
       <r>  -12.8666    1.0000 </r>
       <r>  -12.8636    1.0000 </r>
       <r>  -12.8602    1.0000 </r>
       <r>  -12.8572    1.0000 </r>
       <r>  -12.8525    1.0000 </r>
       <r>  -12.8479    1.0000 </r>
       <r>  -12.8408    1.0000 </r>
       <r>  -12.8379    1.0000 </r>
       <r>  -12.8326    1.0000 </r>
       <r>  -12.8324    1.0000 </r>
       <r>  -12.8292    1.0000 </r>
       <r>  -12.8270    1.0000 </r>
       <r>  -12.8185    1.0000 </r>
       <r>  -12.8158    1.0000 </r>
       <r>  -12.8131    1.0000 </r>
       <r>  -12.8090    1.0000 </r>
       <r>  -12.8070    1.0000 </r>
       <r>  -12.8008    1.0000 </r>
       <r>  -12.7968    1.0000 </r>
       <r>  -12.7951    1.0000 </r>
       <r>  -12.7933    1.0000 </r>
       <r>  -12.7913    1.0000 </r>
       <r>  -12.7888    1.0000 </r>
       <r>  -12.7862    1.0000 </r>
       <r>  -12.7857    1.0000 </r>
       <r>  -12.7839    1.0000 </r>
       <r>  -12.7814    1.0000 </r>
       <r>  -12.7776    1.0000 </r>
       <r>  -12.7766    1.0000 </r>
       <r>  -12.7739    1.0000 </r>
       <r>  -12.7708    1.0000 </r>
       <r>  -12.7690    1.0000 </r>
       <r>  -12.7660    1.0000 </r>
       <r>  -12.7635    1.0000 </r>
       <r>  -12.7616    1.0000 </r>
       <r>  -12.7599    1.0000 </r>
       <r>  -12.7581    1.0000 </r>
       <r>  -12.7554    1.0000 </r>
       <r>  -12.7491    1.0000 </r>
       <r>  -12.7482    1.0000 </r>
       <r>  -12.7441    1.0000 </r>
       <r>  -12.7419    1.0000 </r>
       <r>  -12.7385    1.0000 </r>
       <r>  -12.7372    1.0000 </r>
       <r>  -12.7349    1.0000 </r>
       <r>  -12.7326    1.0000 </r>
       <r>  -12.7298    1.0000 </r>
       <r>  -12.7285    1.0000 </r>
       <r>  -12.7273    1.0000 </r>
       <r>  -12.7256    1.0000 </r>
       <r>  -12.7250    1.0000 </r>
       <r>  -12.7225    1.0000 </r>
       <r>  -12.7201    1.0000 </r>
       <r>  -12.7194    1.0000 </r>
       <r>  -12.7180    1.0000 </r>
       <r>  -12.7151    1.0000 </r>
       <r>  -12.7137    1.0000 </r>
       <r>  -12.7082    1.0000 </r>
       <r>  -12.7067    1.0000 </r>
       <r>  -12.7036    1.0000 </r>
       <r>  -12.7024    1.0000 </r>
       <r>  -12.6988    1.0000 </r>
       <r>  -12.6981    1.0000 </r>
       <r>  -12.6940    1.0000 </r>
       <r>  -12.6921    1.0000 </r>
       <r>  -12.6885    1.0000 </r>
       <r>  -12.6799    1.0000 </r>
       <r>  -12.6752    1.0000 </r>
       <r>  -12.6739    1.0000 </r>
       <r>  -12.6671    1.0000 </r>
       <r>  -12.6587    1.0000 </r>
       <r>  -12.6578    1.0000 </r>
       <r>  -12.6537    1.0000 </r>
       <r>  -12.6519    1.0000 </r>
       <r>  -12.6487    1.0000 </r>
       <r>  -12.6455    1.0000 </r>
       <r>  -12.6436    1.0000 </r>
       <r>  -12.6375    1.0000 </r>
       <r>  -12.6321    1.0000 </r>
       <r>  -12.6293    1.0000 </r>
       <r>  -12.6278    1.0000 </r>
       <r>  -12.6246    1.0000 </r>
       <r>  -12.6228    1.0000 </r>
       <r>  -12.6201    1.0000 </r>
       <r>  -12.6171    1.0000 </r>
       <r>  -12.6123    1.0000 </r>
       <r>  -12.6104    1.0000 </r>
       <r>  -12.6088    1.0000 </r>
       <r>  -12.6057    1.0000 </r>
       <r>  -12.6011    1.0000 </r>
       <r>  -12.5987    1.0000 </r>
       <r>  -12.5980    1.0000 </r>
       <r>  -12.5968    1.0000 </r>
       <r>  -12.5933    1.0000 </r>
       <r>  -12.5915    1.0000 </r>
       <r>  -12.5881    1.0000 </r>
       <r>  -12.5877    1.0000 </r>
       <r>  -12.5835    1.0000 </r>
       <r>  -12.5808    1.0000 </r>
       <r>  -12.5771    1.0000 </r>
       <r>  -12.5764    1.0000 </r>
       <r>  -12.5740    1.0000 </r>
       <r>  -12.5726    1.0000 </r>
       <r>  -12.5706    1.0000 </r>
       <r>  -12.5667    1.0000 </r>
       <r>  -12.5618    1.0000 </r>
       <r>  -12.5613    1.0000 </r>
       <r>  -12.5561    1.0000 </r>
       <r>  -12.5538    1.0000 </r>
       <r>  -12.5525    1.0000 </r>
       <r>  -12.5489    1.0000 </r>
       <r>  -12.5474    1.0000 </r>
       <r>  -12.5463    1.0000 </r>
       <r>  -12.5446    1.0000 </r>
       <r>  -12.5397    1.0000 </r>
       <r>  -12.5390    1.0000 </r>
       <r>  -12.5351    1.0000 </r>
       <r>  -12.5334    1.0000 </r>
       <r>  -12.5278    1.0000 </r>
       <r>  -12.5268    1.0000 </r>
       <r>  -12.5251    1.0000 </r>
       <r>  -12.5197    1.0000 </r>
       <r>  -12.5168    1.0000 </r>
       <r>  -12.5124    1.0000 </r>
       <r>  -12.5096    1.0000 </r>
       <r>  -12.5014    1.0000 </r>
       <r>  -12.4986    1.0000 </r>
       <r>  -12.4899    1.0000 </r>
       <r>  -12.4798    1.0000 </r>
       <r>  -12.4666    1.0000 </r>
       <r>  -12.4407    1.0000 </r>
       <r>  -12.4323    1.0000 </r>
       <r>  -12.4137    1.0000 </r>
       <r>  -12.4009    1.0000 </r>
       <r>  -12.3983    1.0000 </r>
       <r>  -12.3793    1.0000 </r>
       <r>  -12.3556    1.0000 </r>
       <r>  -12.3535    1.0000 </r>
       <r>  -12.3503    1.0000 </r>
       <r>  -12.3414    1.0000 </r>
       <r>  -12.3258    1.0000 </r>
       <r>  -12.3196    1.0000 </r>
       <r>  -12.3043    1.0000 </r>
       <r>  -12.3038    1.0000 </r>
       <r>  -12.2913    1.0000 </r>
       <r>  -12.2720    1.0000 </r>
       <r>  -12.2481    1.0000 </r>
       <r>  -12.2418    1.0000 </r>
       <r>  -12.2182    1.0000 </r>
       <r>  -12.2091    1.0000 </r>
       <r>  -12.1548    1.0000 </r>
       <r>  -12.1492    1.0000 </r>
       <r>  -12.1402    1.0000 </r>
       <r>  -12.1251    1.0000 </r>
       <r>  -12.0891    1.0000 </r>
       <r>  -12.0553    1.0000 </r>
       <r>  -12.0395    1.0000 </r>
       <r>  -12.0367    1.0000 </r>
       <r>  -12.0207    1.0000 </r>
       <r>  -12.0107    1.0000 </r>
       <r>  -11.9993    1.0000 </r>
       <r>  -11.9906    1.0000 </r>
       <r>  -11.9684    1.0000 </r>
       <r>  -11.9550    1.0000 </r>
       <r>  -11.9391    1.0000 </r>
       <r>  -11.9028    1.0000 </r>
       <r>  -11.8130    1.0000 </r>
       <r>  -11.8000    1.0000 </r>
       <r>  -11.7927    1.0000 </r>
       <r>  -11.7903    1.0000 </r>
       <r>  -11.7874    1.0000 </r>
       <r>  -11.7750    1.0000 </r>
       <r>  -11.7528    1.0000 </r>
       <r>  -11.7283    1.0000 </r>
       <r>  -11.6983    1.0000 </r>
       <r>  -11.6740    1.0000 </r>
       <r>  -11.6728    1.0000 </r>
       <r>  -10.6739    1.0000 </r>
       <r>   -4.8032    1.0000 </r>
       <r>   -4.7750    1.0000 </r>
       <r>   -4.7228    1.0000 </r>
       <r>   -4.7099    1.0000 </r>
       <r>   -4.7027    1.0000 </r>
       <r>   -4.6947    1.0000 </r>
       <r>   -4.6735    1.0000 </r>
       <r>   -4.6596    1.0000 </r>
       <r>   -4.5526    1.0000 </r>
       <r>   -4.5337    1.0000 </r>
       <r>   -4.5073    1.0000 </r>
       <r>   -4.4788    1.0000 </r>
       <r>   -4.4648    1.0000 </r>
       <r>   -4.4458    1.0000 </r>
       <r>   -4.4377    1.0000 </r>
       <r>   -4.3704    1.0000 </r>
       <r>   -4.2579    1.0000 </r>
       <r>   -4.2378    1.0000 </r>
       <r>   -4.2013    1.0000 </r>
       <r>   -4.1974    1.0000 </r>
       <r>   -4.0008    1.0000 </r>
       <r>   -3.9392    1.0000 </r>
       <r>   -3.9280    1.0000 </r>
       <r>   -3.8488    1.0000 </r>
       <r>   -3.7650    1.0000 </r>
       <r>   -3.7381    1.0000 </r>
       <r>   -3.7048    1.0000 </r>
       <r>   -3.6742    1.0000 </r>
       <r>   -3.6413    1.0000 </r>
       <r>   -3.6257    1.0000 </r>
       <r>   -3.6081    1.0000 </r>
       <r>   -3.5673    1.0000 </r>
       <r>   -3.4129    1.0000 </r>
       <r>   -3.3976    1.0000 </r>
       <r>   -3.3498    1.0000 </r>
       <r>   -3.2769    1.0000 </r>
       <r>   -2.9225    1.0000 </r>
       <r>   -2.8898    1.0000 </r>
       <r>   -2.8833    1.0000 </r>
       <r>   -2.8722    1.0000 </r>
       <r>   -2.8635    1.0000 </r>
       <r>   -2.8421    1.0000 </r>
       <r>   -2.7880    1.0000 </r>
       <r>   -2.7453    1.0000 </r>
       <r>   -2.6447    1.0000 </r>
       <r>   -2.4557    1.0000 </r>
       <r>   -2.4368    1.0000 </r>
       <r>   -2.4251    1.0000 </r>
       <r>   -2.3818    1.0000 </r>
       <r>   -2.3528    1.0000 </r>
       <r>   -2.3290    1.0000 </r>
       <r>   -2.3121    1.0000 </r>
       <r>   -2.2693    1.0000 </r>
       <r>   -2.2429    1.0000 </r>
       <r>   -2.2338    1.0000 </r>
       <r>   -2.2063    1.0000 </r>
       <r>   -2.0795    1.0000 </r>
       <r>   -2.0185    1.0000 </r>
       <r>   -1.9955    1.0000 </r>
       <r>   -1.9004    1.0000 </r>
       <r>   -1.8681    1.0000 </r>
       <r>   -1.8364    1.0000 </r>
       <r>   -1.8160    1.0000 </r>
       <r>   -1.7949    1.0000 </r>
       <r>   -1.7675    1.0000 </r>
       <r>   -1.7616    1.0000 </r>
       <r>   -1.7492    1.0000 </r>
       <r>   -1.7292    1.0000 </r>
       <r>   -1.7209    1.0000 </r>
       <r>   -1.7095    1.0000 </r>
       <r>   -1.6961    1.0000 </r>
       <r>   -1.6367    1.0000 </r>
       <r>   -1.5718    1.0000 </r>
       <r>   -1.5211    1.0000 </r>
       <r>   -1.5102    1.0000 </r>
       <r>   -1.4502    1.0000 </r>
       <r>   -1.4342    1.0000 </r>
       <r>   -1.4203    1.0000 </r>
       <r>   -1.3274    1.0000 </r>
       <r>   -1.2747    1.0000 </r>
       <r>   -1.2667    1.0000 </r>
       <r>   -1.2557    1.0000 </r>
       <r>   -1.2180    1.0000 </r>
       <r>   -1.2103    1.0000 </r>
       <r>   -1.1614    1.0000 </r>
       <r>   -1.1523    1.0000 </r>
       <r>   -1.1344    1.0000 </r>
       <r>   -1.1159    1.0000 </r>
       <r>   -1.0908    1.0000 </r>
       <r>   -1.0342    1.0000 </r>
       <r>   -0.9721    1.0000 </r>
       <r>   -0.9273    1.0000 </r>
       <r>   -0.8729    1.0000 </r>
       <r>   -0.8645    1.0000 </r>
       <r>   -0.8578    1.0000 </r>
       <r>   -0.8225    1.0000 </r>
       <r>   -0.7984    1.0000 </r>
       <r>   -0.7593    1.0000 </r>
       <r>   -0.7080    1.0000 </r>
       <r>   -0.6689    1.0000 </r>
       <r>   -0.6073    1.0000 </r>
       <r>   -0.5889    1.0000 </r>
       <r>   -0.5851    1.0000 </r>
       <r>   -0.5817    1.0000 </r>
       <r>   -0.5770    1.0000 </r>
       <r>   -0.5638    1.0000 </r>
       <r>   -0.5548    1.0000 </r>
       <r>   -0.5372    1.0000 </r>
       <r>   -0.5363    1.0000 </r>
       <r>   -0.5114    1.0000 </r>
       <r>   -0.5045    1.0000 </r>
       <r>   -0.4722    1.0000 </r>
       <r>   -0.4477    1.0000 </r>
       <r>   -0.4118    1.0000 </r>
       <r>   -0.3516    1.0000 </r>
       <r>   -0.3421    1.0000 </r>
       <r>   -0.2938    1.0000 </r>
       <r>   -0.2565    1.0000 </r>
       <r>   -0.1971    1.0000 </r>
       <r>   -0.0779    1.0000 </r>
       <r>    0.0082    1.0000 </r>
       <r>    0.0224    1.0000 </r>
       <r>    0.0437    1.0000 </r>
       <r>    0.0664    1.0000 </r>
       <r>    0.1105    1.0000 </r>
       <r>    0.1383    1.0000 </r>
       <r>    0.1468    1.0000 </r>
       <r>    0.1695    1.0000 </r>
       <r>    0.2276    1.0000 </r>
       <r>    0.2327    1.0000 </r>
       <r>    0.2442    1.0000 </r>
       <r>    0.2558    1.0000 </r>
       <r>    0.2678    1.0000 </r>
       <r>    0.2947    1.0000 </r>
       <r>    0.3192    1.0000 </r>
       <r>    0.3389    1.0000 </r>
       <r>    0.3614    1.0000 </r>
       <r>    0.3751    1.0000 </r>
       <r>    0.3896    1.0000 </r>
       <r>    0.3963    1.0000 </r>
       <r>    0.4138    1.0000 </r>
       <r>    0.4334    1.0000 </r>
       <r>    0.4466    1.0000 </r>
       <r>    0.4745    1.0000 </r>
       <r>    0.4940    1.0000 </r>
       <r>    0.5065    1.0000 </r>
       <r>    0.5297    1.0000 </r>
       <r>    0.5759    1.0000 </r>
       <r>    0.5817    1.0000 </r>
       <r>    0.6008    1.0000 </r>
       <r>    0.6126    1.0000 </r>
       <r>    0.6369    1.0000 </r>
       <r>    0.6408    1.0000 </r>
       <r>    0.6564    1.0000 </r>
       <r>    0.6718    1.0000 </r>
       <r>    0.7115    1.0000 </r>
       <r>    0.7346    1.0000 </r>
       <r>    0.7460    1.0000 </r>
       <r>    0.7821    1.0000 </r>
       <r>    0.7978    1.0000 </r>
       <r>    0.8036    1.0000 </r>
       <r>    0.8176    1.0000 </r>
       <r>    0.8265    1.0000 </r>
       <r>    0.8409    1.0000 </r>
       <r>    0.8843    1.0000 </r>
       <r>    0.9048    1.0000 </r>
       <r>    0.9258    1.0000 </r>
       <r>    0.9533    1.0000 </r>
       <r>    0.9816    1.0000 </r>
       <r>    1.0165    1.0000 </r>
       <r>    1.0473    1.0000 </r>
       <r>    1.0893    1.0000 </r>
       <r>    1.1358    1.0000 </r>
       <r>    1.1519    1.0000 </r>
       <r>    1.1574    1.0000 </r>
       <r>    1.1698    1.0000 </r>
       <r>    1.1769    1.0000 </r>
       <r>    1.1828    1.0000 </r>
       <r>    1.1940    1.0000 </r>
       <r>    1.2349    1.0000 </r>
       <r>    1.2448    1.0000 </r>
       <r>    1.2765    1.0000 </r>
       <r>    1.3111    1.0000 </r>
       <r>    1.3173    1.0000 </r>
       <r>    1.3271    1.0000 </r>
       <r>    1.3548    1.0000 </r>
       <r>    1.3644    1.0000 </r>
       <r>    1.4005    1.0000 </r>
       <r>    1.4107    1.0000 </r>
       <r>    1.4416    1.0000 </r>
       <r>    1.4592    1.0000 </r>
       <r>    1.4832    1.0000 </r>
       <r>    1.4946    1.0000 </r>
       <r>    1.5012    1.0000 </r>
       <r>    1.5068    1.0000 </r>
       <r>    1.5342    1.0000 </r>
       <r>    1.5776    1.0000 </r>
       <r>    1.5905    1.0000 </r>
       <r>    1.6087    1.0000 </r>
       <r>    1.6122    1.0000 </r>
       <r>    1.6267    1.0000 </r>
       <r>    1.6347    1.0000 </r>
       <r>    1.6472    1.0000 </r>
       <r>    1.6551    1.0000 </r>
       <r>    1.6665    1.0000 </r>
       <r>    1.6843    1.0000 </r>
       <r>    1.7014    1.0000 </r>
       <r>    1.7205    1.0000 </r>
       <r>    1.7483    1.0000 </r>
       <r>    1.7559    1.0000 </r>
       <r>    1.7916    1.0000 </r>
       <r>    1.8871    1.0000 </r>
       <r>    1.9806    1.0000 </r>
       <r>    1.9982    1.0000 </r>
       <r>    2.0146    1.0000 </r>
       <r>    2.0536    1.0000 </r>
       <r>    2.2304    1.0000 </r>
       <r>    2.4789    1.0000 </r>
       <r>    5.0990    0.0000 </r>
       <r>    6.8599    0.0000 </r>
       <r>    6.9447    0.0000 </r>
       <r>    8.6659    0.0000 </r>
       <r>    8.6854    0.0000 </r>
       <r>    8.7352    0.0000 </r>
       <r>    8.8234    0.0000 </r>
       <r>    9.7380    0.0000 </r>
       <r>    9.7512    0.0000 </r>
       <r>    9.8029    0.0000 </r>
       <r>    9.8373    0.0000 </r>
       <r>   10.3457    0.0000 </r>
       <r>   10.3548    0.0000 </r>
       <r>   10.3986    0.0000 </r>
       <r>   10.4310    0.0000 </r>
       <r>   10.6305    0.0000 </r>
       <r>   10.6418    0.0000 </r>
       <r>   10.6815    0.0000 </r>
       <r>   10.7457    0.0000 </r>
       <r>   10.8055    0.0000 </r>
       <r>   10.8267    0.0000 </r>
       <r>   10.8374    0.0000 </r>
       <r>   10.8891    0.0000 </r>
       <r>   11.2441    0.0000 </r>
       <r>   11.2658    0.0000 </r>
       <r>   11.2873    0.0000 </r>
       <r>   11.3629    0.0000 </r>
       <r>   11.6331    0.0000 </r>
       <r>   11.6621    0.0000 </r>
       <r>   11.6756    0.0000 </r>
       <r>   11.6916    0.0000 </r>
       <r>   11.7055    0.0000 </r>
       <r>   11.7121    0.0000 </r>
       <r>   11.7390    0.0000 </r>
       <r>   11.8565    0.0000 </r>
       <r>   11.8766    0.0000 </r>
       <r>   11.8864    0.0000 </r>
       <r>   11.9055    0.0000 </r>
       <r>   11.9328    0.0000 </r>
       <r>   11.9495    0.0000 </r>
       <r>   11.9690    0.0000 </r>
       <r>   12.0772    0.0000 </r>
       <r>   12.1967    0.0000 </r>
       <r>   12.3327    0.0000 </r>
       <r>   12.3590    0.0000 </r>
       <r>   12.3651    0.0000 </r>
       <r>   12.3805    0.0000 </r>
       <r>   12.4138    0.0000 </r>
       <r>   12.4430    0.0000 </r>
       <r>   12.4734    0.0000 </r>
       <r>   12.4923    0.0000 </r>
       <r>   12.4947    0.0000 </r>
       <r>   12.5120    0.0000 </r>
       <r>   12.5648    0.0000 </r>
       <r>   12.5881    0.0000 </r>
       <r>   12.6351    0.0000 </r>
       <r>   12.6604    0.0000 </r>
       <r>   12.7552    0.0000 </r>
       <r>   12.9695    0.0000 </r>
       <r>   13.0491    0.0000 </r>
       <r>   13.1008    0.0000 </r>
       <r>   13.1382    0.0000 </r>
       <r>   13.2648    0.0000 </r>
       <r>   13.3644    0.0000 </r>
       <r>   13.3771    0.0000 </r>
       <r>   13.3845    0.0000 </r>
       <r>   13.4765    0.0000 </r>
       <r>   13.5549    0.0000 </r>
       <r>   13.5725    0.0000 </r>
       <r>   13.5982    0.0000 </r>
       <r>   13.6129    0.0000 </r>
       <r>   13.6163    0.0000 </r>
       <r>   13.6417    0.0000 </r>
       <r>   13.6995    0.0000 </r>
       <r>   14.1320    0.0000 </r>
       <r>   14.3887    0.0000 </r>
       <r>   14.3915    0.0000 </r>
       <r>   14.4041    0.0000 </r>
       <r>   14.4599    0.0000 </r>
       <r>   14.5368    0.0000 </r>
       <r>   14.5397    0.0000 </r>
       <r>   14.5665    0.0000 </r>
       <r>   14.5816    0.0000 </r>
       <r>   14.6095    0.0000 </r>
       <r>   14.6393    0.0000 </r>
       <r>   14.6622    0.0000 </r>
       <r>   14.6672    0.0000 </r>
       <r>   14.6741    0.0000 </r>
       <r>   14.6883    0.0000 </r>
       <r>   14.7627    0.0000 </r>
       <r>   14.8670    0.0000 </r>
       <r>   14.8754    0.0000 </r>
       <r>   14.8992    0.0000 </r>
       <r>   15.1728    0.0000 </r>
       <r>   15.2252    0.0000 </r>
       <r>   15.2330    0.0000 </r>
       <r>   15.2684    0.0000 </r>
       <r>   15.3123    0.0000 </r>
       <r>   15.4514    0.0000 </r>
       <r>   15.4955    0.0000 </r>
       <r>   15.5200    0.0000 </r>
       <r>   15.6383    0.0000 </r>
       <r>   15.7217    0.0000 </r>
       <r>   15.7348    0.0000 </r>
       <r>   15.7374    0.0000 </r>
      </set>
      <set comment="kpoint 8">
       <r>  -18.3523    1.0000 </r>
       <r>  -18.3309    1.0000 </r>
       <r>  -18.3179    1.0000 </r>
       <r>  -18.2993    1.0000 </r>
       <r>  -18.2535    1.0000 </r>
       <r>  -18.2406    1.0000 </r>
       <r>  -18.2284    1.0000 </r>
       <r>  -18.0985    1.0000 </r>
       <r>  -17.8316    1.0000 </r>
       <r>  -17.7895    1.0000 </r>
       <r>  -17.7843    1.0000 </r>
       <r>  -17.7483    1.0000 </r>
       <r>  -17.6393    1.0000 </r>
       <r>  -17.5994    1.0000 </r>
       <r>  -17.5819    1.0000 </r>
       <r>  -17.5563    1.0000 </r>
       <r>  -17.5495    1.0000 </r>
       <r>  -17.5466    1.0000 </r>
       <r>  -17.5412    1.0000 </r>
       <r>  -17.5255    1.0000 </r>
       <r>  -17.5200    1.0000 </r>
       <r>  -17.5175    1.0000 </r>
       <r>  -17.5144    1.0000 </r>
       <r>  -17.5110    1.0000 </r>
       <r>  -17.5078    1.0000 </r>
       <r>  -17.4975    1.0000 </r>
       <r>  -17.4791    1.0000 </r>
       <r>  -17.4379    1.0000 </r>
       <r>  -17.3924    1.0000 </r>
       <r>  -17.3869    1.0000 </r>
       <r>  -17.3668    1.0000 </r>
       <r>  -17.3485    1.0000 </r>
       <r>  -17.2656    1.0000 </r>
       <r>  -17.2644    1.0000 </r>
       <r>  -17.2534    1.0000 </r>
       <r>  -17.2407    1.0000 </r>
       <r>  -17.2211    1.0000 </r>
       <r>  -17.2201    1.0000 </r>
       <r>  -17.2162    1.0000 </r>
       <r>  -17.2072    1.0000 </r>
       <r>  -17.2019    1.0000 </r>
       <r>  -17.1975    1.0000 </r>
       <r>  -17.1845    1.0000 </r>
       <r>  -17.1745    1.0000 </r>
       <r>  -17.1631    1.0000 </r>
       <r>  -17.1539    1.0000 </r>
       <r>  -17.1291    1.0000 </r>
       <r>  -17.0611    1.0000 </r>
       <r>  -17.0535    1.0000 </r>
       <r>  -17.0432    1.0000 </r>
       <r>  -17.0403    1.0000 </r>
       <r>  -17.0032    1.0000 </r>
       <r>  -16.9857    1.0000 </r>
       <r>  -16.9773    1.0000 </r>
       <r>  -16.9697    1.0000 </r>
       <r>  -16.9619    1.0000 </r>
       <r>  -16.9358    1.0000 </r>
       <r>  -16.9337    1.0000 </r>
       <r>  -16.9242    1.0000 </r>
       <r>  -16.9201    1.0000 </r>
       <r>  -16.8977    1.0000 </r>
       <r>  -16.8786    1.0000 </r>
       <r>  -16.8588    1.0000 </r>
       <r>  -16.8424    1.0000 </r>
       <r>  -16.8406    1.0000 </r>
       <r>  -16.8329    1.0000 </r>
       <r>  -16.8211    1.0000 </r>
       <r>  -16.8104    1.0000 </r>
       <r>  -16.7979    1.0000 </r>
       <r>  -16.7619    1.0000 </r>
       <r>  -16.7520    1.0000 </r>
       <r>  -13.6686    1.0000 </r>
       <r>  -13.1395    1.0000 </r>
       <r>  -13.1182    1.0000 </r>
       <r>  -13.0533    1.0000 </r>
       <r>  -13.0509    1.0000 </r>
       <r>  -13.0376    1.0000 </r>
       <r>  -13.0326    1.0000 </r>
       <r>  -13.0262    1.0000 </r>
       <r>  -13.0220    1.0000 </r>
       <r>  -13.0207    1.0000 </r>
       <r>  -13.0165    1.0000 </r>
       <r>  -13.0091    1.0000 </r>
       <r>  -13.0065    1.0000 </r>
       <r>  -13.0020    1.0000 </r>
       <r>  -12.9999    1.0000 </r>
       <r>  -12.9959    1.0000 </r>
       <r>  -12.9945    1.0000 </r>
       <r>  -12.9892    1.0000 </r>
       <r>  -12.9863    1.0000 </r>
       <r>  -12.9821    1.0000 </r>
       <r>  -12.9795    1.0000 </r>
       <r>  -12.9769    1.0000 </r>
       <r>  -12.9702    1.0000 </r>
       <r>  -12.9668    1.0000 </r>
       <r>  -12.9627    1.0000 </r>
       <r>  -12.9595    1.0000 </r>
       <r>  -12.9543    1.0000 </r>
       <r>  -12.9524    1.0000 </r>
       <r>  -12.9466    1.0000 </r>
       <r>  -12.9447    1.0000 </r>
       <r>  -12.9405    1.0000 </r>
       <r>  -12.9374    1.0000 </r>
       <r>  -12.9355    1.0000 </r>
       <r>  -12.9336    1.0000 </r>
       <r>  -12.9306    1.0000 </r>
       <r>  -12.9265    1.0000 </r>
       <r>  -12.9233    1.0000 </r>
       <r>  -12.9205    1.0000 </r>
       <r>  -12.9180    1.0000 </r>
       <r>  -12.9165    1.0000 </r>
       <r>  -12.9132    1.0000 </r>
       <r>  -12.9124    1.0000 </r>
       <r>  -12.9090    1.0000 </r>
       <r>  -12.9073    1.0000 </r>
       <r>  -12.9046    1.0000 </r>
       <r>  -12.9026    1.0000 </r>
       <r>  -12.9007    1.0000 </r>
       <r>  -12.8997    1.0000 </r>
       <r>  -12.8968    1.0000 </r>
       <r>  -12.8942    1.0000 </r>
       <r>  -12.8921    1.0000 </r>
       <r>  -12.8883    1.0000 </r>
       <r>  -12.8867    1.0000 </r>
       <r>  -12.8820    1.0000 </r>
       <r>  -12.8788    1.0000 </r>
       <r>  -12.8751    1.0000 </r>
       <r>  -12.8711    1.0000 </r>
       <r>  -12.8690    1.0000 </r>
       <r>  -12.8632    1.0000 </r>
       <r>  -12.8616    1.0000 </r>
       <r>  -12.8588    1.0000 </r>
       <r>  -12.8538    1.0000 </r>
       <r>  -12.8501    1.0000 </r>
       <r>  -12.8475    1.0000 </r>
       <r>  -12.8427    1.0000 </r>
       <r>  -12.8369    1.0000 </r>
       <r>  -12.8279    1.0000 </r>
       <r>  -12.8255    1.0000 </r>
       <r>  -12.8248    1.0000 </r>
       <r>  -12.8162    1.0000 </r>
       <r>  -12.8153    1.0000 </r>
       <r>  -12.8116    1.0000 </r>
       <r>  -12.8077    1.0000 </r>
       <r>  -12.8048    1.0000 </r>
       <r>  -12.8010    1.0000 </r>
       <r>  -12.7992    1.0000 </r>
       <r>  -12.7968    1.0000 </r>
       <r>  -12.7908    1.0000 </r>
       <r>  -12.7891    1.0000 </r>
       <r>  -12.7881    1.0000 </r>
       <r>  -12.7869    1.0000 </r>
       <r>  -12.7845    1.0000 </r>
       <r>  -12.7819    1.0000 </r>
       <r>  -12.7785    1.0000 </r>
       <r>  -12.7766    1.0000 </r>
       <r>  -12.7752    1.0000 </r>
       <r>  -12.7737    1.0000 </r>
       <r>  -12.7709    1.0000 </r>
       <r>  -12.7709    1.0000 </r>
       <r>  -12.7684    1.0000 </r>
       <r>  -12.7662    1.0000 </r>
       <r>  -12.7651    1.0000 </r>
       <r>  -12.7601    1.0000 </r>
       <r>  -12.7569    1.0000 </r>
       <r>  -12.7553    1.0000 </r>
       <r>  -12.7546    1.0000 </r>
       <r>  -12.7531    1.0000 </r>
       <r>  -12.7510    1.0000 </r>
       <r>  -12.7506    1.0000 </r>
       <r>  -12.7453    1.0000 </r>
       <r>  -12.7420    1.0000 </r>
       <r>  -12.7372    1.0000 </r>
       <r>  -12.7353    1.0000 </r>
       <r>  -12.7334    1.0000 </r>
       <r>  -12.7304    1.0000 </r>
       <r>  -12.7295    1.0000 </r>
       <r>  -12.7263    1.0000 </r>
       <r>  -12.7250    1.0000 </r>
       <r>  -12.7227    1.0000 </r>
       <r>  -12.7199    1.0000 </r>
       <r>  -12.7173    1.0000 </r>
       <r>  -12.7150    1.0000 </r>
       <r>  -12.7137    1.0000 </r>
       <r>  -12.7117    1.0000 </r>
       <r>  -12.7102    1.0000 </r>
       <r>  -12.7070    1.0000 </r>
       <r>  -12.7052    1.0000 </r>
       <r>  -12.7014    1.0000 </r>
       <r>  -12.6999    1.0000 </r>
       <r>  -12.6988    1.0000 </r>
       <r>  -12.6962    1.0000 </r>
       <r>  -12.6928    1.0000 </r>
       <r>  -12.6840    1.0000 </r>
       <r>  -12.6804    1.0000 </r>
       <r>  -12.6787    1.0000 </r>
       <r>  -12.6745    1.0000 </r>
       <r>  -12.6723    1.0000 </r>
       <r>  -12.6709    1.0000 </r>
       <r>  -12.6674    1.0000 </r>
       <r>  -12.6665    1.0000 </r>
       <r>  -12.6538    1.0000 </r>
       <r>  -12.6530    1.0000 </r>
       <r>  -12.6513    1.0000 </r>
       <r>  -12.6455    1.0000 </r>
       <r>  -12.6414    1.0000 </r>
       <r>  -12.6364    1.0000 </r>
       <r>  -12.6342    1.0000 </r>
       <r>  -12.6296    1.0000 </r>
       <r>  -12.6257    1.0000 </r>
       <r>  -12.6245    1.0000 </r>
       <r>  -12.6212    1.0000 </r>
       <r>  -12.6202    1.0000 </r>
       <r>  -12.6170    1.0000 </r>
       <r>  -12.6144    1.0000 </r>
       <r>  -12.6132    1.0000 </r>
       <r>  -12.6107    1.0000 </r>
       <r>  -12.6094    1.0000 </r>
       <r>  -12.6033    1.0000 </r>
       <r>  -12.6014    1.0000 </r>
       <r>  -12.6004    1.0000 </r>
       <r>  -12.5970    1.0000 </r>
       <r>  -12.5945    1.0000 </r>
       <r>  -12.5940    1.0000 </r>
       <r>  -12.5916    1.0000 </r>
       <r>  -12.5905    1.0000 </r>
       <r>  -12.5856    1.0000 </r>
       <r>  -12.5848    1.0000 </r>
       <r>  -12.5827    1.0000 </r>
       <r>  -12.5804    1.0000 </r>
       <r>  -12.5785    1.0000 </r>
       <r>  -12.5730    1.0000 </r>
       <r>  -12.5719    1.0000 </r>
       <r>  -12.5700    1.0000 </r>
       <r>  -12.5658    1.0000 </r>
       <r>  -12.5619    1.0000 </r>
       <r>  -12.5581    1.0000 </r>
       <r>  -12.5566    1.0000 </r>
       <r>  -12.5553    1.0000 </r>
       <r>  -12.5538    1.0000 </r>
       <r>  -12.5513    1.0000 </r>
       <r>  -12.5484    1.0000 </r>
       <r>  -12.5460    1.0000 </r>
       <r>  -12.5420    1.0000 </r>
       <r>  -12.5382    1.0000 </r>
       <r>  -12.5358    1.0000 </r>
       <r>  -12.5333    1.0000 </r>
       <r>  -12.5321    1.0000 </r>
       <r>  -12.5280    1.0000 </r>
       <r>  -12.5258    1.0000 </r>
       <r>  -12.5245    1.0000 </r>
       <r>  -12.5199    1.0000 </r>
       <r>  -12.5176    1.0000 </r>
       <r>  -12.5165    1.0000 </r>
       <r>  -12.5113    1.0000 </r>
       <r>  -12.5024    1.0000 </r>
       <r>  -12.4978    1.0000 </r>
       <r>  -12.4867    1.0000 </r>
       <r>  -12.4786    1.0000 </r>
       <r>  -12.4764    1.0000 </r>
       <r>  -12.4732    1.0000 </r>
       <r>  -12.4647    1.0000 </r>
       <r>  -12.4330    1.0000 </r>
       <r>  -12.4222    1.0000 </r>
       <r>  -12.4161    1.0000 </r>
       <r>  -12.4068    1.0000 </r>
       <r>  -12.3894    1.0000 </r>
       <r>  -12.3798    1.0000 </r>
       <r>  -12.3562    1.0000 </r>
       <r>  -12.3491    1.0000 </r>
       <r>  -12.3336    1.0000 </r>
       <r>  -12.3131    1.0000 </r>
       <r>  -12.2679    1.0000 </r>
       <r>  -12.2405    1.0000 </r>
       <r>  -12.2236    1.0000 </r>
       <r>  -12.2046    1.0000 </r>
       <r>  -12.1914    1.0000 </r>
       <r>  -12.1752    1.0000 </r>
       <r>  -12.1546    1.0000 </r>
       <r>  -12.1471    1.0000 </r>
       <r>  -12.1419    1.0000 </r>
       <r>  -12.1342    1.0000 </r>
       <r>  -12.1123    1.0000 </r>
       <r>  -12.0803    1.0000 </r>
       <r>  -12.0403    1.0000 </r>
       <r>  -12.0350    1.0000 </r>
       <r>  -12.0236    1.0000 </r>
       <r>  -12.0050    1.0000 </r>
       <r>  -11.9947    1.0000 </r>
       <r>  -11.9568    1.0000 </r>
       <r>  -11.9331    1.0000 </r>
       <r>  -11.9316    1.0000 </r>
       <r>  -11.9179    1.0000 </r>
       <r>  -11.9013    1.0000 </r>
       <r>  -11.8752    1.0000 </r>
       <r>  -11.8199    1.0000 </r>
       <r>  -11.8136    1.0000 </r>
       <r>  -11.7995    1.0000 </r>
       <r>  -11.7976    1.0000 </r>
       <r>  -11.7947    1.0000 </r>
       <r>  -11.7712    1.0000 </r>
       <r>  -11.7676    1.0000 </r>
       <r>  -11.7602    1.0000 </r>
       <r>  -11.7487    1.0000 </r>
       <r>  -11.7342    1.0000 </r>
       <r>  -11.7277    1.0000 </r>
       <r>  -10.6802    1.0000 </r>
       <r>   -4.8888    1.0000 </r>
       <r>   -4.8524    1.0000 </r>
       <r>   -4.8038    1.0000 </r>
       <r>   -4.8001    1.0000 </r>
       <r>   -4.7810    1.0000 </r>
       <r>   -4.7446    1.0000 </r>
       <r>   -4.7301    1.0000 </r>
       <r>   -4.7040    1.0000 </r>
       <r>   -4.4646    1.0000 </r>
       <r>   -4.4511    1.0000 </r>
       <r>   -4.4253    1.0000 </r>
       <r>   -4.4163    1.0000 </r>
       <r>   -4.3950    1.0000 </r>
       <r>   -4.3930    1.0000 </r>
       <r>   -4.3645    1.0000 </r>
       <r>   -4.2973    1.0000 </r>
       <r>   -4.1974    1.0000 </r>
       <r>   -4.0995    1.0000 </r>
       <r>   -4.0881    1.0000 </r>
       <r>   -4.0644    1.0000 </r>
       <r>   -3.8949    1.0000 </r>
       <r>   -3.8334    1.0000 </r>
       <r>   -3.7775    1.0000 </r>
       <r>   -3.7655    1.0000 </r>
       <r>   -3.7606    1.0000 </r>
       <r>   -3.7458    1.0000 </r>
       <r>   -3.7375    1.0000 </r>
       <r>   -3.7304    1.0000 </r>
       <r>   -3.7149    1.0000 </r>
       <r>   -3.6705    1.0000 </r>
       <r>   -3.6373    1.0000 </r>
       <r>   -3.6168    1.0000 </r>
       <r>   -3.4627    1.0000 </r>
       <r>   -3.4282    1.0000 </r>
       <r>   -3.4198    1.0000 </r>
       <r>   -3.3085    1.0000 </r>
       <r>   -3.2241    1.0000 </r>
       <r>   -3.1841    1.0000 </r>
       <r>   -3.1774    1.0000 </r>
       <r>   -3.0918    1.0000 </r>
       <r>   -2.9133    1.0000 </r>
       <r>   -2.9070    1.0000 </r>
       <r>   -2.8556    1.0000 </r>
       <r>   -2.8162    1.0000 </r>
       <r>   -2.7632    1.0000 </r>
       <r>   -2.5388    1.0000 </r>
       <r>   -2.5318    1.0000 </r>
       <r>   -2.4953    1.0000 </r>
       <r>   -2.3956    1.0000 </r>
       <r>   -2.3220    1.0000 </r>
       <r>   -2.2955    1.0000 </r>
       <r>   -2.2588    1.0000 </r>
       <r>   -2.1706    1.0000 </r>
       <r>   -2.0940    1.0000 </r>
       <r>   -2.0491    1.0000 </r>
       <r>   -1.9810    1.0000 </r>
       <r>   -1.9593    1.0000 </r>
       <r>   -1.9159    1.0000 </r>
       <r>   -1.8710    1.0000 </r>
       <r>   -1.8399    1.0000 </r>
       <r>   -1.8327    1.0000 </r>
       <r>   -1.8250    1.0000 </r>
       <r>   -1.8085    1.0000 </r>
       <r>   -1.7978    1.0000 </r>
       <r>   -1.7344    1.0000 </r>
       <r>   -1.6842    1.0000 </r>
       <r>   -1.6590    1.0000 </r>
       <r>   -1.6345    1.0000 </r>
       <r>   -1.6275    1.0000 </r>
       <r>   -1.5911    1.0000 </r>
       <r>   -1.5709    1.0000 </r>
       <r>   -1.5652    1.0000 </r>
       <r>   -1.5273    1.0000 </r>
       <r>   -1.4971    1.0000 </r>
       <r>   -1.4842    1.0000 </r>
       <r>   -1.4724    1.0000 </r>
       <r>   -1.4264    1.0000 </r>
       <r>   -1.3945    1.0000 </r>
       <r>   -1.3757    1.0000 </r>
       <r>   -1.3570    1.0000 </r>
       <r>   -1.3222    1.0000 </r>
       <r>   -1.2927    1.0000 </r>
       <r>   -1.2543    1.0000 </r>
       <r>   -1.2362    1.0000 </r>
       <r>   -1.2027    1.0000 </r>
       <r>   -1.0858    1.0000 </r>
       <r>   -1.0321    1.0000 </r>
       <r>   -1.0079    1.0000 </r>
       <r>   -0.9906    1.0000 </r>
       <r>   -0.9767    1.0000 </r>
       <r>   -0.9259    1.0000 </r>
       <r>   -0.8926    1.0000 </r>
       <r>   -0.8393    1.0000 </r>
       <r>   -0.8148    1.0000 </r>
       <r>   -0.8034    1.0000 </r>
       <r>   -0.7853    1.0000 </r>
       <r>   -0.7693    1.0000 </r>
       <r>   -0.7592    1.0000 </r>
       <r>   -0.7485    1.0000 </r>
       <r>   -0.7218    1.0000 </r>
       <r>   -0.7050    1.0000 </r>
       <r>   -0.6926    1.0000 </r>
       <r>   -0.6855    1.0000 </r>
       <r>   -0.6695    1.0000 </r>
       <r>   -0.6425    1.0000 </r>
       <r>   -0.6302    1.0000 </r>
       <r>   -0.5949    1.0000 </r>
       <r>   -0.5683    1.0000 </r>
       <r>   -0.5206    1.0000 </r>
       <r>   -0.4735    1.0000 </r>
       <r>   -0.4394    1.0000 </r>
       <r>   -0.4205    1.0000 </r>
       <r>   -0.3903    1.0000 </r>
       <r>   -0.3598    1.0000 </r>
       <r>   -0.3517    1.0000 </r>
       <r>   -0.3157    1.0000 </r>
       <r>   -0.3101    1.0000 </r>
       <r>   -0.2888    1.0000 </r>
       <r>   -0.2220    1.0000 </r>
       <r>   -0.1973    1.0000 </r>
       <r>   -0.1770    1.0000 </r>
       <r>   -0.1364    1.0000 </r>
       <r>   -0.0991    1.0000 </r>
       <r>   -0.0474    1.0000 </r>
       <r>   -0.0307    1.0000 </r>
       <r>   -0.0141    1.0000 </r>
       <r>    0.0463    1.0000 </r>
       <r>    0.0660    1.0000 </r>
       <r>    0.0858    1.0000 </r>
       <r>    0.0876    1.0000 </r>
       <r>    0.1398    1.0000 </r>
       <r>    0.1575    1.0000 </r>
       <r>    0.1613    1.0000 </r>
       <r>    0.1887    1.0000 </r>
       <r>    0.2412    1.0000 </r>
       <r>    0.2515    1.0000 </r>
       <r>    0.2587    1.0000 </r>
       <r>    0.2860    1.0000 </r>
       <r>    0.3633    1.0000 </r>
       <r>    0.4328    1.0000 </r>
       <r>    0.4809    1.0000 </r>
       <r>    0.5010    1.0000 </r>
       <r>    0.5178    1.0000 </r>
       <r>    0.5201    1.0000 </r>
       <r>    0.5297    1.0000 </r>
       <r>    0.5480    1.0000 </r>
       <r>    0.5564    1.0000 </r>
       <r>    0.5802    1.0000 </r>
       <r>    0.6190    1.0000 </r>
       <r>    0.6306    1.0000 </r>
       <r>    0.6395    1.0000 </r>
       <r>    0.6660    1.0000 </r>
       <r>    0.7042    1.0000 </r>
       <r>    0.7326    1.0000 </r>
       <r>    0.7621    1.0000 </r>
       <r>    0.7937    1.0000 </r>
       <r>    0.8098    1.0000 </r>
       <r>    0.8256    1.0000 </r>
       <r>    0.8508    1.0000 </r>
       <r>    0.8781    1.0000 </r>
       <r>    0.8975    1.0000 </r>
       <r>    0.9191    1.0000 </r>
       <r>    0.9394    1.0000 </r>
       <r>    0.9559    1.0000 </r>
       <r>    0.9684    1.0000 </r>
       <r>    0.9839    1.0000 </r>
       <r>    1.0552    1.0000 </r>
       <r>    1.0706    1.0000 </r>
       <r>    1.0843    1.0000 </r>
       <r>    1.0953    1.0000 </r>
       <r>    1.1016    1.0000 </r>
       <r>    1.1080    1.0000 </r>
       <r>    1.1288    1.0000 </r>
       <r>    1.1472    1.0000 </r>
       <r>    1.1693    1.0000 </r>
       <r>    1.1810    1.0000 </r>
       <r>    1.1875    1.0000 </r>
       <r>    1.2048    1.0000 </r>
       <r>    1.2190    1.0000 </r>
       <r>    1.2263    1.0000 </r>
       <r>    1.2336    1.0000 </r>
       <r>    1.2457    1.0000 </r>
       <r>    1.2735    1.0000 </r>
       <r>    1.2878    1.0000 </r>
       <r>    1.2994    1.0000 </r>
       <r>    1.3288    1.0000 </r>
       <r>    1.3474    1.0000 </r>
       <r>    1.3669    1.0000 </r>
       <r>    1.3932    1.0000 </r>
       <r>    1.4029    1.0000 </r>
       <r>    1.4221    1.0000 </r>
       <r>    1.4443    1.0000 </r>
       <r>    1.4543    1.0000 </r>
       <r>    1.4886    1.0000 </r>
       <r>    1.5037    1.0000 </r>
       <r>    1.5275    1.0000 </r>
       <r>    1.5401    1.0000 </r>
       <r>    1.5563    1.0000 </r>
       <r>    1.5653    1.0000 </r>
       <r>    1.5735    1.0000 </r>
       <r>    1.5767    1.0000 </r>
       <r>    1.5843    1.0000 </r>
       <r>    1.5895    1.0000 </r>
       <r>    1.6022    1.0000 </r>
       <r>    1.6084    1.0000 </r>
       <r>    1.6155    1.0000 </r>
       <r>    1.6737    1.0000 </r>
       <r>    1.7478    1.0000 </r>
       <r>    1.8728    1.0000 </r>
       <r>    1.8970    1.0000 </r>
       <r>    1.9025    1.0000 </r>
       <r>    1.9257    1.0000 </r>
       <r>    1.9380    1.0000 </r>
       <r>    1.9500    1.0000 </r>
       <r>    1.9681    1.0000 </r>
       <r>    2.0203    1.0000 </r>
       <r>    2.2268    1.0000 </r>
       <r>    2.4696    1.0000 </r>
       <r>    5.0980    0.0000 </r>
       <r>    6.8675    0.0000 </r>
       <r>    6.9475    0.0000 </r>
       <r>    8.8684    0.0000 </r>
       <r>    8.8936    0.0000 </r>
       <r>    8.9123    0.0000 </r>
       <r>    8.9729    0.0000 </r>
       <r>    9.2605    0.0000 </r>
       <r>    9.2816    0.0000 </r>
       <r>    9.3259    0.0000 </r>
       <r>    9.4575    0.0000 </r>
       <r>   10.5672    0.0000 </r>
       <r>   10.5707    0.0000 </r>
       <r>   10.5746    0.0000 </r>
       <r>   10.6444    0.0000 </r>
       <r>   10.7047    0.0000 </r>
       <r>   10.7128    0.0000 </r>
       <r>   10.7368    0.0000 </r>
       <r>   10.7714    0.0000 </r>
       <r>   10.8419    0.0000 </r>
       <r>   10.8462    0.0000 </r>
       <r>   10.8740    0.0000 </r>
       <r>   10.9519    0.0000 </r>
       <r>   11.1152    0.0000 </r>
       <r>   11.1223    0.0000 </r>
       <r>   11.1423    0.0000 </r>
       <r>   11.3201    0.0000 </r>
       <r>   11.7254    0.0000 </r>
       <r>   11.7432    0.0000 </r>
       <r>   11.7493    0.0000 </r>
       <r>   11.8180    0.0000 </r>
       <r>   11.8386    0.0000 </r>
       <r>   11.8526    0.0000 </r>
       <r>   11.8567    0.0000 </r>
       <r>   11.8719    0.0000 </r>
       <r>   11.9060    0.0000 </r>
       <r>   11.9369    0.0000 </r>
       <r>   11.9429    0.0000 </r>
       <r>   12.0615    0.0000 </r>
       <r>   12.1663    0.0000 </r>
       <r>   12.2024    0.0000 </r>
       <r>   12.2336    0.0000 </r>
       <r>   12.2635    0.0000 </r>
       <r>   12.2951    0.0000 </r>
       <r>   12.2987    0.0000 </r>
       <r>   12.3154    0.0000 </r>
       <r>   12.3777    0.0000 </r>
       <r>   12.3911    0.0000 </r>
       <r>   12.4033    0.0000 </r>
       <r>   12.4198    0.0000 </r>
       <r>   12.4321    0.0000 </r>
       <r>   12.4449    0.0000 </r>
       <r>   12.4561    0.0000 </r>
       <r>   12.4642    0.0000 </r>
       <r>   12.4779    0.0000 </r>
       <r>   12.4929    0.0000 </r>
       <r>   12.5170    0.0000 </r>
       <r>   12.6368    0.0000 </r>
       <r>   13.0414    0.0000 </r>
       <r>   13.1914    0.0000 </r>
       <r>   13.2265    0.0000 </r>
       <r>   13.2566    0.0000 </r>
       <r>   13.2783    0.0000 </r>
       <r>   13.2966    0.0000 </r>
       <r>   13.3036    0.0000 </r>
       <r>   13.3206    0.0000 </r>
       <r>   13.3445    0.0000 </r>
       <r>   13.3710    0.0000 </r>
       <r>   13.4040    0.0000 </r>
       <r>   13.4750    0.0000 </r>
       <r>   13.6907    0.0000 </r>
       <r>   13.7498    0.0000 </r>
       <r>   13.7748    0.0000 </r>
       <r>   13.7970    0.0000 </r>
       <r>   13.9927    0.0000 </r>
       <r>   14.0229    0.0000 </r>
       <r>   14.0394    0.0000 </r>
       <r>   14.1541    0.0000 </r>
       <r>   14.1965    0.0000 </r>
       <r>   14.3969    0.0000 </r>
       <r>   14.4292    0.0000 </r>
       <r>   14.4397    0.0000 </r>
       <r>   14.4633    0.0000 </r>
       <r>   14.4964    0.0000 </r>
       <r>   14.5004    0.0000 </r>
       <r>   14.5307    0.0000 </r>
       <r>   14.7110    0.0000 </r>
       <r>   14.7291    0.0000 </r>
       <r>   14.7610    0.0000 </r>
       <r>   14.8346    0.0000 </r>
       <r>   15.0320    0.0000 </r>
       <r>   15.0597    0.0000 </r>
       <r>   15.1039    0.0000 </r>
       <r>   15.2328    0.0000 </r>
       <r>   15.2629    0.0000 </r>
       <r>   15.2795    0.0000 </r>
       <r>   15.3081    0.0000 </r>
       <r>   15.3781    0.0000 </r>
       <r>   15.5442    0.0000 </r>
       <r>   15.5788    0.0000 </r>
       <r>   15.6042    0.0000 </r>
       <r>   15.6206    0.0000 </r>
       <r>   15.6833    0.0000 </r>
       <r>   15.6946    0.0000 </r>
       <r>   15.7271    0.0000 </r>
      </set>
     </set>
    </set>
   </array>
  </eigenvalues>
  <separator name="orbital magnetization" >
   <v name="MAGDIPOLOUT">      0.00000000      0.00000000      0.00000000</v>
  </separator>
  <dos>
   <i name="efermi">      2.76158213 </i>
   <total>
    <array>
     <dimension dim="1">gridpoints</dimension>
     <dimension dim="2">spin</dimension>
     <field>energy</field>
     <field>total</field>
     <field>integrated</field>
     <set>
      <set comment="spin 1">
       <r>   -20.3879     0.0000     0.0000 </r>
       <r>   -20.2615     0.0000     0.0000 </r>
       <r>   -20.1351     0.0000     0.0000 </r>
       <r>   -20.0087     0.0000     0.0000 </r>
       <r>   -19.8823     0.0000     0.0000 </r>
       <r>   -19.7559     0.0000     0.0000 </r>
       <r>   -19.6294     0.0000     0.0000 </r>
       <r>   -19.5030     0.0000     0.0000 </r>
       <r>   -19.3766     0.0000     0.0000 </r>
       <r>   -19.2502     0.0000     0.0000 </r>
       <r>   -19.1238     0.0000     0.0000 </r>
       <r>   -18.9974     0.0000     0.0000 </r>
       <r>   -18.8710     0.0000     0.0000 </r>
       <r>   -18.7445     0.0226     0.0029 </r>
       <r>   -18.6181     2.1700     0.2772 </r>
       <r>   -18.4917    11.0517     1.6743 </r>
       <r>   -18.3653    19.3673     4.1226 </r>
       <r>   -18.2389    29.8524     7.8963 </r>
       <r>   -18.1125    23.3599    10.8493 </r>
       <r>   -17.9861    18.0138    13.1265 </r>
       <r>   -17.8596    39.3541    18.1014 </r>
       <r>   -17.7332    55.4954    25.1168 </r>
       <r>   -17.6068    58.6603    32.5323 </r>
       <r>   -17.4804   112.0504    46.6970 </r>
       <r>   -17.3540   108.8563    60.4579 </r>
       <r>   -17.2276   124.5467    76.2023 </r>
       <r>   -17.1012   139.8424    93.8803 </r>
       <r>   -16.9748    99.4448   106.4515 </r>
       <r>   -16.8483   180.5321   129.2732 </r>
       <r>   -16.7219    95.1320   141.2992 </r>
       <r>   -16.5955     5.5437   142.0000 </r>
       <r>   -16.4691     0.0002   142.0000 </r>
       <r>   -16.3427     0.0000   142.0000 </r>
       <r>   -16.2163     0.0000   142.0000 </r>
       <r>   -16.0899     0.0000   142.0000 </r>
       <r>   -15.9634     0.0000   142.0000 </r>
       <r>   -15.8370     0.0000   142.0000 </r>
       <r>   -15.7106     0.0000   142.0000 </r>
       <r>   -15.5842     0.0000   142.0000 </r>
       <r>   -15.4578     0.0000   142.0000 </r>
       <r>   -15.3314     0.0000   142.0000 </r>
       <r>   -15.2050     0.0000   142.0000 </r>
       <r>   -15.0785     0.0000   142.0000 </r>
       <r>   -14.9521     0.0000   142.0000 </r>
       <r>   -14.8257     0.0000   142.0000 </r>
       <r>   -14.6993     0.0000   142.0000 </r>
       <r>   -14.5729     0.0000   142.0000 </r>
       <r>   -14.4465     0.0000   142.0000 </r>
       <r>   -14.3201     0.0000   142.0000 </r>
       <r>   -14.1937     0.0000   142.0000 </r>
       <r>   -14.0672     0.0000   142.0000 </r>
       <r>   -13.9408     0.0000   142.0000 </r>
       <r>   -13.8144     0.0003   142.0000 </r>
       <r>   -13.6880     4.7771   142.6039 </r>
       <r>   -13.5616    11.0258   143.9978 </r>
       <r>   -13.4352     0.0178   144.0000 </r>
       <r>   -13.3088     0.0000   144.0000 </r>
       <r>   -13.1823     2.4629   144.3113 </r>
       <r>   -13.0559    73.3217   153.5802 </r>
       <r>   -12.9295   465.2261   212.3911 </r>
       <r>   -12.8031   656.1348   295.3355 </r>
       <r>   -12.6767   750.7468   390.2402 </r>
       <r>   -12.5503   716.8291   480.8572 </r>
       <r>   -12.4239   335.9158   523.3215 </r>
       <r>   -12.2974   161.6183   543.7523 </r>
       <r>   -12.1710   113.9759   558.1604 </r>
       <r>   -12.0446   103.9693   571.3036 </r>
       <r>   -11.9182   104.1402   584.4683 </r>
       <r>   -11.7918   117.3135   599.2983 </r>
       <r>   -11.6654    87.7789   610.3948 </r>
       <r>   -11.5390    12.6404   611.9927 </r>
       <r>   -11.4125     0.0576   612.0000 </r>
       <r>   -11.2861     0.0000   612.0000 </r>
       <r>   -11.1597     0.0000   612.0000 </r>
       <r>   -11.0333     0.0000   612.0000 </r>
       <r>   -10.9069     0.0000   612.0000 </r>
       <r>   -10.7805     0.0214   612.0027 </r>
       <r>   -10.6541    11.2292   613.4222 </r>
       <r>   -10.5277     4.5702   614.0000 </r>
       <r>   -10.4012     0.0003   614.0000 </r>
       <r>   -10.2748     0.0000   614.0000 </r>
       <r>   -10.1484     0.0000   614.0000 </r>
       <r>   -10.0220     0.0000   614.0000 </r>
       <r>    -9.8956     0.0000   614.0000 </r>
       <r>    -9.7692     0.0000   614.0000 </r>
       <r>    -9.6428     0.0000   614.0000 </r>
       <r>    -9.5163     0.0000   614.0000 </r>
       <r>    -9.3899     0.0000   614.0000 </r>
       <r>    -9.2635     0.0000   614.0000 </r>
       <r>    -9.1371     0.0000   614.0000 </r>
       <r>    -9.0107     0.0000   614.0000 </r>
       <r>    -8.8843     0.0000   614.0000 </r>
       <r>    -8.7579     0.0000   614.0000 </r>
       <r>    -8.6314     0.0000   614.0000 </r>
       <r>    -8.5050     0.0000   614.0000 </r>
       <r>    -8.3786     0.0000   614.0000 </r>
       <r>    -8.2522     0.0000   614.0000 </r>
       <r>    -8.1258     0.0000   614.0000 </r>
       <r>    -7.9994     0.0000   614.0000 </r>
       <r>    -7.8730     0.0000   614.0000 </r>
       <r>    -7.7466     0.0000   614.0000 </r>
       <r>    -7.6201     0.0000   614.0000 </r>
       <r>    -7.4937     0.0000   614.0000 </r>
       <r>    -7.3673     0.0000   614.0000 </r>
       <r>    -7.2409     0.0000   614.0000 </r>
       <r>    -7.1145     0.0000   614.0000 </r>
       <r>    -6.9881     0.0000   614.0000 </r>
       <r>    -6.8617     0.0000   614.0000 </r>
       <r>    -6.7352     0.0000   614.0000 </r>
       <r>    -6.6088     0.0000   614.0000 </r>
       <r>    -6.4824     0.0000   614.0000 </r>
       <r>    -6.3560     0.0000   614.0000 </r>
       <r>    -6.2296     0.0000   614.0000 </r>
       <r>    -6.1032     0.0000   614.0000 </r>
       <r>    -5.9768     0.0000   614.0000 </r>
       <r>    -5.8503     0.0000   614.0000 </r>
       <r>    -5.7239     0.0000   614.0000 </r>
       <r>    -5.5975     0.0000   614.0000 </r>
       <r>    -5.4711     0.0000   614.0000 </r>
       <r>    -5.3447     0.0000   614.0000 </r>
       <r>    -5.2183     0.2125   614.0269 </r>
       <r>    -5.0919     7.4459   614.9681 </r>
       <r>    -4.9655    12.8575   616.5935 </r>
       <r>    -4.8390    21.5810   619.3216 </r>
       <r>    -4.7126    30.1513   623.1332 </r>
       <r>    -4.5862    29.9787   626.9229 </r>
       <r>    -4.4598    37.4548   631.6577 </r>
       <r>    -4.3334    46.1122   637.4869 </r>
       <r>    -4.2070    48.2710   643.5890 </r>
       <r>    -4.0806    60.0284   651.1774 </r>
       <r>    -3.9541    47.8298   657.2237 </r>
       <r>    -3.8277    37.5622   661.9721 </r>
       <r>    -3.7013    55.5021   668.9883 </r>
       <r>    -3.5749    41.8554   674.2794 </r>
       <r>    -3.4485    27.7923   677.7928 </r>
       <r>    -3.3221    28.9373   681.4508 </r>
       <r>    -3.1957    32.3277   685.5375 </r>
       <r>    -3.0692    37.6349   690.2951 </r>
       <r>    -2.9428    39.7388   695.3186 </r>
       <r>    -2.8164    39.5335   700.3162 </r>
       <r>    -2.6900    32.4795   704.4220 </r>
       <r>    -2.5636    35.4183   708.8994 </r>
       <r>    -2.4372    38.3592   713.7485 </r>
       <r>    -2.3108    39.6727   718.7637 </r>
       <r>    -2.1844    52.7106   725.4270 </r>
       <r>    -2.0579    44.0470   730.9951 </r>
       <r>    -1.9315    40.2077   736.0779 </r>
       <r>    -1.8051    55.8804   743.1420 </r>
       <r>    -1.6787    73.1694   752.3916 </r>
       <r>    -1.5523    62.6276   760.3086 </r>
       <r>    -1.4259    56.7752   767.4858 </r>
       <r>    -1.2995    67.3626   776.0013 </r>
       <r>    -1.1730    59.6974   783.5479 </r>
       <r>    -1.0466    53.0780   790.2577 </r>
       <r>    -0.9202    56.0099   797.3381 </r>
       <r>    -0.7938    76.7861   807.0449 </r>
       <r>    -0.6674    68.5865   815.7152 </r>
       <r>    -0.5410    79.4098   825.7536 </r>
       <r>    -0.4146    71.3789   834.7769 </r>
       <r>    -0.2881    60.4232   842.4152 </r>
       <r>    -0.1617    71.4045   851.4417 </r>
       <r>    -0.0353    71.4820   860.4780 </r>
       <r>     0.0911    80.8795   870.7023 </r>
       <r>     0.2175    79.4761   880.7492 </r>
       <r>     0.3439    70.0444   889.6037 </r>
       <r>     0.4703    69.1106   898.3403 </r>
       <r>     0.5967    78.6201   908.2789 </r>
       <r>     0.7232    89.9742   919.6529 </r>
       <r>     0.8496    89.7299   930.9960 </r>
       <r>     0.9760    94.8319   942.9840 </r>
       <r>     1.1024    85.3229   953.7700 </r>
       <r>     1.2288   118.1297   968.7032 </r>
       <r>     1.3552   116.7777   983.4655 </r>
       <r>     1.4816   122.9223   999.0046 </r>
       <r>     1.6081   127.3737  1015.1063 </r>
       <r>     1.7345    90.4200  1026.5367 </r>
       <r>     1.8609    57.3595  1033.7877 </r>
       <r>     1.9873    59.2675  1041.2799 </r>
       <r>     2.1137    35.4453  1045.7607 </r>
       <r>     2.2401    10.2419  1047.0554 </r>
       <r>     2.3665     7.4873  1048.0019 </r>
       <r>     2.4930    10.4578  1049.3239 </r>
       <r>     2.6194     5.3471  1049.9998 </r>
       <r>     2.7458     0.0013  1050.0000 </r>
       <r>     2.8722     0.0000  1050.0000 </r>
       <r>     2.9986     0.0000  1050.0000 </r>
       <r>     3.1250     0.0000  1050.0000 </r>
       <r>     3.2514     0.0000  1050.0000 </r>
       <r>     3.3778     0.0000  1050.0000 </r>
       <r>     3.5043     0.0000  1050.0000 </r>
       <r>     3.6307     0.0000  1050.0000 </r>
       <r>     3.7571     0.0000  1050.0000 </r>
       <r>     3.8835     0.0000  1050.0000 </r>
       <r>     4.0099     0.0000  1050.0000 </r>
       <r>     4.1363     0.0000  1050.0000 </r>
       <r>     4.2627     0.0000  1050.0000 </r>
       <r>     4.3892     0.0000  1050.0000 </r>
       <r>     4.5156     0.0000  1050.0000 </r>
       <r>     4.6420     0.0000  1050.0000 </r>
       <r>     4.7684     0.0000  1050.0000 </r>
       <r>     4.8948     0.0000  1050.0000 </r>
       <r>     5.0212     0.3835  1050.0485 </r>
       <r>     5.1476    14.4730  1051.8781 </r>
       <r>     5.2741     0.9646  1052.0000 </r>
       <r>     5.4005     0.0000  1052.0000 </r>
       <r>     5.5269     0.0000  1052.0000 </r>
       <r>     5.6533     0.0000  1052.0000 </r>
       <r>     5.7797     0.0000  1052.0000 </r>
       <r>     5.9061     0.0000  1052.0000 </r>
       <r>     6.0325     0.0000  1052.0000 </r>
       <r>     6.1589     0.0000  1052.0000 </r>
       <r>     6.2854     0.0000  1052.0000 </r>
       <r>     6.4118     0.0000  1052.0000 </r>
       <r>     6.5382     0.0000  1052.0000 </r>
       <r>     6.6646     0.0005  1052.0001 </r>
       <r>     6.7910     1.9191  1052.2427 </r>
       <r>     6.9174    16.1978  1054.2903 </r>
       <r>     7.0438     9.5150  1055.4931 </r>
       <r>     7.1703     5.9524  1056.2456 </r>
       <r>     7.2967     0.0350  1056.2500 </r>
       <r>     7.4231     0.0006  1056.2501 </r>
       <r>     7.5495     1.1259  1056.3924 </r>
       <r>     7.6759     3.3931  1056.8214 </r>
       <r>     7.8023     3.3062  1057.2393 </r>
       <r>     7.9287     0.8200  1057.3430 </r>
       <r>     8.0552     4.6077  1057.9254 </r>
       <r>     8.1816     2.5308  1058.2454 </r>
       <r>     8.3080     0.0367  1058.2500 </r>
       <r>     8.4344     0.8317  1058.3551 </r>
       <r>     8.5608     7.2249  1059.2685 </r>
       <r>     8.6872     6.0790  1060.0369 </r>
       <r>     8.8136     4.5593  1060.6133 </r>
       <r>     8.9400     6.7633  1061.4683 </r>
       <r>     9.0665     4.1434  1061.9920 </r>
       <r>     9.1929     3.7617  1062.4676 </r>
       <r>     9.3193    10.2098  1063.7582 </r>
       <r>     9.4457     6.9174  1064.6327 </r>
       <r>     9.5721     4.5586  1065.2089 </r>
       <r>     9.6985     3.1474  1065.6068 </r>
       <r>     9.8249    14.6478  1067.4585 </r>
       <r>     9.9514    13.3947  1069.1518 </r>
       <r>    10.0778    10.6063  1070.4926 </r>
       <r>    10.2042     6.6689  1071.3356 </r>
       <r>    10.3306    19.7192  1073.8284 </r>
       <r>    10.4570    28.9211  1077.4844 </r>
       <r>    10.5834    28.8962  1081.1373 </r>
       <r>    10.7098    46.0470  1086.9583 </r>
       <r>    10.8363    41.7953  1092.2418 </r>
       <r>    10.9627    40.1287  1097.3146 </r>
       <r>    11.0891    19.8114  1099.8190 </r>
       <r>    11.2155    25.1609  1102.9997 </r>
       <r>    11.3419    34.8323  1107.4029 </r>
       <r>    11.4683    27.8610  1110.9250 </r>
       <r>    11.5947    36.2543  1115.5080 </r>
       <r>    11.7212    37.7227  1120.2767 </r>
       <r>    11.8476    35.8152  1124.8042 </r>
       <r>    11.9740    36.6896  1129.4423 </r>
       <r>    12.1004    24.3297  1132.5179 </r>
       <r>    12.2268    28.8548  1136.1655 </r>
       <r>    12.3532    41.1005  1141.3612 </r>
       <r>    12.4796    49.8092  1147.6577 </r>
       <r>    12.6060    50.5754  1154.0511 </r>
       <r>    12.7325    27.0836  1157.4749 </r>
       <r>    12.8589    17.3976  1159.6742 </r>
       <r>    12.9853    22.2877  1162.4916 </r>
       <r>    13.1117    33.0007  1166.6634 </r>
       <r>    13.2381    42.5003  1172.0360 </r>
       <r>    13.3645    45.0091  1177.7258 </r>
       <r>    13.4909    33.8653  1182.0068 </r>
       <r>    13.6174    31.1690  1185.9470 </r>
       <r>    13.7438    38.3863  1190.7995 </r>
       <r>    13.8702    26.7031  1194.1752 </r>
       <r>    13.9966    36.8560  1198.8343 </r>
       <r>    14.1230    37.5637  1203.5828 </r>
       <r>    14.2494    30.6191  1207.4535 </r>
       <r>    14.3758    29.3052  1211.1581 </r>
       <r>    14.5023    45.7663  1216.9436 </r>
       <r>    14.6287    36.4191  1221.5474 </r>
       <r>    14.7551    39.7472  1226.5720 </r>
       <r>    14.8815    32.8891  1230.7297 </r>
       <r>    15.0079    29.4895  1234.4575 </r>
       <r>    15.1343    31.8830  1238.4880 </r>
       <r>    15.2607    44.3681  1244.0967 </r>
       <r>    15.3871    23.3233  1247.0451 </r>
       <r>    15.5136    24.2105  1250.1057 </r>
       <r>    15.6400    33.7436  1254.3713 </r>
       <r>    15.7664    37.7674  1259.1456 </r>
       <r>    15.8928     6.7349  1259.9970 </r>
       <r>    16.0192     0.0236  1260.0000 </r>
       <r>    16.1456     0.0000  1260.0000 </r>
       <r>    16.2720     0.0000  1260.0000 </r>
       <r>    16.3985     0.0000  1260.0000 </r>
       <r>    16.5249     0.0000  1260.0000 </r>
       <r>    16.6513     0.0000  1260.0000 </r>
       <r>    16.7777     0.0000  1260.0000 </r>
       <r>    16.9041     0.0000  1260.0000 </r>
       <r>    17.0305     0.0000  1260.0000 </r>
       <r>    17.1569     0.0000  1260.0000 </r>
       <r>    17.2834     0.0000  1260.0000 </r>
       <r>    17.4098     0.0000  1260.0000 </r>
       <r>    17.5362     0.0000  1260.0000 </r>
      </set>
     </set>
    </array>
   </total>
  </dos>
 </calculation>
 <structure name="finalpos" >
  <crystal>
   <varray name="basis" >
    <v>       0.00000000      12.28047371       0.00000000 </v>
    <v>       9.14270115       0.00000000       0.00000000 </v>
    <v>       0.00000000      -2.76826164     -11.30069748 </v>
   </varray>
   <i name="volume">   1268.80503319 </i>
   <varray name="rec_basis" >
    <v>       0.00000000       0.08143008      -0.01994742 </v>
    <v>       0.10937687      -0.00000000       0.00000000 </v>
    <v>       0.00000000       0.00000000      -0.08849011 </v>
   </varray>
  </crystal>
  <varray name="positions" >
   <v>       0.65854710       0.00045250       0.15670063 </v>
   <v>       0.65823398       0.99957819       0.65643034 </v>
   <v>       0.65990472       0.33374759       0.15573231 </v>
   <v>       0.65955440       0.33283430       0.65694063 </v>
   <v>       0.65868429       0.66661868       0.15595499 </v>
   <v>       0.65802522       0.66559505       0.65591109 </v>
   <v>       0.84086257       0.16734914       0.34392572 </v>
   <v>       0.84087678       0.16635488       0.84329819 </v>
   <v>       0.84161510       0.49989285       0.34344058 </v>
   <v>       0.84095162       0.50017960       0.84345851 </v>
   <v>       0.84036178       0.83375288       0.34353495 </v>
   <v>       0.84072481       0.83309686       0.84332068 </v>
   <v>       0.58845808       0.16679581       0.39657113 </v>
   <v>       0.59140759       0.16654852       0.89772984 </v>
   <v>       0.58957436       0.50233396       0.39568382 </v>
   <v>       0.59087092       0.49996542       0.89767036 </v>
   <v>       0.59148384       0.83465804       0.39803763 </v>
   <v>       0.59123442       0.83328105       0.89764343 </v>
   <v>       0.90780662       0.00111085       0.10238277 </v>
   <v>       0.90925950       0.99962944       0.60263185 </v>
   <v>       0.91025654       0.33470363       0.10272506 </v>
   <v>       0.90960264       0.33307168       0.60245565 </v>
   <v>       0.91064299       0.66622579       0.10321133 </v>
   <v>       0.90912851       0.66657414       0.60249668 </v>
   <v>       0.15894402       0.16726213       0.15739162 </v>
   <v>       0.15968749       0.16612989       0.65776416 </v>
   <v>       0.16369188       0.50088366       0.15711068 </v>
   <v>       0.15937938       0.49989729       0.65773688 </v>
   <v>       0.15826081       0.83439932       0.15707728 </v>
   <v>       0.15991671       0.83284907       0.65677188 </v>
   <v>       0.34002038       0.00074401       0.34404943 </v>
   <v>       0.34163313       0.99986774       0.84342515 </v>
   <v>       0.34136887       0.33345549       0.84504006 </v>
   <v>       0.33987277       0.66405418       0.33700896 </v>
   <v>       0.34167111       0.66593656       0.84459708 </v>
   <v>       0.09053490       0.00069093       0.39781675 </v>
   <v>       0.09142192       0.00008638       0.89810326 </v>
   <v>       0.09344957       0.33306220       0.39923149 </v>
   <v>       0.09007117       0.33291239       0.89737570 </v>
   <v>       0.09007763       0.66780958       0.39789259 </v>
   <v>       0.09081649       0.66702876       0.89740110 </v>
   <v>       0.40942363       0.16823003       0.10354053 </v>
   <v>       0.40830692       0.16550091       0.60158680 </v>
   <v>       0.40647836       0.49859201       0.10726384 </v>
   <v>       0.40853285       0.49545455       0.60269170 </v>
   <v>       0.40937398       0.83306806       0.10225553 </v>
   <v>       0.40772697       0.83072862       0.60065117 </v>
   <v>       0.99627812       0.16703658       0.12841134 </v>
   <v>       0.99684687       0.16624652       0.62726608 </v>
   <v>       0.99926314       0.50005406       0.12836948 </v>
   <v>       0.99668783       0.49997201       0.62720958 </v>
   <v>       0.99550208       0.83498558       0.12694244 </v>
   <v>       0.99695211       0.83303266       0.62723346 </v>
   <v>       0.50264474       0.00006739       0.37244693 </v>
   <v>       0.50410696       0.00002741       0.87261462 </v>
   <v>       0.49516898       0.33497651       0.36800552 </v>
   <v>       0.50406100       0.33298371       0.87194669 </v>
   <v>       0.50430124       0.66896413       0.37487439 </v>
   <v>       0.50402174       0.66676685       0.87147862 </v>
   <v>       0.67153009       0.16866558       0.28121138 </v>
   <v>       0.67260399       0.16601404       0.78009623 </v>
   <v>       0.67227543       0.49952390       0.28040643 </v>
   <v>       0.67251023       0.49970350       0.78007277 </v>
   <v>       0.67249586       0.83388541       0.28053052 </v>
   <v>       0.67223143       0.83245927       0.78008588 </v>
   <v>       0.82672061       0.00130820       0.22004304 </v>
   <v>       0.82673077       0.99999151       0.71886551 </v>
   <v>       0.82770905       0.33392974       0.21947648 </v>
   <v>       0.82737262       0.33294731       0.71909441 </v>
   <v>       0.82765137       0.66633764       0.21962822 </v>
   <v>       0.82677849       0.66603136       0.71888645 </v>
   <v>       0.83168757       0.00057627       0.44620809 </v>
   <v>       0.83159418       0.00003696       0.94553430 </v>
   <v>       0.83223776       0.33371359       0.44610312 </v>
   <v>       0.83290273       0.33344696       0.94597467 </v>
   <v>       0.83219754       0.66641795       0.44585622 </v>
   <v>       0.83316218       0.66648942       0.94631836 </v>
   <v>       0.66880286       0.16631396       0.05419769 </v>
   <v>       0.66538807       0.16726478       0.55270406 </v>
   <v>       0.66903052       0.50044089       0.05374805 </v>
   <v>       0.66576977       0.49809822       0.55241926 </v>
   <v>       0.66785603       0.83379613       0.05431852 </v>
   <v>       0.66789675       0.83316128       0.55459347 </v>
   <v>       0.49618056       0.00077612       0.12793411 </v>
   <v>       0.49529334       0.99805491       0.62602788 </v>
   <v>       0.49826543       0.33332973       0.12663521 </v>
   <v>       0.49735567       0.33090575       0.62714141 </v>
   <v>       0.49648109       0.66613856       0.12640904 </v>
   <v>       0.49480055       0.66335915       0.62522060 </v>
   <v>       0.00384039       0.16791177       0.37315499 </v>
   <v>       0.00304595       0.16591096       0.87188792 </v>
   <v>       0.00467008       0.49901731       0.37303704 </v>
   <v>       0.00342928       0.50023123       0.87188674 </v>
   <v>       0.00253579       0.83462552       0.37385202 </v>
   <v>       0.00336050       0.83384501       0.87206071 </v>
   <v>       0.17234151       0.00185953       0.28090675 </v>
   <v>       0.17295050       0.99966675       0.78077789 </v>
   <v>       0.17763635       0.33049610       0.28386222 </v>
   <v>       0.17281911       0.33284453       0.78137043 </v>
   <v>       0.16904028       0.67271254       0.28037819 </v>
   <v>       0.17297015       0.66627014       0.78071080 </v>
   <v>       0.32862194       0.17215074       0.22299407 </v>
   <v>       0.32806515       0.16635293       0.72006747 </v>
   <v>       0.32764340       0.49908984       0.71995932 </v>
   <v>       0.32687188       0.83755230       0.21805774 </v>
   <v>       0.32775708       0.83264777       0.71929092 </v>
   <v>       0.33391494       0.17103486       0.44427004 </v>
   <v>       0.33278722       0.16627534       0.94671396 </v>
   <v>       0.33168430       0.48855227       0.44352696 </v>
   <v>       0.33444992       0.49978855       0.94709172 </v>
   <v>       0.33206350       0.83034332       0.44374175 </v>
   <v>       0.33292416       0.83356027       0.94551972 </v>
   <v>       0.16813607       0.00138024       0.05480894 </v>
   <v>       0.16892457       0.00008055       0.55415776 </v>
   <v>       0.16560761       0.33148017       0.05366008 </v>
   <v>       0.16877680       0.33305164       0.55581949 </v>
   <v>       0.16765559       0.66906277       0.05350944 </v>
   <v>       0.16879691       0.66576856       0.55412528 </v>
   <v>       0.32676617       0.49696629       0.22652236 </v>
   <v>       0.34183624       0.33824414       0.33806494 </v>
  </varray>
 </structure>
</modeling>
