       N       E                     dE             d eps       ncg     rms          ort
SDA:   1    -0.892848610104E+03   -0.89285E+03    0.00000E+00  5048   0.249E+03 0.000E+00
CGA:   2    -0.911371404609E+03   -0.18523E+02   -0.25713E+02  5048   0.198E+03-0.249E+02
CGA:   3    -0.939253346996E+03   -0.27882E+02   -0.26780E+02  5048   0.506E+02 0.860E+00
CGA:   4    -0.943424248979E+03   -0.41709E+01   -0.46848E+01  5048   0.873E+02-0.493E+01
CGA:   5    -0.948077506997E+03   -0.46533E+01   -0.55324E+01  5048   0.219E+02-0.122E+02
CGA:   6    -0.949451960065E+03   -0.13745E+01   -0.14277E+01  5048   0.530E+01-0.322E+00
CGA:   7    -0.950293342859E+03   -0.84138E+00   -0.84195E+00  5048   0.319E+01 0.165E-01
CGA:   8    -0.950607812468E+03   -0.31447E+00   -0.31804E+00  5048   0.103E+01-0.904E-02
CGA:   9    -0.950833906646E+03   -0.22609E+00   -0.22564E+00  5048   0.799E+00 0.668E-02
CGA:  10    -0.950928528466E+03   -0.94622E-01   -0.95322E-01  5048   0.319E+00 0.926E-03
CGA:  11    -0.950984173182E+03   -0.55645E-01   -0.55639E-01  5048   0.184E+00 0.115E-02
CGA:  12    -0.951007306262E+03   -0.23133E-01   -0.23198E-01  5048   0.960E-01 0.340E-03
CGA:  13    -0.951021852439E+03   -0.14546E-01   -0.14552E-01  5048   0.327E-01 0.235E-03
CGA:  14    -0.951027238510E+03   -0.53861E-02   -0.53867E-02  5048   0.209E-01 0.121E-03
CGA:  15    -0.951030164874E+03   -0.29264E-02   -0.29293E-02  5048   0.711E-02 0.827E-04
CGA:  16    -0.951031592674E+03   -0.14278E-02   -0.14249E-02  5048   0.552E-02 0.861E-04
CGA:  17    -0.951032378087E+03   -0.78541E-03   -0.78674E-03  5048   0.231E-02 0.453E-04
CGA:  18    -0.951032830759E+03   -0.45267E-03   -0.45258E-03  5048   0.144E-02 0.338E-05
CGA:  19    -0.951033058335E+03   -0.22758E-03   -0.22753E-03  5048   0.935E-03-0.422E-05
CGA:  20    -0.951033228904E+03   -0.17057E-03   -0.17057E-03  5048   0.466E-03 0.243E-06
CGA:  21    -0.951033326436E+03   -0.97532E-04   -0.97393E-04  5048   0.406E-03 0.350E-05
CGA:  22    -0.951033389216E+03   -0.62780E-04   -0.62763E-04  5048   0.223E-03-0.105E-05
CGA:  23    -0.951033433639E+03   -0.44423E-04   -0.44651E-04  5048   0.145E-03-0.731E-05
CGA:  24    -0.951033458133E+03   -0.24494E-04   -0.24510E-04  5048   0.979E-04-0.523E-05
CGA:  25    -0.951033476824E+03   -0.18691E-04   -0.18756E-04  5048   0.545E-04-0.236E-05
CGA:  26    -0.951033487839E+03   -0.11015E-04   -0.11035E-04  5048   0.403E-04-0.587E-06
CGA:  27    -0.951033494827E+03   -0.69882E-05   -0.69888E-05  5048   0.241E-04-0.824E-06
   1 F= -.95103349E+03 E0= -.95102182E+03  d E =-.233433E-01
