Ga8 O12                                 
    1.000000000000000     
     0.0000000000000000   12.2804737091000007    0.0000000000000000
     9.1427011490000005    0.0000000000000000    0.0000000000000000
     0.0000000000000000   -2.7682616411000001  -11.3006974810000003
   Ga   O    N    Fe
    47    71     1     1
Direct
  0.6607176538951833  0.0003667808068570  0.1567028892861231
  0.6597733012108975  0.9997790322840459  0.6572593130215623
  0.6595705280531661  0.3345926550691374  0.1559536498879268
  0.6584901841524271  0.3332614577107051  0.6578590002078641
  0.6592247652319330  0.6674998286383982  0.1571277006813077
  0.6597828403203607  0.6661506715389649  0.6564217461554591
  0.8409392790310051  0.1661069617132327  0.8447063750619108
  0.8416354211445736  0.5037509238893207  0.3424760495348096
  0.8410852311770114  0.4998416111021271  0.8442161359411884
  0.8408677455676141  0.8395066634177013  0.3445328856840391
  0.8412116363467064  0.8333893277063353  0.8437053381474087
  0.5926561355531916  0.1656209889229885  0.3982450352831535
  0.5904476868849073  0.1663588392252180  0.8977219566223411
  0.5899624062432380  0.4999842433268853  0.3971943392155666
  0.5906764127025639  0.5002542920658470  0.8974448989463752
  0.5912163563970552  0.8334799306264102  0.3976853159216134
  0.5911313647839904  0.8331458742191629  0.8976473372552434
  0.9085134207281271  0.0003811952847030  0.1040718171022661
  0.9087641612428214  0.0008550983564604  0.6012902360423453
  0.9093874008162288  0.3322674696510006  0.1030980265095351
  0.9055733913768691  0.3280988444886646  0.6031208496782057
  0.9089879188513095  0.6666233469722016  0.1027680927016874
  0.9086924404148107  0.6655614923031905  0.6020995090834234
  0.1592343350259426  0.1663594694439752  0.1564438413190814
  0.1591735420061511  0.1659479384508415  0.6564927929075637
  0.1590710734842347  0.4996763007423795  0.1565277370697942
  0.1572420700488237  0.4983482866274258  0.6558503108288605
  0.1588432506868571  0.8335619906933616  0.1567274509632171
  0.1583615897003199  0.8329171202996832  0.6565396494903482
  0.3406529236944493  0.9999665755117277  0.3437776093909264
  0.3407914630057505  0.9994748720285145  0.8435293082093480
  0.3410210879679596  0.3326999970076869  0.3434797021847444
  0.3407642291148179  0.3333224756809088  0.8432772750765452
  0.3409286389093467  0.6667398825965662  0.3433109332022113
  0.3404194670085516  0.6664091537372698  0.8431135787671593
  0.0885409431399680  0.9998895242049954  0.3972440223279250
  0.0910021552810463  0.9999547518046583  0.8976757202174852
  0.0887791896792294  0.3315302885508657  0.3958502015625172
  0.0910130372540081  0.3331314170178672  0.8975141652265179
  0.0919053273502968  0.6668761125633864  0.3977366971915899
  0.0909764395357229  0.6665264076017081  0.8978213531240655
  0.4091780162760159  0.1668356474116450  0.1025124615936974
  0.4092078014789067  0.1662055517073568  0.6025665837862277
  0.4093615169107849  0.5001941577052236  0.1025900984855781
  0.4085084259113856  0.4999197770533215  0.6024604610874675
  0.4094855514835274  0.8342957535994628  0.1028224092137862
  0.4095398544748932  0.8328542975747695  0.6027510244552090
  0.9969295550672683  0.1661840740640486  0.1265746282301521
  0.9980050204796527  0.1655645831499868  0.6316538651477970
  0.9963536644709734  0.4996815733642137  0.1271233788827146
  0.9938059010663167  0.4964055657656274  0.6253047407437862
  0.9962109045535641  0.8335656323310943  0.1276540173365319
  0.9956268513309965  0.8330018461711219  0.6269058722637979
  0.5039751983326255  0.0003670773144648  0.3728291500031347
  0.5033407143388899  0.9995231142758882  0.8726849366871008
  0.5042217832418459  0.3318509112617605  0.3724810033618198
  0.5034444705776835  0.3333905194483719  0.8725139048623873
  0.5034646228453212  0.6670523528909769  0.3731013915301347
  0.5032613142529456  0.6668109043233983  0.8723112635439421
  0.6769649745347834  0.1678735606281165  0.2821330356050709
  0.6721627530123939  0.1660465534458808  0.7808518516837992
  0.6714379379379878  0.5007634270262216  0.2802226572329971
  0.6721905207341194  0.5000166389745857  0.7802184403655588
  0.6725438685846470  0.8347050612369387  0.2806122949080390
  0.6727147640370035  0.8329078395844647  0.7805537085258010
  0.8277386709366326  0.0030753599689533  0.2216336232772917
  0.8277214677192717  0.9999347888059944  0.7198621783195662
  0.8266866931263763  0.3333205293761807  0.2190542406555309
  0.8267295566970603  0.3326287068615912  0.7216133164527037
  0.8272477525930029  0.6678235640317567  0.2195901838011309
  0.8275157480406392  0.6659758745637703  0.7197483271425682
  0.8321463864991685  0.0088644367521269  0.4449829240443961
  0.8321983734555332  0.9996060597313416  0.9467494496312199
  0.8319447448176405  0.3332994056391314  0.9465872968110389
  0.8319452664517968  0.6704202126314556  0.4455304786727439
  0.8323042770493529  0.6666294229705798  0.9460357216035291
  0.6673610879554843  0.1668792611477130  0.0541425920390850
  0.6685937800392736  0.1676389919055055  0.5548852896622876
  0.6678978187136053  0.5010160378910129  0.0538874897103412
  0.6697004168219607  0.4982675431591659  0.5533733460347889
  0.6682108061504763  0.8336107412890925  0.0542345944141047
  0.6683414005056818  0.8333831695263640  0.5542255205383739
  0.4975831902235512  0.0008820693058880  0.1283648144646392
  0.4969205709654290  0.9997261088285541  0.6272493702776387
  0.4969050419841423  0.3332718451387464  0.1277150284957287
  0.4962174797861181  0.3333478639397711  0.6271060938258657
  0.4964700999839167  0.6672204585237296  0.1274657763685312
  0.4970201280109023  0.6658974642911701  0.6268556711527964
  0.9990005252785323  0.1651525704120260  0.3687149780250181
  0.0036294891008950  0.1665588679530572  0.8738352581890254
  0.0048641248728742  0.5006499797641553  0.3712870336592715
  0.0036229760762367  0.4998072729324363  0.8724282376593280
  0.0031856217125323  0.8323426219713639  0.3726240596514856
  0.0036782407921692  0.8332421159591803  0.8729376395199608
  0.1718981545030402  0.0004542227355984  0.2811374374532463
  0.1729816672065212  0.9990045382838701  0.7808601649341114
  0.1723635487561381  0.3324265415445709  0.2804011873601198
  0.1726854187739590  0.3333078774088563  0.7803821247916645
  0.1730333778390971  0.6669435203899994  0.2803711711308310
  0.1718902711752719  0.6658385090593768  0.7801554579787791
  0.3275419800301478  0.1663322021100200  0.2196298167033177
  0.3273407836347815  0.1662282134223503  0.7193446815446194
  0.3276595197382406  0.4995718211599183  0.2196819322792578
  0.3266069872906812  0.4994352999824159  0.7189850737383523
  0.3275571995062165  0.8340107047494243  0.2197876254066600
  0.3272358740384220  0.8327350199699168  0.7192394691676682
  0.3324011935154161  0.1664913628654645  0.4460863947624745
  0.3324511112351516  0.1665541077818773  0.9458701716863800
  0.3325309666394034  0.4996986409321096  0.4456272937095989
  0.3324891548039162  0.4999439863826041  0.9459508269125791
  0.3324347495166577  0.8331393985501379  0.4461949914011001
  0.3324800227735949  0.8331121522777707  0.9461697412925076
  0.1683283227336005  0.9996937754033723  0.0542722420495494
  0.1668349933862601  0.9996681770213129  0.5535323230784144
  0.1682234007125061  0.3333061597393367  0.0540837743296478
  0.1660718021722474  0.3317643242917399  0.5526459744483390
  0.1678142600086332  0.6666383412594001  0.0543994436639892
  0.1671951295174523  0.6657809163755815  0.5546076740275225
  0.8399274484847439  0.3231147820693749  0.4376667864884070
  0.8386764946936296  0.1781055447694584  0.3425016589930934
 
  0.00000000E+00  0.00000000E+00  0.00000000E+00
  0.00000000E+00  0.00000000E+00  0.00000000E+00
  0.00000000E+00  0.00000000E+00  0.00000000E+00
  0.00000000E+00  0.00000000E+00  0.00000000E+00
  0.00000000E+00  0.00000000E+00  0.00000000E+00
  0.00000000E+00  0.00000000E+00  0.00000000E+00
  0.00000000E+00  0.00000000E+00  0.00000000E+00
  0.00000000E+00  0.00000000E+00  0.00000000E+00
  0.00000000E+00  0.00000000E+00  0.00000000E+00
  0.00000000E+00  0.00000000E+00  0.00000000E+00
  0.00000000E+00  0.00000000E+00  0.00000000E+00
  0.00000000E+00  0.00000000E+00  0.00000000E+00
  0.00000000E+00  0.00000000E+00  0.00000000E+00
  0.00000000E+00  0.00000000E+00  0.00000000E+00
  0.00000000E+00  0.00000000E+00  0.00000000E+00
  0.00000000E+00  0.00000000E+00  0.00000000E+00
  0.00000000E+00  0.00000000E+00  0.00000000E+00
  0.00000000E+00  0.00000000E+00  0.00000000E+00
  0.00000000E+00  0.00000000E+00  0.00000000E+00
  0.00000000E+00  0.00000000E+00  0.00000000E+00
  0.00000000E+00  0.00000000E+00  0.00000000E+00
  0.00000000E+00  0.00000000E+00  0.00000000E+00
  0.00000000E+00  0.00000000E+00  0.00000000E+00
  0.00000000E+00  0.00000000E+00  0.00000000E+00
  0.00000000E+00  0.00000000E+00  0.00000000E+00
  0.00000000E+00  0.00000000E+00  0.00000000E+00
  0.00000000E+00  0.00000000E+00  0.00000000E+00
  0.00000000E+00  0.00000000E+00  0.00000000E+00
  0.00000000E+00  0.00000000E+00  0.00000000E+00
  0.00000000E+00  0.00000000E+00  0.00000000E+00
  0.00000000E+00  0.00000000E+00  0.00000000E+00
  0.00000000E+00  0.00000000E+00  0.00000000E+00
  0.00000000E+00  0.00000000E+00  0.00000000E+00
  0.00000000E+00  0.00000000E+00  0.00000000E+00
  0.00000000E+00  0.00000000E+00  0.00000000E+00
  0.00000000E+00  0.00000000E+00  0.00000000E+00
  0.00000000E+00  0.00000000E+00  0.00000000E+00
  0.00000000E+00  0.00000000E+00  0.00000000E+00
  0.00000000E+00  0.00000000E+00  0.00000000E+00
  0.00000000E+00  0.00000000E+00  0.00000000E+00
  0.00000000E+00  0.00000000E+00  0.00000000E+00
  0.00000000E+00  0.00000000E+00  0.00000000E+00
  0.00000000E+00  0.00000000E+00  0.00000000E+00
  0.00000000E+00  0.00000000E+00  0.00000000E+00
  0.00000000E+00  0.00000000E+00  0.00000000E+00
  0.00000000E+00  0.00000000E+00  0.00000000E+00
  0.00000000E+00  0.00000000E+00  0.00000000E+00
  0.00000000E+00  0.00000000E+00  0.00000000E+00
  0.00000000E+00  0.00000000E+00  0.00000000E+00
  0.00000000E+00  0.00000000E+00  0.00000000E+00
  0.00000000E+00  0.00000000E+00  0.00000000E+00
  0.00000000E+00  0.00000000E+00  0.00000000E+00
  0.00000000E+00  0.00000000E+00  0.00000000E+00
  0.00000000E+00  0.00000000E+00  0.00000000E+00
  0.00000000E+00  0.00000000E+00  0.00000000E+00
  0.00000000E+00  0.00000000E+00  0.00000000E+00
  0.00000000E+00  0.00000000E+00  0.00000000E+00
  0.00000000E+00  0.00000000E+00  0.00000000E+00
  0.00000000E+00  0.00000000E+00  0.00000000E+00
  0.00000000E+00  0.00000000E+00  0.00000000E+00
  0.00000000E+00  0.00000000E+00  0.00000000E+00
  0.00000000E+00  0.00000000E+00  0.00000000E+00
  0.00000000E+00  0.00000000E+00  0.00000000E+00
  0.00000000E+00  0.00000000E+00  0.00000000E+00
  0.00000000E+00  0.00000000E+00  0.00000000E+00
  0.00000000E+00  0.00000000E+00  0.00000000E+00
  0.00000000E+00  0.00000000E+00  0.00000000E+00
  0.00000000E+00  0.00000000E+00  0.00000000E+00
  0.00000000E+00  0.00000000E+00  0.00000000E+00
  0.00000000E+00  0.00000000E+00  0.00000000E+00
  0.00000000E+00  0.00000000E+00  0.00000000E+00
  0.00000000E+00  0.00000000E+00  0.00000000E+00
  0.00000000E+00  0.00000000E+00  0.00000000E+00
  0.00000000E+00  0.00000000E+00  0.00000000E+00
  0.00000000E+00  0.00000000E+00  0.00000000E+00
  0.00000000E+00  0.00000000E+00  0.00000000E+00
  0.00000000E+00  0.00000000E+00  0.00000000E+00
  0.00000000E+00  0.00000000E+00  0.00000000E+00
  0.00000000E+00  0.00000000E+00  0.00000000E+00
  0.00000000E+00  0.00000000E+00  0.00000000E+00
  0.00000000E+00  0.00000000E+00  0.00000000E+00
  0.00000000E+00  0.00000000E+00  0.00000000E+00
  0.00000000E+00  0.00000000E+00  0.00000000E+00
  0.00000000E+00  0.00000000E+00  0.00000000E+00
  0.00000000E+00  0.00000000E+00  0.00000000E+00
  0.00000000E+00  0.00000000E+00  0.00000000E+00
  0.00000000E+00  0.00000000E+00  0.00000000E+00
  0.00000000E+00  0.00000000E+00  0.00000000E+00
  0.00000000E+00  0.00000000E+00  0.00000000E+00
  0.00000000E+00  0.00000000E+00  0.00000000E+00
  0.00000000E+00  0.00000000E+00  0.00000000E+00
  0.00000000E+00  0.00000000E+00  0.00000000E+00
  0.00000000E+00  0.00000000E+00  0.00000000E+00
  0.00000000E+00  0.00000000E+00  0.00000000E+00
  0.00000000E+00  0.00000000E+00  0.00000000E+00
  0.00000000E+00  0.00000000E+00  0.00000000E+00
  0.00000000E+00  0.00000000E+00  0.00000000E+00
  0.00000000E+00  0.00000000E+00  0.00000000E+00
  0.00000000E+00  0.00000000E+00  0.00000000E+00
  0.00000000E+00  0.00000000E+00  0.00000000E+00
  0.00000000E+00  0.00000000E+00  0.00000000E+00
  0.00000000E+00  0.00000000E+00  0.00000000E+00
  0.00000000E+00  0.00000000E+00  0.00000000E+00
  0.00000000E+00  0.00000000E+00  0.00000000E+00
  0.00000000E+00  0.00000000E+00  0.00000000E+00
  0.00000000E+00  0.00000000E+00  0.00000000E+00
  0.00000000E+00  0.00000000E+00  0.00000000E+00
  0.00000000E+00  0.00000000E+00  0.00000000E+00
  0.00000000E+00  0.00000000E+00  0.00000000E+00
  0.00000000E+00  0.00000000E+00  0.00000000E+00
  0.00000000E+00  0.00000000E+00  0.00000000E+00
  0.00000000E+00  0.00000000E+00  0.00000000E+00
  0.00000000E+00  0.00000000E+00  0.00000000E+00
  0.00000000E+00  0.00000000E+00  0.00000000E+00
  0.00000000E+00  0.00000000E+00  0.00000000E+00
  0.00000000E+00  0.00000000E+00  0.00000000E+00
  0.00000000E+00  0.00000000E+00  0.00000000E+00
  0.00000000E+00  0.00000000E+00  0.00000000E+00
  0.00000000E+00  0.00000000E+00  0.00000000E+00
  0.00000000E+00  0.00000000E+00  0.00000000E+00
