 running    4 mpi-ranks, on    1 nodes
 distrk:  each k-point on    1 cores,    4 groups
 distr:  one band on    1 cores,    1 groups
 OpenACC runtime initialized ...    4 GPUs detected
 vasp.6.4.2 20Jul23 (build Nov 12 2023 22:16:35) complex                         
 POSCAR found type information on POSCAR GaO N Fe
 POSCAR found :  4 types and     120 ions
 scaLAPACK will be used selectively (only on CPU)
 LDA part: xc-table for Pade appr. of Perdew
 POSCAR, INCAR and KPOINTS ok, starting setup
 FFT: planning ... GRIDC
 FFT: planning ... GRID_SOFT
 FFT: planning ... GRID
 WAVECAR not read
 initial charge from wavefunction
 entering main loop
       N       E                     dE             d eps       ncg     rms          ort
DAV:   1    -0.184173270956E+05   -0.18417E+05   -0.54188E+05  5040   0.743E+03
DAV:   2    -0.621826547172E+05   -0.43765E+05   -0.42405E+05  5040   0.121E+03
DAV:   3    -0.667667255611E+05   -0.45841E+04   -0.41393E+04  5040   0.355E+02
DAV:   4    -0.673409835005E+05   -0.57426E+03   -0.47924E+03  5040   0.106E+02
DAV:   5    -0.373885443803E+05    0.29952E+05   -0.76658E+02  5040   0.543E+01
 gam= 0.000 g(H,U,f)=  0.706E+05 0.685E+05 0.285E+05 ort(H,U,f) = 0.000E+00 0.000E+00 0.000E+00
SDA:   6     0.212044728156E+05    0.58593E+05   -0.76658E+02  5040   0.168E+06 0.000E+00
 gam= 0.000 trial= 0.400  step= 0.251 mean= 0.400
 gam= 0.136 g(H,U,f)=  0.179E+05 0.466E+04 0.312E+03 ort(H,U,f) = 0.202E+05-0.252E+04-0.863E+03
CGA:   7     0.490910452290E+04   -0.16295E+05   -0.21005E+05  5040   0.228E+05 0.168E+05
 gam= 0.136 trial= 0.393  step= 0.247 mean= 0.393
 gam= 0.333 g(H,U,f)=  0.462E+04 0.287E+04 0.108E+03 ort(H,U,f) = 0.277E+04-0.982E+03-0.306E+02
CGA:   8     0.139345407320E+04   -0.35157E+04   -0.30964E+04  5040   0.760E+04 0.176E+04
 gam= 0.333 trial= 0.385  step= 0.211 mean= 0.385
 gam= 0.666 g(H,U,f)=  0.290E+04 0.200E+04 0.172E+03 ort(H,U,f) = 0.320E+03-0.289E+02-0.123E+03
CGA:   9     0.648619278564E+03   -0.74483E+03   -0.86551E+03  5040   0.507E+04 0.168E+03
 gam= 0.666 trial= 0.377  step= 0.143 mean= 0.377
 gam= 1.669 g(H,U,f)=  0.272E+04 0.534E+04 0.394E+03 ort(H,U,f) = 0.297E+03-0.224E+04-0.171E+03
CGA:  10     0.368795602876E+03   -0.27982E+03   -0.37045E+03  5040   0.846E+04-0.212E+04
 gam= 1.669 trial= 0.365  step= 0.128 mean= 0.365
 gam= 0.904 g(H,U,f)=  0.288E+04 0.437E+04 0.402E+03 ort(H,U,f) =-0.517E+03 0.856E+03 0.159E+03
CGA:  11     0.193295203255E+03   -0.17550E+03   -0.31577E+03  5040   0.764E+04 0.497E+03
 gam= 0.904 trial= 0.353  step= 0.148 mean= 0.353
 gam= 0.368 g(H,U,f)=  0.234E+04 0.469E+03 0.347E+01 ort(H,U,f) =-0.112E+04 0.408E+03-0.822E+01
CGA:  12    -0.545339901225E+02   -0.24783E+03   -0.59909E+03  5040   0.282E+04-0.724E+03
 gam= 0.368 trial= 0.343  step= 0.254 mean= 0.343
 gam= 0.499 g(H,U,f)=  0.122E+04 0.186E+03 0.218E+01 ort(H,U,f) = 0.184E+02 0.696E+02 0.137E+01
CGA:  13    -0.363477853113E+03   -0.30894E+03   -0.32370E+03  5040   0.140E+04 0.894E+02
 gam= 0.499 trial= 0.338  step= 0.322 mean= 0.338
 gam= 0.494 g(H,U,f)=  0.631E+03 0.619E+02 0.317E+00 ort(H,U,f) =-0.135E+02 0.637E+02 0.350E+00
CGA:  14    -0.595499643962E+03   -0.23202E+03   -0.23299E+03  5040   0.693E+03 0.506E+02
 gam= 0.494 trial= 0.338  step= 0.389 mean= 0.338
 gam= 0.765 g(H,U,f)=  0.432E+03 0.977E+02 0.168E+00 ort(H,U,f) = 0.595E+02-0.747E+02-0.892E+00
CGA:  15    -0.734160912193E+03   -0.13866E+03   -0.13950E+03  5040   0.530E+03-0.161E+02
 gam= 0.765 trial= 0.340  step= 0.341 mean= 0.340
 gam= 0.535 g(H,U,f)=  0.238E+03 0.445E+02 0.917E+00 ort(H,U,f) = 0.842E+01 0.119E+02-0.168E+01
CGA:  16    -0.822283411530E+03   -0.88122E+02   -0.88113E+02  5040   0.284E+03 0.186E+02
 gam= 0.535 trial= 0.340  step= 0.324 mean= 0.340
 gam= 0.818 g(H,U,f)=  0.170E+03 0.592E+02 0.256E+01 ort(H,U,f) = 0.134E+01-0.294E+01 0.158E+00
CGA:  17    -0.869813867573E+03   -0.47530E+02   -0.47569E+02  5040   0.232E+03-0.144E+01
 gam= 0.818 trial= 0.339  step= 0.339 mean= 0.339
 gam= 0.507 g(H,U,f)=  0.103E+03 0.127E+02 0.161E+01 ort(H,U,f) =-0.423E+02 0.287E+02 0.496E+01
CGA:  18    -0.908947877356E+03   -0.39134E+02   -0.39134E+02  5040   0.118E+03-0.865E+01
 gam= 0.507 trial= 0.339  step= 0.374 mean= 0.339
 gam= 0.548 g(H,U,f)=  0.570E+02 0.749E+01 0.151E-01 ort(H,U,f) =-0.459E+01 0.119E+02 0.483E+00
CGA:  19    -0.930389720086E+03   -0.21442E+02   -0.21151E+02  5040   0.645E+02 0.780E+01
 gam= 0.548 trial= 0.341  step= 0.414 mean= 0.341
 gam= 0.527 g(H,U,f)=  0.307E+02 0.325E+01 0.102E-10 ort(H,U,f) =-0.381E+01 0.139E+01 0.155E-10
CGA:  20    -0.944500082667E+03   -0.14110E+02   -0.14246E+02  5040   0.340E+02-0.242E+01
 gam= 0.527 trial= 0.345  step= 0.472 mean= 0.345
 gam= 0.630 g(H,U,f)=  0.185E+02 0.293E+01 0.203E-15 ort(H,U,f) = 0.548E-01 0.887E-01 0.388E-15
CGA:  21    -0.952224533467E+03   -0.77245E+01   -0.77146E+01  5040   0.214E+02 0.143E+00
 gam= 0.630 trial= 0.351  step= 0.439 mean= 0.351
 gam= 0.562 g(H,U,f)=  0.103E+02 0.175E+01 0.324E-11 ort(H,U,f) =-0.612E+00 0.675E+00 0.154E-10
CGA:  22    -0.956948668538E+03   -0.47241E+01   -0.47185E+01  5040   0.120E+02 0.628E-01
 gam= 0.562 trial= 0.355  step= 0.442 mean= 0.355
 gam= 0.574 g(H,U,f)=  0.622E+01 0.676E+00 0.234E-18 ort(H,U,f) =-0.619E+00 0.634E+00 0.740E-18
CGA:  23    -0.959614512762E+03   -0.26658E+01   -0.26660E+01  5040   0.690E+01 0.149E-01
 gam= 0.574 trial= 0.360  step= 0.432 mean= 0.360
 gam= 0.633 g(H,U,f)=  0.370E+01 0.662E+00 0.178E-20 ort(H,U,f) =-0.973E-01 0.144E+00-0.440E-19
CGA:  24    -0.961109235912E+03   -0.14947E+01   -0.14936E+01  5040   0.437E+01 0.464E-01
 gam= 0.633 trial= 0.363  step= 0.423 mean= 0.363
 gam= 0.544 g(H,U,f)=  0.199E+01 0.388E+00 0.403E-14 ort(H,U,f) =-0.288E+00 0.317E+00 0.719E-13
CGA:  25    -0.962040285814E+03   -0.93105E+00   -0.93004E+00  5040   0.238E+01 0.287E-01
 gam= 0.544 trial= 0.366  step= 0.439 mean= 0.366
 gam= 0.567 g(H,U,f)=  0.110E+01 0.243E+00 0.714E-16 ort(H,U,f) =-0.227E+00 0.234E+00-0.128E-16
CGA:  26    -0.962565772938E+03   -0.52549E+00   -0.52508E+00  5040   0.135E+01 0.692E-02
 gam= 0.567 trial= 0.370  step= 0.475 mean= 0.370
 gam= 0.601 g(H,U,f)=  0.723E+00 0.855E-01 0.479E-15 ort(H,U,f) =-0.135E+00 0.140E+00 0.682E-15
CGA:  27    -0.962886931691E+03   -0.32116E+00   -0.32090E+00  5040   0.809E+00 0.468E-02
 gam= 0.601 trial= 0.375  step= 0.511 mean= 0.375
 gam= 0.653 g(H,U,f)=  0.460E+00 0.685E-01 0.467E-14 ort(H,U,f) =-0.285E-01 0.328E-01 0.466E-14
CGA:  28    -0.963094709549E+03   -0.20778E+00   -0.20747E+00  5040   0.528E+00 0.424E-02
 gam= 0.653 trial= 0.382  step= 0.434 mean= 0.382
 gam= 0.587 g(H,U,f)=  0.265E+00 0.454E-01 0.342E-16 ort(H,U,f) =-0.141E-01 0.151E-01 0.997E-16
CGA:  29    -0.963209931469E+03   -0.11522E+00   -0.11518E+00  5040   0.310E+00 0.105E-02
 gam= 0.587 trial= 0.385  step= 0.456 mean= 0.385
 gam= 0.680 g(H,U,f)=  0.173E+00 0.383E-01 0.167E-19 ort(H,U,f) =-0.223E-01 0.221E-01 0.676E-19
CGA:  30    -0.963280811815E+03   -0.70880E-01   -0.70886E-01  5040   0.211E+00-0.223E-03
 gam= 0.680 trial= 0.388  step= 0.431 mean= 0.388
 gam= 0.573 g(H,U,f)=  0.988E-01 0.221E-01 0.101E-22 ort(H,U,f) =-0.213E-01 0.207E-01-0.645E-21
CGA:  31    -0.963326204976E+03   -0.45393E-01   -0.45411E-01  5040   0.121E+00-0.525E-03
 gam= 0.573 trial= 0.390  step= 0.470 mean= 0.390
 gam= 0.580 g(H,U,f)=  0.576E-01 0.125E-01 0.242E-14 ort(H,U,f) =-0.161E-01 0.160E-01-0.182E-15
CGA:  32    -0.963354541522E+03   -0.28337E-01   -0.28344E-01  5040   0.701E-01-0.162E-03
 gam= 0.580 trial= 0.394  step= 0.516 mean= 0.394
 gam= 0.684 g(H,U,f)=  0.384E-01 0.956E-02 0.256E-17 ort(H,U,f) =-0.942E-02 0.942E-02-0.205E-17
CGA:  33    -0.963372608243E+03   -0.18067E-01   -0.18063E-01  5040   0.479E-01-0.369E-05
 gam= 0.684 trial= 0.400  step= 0.579 mean= 0.400
 gam= 0.736 g(H,U,f)=  0.289E-01 0.638E-02 0.230E-14 ort(H,U,f) =-0.942E-02 0.928E-02 0.102E-14
CGA:  34    -0.963386467474E+03   -0.13859E-01   -0.13874E-01  5040   0.353E-01-0.133E-03
 gam= 0.736 trial= 0.409  step= 0.533 mean= 0.409
 gam= 0.761 g(H,U,f)=  0.221E-01 0.476E-02 0.104E-14 ort(H,U,f) =-0.648E-02 0.639E-02 0.182E-14
CGA:  35    -0.963395842572E+03   -0.93751E-02   -0.93837E-02  5040   0.269E-01-0.817E-04
 gam= 0.761 trial= 0.416  step= 0.496 mean= 0.416
 gam= 0.744 g(H,U,f)=  0.169E-01 0.303E-02 0.230E-17 ort(H,U,f) =-0.439E-02 0.445E-02 0.181E-16
CGA:  36    -0.963402493080E+03   -0.66505E-02   -0.66477E-02  5040   0.200E-01 0.594E-04
 gam= 0.744 trial= 0.420  step= 0.507 mean= 0.420
 gam= 0.000 g(H,U,f)=  0.121E-01 0.365E-02 0.535E-19 ort(H,U,f) =-0.328E-02 0.333E-02-0.549E-18
SDA:  37    -0.963407566047E+03   -0.50730E-02   -0.50694E-02  5040   0.157E-01 0.594E-04
 gam= 0.000 trial= 0.424  step= 0.743 mean= 0.424
 gam= 0.519 g(H,U,f)=  0.453E-02 0.365E-02 0.409E-17 ort(H,U,f) =-0.817E-03 0.836E-03-0.280E-17
CGA:  38    -0.963413415033E+03   -0.58490E-02   -0.58460E-02  5040   0.817E-02 0.189E-04
 gam= 0.519 trial= 0.440  step= 0.588 mean= 0.440
 gam= 0.602 g(H,U,f)=  0.261E-02 0.231E-02 0.106E-17 ort(H,U,f) =-0.774E-03 0.797E-03-0.190E-17
CGA:  39    -0.963415821898E+03   -0.24069E-02   -0.24051E-02  5040   0.492E-02 0.222E-04
 gam= 0.602 trial= 0.447  step= 0.723 mean= 0.447
 gam= 0.482 g(H,U,f)=  0.160E-02 0.778E-03 0.983E-18 ort(H,U,f) =-0.141E-02 0.142E-02 0.241E-18
CGA:  40    -0.963417606861E+03   -0.17850E-02   -0.17840E-02  5040   0.237E-02 0.875E-05
 gam= 0.482 trial= 0.461  step= 1.010 mean= 0.461
 gam= 1.103 g(H,U,f)=  0.203E-02 0.593E-03 0.273E-14 ort(H,U,f) =-0.100E-02 0.101E-02-0.725E-15
CGA:  41    -0.963418808450E+03   -0.12016E-02   -0.12003E-02  5040   0.262E-02 0.527E-05
 gam= 1.103 trial= 0.489  step= 1.044 mean= 0.489
 gam= 0.862 g(H,U,f)=  0.168E-02 0.576E-03 0.624E-24 ort(H,U,f) =-0.107E-02 0.109E-02 0.111E-23
CGA:  42    -0.963420182239E+03   -0.13738E-02   -0.13694E-02  5040   0.226E-02 0.163E-04
 gam= 0.862 trial= 0.516  step= 1.174 mean= 0.516
 gam= 1.355 g(H,U,f)=  0.223E-02 0.832E-03 0.939E-17 ort(H,U,f) =-0.845E-03 0.801E-03-0.409E-17
CGA:  43    -0.963421501413E+03   -0.13192E-02   -0.13329E-02  5040   0.306E-02-0.436E-04
 gam= 1.355 trial= 0.549  step= 0.821 mean= 0.549
 gam= 0.643 g(H,U,f)=  0.149E-02 0.475E-03 0.177E-16 ort(H,U,f) =-0.668E-03 0.721E-03 0.317E-16
CGA:  44    -0.963422741343E+03   -0.12399E-02   -0.12309E-02  5040   0.197E-02 0.538E-04
 gam= 0.643 trial= 0.563  step= 0.645 mean= 0.563
 gam= 0.531 g(H,U,f)=  0.807E-03 0.237E-03 0.527E-15 ort(H,U,f) =-0.274E-03 0.269E-03 0.362E-15
CGA:  45    -0.963423386281E+03   -0.64494E-03   -0.64541E-03  5040   0.104E-02-0.469E-05
 gam= 0.531 trial= 0.567  step= 0.691 mean= 0.567
 gam= 0.476 g(H,U,f)=  0.411E-03 0.866E-04 0.558E-24 ort(H,U,f) =-0.162E-03 0.163E-03-0.227E-22
CGA:  46    -0.963423746405E+03   -0.36012E-03   -0.35999E-03  5040   0.497E-03 0.153E-05
 gam= 0.476 trial= 0.573  step= 0.698 mean= 0.573
 gam= 0.601 g(H,U,f)=  0.212E-03 0.873E-04 0.904E-21 ort(H,U,f) =-0.111E-03 0.107E-03-0.497E-20
CGA:  47    -0.963423920111E+03   -0.17371E-03   -0.17395E-03  5040   0.299E-03-0.386E-05
 gam= 0.601 trial= 0.579  step= 0.922 mean= 0.579
 gam= 1.149 g(H,U,f)=  0.219E-03 0.124E-03 0.764E-17 ort(H,U,f) =-0.114E-03 0.111E-03 0.376E-17
CGA:  48    -0.963424056097E+03   -0.13599E-03   -0.13668E-03  5040   0.343E-03-0.394E-05
 gam= 1.149 trial= 0.596  step= 0.999 mean= 0.596
 gam= 1.515 g(H,U,f)=  0.361E-03 0.159E-03 0.924E-16 ort(H,U,f) =-0.191E-03 0.193E-03-0.270E-16
CGA:  49    -0.963424225630E+03   -0.16953E-03   -0.16917E-03  5040   0.520E-03 0.178E-05
 gam= 1.515 trial= 0.617  step= 1.289 mean= 0.617
 gam= 2.219 g(H,U,f)=  0.979E-03 0.175E-03 0.126E-16 ort(H,U,f) =-0.412E-03 0.408E-03-0.150E-17
CGA:  50    -0.963424561579E+03   -0.33595E-03   -0.33702E-03  5040   0.115E-02-0.315E-05
 gam= 2.219 trial= 0.650  step= 1.353 mean= 0.650
 gam= 2.597 g(H,U,f)=  0.247E-02 0.530E-03 0.754E-16 ort(H,U,f) =-0.103E-02 0.951E-03-0.185E-15
CGA:  51    -0.963425310406E+03   -0.74883E-03   -0.77619E-03  5040   0.300E-02-0.809E-04
 gam= 2.597 trial= 0.685  step= 0.705 mean= 0.685
 gam= 0.000 g(H,U,f)=  0.279E-02 0.549E-02 0.410E-06 ort(H,U,f) =-0.179E-02-0.128E-02-0.328E-06
CGA:  52    -0.963426243076E+03   -0.93267E-03   -0.98287E-03  5040   0.828E-02-0.308E-02
 gam= 0.000 trial= 0.686  step= 0.464 mean= 0.686
 gam= 0.168 g(H,U,f)=  0.936E-03 0.455E-03 0.639E-14 ort(H,U,f) = 0.850E-03 0.451E-03 0.617E-14
CGA:  53    -0.963427546955E+03   -0.13039E-02   -0.19217E-02  5040   0.139E-02 0.130E-02
 gam= 0.168 trial= 0.675  step= 1.350 mean= 0.675
 gam= 1.271 g(H,U,f)=  0.128E-02 0.492E-03 0.846E-17 ort(H,U,f) =-0.250E-03 0.279E-03-0.939E-17
CGA:  54    -0.963428645894E+03   -0.10989E-02   -0.10865E-02  5040   0.177E-02 0.291E-04
 gam= 1.271 trial= 0.709  step= 0.621 mean= 0.709
 gam= 0.525 g(H,U,f)=  0.613E-03 0.315E-03 0.204E-16 ort(H,U,f) =-0.305E-03 0.302E-03 0.927E-17
CGA:  55    -0.963429206351E+03   -0.56046E-03   -0.56039E-03  5040   0.929E-03-0.324E-05
 gam= 0.525 trial= 0.705  step= 0.972 mean= 0.705
 gam= 0.720 g(H,U,f)=  0.487E-03 0.181E-03 0.131E-15 ort(H,U,f) =-0.238E-03 0.243E-03-0.146E-15
CGA:  56    -0.963429657304E+03   -0.45095E-03   -0.45038E-03  5040   0.668E-03 0.465E-05
 gam= 0.720 trial= 0.718  step= 0.865 mean= 0.718
 gam= 0.916 g(H,U,f)=  0.468E-03 0.144E-03 0.128E-19 ort(H,U,f) =-0.265E-03 0.270E-03 0.982E-20
CGA:  57    -0.963429948249E+03   -0.29095E-03   -0.29049E-03  5040   0.612E-03 0.580E-05
 gam= 0.916 trial= 0.725  step= 1.090 mean= 0.725
 gam= 1.050 g(H,U,f)=  0.510E-03 0.132E-03 0.838E-23 ort(H,U,f) =-0.311E-03 0.313E-03 0.903E-23
CGA:  58    -0.963430285330E+03   -0.33708E-03   -0.33674E-03  5040   0.643E-03 0.214E-05
 gam= 1.050 trial= 0.743  step= 1.155 mean= 0.743
 gam= 1.463 g(H,U,f)=  0.819E-03 0.122E-03 0.722E-20 ort(H,U,f) =-0.362E-03 0.359E-03-0.196E-19
CGA:  59    -0.963430657171E+03   -0.37184E-03   -0.37244E-03  5040   0.941E-03-0.262E-05
 gam= 1.463 trial= 0.764  step= 0.970 mean= 0.764
 gam= 1.008 g(H,U,f)=  0.805E-03 0.144E-03 0.687E-15 ort(H,U,f) =-0.441E-03 0.438E-03-0.454E-15
CGA:  60    -0.963431111055E+03   -0.45388E-03   -0.45431E-03  5040   0.948E-03-0.357E-05
 gam= 1.008 trial= 0.774  step= 0.997 mean= 0.774
 gam= 1.133 g(H,U,f)=  0.890E-03 0.184E-03 0.536E-18 ort(H,U,f) =-0.365E-03 0.353E-03 0.368E-17
CGA:  61    -0.963431580119E+03   -0.46906E-03   -0.47088E-03  5040   0.107E-02-0.112E-04
 gam= 1.133 trial= 0.785  step= 0.852 mean= 0.785
 gam= 0.764 g(H,U,f)=  0.675E-03 0.145E-03 0.149E-19 ort(H,U,f) =-0.331E-03 0.334E-03 0.199E-19
CGA:  62    -0.963432032503E+03   -0.45238E-03   -0.45226E-03  5040   0.821E-03 0.254E-05
 gam= 0.764 trial= 0.789  step= 0.881 mean= 0.789
 gam= 0.807 g(H,U,f)=  0.564E-03 0.979E-04 0.178E-16 ort(H,U,f) =-0.211E-03 0.206E-03 0.659E-16
CGA:  63    -0.963432394638E+03   -0.36214E-03   -0.36250E-03  5040   0.662E-03-0.530E-05
 gam= 0.807 trial= 0.793  step= 0.809 mean= 0.793
 gam= 0.658 g(H,U,f)=  0.369E-03 0.664E-04 0.167E-18 ort(H,U,f) =-0.108E-03 0.106E-03 0.275E-17
CGA:  64    -0.963432660683E+03   -0.26605E-03   -0.26607E-03  5040   0.435E-03-0.173E-05
 gam= 0.658 trial= 0.794  step= 0.730 mean= 0.794
 gam= 0.649 g(H,U,f)=  0.235E-03 0.478E-04 0.956E-18 ort(H,U,f) =-0.564E-04 0.574E-04 0.528E-17
CGA:  65    -0.963432819029E+03   -0.15835E-03   -0.15838E-03  5040   0.282E-03 0.100E-05
 gam= 0.649 trial= 0.791  step= 0.733 mean= 0.791
 gam= 0.646 g(H,U,f)=  0.146E-03 0.363E-04 0.148E-18 ort(H,U,f) =-0.339E-04 0.346E-04-0.685E-18
CGA:  66    -0.963432922765E+03   -0.10374E-03   -0.10375E-03  5040   0.182E-03 0.708E-06
 gam= 0.646 trial= 0.788  step= 0.747 mean= 0.788
 gam= 0.704 g(H,U,f)=  0.983E-04 0.300E-04 0.135E-23 ort(H,U,f) =-0.350E-04 0.353E-04-0.153E-23
CGA:  67    -0.963432991012E+03   -0.68247E-04   -0.68252E-04  5040   0.128E-03 0.266E-06
 gam= 0.704 trial= 0.786  step= 0.829 mean= 0.786
 gam= 0.803 g(H,U,f)=  0.782E-04 0.248E-04 0.719E-24 ort(H,U,f) =-0.363E-04 0.366E-04 0.913E-24
CGA:  68    -0.963433044276E+03   -0.53265E-04   -0.53261E-04  5040   0.103E-03 0.216E-06
 gam= 0.803 trial= 0.788  step= 0.854 mean= 0.788
 gam= 0.823 g(H,U,f)=  0.647E-04 0.200E-04 0.134E-22 ort(H,U,f) =-0.324E-04 0.335E-04 0.302E-22
CGA:  69    -0.963433088339E+03   -0.44062E-04   -0.44031E-04  5040   0.847E-04 0.101E-05
 gam= 0.823 trial= 0.791  step= 0.842 mean= 0.791
 gam= 0.806 g(H,U,f)=  0.550E-04 0.133E-04 0.214E-20 ort(H,U,f) =-0.277E-04 0.288E-04-0.218E-20
CGA:  70    -0.963433124372E+03   -0.36033E-04   -0.36007E-04  5040   0.683E-04 0.104E-05
 gam= 0.806 trial= 0.794  step= 0.806 mean= 0.794
 gam= 0.774 g(H,U,f)=  0.446E-04 0.830E-05 0.980E-20 ort(H,U,f) =-0.205E-04 0.209E-04 0.370E-20
CGA:  71    -0.963433152234E+03   -0.27863E-04   -0.27860E-04  5040   0.529E-04 0.477E-06
 gam= 0.774 trial= 0.795  step= 0.745 mean= 0.795
 gam= 0.701 g(H,U,f)=  0.313E-04 0.583E-05 0.131E-18 ort(H,U,f) =-0.133E-04 0.134E-04 0.144E-18
CGA:  72    -0.963433172089E+03   -0.19855E-04   -0.19856E-04  5040   0.371E-04 0.424E-07
 gam= 0.701 trial= 0.792  step= 0.776 mean= 0.792
 gam= 0.733 g(H,U,f)=  0.229E-04 0.426E-05 0.151E-17 ort(H,U,f) =-0.793E-05 0.740E-05 0.200E-17
CGA:  73    -0.963433186500E+03   -0.14411E-04   -0.14406E-04  5040   0.272E-04-0.529E-06
 gam= 0.733 trial= 0.791  step= 0.733 mean= 0.791
 gam= 0.701 g(H,U,f)=  0.160E-04 0.305E-05 0.827E-18 ort(H,U,f) =-0.499E-05 0.451E-05-0.475E-17
CGA:  74    -0.963433196332E+03   -0.98317E-05   -0.98176E-05  5040   0.190E-04-0.481E-06
 gam= 0.701 trial= 0.788  step= 0.731 mean= 0.788
 final diagonalization
   1 F= -.96343320E+03 E0= -.96343320E+03  d E =-.835206E-13
 writing wavefunctions
Warning: ieee_invalid is signaling
Warning: ieee_divide_by_zero is signaling
Warning: ieee_underflow is signaling
Warning: ieee_inexact is signaling
FORTRAN STOP
Warning: ieee_invalid is signaling
Warning: ieee_divide_by_zero is signaling
Warning: ieee_underflow is signaling
Warning: ieee_inexact is signaling
FORTRAN STOP
Warning: ieee_invalid is signaling
Warning: ieee_divide_by_zero is signaling
Warning: ieee_underflow is signaling
Warning: ieee_inexact is signaling
FORTRAN STOP
Warning: ieee_invalid is signaling
Warning: ieee_divide_by_zero is signaling
Warning: ieee_underflow is signaling
Warning: ieee_inexact is signaling
FORTRAN STOP
