Ga48 O72                                
    1.000000000000000     
     0.0000000000000000   12.2804734172212839    0.0000000000000000
     9.1427020537309431    0.0000000000000000    0.0000000000000000
     0.0000000000000000   -2.7682617730220320  -11.3006977184464645
   Ga   O    P 
    47    71     1
Direct
  0.6657183400931579  0.0015417688511411  0.1555585546735607
  0.6620658819928064 -0.0007238131835921  0.6638709712143004
  0.6657183400931579  0.3317915644821949  0.1555585546735607
  0.6620658819928064  0.3340571465169278  0.6638709712143004
  0.6586834847815647  0.6666666666666643  0.1479608852987270
  0.6559930994952761  0.6666666666666643  0.6685577611709029
  0.8415751299970250  0.1666666666666643  0.8436820631429236
  0.8377063692631016  0.4960940892884295  0.3384867040209908
  0.8426096906592192  0.4985138037543184  0.8444846651841281
  0.8377063692631016  0.8372392440449066  0.3384867040209908
  0.8426096906592192  0.8348195295790166  0.8444846651841281
  0.6182625169157296  0.1666666666666643  0.3980561052596189
  0.5874819594841452  0.1666666666666643  0.8997912379490077
  0.6210376051924645  0.4928216585521709  0.4054212378021779
  0.5810078983696768  0.4991877605924387  0.8952948680168992
  0.6210376051924645  0.8405116747811653  0.4054212378021779
  0.5810078983696768  0.8341455727408967  0.8952948680168992
  0.9148759151548210  0.0012577281258976  0.1068976676501279
  0.8879611010712776  0.0381560635501663  0.5750626677784185
  0.9148759151548210  0.3320756052074382  0.1068976676501279
  0.8879611010712776  0.2951772697831690  0.5750626677784185
  0.9147336343824870  0.6666666666666643  0.1062679480309396
  0.9062117794300102  0.6666666666666643  0.5964310353682314
  0.1689937476328564  0.1666666666666643  0.1641115366404482
  0.1628049075962111  0.1666666666666643  0.6391330350432766
  0.1686142350099639  0.4997640789605199  0.1642234442979757
  0.1430939780110628  0.4964500979195173  0.6517656634480106
  0.1686142350099639  0.8335692543728155  0.1642234442979757
  0.1430939780110628  0.8368832354138186  0.6517656634480106
  0.3573434371326431 -0.0005725104080594  0.3486204503081251
  0.3322356594447165 -0.0024112950006475  0.8421121894569654
  0.3573434371326431  0.3339058437413952  0.3486204503081251
  0.3322356594447165  0.3357446283339832  0.8421121894569654
  0.3660322350990682  0.6666666666666643  0.3481658573069944
  0.3303745709983064  0.6666666666666643  0.8376586395615472
  0.0855908044104366  0.0045461735045175  0.3956272041671609
  0.0939559189151327  0.0023844738878809  0.8999575484564087
  0.0855908044104366  0.3287871598288183  0.3956272041671609
  0.0939559189151327  0.3309488594454546  0.8999575484564087
  0.0950185791186658  0.6666666666666643  0.3958725364537927
  0.0929617402292623  0.6666666666666643  0.9029467798469752
  0.4101107463928467  0.1666666666666643  0.0982412347427319
  0.4117768881140167  0.1666666666666643  0.6073112446455096
  0.4105458881427115  0.4976223544472752  0.0987919030636537
  0.4071264953971894  0.4980070944057191  0.6071663192411352
  0.4105458881427115  0.8357109788860604  0.0987919030636537
  0.4071264953971894  0.8353262389276167  0.6071663192411352
  0.0057630239861133  0.1666666666666643  0.1259613611673894
  0.0252785215051594  0.1666666666666643  0.6636433280620971
  0.0049961147516483  0.5002076711730540  0.1273101555275491
  0.9803238711445962  0.4818999809127922  0.6092363367111218
  0.0049961147516483  0.8331256621602815  0.1273101555275491
  0.9803238711445962  0.8514333524205430  0.6092363367111218
  0.5203025581787647  0.0008006835453268  0.3769976929530311
  0.4940512816557555  0.0022239729122877  0.8721781068004255
  0.5203025581787647  0.3325326497880088  0.3769976929530311
  0.4940512816557555  0.3311093604210476  0.8721781068004255
  0.5281763668952029  0.6666666666666643  0.3807431078012237
  0.4935008339256868  0.6666666666666643  0.8721741419812263
  0.6638465286106067  0.1666666666666643  0.2606803070519195
  0.6726506700341000  0.1666666666666643  0.7858820821438655
  0.6613247056854640  0.5077398540709052  0.2598401018585471
  0.6725425439459900  0.5025698954874241  0.7894630471731982
  0.6613247056854640  0.8255934792624305  0.2598401018585471
  0.6725425439459900  0.8307634378459118  0.7894630471731982
  0.8239491910319112 -0.0298410761548473  0.2068400181462658
  0.8261496206548260 -0.0036214389520923  0.7254493142703402
  0.8239491910319112  0.3631744094881830  0.2068400181462658
  0.8261496206548260  0.3369547722854278  0.7254493142703402
  0.8283036547398853  0.6666666666666643  0.2171217585270668
  0.8272933789243775  0.6666666666666643  0.7218767663471802
  0.7721547503569723 -0.0431583250328133  0.4390055815816699
  0.8365029929261693 -0.0005181497610218  0.9497542241380381
  0.7721547503569723  0.3764916583661492  0.4390055815816699
  0.8365029929261693  0.3338514830943574  0.9497542241380381
  0.8196385563060768  0.6666666666666643  0.4383004677060926
  0.8387892050195851  0.6666666666666643  0.9487571657179896
  0.6790115628178484  0.1666666666666643  0.0494764437866013
  0.6554441691089348  0.1666666666666643  0.5616287474327265
  0.6667829979836638  0.5018879588808220  0.0450864043889608
  0.6552268907400328  0.5049468659372087  0.5688675316242457
  0.6667829979836638  0.8314453744525138  0.0450864043889608
  0.6552268907400328  0.8283864673961270  0.5688675316242457
  0.5000489692516431  0.0009015394540176  0.1143598281987996
  0.4992553066498807 -0.0008673083480776  0.6394244931984584
  0.5000489692516431  0.3324317938793181  0.1143598281987996
  0.4992553066498807  0.3342006416814131  0.6394244931984584
  0.4944452091927602  0.6666666666666643  0.1147360637291227
  0.4930455919627005  0.6666666666666643  0.6389856387383269
  0.0032185116997105  0.1666666666666643  0.8871733793781335
  0.0018717511277127  0.5060048424471684  0.3702015221135084
  0.0049068157838178  0.4990602934754457  0.8752002135948954
  0.0018717511277127  0.8273284908861673  0.3702015221135084
  0.0049068157838178  0.8342730398578899  0.8752002135948954
  0.1814130800962284 -0.0030522587347192  0.2864295168749700
  0.1719931594661890 -0.0152252342293007  0.7817179981554384
  0.1814130800962284  0.3363855920680547  0.2864295168749700
  0.1719931594661890  0.3485585675626363  0.7817179981554384
  0.1817522813603240  0.6666666666666643  0.2829136279911354
  0.1617572125917540  0.6666666666666643  0.7748952963046439
  0.3387883007907402  0.1666666666666643  0.2251792055696140
  0.3220486599249824  0.1666666666666643  0.7206429876121185
  0.3398594329119339  0.4998899951941220  0.2247928754353517
  0.3223970237141303  0.5027984211239511  0.7204061098486829
  0.3398594329119339  0.8334433381392138  0.2247928754353517
  0.3223970237141303  0.8305349122093845  0.7204061098486829
  0.3434597915348074  0.1666666666666643  0.4475355605992022
  0.3214876457488399  0.1666666666666643  0.9433693100682211
  0.3447009423063629  0.5023706822079561  0.4472080300017213
  0.3250502959071207  0.5030816396143143  0.9448267735065461
  0.3447009423063629  0.8309626511253796  0.4472080300017213
  0.3250502959071207  0.8302516937190215  0.9448267735065461
  0.1756947692027019 -0.0013300753151085  0.0588582544846815
  0.1807780412797930 -0.0084496182707266  0.5500761753579693
  0.1756947692027019  0.3346634086484441  0.0588582544846815
  0.1807780412797930  0.3417829516040624  0.5500761753579693
  0.1761664284028158  0.6666666666666643  0.0588268573083828
  0.1652195040839462  0.6666666666666643  0.5550487537568661
 -0.0487949788618904  0.1666666666666643  0.3738801813083105
 
  0.00000000E+00  0.00000000E+00  0.00000000E+00
  0.00000000E+00  0.00000000E+00  0.00000000E+00
  0.00000000E+00  0.00000000E+00  0.00000000E+00
  0.00000000E+00  0.00000000E+00  0.00000000E+00
  0.00000000E+00  0.00000000E+00  0.00000000E+00
  0.00000000E+00  0.00000000E+00  0.00000000E+00
  0.00000000E+00  0.00000000E+00  0.00000000E+00
  0.00000000E+00  0.00000000E+00  0.00000000E+00
  0.00000000E+00  0.00000000E+00  0.00000000E+00
  0.00000000E+00  0.00000000E+00  0.00000000E+00
  0.00000000E+00  0.00000000E+00  0.00000000E+00
  0.00000000E+00  0.00000000E+00  0.00000000E+00
  0.00000000E+00  0.00000000E+00  0.00000000E+00
  0.00000000E+00  0.00000000E+00  0.00000000E+00
  0.00000000E+00  0.00000000E+00  0.00000000E+00
  0.00000000E+00  0.00000000E+00  0.00000000E+00
  0.00000000E+00  0.00000000E+00  0.00000000E+00
  0.00000000E+00  0.00000000E+00  0.00000000E+00
  0.00000000E+00  0.00000000E+00  0.00000000E+00
  0.00000000E+00  0.00000000E+00  0.00000000E+00
  0.00000000E+00  0.00000000E+00  0.00000000E+00
  0.00000000E+00  0.00000000E+00  0.00000000E+00
  0.00000000E+00  0.00000000E+00  0.00000000E+00
  0.00000000E+00  0.00000000E+00  0.00000000E+00
  0.00000000E+00  0.00000000E+00  0.00000000E+00
  0.00000000E+00  0.00000000E+00  0.00000000E+00
  0.00000000E+00  0.00000000E+00  0.00000000E+00
  0.00000000E+00  0.00000000E+00  0.00000000E+00
  0.00000000E+00  0.00000000E+00  0.00000000E+00
  0.00000000E+00  0.00000000E+00  0.00000000E+00
  0.00000000E+00  0.00000000E+00  0.00000000E+00
  0.00000000E+00  0.00000000E+00  0.00000000E+00
  0.00000000E+00  0.00000000E+00  0.00000000E+00
  0.00000000E+00  0.00000000E+00  0.00000000E+00
  0.00000000E+00  0.00000000E+00  0.00000000E+00
  0.00000000E+00  0.00000000E+00  0.00000000E+00
  0.00000000E+00  0.00000000E+00  0.00000000E+00
  0.00000000E+00  0.00000000E+00  0.00000000E+00
  0.00000000E+00  0.00000000E+00  0.00000000E+00
  0.00000000E+00  0.00000000E+00  0.00000000E+00
  0.00000000E+00  0.00000000E+00  0.00000000E+00
  0.00000000E+00  0.00000000E+00  0.00000000E+00
  0.00000000E+00  0.00000000E+00  0.00000000E+00
  0.00000000E+00  0.00000000E+00  0.00000000E+00
  0.00000000E+00  0.00000000E+00  0.00000000E+00
  0.00000000E+00  0.00000000E+00  0.00000000E+00
  0.00000000E+00  0.00000000E+00  0.00000000E+00
  0.00000000E+00  0.00000000E+00  0.00000000E+00
  0.00000000E+00  0.00000000E+00  0.00000000E+00
  0.00000000E+00  0.00000000E+00  0.00000000E+00
  0.00000000E+00  0.00000000E+00  0.00000000E+00
  0.00000000E+00  0.00000000E+00  0.00000000E+00
  0.00000000E+00  0.00000000E+00  0.00000000E+00
  0.00000000E+00  0.00000000E+00  0.00000000E+00
  0.00000000E+00  0.00000000E+00  0.00000000E+00
  0.00000000E+00  0.00000000E+00  0.00000000E+00
  0.00000000E+00  0.00000000E+00  0.00000000E+00
  0.00000000E+00  0.00000000E+00  0.00000000E+00
  0.00000000E+00  0.00000000E+00  0.00000000E+00
  0.00000000E+00  0.00000000E+00  0.00000000E+00
  0.00000000E+00  0.00000000E+00  0.00000000E+00
  0.00000000E+00  0.00000000E+00  0.00000000E+00
  0.00000000E+00  0.00000000E+00  0.00000000E+00
  0.00000000E+00  0.00000000E+00  0.00000000E+00
  0.00000000E+00  0.00000000E+00  0.00000000E+00
  0.00000000E+00  0.00000000E+00  0.00000000E+00
  0.00000000E+00  0.00000000E+00  0.00000000E+00
  0.00000000E+00  0.00000000E+00  0.00000000E+00
  0.00000000E+00  0.00000000E+00  0.00000000E+00
  0.00000000E+00  0.00000000E+00  0.00000000E+00
  0.00000000E+00  0.00000000E+00  0.00000000E+00
  0.00000000E+00  0.00000000E+00  0.00000000E+00
  0.00000000E+00  0.00000000E+00  0.00000000E+00
  0.00000000E+00  0.00000000E+00  0.00000000E+00
  0.00000000E+00  0.00000000E+00  0.00000000E+00
  0.00000000E+00  0.00000000E+00  0.00000000E+00
  0.00000000E+00  0.00000000E+00  0.00000000E+00
  0.00000000E+00  0.00000000E+00  0.00000000E+00
  0.00000000E+00  0.00000000E+00  0.00000000E+00
  0.00000000E+00  0.00000000E+00  0.00000000E+00
  0.00000000E+00  0.00000000E+00  0.00000000E+00
  0.00000000E+00  0.00000000E+00  0.00000000E+00
  0.00000000E+00  0.00000000E+00  0.00000000E+00
  0.00000000E+00  0.00000000E+00  0.00000000E+00
  0.00000000E+00  0.00000000E+00  0.00000000E+00
  0.00000000E+00  0.00000000E+00  0.00000000E+00
  0.00000000E+00  0.00000000E+00  0.00000000E+00
  0.00000000E+00  0.00000000E+00  0.00000000E+00
  0.00000000E+00  0.00000000E+00  0.00000000E+00
  0.00000000E+00  0.00000000E+00  0.00000000E+00
  0.00000000E+00  0.00000000E+00  0.00000000E+00
  0.00000000E+00  0.00000000E+00  0.00000000E+00
  0.00000000E+00  0.00000000E+00  0.00000000E+00
  0.00000000E+00  0.00000000E+00  0.00000000E+00
  0.00000000E+00  0.00000000E+00  0.00000000E+00
  0.00000000E+00  0.00000000E+00  0.00000000E+00
  0.00000000E+00  0.00000000E+00  0.00000000E+00
  0.00000000E+00  0.00000000E+00  0.00000000E+00
  0.00000000E+00  0.00000000E+00  0.00000000E+00
  0.00000000E+00  0.00000000E+00  0.00000000E+00
  0.00000000E+00  0.00000000E+00  0.00000000E+00
  0.00000000E+00  0.00000000E+00  0.00000000E+00
  0.00000000E+00  0.00000000E+00  0.00000000E+00
  0.00000000E+00  0.00000000E+00  0.00000000E+00
  0.00000000E+00  0.00000000E+00  0.00000000E+00
  0.00000000E+00  0.00000000E+00  0.00000000E+00
  0.00000000E+00  0.00000000E+00  0.00000000E+00
  0.00000000E+00  0.00000000E+00  0.00000000E+00
  0.00000000E+00  0.00000000E+00  0.00000000E+00
  0.00000000E+00  0.00000000E+00  0.00000000E+00
  0.00000000E+00  0.00000000E+00  0.00000000E+00
  0.00000000E+00  0.00000000E+00  0.00000000E+00
  0.00000000E+00  0.00000000E+00  0.00000000E+00
  0.00000000E+00  0.00000000E+00  0.00000000E+00
  0.00000000E+00  0.00000000E+00  0.00000000E+00
  0.00000000E+00  0.00000000E+00  0.00000000E+00
  0.00000000E+00  0.00000000E+00  0.00000000E+00
  0.00000000E+00  0.00000000E+00  0.00000000E+00
  0.00000000E+00  0.00000000E+00  0.00000000E+00
