Ga8 O12                                 
    1.000000000000000     
     0.0000000000000000   12.2804737091000007    0.0000000000000000
     9.1427011490000005    0.0000000000000000    0.0000000000000000
     0.0000000000000000   -2.7682616411000001  -11.3006974810000003
   Ga   O    Cu
    47    72     1
Direct
  0.6592125946221188  0.9993725151859749  0.1561858091226043
  0.6594066092852344  0.9998631157817002  0.6570588253569198
  0.6591581651733947  0.3339160245806383  0.1562167344312329
  0.6594037036270706  0.3334794542963806  0.6570388573506563
  0.6584705677722127  0.6666605811365258  0.1566554097070707
  0.6592853879851859  0.6666791418757825  0.6566675448576760
  0.8413669603929463  0.1666685185880965  0.8430227324103896
  0.8407191550389257  0.4999421728510853  0.3428992486288749
  0.8414437598944033  0.5000093334845275  0.8432336290059652
  0.8407224157767459  0.8334774024711535  0.3426820911981707
  0.8414354676559981  0.8333152166997309  0.8432437568773281
  0.5931368872589857  0.1666623171335857  0.3987726613643332
  0.5912317959451698  0.1666715623663393  0.8977417972772344
  0.5912597941138458  0.4998794990676316  0.3975149684337467
  0.5909217431372795  0.5000521403996743  0.8971647539409062
  0.5912374420843562  0.8334441124600858  0.3975157267609717
  0.5908935330940750  0.8332777634772981  0.8971521356296890
  0.9094455682217344  0.9998110172491508  0.1021029963365621
  0.9083509948610811  0.0004270895111418  0.6009053515518019
  0.9094326812410500  0.3334449148096184  0.1021609081685781
  0.9083859837927619  0.3330003839709832  0.6010226768796727
  0.9090352680649971  0.6666669445546205  0.1023420621844551
  0.9091014215219886  0.6666677290920831  0.6021657307186743
  0.1591399993292058  0.1666692779888947  0.1572084715841271
  0.1587936495466806  0.1666710514773300  0.6563784025861068
  0.1593746052271285  0.4999341132483366  0.1570649011246630
  0.1589525871745110  0.4999026902548849  0.6566400171515738
  0.1593887975131949  0.8333944309358401  0.1570681911718168
  0.1589323186788434  0.8334317995909188  0.6566372427461857
  0.3414190668398263  0.0002931991038793  0.3439406093392847
  0.3409426242155433  0.0001330964591943  0.8433524240988959
  0.3414219943682895  0.3330418759409781  0.3439422169928648
  0.3409483385891932  0.3332132709132978  0.8433517188863959
  0.3413049923902420  0.6666650783410759  0.3438320068292668
  0.3408543567521605  0.6666728459047704  0.8434859493566975
  0.0898809533022344  0.0002458147767541  0.3975963084705540
  0.0913375742139664  0.0000113515133293  0.8978060187061416
  0.0898574999765529  0.3330594688164652  0.3975984990913872
  0.0913370334053170  0.3333191247291722  0.8978026356763422
  0.0911951602899777  0.6666608327404830  0.3977949196640154
  0.0914747854117266  0.6666709005923508  0.8980657508983896
  0.4088430116323920  0.1666470332678216  0.1026056978864176
  0.4093619267846194  0.1666711252530817  0.6028297467116701
  0.4088332307863425  0.4997755935201411  0.1024961065931009
  0.4091577901526193  0.4999772524250758  0.6026993364327140
  0.4088432960071202  0.8335695233189995  0.1024989887146290
  0.4091567484761214  0.8333623047973617  0.6027017161821959
  0.9963848565359257  0.1666403098406306  0.1281914015586167
  0.9959958603605088  0.1666895125494108  0.6269945571991684
  0.9967947772828012  0.5002116446026932  0.1272967170492905
  0.9963362388219039  0.4997308280786825  0.6271280165753623
  0.9968427689452923  0.8330729004622341  0.1272816745250935
  0.9962749623327412  0.8336745102169019  0.6270515732041773
  0.5044034392161976  0.0007085491849566  0.3730028593143970
  0.5036423736075761  0.0000864065756829  0.8728300112096363
  0.5044140883113926  0.3326208701878386  0.3729971572163890
  0.5036479873273194  0.3332605539290512  0.8728347408048123
  0.5037276164065219  0.6666588886571105  0.3729635863582743
  0.5034235309050459  0.6666545161564414  0.8724496002120148
  0.6728404688378546  0.1666483762181485  0.2796682442294625
  0.6728330670534035  0.1666610360882217  0.7807960262444880
  0.6716689609903526  0.5007590224351972  0.2796307383951273
  0.6728296747569544  0.5001039842276001  0.7804792986949067
  0.6716552833219751  0.8325365965914884  0.2796527643159834
  0.6728313126385430  0.8332356275729040  0.7804876075200227
  0.8266246559984936  0.9953642710823942  0.2179137548991505
  0.8278817649496588  0.9999562093305272  0.7194675136922868
  0.8267329614809356  0.3373337125430069  0.2182635013083853
  0.8278787673242931  0.3333687501776765  0.7195427707751207
  0.8273700908832282  0.6665455471185240  0.2193042355933841
  0.8277559727313104  0.6666572499946284  0.7195234212543866
  0.8282190722700520  0.9973672739659776  0.4453024743054783
  0.8325143291538311  0.0000307789421470  0.9456001770864617
  0.8281670852475145  0.3365395965378326  0.4456312630064119
  0.8325150092637088  0.3333132756282140  0.9456560416416195
  0.8317558035187815  0.6668134322354788  0.4456338243236289
  0.8324553538546198  0.6666628877431577  0.9457098155854027
  0.6681529891689948  0.1666752268970058  0.0543125069206312
  0.6685152739996951  0.1666655545116953  0.5552796071993313
  0.6675843976591622  0.5004291448454410  0.0537388227741786
  0.6678628087808463  0.5000617913977976  0.5542730095021469
  0.6675178953085066  0.8328155938647654  0.0536980948584542
  0.6679061031105746  0.8333193301964315  0.5542570882688409
  0.4965706286650899  0.0002267134877343  0.1273625849702853
  0.4966972056716443  0.9999264709275195  0.6276964333387838
  0.4965376962945456  0.3330975296458476  0.1273551958407850
  0.4966977646012722  0.3334125036693010  0.6276946098626581
  0.4958117956652259  0.6666654645873393  0.1268434560140221
  0.4965700153008470  0.6666725965767384  0.6275379253059299
  0.0023627651142561  0.1666375828086899  0.3743312516460833
  0.0039743492275903  0.1666652137440110  0.8731868064822592
  0.0034562465063672  0.5003370744998179  0.3728404973075499
  0.0040465376945136  0.5000749768544850  0.8729746662151427
  0.0034631714759641  0.8329931299083526  0.3728673806927105
  0.0040353035199487  0.8332583527789410  0.8729738841241570
  0.1723926118592587  0.0003134898779678  0.2809837835339764
  0.1725623995893315  0.0001505909148136  0.7804479360694216
  0.1723816957786042  0.3330158411770654  0.2809833054297428
  0.1725671168664888  0.3331828764481344  0.7804521835019429
  0.1729584087620779  0.6666629229428338  0.2808182975275102
  0.1725666916312463  0.6666804372614763  0.7805195759337877
  0.3275927581848777  0.1666692618354872  0.2199611480686627
  0.3274584166261860  0.1666826610772674  0.7196221266139560
  0.3276848287453404  0.4995057328823265  0.2199890410989838
  0.3274331675454079  0.4999080530320299  0.7196390717392163
  0.3276856121683096  0.8338274208823577  0.2199860394441231
  0.3274345040047422  0.8334353867271034  0.7196426139620158
  0.3325421667263910  0.1666665485861429  0.4462764608963923
  0.3321458857043211  0.1666690074323824  0.9459886760140179
  0.3325709224313727  0.4998496552590694  0.4460729676595321
  0.3320522027736175  0.4998071626157241  0.9458689348104912
  0.3325687480296011  0.8334843179168985  0.4460736115881261
  0.3320521929142188  0.8335363849617679  0.9458736679308331
  0.1679525624211990  0.0001253245782635  0.0545714141424085
  0.1677833618984010  0.9999984681614720  0.5540964282314818
  0.1679269877692349  0.3332207562972300  0.0545700523013934
  0.1677990380369252  0.3333339367201091  0.5540874095021877
  0.1685283774147806  0.6666594918852553  0.0546387180073395
  0.1680506708343330  0.6666702618924489  0.5543626290601580
  0.8393173475645739  0.1667206316034253  0.3391004324204943
 
  0.00000000E+00  0.00000000E+00  0.00000000E+00
  0.00000000E+00  0.00000000E+00  0.00000000E+00
  0.00000000E+00  0.00000000E+00  0.00000000E+00
  0.00000000E+00  0.00000000E+00  0.00000000E+00
  0.00000000E+00  0.00000000E+00  0.00000000E+00
  0.00000000E+00  0.00000000E+00  0.00000000E+00
  0.00000000E+00  0.00000000E+00  0.00000000E+00
  0.00000000E+00  0.00000000E+00  0.00000000E+00
  0.00000000E+00  0.00000000E+00  0.00000000E+00
  0.00000000E+00  0.00000000E+00  0.00000000E+00
  0.00000000E+00  0.00000000E+00  0.00000000E+00
  0.00000000E+00  0.00000000E+00  0.00000000E+00
  0.00000000E+00  0.00000000E+00  0.00000000E+00
  0.00000000E+00  0.00000000E+00  0.00000000E+00
  0.00000000E+00  0.00000000E+00  0.00000000E+00
  0.00000000E+00  0.00000000E+00  0.00000000E+00
  0.00000000E+00  0.00000000E+00  0.00000000E+00
  0.00000000E+00  0.00000000E+00  0.00000000E+00
  0.00000000E+00  0.00000000E+00  0.00000000E+00
  0.00000000E+00  0.00000000E+00  0.00000000E+00
  0.00000000E+00  0.00000000E+00  0.00000000E+00
  0.00000000E+00  0.00000000E+00  0.00000000E+00
  0.00000000E+00  0.00000000E+00  0.00000000E+00
  0.00000000E+00  0.00000000E+00  0.00000000E+00
  0.00000000E+00  0.00000000E+00  0.00000000E+00
  0.00000000E+00  0.00000000E+00  0.00000000E+00
  0.00000000E+00  0.00000000E+00  0.00000000E+00
  0.00000000E+00  0.00000000E+00  0.00000000E+00
  0.00000000E+00  0.00000000E+00  0.00000000E+00
  0.00000000E+00  0.00000000E+00  0.00000000E+00
  0.00000000E+00  0.00000000E+00  0.00000000E+00
  0.00000000E+00  0.00000000E+00  0.00000000E+00
  0.00000000E+00  0.00000000E+00  0.00000000E+00
  0.00000000E+00  0.00000000E+00  0.00000000E+00
  0.00000000E+00  0.00000000E+00  0.00000000E+00
  0.00000000E+00  0.00000000E+00  0.00000000E+00
  0.00000000E+00  0.00000000E+00  0.00000000E+00
  0.00000000E+00  0.00000000E+00  0.00000000E+00
  0.00000000E+00  0.00000000E+00  0.00000000E+00
  0.00000000E+00  0.00000000E+00  0.00000000E+00
  0.00000000E+00  0.00000000E+00  0.00000000E+00
  0.00000000E+00  0.00000000E+00  0.00000000E+00
  0.00000000E+00  0.00000000E+00  0.00000000E+00
  0.00000000E+00  0.00000000E+00  0.00000000E+00
  0.00000000E+00  0.00000000E+00  0.00000000E+00
  0.00000000E+00  0.00000000E+00  0.00000000E+00
  0.00000000E+00  0.00000000E+00  0.00000000E+00
  0.00000000E+00  0.00000000E+00  0.00000000E+00
  0.00000000E+00  0.00000000E+00  0.00000000E+00
  0.00000000E+00  0.00000000E+00  0.00000000E+00
  0.00000000E+00  0.00000000E+00  0.00000000E+00
  0.00000000E+00  0.00000000E+00  0.00000000E+00
  0.00000000E+00  0.00000000E+00  0.00000000E+00
  0.00000000E+00  0.00000000E+00  0.00000000E+00
  0.00000000E+00  0.00000000E+00  0.00000000E+00
  0.00000000E+00  0.00000000E+00  0.00000000E+00
  0.00000000E+00  0.00000000E+00  0.00000000E+00
  0.00000000E+00  0.00000000E+00  0.00000000E+00
  0.00000000E+00  0.00000000E+00  0.00000000E+00
  0.00000000E+00  0.00000000E+00  0.00000000E+00
  0.00000000E+00  0.00000000E+00  0.00000000E+00
  0.00000000E+00  0.00000000E+00  0.00000000E+00
  0.00000000E+00  0.00000000E+00  0.00000000E+00
  0.00000000E+00  0.00000000E+00  0.00000000E+00
  0.00000000E+00  0.00000000E+00  0.00000000E+00
  0.00000000E+00  0.00000000E+00  0.00000000E+00
  0.00000000E+00  0.00000000E+00  0.00000000E+00
  0.00000000E+00  0.00000000E+00  0.00000000E+00
  0.00000000E+00  0.00000000E+00  0.00000000E+00
  0.00000000E+00  0.00000000E+00  0.00000000E+00
  0.00000000E+00  0.00000000E+00  0.00000000E+00
  0.00000000E+00  0.00000000E+00  0.00000000E+00
  0.00000000E+00  0.00000000E+00  0.00000000E+00
  0.00000000E+00  0.00000000E+00  0.00000000E+00
  0.00000000E+00  0.00000000E+00  0.00000000E+00
  0.00000000E+00  0.00000000E+00  0.00000000E+00
  0.00000000E+00  0.00000000E+00  0.00000000E+00
  0.00000000E+00  0.00000000E+00  0.00000000E+00
  0.00000000E+00  0.00000000E+00  0.00000000E+00
  0.00000000E+00  0.00000000E+00  0.00000000E+00
  0.00000000E+00  0.00000000E+00  0.00000000E+00
  0.00000000E+00  0.00000000E+00  0.00000000E+00
  0.00000000E+00  0.00000000E+00  0.00000000E+00
  0.00000000E+00  0.00000000E+00  0.00000000E+00
  0.00000000E+00  0.00000000E+00  0.00000000E+00
  0.00000000E+00  0.00000000E+00  0.00000000E+00
  0.00000000E+00  0.00000000E+00  0.00000000E+00
  0.00000000E+00  0.00000000E+00  0.00000000E+00
  0.00000000E+00  0.00000000E+00  0.00000000E+00
  0.00000000E+00  0.00000000E+00  0.00000000E+00
  0.00000000E+00  0.00000000E+00  0.00000000E+00
  0.00000000E+00  0.00000000E+00  0.00000000E+00
  0.00000000E+00  0.00000000E+00  0.00000000E+00
  0.00000000E+00  0.00000000E+00  0.00000000E+00
  0.00000000E+00  0.00000000E+00  0.00000000E+00
  0.00000000E+00  0.00000000E+00  0.00000000E+00
  0.00000000E+00  0.00000000E+00  0.00000000E+00
  0.00000000E+00  0.00000000E+00  0.00000000E+00
  0.00000000E+00  0.00000000E+00  0.00000000E+00
  0.00000000E+00  0.00000000E+00  0.00000000E+00
  0.00000000E+00  0.00000000E+00  0.00000000E+00
  0.00000000E+00  0.00000000E+00  0.00000000E+00
  0.00000000E+00  0.00000000E+00  0.00000000E+00
  0.00000000E+00  0.00000000E+00  0.00000000E+00
  0.00000000E+00  0.00000000E+00  0.00000000E+00
  0.00000000E+00  0.00000000E+00  0.00000000E+00
  0.00000000E+00  0.00000000E+00  0.00000000E+00
  0.00000000E+00  0.00000000E+00  0.00000000E+00
  0.00000000E+00  0.00000000E+00  0.00000000E+00
  0.00000000E+00  0.00000000E+00  0.00000000E+00
  0.00000000E+00  0.00000000E+00  0.00000000E+00
  0.00000000E+00  0.00000000E+00  0.00000000E+00
  0.00000000E+00  0.00000000E+00  0.00000000E+00
  0.00000000E+00  0.00000000E+00  0.00000000E+00
  0.00000000E+00  0.00000000E+00  0.00000000E+00
  0.00000000E+00  0.00000000E+00  0.00000000E+00
  0.00000000E+00  0.00000000E+00  0.00000000E+00
  0.00000000E+00  0.00000000E+00  0.00000000E+00
  0.00000000E+00  0.00000000E+00  0.00000000E+00
  0.00000000E+00  0.00000000E+00  0.00000000E+00
