Ga48 O72                                
    1.000000000000000     
     0.0000000000000000   12.2804734172212839    0.0000000000000000
     9.1427020537309431    0.0000000000000000    0.0000000000000000
     0.0000000000000000   -2.7682617730220320  -11.3006977184464645
   Ga   O    P 
    47    71     1
Direct
  0.6584608246134104  0.0000000000000000  0.1546160232967851
  0.6602975215814547  0.0000000000000000  0.6561552973649105
  0.6594643259335526  0.3330741640292378  0.1561604622921400
  0.6599339798647252  0.3336395456626038  0.6560649529360937
  0.6594643259335526  0.6669258359707618  0.1561604622921400
  0.6599339798647252  0.6663604543373960  0.6560649529360937
  0.8396492907532600  0.1636200008730293  0.3418141647888580
  0.8407503214146426  0.1664200321794357  0.8430567419056441
  0.8437997105104432  0.5000000000000000  0.3423601088571832
  0.8395967542233668  0.5000000000000000  0.8434924270747866
  0.8396492907532600  0.8363799991269708  0.3418141647888580
  0.8407503214146426  0.8335799678205648  0.8430567419056441
  0.5936276095428349  0.1683764420670482  0.3979847963563864
  0.5915349047884797  0.1665712711853174  0.8968203968051779
  0.5907821698684831  0.5000000000000000  0.3964549708132922
  0.5905078563271993  0.5000000000000000  0.8972789670016227
  0.5936276095428349  0.8316235579329518  0.3979847963563864
  0.5915349047884797  0.8334287288146822  0.8968203968051779
  0.9116675204768278  0.0000000000000000  0.1024768036019599
  0.9088237036206182  0.0000000000000000  0.6023465035003982
  0.9101668516583118  0.3329394251870336  0.1014824108252509
  0.9094168390610271  0.3337178170641815  0.6033791827385093
  0.9101668516583118  0.6670605748129662  0.1014824108252509
  0.9094168390610271  0.6662821829358185  0.6033791827385093
  0.1593151127490564  0.1765668415371397  0.1454174518321807
  0.1575383162009720  0.1698271130720143  0.6571053119881347
  0.1596572351736897  0.5000000000000000  0.1549215426061657
  0.1595858231305975  0.5000000000000000  0.6535163222032031
  0.1593151127490564  0.8234331584628600  0.1454174518321807
  0.1575383162009720  0.8301728869279854  0.6571053119881347
  0.3497025666580749  0.0000000000000000  0.3460919238135985
  0.3412057726417894  0.0000000000000000  0.8409474391061682
  0.3406842535155538  0.3335339345129636  0.3434496886997778
  0.3409178785020879  0.3335458793329639  0.8426424849309355
  0.3406842535155538  0.6664660654870368  0.3434496886997778
  0.3409178785020879  0.6664541206670360  0.8426424849309355
  0.0916104809230754  0.0000000000000000  0.8951349127265178
  0.0927622843293232  0.3296135763620369  0.3954422497616368
  0.0897505252177147  0.3348474668716310  0.8929184813935517
  0.0927622843293232  0.6703864236379633  0.3954422497616368
  0.0897505252177147  0.6651525331283692  0.8929184813935517
  0.4078733338681036  0.1660161290285166  0.1008221878284423
  0.4099469455316589  0.1667343223669566  0.6015589441932176
  0.4087139716508539  0.5000000000000000  0.1013466087719490
  0.4092844328048241  0.5000000000000000  0.6014155474559597
  0.4078733338681036  0.8339838709714835  0.1008221878284423
  0.4099469455316589  0.8332656776330436  0.6015589441932176
  0.0005872314784320  0.1663489814509300  0.1337960359623482
  0.9966398971440923  0.1664361421221729  0.6277657888284388
  0.9979318588375780  0.5000000000000000  0.1251168018981596
  0.9975339504152118  0.5000000000000000  0.6265483251291268
  0.0005872314784320  0.8336510185490703  0.1337960359623482
  0.9966398971440923  0.8335638578778275  0.6277657888284388
  0.5077939236990985  0.0000000000000000  0.3728152203356277
  0.5033118129973171  0.0000000000000000  0.8716029909619293
  0.5027858082394950  0.3326733360697460  0.3716841914706556
  0.5029874611193594  0.3326675684035721  0.8715652430721739
  0.5027858082394950  0.6673266639302541  0.3716841914706556
  0.5029874611193594  0.6673324315964277  0.8715652430721739
  0.6732504788756883  0.1669943482393961  0.2793955505332257
  0.6727541506252929  0.1663166344054566  0.7795925450474388
  0.6753358074428917  0.5000000000000000  0.2809385780298570
  0.6719677012144862  0.5000000000000000  0.7796208040205158
  0.6732504788756883  0.8330056517606045  0.2793955505332257
  0.6727541506252929  0.8336833655945435  0.7795925450474388
  0.8296280240565459  0.0000000000000000  0.2201034649348357
  0.8286192247415166  0.0000000000000000  0.7202855100163037
  0.8315243701325561  0.3299213829085630  0.2209539289012958
  0.8280342862388743  0.3333495678412419  0.7199930946153366
  0.8315243701325561  0.6700786170914371  0.2209539289012958
  0.8280342862388743  0.6666504321587580  0.7199930946153366
  0.8321112187645334  0.0000000000000000  0.4453873166996437
  0.8340388733926249  0.0000000000000000  0.9467998141745678
  0.8412291229972430  0.3303441589729093  0.4440301777714508
  0.8322128368394484  0.3324700899736639  0.9459595359302398
  0.8412291229972430  0.6696558410270914  0.4440301777714508
  0.8322128368394484  0.6675299100263364  0.9459595359302398
  0.6683777705286829  0.1666857012793463  0.0537269149265453
  0.6708479651224555  0.1672955448708436  0.5540449017792237
  0.6686453564981613  0.5000000000000000  0.0543945602818023
  0.6704506381781504  0.5000000000000000  0.5526433389910833
  0.6683777705286829  0.8333142987206540  0.0537269149265453
  0.6708479651224555  0.8327044551291567  0.5540449017792237
  0.4959489808782058  0.0000000000000000  0.1273216710455690
  0.4973357515766616  0.0000000000000000  0.6247781466924534
  0.4958137878991304  0.3324612417887778  0.1277852951614051
  0.4969182979741976  0.3333303888104045  0.6251012099876475
  0.4958137878991304  0.6675387582112221  0.1277852951614051
  0.4969182979741976  0.6666696111895954  0.6251012099876475
  0.0172295574146306  0.1414033054158662  0.3800874961768633
  0.0044446251961395  0.1667759912723383  0.8751356293107633
  0.0070661022404651  0.5000000000000000  0.3698637150655991
  0.0018445197532722  0.5000000000000000  0.8708410561080357
  0.0172295574146306  0.8585966945841342  0.3800874961768633
  0.0044446251961395  0.8332240087276618  0.8751356293107633
  0.1706328344361631  0.0000000000000000  0.7742691316270494
  0.1719842285265763  0.3302515839283582  0.2770674173093516
  0.1726920948872072  0.3341332821938044  0.7779639021124644
  0.1719842285265763  0.6697484160716419  0.2770674173093516
  0.1726920948872072  0.6658667178061956  0.7779639021124644
  0.3224576982591860  0.1594175331101416  0.2192630407337181
  0.3248731524457286  0.1641801249928115  0.7155084810440775
  0.3268700199752508  0.5000000000000000  0.2193341483197689
  0.3269410464421106  0.5000000000000000  0.7176555266337892
  0.3224576982591860  0.8405824668898586  0.2192630407337181
  0.3248731524457286  0.8358198750071882  0.7155084810440775
  0.3306043643846933  0.1645755101372423  0.4441751845582110
  0.3295355728586349  0.1655576561474846  0.9438006473385681
  0.3293692796966587  0.5000000000000000  0.4450498601714009
  0.3327219716142785  0.5000000000000000  0.9443307567258924
  0.3306043643846933  0.8354244898627579  0.4441751845582110
  0.3295355728586349  0.8344423438525156  0.9438006473385681
  0.1648371187318596  0.0000000000000000  0.0569999279210918
  0.1540821694725487  0.0000000000000000  0.5397353040971532
  0.1710013711119202  0.3382788947904942  0.0487214635995264
  0.1667883622321251  0.3314073097713040  0.5518288714292957
  0.1710013711119202  0.6617211052095059  0.0487214635995264
  0.1667883622321251  0.6685926902286962  0.5518288714292957
  0.1029965398134279  0.0000000000000000  0.3974827181718362
 
  0.00000000E+00  0.00000000E+00  0.00000000E+00
  0.00000000E+00  0.00000000E+00  0.00000000E+00
  0.00000000E+00  0.00000000E+00  0.00000000E+00
  0.00000000E+00  0.00000000E+00  0.00000000E+00
  0.00000000E+00  0.00000000E+00  0.00000000E+00
  0.00000000E+00  0.00000000E+00  0.00000000E+00
  0.00000000E+00  0.00000000E+00  0.00000000E+00
  0.00000000E+00  0.00000000E+00  0.00000000E+00
  0.00000000E+00  0.00000000E+00  0.00000000E+00
  0.00000000E+00  0.00000000E+00  0.00000000E+00
  0.00000000E+00  0.00000000E+00  0.00000000E+00
  0.00000000E+00  0.00000000E+00  0.00000000E+00
  0.00000000E+00  0.00000000E+00  0.00000000E+00
  0.00000000E+00  0.00000000E+00  0.00000000E+00
  0.00000000E+00  0.00000000E+00  0.00000000E+00
  0.00000000E+00  0.00000000E+00  0.00000000E+00
  0.00000000E+00  0.00000000E+00  0.00000000E+00
  0.00000000E+00  0.00000000E+00  0.00000000E+00
  0.00000000E+00  0.00000000E+00  0.00000000E+00
  0.00000000E+00  0.00000000E+00  0.00000000E+00
  0.00000000E+00  0.00000000E+00  0.00000000E+00
  0.00000000E+00  0.00000000E+00  0.00000000E+00
  0.00000000E+00  0.00000000E+00  0.00000000E+00
  0.00000000E+00  0.00000000E+00  0.00000000E+00
  0.00000000E+00  0.00000000E+00  0.00000000E+00
  0.00000000E+00  0.00000000E+00  0.00000000E+00
  0.00000000E+00  0.00000000E+00  0.00000000E+00
  0.00000000E+00  0.00000000E+00  0.00000000E+00
  0.00000000E+00  0.00000000E+00  0.00000000E+00
  0.00000000E+00  0.00000000E+00  0.00000000E+00
  0.00000000E+00  0.00000000E+00  0.00000000E+00
  0.00000000E+00  0.00000000E+00  0.00000000E+00
  0.00000000E+00  0.00000000E+00  0.00000000E+00
  0.00000000E+00  0.00000000E+00  0.00000000E+00
  0.00000000E+00  0.00000000E+00  0.00000000E+00
  0.00000000E+00  0.00000000E+00  0.00000000E+00
  0.00000000E+00  0.00000000E+00  0.00000000E+00
  0.00000000E+00  0.00000000E+00  0.00000000E+00
  0.00000000E+00  0.00000000E+00  0.00000000E+00
  0.00000000E+00  0.00000000E+00  0.00000000E+00
  0.00000000E+00  0.00000000E+00  0.00000000E+00
  0.00000000E+00  0.00000000E+00  0.00000000E+00
  0.00000000E+00  0.00000000E+00  0.00000000E+00
  0.00000000E+00  0.00000000E+00  0.00000000E+00
  0.00000000E+00  0.00000000E+00  0.00000000E+00
  0.00000000E+00  0.00000000E+00  0.00000000E+00
  0.00000000E+00  0.00000000E+00  0.00000000E+00
  0.00000000E+00  0.00000000E+00  0.00000000E+00
  0.00000000E+00  0.00000000E+00  0.00000000E+00
  0.00000000E+00  0.00000000E+00  0.00000000E+00
  0.00000000E+00  0.00000000E+00  0.00000000E+00
  0.00000000E+00  0.00000000E+00  0.00000000E+00
  0.00000000E+00  0.00000000E+00  0.00000000E+00
  0.00000000E+00  0.00000000E+00  0.00000000E+00
  0.00000000E+00  0.00000000E+00  0.00000000E+00
  0.00000000E+00  0.00000000E+00  0.00000000E+00
  0.00000000E+00  0.00000000E+00  0.00000000E+00
  0.00000000E+00  0.00000000E+00  0.00000000E+00
  0.00000000E+00  0.00000000E+00  0.00000000E+00
  0.00000000E+00  0.00000000E+00  0.00000000E+00
  0.00000000E+00  0.00000000E+00  0.00000000E+00
  0.00000000E+00  0.00000000E+00  0.00000000E+00
  0.00000000E+00  0.00000000E+00  0.00000000E+00
  0.00000000E+00  0.00000000E+00  0.00000000E+00
  0.00000000E+00  0.00000000E+00  0.00000000E+00
  0.00000000E+00  0.00000000E+00  0.00000000E+00
  0.00000000E+00  0.00000000E+00  0.00000000E+00
  0.00000000E+00  0.00000000E+00  0.00000000E+00
  0.00000000E+00  0.00000000E+00  0.00000000E+00
  0.00000000E+00  0.00000000E+00  0.00000000E+00
  0.00000000E+00  0.00000000E+00  0.00000000E+00
  0.00000000E+00  0.00000000E+00  0.00000000E+00
  0.00000000E+00  0.00000000E+00  0.00000000E+00
  0.00000000E+00  0.00000000E+00  0.00000000E+00
  0.00000000E+00  0.00000000E+00  0.00000000E+00
  0.00000000E+00  0.00000000E+00  0.00000000E+00
  0.00000000E+00  0.00000000E+00  0.00000000E+00
  0.00000000E+00  0.00000000E+00  0.00000000E+00
  0.00000000E+00  0.00000000E+00  0.00000000E+00
  0.00000000E+00  0.00000000E+00  0.00000000E+00
  0.00000000E+00  0.00000000E+00  0.00000000E+00
  0.00000000E+00  0.00000000E+00  0.00000000E+00
  0.00000000E+00  0.00000000E+00  0.00000000E+00
  0.00000000E+00  0.00000000E+00  0.00000000E+00
  0.00000000E+00  0.00000000E+00  0.00000000E+00
  0.00000000E+00  0.00000000E+00  0.00000000E+00
  0.00000000E+00  0.00000000E+00  0.00000000E+00
  0.00000000E+00  0.00000000E+00  0.00000000E+00
  0.00000000E+00  0.00000000E+00  0.00000000E+00
  0.00000000E+00  0.00000000E+00  0.00000000E+00
  0.00000000E+00  0.00000000E+00  0.00000000E+00
  0.00000000E+00  0.00000000E+00  0.00000000E+00
  0.00000000E+00  0.00000000E+00  0.00000000E+00
  0.00000000E+00  0.00000000E+00  0.00000000E+00
  0.00000000E+00  0.00000000E+00  0.00000000E+00
  0.00000000E+00  0.00000000E+00  0.00000000E+00
  0.00000000E+00  0.00000000E+00  0.00000000E+00
  0.00000000E+00  0.00000000E+00  0.00000000E+00
  0.00000000E+00  0.00000000E+00  0.00000000E+00
  0.00000000E+00  0.00000000E+00  0.00000000E+00
  0.00000000E+00  0.00000000E+00  0.00000000E+00
  0.00000000E+00  0.00000000E+00  0.00000000E+00
  0.00000000E+00  0.00000000E+00  0.00000000E+00
  0.00000000E+00  0.00000000E+00  0.00000000E+00
  0.00000000E+00  0.00000000E+00  0.00000000E+00
  0.00000000E+00  0.00000000E+00  0.00000000E+00
  0.00000000E+00  0.00000000E+00  0.00000000E+00
  0.00000000E+00  0.00000000E+00  0.00000000E+00
  0.00000000E+00  0.00000000E+00  0.00000000E+00
  0.00000000E+00  0.00000000E+00  0.00000000E+00
  0.00000000E+00  0.00000000E+00  0.00000000E+00
  0.00000000E+00  0.00000000E+00  0.00000000E+00
  0.00000000E+00  0.00000000E+00  0.00000000E+00
  0.00000000E+00  0.00000000E+00  0.00000000E+00
  0.00000000E+00  0.00000000E+00  0.00000000E+00
  0.00000000E+00  0.00000000E+00  0.00000000E+00
  0.00000000E+00  0.00000000E+00  0.00000000E+00
  0.00000000E+00  0.00000000E+00  0.00000000E+00
  0.00000000E+00  0.00000000E+00  0.00000000E+00
