Ga48 O72                                
    1.000000000000000     
     0.0000000000000000   12.2804734172212839    0.0000000000000000
     9.1427020537309431    0.0000000000000000    0.0000000000000000
     0.0000000000000000   -2.7682617730220320  -11.3006977184464645
   Ga   O 
    47    72
Direct
  0.6590589640763582  0.9998310684735330  0.1572259279842569
  0.6596807267906613  0.0000994205054639  0.6571169888655177
  0.6586255426079859  0.3333333333333357  0.1567489726308295
  0.6601757335145564  0.3333333333333357  0.6567956895460867
  0.6590589640763582  0.6668355981931313  0.1572259279842569
  0.6596807267906613  0.6665672461612004  0.6571169888655177
  0.8426642153416140  0.1679277976791909  0.3435425067835638
  0.8410957313368499  0.1672643406649357  0.8442843832560101
  0.8426642153416140  0.4987388689874734  0.3435425067835638
  0.8410957313368499  0.4994023260017286  0.8442843832560101
  0.8438227389400907  0.8333333333333357  0.3428230169328259
  0.8417023558426706  0.8333333333333357  0.8434905119204501
  0.5901489362324739  0.1678232191981621  0.3970805825641506
  0.5899534783380886  0.1666372512092451  0.8973953689444585
  0.5901489362324739  0.4988434474685022  0.3970805825641506
  0.5899534783380886  0.5000294154574192  0.8973953689444585
  0.5928696294150910  0.8333333333333357  0.3978177351362646
  0.5902322457255309  0.8333333333333357  0.8971513851279695
  0.9083030671302268  0.9989275604181813  0.1024798253137789
  0.9080558637626055  0.9994584191267393  0.6020960571229494
  0.9109596768076571  0.3333333333333357  0.1074504715502727
  0.9089560182841367  0.3333333333333357  0.6001200154550190
  0.9083030671302268  0.6677391062484830  0.1024798253137789
  0.9080558637626055  0.6672082475399250  0.6020960571229494
  0.1607300908430389  0.1682107232253998  0.1614552352726264
  0.1579818090398888  0.1682091693567358  0.6511855031636671
  0.1607300908430389  0.4984559434412645  0.1614552352726264
  0.1579818090398888  0.4984574973099285  0.6511855031636671
  0.1593668089697005  0.8333333333333357  0.1583103965995249
  0.1579510968820870  0.8333333333333357  0.6545316490603739
  0.3420114186147600  0.9994843280760008  0.3433396077997415
  0.3391088569499132  0.9999347822114331  0.8422768309377986
  0.3347320581784459  0.3333333333333357  0.3464860420741402
  0.3390749904972878  0.3333333333333357  0.8426928834019876
  0.3420114186147600  0.6671823385906634  0.3433396077997415
  0.3391088569499132  0.6667318844552312  0.8422768309377986
  0.0892683223921225  0.0083472034743579  0.3959244648593483
  0.0923398102017217  0.9999337389112171  0.8981306810476823
  0.0904757399627769  0.3333333333333357  0.8968112807131376
  0.0892683223921225  0.6583194631923064  0.3959244648593483
  0.0923398102017217  0.6667329277554472  0.8981306810476823
  0.4090631510907627  0.1663290967410020  0.1024241189549997
  0.4104462521828438  0.1666473500601526  0.6033715743319306
  0.4090631510907627  0.5003375699256623  0.1024241189549997
  0.4104462521828438  0.5000193166065117  0.6033715743319306
  0.4086105950533465  0.8333333333333357  0.1018729451871820
  0.4096062349521929  0.8333333333333357  0.6026727015822075
  0.9965060947327657  0.1650524419806487  0.1313575473831108
  0.9954232257274853  0.1662200354977088  0.6262904433459013
  0.9965060947327657  0.5016142246860156  0.1313575473831108
  0.9954232257274853  0.5004466311689555  0.6262904433459013
  0.9963964780912704  0.8333333333333357  0.1275172387846766
  0.9956607207363746  0.8333333333333357  0.6277902816962353
  0.5049278434391695  0.9993453460140813  0.3730207387048523
  0.5023214411711763  0.9999249530550287  0.8719382598301380
  0.5012184607190591  0.3333333333333357  0.3726754139191186
  0.5023586896858419  0.3333333333333357  0.8724618814548890
  0.5049278434391695  0.6673213206525830  0.3730207387048523
  0.5023214411711763  0.6667417136116356  0.8719382598301380
  0.6724753316558889  0.1663798502137581  0.2804457297650771
  0.6732137600545158  0.1673604977741689  0.7815812039529533
  0.6724753316558889  0.5002868164529062  0.2804457297650771
  0.6732137600545158  0.4993061688924954  0.7815812039529533
  0.6734337690411678  0.8333333333333357  0.2803269697550945
  0.6730613898953663  0.8333333333333357  0.7811312671157538
  0.8265326075695896  0.9988138373004247  0.2184966618393602
  0.8275543733397228  0.0002312791548036  0.7200244128389386
  0.8249756725324460  0.3333333333333357  0.2188190939571371
  0.8284873111188276  0.3333333333333357  0.7197717652121298
  0.8265326075695896  0.6678528293662396  0.2184966618393602
  0.8275543733397228  0.6664353875118607  0.7200244128389386
  0.8312042121204612  0.9993454940689332  0.4456023987446329
  0.8325421988757284  0.0000025642836405  0.9459919645413706
  0.8273776916035374  0.3333333333333357  0.4457973961175341
  0.8359793568794061  0.3333333333333357  0.9488257882859017
  0.8312042121204612  0.6673211725977310  0.4456023987446329
  0.8325421988757284  0.6666641023830238  0.9459919645413706
  0.6670392296213450  0.1664803190676878  0.0537312251059845
  0.6675788550553037  0.1665868575942255  0.5542152983373256
  0.6670392296213450  0.5001863475989765  0.0537312251059845
  0.6675788550553037  0.5000798090724388  0.5542152983373256
  0.6672940738653992  0.8333333333333357  0.0535218291413031
  0.6691085569670889  0.8333333333333357  0.5548408406179206
  0.4965635885388409  0.9995182294200617  0.1262083092116484
  0.4975742621759949  0.9996522638013303  0.6289804747797518
  0.4962387036814420  0.3333333333333357  0.1266454713638154
  0.4977316493482533  0.3333333333333357  0.6288475888411185
  0.4965635885388409  0.6671484372466026  0.1262083092116484
  0.4975742621759949  0.6670144028653340  0.6289804747797518
  0.0011276699051237  0.1713782039112672  0.3695888254720785
  0.0034640475847496  0.1660823432447742  0.8729409123983984
  0.0011276699051237  0.4952884627553971  0.3695888254720785
  0.0034640475847496  0.5005843234218901  0.8729409123983984
  0.0058699683176684  0.8333333333333357  0.3732881868013678
  0.0042521809753993  0.8333333333333357  0.8732199634680384
  0.1736778638541878  0.9992598210297032  0.2812521061859030
  0.1718757678969496  0.0005828078691650  0.7792716273433484
  0.1748856398841099  0.3333333333333357  0.2730616691417893
  0.1718718202182927  0.3333333333333357  0.7806479596052966
  0.1736778638541878  0.6674068456369611  0.2812521061859030
  0.1718757678969496  0.6660838587974993  0.7792716273433484
  0.3299871847809328  0.1634830511271730  0.2203129812296041
  0.3274453969472759  0.1672625347105523  0.7190378184117066
  0.3299871847809328  0.5031836155394913  0.2203129812296041
  0.3274453969472759  0.4994041319561120  0.7190378184117066
  0.3280650836210199  0.8333333333333357  0.2193960305232920
  0.3266896564016406  0.8333333333333357  0.7185740684153714
  0.3349096914052296  0.1645487258192020  0.4472230014994167
  0.3318448586294664  0.1664236880676810  0.9456684301183245
  0.3349096914052296  0.5021179408474623  0.4472230014994167
  0.3318448586294664  0.5002429785989833  0.9456684301183245
  0.3346011994325622  0.8333333333333357  0.4461422302552265
  0.3307491611616911  0.8333333333333357  0.9453520681799787
  0.1667225492017934  0.0011786270852596  0.0554859929896594
  0.1669910022902812  0.9997217392848299  0.5528287821666211
  0.1685080254867799  0.3333333333333357  0.0526149030382399
  0.1687213729058641  0.3333333333333357  0.5539117905933324
  0.1667225492017934  0.6654880395814047  0.0554859929896594
  0.1669910022902812  0.6669449273818344  0.5528287821666211
 
  0.00000000E+00  0.00000000E+00  0.00000000E+00
  0.00000000E+00  0.00000000E+00  0.00000000E+00
  0.00000000E+00  0.00000000E+00  0.00000000E+00
  0.00000000E+00  0.00000000E+00  0.00000000E+00
  0.00000000E+00  0.00000000E+00  0.00000000E+00
  0.00000000E+00  0.00000000E+00  0.00000000E+00
  0.00000000E+00  0.00000000E+00  0.00000000E+00
  0.00000000E+00  0.00000000E+00  0.00000000E+00
  0.00000000E+00  0.00000000E+00  0.00000000E+00
  0.00000000E+00  0.00000000E+00  0.00000000E+00
  0.00000000E+00  0.00000000E+00  0.00000000E+00
  0.00000000E+00  0.00000000E+00  0.00000000E+00
  0.00000000E+00  0.00000000E+00  0.00000000E+00
  0.00000000E+00  0.00000000E+00  0.00000000E+00
  0.00000000E+00  0.00000000E+00  0.00000000E+00
  0.00000000E+00  0.00000000E+00  0.00000000E+00
  0.00000000E+00  0.00000000E+00  0.00000000E+00
  0.00000000E+00  0.00000000E+00  0.00000000E+00
  0.00000000E+00  0.00000000E+00  0.00000000E+00
  0.00000000E+00  0.00000000E+00  0.00000000E+00
  0.00000000E+00  0.00000000E+00  0.00000000E+00
  0.00000000E+00  0.00000000E+00  0.00000000E+00
  0.00000000E+00  0.00000000E+00  0.00000000E+00
  0.00000000E+00  0.00000000E+00  0.00000000E+00
  0.00000000E+00  0.00000000E+00  0.00000000E+00
  0.00000000E+00  0.00000000E+00  0.00000000E+00
  0.00000000E+00  0.00000000E+00  0.00000000E+00
  0.00000000E+00  0.00000000E+00  0.00000000E+00
  0.00000000E+00  0.00000000E+00  0.00000000E+00
  0.00000000E+00  0.00000000E+00  0.00000000E+00
  0.00000000E+00  0.00000000E+00  0.00000000E+00
  0.00000000E+00  0.00000000E+00  0.00000000E+00
  0.00000000E+00  0.00000000E+00  0.00000000E+00
  0.00000000E+00  0.00000000E+00  0.00000000E+00
  0.00000000E+00  0.00000000E+00  0.00000000E+00
  0.00000000E+00  0.00000000E+00  0.00000000E+00
  0.00000000E+00  0.00000000E+00  0.00000000E+00
  0.00000000E+00  0.00000000E+00  0.00000000E+00
  0.00000000E+00  0.00000000E+00  0.00000000E+00
  0.00000000E+00  0.00000000E+00  0.00000000E+00
  0.00000000E+00  0.00000000E+00  0.00000000E+00
  0.00000000E+00  0.00000000E+00  0.00000000E+00
  0.00000000E+00  0.00000000E+00  0.00000000E+00
  0.00000000E+00  0.00000000E+00  0.00000000E+00
  0.00000000E+00  0.00000000E+00  0.00000000E+00
  0.00000000E+00  0.00000000E+00  0.00000000E+00
  0.00000000E+00  0.00000000E+00  0.00000000E+00
  0.00000000E+00  0.00000000E+00  0.00000000E+00
  0.00000000E+00  0.00000000E+00  0.00000000E+00
  0.00000000E+00  0.00000000E+00  0.00000000E+00
  0.00000000E+00  0.00000000E+00  0.00000000E+00
  0.00000000E+00  0.00000000E+00  0.00000000E+00
  0.00000000E+00  0.00000000E+00  0.00000000E+00
  0.00000000E+00  0.00000000E+00  0.00000000E+00
  0.00000000E+00  0.00000000E+00  0.00000000E+00
  0.00000000E+00  0.00000000E+00  0.00000000E+00
  0.00000000E+00  0.00000000E+00  0.00000000E+00
  0.00000000E+00  0.00000000E+00  0.00000000E+00
  0.00000000E+00  0.00000000E+00  0.00000000E+00
  0.00000000E+00  0.00000000E+00  0.00000000E+00
  0.00000000E+00  0.00000000E+00  0.00000000E+00
  0.00000000E+00  0.00000000E+00  0.00000000E+00
  0.00000000E+00  0.00000000E+00  0.00000000E+00
  0.00000000E+00  0.00000000E+00  0.00000000E+00
  0.00000000E+00  0.00000000E+00  0.00000000E+00
  0.00000000E+00  0.00000000E+00  0.00000000E+00
  0.00000000E+00  0.00000000E+00  0.00000000E+00
  0.00000000E+00  0.00000000E+00  0.00000000E+00
  0.00000000E+00  0.00000000E+00  0.00000000E+00
  0.00000000E+00  0.00000000E+00  0.00000000E+00
  0.00000000E+00  0.00000000E+00  0.00000000E+00
  0.00000000E+00  0.00000000E+00  0.00000000E+00
  0.00000000E+00  0.00000000E+00  0.00000000E+00
  0.00000000E+00  0.00000000E+00  0.00000000E+00
  0.00000000E+00  0.00000000E+00  0.00000000E+00
  0.00000000E+00  0.00000000E+00  0.00000000E+00
  0.00000000E+00  0.00000000E+00  0.00000000E+00
  0.00000000E+00  0.00000000E+00  0.00000000E+00
  0.00000000E+00  0.00000000E+00  0.00000000E+00
  0.00000000E+00  0.00000000E+00  0.00000000E+00
  0.00000000E+00  0.00000000E+00  0.00000000E+00
  0.00000000E+00  0.00000000E+00  0.00000000E+00
  0.00000000E+00  0.00000000E+00  0.00000000E+00
  0.00000000E+00  0.00000000E+00  0.00000000E+00
  0.00000000E+00  0.00000000E+00  0.00000000E+00
  0.00000000E+00  0.00000000E+00  0.00000000E+00
  0.00000000E+00  0.00000000E+00  0.00000000E+00
  0.00000000E+00  0.00000000E+00  0.00000000E+00
  0.00000000E+00  0.00000000E+00  0.00000000E+00
  0.00000000E+00  0.00000000E+00  0.00000000E+00
  0.00000000E+00  0.00000000E+00  0.00000000E+00
  0.00000000E+00  0.00000000E+00  0.00000000E+00
  0.00000000E+00  0.00000000E+00  0.00000000E+00
  0.00000000E+00  0.00000000E+00  0.00000000E+00
  0.00000000E+00  0.00000000E+00  0.00000000E+00
  0.00000000E+00  0.00000000E+00  0.00000000E+00
  0.00000000E+00  0.00000000E+00  0.00000000E+00
  0.00000000E+00  0.00000000E+00  0.00000000E+00
  0.00000000E+00  0.00000000E+00  0.00000000E+00
  0.00000000E+00  0.00000000E+00  0.00000000E+00
  0.00000000E+00  0.00000000E+00  0.00000000E+00
  0.00000000E+00  0.00000000E+00  0.00000000E+00
  0.00000000E+00  0.00000000E+00  0.00000000E+00
  0.00000000E+00  0.00000000E+00  0.00000000E+00
  0.00000000E+00  0.00000000E+00  0.00000000E+00
  0.00000000E+00  0.00000000E+00  0.00000000E+00
  0.00000000E+00  0.00000000E+00  0.00000000E+00
  0.00000000E+00  0.00000000E+00  0.00000000E+00
  0.00000000E+00  0.00000000E+00  0.00000000E+00
  0.00000000E+00  0.00000000E+00  0.00000000E+00
  0.00000000E+00  0.00000000E+00  0.00000000E+00
  0.00000000E+00  0.00000000E+00  0.00000000E+00
  0.00000000E+00  0.00000000E+00  0.00000000E+00
  0.00000000E+00  0.00000000E+00  0.00000000E+00
  0.00000000E+00  0.00000000E+00  0.00000000E+00
  0.00000000E+00  0.00000000E+00  0.00000000E+00
  0.00000000E+00  0.00000000E+00  0.00000000E+00
  0.00000000E+00  0.00000000E+00  0.00000000E+00
  0.00000000E+00  0.00000000E+00  0.00000000E+00
