Ga48 O72                                
    1.000000000000000     
     0.0000000000000000   12.2804734172212839    0.0000000000000000
     9.1427020537309431    0.0000000000000000    0.0000000000000000
     0.0000000000000000   -2.7682617730220320  -11.3006977184464645
   Ga   O 
    47    72
Direct
  0.6590589640763601 -0.0001689315264658  0.1572259279842602
  0.6596807267906617  0.0000994205054657  0.6571169888655163
  0.6586255426079891  0.3333333333333357  0.1567489726308286
  0.6601757335145594  0.3333333333333357  0.6567956895460894
  0.6590589640763601  0.6668355981931299  0.1572259279842602
  0.6596807267906617  0.6665672461611984  0.6571169888655163
  0.8426642153416114  0.1679277976791914  0.3435425067835670
  0.8410957313368488  0.1672643406649381  0.8442843832560100
  0.8426642153416114  0.4987388689874729  0.3435425067835670
  0.8410957313368488  0.4994023260017263  0.8442843832560100
  0.8438227389400905  0.8333333333333357  0.3428230169328249
  0.8417023558426742  0.8333333333333357  0.8434905119204471
  0.5901489362324734  0.1678232191981624  0.3970805825641471
  0.5899534783380901  0.1666372512092437  0.8973953689444609
  0.5901489362324734  0.4988434474685020  0.3970805825641471
  0.5899534783380901  0.5000294154574205  0.8973953689444609
  0.5928696294150891  0.8333333333333357  0.3978177351362677
  0.5902322457255297  0.8333333333333357  0.8971513851279712
  0.9083030671302277 -0.0010724395818192  0.1024798253137777
  0.9080558637626062 -0.0005415808732619  0.6020960571229503
  0.9109596768076591  0.3333333333333357  0.1074504715502703
  0.9089560182841372  0.3333333333333357  0.6001200154550197
  0.9083030671302277  0.6677391062484836  0.1024798253137777
  0.9080558637626062  0.6672082475399261  0.6020960571229503
  0.1607300908430384  0.1682107232254011  0.1614552352726267
  0.1579818090398897  0.1682091693567347  0.6511855031636673
  0.1607300908430384  0.4984559434412630  0.1614552352726267
  0.1579818090398897  0.4984574973099297  0.6511855031636673
  0.1593668089696999  0.8333333333333357  0.1583103965995256
  0.1579510968820838  0.8333333333333357  0.6545316490603726
  0.3420114186147613 -0.0005156719240010  0.3433396077997443
  0.3391088569499132 -0.0000652177885653  0.8422768309377987
  0.3347320581784491  0.3333333333333357  0.3464860420741401
  0.3390749904972907  0.3333333333333357  0.8426928834019853
  0.3420114186147613  0.6671823385906653  0.3433396077997443
  0.3391088569499132  0.6667318844552296  0.8422768309377987
  0.0892683223921260  0.0083472034743594  0.3959244648593490
  0.0923398102017205 -0.0000662610887809  0.8981306810476822
  0.0904757399627800  0.3333333333333357  0.8968112807131365
  0.0892683223921260  0.6583194631923052  0.3959244648593490
  0.0923398102017205  0.6667329277554451  0.8981306810476822
  0.4090631510907607  0.1663290967410036  0.1024241189549992
  0.4104462521828449  0.1666473500601547  0.6033715743319336
  0.4090631510907607  0.5003375699256604  0.1024241189549992
  0.4104462521828449  0.5000193166065097  0.6033715743319336
  0.4086105950533486  0.8333333333333357  0.1018729451871795
  0.4096062349521909  0.8333333333333357  0.6026727015822049
  0.9965060947327674  0.1650524419806460  0.1313575473831129
  0.9954232257274884  0.1662200354977082  0.6262904433458979
  0.9965060947327674  0.5016142246860181  0.1313575473831129
  0.9954232257274884  0.5004466311689560  0.6262904433458979
  0.9963964780912717  0.8333333333333357  0.1275172387846789
  0.9956607207363729  0.8333333333333357  0.6277902816962377
  0.5049278434391682 -0.0006546539859183  0.3730207387048510
  0.5023214411711775 -0.0000750469449686  0.8719382598301401
  0.5012184607190618  0.3333333333333357  0.3726754139191220
  0.5023586896858450  0.3333333333333357  0.8724618814548878
  0.5049278434391682  0.6673213206525821  0.3730207387048510
  0.5023214411711775  0.6667417136116326  0.8719382598301401
  0.6724753316558915  0.1663798502137603  0.2804457297650743
  0.6732137600545167  0.1673604977741705  0.7815812039529553
  0.6724753316558915  0.5002868164529042  0.2804457297650743
  0.6732137600545167  0.4993061688924937  0.7815812039529553
  0.6734337690411671  0.8333333333333357  0.2803269697550973
  0.6730613898953637  0.8333333333333357  0.7811312671157513
  0.8265326075695862 -0.0011861626995771  0.2184966618393628
  0.8275543733397202  0.0002312791548014  0.7200244128389358
  0.8249756725324443  0.3333333333333357  0.2188190939571341
  0.8284873111188310  0.3333333333333357  0.7197717652121318
  0.8265326075695862  0.6678528293662412  0.2184966618393628
  0.8275543733397202  0.6664353875118625  0.7200244128389358
  0.8312042121204647 -0.0006545059310650  0.4456023987446294
  0.8325421988757269  0.0000025642836402  0.9459919645413735
  0.8273776916035358  0.3333333333333357  0.4457973961175314
  0.8359793568794096  0.3333333333333357  0.9488257882858984
  0.8312042121204647  0.6673211725977291  0.4456023987446294
  0.8325421988757269  0.6666641023830242  0.9459919645413735
  0.6670392296213433  0.1664803190676843  0.0537312251059837
  0.6675788550553065  0.1665868575942276  0.5542152983373237
  0.6670392296213433  0.5001863475989797  0.0537312251059837
  0.6675788550553065  0.5000798090724362  0.5542152983373237
  0.6672940738653971  0.8333333333333357  0.0535218291413034
  0.6691085569670921  0.8333333333333357  0.5548408406179176
  0.4965635885388439 -0.0004817705799350  0.1262083092116502
  0.4975742621759980 -0.0003477361986684  0.6289804747797523
  0.4962387036814403  0.3333333333333357  0.1266454713638157
  0.4977316493482509  0.3333333333333357  0.6288475888411166
  0.4965635885388439  0.6671484372465993  0.1262083092116502
  0.4975742621759980  0.6670144028653328  0.6289804747797523
  0.0011276699051240  0.1713782039112661  0.3695888254720759
  0.0034640475847508  0.1660823432447770  0.8729409123983982
  0.0011276699051240  0.4952884627553982  0.3695888254720759
  0.0034640475847508  0.5005843234218870  0.8729409123983982
  0.0058699683176678  0.8333333333333357  0.3732881868013667
  0.0042521809753963  0.8333333333333357  0.8732199634680385
  0.1736778638541862 -0.0007401789702984  0.2812521061858996
  0.1718757678969478  0.0005828078691671  0.7792716273433520
  0.1748856398841066  0.3333333333333357  0.2730616691417923
  0.1718718202182956  0.3333333333333357  0.7806479596052978
  0.1736778638541862  0.6674068456369627  0.2812521061858996
  0.1718757678969478  0.6660838587974971  0.7792716273433520
  0.3299871847809356  0.1634830511271735  0.2203129812296042
  0.3274453969472740  0.1672625347105530  0.7190378184117070
  0.3299871847809356  0.5031836155394903  0.2203129812296042
  0.3274453969472740  0.4994041319561113  0.7190378184117070
  0.3280650836210225  0.8333333333333357  0.2193960305232952
  0.3266896564016395  0.8333333333333357  0.7185740684153710
  0.3349096914052301  0.1645487258192004  0.4472230014994161
  0.3318448586294678  0.1664236880676799  0.9456684301183220
  0.3349096914052301  0.5021179408474640  0.4472230014994161
  0.3318448586294678  0.5002429785989843  0.9456684301183220
  0.3346011994325591  0.8333333333333357  0.4461422302552258
  0.3307491611616930  0.8333333333333357  0.9453520681799753
  0.1667225492017907  0.0011786270852604  0.0554859929896586
  0.1669910022902794 -0.0002782607151699  0.5528287821666205
  0.1685080254867806  0.3333333333333357  0.0526149030382391
  0.1687213729058641  0.3333333333333357  0.5539117905933317
  0.1667225492017907  0.6654880395814036  0.0554859929896586
  0.1669910022902794  0.6669449273818343  0.5528287821666205
 
  0.00000000E+00  0.00000000E+00  0.00000000E+00
  0.00000000E+00  0.00000000E+00  0.00000000E+00
  0.00000000E+00  0.00000000E+00  0.00000000E+00
  0.00000000E+00  0.00000000E+00  0.00000000E+00
  0.00000000E+00  0.00000000E+00  0.00000000E+00
  0.00000000E+00  0.00000000E+00  0.00000000E+00
  0.00000000E+00  0.00000000E+00  0.00000000E+00
  0.00000000E+00  0.00000000E+00  0.00000000E+00
  0.00000000E+00  0.00000000E+00  0.00000000E+00
  0.00000000E+00  0.00000000E+00  0.00000000E+00
  0.00000000E+00  0.00000000E+00  0.00000000E+00
  0.00000000E+00  0.00000000E+00  0.00000000E+00
  0.00000000E+00  0.00000000E+00  0.00000000E+00
  0.00000000E+00  0.00000000E+00  0.00000000E+00
  0.00000000E+00  0.00000000E+00  0.00000000E+00
  0.00000000E+00  0.00000000E+00  0.00000000E+00
  0.00000000E+00  0.00000000E+00  0.00000000E+00
  0.00000000E+00  0.00000000E+00  0.00000000E+00
  0.00000000E+00  0.00000000E+00  0.00000000E+00
  0.00000000E+00  0.00000000E+00  0.00000000E+00
  0.00000000E+00  0.00000000E+00  0.00000000E+00
  0.00000000E+00  0.00000000E+00  0.00000000E+00
  0.00000000E+00  0.00000000E+00  0.00000000E+00
  0.00000000E+00  0.00000000E+00  0.00000000E+00
  0.00000000E+00  0.00000000E+00  0.00000000E+00
  0.00000000E+00  0.00000000E+00  0.00000000E+00
  0.00000000E+00  0.00000000E+00  0.00000000E+00
  0.00000000E+00  0.00000000E+00  0.00000000E+00
  0.00000000E+00  0.00000000E+00  0.00000000E+00
  0.00000000E+00  0.00000000E+00  0.00000000E+00
  0.00000000E+00  0.00000000E+00  0.00000000E+00
  0.00000000E+00  0.00000000E+00  0.00000000E+00
  0.00000000E+00  0.00000000E+00  0.00000000E+00
  0.00000000E+00  0.00000000E+00  0.00000000E+00
  0.00000000E+00  0.00000000E+00  0.00000000E+00
  0.00000000E+00  0.00000000E+00  0.00000000E+00
  0.00000000E+00  0.00000000E+00  0.00000000E+00
  0.00000000E+00  0.00000000E+00  0.00000000E+00
  0.00000000E+00  0.00000000E+00  0.00000000E+00
  0.00000000E+00  0.00000000E+00  0.00000000E+00
  0.00000000E+00  0.00000000E+00  0.00000000E+00
  0.00000000E+00  0.00000000E+00  0.00000000E+00
  0.00000000E+00  0.00000000E+00  0.00000000E+00
  0.00000000E+00  0.00000000E+00  0.00000000E+00
  0.00000000E+00  0.00000000E+00  0.00000000E+00
  0.00000000E+00  0.00000000E+00  0.00000000E+00
  0.00000000E+00  0.00000000E+00  0.00000000E+00
  0.00000000E+00  0.00000000E+00  0.00000000E+00
  0.00000000E+00  0.00000000E+00  0.00000000E+00
  0.00000000E+00  0.00000000E+00  0.00000000E+00
  0.00000000E+00  0.00000000E+00  0.00000000E+00
  0.00000000E+00  0.00000000E+00  0.00000000E+00
  0.00000000E+00  0.00000000E+00  0.00000000E+00
  0.00000000E+00  0.00000000E+00  0.00000000E+00
  0.00000000E+00  0.00000000E+00  0.00000000E+00
  0.00000000E+00  0.00000000E+00  0.00000000E+00
  0.00000000E+00  0.00000000E+00  0.00000000E+00
  0.00000000E+00  0.00000000E+00  0.00000000E+00
  0.00000000E+00  0.00000000E+00  0.00000000E+00
  0.00000000E+00  0.00000000E+00  0.00000000E+00
  0.00000000E+00  0.00000000E+00  0.00000000E+00
  0.00000000E+00  0.00000000E+00  0.00000000E+00
  0.00000000E+00  0.00000000E+00  0.00000000E+00
  0.00000000E+00  0.00000000E+00  0.00000000E+00
  0.00000000E+00  0.00000000E+00  0.00000000E+00
  0.00000000E+00  0.00000000E+00  0.00000000E+00
  0.00000000E+00  0.00000000E+00  0.00000000E+00
  0.00000000E+00  0.00000000E+00  0.00000000E+00
  0.00000000E+00  0.00000000E+00  0.00000000E+00
  0.00000000E+00  0.00000000E+00  0.00000000E+00
  0.00000000E+00  0.00000000E+00  0.00000000E+00
  0.00000000E+00  0.00000000E+00  0.00000000E+00
  0.00000000E+00  0.00000000E+00  0.00000000E+00
  0.00000000E+00  0.00000000E+00  0.00000000E+00
  0.00000000E+00  0.00000000E+00  0.00000000E+00
  0.00000000E+00  0.00000000E+00  0.00000000E+00
  0.00000000E+00  0.00000000E+00  0.00000000E+00
  0.00000000E+00  0.00000000E+00  0.00000000E+00
  0.00000000E+00  0.00000000E+00  0.00000000E+00
  0.00000000E+00  0.00000000E+00  0.00000000E+00
  0.00000000E+00  0.00000000E+00  0.00000000E+00
  0.00000000E+00  0.00000000E+00  0.00000000E+00
  0.00000000E+00  0.00000000E+00  0.00000000E+00
  0.00000000E+00  0.00000000E+00  0.00000000E+00
  0.00000000E+00  0.00000000E+00  0.00000000E+00
  0.00000000E+00  0.00000000E+00  0.00000000E+00
  0.00000000E+00  0.00000000E+00  0.00000000E+00
  0.00000000E+00  0.00000000E+00  0.00000000E+00
  0.00000000E+00  0.00000000E+00  0.00000000E+00
  0.00000000E+00  0.00000000E+00  0.00000000E+00
  0.00000000E+00  0.00000000E+00  0.00000000E+00
  0.00000000E+00  0.00000000E+00  0.00000000E+00
  0.00000000E+00  0.00000000E+00  0.00000000E+00
  0.00000000E+00  0.00000000E+00  0.00000000E+00
  0.00000000E+00  0.00000000E+00  0.00000000E+00
  0.00000000E+00  0.00000000E+00  0.00000000E+00
  0.00000000E+00  0.00000000E+00  0.00000000E+00
  0.00000000E+00  0.00000000E+00  0.00000000E+00
  0.00000000E+00  0.00000000E+00  0.00000000E+00
  0.00000000E+00  0.00000000E+00  0.00000000E+00
  0.00000000E+00  0.00000000E+00  0.00000000E+00
  0.00000000E+00  0.00000000E+00  0.00000000E+00
  0.00000000E+00  0.00000000E+00  0.00000000E+00
  0.00000000E+00  0.00000000E+00  0.00000000E+00
  0.00000000E+00  0.00000000E+00  0.00000000E+00
  0.00000000E+00  0.00000000E+00  0.00000000E+00
  0.00000000E+00  0.00000000E+00  0.00000000E+00
  0.00000000E+00  0.00000000E+00  0.00000000E+00
  0.00000000E+00  0.00000000E+00  0.00000000E+00
  0.00000000E+00  0.00000000E+00  0.00000000E+00
  0.00000000E+00  0.00000000E+00  0.00000000E+00
  0.00000000E+00  0.00000000E+00  0.00000000E+00
  0.00000000E+00  0.00000000E+00  0.00000000E+00
  0.00000000E+00  0.00000000E+00  0.00000000E+00
  0.00000000E+00  0.00000000E+00  0.00000000E+00
  0.00000000E+00  0.00000000E+00  0.00000000E+00
  0.00000000E+00  0.00000000E+00  0.00000000E+00
  0.00000000E+00  0.00000000E+00  0.00000000E+00
  0.00000000E+00  0.00000000E+00  0.00000000E+00
