 running    4 mpi-ranks, on    1 nodes
 distrk:  each k-point on    1 cores,    4 groups
 distr:  one band on    1 cores,    1 groups
 OpenACC runtime initialized ...    4 GPUs detected
 vasp.6.4.2 20Jul23 (build Nov 12 2023 22:16:35) complex                         
 POSCAR found type information on POSCAR GaO N Fe
 POSCAR found :  4 types and     120 ions
 scaLAPACK will be used selectively (only on CPU)
 LDA part: xc-table for Pade appr. of Perdew
 POSCAR, INCAR and KPOINTS ok, starting setup
 FFT: planning ... GRIDC
 FFT: planning ... GRID_SOFT
 FFT: planning ... GRID
 WAVECAR not read
 initial charge from wavefunction
 entering main loop
       N       E                     dE             d eps       ncg     rms          rms(c)
DAV:   1     0.122104381993E+05    0.12210E+05   -0.58352E+05 10544   0.705E+03
DAV:   2    -0.309967640582E+05   -0.43207E+05   -0.41766E+05 13488   0.119E+03
DAV:   3    -0.354798781815E+05   -0.44831E+04   -0.40776E+04 14232   0.351E+02
DAV:   4    -0.359785909266E+05   -0.49871E+03   -0.41628E+03 16898   0.101E+02
DAV:   5    -0.360266352852E+05   -0.48044E+02   -0.43666E+02 19304   0.302E+01    0.731E+02
DAV:   6    -0.108233135842E+05    0.25203E+05   -0.19561E+04 14418   0.247E+02    0.593E+02
DAV:   7    -0.445999386983E+04    0.63633E+04   -0.69046E+03 16356   0.164E+02    0.271E+02
DAV:   8    -0.120603089524E+04    0.32540E+04   -0.10931E+04 14368   0.248E+02    0.232E+02
DAV:   9    -0.769933989165E+03    0.43610E+03   -0.14398E+03 15064   0.131E+02    0.170E+02
DAV:  10    -0.791978610955E+03   -0.22045E+02   -0.97483E+02 14744   0.752E+01    0.758E+01
DAV:  11    -0.765035075188E+03    0.26944E+02   -0.37683E+02 13144   0.101E+02    0.128E+02
DAV:  12    -0.735956713442E+03    0.29078E+02   -0.11169E+02 14888   0.271E+01    0.869E+01
DAV:  13    -0.730513605788E+03    0.54431E+01   -0.45082E+01 14304   0.215E+01    0.862E+01
DAV:  14    -0.729223681968E+03    0.12899E+01   -0.73881E+00 14296   0.180E+01    0.722E+01
DAV:  15    -0.721943758959E+03    0.72799E+01   -0.28272E+01 15344   0.151E+01    0.350E+01
DAV:  16    -0.720393803017E+03    0.15500E+01   -0.17250E+01 12792   0.101E+01    0.306E+01
DAV:  17    -0.720139478237E+03    0.25432E+00   -0.22304E+00 14136   0.330E+00    0.276E+01
DAV:  18    -0.720195134885E+03   -0.55657E-01   -0.26135E-01 12192   0.119E+00    0.279E+01
DAV:  19    -0.720193581731E+03    0.15532E-02   -0.48382E-02 14192   0.254E+00    0.279E+01
DAV:  20    -0.720148895105E+03    0.44687E-01   -0.84380E-02 16048   0.267E+00    0.272E+01
DAV:  21    -0.719647619397E+03    0.50128E+00   -0.20351E+00 14640   0.161E+01    0.174E+01
DAV:  22    -0.719221453244E+03    0.42617E+00   -0.16724E+00 14440   0.712E+00    0.110E+01
DAV:  23    -0.718845962480E+03    0.37549E+00   -0.65639E-01 14128   0.451E+00    0.951E+00
DAV:  24    -0.718447830949E+03    0.39813E+00   -0.28204E-01 14696   0.445E+00    0.775E+00
DAV:  25    -0.718196949339E+03    0.25088E+00   -0.26271E-01 15224   0.362E+00    0.685E+00
DAV:  26    -0.718023205758E+03    0.17374E+00   -0.14814E-01 14832   0.306E+00    0.442E+00
DAV:  27    -0.717910078832E+03    0.11313E+00   -0.42121E-01 14896   0.626E+00    0.280E+00
DAV:  28    -0.717948976480E+03   -0.38898E-01   -0.64951E-01 12200   0.137E+00    0.281E+00
DAV:  29    -0.717952837626E+03   -0.38611E-02   -0.51761E-01 15208   0.560E-01    0.290E+00
DAV:  30    -0.717973429270E+03   -0.20592E-01   -0.82749E-01 13800   0.678E-01    0.330E+00
DAV:  31    -0.717987647736E+03   -0.14218E-01   -0.11705E+00 11776   0.641E-01    0.352E+00
DAV:  32    -0.718009276043E+03   -0.21628E-01   -0.15079E+00 11320   0.603E-01    0.393E+00
DAV:  33    -0.718019711717E+03   -0.10436E-01   -0.17593E+00 11520   0.820E-01    0.395E+00
DAV:  34    -0.718018424415E+03    0.12873E-02   -0.16245E+00 11640   0.145E+00    0.378E+00
DAV:  35    -0.718046591192E+03   -0.28167E-01   -0.21570E+00 11744   0.927E-01    0.458E+00
DAV:  36    -0.718026709046E+03    0.19882E-01   -0.17814E+00 11408   0.896E-01    0.333E+00
DAV:  37    -0.718046873695E+03   -0.20165E-01   -0.20437E+00 10896   0.583E-01    0.481E+00
DAV:  38    -0.718028995327E+03    0.17878E-01   -0.18644E+00 10936   0.554E-01    0.330E+00
DAV:  39    -0.718048190182E+03   -0.19195E-01   -0.20452E+00 11344   0.817E-01    0.495E+00
DAV:  40    -0.718031527140E+03    0.16663E-01   -0.19543E+00 10928   0.609E-01    0.327E+00
DAV:  41    -0.718042310778E+03   -0.10784E-01   -0.19941E+00 11272   0.780E-01    0.485E+00
DAV:  42    -0.718029535797E+03    0.12775E-01   -0.20073E+00 11016   0.613E-01    0.333E+00
DAV:  43    -0.718018710411E+03    0.10825E-01   -0.17932E+00 11208   0.750E-01    0.427E+00
DAV:  44    -0.718015448245E+03    0.32622E-02   -0.19564E+00 11352   0.943E-01    0.353E+00
DAV:  45    -0.717992380565E+03    0.23068E-01   -0.16624E+00 12784   0.882E-01    0.347E+00
DAV:  46    -0.717983643698E+03    0.87369E-02   -0.15554E+00 13136   0.173E+00    0.308E+00
DAV:  47    -0.717998701053E+03   -0.15057E-01   -0.17745E+00 12384   0.747E-01    0.384E+00
DAV:  48    -0.717982145000E+03    0.16556E-01   -0.16948E+00 12272   0.101E+00    0.267E+00
DAV:  49    -0.717980305532E+03    0.18395E-02   -0.15084E+00 12184   0.899E-01    0.340E+00
DAV:  50    -0.717966835137E+03    0.13470E-01   -0.13736E+00 11416   0.879E-01    0.236E+00
DAV:  51    -0.717980541510E+03   -0.13706E-01   -0.14575E+00 11520   0.609E-01    0.369E+00
DAV:  52    -0.717964879015E+03    0.15662E-01   -0.13618E+00 11488   0.967E-01    0.209E+00
DAV:  53    -0.717972890339E+03   -0.80113E-02   -0.13091E+00 10928   0.577E-01    0.356E+00
DAV:  54    -0.717959722631E+03    0.13168E-01   -0.12485E+00 11056   0.640E-01    0.198E+00
DAV:  55    -0.717967604554E+03   -0.78819E-02   -0.12111E+00 10784   0.451E-01    0.345E+00
DAV:  56    -0.717955469308E+03    0.12135E-01   -0.11506E+00 11088   0.482E-01    0.188E+00
DAV:  57    -0.717967147567E+03   -0.11678E-01   -0.11875E+00 10936   0.475E-01    0.352E+00
DAV:  58    -0.717954411970E+03    0.12736E-01   -0.11306E+00 10920   0.465E-01    0.174E+00
DAV:  59    -0.717965931096E+03   -0.11519E-01   -0.11511E+00 10832   0.411E-01    0.356E+00
DAV:  60    -0.717952520742E+03    0.13410E-01   -0.10897E+00 12184   0.434E-01    0.160E+00
DAV:  61    -0.717966838380E+03   -0.14318E-01   -0.11413E+00 11912   0.430E-01    0.370E+00
DAV:  62    -0.717951952555E+03    0.14886E-01   -0.10772E+00 11328   0.414E-01    0.144E+00
DAV:  63    -0.717966093649E+03   -0.14141E-01   -0.11059E+00 11288   0.411E-01    0.378E+00
DAV:  64    -0.717951070086E+03    0.15024E-01   -0.10605E+00 11720   0.414E-01    0.133E+00
DAV:  65    -0.717966370294E+03   -0.15300E-01   -0.10934E+00 11496   0.406E-01    0.387E+00
DAV:  66    -0.717950709400E+03    0.15661E-01   -0.10546E+00 11672   0.411E-01    0.125E+00
DAV:  67    -0.717968545656E+03   -0.17836E-01   -0.11110E+00 11384   0.407E-01    0.402E+00
DAV:  68    -0.717951529029E+03    0.17017E-01   -0.10690E+00 11464   0.413E-01    0.115E+00
DAV:  69    -0.717970980984E+03   -0.19452E-01   -0.11292E+00 11352   0.412E-01    0.417E+00
DAV:  70    -0.717952441688E+03    0.18539E-01   -0.10856E+00 11280   0.415E-01    0.105E+00
DAV:  71    -0.717968252107E+03   -0.15810E-01   -0.10865E+00 10952   0.602E-01    0.409E+00
DAV:  72    -0.717950535463E+03    0.17717E-01   -0.10643E+00 10736   0.410E-01    0.106E+00
DAV:  73    -0.717968079577E+03   -0.17544E-01   -0.10815E+00 12088   0.410E-01    0.410E+00
DAV:  74    -0.717950131581E+03    0.17948E-01   -0.10520E+00 11280   0.404E-01    0.100E+00
DAV:  75    -0.717968077535E+03   -0.17946E-01   -0.10759E+00 11168   0.404E-01    0.412E+00
DAV:  76    -0.717949753624E+03    0.18324E-01   -0.10399E+00 11048   0.403E-01    0.934E-01
DAV:  77    -0.717968175827E+03   -0.18422E-01   -0.10686E+00 11096   0.402E-01    0.416E+00
DAV:  78    -0.717949708315E+03    0.18468E-01   -0.10388E+00 11088   0.402E-01    0.884E-01
DAV:  79    -0.717968349146E+03   -0.18641E-01   -0.10650E+00 11112   0.402E-01    0.419E+00
DAV:  80    -0.717949583891E+03    0.18765E-01   -0.10352E+00 11032   0.401E-01    0.841E-01
DAV:  81    -0.717968386968E+03   -0.18803E-01   -0.10601E+00 11096   0.402E-01    0.422E+00
DAV:  82    -0.717949709219E+03    0.18678E-01   -0.10361E+00 11040   0.401E-01    0.819E-01
DAV:  83    -0.717968965660E+03   -0.19256E-01   -0.10665E+00 11080   0.402E-01    0.424E+00
DAV:  84    -0.717949992470E+03    0.18973E-01   -0.10411E+00 11032   0.402E-01    0.800E-01
DAV:  85    -0.717969602627E+03   -0.19610E-01   -0.10738E+00 11080   0.404E-01    0.427E+00
DAV:  86    -0.717950287056E+03    0.19316E-01   -0.10433E+00 11048   0.405E-01    0.786E-01
DAV:  87    -0.717970473545E+03   -0.20186E-01   -0.10862E+00 11080   0.407E-01    0.430E+00
DAV:  88    -0.717950621209E+03    0.19852E-01   -0.10509E+00 11072   0.407E-01    0.777E-01
DAV:  89    -0.717970827517E+03   -0.20206E-01   -0.10887E+00 11074   0.407E-01    0.432E+00
DAV:  90    -0.717950891768E+03    0.19936E-01   -0.10581E+00 11018   0.406E-01    0.766E-01
DAV:  91    -0.717971204592E+03   -0.20313E-01   -0.10913E+00 11066   0.408E-01    0.435E+00
DAV:  92    -0.717951209976E+03    0.19995E-01   -0.10675E+00 11026   0.408E-01    0.763E-01
DAV:  93    -0.717971650630E+03   -0.20441E-01   -0.10957E+00 11058   0.410E-01    0.437E+00
DAV:  94    -0.717951495434E+03    0.20155E-01   -0.10744E+00 11034   0.409E-01    0.756E-01
DAV:  95    -0.717971947362E+03   -0.20452E-01   -0.10985E+00 11050   0.410E-01    0.438E+00
DAV:  96    -0.717951527104E+03    0.20420E-01   -0.10738E+00 10978   0.408E-01    0.746E-01
DAV:  97    -0.717972043957E+03   -0.20517E-01   -0.10981E+00 11018   0.409E-01    0.439E+00
DAV:  98    -0.717951401833E+03    0.20642E-01   -0.10693E+00 10986   0.408E-01    0.734E-01
DAV:  99    -0.717972022748E+03   -0.20621E-01   -0.10955E+00 10994   0.409E-01    0.440E+00
DAV: 100    -0.717951233241E+03    0.20790E-01   -0.10643E+00 10986   0.408E-01    0.723E-01
DAV: 101    -0.717972052286E+03   -0.20819E-01   -0.10932E+00 11010   0.409E-01    0.441E+00
DAV: 102    -0.717951120717E+03    0.20932E-01   -0.10610E+00 10994   0.408E-01    0.711E-01
DAV: 103    -0.717972039076E+03   -0.20918E-01   -0.10899E+00 11026   0.408E-01    0.442E+00
DAV: 104    -0.717951040824E+03    0.20998E-01   -0.10592E+00 10986   0.408E-01    0.702E-01
DAV: 105    -0.717972020775E+03   -0.20980E-01   -0.10867E+00 11010   0.407E-01    0.443E+00
DAV: 106    -0.717951022800E+03    0.20998E-01   -0.10599E+00 10986   0.407E-01    0.696E-01
DAV: 107    -0.717971908405E+03   -0.20886E-01   -0.10832E+00 11010   0.407E-01    0.443E+00
DAV: 108    -0.717950879587E+03    0.21029E-01   -0.10568E+00 10986   0.406E-01    0.690E-01
DAV: 109    -0.717971796027E+03   -0.20916E-01   -0.10795E+00 10994   0.406E-01    0.444E+00
DAV: 110    -0.717950753554E+03    0.21042E-01   -0.10540E+00 10954   0.405E-01    0.684E-01
DAV: 111    -0.717971768051E+03   -0.21014E-01   -0.10770E+00 10978   0.406E-01    0.445E+00
DAV: 112    -0.717950792822E+03    0.20975E-01   -0.10551E+00 10970   0.406E-01    0.680E-01
DAV: 113    -0.717971841154E+03   -0.21048E-01   -0.10765E+00 10986   0.407E-01    0.445E+00
DAV: 114    -0.717950816651E+03    0.21025E-01   -0.10552E+00 10954   0.406E-01    0.676E-01
DAV: 115    -0.717971914854E+03   -0.21098E-01   -0.10759E+00 10986   0.406E-01    0.446E+00
DAV: 116    -0.717950814404E+03    0.21100E-01   -0.10542E+00 10954   0.406E-01    0.670E-01
DAV: 117    -0.717972035420E+03   -0.21221E-01   -0.10756E+00 10970   0.405E-01    0.447E+00
DAV: 118    -0.717950861888E+03    0.21174E-01   -0.10549E+00 10962   0.405E-01    0.665E-01
DAV: 119    -0.717972112832E+03   -0.21251E-01   -0.10741E+00 10970   0.405E-01    0.449E+00
DAV: 120    -0.717950887823E+03    0.21225E-01   -0.10551E+00 10938   0.405E-01    0.659E-01
DAV: 121    -0.717972199251E+03   -0.21311E-01   -0.10731E+00 10978   0.405E-01    0.450E+00
DAV: 122    -0.717950817472E+03    0.21382E-01   -0.10526E+00 10950   0.405E-01    0.652E-01
DAV: 123    -0.717972238185E+03   -0.21421E-01   -0.10709E+00 10978   0.405E-01    0.451E+00
DAV: 124    -0.717950758528E+03    0.21480E-01   -0.10500E+00 10948   0.404E-01    0.646E-01
DAV: 125    -0.717972342075E+03   -0.21584E-01   -0.10699E+00 10958   0.404E-01    0.452E+00
DAV: 126    -0.717950734111E+03    0.21608E-01   -0.10498E+00 10934   0.406E-01    0.635E-01
DAV: 127    -0.717972134345E+03   -0.21400E-01   -0.10620E+00 10974   0.404E-01    0.453E+00
DAV: 128    -0.717950668191E+03    0.21466E-01   -0.10481E+00 10942   0.403E-01    0.630E-01
DAV: 129    -0.717972314454E+03   -0.21646E-01   -0.10625E+00 10934   0.403E-01    0.454E+00
DAV: 130    -0.717950622363E+03    0.21692E-01   -0.10444E+00 10910   0.402E-01    0.624E-01
DAV: 131    -0.717972680063E+03   -0.22058E-01   -0.10648E+00 10910   0.403E-01    0.456E+00
DAV: 132    -0.717950882767E+03    0.21797E-01   -0.10509E+00 10870   0.403E-01    0.621E-01
DAV: 133    -0.717972900630E+03   -0.22018E-01   -0.10672E+00 10918   0.404E-01    0.457E+00
DAV: 134    -0.717950731728E+03    0.22169E-01   -0.10430E+00 10878   0.404E-01    0.613E-01
DAV: 135    -0.717972932554E+03   -0.22201E-01   -0.10666E+00 10910   0.405E-01    0.457E+00
DAV: 136    -0.717950328053E+03    0.22605E-01   -0.10305E+00 10950   0.408E-01    0.600E-01
DAV: 137    -0.717973116608E+03   -0.22789E-01   -0.10640E+00 10894   0.401E-01    0.459E+00
DAV: 138    -0.717950526610E+03    0.22590E-01   -0.10360E+00 10862   0.403E-01    0.594E-01
DAV: 139    -0.717973690868E+03   -0.23164E-01   -0.10677E+00 10870   0.403E-01    0.463E+00
DAV: 140    -0.717951059690E+03    0.22631E-01   -0.10498E+00 10862   0.404E-01    0.591E-01
DAV: 141    -0.717974143394E+03   -0.23084E-01   -0.10727E+00 11086   0.414E-01    0.465E+00
DAV: 142    -0.717951261268E+03    0.22882E-01   -0.10573E+00 10942   0.407E-01    0.573E-01
DAV: 143    -0.717974534083E+03   -0.23273E-01   -0.10764E+00 10862   0.406E-01    0.467E+00
DAV: 144    -0.717951524094E+03    0.23010E-01   -0.10647E+00 10838   0.407E-01    0.563E-01
DAV: 145    -0.717975112829E+03   -0.23589E-01   -0.10849E+00 10894   0.408E-01    0.468E+00
DAV: 146    -0.717951646421E+03    0.23466E-01   -0.10677E+00 10910   0.413E-01    0.553E-01
DAV: 147    -0.717975446137E+03   -0.23800E-01   -0.10908E+00 10966   0.410E-01    0.468E+00
DAV: 148    -0.717951570488E+03    0.23876E-01   -0.10662E+00 10806   0.407E-01    0.550E-01
DAV: 149    -0.717975597159E+03   -0.24027E-01   -0.10918E+00 10838   0.409E-01    0.469E+00
DAV: 150    -0.717951720879E+03    0.23876E-01   -0.10717E+00 10806   0.408E-01    0.551E-01
DAV: 151    -0.717975762545E+03   -0.24042E-01   -0.10941E+00 10878   0.411E-01    0.470E+00
DAV: 152    -0.717951827270E+03    0.23935E-01   -0.10755E+00 10830   0.410E-01    0.552E-01
DAV: 153    -0.717975831312E+03   -0.24004E-01   -0.10955E+00 10886   0.412E-01    0.470E+00
DAV: 154    -0.717951805773E+03    0.24026E-01   -0.10752E+00 10838   0.410E-01    0.551E-01
DAV: 155    -0.717975806430E+03   -0.24001E-01   -0.10952E+00 10862   0.411E-01    0.470E+00
DAV: 156    -0.717951721036E+03    0.24085E-01   -0.10730E+00 10822   0.411E-01    0.549E-01
DAV: 157    -0.717975856236E+03   -0.24135E-01   -0.10959E+00 10862   0.410E-01    0.470E+00
DAV: 158    -0.717951747166E+03    0.24109E-01   -0.10738E+00 10838   0.409E-01    0.548E-01
DAV: 159    -0.717975945124E+03   -0.24198E-01   -0.10971E+00 10870   0.410E-01    0.470E+00
DAV: 160    -0.717951804448E+03    0.24141E-01   -0.10755E+00 10798   0.409E-01    0.548E-01
DAV: 161    -0.717976017105E+03   -0.24213E-01   -0.10981E+00 10854   0.412E-01    0.471E+00
DAV: 162    -0.717952000799E+03    0.24016E-01   -0.10815E+00 10814   0.410E-01    0.552E-01
DAV: 163    -0.717976460146E+03   -0.24459E-01   -0.11065E+00 10846   0.412E-01    0.472E+00
DAV: 164    -0.717952306344E+03    0.24154E-01   -0.10885E+00 10822   0.413E-01    0.557E-01
DAV: 165    -0.717976843464E+03   -0.24537E-01   -0.11134E+00 10846   0.415E-01    0.472E+00
DAV: 166    -0.717952553232E+03    0.24290E-01   -0.10940E+00 10822   0.418E-01    0.562E-01
DAV: 167    -0.717977485083E+03   -0.24932E-01   -0.11246E+00 10846   0.416E-01    0.474E+00
DAV: 168    -0.717953109857E+03    0.24375E-01   -0.11071E+00 10814   0.415E-01    0.570E-01
DAV: 169    -0.717978035412E+03   -0.24926E-01   -0.11339E+00 10870   0.418E-01    0.475E+00
DAV: 170    -0.717953496168E+03    0.24539E-01   -0.11158E+00 10808   0.417E-01    0.575E-01
DAV: 171    -0.717978306317E+03   -0.24810E-01   -0.11386E+00 10850   0.420E-01    0.476E+00
DAV: 172    -0.717953810063E+03    0.24496E-01   -0.11227E+00 10794   0.418E-01    0.583E-01
DAV: 173    -0.717978857743E+03   -0.25048E-01   -0.11479E+00 10836   0.420E-01    0.477E+00
DAV: 174    -0.717954183955E+03    0.24674E-01   -0.11308E+00 10768   0.419E-01    0.589E-01
DAV: 175    -0.717979048885E+03   -0.24865E-01   -0.11513E+00 10814   0.420E-01    0.477E+00
DAV: 176    -0.717954275258E+03    0.24774E-01   -0.11329E+00 10768   0.420E-01    0.595E-01
DAV: 177    -0.717979367918E+03   -0.25093E-01   -0.11556E+00 10784   0.420E-01    0.478E+00
DAV: 178    -0.717954628586E+03    0.24739E-01   -0.11410E+00 10744   0.420E-01    0.599E-01
DAV: 179    -0.717979473705E+03   -0.24845E-01   -0.11577E+00 10800   0.422E-01    0.478E+00
DAV: 180    -0.717954589331E+03    0.24884E-01   -0.11381E+00 10768   0.422E-01    0.599E-01
DAV: 181    -0.717979666883E+03   -0.25078E-01   -0.11589E+00 10824   0.426E-01    0.480E+00
DAV: 182    -0.717955228105E+03    0.24439E-01   -0.11563E+00 10784   0.424E-01    0.609E-01
DAV: 183    -0.717980031200E+03   -0.24803E-01   -0.11673E+00 10840   0.425E-01    0.480E+00
DAV: 184    -0.717955162377E+03    0.24869E-01   -0.11518E+00 10768   0.424E-01    0.610E-01
DAV: 185    -0.717980067415E+03   -0.24905E-01   -0.11697E+00 10816   0.425E-01    0.479E+00
DAV: 186    -0.717954893279E+03    0.25174E-01   -0.11402E+00 10776   0.425E-01    0.605E-01
DAV: 187    -0.717980645625E+03   -0.25752E-01   -0.11798E+00 10816   0.425E-01    0.479E+00
DAV: 188    -0.717955079296E+03    0.25566E-01   -0.11425E+00 10768   0.425E-01    0.603E-01
DAV: 189    -0.717980896621E+03   -0.25817E-01   -0.11834E+00 10808   0.425E-01    0.480E+00
DAV: 190    -0.717955377914E+03    0.25519E-01   -0.11531E+00 10752   0.425E-01    0.604E-01
DAV: 191    -0.717980977266E+03   -0.25599E-01   -0.11837E+00 10824   0.427E-01    0.481E+00
DAV: 192    -0.717955712607E+03    0.25265E-01   -0.11658E+00 10752   0.426E-01    0.608E-01
DAV: 193    -0.717980963742E+03   -0.25251E-01   -0.11831E+00 10824   0.427E-01    0.482E+00
DAV: 194    -0.717955841090E+03    0.25123E-01   -0.11707E+00 10744   0.425E-01    0.610E-01
DAV: 195    -0.717980950130E+03   -0.25109E-01   -0.11843E+00 10816   0.427E-01    0.481E+00
DAV: 196    -0.717955684962E+03    0.25265E-01   -0.11652E+00 10752   0.425E-01    0.609E-01
DAV: 197    -0.717980938607E+03   -0.25254E-01   -0.11851E+00 10800   0.426E-01    0.481E+00
DAV: 198    -0.717955563042E+03    0.25376E-01   -0.11606E+00 10752   0.426E-01    0.608E-01
DAV: 199    -0.717980931062E+03   -0.25368E-01   -0.11853E+00 10792   0.426E-01    0.481E+00
DAV: 200    -0.717955507431E+03    0.25424E-01   -0.11587E+00 10736   0.426E-01    0.607E-01
DAV: 201    -0.717980936553E+03   -0.25429E-01   -0.11852E+00 10800   0.426E-01    0.481E+00
DAV: 202    -0.717955506877E+03    0.25430E-01   -0.11589E+00 10744   0.426E-01    0.607E-01
DAV: 203    -0.717980959969E+03   -0.25453E-01   -0.11854E+00 10808   0.426E-01    0.481E+00
DAV: 204    -0.717955531445E+03    0.25429E-01   -0.11599E+00 10730   0.426E-01    0.608E-01
DAV: 205    -0.717980975730E+03   -0.25444E-01   -0.11855E+00 10780   0.426E-01    0.481E+00
DAV: 206    -0.717955553424E+03    0.25422E-01   -0.11609E+00 10732   0.426E-01    0.608E-01
DAV: 207    -0.717980995342E+03   -0.25442E-01   -0.11857E+00 10780   0.427E-01    0.481E+00
DAV: 208    -0.717955568776E+03    0.25427E-01   -0.11616E+00 10732   0.427E-01    0.608E-01
DAV: 209    -0.717981005825E+03   -0.25437E-01   -0.11857E+00 10780   0.427E-01    0.481E+00
DAV: 210    -0.717955578423E+03    0.25427E-01   -0.11620E+00 10732   0.427E-01    0.608E-01
DAV: 211    -0.717981010859E+03   -0.25432E-01   -0.11857E+00 10796   0.428E-01    0.481E+00
DAV: 212    -0.717955575451E+03    0.25435E-01   -0.11622E+00 10732   0.427E-01    0.608E-01
DAV: 213    -0.717981031356E+03   -0.25456E-01   -0.11860E+00 10796   0.428E-01    0.481E+00
DAV: 214    -0.717955576297E+03    0.25455E-01   -0.11623E+00 10732   0.427E-01    0.607E-01
DAV: 215    -0.717981040114E+03   -0.25464E-01   -0.11860E+00 10788   0.428E-01    0.481E+00
DAV: 216    -0.717955573779E+03    0.25466E-01   -0.11623E+00 10740   0.427E-01    0.607E-01
DAV: 217    -0.717981043153E+03   -0.25469E-01   -0.11860E+00 10788   0.428E-01    0.481E+00
DAV: 218    -0.717955563114E+03    0.25480E-01   -0.11620E+00 10740   0.427E-01    0.607E-01
DAV: 219    -0.717981042288E+03   -0.25479E-01   -0.11860E+00 10788   0.427E-01    0.481E+00
DAV: 220    -0.717955553761E+03    0.25489E-01   -0.11618E+00 10732   0.426E-01    0.607E-01
DAV: 221    -0.717981040480E+03   -0.25487E-01   -0.11859E+00 10796   0.427E-01    0.481E+00
DAV: 222    -0.717955541592E+03    0.25499E-01   -0.11616E+00 10732   0.426E-01    0.606E-01
DAV: 223    -0.717981032833E+03   -0.25491E-01   -0.11857E+00 10796   0.427E-01    0.481E+00
DAV: 224    -0.717955543019E+03    0.25490E-01   -0.11617E+00 10732   0.426E-01    0.606E-01
DAV: 225    -0.717981034344E+03   -0.25491E-01   -0.11856E+00 10788   0.427E-01    0.481E+00
DAV: 226    -0.717955544251E+03    0.25490E-01   -0.11626E+00 10724   0.425E-01    0.604E-01
DAV: 227    -0.717980857689E+03   -0.25313E-01   -0.11816E+00 10780   0.426E-01    0.482E+00
DAV: 228    -0.717955610497E+03    0.25247E-01   -0.11656E+00 10732   0.426E-01    0.604E-01
DAV: 229    -0.717980824260E+03   -0.25214E-01   -0.11810E+00 10796   0.427E-01    0.482E+00
DAV: 230    -0.717955626772E+03    0.25197E-01   -0.11661E+00 10732   0.427E-01    0.604E-01
DAV: 231    -0.717980971949E+03   -0.25345E-01   -0.11828E+00 10788   0.428E-01    0.482E+00
DAV: 232    -0.717955830980E+03    0.25141E-01   -0.11732E+00 10732   0.427E-01    0.608E-01
DAV: 233    -0.717981003619E+03   -0.25173E-01   -0.11845E+00 10796   0.428E-01    0.482E+00
DAV: 234    -0.717955674452E+03    0.25329E-01   -0.11684E+00 10740   0.427E-01    0.608E-01
DAV: 235    -0.717981030561E+03   -0.25356E-01   -0.11860E+00 10782   0.428E-01    0.481E+00
DAV: 236    -0.717955469672E+03    0.25561E-01   -0.11617E+00 10720   0.427E-01    0.607E-01
DAV: 237    -0.717981022259E+03   -0.25553E-01   -0.11871E+00 10776   0.427E-01    0.480E+00
DAV: 238    -0.717955189088E+03    0.25833E-01   -0.11522E+00 10714   0.426E-01    0.606E-01
DAV: 239    -0.717981060232E+03   -0.25871E-01   -0.11883E+00 10770   0.426E-01    0.480E+00
DAV: 240    -0.717955113986E+03    0.25946E-01   -0.11503E+00 10706   0.426E-01    0.603E-01
DAV: 241    -0.717980983531E+03   -0.25870E-01   -0.11856E+00 10762   0.426E-01    0.481E+00
DAV: 242    -0.717955315128E+03    0.25668E-01   -0.11583E+00 10706   0.427E-01    0.604E-01
DAV: 243    -0.717980945494E+03   -0.25630E-01   -0.11835E+00 10770   0.428E-01    0.482E+00
DAV: 244    -0.717955580707E+03    0.25365E-01   -0.11682E+00 10714   0.427E-01    0.606E-01
DAV: 245    -0.717980829300E+03   -0.25249E-01   -0.11816E+00 10762   0.427E-01    0.481E+00
DAV: 246    -0.717955551500E+03    0.25278E-01   -0.11673E+00 10706   0.425E-01    0.606E-01
DAV: 247    -0.717980806351E+03   -0.25255E-01   -0.11827E+00 10762   0.427E-01    0.481E+00
DAV: 248    -0.717955359682E+03    0.25447E-01   -0.11604E+00 10706   0.425E-01    0.605E-01
DAV: 249    -0.717980813010E+03   -0.25453E-01   -0.11834E+00 10770   0.426E-01    0.480E+00
DAV: 250    -0.717955257165E+03    0.25556E-01   -0.11566E+00 10706   0.426E-01    0.604E-01
DAV: 251    -0.717980833641E+03   -0.25576E-01   -0.11837E+00 10754   0.426E-01    0.480E+00
DAV: 252    -0.717955250954E+03    0.25583E-01   -0.11562E+00 10698   0.426E-01    0.604E-01
DAV: 253    -0.717980862665E+03   -0.25612E-01   -0.11841E+00 10762   0.426E-01    0.480E+00
DAV: 254    -0.717955272719E+03    0.25590E-01   -0.11568E+00 10706   0.426E-01    0.605E-01
DAV: 255    -0.717980876398E+03   -0.25604E-01   -0.11841E+00 10754   0.427E-01    0.480E+00
DAV: 256    -0.717955306446E+03    0.25570E-01   -0.11579E+00 10698   0.427E-01    0.605E-01
DAV: 257    -0.717980902164E+03   -0.25596E-01   -0.11844E+00 10762   0.427E-01    0.481E+00
DAV: 258    -0.717955337011E+03    0.25565E-01   -0.11589E+00 10714   0.426E-01    0.606E-01
DAV: 259    -0.717980914462E+03   -0.25577E-01   -0.11845E+00 10762   0.427E-01    0.481E+00
DAV: 260    -0.717955359399E+03    0.25555E-01   -0.11598E+00 10706   0.426E-01    0.606E-01
DAV: 261    -0.717980923463E+03   -0.25564E-01   -0.11845E+00 10762   0.427E-01    0.481E+00
DAV: 262    -0.717955382608E+03    0.25541E-01   -0.11604E+00 10698   0.426E-01    0.607E-01
DAV: 263    -0.717980933745E+03   -0.25551E-01   -0.11848E+00 10770   0.427E-01    0.481E+00
DAV: 264    -0.717955377539E+03    0.25556E-01   -0.11603E+00 10714   0.426E-01    0.607E-01
DAV: 265    -0.717980925909E+03   -0.25548E-01   -0.11847E+00 10754   0.427E-01    0.481E+00
DAV: 266    -0.717955371047E+03    0.25555E-01   -0.11600E+00 10698   0.425E-01    0.607E-01
DAV: 267    -0.717980926509E+03   -0.25555E-01   -0.11848E+00 10754   0.426E-01    0.480E+00
DAV: 268    -0.717955348348E+03    0.25578E-01   -0.11594E+00 10706   0.425E-01    0.606E-01
DAV: 269    -0.717980906294E+03   -0.25558E-01   -0.11846E+00 10762   0.426E-01    0.480E+00
DAV: 270    -0.717955328429E+03    0.25578E-01   -0.11589E+00 10698   0.425E-01    0.606E-01
DAV: 271    -0.717980885285E+03   -0.25557E-01   -0.11843E+00 10762   0.427E-01    0.480E+00
DAV: 272    -0.717955288103E+03    0.25597E-01   -0.11580E+00 10706   0.426E-01    0.605E-01
DAV: 273    -0.717980838645E+03   -0.25551E-01   -0.11835E+00 10770   0.427E-01    0.480E+00
DAV: 274    -0.717955264892E+03    0.25574E-01   -0.11578E+00 10714   0.427E-01    0.605E-01
DAV: 275    -0.717980816438E+03   -0.25552E-01   -0.11833E+00 10770   0.428E-01    0.480E+00
DAV: 276    -0.717955244536E+03    0.25572E-01   -0.11575E+00 10706   0.428E-01    0.605E-01
DAV: 277    -0.717980748546E+03   -0.25504E-01   -0.11827E+00 10770   0.427E-01    0.480E+00
DAV: 278    -0.717955083945E+03    0.25665E-01   -0.11528E+00 10714   0.426E-01    0.604E-01
DAV: 279    -0.717980758530E+03   -0.25675E-01   -0.11833E+00 10754   0.426E-01    0.479E+00
DAV: 280    -0.717955020403E+03    0.25738E-01   -0.11510E+00 10698   0.425E-01    0.603E-01
DAV: 281    -0.717980726890E+03   -0.25706E-01   -0.11824E+00 10754   0.426E-01    0.480E+00
DAV: 282    -0.717955087697E+03    0.25639E-01   -0.11533E+00 10690   0.426E-01    0.603E-01
DAV: 283    -0.717980722826E+03   -0.25635E-01   -0.11822E+00 10754   0.426E-01    0.480E+00
DAV: 284    -0.717955150752E+03    0.25572E-01   -0.11554E+00 10698   0.426E-01    0.603E-01
DAV: 285    -0.717980713275E+03   -0.25563E-01   -0.11819E+00 10746   0.426E-01    0.480E+00
DAV: 286    -0.717955203093E+03    0.25510E-01   -0.11576E+00 10690   0.425E-01    0.603E-01
DAV: 287    -0.717980721052E+03   -0.25518E-01   -0.11808E+00 10746   0.426E-01    0.481E+00
DAV: 288    -0.717955460637E+03    0.25260E-01   -0.11673E+00 10706   0.425E-01    0.604E-01
DAV: 289    -0.717980653807E+03   -0.25193E-01   -0.11776E+00 10730   0.426E-01    0.482E+00
DAV: 290    -0.717955782110E+03    0.24872E-01   -0.11773E+00 10674   0.425E-01    0.608E-01
DAV: 291    -0.717980640057E+03   -0.24858E-01   -0.11796E+00 10722   0.429E-01    0.481E+00
DAV: 292    -0.717955456481E+03    0.25184E-01   -0.11655E+00 10690   0.426E-01    0.606E-01
DAV: 293    -0.717980698685E+03   -0.25242E-01   -0.11819E+00 10738   0.427E-01    0.480E+00
DAV: 294    -0.717955231924E+03    0.25467E-01   -0.11573E+00 10698   0.426E-01    0.605E-01
DAV: 295    -0.717980730258E+03   -0.25498E-01   -0.11825E+00 10730   0.428E-01    0.480E+00
DAV: 296    -0.717955168307E+03    0.25562E-01   -0.11549E+00 10698   0.428E-01    0.604E-01
DAV: 297    -0.717980742325E+03   -0.25574E-01   -0.11828E+00 10730   0.429E-01    0.480E+00
DAV: 298    -0.717955144941E+03    0.25597E-01   -0.11542E+00 10714   0.428E-01    0.604E-01
DAV: 299    -0.717980738671E+03   -0.25594E-01   -0.11826E+00 10738   0.429E-01    0.480E+00
DAV: 300    -0.717955152289E+03    0.25586E-01   -0.11546E+00 10706   0.428E-01    0.604E-01
DAV: 301    -0.717980735207E+03   -0.25583E-01   -0.11824E+00 10730   0.428E-01    0.480E+00
DAV: 302    -0.717955169440E+03    0.25566E-01   -0.11553E+00 10706   0.427E-01    0.604E-01
DAV: 303    -0.717980723529E+03   -0.25554E-01   -0.11822E+00 10738   0.427E-01    0.480E+00
DAV: 304    -0.717955172471E+03    0.25551E-01   -0.11555E+00 10714   0.427E-01    0.604E-01
DAV: 305    -0.717980718019E+03   -0.25546E-01   -0.11821E+00 10730   0.427E-01    0.480E+00
DAV: 306    -0.717955173953E+03    0.25544E-01   -0.11557E+00 10706   0.425E-01    0.604E-01
DAV: 307    -0.717980705488E+03   -0.25532E-01   -0.11818E+00 10730   0.426E-01    0.480E+00
DAV: 308    -0.717955178042E+03    0.25527E-01   -0.11560E+00 10714   0.425E-01    0.604E-01
DAV: 309    -0.717980705575E+03   -0.25528E-01   -0.11818E+00 10738   0.426E-01    0.480E+00
DAV: 310    -0.717955181817E+03    0.25524E-01   -0.11562E+00 10706   0.426E-01    0.605E-01
DAV: 311    -0.717980703381E+03   -0.25522E-01   -0.11817E+00 10730   0.426E-01    0.480E+00
DAV: 312    -0.717955183588E+03    0.25520E-01   -0.11564E+00 10706   0.426E-01    0.605E-01
DAV: 313    -0.717980691525E+03   -0.25508E-01   -0.11814E+00 10738   0.427E-01    0.480E+00
DAV: 314    -0.717955186448E+03    0.25505E-01   -0.11565E+00 10714   0.427E-01    0.605E-01
DAV: 315    -0.717980688707E+03   -0.25502E-01   -0.11814E+00 10730   0.428E-01    0.480E+00
DAV: 316    -0.717955184318E+03    0.25504E-01   -0.11565E+00 10706   0.428E-01    0.605E-01
DAV: 317    -0.717980682933E+03   -0.25499E-01   -0.11813E+00 10730   0.429E-01    0.480E+00
DAV: 318    -0.717955184236E+03    0.25499E-01   -0.11565E+00 10714   0.428E-01    0.605E-01
DAV: 319    -0.717980678856E+03   -0.25495E-01   -0.11812E+00 10738   0.428E-01    0.480E+00
DAV: 320    -0.717955183210E+03    0.25496E-01   -0.11564E+00 10706   0.427E-01    0.605E-01
DAV: 321    -0.717980678579E+03   -0.25495E-01   -0.11812E+00 10730   0.428E-01    0.480E+00
DAV: 322    -0.717955190142E+03    0.25488E-01   -0.11566E+00 10706   0.426E-01    0.605E-01
DAV: 323    -0.717980675305E+03   -0.25485E-01   -0.11812E+00 10738   0.427E-01    0.480E+00
DAV: 324    -0.717955188512E+03    0.25487E-01   -0.11566E+00 10714   0.426E-01    0.605E-01
DAV: 325    -0.717980671640E+03   -0.25483E-01   -0.11811E+00 10730   0.427E-01    0.480E+00
DAV: 326    -0.717955183812E+03    0.25488E-01   -0.11564E+00 10706   0.426E-01    0.605E-01
DAV: 327    -0.717980676930E+03   -0.25493E-01   -0.11812E+00 10730   0.426E-01    0.480E+00
DAV: 328    -0.717955201025E+03    0.25476E-01   -0.11569E+00 10706   0.425E-01    0.605E-01
DAV: 329    -0.717980671191E+03   -0.25470E-01   -0.11811E+00 10738   0.426E-01    0.480E+00
DAV: 330    -0.717955213551E+03    0.25458E-01   -0.11573E+00 10698   0.425E-01    0.605E-01
DAV: 331    -0.717980657274E+03   -0.25444E-01   -0.11809E+00 10730   0.426E-01    0.480E+00
DAV: 332    -0.717955211708E+03    0.25446E-01   -0.11574E+00 10690   0.425E-01    0.604E-01
DAV: 333    -0.717980634514E+03   -0.25423E-01   -0.11800E+00 10738   0.427E-01    0.480E+00
DAV: 334    -0.717955304541E+03    0.25330E-01   -0.11606E+00 10714   0.428E-01    0.605E-01
DAV: 335    -0.717980607030E+03   -0.25302E-01   -0.11789E+00 10730   0.430E-01    0.481E+00
DAV: 336    -0.717955426996E+03    0.25180E-01   -0.11649E+00 10714   0.428E-01    0.605E-01
DAV: 337    -0.717980611984E+03   -0.25185E-01   -0.11775E+00 10738   0.428E-01    0.482E+00
DAV: 338    -0.717955698413E+03    0.24914E-01   -0.11745E+00 10722   0.425E-01    0.607E-01
DAV: 339    -0.717980560923E+03   -0.24863E-01   -0.11759E+00 10722   0.426E-01    0.482E+00
DAV: 340    -0.717955750897E+03    0.24810E-01   -0.11761E+00 10650   0.424E-01    0.609E-01
DAV: 341    -0.717980594436E+03   -0.24844E-01   -0.11790E+00 10674   0.427E-01    0.481E+00
DAV: 342    -0.717955397880E+03    0.25197E-01   -0.11641E+00 10666   0.425E-01    0.606E-01
DAV: 343    -0.717980631393E+03   -0.25234E-01   -0.11806E+00 10706   0.427E-01    0.480E+00
DAV: 344    -0.717955229203E+03    0.25402E-01   -0.11585E+00 10666   0.426E-01    0.605E-01
DAV: 345    -0.717980637736E+03   -0.25409E-01   -0.11807E+00 10698   0.427E-01    0.480E+00
DAV: 346    -0.717955211653E+03    0.25426E-01   -0.11581E+00 10658   0.425E-01    0.604E-01
DAV: 347    -0.717980634304E+03   -0.25423E-01   -0.11807E+00 10698   0.427E-01    0.480E+00
DAV: 348    -0.717955207864E+03    0.25426E-01   -0.11583E+00 10666   0.427E-01    0.604E-01
DAV: 349    -0.717980616813E+03   -0.25409E-01   -0.11804E+00 10690   0.427E-01    0.480E+00
DAV: 350    -0.717955198447E+03    0.25418E-01   -0.11582E+00 10658   0.426E-01    0.604E-01
DAV: 351    -0.717980609071E+03   -0.25411E-01   -0.11805E+00 10690   0.427E-01    0.480E+00
DAV: 352    -0.717955175965E+03    0.25433E-01   -0.11574E+00 10666   0.427E-01    0.604E-01
DAV: 353    -0.717980617946E+03   -0.25442E-01   -0.11808E+00 10698   0.427E-01    0.480E+00
DAV: 354    -0.717955150350E+03    0.25468E-01   -0.11566E+00 10658   0.426E-01    0.604E-01
DAV: 355    -0.717980623792E+03   -0.25473E-01   -0.11809E+00 10690   0.427E-01    0.480E+00
DAV: 356    -0.717955140747E+03    0.25483E-01   -0.11562E+00 10658   0.427E-01    0.604E-01
DAV: 357    -0.717980637585E+03   -0.25497E-01   -0.11812E+00 10698   0.427E-01    0.480E+00
DAV: 358    -0.717955131952E+03    0.25506E-01   -0.11558E+00 10666   0.427E-01    0.604E-01
DAV: 359    -0.717980642597E+03   -0.25511E-01   -0.11813E+00 10690   0.427E-01    0.480E+00
DAV: 360    -0.717955128474E+03    0.25514E-01   -0.11556E+00 10658   0.426E-01    0.604E-01
DAV: 361    -0.717980647082E+03   -0.25519E-01   -0.11813E+00 10690   0.427E-01    0.480E+00
DAV: 362    -0.717955128311E+03    0.25519E-01   -0.11555E+00 10666   0.426E-01    0.605E-01
DAV: 363    -0.717980659414E+03   -0.25531E-01   -0.11816E+00 10698   0.427E-01    0.480E+00
DAV: 364    -0.717955119888E+03    0.25540E-01   -0.11551E+00 10658   0.426E-01    0.605E-01
DAV: 365    -0.717980660244E+03   -0.25540E-01   -0.11816E+00 10690   0.427E-01    0.480E+00
DAV: 366    -0.717955111501E+03    0.25549E-01   -0.11547E+00 10658   0.426E-01    0.605E-01
DAV: 367    -0.717980673412E+03   -0.25562E-01   -0.11820E+00 10698   0.426E-01    0.479E+00
DAV: 368    -0.717955093125E+03    0.25580E-01   -0.11539E+00 10666   0.426E-01    0.605E-01
DAV: 369    -0.717980674430E+03   -0.25581E-01   -0.11820E+00 10690   0.426E-01    0.479E+00
DAV: 370    -0.717955087912E+03    0.25587E-01   -0.11537E+00 10658   0.425E-01    0.605E-01
DAV: 371    -0.717980668085E+03   -0.25580E-01   -0.11818E+00 10690   0.426E-01    0.479E+00
DAV: 372    -0.717955082797E+03    0.25585E-01   -0.11534E+00 10666   0.425E-01    0.605E-01
DAV: 373    -0.717980676169E+03   -0.25593E-01   -0.11821E+00 10698   0.426E-01    0.479E+00
DAV: 374    -0.717955069979E+03    0.25606E-01   -0.11529E+00 10658   0.425E-01    0.605E-01
DAV: 375    -0.717980668311E+03   -0.25598E-01   -0.11819E+00 10690   0.426E-01    0.479E+00
DAV: 376    -0.717955069949E+03    0.25598E-01   -0.11528E+00 10658   0.426E-01    0.605E-01
DAV: 377    -0.717980661665E+03   -0.25592E-01   -0.11819E+00 10698   0.428E-01    0.479E+00
DAV: 378    -0.717955041934E+03    0.25620E-01   -0.11518E+00 10674   0.428E-01    0.604E-01
DAV: 379    -0.717980647832E+03   -0.25606E-01   -0.11816E+00 10690   0.428E-01    0.479E+00
DAV: 380    -0.717955041326E+03    0.25607E-01   -0.11518E+00 10666   0.427E-01    0.604E-01
DAV: 381    -0.717980615749E+03   -0.25574E-01   -0.11811E+00 10690   0.428E-01    0.479E+00
DAV: 382    -0.717955010656E+03    0.25605E-01   -0.11514E+00 10674   0.427E-01    0.603E-01
DAV: 383    -0.717980579841E+03   -0.25569E-01   -0.11796E+00 10698   0.427E-01    0.480E+00
DAV: 384    -0.717955155551E+03    0.25424E-01   -0.11569E+00 10658   0.426E-01    0.604E-01
DAV: 385    -0.717980567333E+03   -0.25412E-01   -0.11781E+00 10698   0.427E-01    0.481E+00
DAV: 386    -0.717955438899E+03    0.25128E-01   -0.11682E+00 10650   0.424E-01    0.605E-01
DAV: 387    -0.717980348567E+03   -0.24910E-01   -0.11715E+00 10682   0.426E-01    0.482E+00
DAV: 388    -0.717955759443E+03    0.24589E-01   -0.11767E+00 10666   0.427E-01    0.611E-01
DAV: 389    -0.717980569432E+03   -0.24810E-01   -0.11801E+00 10676   0.430E-01    0.480E+00
DAV: 390    -0.717955188673E+03    0.25381E-01   -0.11567E+00 10638   0.425E-01    0.606E-01
DAV: 391    -0.717980573630E+03   -0.25385E-01   -0.11807E+00 10670   0.426E-01    0.479E+00
DAV: 392    -0.717955016687E+03    0.25557E-01   -0.11509E+00 10638   0.426E-01    0.604E-01
DAV: 393    -0.717980599446E+03   -0.25583E-01   -0.11806E+00 10686   0.427E-01    0.479E+00
DAV: 394    -0.717955046626E+03    0.25553E-01   -0.11521E+00 10638   0.426E-01    0.604E-01
DAV: 395    -0.717980605725E+03   -0.25559E-01   -0.11804E+00 10670   0.426E-01    0.479E+00
DAV: 396    -0.717955095108E+03    0.25511E-01   -0.11540E+00 10638   0.425E-01    0.604E-01
DAV: 397    -0.717980597225E+03   -0.25502E-01   -0.11802E+00 10670   0.426E-01    0.480E+00
DAV: 398    -0.717955112645E+03    0.25485E-01   -0.11548E+00 10654   0.425E-01    0.605E-01
DAV: 399    -0.717980590651E+03   -0.25478E-01   -0.11800E+00 10670   0.426E-01    0.480E+00
DAV: 400    -0.717955124371E+03    0.25466E-01   -0.11553E+00 10638   0.425E-01    0.605E-01
DAV: 401    -0.717980582772E+03   -0.25458E-01   -0.11799E+00 10670   0.426E-01    0.480E+00
DAV: 402    -0.717955130433E+03    0.25452E-01   -0.11557E+00 10638   0.426E-01    0.604E-01
DAV: 403    -0.717980571221E+03   -0.25441E-01   -0.11796E+00 10686   0.427E-01    0.480E+00
DAV: 404    -0.717955146239E+03    0.25425E-01   -0.11565E+00 10638   0.426E-01    0.604E-01
DAV: 405    -0.717980561589E+03   -0.25415E-01   -0.11794E+00 10670   0.427E-01    0.480E+00
DAV: 406    -0.717955160718E+03    0.25401E-01   -0.11572E+00 10638   0.426E-01    0.604E-01
DAV: 407    -0.717980550282E+03   -0.25390E-01   -0.11791E+00 10670   0.426E-01    0.480E+00
DAV: 408    -0.717955182290E+03    0.25368E-01   -0.11581E+00 10654   0.425E-01    0.604E-01
DAV: 409    -0.717980535073E+03   -0.25353E-01   -0.11790E+00 10670   0.426E-01    0.480E+00
DAV: 410    -0.717955173327E+03    0.25362E-01   -0.11580E+00 10638   0.424E-01    0.604E-01
DAV: 411    -0.717980523648E+03   -0.25350E-01   -0.11791E+00 10662   0.425E-01    0.480E+00
DAV: 412    -0.717955139959E+03    0.25384E-01   -0.11570E+00 10630   0.425E-01    0.604E-01
DAV: 413    -0.717980525303E+03   -0.25385E-01   -0.11794E+00 10678   0.428E-01    0.480E+00
DAV: 414    -0.717955111469E+03    0.25414E-01   -0.11561E+00 10630   0.428E-01    0.604E-01
DAV: 415    -0.717980523062E+03   -0.25412E-01   -0.11794E+00 10662   0.428E-01    0.479E+00
DAV: 416    -0.717955098114E+03    0.25425E-01   -0.11557E+00 10630   0.427E-01    0.604E-01
DAV: 417    -0.717980535600E+03   -0.25437E-01   -0.11796E+00 10662   0.428E-01    0.479E+00
DAV: 418    -0.717955090528E+03    0.25445E-01   -0.11554E+00 10646   0.426E-01    0.604E-01
DAV: 419    -0.717980538773E+03   -0.25448E-01   -0.11797E+00 10662   0.427E-01    0.479E+00
DAV: 420    -0.717955092352E+03    0.25446E-01   -0.11554E+00 10630   0.426E-01    0.604E-01
DAV: 421    -0.717980545160E+03   -0.25453E-01   -0.11797E+00 10662   0.426E-01    0.479E+00
DAV: 422    -0.717955100224E+03    0.25445E-01   -0.11555E+00 10630   0.425E-01    0.604E-01
DAV: 423    -0.717980559899E+03   -0.25460E-01   -0.11801E+00 10678   0.426E-01    0.479E+00
DAV: 424    -0.717955097747E+03    0.25462E-01   -0.11553E+00 10630   0.425E-01    0.604E-01
DAV: 425    -0.717980562518E+03   -0.25465E-01   -0.11801E+00 10662   0.426E-01    0.479E+00
DAV: 426    -0.717955095468E+03    0.25467E-01   -0.11551E+00 10630   0.425E-01    0.604E-01
DAV: 427    -0.717980568688E+03   -0.25473E-01   -0.11802E+00 10662   0.425E-01    0.479E+00
DAV: 428    -0.717955091323E+03    0.25477E-01   -0.11549E+00 10646   0.425E-01    0.604E-01
DAV: 429    -0.717980570794E+03   -0.25479E-01   -0.11803E+00 10662   0.426E-01    0.479E+00
DAV: 430    -0.717955089214E+03    0.25482E-01   -0.11548E+00 10630   0.426E-01    0.604E-01
DAV: 431    -0.717980512476E+03   -0.25423E-01   -0.11798E+00 10662   0.427E-01    0.479E+00
DAV: 432    -0.717954916996E+03    0.25595E-01   -0.11477E+00 10630   0.428E-01    0.606E-01
DAV: 433    -0.717980522076E+03   -0.25605E-01   -0.11833E+00 10686   0.431E-01    0.476E+00
DAV: 434    -0.717954241136E+03    0.26281E-01   -0.11266E+00 10638   0.430E-01    0.599E-01
DAV: 435    -0.717980608356E+03   -0.26367E-01   -0.11817E+00 10670   0.424E-01    0.478E+00
DAV: 436    -0.717954811121E+03    0.25797E-01   -0.11463E+00 10638   0.425E-01    0.601E-01
DAV: 437    -0.717980540146E+03   -0.25729E-01   -0.11787E+00 10670   0.426E-01    0.480E+00
DAV: 438    -0.717955130484E+03    0.25410E-01   -0.11573E+00 10654   0.426E-01    0.604E-01
DAV: 439    -0.717980538273E+03   -0.25408E-01   -0.11790E+00 10670   0.427E-01    0.480E+00
DAV: 440    -0.717955162853E+03    0.25375E-01   -0.11582E+00 10638   0.426E-01    0.605E-01
DAV: 441    -0.717980520613E+03   -0.25358E-01   -0.11791E+00 10670   0.427E-01    0.480E+00
DAV: 442    -0.717955125170E+03    0.25395E-01   -0.11569E+00 10638   0.425E-01    0.605E-01
DAV: 443    -0.717980509979E+03   -0.25385E-01   -0.11791E+00 10686   0.426E-01    0.479E+00
DAV: 444    -0.717955096901E+03    0.25413E-01   -0.11556E+00 10630   0.425E-01    0.605E-01
DAV: 445    -0.717980514576E+03   -0.25418E-01   -0.11793E+00 10670   0.426E-01    0.479E+00
DAV: 446    -0.717955073965E+03    0.25441E-01   -0.11545E+00 10630   0.425E-01    0.605E-01
DAV: 447    -0.717980501435E+03   -0.25427E-01   -0.11791E+00 10670   0.426E-01    0.479E+00
DAV: 448    -0.717955072766E+03    0.25429E-01   -0.11539E+00 10646   0.426E-01    0.605E-01
DAV: 449    -0.717980529982E+03   -0.25457E-01   -0.11794E+00 10670   0.427E-01    0.479E+00
DAV: 450    -0.717955084690E+03    0.25445E-01   -0.11540E+00 10630   0.426E-01    0.605E-01
DAV: 451    -0.717980547640E+03   -0.25463E-01   -0.11795E+00 10670   0.426E-01    0.479E+00
DAV: 452    -0.717955109419E+03    0.25438E-01   -0.11549E+00 10630   0.425E-01    0.606E-01
DAV: 453    -0.717980549043E+03   -0.25440E-01   -0.11793E+00 10686   0.426E-01    0.480E+00
DAV: 454    -0.717955129557E+03    0.25419E-01   -0.11556E+00 10630   0.425E-01    0.606E-01
DAV: 455    -0.717980546882E+03   -0.25417E-01   -0.11793E+00 10670   0.426E-01    0.480E+00
DAV: 456    -0.717955130013E+03    0.25417E-01   -0.11557E+00 10630   0.425E-01    0.605E-01
DAV: 457    -0.717980536345E+03   -0.25406E-01   -0.11792E+00 10670   0.427E-01    0.479E+00
DAV: 458    -0.717955119144E+03    0.25417E-01   -0.11555E+00 10646   0.426E-01    0.605E-01
DAV: 459    -0.717980529873E+03   -0.25411E-01   -0.11791E+00 10670   0.427E-01    0.479E+00
DAV: 460    -0.717955113984E+03    0.25416E-01   -0.11554E+00 10630   0.426E-01    0.605E-01
DAV: 461    -0.717980522784E+03   -0.25409E-01   -0.11791E+00 10670   0.427E-01    0.479E+00
DAV: 462    -0.717955106640E+03    0.25416E-01   -0.11553E+00 10630   0.426E-01    0.605E-01
DAV: 463    -0.717980511929E+03   -0.25405E-01   -0.11789E+00 10686   0.426E-01    0.479E+00
DAV: 464    -0.717955104242E+03    0.25408E-01   -0.11553E+00 10630   0.425E-01    0.605E-01
DAV: 465    -0.717980507163E+03   -0.25403E-01   -0.11789E+00 10670   0.426E-01    0.479E+00
DAV: 466    -0.717955104315E+03    0.25403E-01   -0.11554E+00 10630   0.425E-01    0.604E-01
DAV: 467    -0.717980494697E+03   -0.25390E-01   -0.11786E+00 10670   0.426E-01    0.479E+00
DAV: 468    -0.717955103980E+03    0.25391E-01   -0.11555E+00 10646   0.425E-01    0.604E-01
DAV: 469    -0.717980488436E+03   -0.25384E-01   -0.11786E+00 10670   0.426E-01    0.479E+00
DAV: 470    -0.717955103363E+03    0.25385E-01   -0.11556E+00 10630   0.425E-01    0.604E-01
DAV: 471    -0.717980486034E+03   -0.25383E-01   -0.11786E+00 10670   0.426E-01    0.479E+00
DAV: 472    -0.717955104169E+03    0.25382E-01   -0.11557E+00 10630   0.426E-01    0.604E-01
DAV: 473    -0.717980474546E+03   -0.25370E-01   -0.11784E+00 10686   0.427E-01    0.479E+00
DAV: 474    -0.717955102327E+03    0.25372E-01   -0.11558E+00 10630   0.427E-01    0.604E-01
DAV: 475    -0.717980469898E+03   -0.25368E-01   -0.11783E+00 10670   0.429E-01    0.479E+00
DAV: 476    -0.717955095118E+03    0.25375E-01   -0.11549E+00 10630   0.428E-01    0.605E-01
DAV: 477    -0.717980458477E+03   -0.25363E-01   -0.11799E+00 10670   0.429E-01    0.478E+00
DAV: 478    -0.717954742781E+03    0.25716E-01   -0.11404E+00 10646   0.427E-01    0.608E-01
DAV: 479    -0.717980767600E+03   -0.26025E-01   -0.11884E+00 10662   0.425E-01    0.476E+00
DAV: 480    -0.717954358676E+03    0.26409E-01   -0.11308E+00 10622   0.426E-01    0.598E-01
DAV: 481    -0.717980456443E+03   -0.26098E-01   -0.11776E+00 10662   0.424E-01    0.479E+00
DAV: 482    -0.717954991065E+03    0.25465E-01   -0.11532E+00 10622   0.425E-01    0.603E-01
DAV: 483    -0.717980485107E+03   -0.25494E-01   -0.11776E+00 10678   0.427E-01    0.480E+00
DAV: 484    -0.717955203889E+03    0.25281E-01   -0.11601E+00 10622   0.427E-01    0.605E-01
DAV: 485    -0.717980448316E+03   -0.25244E-01   -0.11778E+00 10662   0.429E-01    0.480E+00
DAV: 486    -0.717955145530E+03    0.25303E-01   -0.11580E+00 10622   0.426E-01    0.604E-01
DAV: 487    -0.717980429180E+03   -0.25284E-01   -0.11779E+00 10662   0.426E-01    0.479E+00
DAV: 488    -0.717955092675E+03    0.25337E-01   -0.11561E+00 10638   0.425E-01    0.604E-01
DAV: 489    -0.717980436072E+03   -0.25343E-01   -0.11781E+00 10662   0.426E-01    0.479E+00
DAV: 490    -0.717955073630E+03    0.25362E-01   -0.11554E+00 10622   0.425E-01    0.604E-01
DAV: 491    -0.717980449655E+03   -0.25376E-01   -0.11783E+00 10662   0.426E-01    0.479E+00
DAV: 492    -0.717955075532E+03    0.25374E-01   -0.11553E+00 10622   0.425E-01    0.604E-01
DAV: 493    -0.717980460691E+03   -0.25385E-01   -0.11785E+00 10678   0.426E-01    0.479E+00
DAV: 494    -0.717955077292E+03    0.25383E-01   -0.11553E+00 10622   0.425E-01    0.604E-01
DAV: 495    -0.717980468082E+03   -0.25391E-01   -0.11786E+00 10662   0.426E-01    0.479E+00
DAV: 496    -0.717955076472E+03    0.25392E-01   -0.11552E+00 10622   0.425E-01    0.604E-01
DAV: 497    -0.717980474581E+03   -0.25398E-01   -0.11787E+00 10662   0.426E-01    0.479E+00
DAV: 498    -0.717955075922E+03    0.25399E-01   -0.11551E+00 10638   0.425E-01    0.604E-01
DAV: 499    -0.717980480195E+03   -0.25404E-01   -0.11788E+00 10662   0.426E-01    0.479E+00
DAV: 500    -0.717955075268E+03    0.25405E-01   -0.11550E+00 10622   0.425E-01
 -----------------------------------------------------------------------------
|                                                                             |
|           W    W    AA    RRRRR   N    N  II  N    N   GGGG   !!!           |
|           W    W   A  A   R    R  NN   N  II  NN   N  G    G  !!!           |
|           W    W  A    A  R    R  N N  N  II  N N  N  G       !!!           |
|           W WW W  AAAAAA  RRRRR   N  N N  II  N  N N  G  GGG   !            |
|           WW  WW  A    A  R   R   N   NN  II  N   NN  G    G                |
|           W    W  A    A  R    R  N    N  II  N    N   GGGG   !!!           |
|                                                                             |
|     The electronic self-consistency was not achieved in the given           |
|     number of steps (NELM). The forces and other quantities evaluated       |
|     might not be reliable so examine the results carefully. If you find     |
|     spurious results, we suggest increasing NELM, if you were close to      |
|     convergence or switching to a different ALGO or adjusting the           |
|     density mixing parameters otherwise.                                    |
|                                                                             |
 -----------------------------------------------------------------------------

   1 F= -.71795508E+03 E0= -.71795136E+03  d E =-.744052E-02
 writing wavefunctions
Warning: ieee_invalid is signaling
Warning: ieee_divide_by_zero is signaling
Warning: ieee_underflow is signaling
Warning: ieee_inexact is signaling
FORTRAN STOP
Warning: ieee_invalid is signaling
Warning: ieee_divide_by_zero is signaling
Warning: ieee_underflow is signaling
Warning: ieee_inexact is signaling
Warning: ieee_invalid is signaling
Warning: ieee_divide_by_zero is signaling
Warning: ieee_underflow is signaling
Warning: ieee_inexact is signaling
FORTRAN STOP
Warning: ieee_invalid is signaling
Warning: ieee_divide_by_zero is signaling
Warning: ieee_underflow is signaling
Warning: ieee_inexact is signaling
FORTRAN STOP
FORTRAN STOP
