Ga48 O72                                
    1.000000000000000     
     0.0000000000000000   12.2804734172212839    0.0000000000000000
     9.1427020537309431    0.0000000000000000    0.0000000000000000
     0.0000000000000000   -2.7682617730220320  -11.3006977184464645
   Ga   O    P 
    47    71     1
Direct
  0.6632135696904833 -0.0065939006962605  0.1524518088374911
  0.6595500005178019 -0.0008039541462955  0.6587601110841872
  0.6632135696904833  0.3399272340295960  0.1524518088374911
  0.6595500005178019  0.3341372874796312  0.6587601110841872
  0.6600642072681123  0.6666666666666643  0.1558749508388841
  0.6608740392303832  0.6666666666666643  0.6553327524323994
  0.8418790138262019  0.1666666666666643  0.8460158692153810
  0.8455569693926347  0.5009306902819755  0.3353299785957233
  0.8426619576912613  0.4998879065373264  0.8437765158551271
  0.8455569693926347  0.8324026430513602  0.3353299785957233
  0.8426619576912613  0.8334454267960094  0.8437765158551271
  0.5900183622069906  0.1666666666666643  0.4028292639541947
  0.5919883666631445  0.1666666666666643  0.8999995095694203
  0.5927090692428606  0.5003592087613663  0.3974395536538224
  0.5893013474129658  0.5013039229335248  0.8941116555760378
  0.5927090692428606  0.8329741245719691  0.3974395536538224
  0.5893013474129658  0.8320294103998108  0.8941116555760378
  0.9122003521839379 -0.0012557771879119  0.1036404224366482
  0.9113305886804596  0.0010240605669653  0.6073391474107681
  0.9122003521839379  0.3345891105212474  0.1036404224366482
  0.9113305886804596  0.3323092727663705  0.6073391474107681
  0.9122391130875244  0.6666666666666643  0.0996171814519773
  0.9084150643074702  0.6666666666666643  0.6001134581068024
  0.1622599457265294  0.1666666666666643  0.1585661513054490
  0.1630991330581221  0.1666666666666643  0.6561485302001386
  0.1616375143290605  0.4995477123348537  0.1583642973328226
  0.1593544732689158  0.4989669535664070  0.6535196206681140
  0.1616375143290605  0.8337856209984820  0.1583642973328226
  0.1593544732689158  0.8343663797669280  0.6535196206681140
  0.3410893607870088 -0.0005502557337537  0.3438522038402958
  0.3415151644500509 -0.0000840028147880  0.8439257043885899
  0.3410893607870088  0.3338835890670896  0.3438522038402958
  0.3415151644500509  0.3334173361481236  0.8439257043885899
  0.3421392862018844  0.6666666666666643  0.3441114236771698
  0.3396809623302026  0.6666666666666643  0.8429424046480772
  0.0872143757211070  0.0311966533723901  0.3958229033725751
  0.0925486424069523  0.0000713973834105  0.8982592220721841
  0.0872143757211070  0.3021366799609457  0.3958229033725751
  0.0925486424069523  0.3332619359499250  0.8982592220721841
  0.0874352768433407  0.6666666666666643  0.3955464028856365
  0.0927324999152522  0.6666666666666643  0.8983222519245074
  0.4129521564076798  0.1666666666666643  0.1039634361370101
  0.4106237087666740  0.1666666666666643  0.6035013738564985
  0.4118541916620703  0.4992346850290771  0.1034985394770770
  0.4099175782682973  0.5005738726889498  0.6029529252907772
  0.4118541916620703  0.8340986483042587  0.1034985394770770
  0.4099175782682973  0.8327594606443859  0.6029529252907772
  0.9977467912418349  0.1666666666666643  0.1376020416841330
 -0.0017245116204385  0.1666666666666643  0.6227640310785307
  0.9996321469041202  0.5010292454314278  0.1253198107421445
  0.9950125728829259  0.4992766148139108  0.6246946641167105
  0.9996321469041202  0.8323040879019079  0.1253198107421445
  0.9950125728829259  0.8340567185194253  0.6246946641167105
  0.5055332513011386 -0.0000839090744360  0.3720262965594855
  0.5045876065264050  0.0004592922317817  0.8736744489485969
  0.5055332513011386  0.3334172424077716  0.3720262965594855
  0.5045876065264050  0.3328740411015541  0.8736744489485969
  0.5055689737986989  0.6666666666666643  0.3732139079017636
  0.5016228549871591  0.6666666666666643  0.8683890541086868
  0.6912530133741770  0.1666666666666643  0.2984664340873403
  0.6739946837725460  0.1666666666666643  0.7836409994022607
  0.6755834019308258  0.5009232114901645  0.2817027275970339
  0.6739507838320601  0.5001519731802804  0.7800021618667103
  0.6755834019308258  0.8324101218431712  0.2817027275970339
  0.6739507838320601  0.8331813601530553  0.7800021618667103
  0.8240713432842587 -0.0189598924402868  0.2109523728933863
  0.8281208075698404  0.0009395628456486  0.7208942266224105
  0.8240713432842587  0.3522932257736225  0.2109523728933863
  0.8281208075698404  0.3323937704876871  0.7208942266224105
  0.8301442789838251  0.6666666666666643  0.2160238597753515
  0.8285117495867230  0.6666666666666643  0.7183928923210846
  0.8264801924220315  0.0169365634117067  0.4488900791138278
  0.8345836915228606 -0.0001040988982117  0.9469395623973456
  0.8264801924220315  0.3163967699216291  0.4488900791138278
  0.8345836915228606  0.3334374322315477  0.9469395623973456
  0.8375031115235666  0.6666666666666643  0.4414873117286274
  0.8331202630821040  0.6666666666666643  0.9443012537927346
  0.6684024187474907  0.1666666666666643  0.0582449258719545
  0.6674009189765743  0.1666666666666643  0.5582314261301403
  0.6651317313489392  0.5044703128270177  0.0500065730181894
  0.6711248815399142  0.4990177815060959  0.5538948578648826
  0.6651317313489392  0.8288630205063182  0.0500065730181894
  0.6711248815399142  0.8343155518272395  0.5538948578648826
  0.5019165280674107  0.0005026159664770  0.1311104278649524
  0.4976414857818396 -0.0006416635253602  0.6285384662988188
  0.5019165280674107  0.3328307173668584  0.1311104278649524
  0.4976414857818396  0.3339749968586959  0.6285384662988188
  0.4982193212185665  0.6666666666666643  0.1283627787716153
  0.4986612145359337  0.6666666666666643  0.6270648001751428
  0.0042170001943120  0.1666666666666643  0.8722273697605838
  0.0063989369829401  0.4874185554499419  0.3746647861031929
  0.0047389754700039  0.4999915348662526  0.8711810210867701
  0.0063989369829401  0.8459147778833940  0.3746647861031929
  0.0047389754700039  0.8333417984670831  0.8711810210867701
  0.1750722534190980 -0.0010954691688109  0.2796106460760581
  0.1736317002914397  0.0003946842373226  0.7810191694809870
  0.1750722534190980  0.3344288025021464  0.2796106460760581
  0.1736317002914397  0.3329386490960131  0.7810191694809870
  0.1730475152685804  0.6666666666666643  0.2813627915430328
  0.1724705367260891  0.6666666666666643  0.7793540704817149
  0.3311491643919657  0.1666666666666643  0.2200920949516879
  0.3302494211712691  0.1666666666666643  0.7213137431176078
  0.3302170248723476  0.5005622553516293  0.2200803752845862
  0.3279732337079970  0.5001880762547380  0.7195079210267139
  0.3302170248723476  0.8327710779817066  0.2200803752845862
  0.3279732337079970  0.8331452570785979  0.7195079210267139
  0.3360963190202836  0.1666666666666643  0.4465881469278832
  0.3355837599574504  0.1666666666666643  0.9475925420294982
  0.3354656230509576  0.5004627682394172  0.4463469254878791
  0.3346119507429768  0.4995409332327793  0.9469136745630578
  0.3354656230509576  0.8328705650939187  0.4463469254878791
  0.3346119507429768  0.8337924001005566  0.9469136745630578
  0.1687118549138822  0.0009142886921850  0.0542431209801190
  0.1688116104004180 -0.0000373921132612  0.5545655271259732
  0.1687118549138822  0.3324190446411507  0.0542431209801190
  0.1688116104004180  0.3333707254465967  0.5545655271259732
  0.1702763816516790  0.6666666666666643  0.0545631494229414
  0.1648510652259559  0.6666666666666643  0.5524999281038241
 -0.1672465706009429  0.1666666666666643  0.3630517506041659
 
  0.00000000E+00  0.00000000E+00  0.00000000E+00
  0.00000000E+00  0.00000000E+00  0.00000000E+00
  0.00000000E+00  0.00000000E+00  0.00000000E+00
  0.00000000E+00  0.00000000E+00  0.00000000E+00
  0.00000000E+00  0.00000000E+00  0.00000000E+00
  0.00000000E+00  0.00000000E+00  0.00000000E+00
  0.00000000E+00  0.00000000E+00  0.00000000E+00
  0.00000000E+00  0.00000000E+00  0.00000000E+00
  0.00000000E+00  0.00000000E+00  0.00000000E+00
  0.00000000E+00  0.00000000E+00  0.00000000E+00
  0.00000000E+00  0.00000000E+00  0.00000000E+00
  0.00000000E+00  0.00000000E+00  0.00000000E+00
  0.00000000E+00  0.00000000E+00  0.00000000E+00
  0.00000000E+00  0.00000000E+00  0.00000000E+00
  0.00000000E+00  0.00000000E+00  0.00000000E+00
  0.00000000E+00  0.00000000E+00  0.00000000E+00
  0.00000000E+00  0.00000000E+00  0.00000000E+00
  0.00000000E+00  0.00000000E+00  0.00000000E+00
  0.00000000E+00  0.00000000E+00  0.00000000E+00
  0.00000000E+00  0.00000000E+00  0.00000000E+00
  0.00000000E+00  0.00000000E+00  0.00000000E+00
  0.00000000E+00  0.00000000E+00  0.00000000E+00
  0.00000000E+00  0.00000000E+00  0.00000000E+00
  0.00000000E+00  0.00000000E+00  0.00000000E+00
  0.00000000E+00  0.00000000E+00  0.00000000E+00
  0.00000000E+00  0.00000000E+00  0.00000000E+00
  0.00000000E+00  0.00000000E+00  0.00000000E+00
  0.00000000E+00  0.00000000E+00  0.00000000E+00
  0.00000000E+00  0.00000000E+00  0.00000000E+00
  0.00000000E+00  0.00000000E+00  0.00000000E+00
  0.00000000E+00  0.00000000E+00  0.00000000E+00
  0.00000000E+00  0.00000000E+00  0.00000000E+00
  0.00000000E+00  0.00000000E+00  0.00000000E+00
  0.00000000E+00  0.00000000E+00  0.00000000E+00
  0.00000000E+00  0.00000000E+00  0.00000000E+00
  0.00000000E+00  0.00000000E+00  0.00000000E+00
  0.00000000E+00  0.00000000E+00  0.00000000E+00
  0.00000000E+00  0.00000000E+00  0.00000000E+00
  0.00000000E+00  0.00000000E+00  0.00000000E+00
  0.00000000E+00  0.00000000E+00  0.00000000E+00
  0.00000000E+00  0.00000000E+00  0.00000000E+00
  0.00000000E+00  0.00000000E+00  0.00000000E+00
  0.00000000E+00  0.00000000E+00  0.00000000E+00
  0.00000000E+00  0.00000000E+00  0.00000000E+00
  0.00000000E+00  0.00000000E+00  0.00000000E+00
  0.00000000E+00  0.00000000E+00  0.00000000E+00
  0.00000000E+00  0.00000000E+00  0.00000000E+00
  0.00000000E+00  0.00000000E+00  0.00000000E+00
  0.00000000E+00  0.00000000E+00  0.00000000E+00
  0.00000000E+00  0.00000000E+00  0.00000000E+00
  0.00000000E+00  0.00000000E+00  0.00000000E+00
  0.00000000E+00  0.00000000E+00  0.00000000E+00
  0.00000000E+00  0.00000000E+00  0.00000000E+00
  0.00000000E+00  0.00000000E+00  0.00000000E+00
  0.00000000E+00  0.00000000E+00  0.00000000E+00
  0.00000000E+00  0.00000000E+00  0.00000000E+00
  0.00000000E+00  0.00000000E+00  0.00000000E+00
  0.00000000E+00  0.00000000E+00  0.00000000E+00
  0.00000000E+00  0.00000000E+00  0.00000000E+00
  0.00000000E+00  0.00000000E+00  0.00000000E+00
  0.00000000E+00  0.00000000E+00  0.00000000E+00
  0.00000000E+00  0.00000000E+00  0.00000000E+00
  0.00000000E+00  0.00000000E+00  0.00000000E+00
  0.00000000E+00  0.00000000E+00  0.00000000E+00
  0.00000000E+00  0.00000000E+00  0.00000000E+00
  0.00000000E+00  0.00000000E+00  0.00000000E+00
  0.00000000E+00  0.00000000E+00  0.00000000E+00
  0.00000000E+00  0.00000000E+00  0.00000000E+00
  0.00000000E+00  0.00000000E+00  0.00000000E+00
  0.00000000E+00  0.00000000E+00  0.00000000E+00
  0.00000000E+00  0.00000000E+00  0.00000000E+00
  0.00000000E+00  0.00000000E+00  0.00000000E+00
  0.00000000E+00  0.00000000E+00  0.00000000E+00
  0.00000000E+00  0.00000000E+00  0.00000000E+00
  0.00000000E+00  0.00000000E+00  0.00000000E+00
  0.00000000E+00  0.00000000E+00  0.00000000E+00
  0.00000000E+00  0.00000000E+00  0.00000000E+00
  0.00000000E+00  0.00000000E+00  0.00000000E+00
  0.00000000E+00  0.00000000E+00  0.00000000E+00
  0.00000000E+00  0.00000000E+00  0.00000000E+00
  0.00000000E+00  0.00000000E+00  0.00000000E+00
  0.00000000E+00  0.00000000E+00  0.00000000E+00
  0.00000000E+00  0.00000000E+00  0.00000000E+00
  0.00000000E+00  0.00000000E+00  0.00000000E+00
  0.00000000E+00  0.00000000E+00  0.00000000E+00
  0.00000000E+00  0.00000000E+00  0.00000000E+00
  0.00000000E+00  0.00000000E+00  0.00000000E+00
  0.00000000E+00  0.00000000E+00  0.00000000E+00
  0.00000000E+00  0.00000000E+00  0.00000000E+00
  0.00000000E+00  0.00000000E+00  0.00000000E+00
  0.00000000E+00  0.00000000E+00  0.00000000E+00
  0.00000000E+00  0.00000000E+00  0.00000000E+00
  0.00000000E+00  0.00000000E+00  0.00000000E+00
  0.00000000E+00  0.00000000E+00  0.00000000E+00
  0.00000000E+00  0.00000000E+00  0.00000000E+00
  0.00000000E+00  0.00000000E+00  0.00000000E+00
  0.00000000E+00  0.00000000E+00  0.00000000E+00
  0.00000000E+00  0.00000000E+00  0.00000000E+00
  0.00000000E+00  0.00000000E+00  0.00000000E+00
  0.00000000E+00  0.00000000E+00  0.00000000E+00
  0.00000000E+00  0.00000000E+00  0.00000000E+00
  0.00000000E+00  0.00000000E+00  0.00000000E+00
  0.00000000E+00  0.00000000E+00  0.00000000E+00
  0.00000000E+00  0.00000000E+00  0.00000000E+00
  0.00000000E+00  0.00000000E+00  0.00000000E+00
  0.00000000E+00  0.00000000E+00  0.00000000E+00
  0.00000000E+00  0.00000000E+00  0.00000000E+00
  0.00000000E+00  0.00000000E+00  0.00000000E+00
  0.00000000E+00  0.00000000E+00  0.00000000E+00
  0.00000000E+00  0.00000000E+00  0.00000000E+00
  0.00000000E+00  0.00000000E+00  0.00000000E+00
  0.00000000E+00  0.00000000E+00  0.00000000E+00
  0.00000000E+00  0.00000000E+00  0.00000000E+00
  0.00000000E+00  0.00000000E+00  0.00000000E+00
  0.00000000E+00  0.00000000E+00  0.00000000E+00
  0.00000000E+00  0.00000000E+00  0.00000000E+00
  0.00000000E+00  0.00000000E+00  0.00000000E+00
  0.00000000E+00  0.00000000E+00  0.00000000E+00
  0.00000000E+00  0.00000000E+00  0.00000000E+00
