Ga8 O12                                 
    1.000000000000000     
     0.0000000000000000   12.2804737091000007    0.0000000000000000
     9.1427011490000005    0.0000000000000000    0.0000000000000000
     0.0000000000000000   -2.7682616411000001  -11.3006974810000003
   Ga   O    N    Fe
    47    71     1     1
Direct
  0.6591518998262416  0.0009888815751466  0.1581229257481027
  0.6596473280822153  0.0000702915124293  0.6572029626507003
  0.6591518998262416  0.3323441184248566  0.1581229257481027
  0.6596473280822153  0.3332627084875739  0.6572029626507003
  0.6587997098880436  0.6666669999999968  0.1567292806593557
  0.6599126444487098  0.6666669999999968  0.6570838245711244
  0.8416349658264650  0.1666669999999968  0.8431016671043992
  0.8400376226050810  0.4996716335633877  0.3434945096693554
  0.8418389530096775  0.4999347453874137  0.8437517125086842
  0.8400376226050810  0.8336613664366155  0.3434945096693554
  0.8418389530096775  0.8333982546125895  0.8437517125086842
  0.5944454329470048  0.1666669999999968  0.3974791317219939
  0.5913725831845582  0.1666669999999968  0.8981492497395465
  0.5909627168757510  0.4996591973375999  0.3979742101285453
  0.5915912632764346  0.4997917946364225  0.8982794574774786
  0.5909627168757510  0.8336738026624033  0.3979742101285453
  0.5915912632764346  0.8335412053635807  0.8982794574774786
  0.9087011211380158  0.0002163696536499  0.1037224065447546
  0.9074496030874002  0.0013090546536390  0.5994954181030465
  0.9087011211380158  0.3331166303463533  0.1037224065447546
  0.9074496030874002  0.3320239453463572  0.5994954181030465
  0.9088250710118473  0.6666669999999968  0.1030220834883693
  0.9085341707300998  0.6666669999999968  0.6020675696676037
  0.1599487947801492  0.1666669999999968  0.1576596224222797
  0.1596838050566944  0.1666669999999968  0.6553317472651230
  0.1590447998238531  0.4996994258621186  0.1572899042808800
  0.1582793676148313  0.4995039784853788  0.6557486156632919
  0.1590447998238531  0.8336335741378846  0.1572899042808800
  0.1582793676148313  0.8338290215146245  0.6557486156632919
  0.3414294025146845  0.0002163906572932  0.3442493472662846
  0.3410089947951391  0.9999293533231253  0.8430450723805620
  0.3414294025146845  0.3331166093427100  0.3442493472662846
  0.3410089947951391  0.3334036466768779  0.8430450723805620
  0.3414727469139081  0.6666669999999968  0.3434316547334504
  0.3407989109681182  0.6666669999999968  0.8429730477664634
  0.0860412680476941  0.9999413323684010  0.3954649109505368
  0.0914867479327626  0.9999107520597406  0.8973435524757534
  0.0860412680476941  0.3333916676316022  0.3954649109505368
  0.0914867479327626  0.3334222479402627  0.8973435524757534
  0.0916558974791428  0.6666669999999968  0.3978555932483445
  0.0916409600400172  0.6666669999999968  0.8978973828254269
  0.4086285400284311  0.1666669999999968  0.1022296351625371
  0.4100936121833456  0.1666669999999968  0.6025265256535093
  0.4088795543850949  0.4998025236594117  0.1022843451294619
  0.4096130364730612  0.5001417685738119  0.6028455574102978
  0.4088795543850949  0.8335304763405915  0.1022843451294619
  0.4096130364730612  0.8331912314261913  0.6028455574102978
  0.9969957767171920  0.1666669999999968  0.1332952866281332
  0.9966185950063107  0.1666669999999968  0.6245524689495525
  0.9961449889645451  0.4997931140598908  0.1280728184193975
  0.9950952835065081  0.4990885471149014  0.6256661666544758
  0.9961449889645451  0.8335398859401124  0.1280728184193975
  0.9950952835065081  0.8342444528851019  0.6256661666544758
  0.5046277894514759  0.0011618451549538  0.3728344021174550
  0.5037342104101512  0.0000113478418839  0.8728661852579620
  0.5046277894514759  0.3321711548450494  0.3728344021174550
  0.5037342104101512  0.3333216521581193  0.8728661852579620
  0.5039631787620422  0.6666669999999968  0.3730821964474487
  0.5040216491841747  0.6666669999999968  0.8733329836744304
  0.6755927543785489  0.1666669999999968  0.2802028532884151
  0.6732950713135182  0.1666669999999968  0.7812257376017371
  0.6717479093714118  0.5001439383815551  0.2802423175727924
  0.6734092371620122  0.4996530729389335  0.7811948957336128
  0.6717479093714118  0.8331890616184481  0.2802423175727924
  0.6734092371620122  0.8336799270610697  0.7811948957336128
  0.8279251937333285  0.0018502168152352  0.2223044332464283
  0.8282567890920518  0.0002882527595460  0.7192207934903720
  0.8279251937333285  0.3314827831847680  0.2223044332464283
  0.8282567890920518  0.3330447472404572  0.7192207934903720
  0.8266263487828027  0.6666669999999968  0.2194565763579561
  0.8279739334521921  0.6666669999999968  0.7200550456061663
  0.8302251248463506  0.0052613453165549  0.4420655462583483
  0.8338802098966553  0.0004622269304591  0.9464869541358496
  0.8302251248463506  0.3280716546834483  0.4420655462583483
  0.8338802098966553  0.3328707730695442  0.9464869541358496
  0.8299782874689043  0.6666669999999968  0.4459477184763045
  0.8328079834270739  0.6666669999999968  0.9461446107568321
  0.6687581519152701  0.1666669999999968  0.0544105389881366
  0.6684375311506585  0.1666669999999968  0.5550240952262300
  0.6687952169233924  0.4990671559614270  0.0549465504611533
  0.6688136160203513  0.4997067721978397  0.5544789602722489
  0.6687952169233924  0.8342658440385762  0.0549465504611533
  0.6688136160203513  0.8336262278021636  0.5544789602722489
  0.4962891365116207  0.0002877817083586  0.1269472847705657
  0.4971246624338761  0.9997682190149746  0.6280181549464103
  0.4962891365116207  0.3330452182916446  0.1269472847705657
  0.4971246624338761  0.3335647809850286  0.6280181549464103
  0.4961605926369046  0.6666669999999968  0.1267475353481871
  0.4973467288301521  0.6666669999999968  0.6281969540916421
  0.0041828442263423  0.1666669999999968  0.8728602469885587
  0.0022269356309650  0.5028828176630995  0.3727242932505987
  0.0041908349342492  0.5000838300512314  0.8725404172636289
  0.0022269356309650  0.8304501823369037  0.3727242932505987
  0.0041908349342492  0.8332491699487719  0.8725404172636289
  0.1724403999225999  0.9996008700820340  0.2813832279552173
  0.1724438233009664  0.0001510512394347  0.7796222215283777
  0.1724403999225999  0.3337321299179763  0.2813832279552173
  0.1724438233009664  0.3331819487605685  0.7796222215283777
  0.1731448699890450  0.6666669999999968  0.2808463768482667
  0.1720672471575710  0.6666669999999968  0.7798045112713012
  0.3274853966160336  0.1666669999999968  0.2197747627105571
  0.3275785079477700  0.1666669999999968  0.7189703617859777
  0.3276353782095427  0.4995289926582842  0.2196760900209043
  0.3272694574992627  0.4997921585992984  0.7192449844206266
  0.3276353782095427  0.8338040073417190  0.2196760900209043
  0.3272694574992627  0.8335408414007048  0.7192449844206266
  0.3329513197728886  0.1666669999999968  0.4463171735106641
  0.3317296060239343  0.1666669999999968  0.9454754494856630
  0.3335606714676516  0.5001583828467915  0.4461594496900076
  0.3317696768956822  0.4999832618900300  0.9455981895372361
  0.3335606714676516  0.8331746171532117  0.4461594496900076
  0.3317696768956822  0.8333497381099733  0.9455981895372361
  0.1670743172135190  0.0003188544740809  0.0544429327752241
  0.1664300038514099  0.0000185465406872  0.5521786452338802
  0.1670743172135190  0.3330141455259223  0.0544429327752241
  0.1664300038514099  0.3333144534593160  0.5521786452338802
  0.1676052637525416  0.6666669999999968  0.0547790376557771
  0.1682007175602536  0.6666669999999968  0.5544305997647641
  0.9904673137224052  0.1666669999999968  0.3695042041852048
  0.8460133912438721  0.1666669999999968  0.3395630115215837
 
  0.00000000E+00  0.00000000E+00  0.00000000E+00
  0.00000000E+00  0.00000000E+00  0.00000000E+00
  0.00000000E+00  0.00000000E+00  0.00000000E+00
  0.00000000E+00  0.00000000E+00  0.00000000E+00
  0.00000000E+00  0.00000000E+00  0.00000000E+00
  0.00000000E+00  0.00000000E+00  0.00000000E+00
  0.00000000E+00  0.00000000E+00  0.00000000E+00
  0.00000000E+00  0.00000000E+00  0.00000000E+00
  0.00000000E+00  0.00000000E+00  0.00000000E+00
  0.00000000E+00  0.00000000E+00  0.00000000E+00
  0.00000000E+00  0.00000000E+00  0.00000000E+00
  0.00000000E+00  0.00000000E+00  0.00000000E+00
  0.00000000E+00  0.00000000E+00  0.00000000E+00
  0.00000000E+00  0.00000000E+00  0.00000000E+00
  0.00000000E+00  0.00000000E+00  0.00000000E+00
  0.00000000E+00  0.00000000E+00  0.00000000E+00
  0.00000000E+00  0.00000000E+00  0.00000000E+00
  0.00000000E+00  0.00000000E+00  0.00000000E+00
  0.00000000E+00  0.00000000E+00  0.00000000E+00
  0.00000000E+00  0.00000000E+00  0.00000000E+00
  0.00000000E+00  0.00000000E+00  0.00000000E+00
  0.00000000E+00  0.00000000E+00  0.00000000E+00
  0.00000000E+00  0.00000000E+00  0.00000000E+00
  0.00000000E+00  0.00000000E+00  0.00000000E+00
  0.00000000E+00  0.00000000E+00  0.00000000E+00
  0.00000000E+00  0.00000000E+00  0.00000000E+00
  0.00000000E+00  0.00000000E+00  0.00000000E+00
  0.00000000E+00  0.00000000E+00  0.00000000E+00
  0.00000000E+00  0.00000000E+00  0.00000000E+00
  0.00000000E+00  0.00000000E+00  0.00000000E+00
  0.00000000E+00  0.00000000E+00  0.00000000E+00
  0.00000000E+00  0.00000000E+00  0.00000000E+00
  0.00000000E+00  0.00000000E+00  0.00000000E+00
  0.00000000E+00  0.00000000E+00  0.00000000E+00
  0.00000000E+00  0.00000000E+00  0.00000000E+00
  0.00000000E+00  0.00000000E+00  0.00000000E+00
  0.00000000E+00  0.00000000E+00  0.00000000E+00
  0.00000000E+00  0.00000000E+00  0.00000000E+00
  0.00000000E+00  0.00000000E+00  0.00000000E+00
  0.00000000E+00  0.00000000E+00  0.00000000E+00
  0.00000000E+00  0.00000000E+00  0.00000000E+00
  0.00000000E+00  0.00000000E+00  0.00000000E+00
  0.00000000E+00  0.00000000E+00  0.00000000E+00
  0.00000000E+00  0.00000000E+00  0.00000000E+00
  0.00000000E+00  0.00000000E+00  0.00000000E+00
  0.00000000E+00  0.00000000E+00  0.00000000E+00
  0.00000000E+00  0.00000000E+00  0.00000000E+00
  0.00000000E+00  0.00000000E+00  0.00000000E+00
  0.00000000E+00  0.00000000E+00  0.00000000E+00
  0.00000000E+00  0.00000000E+00  0.00000000E+00
  0.00000000E+00  0.00000000E+00  0.00000000E+00
  0.00000000E+00  0.00000000E+00  0.00000000E+00
  0.00000000E+00  0.00000000E+00  0.00000000E+00
  0.00000000E+00  0.00000000E+00  0.00000000E+00
  0.00000000E+00  0.00000000E+00  0.00000000E+00
  0.00000000E+00  0.00000000E+00  0.00000000E+00
  0.00000000E+00  0.00000000E+00  0.00000000E+00
  0.00000000E+00  0.00000000E+00  0.00000000E+00
  0.00000000E+00  0.00000000E+00  0.00000000E+00
  0.00000000E+00  0.00000000E+00  0.00000000E+00
  0.00000000E+00  0.00000000E+00  0.00000000E+00
  0.00000000E+00  0.00000000E+00  0.00000000E+00
  0.00000000E+00  0.00000000E+00  0.00000000E+00
  0.00000000E+00  0.00000000E+00  0.00000000E+00
  0.00000000E+00  0.00000000E+00  0.00000000E+00
  0.00000000E+00  0.00000000E+00  0.00000000E+00
  0.00000000E+00  0.00000000E+00  0.00000000E+00
  0.00000000E+00  0.00000000E+00  0.00000000E+00
  0.00000000E+00  0.00000000E+00  0.00000000E+00
  0.00000000E+00  0.00000000E+00  0.00000000E+00
  0.00000000E+00  0.00000000E+00  0.00000000E+00
  0.00000000E+00  0.00000000E+00  0.00000000E+00
  0.00000000E+00  0.00000000E+00  0.00000000E+00
  0.00000000E+00  0.00000000E+00  0.00000000E+00
  0.00000000E+00  0.00000000E+00  0.00000000E+00
  0.00000000E+00  0.00000000E+00  0.00000000E+00
  0.00000000E+00  0.00000000E+00  0.00000000E+00
  0.00000000E+00  0.00000000E+00  0.00000000E+00
  0.00000000E+00  0.00000000E+00  0.00000000E+00
  0.00000000E+00  0.00000000E+00  0.00000000E+00
  0.00000000E+00  0.00000000E+00  0.00000000E+00
  0.00000000E+00  0.00000000E+00  0.00000000E+00
  0.00000000E+00  0.00000000E+00  0.00000000E+00
  0.00000000E+00  0.00000000E+00  0.00000000E+00
  0.00000000E+00  0.00000000E+00  0.00000000E+00
  0.00000000E+00  0.00000000E+00  0.00000000E+00
  0.00000000E+00  0.00000000E+00  0.00000000E+00
  0.00000000E+00  0.00000000E+00  0.00000000E+00
  0.00000000E+00  0.00000000E+00  0.00000000E+00
  0.00000000E+00  0.00000000E+00  0.00000000E+00
  0.00000000E+00  0.00000000E+00  0.00000000E+00
  0.00000000E+00  0.00000000E+00  0.00000000E+00
  0.00000000E+00  0.00000000E+00  0.00000000E+00
  0.00000000E+00  0.00000000E+00  0.00000000E+00
  0.00000000E+00  0.00000000E+00  0.00000000E+00
  0.00000000E+00  0.00000000E+00  0.00000000E+00
  0.00000000E+00  0.00000000E+00  0.00000000E+00
  0.00000000E+00  0.00000000E+00  0.00000000E+00
  0.00000000E+00  0.00000000E+00  0.00000000E+00
  0.00000000E+00  0.00000000E+00  0.00000000E+00
  0.00000000E+00  0.00000000E+00  0.00000000E+00
  0.00000000E+00  0.00000000E+00  0.00000000E+00
  0.00000000E+00  0.00000000E+00  0.00000000E+00
  0.00000000E+00  0.00000000E+00  0.00000000E+00
  0.00000000E+00  0.00000000E+00  0.00000000E+00
  0.00000000E+00  0.00000000E+00  0.00000000E+00
  0.00000000E+00  0.00000000E+00  0.00000000E+00
  0.00000000E+00  0.00000000E+00  0.00000000E+00
  0.00000000E+00  0.00000000E+00  0.00000000E+00
  0.00000000E+00  0.00000000E+00  0.00000000E+00
  0.00000000E+00  0.00000000E+00  0.00000000E+00
  0.00000000E+00  0.00000000E+00  0.00000000E+00
  0.00000000E+00  0.00000000E+00  0.00000000E+00
  0.00000000E+00  0.00000000E+00  0.00000000E+00
  0.00000000E+00  0.00000000E+00  0.00000000E+00
  0.00000000E+00  0.00000000E+00  0.00000000E+00
  0.00000000E+00  0.00000000E+00  0.00000000E+00
  0.00000000E+00  0.00000000E+00  0.00000000E+00
  0.00000000E+00  0.00000000E+00  0.00000000E+00
  0.00000000E+00  0.00000000E+00  0.00000000E+00
