 running    4 mpi-ranks, on    1 nodes
 distrk:  each k-point on    1 cores,    4 groups
 distr:  one band on    1 cores,    1 groups
 OpenACC runtime initialized ...    4 GPUs detected
 vasp.6.4.2 20Jul23 (build Nov 12 2023 22:16:35) complex                         
 POSCAR found type information on POSCAR GaO N Fe
 POSCAR found :  4 types and     120 ions
 scaLAPACK will be used selectively (only on CPU)
 LDA part: xc-table for Pade appr. of Perdew
 POSCAR, INCAR and KPOINTS ok, starting setup
 FFT: planning ... GRIDC
 FFT: planning ... GRID_SOFT
 FFT: planning ... GRID
 WAVECAR not read
 initial charge from wavefunction
 entering main loop
       N       E                     dE             d eps       ncg     rms          ort
DAV:   1    -0.184130270504E+05   -0.18413E+05   -0.54169E+05  5040   0.743E+03
DAV:   2    -0.620854605237E+05   -0.43672E+05   -0.42326E+05  5040   0.120E+03
DAV:   3    -0.666890492144E+05   -0.46036E+04   -0.41496E+04  5040   0.355E+02
DAV:   4    -0.672400264658E+05   -0.55098E+03   -0.46658E+03  5040   0.105E+02
DAV:   5    -0.373080839124E+05    0.29932E+05   -0.73138E+02  5040   0.546E+01
 gam= 0.000 g(H,U,f)=  0.690E+05 0.262E+05 0.343E+04 ort(H,U,f) = 0.000E+00 0.000E+00 0.000E+00
SDA:   6     0.196811017048E+05    0.56989E+05   -0.73138E+02  5040   0.986E+05 0.000E+00
 gam= 0.000 trial= 0.400  step= 0.283 mean= 0.400
 gam= 0.545 g(H,U,f)=  0.167E+05 0.249E+05 0.121E+05 ort(H,U,f) = 0.105E+05-0.225E+05-0.133E+05
CGA:   7     0.501608131217E+04   -0.14665E+05   -0.13947E+05  5040   0.537E+05-0.254E+05
 gam= 0.545 trial= 0.394  step= 0.197 mean= 0.394
 gam= 0.223 g(H,U,f)=  0.741E+04 0.399E+04 0.579E+03 ort(H,U,f) = 0.318E+04 0.106E+04 0.680E+03
CGA:   8     0.202027728698E+04   -0.29958E+04   -0.39265E+04  5040   0.120E+05 0.492E+04
 gam= 0.223 trial= 0.384  step= 0.161 mean= 0.384
 gam= 0.650 g(H,U,f)=  0.437E+04 0.325E+04 0.177E+03 ort(H,U,f) = 0.148E+04-0.191E+04-0.118E+03
CGA:   9     0.996339809505E+03   -0.10239E+04   -0.10496E+04  5040   0.779E+04-0.551E+03
 gam= 0.650 trial= 0.373  step= 0.162 mean= 0.373
 gam= 1.135 g(H,U,f)=  0.346E+04 0.501E+04 0.375E+03 ort(H,U,f) = 0.561E+03-0.114E+04 0.452E+02
CGA:  10     0.527049079414E+03   -0.46929E+03   -0.60302E+03  5040   0.884E+04-0.537E+03
 gam= 1.135 trial= 0.363  step= 0.159 mean= 0.363
 gam= 0.706 g(H,U,f)=  0.316E+04 0.299E+04 0.881E+02 ort(H,U,f) =-0.603E+03-0.476E+03 0.173E+01
CGA:  11     0.175811956474E+03   -0.35124E+03   -0.65375E+03  5040   0.624E+04-0.108E+04
 gam= 0.706 trial= 0.352  step= 0.197 mean= 0.352
 gam= 0.402 g(H,U,f)=  0.218E+04 0.322E+03 0.445E+01 ort(H,U,f) =-0.290E+03 0.413E+03 0.298E+01
CGA:  12    -0.190573256218E+03   -0.36639E+03   -0.53844E+03  5040   0.251E+04 0.126E+03
 gam= 0.402 trial= 0.345  step= 0.285 mean= 0.345
 gam= 0.376 g(H,U,f)=  0.868E+03 0.697E+02 0.640E+01 ort(H,U,f) = 0.821E+02 0.741E+02-0.106E+00
CGA:  13    -0.541936800881E+03   -0.35136E+03   -0.36492E+03  5040   0.944E+03 0.156E+03
 gam= 0.376 trial= 0.342  step= 0.350 mean= 0.342
 gam= 0.423 g(H,U,f)=  0.370E+03 0.286E+02 0.114E+01 ort(H,U,f) = 0.617E+01 0.313E+02-0.520E-01
CGA:  14    -0.717732228015E+03   -0.17580E+03   -0.17549E+03  5040   0.399E+03 0.374E+02
 gam= 0.423 trial= 0.342  step= 0.520 mean= 0.342
 gam= 0.562 g(H,U,f)=  0.201E+03 0.232E+02 0.593E-01 ort(H,U,f) =-0.828E+01 0.169E+02-0.178E+00
CGA:  15    -0.826551553534E+03   -0.10882E+03   -0.10799E+03  5040   0.225E+03 0.844E+01
 gam= 0.562 trial= 0.351  step= 0.437 mean= 0.351
 gam= 0.619 g(H,U,f)=  0.964E+02 0.384E+02 0.425E+01 ort(H,U,f) =-0.181E+02 0.195E+02 0.694E-01
CGA:  16    -0.877056656228E+03   -0.50505E+02   -0.50116E+02  5040   0.139E+03 0.146E+01
 gam= 0.619 trial= 0.355  step= 0.486 mean= 0.355
 gam= 0.922 g(H,U,f)=  0.883E+02 0.347E+02 0.531E+01 ort(H,U,f) =-0.276E+02 0.108E+02-0.903E+01
CGA:  17    -0.908846198305E+03   -0.31790E+02   -0.34010E+02  5040   0.128E+03-0.259E+02
 gam= 0.922 trial= 0.362  step= 0.340 mean= 0.362
 gam= 0.630 g(H,U,f)=  0.699E+02 0.959E+01 0.125E+01 ort(H,U,f) =-0.317E+02 0.135E+02 0.296E+01
CGA:  18    -0.926919784318E+03   -0.18074E+02   -0.17730E+02  5040   0.808E+02-0.152E+02
 gam= 0.630 trial= 0.361  step= 0.344 mean= 0.361
 gam= 0.605 g(H,U,f)=  0.430E+02 0.593E+01 0.545E-02 ort(H,U,f) =-0.391E+01-0.212E+01 0.447E-01
CGA:  19    -0.939254541325E+03   -0.12335E+02   -0.12237E+02  5040   0.489E+02-0.599E+01
 gam= 0.605 trial= 0.360  step= 0.367 mean= 0.360
 gam= 0.596 g(H,U,f)=  0.257E+02 0.343E+01 0.902E-14 ort(H,U,f) =-0.517E+01 0.452E+00 0.249E-13
CGA:  20    -0.947524874321E+03   -0.82703E+01   -0.83024E+01  5040   0.291E+02-0.471E+01
 gam= 0.596 trial= 0.360  step= 0.438 mean= 0.360
 gam= 0.597 g(H,U,f)=  0.146E+02 0.282E+01 0.517E-14 ort(H,U,f) = 0.383E+00-0.474E+00 0.642E-14
CGA:  21    -0.953277617110E+03   -0.57527E+01   -0.57667E+01  5040   0.174E+02-0.910E-01
 gam= 0.597 trial= 0.364  step= 0.411 mean= 0.364
 gam= 0.634 g(H,U,f)=  0.769E+01 0.334E+01 0.352E-28 ort(H,U,f) = 0.143E+00 0.181E+00 0.520E-28
CGA:  22    -0.956838223513E+03   -0.35606E+01   -0.35588E+01  5040   0.110E+02 0.325E+00
 gam= 0.634 trial= 0.366  step= 0.428 mean= 0.366
 gam= 0.661 g(H,U,f)=  0.575E+01 0.154E+01 0.263E-13 ort(H,U,f) =-0.142E+01 0.188E+01 0.130E-12
CGA:  23    -0.959262247501E+03   -0.24240E+01   -0.24067E+01  5040   0.729E+01 0.467E+00
 gam= 0.661 trial= 0.370  step= 0.435 mean= 0.370
 gam= 0.681 g(H,U,f)=  0.399E+01 0.970E+00 0.314E-14 ort(H,U,f) =-0.763E+00 0.840E+00-0.237E-13
CGA:  24    -0.960921002828E+03   -0.16588E+01   -0.16539E+01  5040   0.496E+01 0.762E-01
 gam= 0.681 trial= 0.373  step= 0.430 mean= 0.373
 gam= 0.598 g(H,U,f)=  0.246E+01 0.508E+00 0.138E-12 ort(H,U,f) =-0.693E+00 0.654E+00-0.522E-12
CGA:  25    -0.961996526855E+03   -0.10755E+01   -0.10774E+01  5040   0.297E+01-0.386E-01
 gam= 0.598 trial= 0.376  step= 0.414 mean= 0.376
 gam= 0.644 g(H,U,f)=  0.164E+01 0.267E+00 0.924E-16 ort(H,U,f) =-0.166E+00 0.172E+00-0.432E-16
CGA:  26    -0.962605466791E+03   -0.60894E+00   -0.60940E+00  5040   0.191E+01 0.599E-02
 gam= 0.644 trial= 0.378  step= 0.424 mean= 0.378
 gam= 0.613 g(H,U,f)=  0.977E+00 0.195E+00 0.306E-15 ort(H,U,f) =-0.202E-02 0.294E-01 0.548E-15
CGA:  27    -0.963012255422E+03   -0.40679E+00   -0.40612E+00  5040   0.117E+01 0.273E-01
 gam= 0.613 trial= 0.380  step= 0.409 mean= 0.380
 gam= 0.653 g(H,U,f)=  0.603E+00 0.162E+00 0.715E-12 ort(H,U,f) = 0.123E-01-0.217E-02 0.169E-11
CGA:  28    -0.963255376647E+03   -0.24312E+00   -0.24290E+00  5040   0.765E+00 0.101E-01
 gam= 0.653 trial= 0.381  step= 0.414 mean= 0.381
 gam= 0.623 g(H,U,f)=  0.372E+00 0.104E+00 0.224E-11 ort(H,U,f) =-0.581E-01 0.606E-01 0.812E-11
CGA:  29    -0.963415258354E+03   -0.15988E+00   -0.15983E+00  5040   0.476E+00 0.247E-02
 gam= 0.623 trial= 0.383  step= 0.411 mean= 0.383
 gam= 0.684 g(H,U,f)=  0.260E+00 0.655E-01 0.932E-21 ort(H,U,f) =-0.405E-01 0.424E-01 0.255E-19
CGA:  30    -0.963513438523E+03   -0.98180E-01   -0.98161E-01  5040   0.326E+00 0.195E-02
 gam= 0.684 trial= 0.384  step= 0.446 mean= 0.384
 gam= 0.616 g(H,U,f)=  0.160E+00 0.403E-01 0.606E-16 ort(H,U,f) =-0.372E-01 0.385E-01-0.555E-15
CGA:  31    -0.963586388589E+03   -0.72950E-01   -0.72902E-01  5040   0.201E+00 0.130E-02
 gam= 0.616 trial= 0.387  step= 0.427 mean= 0.387
 gam= 0.614 g(H,U,f)=  0.989E-01 0.241E-01 0.407E-20 ort(H,U,f) =-0.197E-01 0.200E-01-0.224E-19
CGA:  32    -0.963629393918E+03   -0.43005E-01   -0.42991E-01  5040   0.123E+00 0.216E-03
 gam= 0.614 trial= 0.389  step= 0.482 mean= 0.389
 gam= 0.614 g(H,U,f)=  0.636E-01 0.120E-01 0.135E-12 ort(H,U,f) =-0.922E-02 0.911E-02-0.162E-12
CGA:  33    -0.963659057118E+03   -0.29663E-01   -0.29670E-01  5040   0.756E-01-0.106E-03
 gam= 0.614 trial= 0.394  step= 0.459 mean= 0.394
 gam= 0.659 g(H,U,f)=  0.389E-01 0.109E-01 0.481E-11 ort(H,U,f) = 0.163E-02-0.152E-02 0.507E-12
CGA:  34    -0.963676375079E+03   -0.17318E-01   -0.17318E-01  5040   0.498E-01 0.104E-03
 gam= 0.659 trial= 0.397  step= 0.477 mean= 0.397
 gam= 0.652 g(H,U,f)=  0.262E-01 0.627E-02 0.227E-14 ort(H,U,f) =-0.127E-02 0.148E-02 0.266E-14
CGA:  35    -0.963688270633E+03   -0.11896E-01   -0.11886E-01  5040   0.324E-01 0.209E-03
 gam= 0.652 trial= 0.401  step= 0.459 mean= 0.401
 gam= 0.693 g(H,U,f)=  0.179E-01 0.457E-02 0.203E-20 ort(H,U,f) = 0.558E-03-0.483E-03 0.904E-20
CGA:  36    -0.963695750884E+03   -0.74803E-02   -0.74770E-02  5040   0.225E-01 0.753E-04
 gam= 0.693 trial= 0.404  step= 0.457 mean= 0.404
 gam= 0.000 g(H,U,f)=  0.110E-01 0.324E-02 0.578E-14 ort(H,U,f) =-0.129E-02 0.132E-02 0.315E-14
SDA:  37    -0.963700908519E+03   -0.51576E-02   -0.51569E-02  5040   0.143E-01 0.284E-04
 gam= 0.000 trial= 0.407  step= 0.847 mean= 0.407
 gam= 0.482 g(H,U,f)=  0.408E-02 0.279E-02 0.506E-15 ort(H,U,f) =-0.600E-03 0.656E-03 0.685E-15
CGA:  38    -0.963706968416E+03   -0.60599E-02   -0.60476E-02  5040   0.688E-02 0.558E-04
 gam= 0.482 trial= 0.429  step= 0.587 mean= 0.429
 gam= 0.495 g(H,U,f)=  0.202E-02 0.139E-02 0.125E-14 ort(H,U,f) =-0.219E-03 0.250E-03 0.380E-14
CGA:  39    -0.963708996503E+03   -0.20281E-02   -0.20256E-02  5040   0.340E-02 0.316E-04
 gam= 0.495 trial= 0.437  step= 0.601 mean= 0.437
 gam= 0.259 g(H,U,f)=  0.674E-03 0.208E-03 0.366E-16 ort(H,U,f) =-0.378E-03 0.407E-03 0.217E-15
CGA:  40    -0.963710026582E+03   -0.10301E-02   -0.10277E-02  5040   0.882E-03 0.293E-04
 gam= 0.259 trial= 0.445  step= 0.757 mean= 0.445
 gam= 0.410 g(H,U,f)=  0.297E-03 0.650E-04 0.144E-16 ort(H,U,f) =-0.108E-03 0.121E-03 0.156E-15
CGA:  41    -0.963710365646E+03   -0.33906E-03   -0.33693E-03  5040   0.362E-03 0.137E-04
 gam= 0.410 trial= 0.461  step= 0.722 mean= 0.461
 gam= 0.387 g(H,U,f)=  0.109E-03 0.314E-04 0.279E-24 ort(H,U,f) =-0.490E-04 0.582E-04-0.144E-24
CGA:  42    -0.963710499450E+03   -0.13380E-03   -0.13260E-03  5040   0.140E-03 0.919E-05
 gam= 0.387 trial= 0.474  step= 0.789 mean= 0.474
 gam= 0.647 g(H,U,f)=  0.680E-04 0.225E-04 0.134E-22 ort(H,U,f) =-0.360E-04 0.363E-04 0.203E-22
CGA:  43    -0.963710556107E+03   -0.56657E-04   -0.56617E-04  5040   0.906E-04 0.267E-06
 gam= 0.647 trial= 0.489  step= 0.861 mean= 0.489
 gam= 0.635 g(H,U,f)=  0.438E-04 0.137E-04 0.835E-20 ort(H,U,f) =-0.274E-04 0.289E-04 0.179E-19
CGA:  44    -0.963710595449E+03   -0.39341E-04   -0.39065E-04  5040   0.575E-04 0.149E-05
 gam= 0.635 trial= 0.508  step= 0.842 mean= 0.508
 gam= 0.752 g(H,U,f)=  0.340E-04 0.920E-05 0.211E-18 ort(H,U,f) =-0.181E-04 0.197E-04-0.242E-17
CGA:  45    -0.963710620335E+03   -0.24886E-04   -0.24617E-04  5040   0.432E-04 0.162E-05
 gam= 0.752 trial= 0.525  step= 0.844 mean= 0.525
 gam= 0.740 g(H,U,f)=  0.270E-04 0.502E-05 0.144E-17 ort(H,U,f) =-0.133E-04 0.126E-04 0.124E-16
CGA:  46    -0.963710638984E+03   -0.18649E-04   -0.18759E-04  5040   0.320E-04-0.691E-06
 gam= 0.740 trial= 0.541  step= 0.786 mean= 0.541
 gam= 0.630 g(H,U,f)=  0.163E-04 0.386E-05 0.486E-24 ort(H,U,f) =-0.884E-05 0.726E-05-0.785E-24
CGA:  47    -0.963710651165E+03   -0.12181E-04   -0.12375E-04  5040   0.202E-04-0.158E-05
 gam= 0.630 trial= 0.553  step= 0.879 mean= 0.553
 gam= 0.769 g(H,U,f)=  0.121E-04 0.343E-05 0.337E-20 ort(H,U,f) =-0.592E-05 0.505E-05-0.638E-22
CGA:  48    -0.963710659443E+03   -0.82784E-05   -0.84192E-05  5040   0.155E-04-0.865E-06
 gam= 0.769 trial= 0.569  step= 0.871 mean= 0.569
 final diagonalization
   1 F= -.96371066E+03 E0= -.96371066E+03  d E =-.218393E-13
 writing wavefunctions
Warning: ieee_invalid is signaling
Warning: ieee_divide_by_zero is signaling
Warning: ieee_underflow is signaling
Warning: ieee_inexact is signaling
FORTRAN STOP
Warning: ieee_invalid is signaling
Warning: ieee_divide_by_zero is signaling
Warning: ieee_underflow is signaling
Warning: ieee_inexact is signaling
FORTRAN STOP
Warning: ieee_invalid is signaling
Warning: ieee_divide_by_zero is signaling
Warning: ieee_underflow is signaling
Warning: ieee_inexact is signaling
FORTRAN STOP
Warning: ieee_invalid is signaling
Warning: ieee_divide_by_zero is signaling
Warning: ieee_underflow is signaling
Warning: ieee_inexact is signaling
FORTRAN STOP
