       N       E                     dE             d eps       ncg     rms          ort
DAV:   1    -0.184130270504E+05   -0.18413E+05   -0.54169E+05  5040   0.743E+03
DAV:   2    -0.620854605237E+05   -0.43672E+05   -0.42326E+05  5040   0.120E+03
DAV:   3    -0.666890492144E+05   -0.46036E+04   -0.41496E+04  5040   0.355E+02
DAV:   4    -0.672400264658E+05   -0.55098E+03   -0.46658E+03  5040   0.105E+02
DAV:   5    -0.373080839124E+05    0.29932E+05   -0.73138E+02  5040   0.546E+01
SDA:   6     0.196811017048E+05    0.56989E+05   -0.73138E+02  5040   0.986E+05 0.000E+00
CGA:   7     0.501608131217E+04   -0.14665E+05   -0.13947E+05  5040   0.537E+05-0.254E+05
CGA:   8     0.202027728698E+04   -0.29958E+04   -0.39265E+04  5040   0.120E+05 0.492E+04
CGA:   9     0.996339809505E+03   -0.10239E+04   -0.10496E+04  5040   0.779E+04-0.551E+03
CGA:  10     0.527049079414E+03   -0.46929E+03   -0.60302E+03  5040   0.884E+04-0.537E+03
CGA:  11     0.175811956474E+03   -0.35124E+03   -0.65375E+03  5040   0.624E+04-0.108E+04
CGA:  12    -0.190573256218E+03   -0.36639E+03   -0.53844E+03  5040   0.251E+04 0.126E+03
CGA:  13    -0.541936800881E+03   -0.35136E+03   -0.36492E+03  5040   0.944E+03 0.156E+03
CGA:  14    -0.717732228015E+03   -0.17580E+03   -0.17549E+03  5040   0.399E+03 0.374E+02
CGA:  15    -0.826551553534E+03   -0.10882E+03   -0.10799E+03  5040   0.225E+03 0.844E+01
CGA:  16    -0.877056656228E+03   -0.50505E+02   -0.50116E+02  5040   0.139E+03 0.146E+01
CGA:  17    -0.908846198305E+03   -0.31790E+02   -0.34010E+02  5040   0.128E+03-0.259E+02
CGA:  18    -0.926919784318E+03   -0.18074E+02   -0.17730E+02  5040   0.808E+02-0.152E+02
CGA:  19    -0.939254541325E+03   -0.12335E+02   -0.12237E+02  5040   0.489E+02-0.599E+01
CGA:  20    -0.947524874321E+03   -0.82703E+01   -0.83024E+01  5040   0.291E+02-0.471E+01
CGA:  21    -0.953277617110E+03   -0.57527E+01   -0.57667E+01  5040   0.174E+02-0.910E-01
CGA:  22    -0.956838223513E+03   -0.35606E+01   -0.35588E+01  5040   0.110E+02 0.325E+00
CGA:  23    -0.959262247501E+03   -0.24240E+01   -0.24067E+01  5040   0.729E+01 0.467E+00
CGA:  24    -0.960921002828E+03   -0.16588E+01   -0.16539E+01  5040   0.496E+01 0.762E-01
CGA:  25    -0.961996526855E+03   -0.10755E+01   -0.10774E+01  5040   0.297E+01-0.386E-01
CGA:  26    -0.962605466791E+03   -0.60894E+00   -0.60940E+00  5040   0.191E+01 0.599E-02
CGA:  27    -0.963012255422E+03   -0.40679E+00   -0.40612E+00  5040   0.117E+01 0.273E-01
CGA:  28    -0.963255376647E+03   -0.24312E+00   -0.24290E+00  5040   0.765E+00 0.101E-01
CGA:  29    -0.963415258354E+03   -0.15988E+00   -0.15983E+00  5040   0.476E+00 0.247E-02
CGA:  30    -0.963513438523E+03   -0.98180E-01   -0.98161E-01  5040   0.326E+00 0.195E-02
CGA:  31    -0.963586388589E+03   -0.72950E-01   -0.72902E-01  5040   0.201E+00 0.130E-02
CGA:  32    -0.963629393918E+03   -0.43005E-01   -0.42991E-01  5040   0.123E+00 0.216E-03
CGA:  33    -0.963659057118E+03   -0.29663E-01   -0.29670E-01  5040   0.756E-01-0.106E-03
CGA:  34    -0.963676375079E+03   -0.17318E-01   -0.17318E-01  5040   0.498E-01 0.104E-03
CGA:  35    -0.963688270633E+03   -0.11896E-01   -0.11886E-01  5040   0.324E-01 0.209E-03
CGA:  36    -0.963695750884E+03   -0.74803E-02   -0.74770E-02  5040   0.225E-01 0.753E-04
SDA:  37    -0.963700908519E+03   -0.51576E-02   -0.51569E-02  5040   0.143E-01 0.284E-04
CGA:  38    -0.963706968416E+03   -0.60599E-02   -0.60476E-02  5040   0.688E-02 0.558E-04
CGA:  39    -0.963708996503E+03   -0.20281E-02   -0.20256E-02  5040   0.340E-02 0.316E-04
CGA:  40    -0.963710026582E+03   -0.10301E-02   -0.10277E-02  5040   0.882E-03 0.293E-04
CGA:  41    -0.963710365646E+03   -0.33906E-03   -0.33693E-03  5040   0.362E-03 0.137E-04
CGA:  42    -0.963710499450E+03   -0.13380E-03   -0.13260E-03  5040   0.140E-03 0.919E-05
CGA:  43    -0.963710556107E+03   -0.56657E-04   -0.56617E-04  5040   0.906E-04 0.267E-06
CGA:  44    -0.963710595449E+03   -0.39341E-04   -0.39065E-04  5040   0.575E-04 0.149E-05
CGA:  45    -0.963710620335E+03   -0.24886E-04   -0.24617E-04  5040   0.432E-04 0.162E-05
CGA:  46    -0.963710638984E+03   -0.18649E-04   -0.18759E-04  5040   0.320E-04-0.691E-06
CGA:  47    -0.963710651165E+03   -0.12181E-04   -0.12375E-04  5040   0.202E-04-0.158E-05
CGA:  48    -0.963710659443E+03   -0.82784E-05   -0.84192E-05  5040   0.155E-04-0.865E-06
   1 F= -.96371066E+03 E0= -.96371066E+03  d E =-.218393E-13
