Ga8 O12                                 
    1.000000000000000     
     0.0000000000000000   12.2804737091000007    0.0000000000000000
     9.1427011490000005    0.0000000000000000    0.0000000000000000
     0.0000000000000000   -2.7682616411000001  -11.3006974810000003
   Ga   O    N    Fe
    47    71     1     1
Direct
  0.6577591961663316  0.0004755844202791  0.1587839357793968
  0.6585288652902435  0.9991202916395636  0.6557095802026112
  0.6577591961663316  0.3328574155797241  0.1587839357793968
  0.6585288652902435  0.3342127083604396  0.6557095802026112
  0.6584433214838015  0.6666669999999968  0.1571222061218123
  0.6588348739069261  0.6666669999999968  0.6568811258100027
  0.8392022270268811  0.1666669999999968  0.3455347949420400
  0.8410138903642661  0.1666669999999968  0.8427560517850097
  0.8412694640197884  0.5002710366446337  0.3433568906784146
  0.8407982210869278  0.5000827895554636  0.8434329636730169
  0.8412694640197884  0.8330619633553695  0.3433568906784146
  0.8407982210869278  0.8332502104445396  0.8434329636730169
  0.5914809322114749  0.1666669999999968  0.8974591996088037
  0.5910986204154653  0.4979021656568676  0.3976622130284611
  0.5914306694929365  0.4998615753284668  0.8984554644688032
  0.5910986204154653  0.8354308343431356  0.3976622130284611
  0.5914306694929365  0.8334714246715365  0.8984554644688032
  0.9079471508521024  0.9999718177919377  0.1023477471168874
  0.9108840635236817  0.9994218164617763  0.6034798818629525
  0.9079471508521024  0.3333611822080655  0.1023477471168874
  0.9108840635236817  0.3339111835382269  0.6034798818629525
  0.9087332118353686  0.6666669999999968  0.1025531383973828
  0.9092198558568114  0.6666669999999968  0.6024889478626463
  0.1580194402492054  0.1666669999999968  0.1560632184137134
  0.1598783866892504  0.1666669999999968  0.6564824995209761
  0.1587448958515836  0.4998453520916613  0.1569242053062396
  0.1597019033508644  0.5001119297177681  0.6566955680128785
  0.1587448958515836  0.8334876479083420  0.1569242053062396
  0.1597019033508644  0.8332210702822351  0.6566955680128785
  0.3402595081088506  0.0018141620669567  0.3429445933708877
  0.3412876611263584  0.0003393033000592  0.8435582146322744
  0.3402595081088506  0.3315188379330465  0.3429445933708877
  0.3412876611263584  0.3329936966999441  0.8435582146322744
  0.3420774009708225  0.6666669999999968  0.3429080048856932
  0.3412138853669830  0.6666669999999968  0.8428965924194003
  0.0901214006762601  0.0003484210307008  0.3974163572237472
  0.0913133243121891  0.9999433428405737  0.8974866385722109
  0.0901214006762601  0.3329845789693024  0.3974163572237472
  0.0913133243121891  0.3333896571594295  0.8974866385722109
  0.0917196705822505  0.6666669999999968  0.3977855106861270
  0.0912963007042578  0.6666669999999968  0.8975663814123607
  0.4091123900459905  0.1666669999999968  0.1029664679870379
  0.4091574738196186  0.1666669999999968  0.6016692884317507
  0.4076592004107624  0.5006410043809595  0.1012950369861869
  0.4092279129515930  0.4999432416000431  0.6025286207301406
  0.4076592004107624  0.8326919956190437  0.1012950369861869
  0.4092279129515930  0.8333897583999601  0.6025286207301406
  0.9956245748039763  0.1666669999999968  0.1266088175561109
  0.9974761820450126  0.1666669999999968  0.6282989969849737
  0.9960912758593139  0.4998670136961536  0.1267461463671538
  0.9975107113417963  0.5008661697314594  0.6285452852339475
  0.9960912758593139  0.8334659863038496  0.1267461463671538
  0.9975107113417963  0.8324668302685438  0.6285452852339475
  0.5053605507947552  0.0071713207198414  0.3748652497329061
  0.5038788111864605  0.0000832242577715  0.8722807544841515
  0.5053605507947552  0.3261616792801618  0.3748652497329061
  0.5038788111864605  0.3332497757422317  0.8722807544841515
  0.5045407259690151  0.6666669999999968  0.3729022127182233
  0.5039098558881037  0.6666669999999968  0.8729379048486052
  0.6719907240115077  0.1666669999999968  0.7781486856540383
  0.6723283748591200  0.5018170942706703  0.2810736452604274
  0.6725403310325291  0.4999133495057038  0.7805732438747697
  0.6723283748591200  0.8315159057293329  0.2810736452604274
  0.6725403310325291  0.8334196504942994  0.7805732438747697
  0.8275276598294425  0.9990997609173178  0.2201024412664196
  0.8268508999447874  0.0008981351177582  0.7184142433654728
  0.8275276598294425  0.3342332390826854  0.2201024412664196
  0.8268508999447874  0.3324348648822451  0.7184142433654728
  0.8274129041502718  0.6666669999999968  0.2196436174267191
  0.8272979011489312  0.6666669999999968  0.7194051212424952
  0.8346325012142231  0.9979088447016125  0.4474589459500677
  0.8316955370743528  0.0002486911595483  0.9452095456148442
  0.8346325012142231  0.3354241552983908  0.4474589459500677
  0.8316955370743528  0.3330843088404549  0.9452095456148442
  0.8327967869243125  0.6666669999999968  0.4461223083026340
  0.8317893067956064  0.6666669999999968  0.9458426071676982
  0.6682186788558013  0.1666669999999968  0.0542884424661239
  0.6630220303731491  0.1666669999999968  0.5482700963914127
  0.6674239729659632  0.4993423521803564  0.0552173005674419
  0.6674041366674501  0.5002284878477994  0.5541459239046205
  0.6674239729659632  0.8339906478196468  0.0552173005674419
  0.6674041366674501  0.8331045121522038  0.5541459239046205
  0.4945944030678504  0.9987426922663118  0.1256820574911544
  0.4964045078415822  0.0000506310293815  0.6271194539595513
  0.4945944030678504  0.3345903077336914  0.1256820574911544
  0.4964045078415822  0.3332823689706217  0.6271194539595513
  0.4954821260759701  0.6666669999999968  0.1267047664119758
  0.4963910616636724  0.6666669999999968  0.6275399061995444
  0.0024748142711815  0.1666669999999968  0.3726581307620549
  0.0037162853540522  0.1666669999999968  0.8727211724556625
  0.0040615726039235  0.5005913657557457  0.3725170722230970
  0.0035348273362672  0.4999702081983202  0.8727443973756621
  0.0040615726039235  0.8327416342442575  0.3725170722230970
  0.0035348273362672  0.8333627918016830  0.8727443973756621
  0.1719079847945792  0.9999506406583762  0.2802664813536211
  0.1729127331406701  0.0000971653248385  0.7804223418284053
  0.1719079847945792  0.3333823593416270  0.2802664813536211
  0.1729127331406701  0.3332358346751647  0.7804223418284053
  0.1734889341666630  0.6666669999999968  0.2807507549020372
  0.1728166264372106  0.6666669999999968  0.7803408779359771
  0.3265480575200428  0.1666669999999968  0.2193831778874937
  0.3279087506786951  0.1666669999999968  0.7193373930266489
  0.3280323709620987  0.4992232120884239  0.2200606909191976
  0.3278021247804546  0.4998288208422252  0.7194117423177175
  0.3280323709620987  0.8341097879115793  0.2200606909191976
  0.3278021247804546  0.8335041791577780  0.7194117423177175
  0.3299006097008785  0.1666669999999968  0.4459435073908793
  0.3322202802123257  0.1666669999999968  0.9459658842195680
  0.3346416448551253  0.4991057669165642  0.4452209897826265
  0.3311972037375313  0.5002698912226933  0.9448532523819964
  0.3346416448551253  0.8342272330834390  0.4452209897826265
  0.3311972037375313  0.8330631087773099  0.9448532523819964
  0.1679251913518982  0.9998424323479540  0.0541859877681787
  0.1678018078360424  0.9997627023416911  0.5538783167441323
  0.1679251913518982  0.3334905676520492  0.0541859877681787
  0.1678018078360424  0.3335702976583121  0.5538783167441323
  0.1682401647487026  0.6666669999999968  0.0544717609801566
  0.1694051251131583  0.6666669999999968  0.5541128487665361
  0.6683654235893428  0.1666669999999968  0.2851588954357496
  0.5953724229602386  0.1666669999999968  0.3931618417565659
 
  0.00000000E+00  0.00000000E+00  0.00000000E+00
  0.00000000E+00  0.00000000E+00  0.00000000E+00
  0.00000000E+00  0.00000000E+00  0.00000000E+00
  0.00000000E+00  0.00000000E+00  0.00000000E+00
  0.00000000E+00  0.00000000E+00  0.00000000E+00
  0.00000000E+00  0.00000000E+00  0.00000000E+00
  0.00000000E+00  0.00000000E+00  0.00000000E+00
  0.00000000E+00  0.00000000E+00  0.00000000E+00
  0.00000000E+00  0.00000000E+00  0.00000000E+00
  0.00000000E+00  0.00000000E+00  0.00000000E+00
  0.00000000E+00  0.00000000E+00  0.00000000E+00
  0.00000000E+00  0.00000000E+00  0.00000000E+00
  0.00000000E+00  0.00000000E+00  0.00000000E+00
  0.00000000E+00  0.00000000E+00  0.00000000E+00
  0.00000000E+00  0.00000000E+00  0.00000000E+00
  0.00000000E+00  0.00000000E+00  0.00000000E+00
  0.00000000E+00  0.00000000E+00  0.00000000E+00
  0.00000000E+00  0.00000000E+00  0.00000000E+00
  0.00000000E+00  0.00000000E+00  0.00000000E+00
  0.00000000E+00  0.00000000E+00  0.00000000E+00
  0.00000000E+00  0.00000000E+00  0.00000000E+00
  0.00000000E+00  0.00000000E+00  0.00000000E+00
  0.00000000E+00  0.00000000E+00  0.00000000E+00
  0.00000000E+00  0.00000000E+00  0.00000000E+00
  0.00000000E+00  0.00000000E+00  0.00000000E+00
  0.00000000E+00  0.00000000E+00  0.00000000E+00
  0.00000000E+00  0.00000000E+00  0.00000000E+00
  0.00000000E+00  0.00000000E+00  0.00000000E+00
  0.00000000E+00  0.00000000E+00  0.00000000E+00
  0.00000000E+00  0.00000000E+00  0.00000000E+00
  0.00000000E+00  0.00000000E+00  0.00000000E+00
  0.00000000E+00  0.00000000E+00  0.00000000E+00
  0.00000000E+00  0.00000000E+00  0.00000000E+00
  0.00000000E+00  0.00000000E+00  0.00000000E+00
  0.00000000E+00  0.00000000E+00  0.00000000E+00
  0.00000000E+00  0.00000000E+00  0.00000000E+00
  0.00000000E+00  0.00000000E+00  0.00000000E+00
  0.00000000E+00  0.00000000E+00  0.00000000E+00
  0.00000000E+00  0.00000000E+00  0.00000000E+00
  0.00000000E+00  0.00000000E+00  0.00000000E+00
  0.00000000E+00  0.00000000E+00  0.00000000E+00
  0.00000000E+00  0.00000000E+00  0.00000000E+00
  0.00000000E+00  0.00000000E+00  0.00000000E+00
  0.00000000E+00  0.00000000E+00  0.00000000E+00
  0.00000000E+00  0.00000000E+00  0.00000000E+00
  0.00000000E+00  0.00000000E+00  0.00000000E+00
  0.00000000E+00  0.00000000E+00  0.00000000E+00
  0.00000000E+00  0.00000000E+00  0.00000000E+00
  0.00000000E+00  0.00000000E+00  0.00000000E+00
  0.00000000E+00  0.00000000E+00  0.00000000E+00
  0.00000000E+00  0.00000000E+00  0.00000000E+00
  0.00000000E+00  0.00000000E+00  0.00000000E+00
  0.00000000E+00  0.00000000E+00  0.00000000E+00
  0.00000000E+00  0.00000000E+00  0.00000000E+00
  0.00000000E+00  0.00000000E+00  0.00000000E+00
  0.00000000E+00  0.00000000E+00  0.00000000E+00
  0.00000000E+00  0.00000000E+00  0.00000000E+00
  0.00000000E+00  0.00000000E+00  0.00000000E+00
  0.00000000E+00  0.00000000E+00  0.00000000E+00
  0.00000000E+00  0.00000000E+00  0.00000000E+00
  0.00000000E+00  0.00000000E+00  0.00000000E+00
  0.00000000E+00  0.00000000E+00  0.00000000E+00
  0.00000000E+00  0.00000000E+00  0.00000000E+00
  0.00000000E+00  0.00000000E+00  0.00000000E+00
  0.00000000E+00  0.00000000E+00  0.00000000E+00
  0.00000000E+00  0.00000000E+00  0.00000000E+00
  0.00000000E+00  0.00000000E+00  0.00000000E+00
  0.00000000E+00  0.00000000E+00  0.00000000E+00
  0.00000000E+00  0.00000000E+00  0.00000000E+00
  0.00000000E+00  0.00000000E+00  0.00000000E+00
  0.00000000E+00  0.00000000E+00  0.00000000E+00
  0.00000000E+00  0.00000000E+00  0.00000000E+00
  0.00000000E+00  0.00000000E+00  0.00000000E+00
  0.00000000E+00  0.00000000E+00  0.00000000E+00
  0.00000000E+00  0.00000000E+00  0.00000000E+00
  0.00000000E+00  0.00000000E+00  0.00000000E+00
  0.00000000E+00  0.00000000E+00  0.00000000E+00
  0.00000000E+00  0.00000000E+00  0.00000000E+00
  0.00000000E+00  0.00000000E+00  0.00000000E+00
  0.00000000E+00  0.00000000E+00  0.00000000E+00
  0.00000000E+00  0.00000000E+00  0.00000000E+00
  0.00000000E+00  0.00000000E+00  0.00000000E+00
  0.00000000E+00  0.00000000E+00  0.00000000E+00
  0.00000000E+00  0.00000000E+00  0.00000000E+00
  0.00000000E+00  0.00000000E+00  0.00000000E+00
  0.00000000E+00  0.00000000E+00  0.00000000E+00
  0.00000000E+00  0.00000000E+00  0.00000000E+00
  0.00000000E+00  0.00000000E+00  0.00000000E+00
  0.00000000E+00  0.00000000E+00  0.00000000E+00
  0.00000000E+00  0.00000000E+00  0.00000000E+00
  0.00000000E+00  0.00000000E+00  0.00000000E+00
  0.00000000E+00  0.00000000E+00  0.00000000E+00
  0.00000000E+00  0.00000000E+00  0.00000000E+00
  0.00000000E+00  0.00000000E+00  0.00000000E+00
  0.00000000E+00  0.00000000E+00  0.00000000E+00
  0.00000000E+00  0.00000000E+00  0.00000000E+00
  0.00000000E+00  0.00000000E+00  0.00000000E+00
  0.00000000E+00  0.00000000E+00  0.00000000E+00
  0.00000000E+00  0.00000000E+00  0.00000000E+00
  0.00000000E+00  0.00000000E+00  0.00000000E+00
  0.00000000E+00  0.00000000E+00  0.00000000E+00
  0.00000000E+00  0.00000000E+00  0.00000000E+00
  0.00000000E+00  0.00000000E+00  0.00000000E+00
  0.00000000E+00  0.00000000E+00  0.00000000E+00
  0.00000000E+00  0.00000000E+00  0.00000000E+00
  0.00000000E+00  0.00000000E+00  0.00000000E+00
  0.00000000E+00  0.00000000E+00  0.00000000E+00
  0.00000000E+00  0.00000000E+00  0.00000000E+00
  0.00000000E+00  0.00000000E+00  0.00000000E+00
  0.00000000E+00  0.00000000E+00  0.00000000E+00
  0.00000000E+00  0.00000000E+00  0.00000000E+00
  0.00000000E+00  0.00000000E+00  0.00000000E+00
  0.00000000E+00  0.00000000E+00  0.00000000E+00
  0.00000000E+00  0.00000000E+00  0.00000000E+00
  0.00000000E+00  0.00000000E+00  0.00000000E+00
  0.00000000E+00  0.00000000E+00  0.00000000E+00
  0.00000000E+00  0.00000000E+00  0.00000000E+00
  0.00000000E+00  0.00000000E+00  0.00000000E+00
  0.00000000E+00  0.00000000E+00  0.00000000E+00
  0.00000000E+00  0.00000000E+00  0.00000000E+00
