 running    4 mpi-ranks, on    1 nodes
 distrk:  each k-point on    1 cores,    4 groups
 distr:  one band on    1 cores,    1 groups
 OpenACC runtime initialized ...    4 GPUs detected
 vasp.6.4.2 20Jul23 (build Nov 12 2023 22:16:35) complex                         
 POSCAR found type information on POSCAR GaO N Fe
 POSCAR found :  4 types and     120 ions
 scaLAPACK will be used selectively (only on CPU)
 LDA part: xc-table for Pade appr. of Perdew
 POSCAR, INCAR and KPOINTS ok, starting setup
 FFT: planning ... GRIDC
 FFT: planning ... GRID_SOFT
 FFT: planning ... GRID
 WAVECAR not read
 initial charge from wavefunction
 entering main loop
       N       E                     dE             d eps       ncg     rms          ort
DAV:   1    -0.183714675486E+05   -0.18371E+05   -0.54165E+05  5040   0.744E+03
DAV:   2    -0.622843478224E+05   -0.43913E+05   -0.42349E+05  5040   0.121E+03
DAV:   3    -0.669499261978E+05   -0.46656E+04   -0.42338E+04  5040   0.357E+02
DAV:   4    -0.675400798355E+05   -0.59015E+03   -0.50198E+03  5040   0.108E+02
DAV:   5    -0.376310608587E+05    0.29909E+05   -0.74493E+02  5040   0.559E+01
 gam= 0.000 g(H,U,f)=  0.727E+05 0.208E+05 0.270E+04 ort(H,U,f) = 0.000E+00 0.000E+00 0.000E+00
SDA:   6     0.227053925315E+05    0.60336E+05   -0.74493E+02  5040   0.962E+05 0.000E+00
 gam= 0.000 trial= 0.400  step= 0.285 mean= 0.400
 gam= 0.623 g(H,U,f)=  0.174E+05 0.384E+05 0.417E+04 ort(H,U,f) = 0.101E+05-0.357E+05-0.662E+04
CGA:   7     0.525792553104E+04   -0.17447E+05   -0.13702E+05  5040   0.599E+05-0.323E+05
 gam= 0.623 trial= 0.394  step= 0.169 mean= 0.394
 gam= 0.618 g(H,U,f)=  0.153E+05 0.199E+05 0.188E+04 ort(H,U,f) = 0.825E+04-0.450E+04 0.943E+03
CGA:   8     0.446959249159E+04   -0.78833E+03   -0.33702E+04  5040   0.370E+05 0.469E+04
 gam= 0.618 trial= 0.383  step= 0.161 mean= 0.383
 gam= 0.287 g(H,U,f)=  0.802E+04 0.249E+04 0.125E+03 ort(H,U,f) = 0.362E+03 0.124E+04-0.762E+02
CGA:   9     0.183129179331E+04   -0.26383E+04   -0.32229E+04  5040   0.106E+05 0.153E+04
 gam= 0.287 trial= 0.372  step= 0.213 mean= 0.372
 gam= 0.542 g(H,U,f)=  0.414E+04 0.158E+04 0.450E+02 ort(H,U,f) = 0.776E+03 0.753E+02 0.428E+02
CGA:  10     0.819177844361E+03   -0.10121E+04   -0.11792E+04  5040   0.576E+04 0.894E+03
 gam= 0.542 trial= 0.364  step= 0.234 mean= 0.364
 gam= 0.536 g(H,U,f)=  0.265E+04 0.438E+03 0.452E+01 ort(H,U,f) = 0.784E+02 0.142E+03-0.137E+02
CGA:  11     0.178440428737E+03   -0.64074E+03   -0.73141E+03  5040   0.309E+04 0.206E+03
 gam= 0.536 trial= 0.357  step= 0.303 mean= 0.357
 gam= 0.427 g(H,U,f)=  0.112E+04 0.189E+03 0.698E+01 ort(H,U,f) = 0.677E+02 0.151E+03-0.916E+00
CGA:  12    -0.288956475786E+03   -0.46740E+03   -0.48458E+03  5040   0.132E+04 0.218E+03
 gam= 0.427 trial= 0.355  step= 0.441 mean= 0.355
 gam= 0.495 g(H,U,f)=  0.494E+03 0.155E+03 0.399E+01 ort(H,U,f) =-0.484E+02 0.841E+02 0.239E+01
CGA:  13    -0.606224265964E+03   -0.31727E+03   -0.31157E+03  5040   0.653E+03 0.381E+02
 gam= 0.495 trial= 0.359  step= 0.434 mean= 0.359
 gam= 0.869 g(H,U,f)=  0.382E+03 0.182E+03 0.356E+01 ort(H,U,f) =-0.206E+02-0.539E+02-0.889E+01
CGA:  14    -0.746711323245E+03   -0.14049E+03   -0.14579E+03  5040   0.568E+03-0.834E+02
 gam= 0.869 trial= 0.363  step= 0.407 mean= 0.363
 gam= 0.423 g(H,U,f)=  0.208E+03 0.319E+02 0.904E-01 ort(H,U,f) =-0.850E+02 0.644E+02 0.104E+01
CGA:  15    -0.846870260724E+03   -0.10016E+03   -0.10072E+03  5040   0.240E+03-0.196E+02
 gam= 0.423 trial= 0.365  step= 0.313 mean= 0.365
 gam= 1.030 g(H,U,f)=  0.143E+03 0.761E+02 0.285E+02 ort(H,U,f) = 0.299E+02-0.291E+02-0.188E+02
CGA:  16    -0.884114883310E+03   -0.37245E+02   -0.36225E+02  5040   0.247E+03-0.180E+02
 gam= 1.030 trial= 0.362  step= 0.258 mean= 0.362
 gam= 0.490 g(H,U,f)=  0.881E+02 0.257E+02 0.720E+01 ort(H,U,f) =-0.113E+02 0.742E+01-0.748E+01
CGA:  17    -0.913528429363E+03   -0.29414E+02   -0.29484E+02  5040   0.121E+03-0.114E+02
 gam= 0.490 trial= 0.357  step= 0.249 mean= 0.357
 gam= 0.578 g(H,U,f)=  0.551E+02 0.145E+02 0.290E+00 ort(H,U,f) = 0.958E+01-0.851E+01-0.256E+01
CGA:  18    -0.928338954089E+03   -0.14811E+02   -0.14390E+02  5040   0.699E+02-0.149E+01
 gam= 0.578 trial= 0.352  step= 0.363 mean= 0.352
 gam= 0.682 g(H,U,f)=  0.292E+02 0.184E+02 0.125E-01 ort(H,U,f) =-0.475E+01 0.508E+01-0.118E+00
CGA:  19    -0.940877051715E+03   -0.12538E+02   -0.12547E+02  5040   0.476E+02 0.218E+00
 gam= 0.682 trial= 0.352  step= 0.273 mean= 0.352
 gam= 0.597 g(H,U,f)=  0.217E+02 0.659E+01 0.154E+00 ort(H,U,f) =-0.655E+01 0.626E+01 0.343E+00
CGA:  20    -0.947360406348E+03   -0.64834E+01   -0.65313E+01  5040   0.284E+02 0.515E-01
 gam= 0.597 trial= 0.348  step= 0.384 mean= 0.348
 gam= 0.877 g(H,U,f)=  0.174E+02 0.756E+01 0.210E-14 ort(H,U,f) =-0.201E+01 0.137E+01 0.453E-16
CGA:  21    -0.952808285436E+03   -0.54479E+01   -0.54632E+01  5040   0.249E+02-0.636E+00
 gam= 0.877 trial= 0.350  step= 0.298 mean= 0.350
 gam= 0.467 g(H,U,f)=  0.927E+01 0.237E+01 0.169E-10 ort(H,U,f) =-0.260E+01 0.291E+01 0.462E-10
CGA:  22    -0.956422894733E+03   -0.36146E+01   -0.36386E+01  5040   0.116E+02 0.305E+00
 gam= 0.467 trial= 0.348  step= 0.326 mean= 0.348
 gam= 0.776 g(H,U,f)=  0.660E+01 0.244E+01 0.351E-11 ort(H,U,f) =-0.289E+00 0.454E+00 0.582E-10
CGA:  23    -0.958341023285E+03   -0.19181E+01   -0.19190E+01  5040   0.904E+01 0.165E+00
 gam= 0.776 trial= 0.346  step= 0.389 mean= 0.346
 gam= 0.644 g(H,U,f)=  0.408E+01 0.174E+01 0.107E-19 ort(H,U,f) =-0.984E+00 0.121E+01-0.644E-18
CGA:  24    -0.960129414556E+03   -0.17884E+01   -0.17829E+01  5040   0.582E+01 0.231E+00
 gam= 0.644 trial= 0.349  step= 0.292 mean= 0.349
 gam= 0.485 g(H,U,f)=  0.224E+01 0.585E+00 0.352E-11 ort(H,U,f) =-0.282E+00 0.375E+00 0.193E-10
CGA:  25    -0.960992603076E+03   -0.86319E+00   -0.87105E+00  5040   0.282E+01 0.930E-01
 gam= 0.485 trial= 0.346  step= 0.437 mean= 0.346
 gam= 0.803 g(H,U,f)=  0.150E+01 0.762E+00 0.136E-18 ort(H,U,f) =-0.159E+00 0.162E+00 0.298E-19
CGA:  26    -0.961619669365E+03   -0.62707E+00   -0.62608E+00  5040   0.227E+01 0.361E-02
 gam= 0.803 trial= 0.350  step= 0.365 mean= 0.350
 gam= 0.530 g(H,U,f)=  0.984E+00 0.217E+00 0.171E-10 ort(H,U,f) =-0.314E+00 0.309E+00-0.459E-10
CGA:  27    -0.962033521455E+03   -0.41385E+00   -0.41392E+00  5040   0.120E+01-0.523E-02
 gam= 0.530 trial= 0.351  step= 0.411 mean= 0.351
 gam= 0.817 g(H,U,f)=  0.718E+00 0.263E+00 0.521E-15 ort(H,U,f) =-0.500E-01 0.558E-01-0.208E-16
CGA:  28    -0.962279445196E+03   -0.24592E+00   -0.24589E+00  5040   0.981E+00 0.580E-02
 gam= 0.817 trial= 0.354  step= 0.367 mean= 0.354
 gam= 0.580 g(H,U,f)=  0.445E+00 0.125E+00 0.182E-13 ort(H,U,f) =-0.134E+00 0.141E+00-0.182E-12
CGA:  29    -0.962460273599E+03   -0.18083E+00   -0.18076E+00  5040   0.569E+00 0.667E-02
 gam= 0.580 trial= 0.355  step= 0.362 mean= 0.355
 gam= 0.749 g(H,U,f)=  0.327E+00 0.993E-01 0.462E-14 ort(H,U,f) =-0.669E-01 0.664E-01-0.299E-13
CGA:  30    -0.962564022643E+03   -0.10375E+00   -0.10374E+00  5040   0.427E+00-0.460E-03
 gam= 0.749 trial= 0.355  step= 0.404 mean= 0.355
 gam= 0.666 g(H,U,f)=  0.213E+00 0.711E-01 0.193E-13 ort(H,U,f) =-0.836E-01 0.806E-01-0.447E-14
CGA:  31    -0.962649959153E+03   -0.85937E-01   -0.86021E-01  5040   0.284E+00-0.302E-02
 gam= 0.666 trial= 0.357  step= 0.372 mean= 0.357
 gam= 0.645 g(H,U,f)=  0.144E+00 0.391E-01 0.912E-14 ort(H,U,f) =-0.534E-01 0.532E-01 0.709E-13
CGA:  32    -0.962702464208E+03   -0.52505E-01   -0.52513E-01  5040   0.183E+00-0.264E-03
 gam= 0.645 trial= 0.358  step= 0.504 mean= 0.358
 gam= 0.823 g(H,U,f)=  0.109E+00 0.414E-01 0.157E-15 ort(H,U,f) =-0.410E-01 0.418E-01 0.236E-14
CGA:  33    -0.962748625708E+03   -0.46162E-01   -0.46111E-01  5040   0.151E+00 0.867E-03
 gam= 0.823 trial= 0.365  step= 0.415 mean= 0.365
 gam= 0.698 g(H,U,f)=  0.843E-01 0.210E-01 0.258E-16 ort(H,U,f) =-0.340E-01 0.338E-01-0.822E-16
CGA:  34    -0.962780050919E+03   -0.31425E-01   -0.31429E-01  5040   0.105E+00-0.178E-03
 gam= 0.698 trial= 0.368  step= 0.503 mean= 0.368
 gam= 1.001 g(H,U,f)=  0.745E-01 0.310E-01 0.787E-13 ort(H,U,f) =-0.229E-01 0.222E-01 0.852E-13
CGA:  35    -0.962806473483E+03   -0.26423E-01   -0.26466E-01  5040   0.105E+00-0.671E-03
 gam= 1.001 trial= 0.375  step= 0.401 mean= 0.375
 gam= 0.704 g(H,U,f)=  0.605E-01 0.137E-01 0.476E-18 ort(H,U,f) =-0.276E-01 0.274E-01 0.143E-18
CGA:  36    -0.962827490486E+03   -0.21017E-01   -0.21020E-01  5040   0.742E-01-0.141E-03
 gam= 0.704 trial= 0.376  step= 0.424 mean= 0.376
 gam= 0.000 g(H,U,f)=  0.460E-01 0.186E-01 0.583E-19 ort(H,U,f) =-0.152E-01 0.154E-01 0.150E-18
SDA:  37    -0.962843195013E+03   -0.15705E-01   -0.15701E-01  5040   0.646E-01 0.207E-03
 gam= 0.000 trial= 0.378  step= 0.539 mean= 0.378
 gam= 0.544 g(H,U,f)=  0.190E-01 0.161E-01 0.210E-19 ort(H,U,f) =-0.698E-03 0.877E-03 0.117E-19
CGA:  38    -0.962860621414E+03   -0.17426E-01   -0.17408E-01  5040   0.352E-01 0.179E-03
 gam= 0.544 trial= 0.386  step= 0.694 mean= 0.386
 gam= 0.442 g(H,U,f)=  0.107E-01 0.487E-02 0.251E-14 ort(H,U,f) =-0.685E-02 0.685E-02 0.775E-14
CGA:  39    -0.962872851819E+03   -0.12230E-01   -0.12232E-01  5040   0.155E-01-0.293E-05
 gam= 0.442 trial= 0.402  step= 0.878 mean= 0.402
 gam= 0.556 g(H,U,f)=  0.630E-02 0.234E-02 0.156E-16 ort(H,U,f) =-0.461E-02 0.462E-02 0.211E-15
CGA:  40    -0.962879682312E+03   -0.68305E-02   -0.68271E-02  5040   0.865E-02 0.125E-04
 gam= 0.556 trial= 0.426  step= 1.045 mean= 0.426
 gam= 0.923 g(H,U,f)=  0.596E-02 0.202E-02 0.754E-15 ort(H,U,f) =-0.314E-02 0.318E-02-0.258E-14
CGA:  41    -0.962884216635E+03   -0.45343E-02   -0.45237E-02  5040   0.798E-02 0.351E-04
 gam= 0.923 trial= 0.457  step= 1.014 mean= 0.457
 gam= 1.075 g(H,U,f)=  0.613E-02 0.245E-02 0.735E-21 ort(H,U,f) =-0.324E-02 0.332E-02-0.540E-21
CGA:  42    -0.962888301001E+03   -0.40844E-02   -0.40652E-02  5040   0.858E-02 0.739E-04
 gam= 1.075 trial= 0.485  step= 1.040 mean= 0.485
 gam= 1.215 g(H,U,f)=  0.774E-02 0.268E-02 0.813E-17 ort(H,U,f) =-0.353E-02 0.349E-02 0.262E-17
CGA:  43    -0.962892796538E+03   -0.44955E-02   -0.45036E-02  5040   0.104E-01-0.346E-04
 gam= 1.215 trial= 0.512  step= 0.916 mean= 0.512
 gam= 0.759 g(H,U,f)=  0.686E-02 0.106E-02 0.165E-14 ort(H,U,f) =-0.342E-02 0.357E-02 0.194E-14
CGA:  44    -0.962897581819E+03   -0.47853E-02   -0.47537E-02  5040   0.792E-02 0.147E-03
 gam= 0.759 trial= 0.532  step= 0.783 mean= 0.532
 gam= 0.573 g(H,U,f)=  0.397E-02 0.564E-03 0.757E-22 ort(H,U,f) =-0.172E-02 0.170E-02-0.175E-20
CGA:  45    -0.962900719700E+03   -0.31379E-02   -0.31405E-02  5040   0.454E-02-0.174E-04
 gam= 0.573 trial= 0.545  step= 0.679 mean= 0.545
 gam= 0.411 g(H,U,f)=  0.168E-02 0.180E-03 0.182E-19 ort(H,U,f) =-0.655E-03 0.639E-03 0.264E-18
CGA:  46    -0.962902256330E+03   -0.15366E-02   -0.15376E-02  5040   0.186E-02-0.157E-04
 gam= 0.411 trial= 0.552  step= 0.693 mean= 0.552
 gam= 0.495 g(H,U,f)=  0.796E-03 0.128E-03 0.129E-19 ort(H,U,f) =-0.211E-03 0.201E-03 0.374E-19
CGA:  47    -0.962902899292E+03   -0.64296E-03   -0.64367E-03  5040   0.924E-03-0.101E-04
 gam= 0.495 trial= 0.559  step= 0.650 mean= 0.559
 gam= 0.511 g(H,U,f)=  0.388E-03 0.842E-04 0.484E-18 ort(H,U,f) =-0.151E-03 0.142E-03-0.122E-17
CGA:  48    -0.962903197553E+03   -0.29826E-03   -0.29868E-03  5040   0.472E-03-0.898E-05
 gam= 0.511 trial= 0.563  step= 0.687 mean= 0.563
 gam= 0.656 g(H,U,f)=  0.248E-03 0.616E-04 0.402E-17 ort(H,U,f) =-0.118E-03 0.107E-03-0.321E-17
CGA:  49    -0.962903357315E+03   -0.15976E-03   -0.16043E-03  5040   0.310E-03-0.109E-04
 gam= 0.656 trial= 0.569  step= 0.738 mean= 0.569
 gam= 0.635 g(H,U,f)=  0.167E-03 0.294E-04 0.161E-17 ort(H,U,f) =-0.898E-04 0.842E-04 0.469E-17
CGA:  50    -0.962903468463E+03   -0.11115E-03   -0.11162E-03  5040   0.197E-03-0.551E-05
 gam= 0.635 trial= 0.578  step= 0.693 mean= 0.578
 gam= 0.688 g(H,U,f)=  0.114E-03 0.209E-04 0.133E-18 ort(H,U,f) =-0.548E-04 0.531E-04 0.179E-17
CGA:  51    -0.962903535290E+03   -0.66827E-04   -0.66930E-04  5040   0.135E-03-0.175E-05
 gam= 0.688 trial= 0.584  step= 0.705 mean= 0.584
 gam= 0.654 g(H,U,f)=  0.743E-04 0.141E-04 0.568E-26 ort(H,U,f) =-0.370E-04 0.353E-04-0.964E-25
CGA:  52    -0.962903582414E+03   -0.47125E-04   -0.47228E-04  5040   0.884E-04-0.170E-05
 gam= 0.654 trial= 0.590  step= 0.679 mean= 0.590
 gam= 0.620 g(H,U,f)=  0.452E-04 0.962E-05 0.551E-23 ort(H,U,f) =-0.243E-04 0.234E-04 0.168E-22
CGA:  53    -0.962903612015E+03   -0.29601E-04   -0.29639E-04  5040   0.549E-04-0.863E-06
 gam= 0.620 trial= 0.594  step= 0.722 mean= 0.594
 gam= 0.708 g(H,U,f)=  0.318E-04 0.703E-05 0.380E-22 ort(H,U,f) =-0.164E-04 0.171E-04 0.342E-21
CGA:  54    -0.962903631683E+03   -0.19668E-04   -0.19623E-04  5040   0.388E-04 0.694E-06
 gam= 0.708 trial= 0.601  step= 0.718 mean= 0.601
 gam= 0.735 g(H,U,f)=  0.238E-04 0.474E-05 0.344E-19 ort(H,U,f) =-0.116E-04 0.130E-04-0.708E-19
CGA:  55    -0.962903645883E+03   -0.14200E-04   -0.14116E-04  5040   0.286E-04 0.143E-05
 gam= 0.735 trial= 0.606  step= 0.691 mean= 0.606
 gam= 0.749 g(H,U,f)=  0.189E-04 0.250E-05 0.311E-18 ort(H,U,f) =-0.838E-05 0.943E-05-0.414E-18
CGA:  56    -0.962903656169E+03   -0.10286E-04   -0.10241E-04  5040   0.214E-04 0.105E-05
 gam= 0.749 trial= 0.611  step= 0.631 mean= 0.611
 gam= 0.708 g(H,U,f)=  0.137E-04 0.143E-05 0.118E-20 ort(H,U,f) =-0.546E-05 0.599E-05-0.263E-19
CGA:  57    -0.962903663173E+03   -0.70046E-05   -0.69992E-05  5040   0.151E-04 0.532E-06
 gam= 0.708 trial= 0.612  step= 0.531 mean= 0.612
 final diagonalization
   1 F= -.96290366E+03 E0= -.96290366E+03  d E =-.451952E-11
 writing wavefunctions
Warning: ieee_invalid is signaling
Warning: ieee_divide_by_zero is signaling
Warning: ieee_underflow is signaling
Warning: ieee_inexact is signaling
FORTRAN STOP
Warning: ieee_invalid is signaling
Warning: ieee_divide_by_zero is signaling
Warning: ieee_underflow is signaling
Warning: ieee_inexact is signaling
FORTRAN STOP
Warning: ieee_invalid is signaling
Warning: ieee_divide_by_zero is signaling
Warning: ieee_underflow is signaling
Warning: ieee_inexact is signaling
FORTRAN STOP
Warning: ieee_invalid is signaling
Warning: ieee_divide_by_zero is signaling
Warning: ieee_underflow is signaling
Warning: ieee_inexact is signaling
FORTRAN STOP
