Ga8 O12                                 
    1.000000000000000     
     0.0000000000000000   12.2804737091000007    0.0000000000000000
     9.1427011490000005    0.0000000000000000    0.0000000000000000
     0.0000000000000000   -2.7682616411000001  -11.3006974810000003
   Ga   O    Fe
    47    72     1
Direct
  0.6603680410575876  0.0006594274635532  0.1579659223897849
  0.6595651622875849  0.9999723272053203  0.6568765715235116
  0.6603681315504488  0.3326748510742803  0.1579629658785748
  0.6595658568390874  0.3333606970442631  0.6568768162900085
  0.6596583108829037  0.6666666257371148  0.1577174991254324
  0.6591255625583301  0.6666658583457519  0.6568272630741774
  0.8413587353781367  0.1666606072455181  0.8430153656657353
  0.8410236195906862  0.4977597821757769  0.3443598798372705
  0.8413389218195562  0.4996304280170065  0.8432862158972583
  0.8410236496717900  0.8355709154508091  0.3443623552297694
  0.8413386840781811  0.8337003322332563  0.8432877776248517
  0.5948503451915528  0.1666672288704873  0.3973517456975273
  0.5912738013552996  0.1666661447609954  0.8978373406083975
  0.5911454677042087  0.4995404495828737  0.3975614764891731
  0.5913784014559340  0.4998955732716510  0.8981597256635965
  0.5911455108359860  0.8337929031428075  0.3975618332009461
  0.5913788783486282  0.8334381409443026  0.8981603312861637
  0.9081058343010682  0.0003831477705845  0.1037464918100142
  0.9072556587792775  0.0014807365018896  0.5981489276142469
  0.9081052560130516  0.3329519212266092  0.1037457727210835
  0.9072541392921849  0.3318517720469885  0.5981452228247761
  0.9085661801942138  0.6666663984036987  0.1028400945966652
  0.9091730153422830  0.6666647122356295  0.6022493239395104
  0.1586497174613939  0.1666669215177521  0.1571839432153652
  0.1585045168021182  0.1666669978854074  0.6557485484525074
  0.1588090012815542  0.4995780696483152  0.1570049938813725
  0.1583579964672523  0.4996081177588110  0.6563042187713037
  0.1588084266376413  0.8337554619371446  0.1570061763885491
  0.1583605525629395  0.8337240345014294  0.6563059759921828
  0.3413681421599151  0.0003445308138126  0.3437121543967550
  0.3409000433033214  0.0000153752460861  0.8433522631357633
  0.3413682151048931  0.3329889713773539  0.3437115005397828
  0.3409000811965583  0.3333184044746105  0.8433521510369815
  0.3412840316157428  0.6666667294257280  0.3432283172706221
  0.3409900453979802  0.6666663064412006  0.8433146679958625
  0.0887185277532510  0.0016325377546380  0.3972622162482722
  0.0910947072443236  0.0000426427196913  0.8976301835506177
  0.0887181967464983  0.3317020020059971  0.3972614466680540
  0.0910940398569267  0.3332903232704467  0.8976291146925846
  0.0915891996347682  0.6666659507370838  0.3978421305836761
  0.0913783731518265  0.6666663334481200  0.8979892208252878
  0.4092319139081297  0.1666689937836736  0.1027796026051533
  0.4092768901746666  0.1666666679679736  0.6025646114928733
  0.4093797803924488  0.4997717759103111  0.1026443215750916
  0.4088672816525403  0.4999428184130608  0.6025756179049893
  0.4093814371681646  0.8335656029760656  0.1026453336997832
  0.4088676654505079  0.8333904987521166  0.6025757235556668
  0.9963735294610032  0.1666663938627408  0.1266298421179570
  0.9966042263316339  0.1666665071649973  0.6293958647936435
  0.9962782221514814  0.4998346512560801  0.1268601282040080
  0.9959175527669686  0.4991232660570191  0.6272692380128149
  0.9962777783167240  0.8335000735304234  0.1268607908993644
  0.9959176749899541  0.8342083359676735  0.6272707450584392
  0.5042509737732814  0.0011200272550482  0.3731756914461926
  0.5035515987893078  0.9999740324053121  0.8724764681428354
  0.5042505693427231  0.3322134316448384  0.3731751238081458
  0.5035520484454992  0.3333585784143125  0.8724768275145749
  0.5036218453293841  0.6666669474258455  0.3732329722267522
  0.5037612052891589  0.6666672064240231  0.8726628938036001
  0.6736118914583002  0.1666663753124240  0.2791036070776443
  0.6727193099575501  0.1666660905508692  0.7807409474703917
  0.6713241642866024  0.5011500810862586  0.2799782841827394
  0.6726393949764784  0.4999097500895786  0.7807160305041236
  0.6713248185969221  0.8321855607301387  0.2799791448801017
  0.6726392786939499  0.8334229707842695  0.7807164078565947
  0.8271530770468019  0.9994122832930117  0.2205056432514780
  0.8278635726155272  0.9999722514687974  0.7190072715958706
  0.8271534463466494  0.3339212743379605  0.2205043439641017
  0.8278635747180374  0.3333591669533078  0.7190052293383644
  0.8275274622913997  0.6666688245232706  0.2198951161737881
  0.8275827468996511  0.6666666727741486  0.7197302284361271
  0.8293259705845770  0.0018651119727053  0.4431303807817386
  0.8327990073021496  0.0000101762986660  0.9459155011574722
  0.8293270233222785  0.3314809556998952  0.4431309712762683
  0.8327984883662509  0.3333216732853970  0.9459137013624357
  0.8321143156350246  0.6666680362170112  0.4459915465375914
  0.8324604056557874  0.6666652830726179  0.9456891184974836
  0.6684888009839938  0.1666666265387846  0.0536431265349577
  0.6673970613078382  0.1666662425259204  0.5551970790666871
  0.6679794695768067  0.5000056675710098  0.0544006675361643
  0.6673456986124791  0.5002554870376841  0.5545387736581517
  0.6679804346638605  0.8333282754148641  0.0544017205420175
  0.6673452028257785  0.8330777419160000  0.5545388583423048
  0.4966516638313081  0.0002102449667660  0.1270241863001260
  0.4965589494619138  0.9998383184016717  0.6277880387029100
  0.4966508619191714  0.3331238298844497  0.1270233395862448
  0.4965591609947353  0.3334951320958481  0.6277880940057443
  0.4962980618720039  0.6666678914921391  0.1268360486017741
  0.4963459044484324  0.6666664863515237  0.6277619011432449
  0.0017878102219555  0.1666657394155280  0.3735850972595571
  0.0039173938175878  0.1666660647211771  0.8735043614271447
  0.0041651567542971  0.5005678317507858  0.3728272372529347
  0.0039342732852035  0.5001143177521854  0.8729011087899039
  0.0041643068852082  0.8327665592442912  0.3728277898103300
  0.0039342279912020  0.8332188424310871  0.8729013310306897
  0.1725415049304786  0.0000251343425788  0.2807737156441021
  0.1728489773012782  0.9999699710213577  0.7807239894621532
  0.1725414053043579  0.3333081129923485  0.2807733660684519
  0.1728488546130578  0.3333634016210283  0.7807233893856633
  0.1730841811691306  0.6666668071856137  0.2804130073175273
  0.1724753592616324  0.6666661466031698  0.7805185242629804
  0.3274618191021048  0.1666665809286414  0.2197389633839251
  0.3275212188315137  0.1666669500778255  0.7195774294558817
  0.3277479677583415  0.4996359034132709  0.2197049783350664
  0.3274414597542403  0.5000822797456976  0.7197494834563329
  0.3277479702847756  0.8336980807438508  0.2197050731186394
  0.3274418993244694  0.8332505690285927  0.7197498509360614
  0.3321397545723812  0.1666668693262281  0.4461665258572793
  0.3323642667833511  0.1666667487112363  0.9460265336269842
  0.3326156881654825  0.5000011745731570  0.4458916566562010
  0.3323221838615638  0.5000539818453547  0.9459718023065946
  0.3326153854943712  0.8333321381502543  0.4458918272275056
  0.3323224991824105  0.8332798157156276  0.9459725019970051
  0.1682635768157610  0.0001026625035081  0.0542815018688287
  0.1682879764984406  0.9997964007198092  0.5540099352632168
  0.1682632419586412  0.3332303960516114  0.0542806033916392
  0.1682879645892754  0.3335365553034677  0.5540094565745193
  0.1680782611327629  0.6666672971559535  0.0546073838923462
  0.1683972615211360  0.6666664778095210  0.5546139737316125
  0.8379837609409151  0.1666592055419613  0.3358243533483787
 
  0.00000000E+00  0.00000000E+00  0.00000000E+00
  0.00000000E+00  0.00000000E+00  0.00000000E+00
  0.00000000E+00  0.00000000E+00  0.00000000E+00
  0.00000000E+00  0.00000000E+00  0.00000000E+00
  0.00000000E+00  0.00000000E+00  0.00000000E+00
  0.00000000E+00  0.00000000E+00  0.00000000E+00
  0.00000000E+00  0.00000000E+00  0.00000000E+00
  0.00000000E+00  0.00000000E+00  0.00000000E+00
  0.00000000E+00  0.00000000E+00  0.00000000E+00
  0.00000000E+00  0.00000000E+00  0.00000000E+00
  0.00000000E+00  0.00000000E+00  0.00000000E+00
  0.00000000E+00  0.00000000E+00  0.00000000E+00
  0.00000000E+00  0.00000000E+00  0.00000000E+00
  0.00000000E+00  0.00000000E+00  0.00000000E+00
  0.00000000E+00  0.00000000E+00  0.00000000E+00
  0.00000000E+00  0.00000000E+00  0.00000000E+00
  0.00000000E+00  0.00000000E+00  0.00000000E+00
  0.00000000E+00  0.00000000E+00  0.00000000E+00
  0.00000000E+00  0.00000000E+00  0.00000000E+00
  0.00000000E+00  0.00000000E+00  0.00000000E+00
  0.00000000E+00  0.00000000E+00  0.00000000E+00
  0.00000000E+00  0.00000000E+00  0.00000000E+00
  0.00000000E+00  0.00000000E+00  0.00000000E+00
  0.00000000E+00  0.00000000E+00  0.00000000E+00
  0.00000000E+00  0.00000000E+00  0.00000000E+00
  0.00000000E+00  0.00000000E+00  0.00000000E+00
  0.00000000E+00  0.00000000E+00  0.00000000E+00
  0.00000000E+00  0.00000000E+00  0.00000000E+00
  0.00000000E+00  0.00000000E+00  0.00000000E+00
  0.00000000E+00  0.00000000E+00  0.00000000E+00
  0.00000000E+00  0.00000000E+00  0.00000000E+00
  0.00000000E+00  0.00000000E+00  0.00000000E+00
  0.00000000E+00  0.00000000E+00  0.00000000E+00
  0.00000000E+00  0.00000000E+00  0.00000000E+00
  0.00000000E+00  0.00000000E+00  0.00000000E+00
  0.00000000E+00  0.00000000E+00  0.00000000E+00
  0.00000000E+00  0.00000000E+00  0.00000000E+00
  0.00000000E+00  0.00000000E+00  0.00000000E+00
  0.00000000E+00  0.00000000E+00  0.00000000E+00
  0.00000000E+00  0.00000000E+00  0.00000000E+00
  0.00000000E+00  0.00000000E+00  0.00000000E+00
  0.00000000E+00  0.00000000E+00  0.00000000E+00
  0.00000000E+00  0.00000000E+00  0.00000000E+00
  0.00000000E+00  0.00000000E+00  0.00000000E+00
  0.00000000E+00  0.00000000E+00  0.00000000E+00
  0.00000000E+00  0.00000000E+00  0.00000000E+00
  0.00000000E+00  0.00000000E+00  0.00000000E+00
  0.00000000E+00  0.00000000E+00  0.00000000E+00
  0.00000000E+00  0.00000000E+00  0.00000000E+00
  0.00000000E+00  0.00000000E+00  0.00000000E+00
  0.00000000E+00  0.00000000E+00  0.00000000E+00
  0.00000000E+00  0.00000000E+00  0.00000000E+00
  0.00000000E+00  0.00000000E+00  0.00000000E+00
  0.00000000E+00  0.00000000E+00  0.00000000E+00
  0.00000000E+00  0.00000000E+00  0.00000000E+00
  0.00000000E+00  0.00000000E+00  0.00000000E+00
  0.00000000E+00  0.00000000E+00  0.00000000E+00
  0.00000000E+00  0.00000000E+00  0.00000000E+00
  0.00000000E+00  0.00000000E+00  0.00000000E+00
  0.00000000E+00  0.00000000E+00  0.00000000E+00
  0.00000000E+00  0.00000000E+00  0.00000000E+00
  0.00000000E+00  0.00000000E+00  0.00000000E+00
  0.00000000E+00  0.00000000E+00  0.00000000E+00
  0.00000000E+00  0.00000000E+00  0.00000000E+00
  0.00000000E+00  0.00000000E+00  0.00000000E+00
  0.00000000E+00  0.00000000E+00  0.00000000E+00
  0.00000000E+00  0.00000000E+00  0.00000000E+00
  0.00000000E+00  0.00000000E+00  0.00000000E+00
  0.00000000E+00  0.00000000E+00  0.00000000E+00
  0.00000000E+00  0.00000000E+00  0.00000000E+00
  0.00000000E+00  0.00000000E+00  0.00000000E+00
  0.00000000E+00  0.00000000E+00  0.00000000E+00
  0.00000000E+00  0.00000000E+00  0.00000000E+00
  0.00000000E+00  0.00000000E+00  0.00000000E+00
  0.00000000E+00  0.00000000E+00  0.00000000E+00
  0.00000000E+00  0.00000000E+00  0.00000000E+00
  0.00000000E+00  0.00000000E+00  0.00000000E+00
  0.00000000E+00  0.00000000E+00  0.00000000E+00
  0.00000000E+00  0.00000000E+00  0.00000000E+00
  0.00000000E+00  0.00000000E+00  0.00000000E+00
  0.00000000E+00  0.00000000E+00  0.00000000E+00
  0.00000000E+00  0.00000000E+00  0.00000000E+00
  0.00000000E+00  0.00000000E+00  0.00000000E+00
  0.00000000E+00  0.00000000E+00  0.00000000E+00
  0.00000000E+00  0.00000000E+00  0.00000000E+00
  0.00000000E+00  0.00000000E+00  0.00000000E+00
  0.00000000E+00  0.00000000E+00  0.00000000E+00
  0.00000000E+00  0.00000000E+00  0.00000000E+00
  0.00000000E+00  0.00000000E+00  0.00000000E+00
  0.00000000E+00  0.00000000E+00  0.00000000E+00
  0.00000000E+00  0.00000000E+00  0.00000000E+00
  0.00000000E+00  0.00000000E+00  0.00000000E+00
  0.00000000E+00  0.00000000E+00  0.00000000E+00
  0.00000000E+00  0.00000000E+00  0.00000000E+00
  0.00000000E+00  0.00000000E+00  0.00000000E+00
  0.00000000E+00  0.00000000E+00  0.00000000E+00
  0.00000000E+00  0.00000000E+00  0.00000000E+00
  0.00000000E+00  0.00000000E+00  0.00000000E+00
  0.00000000E+00  0.00000000E+00  0.00000000E+00
  0.00000000E+00  0.00000000E+00  0.00000000E+00
  0.00000000E+00  0.00000000E+00  0.00000000E+00
  0.00000000E+00  0.00000000E+00  0.00000000E+00
  0.00000000E+00  0.00000000E+00  0.00000000E+00
  0.00000000E+00  0.00000000E+00  0.00000000E+00
  0.00000000E+00  0.00000000E+00  0.00000000E+00
  0.00000000E+00  0.00000000E+00  0.00000000E+00
  0.00000000E+00  0.00000000E+00  0.00000000E+00
  0.00000000E+00  0.00000000E+00  0.00000000E+00
  0.00000000E+00  0.00000000E+00  0.00000000E+00
  0.00000000E+00  0.00000000E+00  0.00000000E+00
  0.00000000E+00  0.00000000E+00  0.00000000E+00
  0.00000000E+00  0.00000000E+00  0.00000000E+00
  0.00000000E+00  0.00000000E+00  0.00000000E+00
  0.00000000E+00  0.00000000E+00  0.00000000E+00
  0.00000000E+00  0.00000000E+00  0.00000000E+00
  0.00000000E+00  0.00000000E+00  0.00000000E+00
  0.00000000E+00  0.00000000E+00  0.00000000E+00
  0.00000000E+00  0.00000000E+00  0.00000000E+00
  0.00000000E+00  0.00000000E+00  0.00000000E+00
  0.00000000E+00  0.00000000E+00  0.00000000E+00
