Ga8 O12                                 
    1.000000000000000     
     0.0000000000000000   12.2804737091000007    0.0000000000000000
     9.1427011490000005    0.0000000000000000    0.0000000000000000
     0.0000000000000000   -2.7682616411000001  -11.3006974810000003
   Ga   O    Fe
    47    72     1
Direct
  0.6603680410575845  0.0006594274635523  0.1579659223897831
  0.6595651622875883 -0.0000276727946817  0.6568765715235128
  0.6603681315504468  0.3326748510742792  0.1579629658785754
  0.6595658568390883  0.3333606970442610  0.6568768162900054
  0.6596583108829017  0.6666666257371168  0.1577174991254289
  0.6591255625583319  0.6666658583457503  0.6568272630741774
  0.8413587353781342  0.1666606072455149  0.8430153656657355
  0.8410236195906855  0.4977597821757795  0.3443598798372677
  0.8413389218195583  0.4996304280170081  0.8432862158972577
  0.8410236496717869  0.8355709154508084  0.3443623552297719
  0.8413386840781797  0.8337003322332529  0.8432877776248516
  0.5948503451915506  0.1666672288704871  0.3973517456975262
  0.5912738013552962  0.1666661447609940  0.8978373406083962
  0.5911454677042052  0.4995404495828741  0.3975614764891742
  0.5913784014559310  0.4998955732716518  0.8981597256635949
  0.5911455108359885  0.8337929031428075  0.3975618332009484
  0.5913788783486265  0.8334381409443018  0.8981603312861655
  0.9081058343010698  0.0003831477705862  0.1037464918100177
  0.9072556587792756  0.0014807365018930  0.5981489276142499
  0.9081052560130489  0.3329519212266122  0.1037457727210838
  0.9072541392921837  0.3318517720469876  0.5981452228247759
  0.9085661801942118  0.6666663984036978  0.1028400945966638
  0.9091730153422837  0.6666647122356284  0.6022493239395071
  0.1586497174613922  0.1666669215177541  0.1571839432153666
  0.1585045168021202  0.1666669978854057  0.6557485484525108
  0.1588090012815542  0.4995780696483146  0.1570049938813752
  0.1583579964672527  0.4996081177588085  0.6563042187713028
  0.1588084266376403  0.8337554619371478  0.1570061763885459
  0.1583605525629410  0.8337240345014301  0.6563059759921798
  0.3413681421599156  0.0003445308138115  0.3437121543967530
  0.3409000433033193  0.0000153752460840  0.8433522631357609
  0.3413682151048949  0.3329889713773516  0.3437115005397837
  0.3409000811965597  0.3333184044746105  0.8433521510369818
  0.3412840316157413  0.6666667294257295  0.3432283172706202
  0.3409900453979833  0.6666663064412017  0.8433146679958629
  0.0887185277532495  0.0016325377546406  0.3972622162482731
  0.0910947072443253  0.0000426427196925  0.8976301835506144
  0.0887181967464973  0.3317020020059986  0.3972614466680507
  0.0910940398569237  0.3332903232704439  0.8976291146925824
  0.0915891996347674  0.6666659507370853  0.3978421305836769
  0.0913783731518288  0.6666663334481175  0.8979892208252892
  0.4092319139081277  0.1666689937836748  0.1027796026051538
  0.4092768901746649  0.1666666679679706  0.6025646114928742
  0.4093797803924509  0.4997717759103099  0.1026443215750946
  0.4088672816525388  0.4999428184130590  0.6025756179049907
  0.4093814371681618  0.8335656029760639  0.1026453336997823
  0.4088676654505104  0.8333904987521166  0.6025757235556661
  0.9963735294610062  0.1666663938627424  0.1266298421179552
  0.9966042263316329  0.1666665071649970  0.6293958647936414
  0.9962782221514820  0.4998346512560796  0.1268601282040073
  0.9959175527669715  0.4991232660570190  0.6272692380128184
  0.9962777783167209  0.8335000735304233  0.1268607908993640
  0.9959176749899539  0.8342083359676737  0.6272707450584410
  0.5042509737732783  0.0011200272550488  0.3731756914461937
  0.5035515987893054 -0.0000259675946899  0.8724764681428357
  0.5042505693427205  0.3322134316448391  0.3731751238081429
  0.5035520484455008  0.3333585784143155  0.8724768275145721
  0.5036218453293864  0.6666669474258425  0.3732329722267531
  0.5037612052891556  0.6666672064240223  0.8726628938036032
  0.6736118914583031  0.1666663753124213  0.2791036070776423
  0.6727193099575487  0.1666660905508687  0.7807409474703942
  0.6713241642866040  0.5011500810862561  0.2799782841827391
  0.6726393949764807  0.4999097500895802  0.7807160305041212
  0.6713248185969227  0.8321855607301412  0.2799791448801019
  0.6726392786939519  0.8334229707842725  0.7807164078565971
  0.8271530770468000 -0.0005877167069907  0.2205056432514747
  0.8278635726155243 -0.0000277485312045  0.7190072715958735
  0.8271534463466497  0.3339212743379574  0.2205043439641018
  0.8278635747180364  0.3333591669533109  0.7190052293383645
  0.8275274622913976  0.6666688245232698  0.2198951161737865
  0.8275827468996489  0.6666666727741503  0.7197302284361302
  0.8293259705845781  0.0018651119727036  0.4431303807817415
  0.8327990073021517  0.0000101762986636  0.9459155011574727
  0.8293270233222765  0.3314809556998923  0.4431309712762712
  0.8327984883662497  0.3333216732854004  0.9459137013624334
  0.8321143156350229  0.6666680362170083  0.4459915465375888
  0.8324604056557859  0.6666652830726144  0.9456891184974806
  0.6684888009839945  0.1666666265387830  0.0536431265349578
  0.6673970613078416  0.1666662425259206  0.5551970790666850
  0.6679794695768067  0.5000056675710103  0.0544006675361668
  0.6673456986124808  0.5002554870376836  0.5545387736581513
  0.6679804346638579  0.8333282754148643  0.0544017205420146
  0.6673452028257777  0.8330777419160030  0.5545388583423075
  0.4966516638313067  0.0002102449667676  0.1270241863001286
  0.4965589494619136 -0.0001616815983262  0.6277880387029076
  0.4966508619191747  0.3331238298844490  0.1270233395862425
  0.4965591609947324  0.3334951320958487  0.6277880940057411
  0.4962980618720014  0.6666678914921405  0.1268360486017768
  0.4963459044484349  0.6666664863515213  0.6277619011432432
  0.0017878102219537  0.1666657394155296  0.3735850972595594
  0.0039173938175850  0.1666660647211763  0.8735043614271413
  0.0041651567542941  0.5005678317507885  0.3728272372529378
  0.0039342732852033  0.5001143177521853  0.8729011087899028
  0.0041643068852063  0.8327665592442942  0.3728277898103333
  0.0039342279912034  0.8332188424310863  0.8729013310306900
  0.1725415049304780  0.0000251343425805  0.2807737156440991
  0.1728489773012759 -0.0000300289786422  0.7807239894621513
  0.1725414053043604  0.3333081129923519  0.2807733660684547
  0.1728488546130559  0.3333634016210283  0.7807233893856659
  0.1730841811691287  0.6666668071856150  0.2804130073175257
  0.1724753592616353  0.6666661466031690  0.7805185242629795
  0.3274618191021015  0.1666665809286413  0.2197389633839223
  0.3275212188315128  0.1666669500778246  0.7195774294558820
  0.3277479677583388  0.4996359034132731  0.2197049783350692
  0.3274414597542424  0.5000822797456955  0.7197494834563298
  0.3277479702847754  0.8336980807438501  0.2197050731186405
  0.3274418993244723  0.8332505690285943  0.7197498509360648
  0.3321397545723829  0.1666668693262266  0.4461665258572781
  0.3323642667833540  0.1666667487112336  0.9460265336269857
  0.3326156881654828  0.5000011745731574  0.4458916566562011
  0.3323221838615604  0.5000539818453567  0.9459718023065964
  0.3326153854943715  0.8333321381502538  0.4458918272275090
  0.3323224991824075  0.8332798157156276  0.9459725019970057
  0.1682635768157615  0.0001026625035047  0.0542815018688322
  0.1682879764984382 -0.0002035992801918  0.5540099352632184
  0.1682632419586381  0.3332303960516104  0.0542806033916421
  0.1682879645892756  0.3335365553034668  0.5540094565745181
  0.1680782611327638  0.6666672971559519  0.0546073838923446
  0.1683972615211362  0.6666664778095192  0.5546139737316146
  0.8379837609409134  0.1666592055419626  0.3358243533483762
 
  0.00000000E+00  0.00000000E+00  0.00000000E+00
  0.00000000E+00  0.00000000E+00  0.00000000E+00
  0.00000000E+00  0.00000000E+00  0.00000000E+00
  0.00000000E+00  0.00000000E+00  0.00000000E+00
  0.00000000E+00  0.00000000E+00  0.00000000E+00
  0.00000000E+00  0.00000000E+00  0.00000000E+00
  0.00000000E+00  0.00000000E+00  0.00000000E+00
  0.00000000E+00  0.00000000E+00  0.00000000E+00
  0.00000000E+00  0.00000000E+00  0.00000000E+00
  0.00000000E+00  0.00000000E+00  0.00000000E+00
  0.00000000E+00  0.00000000E+00  0.00000000E+00
  0.00000000E+00  0.00000000E+00  0.00000000E+00
  0.00000000E+00  0.00000000E+00  0.00000000E+00
  0.00000000E+00  0.00000000E+00  0.00000000E+00
  0.00000000E+00  0.00000000E+00  0.00000000E+00
  0.00000000E+00  0.00000000E+00  0.00000000E+00
  0.00000000E+00  0.00000000E+00  0.00000000E+00
  0.00000000E+00  0.00000000E+00  0.00000000E+00
  0.00000000E+00  0.00000000E+00  0.00000000E+00
  0.00000000E+00  0.00000000E+00  0.00000000E+00
  0.00000000E+00  0.00000000E+00  0.00000000E+00
  0.00000000E+00  0.00000000E+00  0.00000000E+00
  0.00000000E+00  0.00000000E+00  0.00000000E+00
  0.00000000E+00  0.00000000E+00  0.00000000E+00
  0.00000000E+00  0.00000000E+00  0.00000000E+00
  0.00000000E+00  0.00000000E+00  0.00000000E+00
  0.00000000E+00  0.00000000E+00  0.00000000E+00
  0.00000000E+00  0.00000000E+00  0.00000000E+00
  0.00000000E+00  0.00000000E+00  0.00000000E+00
  0.00000000E+00  0.00000000E+00  0.00000000E+00
  0.00000000E+00  0.00000000E+00  0.00000000E+00
  0.00000000E+00  0.00000000E+00  0.00000000E+00
  0.00000000E+00  0.00000000E+00  0.00000000E+00
  0.00000000E+00  0.00000000E+00  0.00000000E+00
  0.00000000E+00  0.00000000E+00  0.00000000E+00
  0.00000000E+00  0.00000000E+00  0.00000000E+00
  0.00000000E+00  0.00000000E+00  0.00000000E+00
  0.00000000E+00  0.00000000E+00  0.00000000E+00
  0.00000000E+00  0.00000000E+00  0.00000000E+00
  0.00000000E+00  0.00000000E+00  0.00000000E+00
  0.00000000E+00  0.00000000E+00  0.00000000E+00
  0.00000000E+00  0.00000000E+00  0.00000000E+00
  0.00000000E+00  0.00000000E+00  0.00000000E+00
  0.00000000E+00  0.00000000E+00  0.00000000E+00
  0.00000000E+00  0.00000000E+00  0.00000000E+00
  0.00000000E+00  0.00000000E+00  0.00000000E+00
  0.00000000E+00  0.00000000E+00  0.00000000E+00
  0.00000000E+00  0.00000000E+00  0.00000000E+00
  0.00000000E+00  0.00000000E+00  0.00000000E+00
  0.00000000E+00  0.00000000E+00  0.00000000E+00
  0.00000000E+00  0.00000000E+00  0.00000000E+00
  0.00000000E+00  0.00000000E+00  0.00000000E+00
  0.00000000E+00  0.00000000E+00  0.00000000E+00
  0.00000000E+00  0.00000000E+00  0.00000000E+00
  0.00000000E+00  0.00000000E+00  0.00000000E+00
  0.00000000E+00  0.00000000E+00  0.00000000E+00
  0.00000000E+00  0.00000000E+00  0.00000000E+00
  0.00000000E+00  0.00000000E+00  0.00000000E+00
  0.00000000E+00  0.00000000E+00  0.00000000E+00
  0.00000000E+00  0.00000000E+00  0.00000000E+00
  0.00000000E+00  0.00000000E+00  0.00000000E+00
  0.00000000E+00  0.00000000E+00  0.00000000E+00
  0.00000000E+00  0.00000000E+00  0.00000000E+00
  0.00000000E+00  0.00000000E+00  0.00000000E+00
  0.00000000E+00  0.00000000E+00  0.00000000E+00
  0.00000000E+00  0.00000000E+00  0.00000000E+00
  0.00000000E+00  0.00000000E+00  0.00000000E+00
  0.00000000E+00  0.00000000E+00  0.00000000E+00
  0.00000000E+00  0.00000000E+00  0.00000000E+00
  0.00000000E+00  0.00000000E+00  0.00000000E+00
  0.00000000E+00  0.00000000E+00  0.00000000E+00
  0.00000000E+00  0.00000000E+00  0.00000000E+00
  0.00000000E+00  0.00000000E+00  0.00000000E+00
  0.00000000E+00  0.00000000E+00  0.00000000E+00
  0.00000000E+00  0.00000000E+00  0.00000000E+00
  0.00000000E+00  0.00000000E+00  0.00000000E+00
  0.00000000E+00  0.00000000E+00  0.00000000E+00
  0.00000000E+00  0.00000000E+00  0.00000000E+00
  0.00000000E+00  0.00000000E+00  0.00000000E+00
  0.00000000E+00  0.00000000E+00  0.00000000E+00
  0.00000000E+00  0.00000000E+00  0.00000000E+00
  0.00000000E+00  0.00000000E+00  0.00000000E+00
  0.00000000E+00  0.00000000E+00  0.00000000E+00
  0.00000000E+00  0.00000000E+00  0.00000000E+00
  0.00000000E+00  0.00000000E+00  0.00000000E+00
  0.00000000E+00  0.00000000E+00  0.00000000E+00
  0.00000000E+00  0.00000000E+00  0.00000000E+00
  0.00000000E+00  0.00000000E+00  0.00000000E+00
  0.00000000E+00  0.00000000E+00  0.00000000E+00
  0.00000000E+00  0.00000000E+00  0.00000000E+00
  0.00000000E+00  0.00000000E+00  0.00000000E+00
  0.00000000E+00  0.00000000E+00  0.00000000E+00
  0.00000000E+00  0.00000000E+00  0.00000000E+00
  0.00000000E+00  0.00000000E+00  0.00000000E+00
  0.00000000E+00  0.00000000E+00  0.00000000E+00
  0.00000000E+00  0.00000000E+00  0.00000000E+00
  0.00000000E+00  0.00000000E+00  0.00000000E+00
  0.00000000E+00  0.00000000E+00  0.00000000E+00
  0.00000000E+00  0.00000000E+00  0.00000000E+00
  0.00000000E+00  0.00000000E+00  0.00000000E+00
  0.00000000E+00  0.00000000E+00  0.00000000E+00
  0.00000000E+00  0.00000000E+00  0.00000000E+00
  0.00000000E+00  0.00000000E+00  0.00000000E+00
  0.00000000E+00  0.00000000E+00  0.00000000E+00
  0.00000000E+00  0.00000000E+00  0.00000000E+00
  0.00000000E+00  0.00000000E+00  0.00000000E+00
  0.00000000E+00  0.00000000E+00  0.00000000E+00
  0.00000000E+00  0.00000000E+00  0.00000000E+00
  0.00000000E+00  0.00000000E+00  0.00000000E+00
  0.00000000E+00  0.00000000E+00  0.00000000E+00
  0.00000000E+00  0.00000000E+00  0.00000000E+00
  0.00000000E+00  0.00000000E+00  0.00000000E+00
  0.00000000E+00  0.00000000E+00  0.00000000E+00
  0.00000000E+00  0.00000000E+00  0.00000000E+00
  0.00000000E+00  0.00000000E+00  0.00000000E+00
  0.00000000E+00  0.00000000E+00  0.00000000E+00
  0.00000000E+00  0.00000000E+00  0.00000000E+00
  0.00000000E+00  0.00000000E+00  0.00000000E+00
  0.00000000E+00  0.00000000E+00  0.00000000E+00
  0.00000000E+00  0.00000000E+00  0.00000000E+00
