Ga8 O12                                 
    1.000000000000000     
     0.0000000000000000   12.2804737091000007    0.0000000000000000
     9.1427011490000005    0.0000000000000000    0.0000000000000000
     0.0000000000000000   -2.7682616411000001  -11.3006974810000003
   Ga   O    Cu   N 
    47    71     1     1
Direct
  0.6609109720162536  0.0000000000000000  0.1575637161532981
  0.6583323735562132  0.0000000000000000  0.6567503792666898
  0.6606271442642111  0.3331328717875337  0.1575135561972658
  0.6575456624090350  0.3333624568805007  0.6570157392120919
  0.6606271442642111  0.6668671282124663  0.1575135561972658
  0.6575456624090350  0.6666375431194993  0.6570157392120919
  0.8456388383941302  0.1653727929246429  0.3448821528305572
  0.8397409947688317  0.1663457301771345  0.8440089606759642
  0.8430494944443225  0.5000000000000000  0.3431502456690154
  0.8399209729285246  0.5000000000000000  0.8432053449802765
  0.8456388383941302  0.8346272070753571  0.3448821528305572
  0.8397409947688317  0.8336542698228655  0.8440089606759642
  0.5923662855451539  0.1664086534120273  0.3970928506996572
  0.5897634938742513  0.1664266007172372  0.8979589922329012
  0.5924170635406227  0.5000000000000000  0.3973946698409279
  0.5907449947307342  0.5000000000000000  0.8983769743802341
  0.5923662855451539  0.8335913465879727  0.3970928506996572
  0.5897634938742513  0.8335733992827628  0.8979589922329012
  0.9110550437735014  0.0000000000000000  0.1045029320084723
  0.9078882736283944  0.0000000000000000  0.6016084967083657
  0.9092505533135338  0.3334757540171651  0.1021564842763283
  0.9057427191400080  0.3342689878722140  0.6016095427692747
  0.9092505533135338  0.6665242459828349  0.1021564842763283
  0.9057427191400080  0.6657310121277860  0.6016095427692747
  0.1595990946541122  0.1655230610549907  0.1563491284031642
  0.1555426349293825  0.1678148610367103  0.6558560032974157
  0.1595712287887707  0.5000000000000000  0.1577979254092270
  0.1572218147284659  0.5000000000000000  0.6552778592000834
  0.1595990946541122  0.8344769389450022  0.1563491284031642
  0.1555426349293825  0.8321851389632897  0.6558560032974157
  0.3404159930252675  0.0000000000000000  0.3408578810253502
  0.3386829398957332  0.0000000000000000  0.8437425117871911
  0.3418975317002548  0.3333347998806033  0.3425591413483104
  0.3402346198593946  0.3333150392477719  0.8425580895761229
  0.3418975317002548  0.6666652001193967  0.3425591413483104
  0.3402346198593946  0.6666849607522281  0.8425580895761229
  0.0889535361688800  0.0000000000000000  0.8983528901829487
  0.0906245700311956  0.3301434730544273  0.3974925991974416
  0.0902944107284540  0.3330148935758928  0.8978947961019159
  0.0906245700311956  0.6698565269455727  0.3974925991974416
  0.0902944107284540  0.6669851064241072  0.8978947961019159
  0.4108779035552033  0.1670294380908786  0.1023171175890667
  0.4078789710172828  0.1663806587869914  0.6018285978930606
  0.4097506214301632  0.5000000000000000  0.1018311823837763
  0.4076900461783168  0.5000000000000000  0.6022491145546951
  0.4108779035552033  0.8329705619091214  0.1023171175890667
  0.4078789710172828  0.8336193412130086  0.6018285978930606
  0.9965780826249571  0.1676312927860408  0.1246775091781629
  0.9923457241102156  0.1684241863993776  0.6304424971627185
  0.9966930158667608  0.5000000000000000  0.1261699803244909
  0.9942753450159145  0.5000000000000000  0.6278891308653982
  0.9965780826249571  0.8323687072139592  0.1246775091781629
  0.9923457241102156  0.8315758136006224  0.6304424971627185
  0.5044646496527960  0.0000000000000000  0.3720650117305482
  0.5024009528143338  0.0000000000000000  0.8726842843067928
  0.5050534974617165  0.3333959764549661  0.3725777934904144
  0.5031905914173294  0.3336811483350175  0.8725035223670972
  0.5050534974617165  0.6666040235450339  0.3725777934904144
  0.5031905914173294  0.6663188516649825  0.8725035223670972
  0.6741728943502707  0.1668313277185831  0.2804552939219320
  0.6713081440665007  0.1665113801311691  0.7808272222732739
  0.6734502510659581  0.5000000000000000  0.2801533067622799
  0.6709163925561512  0.5000000000000000  0.7804326987479726
  0.6741728943502707  0.8331686722814169  0.2804552939219320
  0.6713081440665007  0.8334886198688309  0.7808272222732739
  0.8276697621122935  0.0000000000000000  0.2192403625535135
  0.8260476195630702  0.0000000000000000  0.7198986657789774
  0.8280096854831811  0.3339446563798205  0.2190284342166535
  0.8253364411010935  0.3341126691131251  0.7198707037905479
  0.8280096854831811  0.6660553436201795  0.2190284342166535
  0.8253364411010935  0.6658873308868749  0.7198707037905479
  0.8288221567392071  0.0000000000000000  0.4460792702234073
  0.8322164312930269  0.0000000000000000  0.9471781899251397
  0.8298342924007400  0.3340672550022035  0.4450916644628080
  0.8308851672769748  0.3338632626399800  0.9457858632224045
  0.8298342924007400  0.6659327449977965  0.4450916644628080
  0.8308851672769748  0.6661367373600200  0.9457858632224045
  0.6677447051943304  0.1667308808559937  0.0539564529540897
  0.6668746443018918  0.1669456298789314  0.5546491614473368
  0.6683205549206335  0.5000000000000000  0.0542865717438019
  0.6670306930360965  0.5000000000000000  0.5547161546404453
  0.6677447051943304  0.8332691191440063  0.0539564529540897
  0.6668746443018918  0.8330543701210686  0.5546491614473368
  0.4978736276187306  0.0000000000000000  0.1270838102409400
  0.4958661636438819  0.0000000000000000  0.6272280230704936
  0.4978671543050766  0.3340034828882281  0.1270702803113011
  0.4952442785649112  0.3333139892733996  0.6273256580139588
  0.4978671543050766  0.6659965171117719  0.1270702803113011
  0.4952442785649112  0.6666860107266004  0.6273256580139588
  0.0040669964760198  0.1669915270553588  0.3722197299694940
  0.0018410538820888  0.1673188789300255  0.8733586868532797
  0.0047178928907385  0.5000000000000000  0.3726686239523715
  0.0028854943890266  0.5000000000000000  0.8727775664407105
  0.0040669964760198  0.8330084729446412  0.3722197299694940
  0.0018410538820888  0.8326811210699745  0.8733586868532797
  0.1726807077806214  0.0000000000000000  0.2705879045926523
  0.1735538481452892  0.0000000000000000  0.7871205434586201
  0.1738650831263016  0.3338182694267502  0.2804669004440541
  0.1716472227355581  0.3331929772617528  0.7804612701342251
  0.1738650831263016  0.6661817305732498  0.2804669004440541
  0.1716472227355581  0.6668070227382472  0.7804612701342251
  0.3297711472473637  0.1682806142398476  0.2189396390335716
  0.3273866898702522  0.1660770370815925  0.7195249248490967
  0.3287877008710538  0.5000000000000000  0.2190767189155096
  0.3270170329232798  0.5000000000000000  0.7199556747649538
  0.3297711472473637  0.8317193857601524  0.2189396390335716
  0.3273866898702522  0.8339229629184075  0.7195249248490967
  0.3342550178998778  0.1664861294021733  0.4444797420442939
  0.3342061031689880  0.1681174958631644  0.9462098664284184
  0.3339712793394156  0.5000000000000000  0.4451680253889094
  0.3321462277911209  0.5000000000000000  0.9455588172539393
  0.3342550178998778  0.8335138705978267  0.4444797420442939
  0.3342061031689880  0.8318825041368356  0.9462098664284184
  0.1697936598815701  0.0000000000000000  0.0519193807352565
  0.1681200162196248  0.3335069691941612  0.0541006959717194
  0.1679310291129710  0.3358025953022832  0.5546143007661399
  0.1681200162196248  0.6664930308058388  0.0541006959717194
  0.1679310291129710  0.6641974046977168  0.5546143007661399
  0.1107274648169749  0.0000000000000000  0.4041507901738086
  0.1607435252725438  0.0000000000000000  0.5577852386434969
 
  0.00000000E+00  0.00000000E+00  0.00000000E+00
  0.00000000E+00  0.00000000E+00  0.00000000E+00
  0.00000000E+00  0.00000000E+00  0.00000000E+00
  0.00000000E+00  0.00000000E+00  0.00000000E+00
  0.00000000E+00  0.00000000E+00  0.00000000E+00
  0.00000000E+00  0.00000000E+00  0.00000000E+00
  0.00000000E+00  0.00000000E+00  0.00000000E+00
  0.00000000E+00  0.00000000E+00  0.00000000E+00
  0.00000000E+00  0.00000000E+00  0.00000000E+00
  0.00000000E+00  0.00000000E+00  0.00000000E+00
  0.00000000E+00  0.00000000E+00  0.00000000E+00
  0.00000000E+00  0.00000000E+00  0.00000000E+00
  0.00000000E+00  0.00000000E+00  0.00000000E+00
  0.00000000E+00  0.00000000E+00  0.00000000E+00
  0.00000000E+00  0.00000000E+00  0.00000000E+00
  0.00000000E+00  0.00000000E+00  0.00000000E+00
  0.00000000E+00  0.00000000E+00  0.00000000E+00
  0.00000000E+00  0.00000000E+00  0.00000000E+00
  0.00000000E+00  0.00000000E+00  0.00000000E+00
  0.00000000E+00  0.00000000E+00  0.00000000E+00
  0.00000000E+00  0.00000000E+00  0.00000000E+00
  0.00000000E+00  0.00000000E+00  0.00000000E+00
  0.00000000E+00  0.00000000E+00  0.00000000E+00
  0.00000000E+00  0.00000000E+00  0.00000000E+00
  0.00000000E+00  0.00000000E+00  0.00000000E+00
  0.00000000E+00  0.00000000E+00  0.00000000E+00
  0.00000000E+00  0.00000000E+00  0.00000000E+00
  0.00000000E+00  0.00000000E+00  0.00000000E+00
  0.00000000E+00  0.00000000E+00  0.00000000E+00
  0.00000000E+00  0.00000000E+00  0.00000000E+00
  0.00000000E+00  0.00000000E+00  0.00000000E+00
  0.00000000E+00  0.00000000E+00  0.00000000E+00
  0.00000000E+00  0.00000000E+00  0.00000000E+00
  0.00000000E+00  0.00000000E+00  0.00000000E+00
  0.00000000E+00  0.00000000E+00  0.00000000E+00
  0.00000000E+00  0.00000000E+00  0.00000000E+00
  0.00000000E+00  0.00000000E+00  0.00000000E+00
  0.00000000E+00  0.00000000E+00  0.00000000E+00
  0.00000000E+00  0.00000000E+00  0.00000000E+00
  0.00000000E+00  0.00000000E+00  0.00000000E+00
  0.00000000E+00  0.00000000E+00  0.00000000E+00
  0.00000000E+00  0.00000000E+00  0.00000000E+00
  0.00000000E+00  0.00000000E+00  0.00000000E+00
  0.00000000E+00  0.00000000E+00  0.00000000E+00
  0.00000000E+00  0.00000000E+00  0.00000000E+00
  0.00000000E+00  0.00000000E+00  0.00000000E+00
  0.00000000E+00  0.00000000E+00  0.00000000E+00
  0.00000000E+00  0.00000000E+00  0.00000000E+00
  0.00000000E+00  0.00000000E+00  0.00000000E+00
  0.00000000E+00  0.00000000E+00  0.00000000E+00
  0.00000000E+00  0.00000000E+00  0.00000000E+00
  0.00000000E+00  0.00000000E+00  0.00000000E+00
  0.00000000E+00  0.00000000E+00  0.00000000E+00
  0.00000000E+00  0.00000000E+00  0.00000000E+00
  0.00000000E+00  0.00000000E+00  0.00000000E+00
  0.00000000E+00  0.00000000E+00  0.00000000E+00
  0.00000000E+00  0.00000000E+00  0.00000000E+00
  0.00000000E+00  0.00000000E+00  0.00000000E+00
  0.00000000E+00  0.00000000E+00  0.00000000E+00
  0.00000000E+00  0.00000000E+00  0.00000000E+00
  0.00000000E+00  0.00000000E+00  0.00000000E+00
  0.00000000E+00  0.00000000E+00  0.00000000E+00
  0.00000000E+00  0.00000000E+00  0.00000000E+00
  0.00000000E+00  0.00000000E+00  0.00000000E+00
  0.00000000E+00  0.00000000E+00  0.00000000E+00
  0.00000000E+00  0.00000000E+00  0.00000000E+00
  0.00000000E+00  0.00000000E+00  0.00000000E+00
  0.00000000E+00  0.00000000E+00  0.00000000E+00
  0.00000000E+00  0.00000000E+00  0.00000000E+00
  0.00000000E+00  0.00000000E+00  0.00000000E+00
  0.00000000E+00  0.00000000E+00  0.00000000E+00
  0.00000000E+00  0.00000000E+00  0.00000000E+00
  0.00000000E+00  0.00000000E+00  0.00000000E+00
  0.00000000E+00  0.00000000E+00  0.00000000E+00
  0.00000000E+00  0.00000000E+00  0.00000000E+00
  0.00000000E+00  0.00000000E+00  0.00000000E+00
  0.00000000E+00  0.00000000E+00  0.00000000E+00
  0.00000000E+00  0.00000000E+00  0.00000000E+00
  0.00000000E+00  0.00000000E+00  0.00000000E+00
  0.00000000E+00  0.00000000E+00  0.00000000E+00
  0.00000000E+00  0.00000000E+00  0.00000000E+00
  0.00000000E+00  0.00000000E+00  0.00000000E+00
  0.00000000E+00  0.00000000E+00  0.00000000E+00
  0.00000000E+00  0.00000000E+00  0.00000000E+00
  0.00000000E+00  0.00000000E+00  0.00000000E+00
  0.00000000E+00  0.00000000E+00  0.00000000E+00
  0.00000000E+00  0.00000000E+00  0.00000000E+00
  0.00000000E+00  0.00000000E+00  0.00000000E+00
  0.00000000E+00  0.00000000E+00  0.00000000E+00
  0.00000000E+00  0.00000000E+00  0.00000000E+00
  0.00000000E+00  0.00000000E+00  0.00000000E+00
  0.00000000E+00  0.00000000E+00  0.00000000E+00
  0.00000000E+00  0.00000000E+00  0.00000000E+00
  0.00000000E+00  0.00000000E+00  0.00000000E+00
  0.00000000E+00  0.00000000E+00  0.00000000E+00
  0.00000000E+00  0.00000000E+00  0.00000000E+00
  0.00000000E+00  0.00000000E+00  0.00000000E+00
  0.00000000E+00  0.00000000E+00  0.00000000E+00
  0.00000000E+00  0.00000000E+00  0.00000000E+00
  0.00000000E+00  0.00000000E+00  0.00000000E+00
  0.00000000E+00  0.00000000E+00  0.00000000E+00
  0.00000000E+00  0.00000000E+00  0.00000000E+00
  0.00000000E+00  0.00000000E+00  0.00000000E+00
  0.00000000E+00  0.00000000E+00  0.00000000E+00
  0.00000000E+00  0.00000000E+00  0.00000000E+00
  0.00000000E+00  0.00000000E+00  0.00000000E+00
  0.00000000E+00  0.00000000E+00  0.00000000E+00
  0.00000000E+00  0.00000000E+00  0.00000000E+00
  0.00000000E+00  0.00000000E+00  0.00000000E+00
  0.00000000E+00  0.00000000E+00  0.00000000E+00
  0.00000000E+00  0.00000000E+00  0.00000000E+00
  0.00000000E+00  0.00000000E+00  0.00000000E+00
  0.00000000E+00  0.00000000E+00  0.00000000E+00
  0.00000000E+00  0.00000000E+00  0.00000000E+00
  0.00000000E+00  0.00000000E+00  0.00000000E+00
  0.00000000E+00  0.00000000E+00  0.00000000E+00
  0.00000000E+00  0.00000000E+00  0.00000000E+00
  0.00000000E+00  0.00000000E+00  0.00000000E+00
  0.00000000E+00  0.00000000E+00  0.00000000E+00
  0.00000000E+00  0.00000000E+00  0.00000000E+00
