 running    4 mpi-ranks, on    1 nodes
 distrk:  each k-point on    1 cores,    4 groups
 distr:  one band on    1 cores,    1 groups
 OpenACC runtime initialized ...    4 GPUs detected
 vasp.6.4.2 20Jul23 (build Nov 12 2023 22:16:35) complex                         
 POSCAR found type information on POSCAR GaO Fe
 POSCAR found :  3 types and     120 ions
 scaLAPACK will be used selectively (only on CPU)
 LDA part: xc-table for Pade appr. of Perdew
 POSCAR, INCAR and KPOINTS ok, starting setup
 FFT: planning ... GRIDC
 FFT: planning ... GRID_SOFT
 FFT: planning ... GRID
 WAVECAR not read
 initial charge from wavefunction
 entering main loop
       N       E                     dE             d eps       ncg     rms          rms(c)
DAV:   1     0.123844347828E+05    0.12384E+05   -0.58316E+05 10512   0.705E+03
DAV:   2    -0.308124402057E+05   -0.43197E+05   -0.41789E+05 13416   0.119E+03
DAV:   3    -0.353196440320E+05   -0.45072E+04   -0.40706E+04 14264   0.351E+02
DAV:   4    -0.357948125687E+05   -0.47517E+03   -0.40938E+03 16896   0.101E+02
DAV:   5    -0.358443773543E+05   -0.49565E+02   -0.44875E+02 19608   0.299E+01BRMIX: very serious problems
 the old and the new charge density differ
 old charge density:  1050.49994 new 1050.99982
BRMIX: very serious problems
 the old and the new charge density differ
 old charge density:  1050.49994 new 1050.99982
BRMIX: very serious problems
 the old and the new charge density differ
 old charge density:  1050.49994 new 1050.99982
BRMIX: very serious problems
 the old and the new charge density differ
 old charge density:  1050.49994 new 1050.99982
    0.729E+02
DAV:   6    -0.109781729484E+05    0.24866E+05   -0.20000E+04 14552   0.247E+02    0.569E+02
DAV:   7    -0.443388420728E+04    0.65443E+04   -0.69340E+03 15720   0.167E+02    0.280E+02
DAV:   8    -0.121991122198E+04    0.32140E+04   -0.10631E+04 14462   0.265E+02    0.225E+02
DAV:   9    -0.774991852666E+03    0.44492E+03   -0.15135E+03 15264   0.123E+02    0.168E+02
DAV:  10    -0.772699816020E+03    0.22920E+01   -0.87241E+02 14096   0.733E+01    0.128E+02
DAV:  11    -0.773790899601E+03   -0.10911E+01   -0.34690E+02 14240   0.802E+01    0.941E+01
DAV:  12    -0.752383171484E+03    0.21408E+02   -0.81981E+01 13632   0.286E+01    0.520E+01
DAV:  13    -0.722353170215E+03    0.30030E+02   -0.16850E+02 13232   0.426E+01    0.570E+01
DAV:  14    -0.722616295049E+03   -0.26312E+00   -0.33657E+01 13632   0.972E+00    0.499E+01
DAV:  15    -0.720476090915E+03    0.21402E+01   -0.10778E+01 15232   0.113E+01    0.417E+01
DAV:  16    -0.719214982437E+03    0.12611E+01   -0.45531E+00 13800   0.705E+00    0.292E+01
DAV:  17    -0.718836215986E+03    0.37877E+00   -0.23691E+00 13784   0.475E+00    0.206E+01
DAV:  18    -0.718846047325E+03   -0.98313E-02   -0.18736E+00 12728   0.184E+00    0.194E+01
DAV:  19    -0.718737389464E+03    0.10866E+00   -0.78369E-01 15392   0.969E-01    0.180E+01
DAV:  20    -0.718610338499E+03    0.12705E+00   -0.12310E+00 15960   0.182E+00    0.159E+01
DAV:  21    -0.718252514837E+03    0.35782E+00   -0.12261E+00 15600   0.380E+00    0.106E+01
DAV:  22    -0.718146472963E+03    0.10604E+00   -0.10795E+00 15728   0.184E+00    0.805E+00
DAV:  23    -0.718106868891E+03    0.39604E-01   -0.75931E-01 15088   0.117E+00    0.582E+00
DAV:  24    -0.718094984516E+03    0.11884E-01   -0.53360E-01 14368   0.861E-01    0.484E+00
DAV:  25    -0.718083409366E+03    0.11575E-01   -0.68702E-01 14392   0.886E-01    0.383E+00
DAV:  26    -0.718107184270E+03   -0.23775E-01   -0.10759E+00 14240   0.125E+00    0.323E+00
DAV:  27    -0.718080346233E+03    0.26838E-01   -0.76970E-01 14016   0.591E-01    0.315E+00
DAV:  28    -0.718117634544E+03   -0.37288E-01   -0.14837E+00 14192   0.766E-01    0.262E+00
DAV:  29    -0.718075671556E+03    0.41963E-01   -0.69515E-01 13144   0.491E-01    0.273E+00
DAV:  30    -0.718115240183E+03   -0.39569E-01   -0.14391E+00 13432   0.560E-01    0.248E+00
DAV:  31    -0.718072744547E+03    0.42496E-01   -0.64310E-01 13168   0.510E-01    0.249E+00
DAV:  32    -0.718113854006E+03   -0.41109E-01   -0.14130E+00 11856   0.435E-01    0.246E+00
DAV:  33    -0.718067196774E+03    0.46657E-01   -0.54246E-01 11760   0.468E-01    0.204E+00
DAV:  34    -0.718102591301E+03   -0.35395E-01   -0.11196E+00 11696   0.451E-01    0.239E+00
DAV:  35    -0.718066970101E+03    0.35621E-01   -0.54176E-01 11448   0.351E-01    0.194E+00
DAV:  36    -0.718100900329E+03   -0.33930E-01   -0.10751E+00 11416   0.456E-01    0.241E+00
DAV:  37    -0.718067009295E+03    0.33891E-01   -0.53817E-01 11616   0.328E-01    0.184E+00
DAV:  38    -0.718099171498E+03   -0.32162E-01   -0.10333E+00 11752   0.298E-01    0.245E+00
DAV:  39    -0.718068061839E+03    0.31110E-01   -0.55565E-01 11632   0.300E-01    0.180E+00
DAV:  40    -0.718097715831E+03   -0.29654E-01   -0.10068E+00 11280   0.297E-01    0.250E+00
DAV:  41    -0.718070372127E+03    0.27344E-01   -0.60041E-01 10752   0.288E-01    0.179E+00
DAV:  42    -0.718096179090E+03   -0.25807E-01   -0.99281E-01 10312   0.287E-01    0.254E+00
DAV:  43    -0.718073737200E+03    0.22442E-01   -0.66834E-01 10280   0.273E-01    0.181E+00
DAV:  44    -0.718094061746E+03   -0.20325E-01   -0.97684E-01 10184   0.283E-01    0.258E+00
DAV:  45    -0.718077480151E+03    0.16582E-01   -0.74653E-01 10104   0.273E-01    0.183E+00
DAV:  46    -0.718091431049E+03   -0.13951E-01   -0.95104E-01 10104   0.279E-01    0.258E+00
DAV:  47    -0.718080663355E+03    0.10768E-01   -0.81640E-01 10248   0.280E-01    0.184E+00
DAV:  48    -0.718088821113E+03   -0.81578E-02   -0.92207E-01 10088   0.280E-01    0.257E+00
DAV:  49    -0.718082748964E+03    0.60721E-02   -0.86593E-01 10304   0.286E-01    0.186E+00
DAV:  50    -0.718086780892E+03   -0.40319E-02   -0.90019E-01 10160   0.283E-01    0.253E+00
DAV:  51    -0.718083813458E+03    0.29674E-02   -0.89521E-01 10312   0.291E-01    0.189E+00
DAV:  52    -0.718085442197E+03   -0.16287E-02   -0.88902E-01 10064   0.286E-01    0.249E+00
DAV:  53    -0.718084227192E+03    0.12150E-02   -0.91078E-01 10240   0.294E-01    0.193E+00
DAV:  54    -0.718084715449E+03   -0.48826E-03   -0.88821E-01 10096   0.293E-01    0.244E+00
DAV:  55    -0.718084362763E+03    0.35269E-03   -0.91950E-01 10184   0.296E-01    0.197E+00
DAV:  56    -0.718084197177E+03    0.16559E-03   -0.88961E-01 10056   0.295E-01    0.239E+00
DAV:  57    -0.718084214730E+03   -0.17553E-04   -0.92076E-01 10104   0.296E-01    0.202E+00
DAV:  58    -0.718084215515E+03   -0.78529E-06   -0.89918E-01  9952   0.292E-01    0.235E+00
DAV:  59    -0.718084369520E+03   -0.15400E-03   -0.92506E-01 10024   0.292E-01    0.207E+00
DAV:  60    -0.718084558261E+03   -0.18874E-03   -0.91185E-01  9928   0.289E-01    0.230E+00
DAV:  61    -0.718084837411E+03   -0.27915E-03   -0.93019E-01  9864   0.282E-01    0.212E+00
DAV:  62    -0.718085078649E+03   -0.24124E-03   -0.92307E-01 10032   0.281E-01    0.227E+00
DAV:  63    -0.718085586444E+03   -0.50779E-03   -0.93415E-01 10368   0.284E-01    0.216E+00
DAV:  64    -0.718085918124E+03   -0.33168E-03   -0.93378E-01 10384   0.284E-01    0.223E+00
DAV:  65    -0.718086441665E+03   -0.52354E-03   -0.92980E-01 10528   0.288E-01    0.218E+00
DAV:  66    -0.718086788689E+03   -0.34702E-03   -0.94379E-01 10576   0.301E-01    0.225E+00
DAV:  67    -0.718088755820E+03   -0.19671E-02   -0.95450E-01 10280   0.292E-01    0.218E+00
DAV:  68    -0.718087161175E+03    0.15946E-02   -0.94403E-01 12432   0.301E-01    0.228E+00
DAV:  69    -0.718091593695E+03   -0.44325E-02   -0.99628E-01 11864   0.307E-01    0.215E+00
DAV:  70    -0.718086783457E+03    0.48102E-02   -0.93081E-01 11592   0.300E-01    0.230E+00
DAV:  71    -0.718093813459E+03   -0.70300E-02   -0.10290E+00 12240   0.327E-01    0.213E+00
DAV:  72    -0.718086679764E+03    0.71337E-02   -0.92613E-01 11160   0.296E-01    0.233E+00
DAV:  73    -0.718095987014E+03   -0.93072E-02   -0.10684E+00 10600   0.306E-01    0.210E+00
DAV:  74    -0.718086131435E+03    0.98556E-02   -0.91253E-01 10664   0.304E-01    0.235E+00
DAV:  75    -0.718097445795E+03   -0.11314E-01   -0.10920E+00 10640   0.310E-01    0.208E+00
DAV:  76    -0.718085626982E+03    0.11819E-01   -0.90063E-01 10736   0.306E-01    0.236E+00
DAV:  77    -0.718098569176E+03   -0.12942E-01   -0.11109E+00 10784   0.310E-01    0.207E+00
DAV:  78    -0.718085190513E+03    0.13379E-01   -0.89056E-01 10696   0.306E-01    0.236E+00
DAV:  79    -0.718099493197E+03   -0.14303E-01   -0.11259E+00 10672   0.311E-01    0.206E+00
DAV:  80    -0.718084788414E+03    0.14705E-01   -0.88216E-01 10688   0.307E-01    0.237E+00
DAV:  81    -0.718100260908E+03   -0.15472E-01   -0.11410E+00 10744   0.312E-01    0.205E+00
DAV:  82    -0.718084571878E+03    0.15689E-01   -0.87726E-01 10752   0.308E-01    0.239E+00
DAV:  83    -0.718100903315E+03   -0.16331E-01   -0.11545E+00 10808   0.314E-01    0.204E+00
DAV:  84    -0.718084433205E+03    0.16470E-01   -0.87546E-01 10752   0.309E-01    0.241E+00
DAV:  85    -0.718101814853E+03   -0.17382E-01   -0.11781E+00 10720   0.314E-01    0.204E+00
DAV:  86    -0.718084422377E+03    0.17392E-01   -0.87652E-01 10712   0.310E-01    0.243E+00
DAV:  87    -0.718102556568E+03   -0.18134E-01   -0.11968E+00 10690   0.316E-01    0.203E+00
DAV:  88    -0.718084467730E+03    0.18089E-01   -0.87907E-01 10748   0.313E-01    0.246E+00
DAV:  89    -0.718103356663E+03   -0.18889E-01   -0.12191E+00 10716   0.317E-01    0.204E+00
DAV:  90    -0.718084582621E+03    0.18774E-01   -0.88281E-01 10740   0.314E-01    0.248E+00
DAV:  91    -0.718103926748E+03   -0.19344E-01   -0.12361E+00 10684   0.316E-01    0.204E+00
DAV:  92    -0.718084711780E+03    0.19215E-01   -0.88625E-01 10692   0.313E-01    0.249E+00
DAV:  93    -0.718104168396E+03   -0.19457E-01   -0.12442E+00 10668   0.316E-01    0.204E+00
DAV:  94    -0.718084879978E+03    0.19288E-01   -0.89045E-01 10628   0.313E-01    0.250E+00
DAV:  95    -0.718104365139E+03   -0.19485E-01   -0.12514E+00 10700   0.317E-01    0.205E+00
DAV:  96    -0.718085098943E+03    0.19266E-01   -0.89548E-01 10684   0.316E-01    0.251E+00
DAV:  97    -0.718104438710E+03   -0.19340E-01   -0.12556E+00 10708   0.318E-01    0.205E+00
DAV:  98    -0.718085371138E+03    0.19068E-01   -0.90136E-01 10796   0.317E-01    0.252E+00
DAV:  99    -0.718104554909E+03   -0.19184E-01   -0.12608E+00 10756   0.319E-01    0.205E+00
DAV: 100    -0.718085653320E+03    0.18902E-01   -0.90751E-01 10772   0.316E-01    0.254E+00
DAV: 101    -0.718104758286E+03   -0.19105E-01   -0.12696E+00 10796   0.319E-01    0.206E+00
DAV: 102    -0.718085653751E+03    0.19105E-01   -0.90832E-01 10804   0.318E-01    0.253E+00
DAV: 103    -0.718104433666E+03   -0.18780E-01   -0.12624E+00 10796   0.319E-01    0.206E+00
DAV: 104    -0.718085684385E+03    0.18749E-01   -0.90964E-01 10828   0.316E-01    0.253E+00
DAV: 105    -0.718104331099E+03   -0.18647E-01   -0.12607E+00 10684   0.318E-01    0.207E+00
DAV: 106    -0.718085901004E+03    0.18430E-01   -0.91464E-01 11420   0.323E-01    0.252E+00
DAV: 107    -0.718103964631E+03   -0.18064E-01   -0.12524E+00 11116   0.320E-01    0.207E+00
DAV: 108    -0.718086056692E+03    0.17908E-01   -0.91747E-01 10684   0.313E-01    0.252E+00
DAV: 109    -0.718103573103E+03   -0.17516E-01   -0.12446E+00 10684   0.317E-01    0.206E+00
DAV: 110    -0.718086125524E+03    0.17448E-01   -0.91874E-01 10740   0.313E-01    0.252E+00
DAV: 111    -0.718103222336E+03   -0.17097E-01   -0.12333E+00 11172   0.319E-01    0.206E+00
DAV: 112    -0.718086169679E+03    0.17053E-01   -0.91984E-01 11156   0.317E-01    0.253E+00
DAV: 113    -0.718103522040E+03   -0.17352E-01   -0.12410E+00 10980   0.319E-01    0.205E+00
DAV: 114    -0.718086117849E+03    0.17404E-01   -0.91859E-01 11068   0.316E-01    0.252E+00
DAV: 115    -0.718103460067E+03   -0.17342E-01   -0.12390E+00 10868   0.318E-01    0.205E+00
DAV: 116    -0.718085976698E+03    0.17483E-01   -0.91601E-01 11180   0.318E-01    0.252E+00
DAV: 117    -0.718103602539E+03   -0.17626E-01   -0.12412E+00 10860   0.316E-01    0.205E+00
DAV: 118    -0.718085855008E+03    0.17748E-01   -0.91353E-01 10652   0.313E-01    0.252E+00
DAV: 119    -0.718103593070E+03   -0.17738E-01   -0.12407E+00 10700   0.316E-01    0.205E+00
DAV: 120    -0.718085725098E+03    0.17868E-01   -0.91097E-01 10656   0.313E-01    0.251E+00
DAV: 121    -0.718103462862E+03   -0.17738E-01   -0.12370E+00 10640   0.316E-01    0.205E+00
DAV: 122    -0.718085567166E+03    0.17896E-01   -0.90780E-01 10672   0.313E-01    0.250E+00
DAV: 123    -0.718103266519E+03   -0.17699E-01   -0.12312E+00 10616   0.317E-01    0.205E+00
DAV: 124    -0.718085411922E+03    0.17855E-01   -0.90469E-01 10688   0.313E-01    0.249E+00
DAV: 125    -0.718103111326E+03   -0.17699E-01   -0.12264E+00 10744   0.317E-01    0.206E+00
DAV: 126    -0.718085231776E+03    0.17880E-01   -0.90052E-01 11016   0.313E-01    0.246E+00
DAV: 127    -0.718102556599E+03   -0.17325E-01   -0.12119E+00 10792   0.318E-01    0.205E+00
DAV: 128    -0.718085027331E+03    0.17529E-01   -0.89580E-01 10848   0.313E-01    0.245E+00
DAV: 129    -0.718102112558E+03   -0.17085E-01   -0.11984E+00 10864   0.318E-01    0.205E+00
DAV: 130    -0.718084864758E+03    0.17248E-01   -0.89195E-01 10832   0.311E-01    0.243E+00
DAV: 131    -0.718101989345E+03   -0.17125E-01   -0.11937E+00 10904   0.318E-01    0.205E+00
DAV: 132    -0.718084681006E+03    0.17308E-01   -0.88689E-01 11096   0.309E-01    0.242E+00
DAV: 133    -0.718101699848E+03   -0.17019E-01   -0.11827E+00 11120   0.316E-01    0.205E+00
DAV: 134    -0.718084444529E+03    0.17255E-01   -0.88133E-01 10952   0.311E-01    0.241E+00
DAV: 135    -0.718101822997E+03   -0.17378E-01   -0.11828E+00 10936   0.317E-01    0.205E+00
DAV: 136    -0.718084194449E+03    0.17629E-01   -0.87649E-01 11528   0.316E-01    0.241E+00
DAV: 137    -0.718102289185E+03   -0.18095E-01   -0.11916E+00 11048   0.318E-01    0.205E+00
DAV: 138    -0.718084027747E+03    0.18261E-01   -0.87341E-01 10928   0.312E-01    0.242E+00
DAV: 139    -0.718102819164E+03   -0.18791E-01   -0.12044E+00 10952   0.318E-01    0.205E+00
DAV: 140    -0.718083867825E+03    0.18951E-01   -0.87045E-01 10792   0.310E-01    0.242E+00
DAV: 141    -0.718103171199E+03   -0.19303E-01   -0.12123E+00 11360   0.319E-01    0.205E+00
DAV: 142    -0.718083823257E+03    0.19348E-01   -0.87053E-01 10952   0.310E-01    0.243E+00
DAV: 143    -0.718103768542E+03   -0.19945E-01   -0.12284E+00 10760   0.317E-01    0.205E+00
DAV: 144    -0.718083764785E+03    0.20004E-01   -0.86948E-01 10904   0.315E-01    0.244E+00
DAV: 145    -0.718103949232E+03   -0.20184E-01   -0.12340E+00 10856   0.318E-01    0.205E+00
DAV: 146    -0.718083779888E+03    0.20169E-01   -0.86985E-01 10776   0.312E-01    0.243E+00
DAV: 147    -0.718103902531E+03   -0.20123E-01   -0.12339E+00 10656   0.316E-01    0.206E+00
DAV: 148    -0.718083809451E+03    0.20093E-01   -0.87048E-01 10648   0.313E-01    0.243E+00
DAV: 149    -0.718103793983E+03   -0.19985E-01   -0.12322E+00 10632   0.317E-01    0.206E+00
DAV: 150    -0.718083837688E+03    0.19956E-01   -0.87082E-01 10664   0.314E-01    0.243E+00
DAV: 151    -0.718103550270E+03   -0.19713E-01   -0.12262E+00 10880   0.319E-01    0.206E+00
DAV: 152    -0.718084044471E+03    0.19506E-01   -0.87574E-01 10744   0.315E-01    0.244E+00
DAV: 153    -0.718103925726E+03   -0.19881E-01   -0.12367E+00 10944   0.321E-01    0.206E+00
DAV: 154    -0.718084071552E+03    0.19854E-01   -0.87579E-01 10768   0.312E-01    0.244E+00
DAV: 155    -0.718103794374E+03   -0.19723E-01   -0.12340E+00 10992   0.319E-01    0.206E+00
DAV: 156    -0.718084187042E+03    0.19607E-01   -0.87826E-01 10872   0.314E-01    0.245E+00
DAV: 157    -0.718103826638E+03   -0.19640E-01   -0.12359E+00 10712   0.317E-01    0.205E+00
DAV: 158    -0.718084223779E+03    0.19603E-01   -0.87851E-01 10784   0.313E-01    0.244E+00
DAV: 159    -0.718103689449E+03   -0.19466E-01   -0.12326E+00 10760   0.317E-01    0.205E+00
DAV: 160    -0.718084260274E+03    0.19429E-01   -0.87885E-01 10776   0.313E-01    0.244E+00
DAV: 161    -0.718103624190E+03   -0.19364E-01   -0.12314E+00 10760   0.315E-01    0.205E+00
DAV: 162    -0.718084233962E+03    0.19390E-01   -0.87769E-01 10648   0.314E-01    0.244E+00
DAV: 163    -0.718103397058E+03   -0.19163E-01   -0.12245E+00 10800   0.317E-01    0.205E+00
DAV: 164    -0.718084205857E+03    0.19191E-01   -0.87663E-01 10728   0.313E-01    0.243E+00
DAV: 165    -0.718103298765E+03   -0.19093E-01   -0.12212E+00 10704   0.318E-01    0.205E+00
DAV: 166    -0.718084199283E+03    0.19099E-01   -0.87513E-01 11088   0.319E-01    0.242E+00
DAV: 167    -0.718102669358E+03   -0.18470E-01   -0.12044E+00 10816   0.316E-01    0.205E+00
DAV: 168    -0.718084168261E+03    0.18501E-01   -0.87301E-01 10632   0.310E-01    0.241E+00
DAV: 169    -0.718102367654E+03   -0.18199E-01   -0.11939E+00 10776   0.317E-01    0.204E+00
DAV: 170    -0.718084113223E+03    0.18254E-01   -0.87110E-01 10720   0.310E-01    0.241E+00
DAV: 171    -0.718102520198E+03   -0.18407E-01   -0.11981E+00 11624   0.323E-01    0.204E+00
DAV: 172    -0.718083974127E+03    0.18546E-01   -0.86512E-01 11232   0.308E-01    0.239E+00
DAV: 173    -0.718102071792E+03   -0.18098E-01   -0.11798E+00 10816   0.315E-01    0.203E+00
DAV: 174    -0.718083846853E+03    0.18225E-01   -0.86194E-01 10688   0.311E-01    0.240E+00
DAV: 175    -0.718102439921E+03   -0.18593E-01   -0.11878E+00 10960   0.318E-01    0.203E+00
DAV: 176    -0.718083654384E+03    0.18786E-01   -0.85708E-01 10976   0.314E-01    0.240E+00
DAV: 177    -0.718102692509E+03   -0.19038E-01   -0.11917E+00 10784   0.316E-01    0.202E+00
DAV: 178    -0.718083503672E+03    0.19189E-01   -0.85231E-01 10696   0.309E-01    0.239E+00
DAV: 179    -0.718102693184E+03   -0.19190E-01   -0.11881E+00 10600   0.315E-01    0.202E+00
DAV: 180    -0.718083393848E+03    0.19299E-01   -0.84886E-01 10584   0.310E-01    0.239E+00
DAV: 181    -0.718102814945E+03   -0.19421E-01   -0.11886E+00 10608   0.316E-01    0.202E+00
DAV: 182    -0.718083273701E+03    0.19541E-01   -0.84526E-01 10596   0.313E-01    0.239E+00
DAV: 183    -0.718102885012E+03   -0.19611E-01   -0.11878E+00 10684   0.317E-01    0.202E+00
DAV: 184    -0.718083180003E+03    0.19705E-01   -0.84256E-01 10660   0.312E-01    0.239E+00
DAV: 185    -0.718102978272E+03   -0.19798E-01   -0.11882E+00 10700   0.316E-01    0.201E+00
DAV: 186    -0.718083105006E+03    0.19873E-01   -0.84041E-01 10676   0.312E-01    0.239E+00
DAV: 187    -0.718103070579E+03   -0.19966E-01   -0.11889E+00 10636   0.316E-01    0.201E+00
DAV: 188    -0.718083035901E+03    0.20035E-01   -0.83841E-01 10652   0.311E-01    0.239E+00
DAV: 189    -0.718103127120E+03   -0.20091E-01   -0.11888E+00 10668   0.316E-01    0.201E+00
DAV: 190    -0.718082979502E+03    0.20148E-01   -0.83676E-01 10702   0.311E-01    0.238E+00
DAV: 191    -0.718103188126E+03   -0.20209E-01   -0.11890E+00 10728   0.316E-01    0.201E+00
DAV: 192    -0.718082928514E+03    0.20260E-01   -0.83520E-01 10632   0.311E-01    0.238E+00
DAV: 193    -0.718103227643E+03   -0.20299E-01   -0.11886E+00 10680   0.316E-01    0.201E+00
DAV: 194    -0.718082883258E+03    0.20344E-01   -0.83391E-01 10736   0.312E-01    0.238E+00
DAV: 195    -0.718103286658E+03   -0.20403E-01   -0.11891E+00 10728   0.317E-01    0.200E+00
DAV: 196    -0.718082838854E+03    0.20448E-01   -0.83261E-01 10656   0.312E-01    0.238E+00
DAV: 197    -0.718103339308E+03   -0.20500E-01   -0.11891E+00 10648   0.316E-01    0.200E+00
DAV: 198    -0.718082785541E+03    0.20554E-01   -0.83120E-01 10640   0.311E-01    0.238E+00
DAV: 199    -0.718103389634E+03   -0.20604E-01   -0.11892E+00 10632   0.316E-01    0.200E+00
DAV: 200    -0.718082743273E+03    0.20646E-01   -0.83015E-01 10648   0.313E-01    0.238E+00
DAV: 201    -0.718103448740E+03   -0.20705E-01   -0.11898E+00 10656   0.317E-01    0.200E+00
DAV: 202    -0.718082687601E+03    0.20761E-01   -0.82856E-01 10680   0.313E-01    0.238E+00
DAV: 203    -0.718103433071E+03   -0.20745E-01   -0.11880E+00 10696   0.318E-01    0.200E+00
DAV: 204    -0.718082658887E+03    0.20774E-01   -0.82805E-01 10696   0.313E-01    0.238E+00
DAV: 205    -0.718103504915E+03   -0.20846E-01   -0.11899E+00 10712   0.317E-01    0.200E+00
DAV: 206    -0.718082626508E+03    0.20878E-01   -0.82657E-01 10728   0.312E-01    0.238E+00
DAV: 207    -0.718103327887E+03   -0.20701E-01   -0.11836E+00 10664   0.316E-01    0.200E+00
DAV: 208    -0.718082623105E+03    0.20705E-01   -0.82663E-01 10704   0.311E-01    0.238E+00
DAV: 209    -0.718103376492E+03   -0.20753E-01   -0.11849E+00 10664   0.316E-01    0.200E+00
DAV: 210    -0.718082613893E+03    0.20763E-01   -0.82623E-01 10672   0.311E-01    0.238E+00
DAV: 211    -0.718103361721E+03   -0.20748E-01   -0.11847E+00 10648   0.316E-01    0.200E+00
DAV: 212    -0.718082598965E+03    0.20763E-01   -0.82522E-01 10696   0.311E-01    0.238E+00
DAV: 213    -0.718103197843E+03   -0.20599E-01   -0.11780E+00 10656   0.315E-01    0.200E+00
DAV: 214    -0.718082631004E+03    0.20567E-01   -0.82626E-01 10664   0.311E-01    0.238E+00
DAV: 215    -0.718103334453E+03   -0.20703E-01   -0.11831E+00 10680   0.317E-01    0.200E+00
DAV: 216    -0.718082603657E+03    0.20731E-01   -0.82581E-01 10720   0.313E-01    0.238E+00
DAV: 217    -0.718103320042E+03   -0.20716E-01   -0.11822E+00 10656   0.317E-01    0.200E+00
DAV: 218    -0.718082606837E+03    0.20713E-01   -0.82557E-01 10664   0.312E-01    0.238E+00
DAV: 219    -0.718103220422E+03   -0.20614E-01   -0.11788E+00 10704   0.318E-01    0.200E+00
DAV: 220    -0.718082617555E+03    0.20603E-01   -0.82660E-01 10696   0.313E-01    0.238E+00
DAV: 221    -0.718103399142E+03   -0.20782E-01   -0.11854E+00 10680   0.319E-01    0.200E+00
DAV: 222    -0.718082578772E+03    0.20820E-01   -0.82489E-01 10752   0.311E-01    0.237E+00
DAV: 223    -0.718103159001E+03   -0.20580E-01   -0.11760E+00 10712   0.318E-01    0.200E+00
DAV: 224    -0.718082612981E+03    0.20546E-01   -0.82661E-01 10704   0.314E-01    0.238E+00
DAV: 225    -0.718103459744E+03   -0.20847E-01   -0.11868E+00 10712   0.318E-01    0.199E+00
DAV: 226    -0.718082534928E+03    0.20925E-01   -0.82428E-01 10760   0.313E-01    0.238E+00
DAV: 227    -0.718103346063E+03   -0.20811E-01   -0.11813E+00 10818   0.320E-01    0.199E+00
DAV: 228    -0.718082522106E+03    0.20824E-01   -0.82450E-01 10704   0.312E-01    0.238E+00
DAV: 229    -0.718103560070E+03   -0.21038E-01   -0.11881E+00 10786   0.317E-01    0.199E+00
DAV: 230    -0.718082450999E+03    0.21109E-01   -0.82233E-01 10728   0.311E-01    0.238E+00
DAV: 231    -0.718103439418E+03   -0.20988E-01   -0.11824E+00 10762   0.317E-01    0.199E+00
DAV: 232    -0.718082447640E+03    0.20992E-01   -0.82316E-01 11320   0.309E-01    0.238E+00
DAV: 233    -0.718103735978E+03   -0.21288E-01   -0.11929E+00 10618   0.316E-01    0.199E+00
DAV: 234    -0.718082354347E+03    0.21382E-01   -0.82038E-01 10994   0.314E-01    0.238E+00
DAV: 235    -0.718103518008E+03   -0.21164E-01   -0.11838E+00 11058   0.319E-01    0.199E+00
DAV: 236    -0.718082361665E+03    0.21156E-01   -0.82164E-01 10978   0.316E-01    0.238E+00
DAV: 237    -0.718103850652E+03   -0.21489E-01   -0.11954E+00 10898   0.318E-01    0.199E+00
DAV: 238    -0.718082289008E+03    0.21562E-01   -0.81885E-01 10842   0.312E-01    0.238E+00
DAV: 239    -0.718103603194E+03   -0.21314E-01   -0.11848E+00 10826   0.318E-01    0.199E+00
DAV: 240    -0.718082299161E+03    0.21304E-01   -0.81987E-01 10858   0.313E-01    0.238E+00
DAV: 241    -0.718103873733E+03   -0.21575E-01   -0.11945E+00 10938   0.320E-01    0.199E+00
DAV: 242    -0.718082246177E+03    0.21628E-01   -0.81755E-01 10666   0.311E-01    0.238E+00
DAV: 243    -0.718103699955E+03   -0.21454E-01   -0.11864E+00 10626   0.316E-01    0.200E+00
DAV: 244    -0.718082224735E+03    0.21475E-01   -0.81777E-01 10690   0.312E-01    0.238E+00
DAV: 245    -0.718103936372E+03   -0.21712E-01   -0.11947E+00 10642   0.316E-01    0.199E+00
DAV: 246    -0.718082136752E+03    0.21800E-01   -0.81435E-01 10794   0.310E-01    0.237E+00
DAV: 247    -0.718103752551E+03   -0.21616E-01   -0.11853E+00 10898   0.318E-01    0.199E+00
DAV: 248    -0.718082087806E+03    0.21665E-01   -0.81377E-01 10866   0.314E-01    0.238E+00
DAV: 249    -0.718104048944E+03   -0.21961E-01   -0.11946E+00 11018   0.321E-01    0.199E+00
DAV: 250    -0.718081976067E+03    0.22073E-01   -0.81014E-01 10914   0.313E-01    0.237E+00
DAV: 251    -0.718103927561E+03   -0.21951E-01   -0.11877E+00 10890   0.316E-01    0.199E+00
DAV: 252    -0.718081913555E+03    0.22014E-01   -0.80884E-01 10794   0.311E-01    0.238E+00
DAV: 253    -0.718104166377E+03   -0.22253E-01   -0.11941E+00 11050   0.320E-01    0.199E+00
DAV: 254    -0.718081837319E+03    0.22329E-01   -0.80621E-01 10906   0.316E-01    0.237E+00
DAV: 255    -0.718104102158E+03   -0.22265E-01   -0.11897E+00 10914   0.318E-01    0.199E+00
DAV: 256    -0.718081809225E+03    0.22293E-01   -0.80584E-01 10914   0.314E-01    0.238E+00
DAV: 257    -0.718104267216E+03   -0.22458E-01   -0.11947E+00 10866   0.318E-01    0.198E+00
DAV: 258    -0.718081776570E+03    0.22491E-01   -0.80451E-01 10874   0.313E-01    0.237E+00
DAV: 259    -0.718104199725E+03   -0.22423E-01   -0.11910E+00 10858   0.317E-01    0.198E+00
DAV: 260    -0.718081776885E+03    0.22423E-01   -0.80464E-01 10754   0.312E-01    0.238E+00
DAV: 261    -0.718104293239E+03   -0.22516E-01   -0.11939E+00 10770   0.317E-01    0.198E+00
DAV: 262    -0.718081766150E+03    0.22527E-01   -0.80398E-01 10762   0.312E-01    0.237E+00
DAV: 263    -0.718104250240E+03   -0.22484E-01   -0.11917E+00 10738   0.316E-01    0.198E+00
DAV: 264    -0.718081769433E+03    0.22481E-01   -0.80409E-01 10674   0.312E-01    0.237E+00
DAV: 265    -0.718104304875E+03   -0.22535E-01   -0.11933E+00 10618   0.316E-01    0.198E+00
DAV: 266    -0.718081765224E+03    0.22540E-01   -0.80369E-01 10682   0.313E-01    0.237E+00
DAV: 267    -0.718104285786E+03   -0.22521E-01   -0.11921E+00 10706   0.317E-01    0.198E+00
DAV: 268    -0.718081766509E+03    0.22519E-01   -0.80378E-01 10682   0.313E-01    0.238E+00
DAV: 269    -0.718104325484E+03   -0.22559E-01   -0.11935E+00 10674   0.317E-01    0.198E+00
DAV: 270    -0.718081762693E+03    0.22563E-01   -0.80339E-01 10642   0.313E-01    0.237E+00
DAV: 271    -0.718104293252E+03   -0.22531E-01   -0.11920E+00 10690   0.317E-01    0.198E+00
DAV: 272    -0.718081766147E+03    0.22527E-01   -0.80379E-01 10778   0.313E-01    0.238E+00
DAV: 273    -0.718104389214E+03   -0.22623E-01   -0.11954E+00 10738   0.318E-01    0.198E+00
DAV: 274    -0.718081780775E+03    0.22608E-01   -0.80328E-01 10722   0.313E-01    0.237E+00
DAV: 275    -0.718104245535E+03   -0.22465E-01   -0.11904E+00 10714   0.317E-01    0.198E+00
DAV: 276    -0.718081760436E+03    0.22485E-01   -0.80345E-01 10730   0.314E-01    0.238E+00
DAV: 277    -0.718104441031E+03   -0.22681E-01   -0.11964E+00 10730   0.318E-01    0.198E+00
DAV: 278    -0.718081783160E+03    0.22658E-01   -0.80298E-01 10714   0.313E-01    0.237E+00
DAV: 279    -0.718104203540E+03   -0.22420E-01   -0.11884E+00 10642   0.316E-01    0.198E+00
DAV: 280    -0.718081829869E+03    0.22374E-01   -0.80463E-01 10682   0.312E-01    0.237E+00
DAV: 281    -0.718104297329E+03   -0.22467E-01   -0.11927E+00 10666   0.316E-01    0.199E+00
DAV: 282    -0.718081937166E+03    0.22360E-01   -0.80679E-01 10610   0.311E-01    0.237E+00
DAV: 283    -0.718104096033E+03   -0.22159E-01   -0.11883E+00 10602   0.315E-01    0.199E+00
DAV: 284    -0.718082047387E+03    0.22049E-01   -0.80938E-01 10626   0.313E-01    0.237E+00
DAV: 285    -0.718104035033E+03   -0.21988E-01   -0.11880E+00 10642   0.319E-01    0.199E+00
DAV: 286    -0.718082098847E+03    0.21936E-01   -0.81031E-01 10706   0.314E-01    0.237E+00
DAV: 287    -0.718103949994E+03   -0.21851E-01   -0.11863E+00 10698   0.316E-01    0.199E+00
DAV: 288    -0.718082114017E+03    0.21836E-01   -0.81050E-01 10634   0.312E-01    0.237E+00
DAV: 289    -0.718103923478E+03   -0.21809E-01   -0.11854E+00 10626   0.315E-01    0.199E+00
DAV: 290    -0.718082105551E+03    0.21818E-01   -0.81052E-01 10642   0.311E-01    0.237E+00
DAV: 291    -0.718103958443E+03   -0.21853E-01   -0.11872E+00 10594   0.315E-01    0.199E+00
DAV: 292    -0.718082084605E+03    0.21874E-01   -0.80995E-01 10658   0.312E-01    0.237E+00
DAV: 293    -0.718103904431E+03   -0.21820E-01   -0.11846E+00 10618   0.316E-01    0.199E+00
DAV: 294    -0.718082077869E+03    0.21827E-01   -0.81033E-01 10658   0.312E-01    0.237E+00
DAV: 295    -0.718103999135E+03   -0.21921E-01   -0.11889E+00 10674   0.317E-01    0.199E+00
DAV: 296    -0.718082061048E+03    0.21938E-01   -0.80951E-01 10650   0.313E-01    0.237E+00
DAV: 297    -0.718103873932E+03   -0.21813E-01   -0.11834E+00 10730   0.317E-01    0.199E+00
DAV: 298    -0.718082059280E+03    0.21815E-01   -0.81027E-01 10698   0.312E-01    0.237E+00
DAV: 299    -0.718104059767E+03   -0.22000E-01   -0.11913E+00 10666   0.318E-01    0.199E+00
DAV: 300    -0.718082022296E+03    0.22037E-01   -0.80834E-01 10690   0.313E-01    0.237E+00
DAV: 301    -0.718103848456E+03   -0.21826E-01   -0.11811E+00 10690   0.315E-01    0.199E+00
DAV: 302    -0.718082004764E+03    0.21844E-01   -0.80938E-01 10698   0.312E-01    0.238E+00
DAV: 303    -0.718104236723E+03   -0.22232E-01   -0.11968E+00 10690   0.318E-01    0.199E+00
DAV: 304    -0.718081937611E+03    0.22299E-01   -0.80593E-01 10698   0.314E-01    0.237E+00
DAV: 305    -0.718103851805E+03   -0.21914E-01   -0.11794E+00 10658   0.316E-01    0.199E+00
DAV: 306    -0.718081922061E+03    0.21930E-01   -0.80798E-01 10706   0.314E-01    0.238E+00
DAV: 307    -0.718104412326E+03   -0.22490E-01   -0.12016E+00 10706   0.319E-01    0.199E+00
DAV: 308    -0.718081868496E+03    0.22544E-01   -0.80460E-01 10698   0.315E-01    0.237E+00
DAV: 309    -0.718103944962E+03   -0.22076E-01   -0.11820E+00 10682   0.318E-01    0.199E+00
DAV: 310    -0.718081865640E+03    0.22079E-01   -0.80645E-01 10706   0.314E-01    0.238E+00
DAV: 311    -0.718104379678E+03   -0.22514E-01   -0.11988E+00 10706   0.319E-01    0.199E+00
DAV: 312    -0.718081836105E+03    0.22544E-01   -0.80436E-01 10738   0.315E-01    0.237E+00
DAV: 313    -0.718104096284E+03   -0.22260E-01   -0.11869E+00 10714   0.319E-01    0.199E+00
DAV: 314    -0.718081833389E+03    0.22263E-01   -0.80522E-01 10722   0.314E-01    0.238E+00
DAV: 315    -0.718104324852E+03   -0.22491E-01   -0.11954E+00 10682   0.318E-01    0.199E+00
DAV: 316    -0.718081815434E+03    0.22509E-01   -0.80408E-01 10722   0.314E-01    0.237E+00
DAV: 317    -0.718104203743E+03   -0.22388E-01   -0.11900E+00 10690   0.318E-01    0.199E+00
DAV: 318    -0.718081805859E+03    0.22398E-01   -0.80422E-01 10722   0.313E-01    0.238E+00
DAV: 319    -0.718104313123E+03   -0.22507E-01   -0.11937E+00 10682   0.317E-01    0.199E+00
DAV: 320    -0.718081790875E+03    0.22522E-01   -0.80354E-01 10698   0.313E-01    0.237E+00
DAV: 321    -0.718104272050E+03   -0.22481E-01   -0.11915E+00 10674   0.316E-01    0.198E+00
DAV: 322    -0.718081776125E+03    0.22496E-01   -0.80321E-01 10658   0.312E-01    0.237E+00
DAV: 323    -0.718104324339E+03   -0.22548E-01   -0.11927E+00 10754   0.318E-01    0.198E+00
DAV: 324    -0.718081756254E+03    0.22568E-01   -0.80267E-01 10826   0.315E-01    0.237E+00
DAV: 325    -0.718104343893E+03   -0.22588E-01   -0.11927E+00 10762   0.318E-01    0.198E+00
DAV: 326    -0.718081732957E+03    0.22611E-01   -0.80210E-01 10786   0.315E-01    0.237E+00
DAV: 327    -0.718104369235E+03   -0.22636E-01   -0.11929E+00 10764   0.320E-01    0.198E+00
DAV: 328    -0.718081711131E+03    0.22658E-01   -0.80168E-01 10754   0.316E-01    0.237E+00
DAV: 329    -0.718104399922E+03   -0.22689E-01   -0.11936E+00 10684   0.319E-01    0.198E+00
DAV: 330    -0.718081700279E+03    0.22700E-01   -0.80107E-01 10746   0.314E-01    0.237E+00
DAV: 331    -0.718104347273E+03   -0.22647E-01   -0.11909E+00 10700   0.318E-01    0.198E+00
DAV: 332    -0.718081701996E+03    0.22645E-01   -0.80169E-01 10746   0.314E-01    0.238E+00
DAV: 333    -0.718104501662E+03   -0.22800E-01   -0.11967E+00 10692   0.318E-01    0.198E+00
DAV: 334    -0.718081695474E+03    0.22806E-01   -0.80036E-01 10778   0.313E-01    0.237E+00
DAV: 335    -0.718104274840E+03   -0.22579E-01   -0.11882E+00 10716   0.317E-01    0.198E+00
DAV: 336    -0.718081690233E+03    0.22585E-01   -0.80151E-01 10684   0.313E-01    0.238E+00
DAV: 337    -0.718104556486E+03   -0.22866E-01   -0.11977E+00 10684   0.317E-01    0.198E+00
DAV: 338    -0.718081691010E+03    0.22865E-01   -0.80048E-01 10692   0.314E-01    0.237E+00
DAV: 339    -0.718104328188E+03   -0.22637E-01   -0.11898E+00 10692   0.318E-01    0.198E+00
DAV: 340    -0.718081694546E+03    0.22634E-01   -0.80122E-01 10700   0.313E-01    0.237E+00
DAV: 341    -0.718104465191E+03   -0.22771E-01   -0.11946E+00 10676   0.317E-01    0.198E+00
DAV: 342    -0.718081702020E+03    0.22763E-01   -0.80113E-01 10676   0.314E-01    0.237E+00
DAV: 343    -0.718104366140E+03   -0.22664E-01   -0.11917E+00 10684   0.318E-01    0.198E+00
DAV: 344    -0.718081721813E+03    0.22644E-01   -0.80186E-01 10684   0.314E-01    0.237E+00
DAV: 345    -0.718104382231E+03   -0.22660E-01   -0.11928E+00 10700   0.318E-01    0.198E+00
DAV: 346    -0.718081751801E+03    0.22630E-01   -0.80263E-01 10668   0.313E-01    0.237E+00
DAV: 347    -0.718104298771E+03   -0.22547E-01   -0.11914E+00 10692   0.317E-01    0.198E+00
DAV: 348    -0.718081865209E+03    0.22434E-01   -0.80510E-01 10660   0.312E-01    0.237E+00
DAV: 349    -0.718104186805E+03   -0.22322E-01   -0.11895E+00 10636   0.316E-01    0.199E+00
DAV: 350    -0.718081969543E+03    0.22217E-01   -0.80721E-01 10620   0.312E-01    0.237E+00
DAV: 351    -0.718104099671E+03   -0.22130E-01   -0.11882E+00 10644   0.317E-01    0.199E+00
DAV: 352    -0.718082021737E+03    0.22078E-01   -0.80833E-01 10708   0.315E-01    0.237E+00
DAV: 353    -0.718104050673E+03   -0.22029E-01   -0.11877E+00 10700   0.318E-01    0.199E+00
DAV: 354    -0.718082034611E+03    0.22016E-01   -0.80880E-01 10668   0.313E-01    0.237E+00
DAV: 355    -0.718104026185E+03   -0.21992E-01   -0.11878E+00 10660   0.317E-01    0.199E+00
DAV: 356    -0.718082042152E+03    0.21984E-01   -0.80913E-01 10676   0.313E-01    0.237E+00
DAV: 357    -0.718104000221E+03   -0.21958E-01   -0.11875E+00 10684   0.318E-01    0.199E+00
DAV: 358    -0.718082049388E+03    0.21951E-01   -0.80943E-01 10708   0.313E-01    0.237E+00
DAV: 359    -0.718103990846E+03   -0.21941E-01   -0.11876E+00 10620   0.317E-01    0.199E+00
DAV: 360    -0.718082047777E+03    0.21943E-01   -0.80941E-01 10636   0.312E-01    0.237E+00
DAV: 361    -0.718103989232E+03   -0.21941E-01   -0.11875E+00 10644   0.317E-01    0.199E+00
DAV: 362    -0.718082030952E+03    0.21958E-01   -0.80909E-01 10676   0.312E-01    0.237E+00
DAV: 363    -0.718104024873E+03   -0.21994E-01   -0.11886E+00 10652   0.316E-01    0.199E+00
DAV: 364    -0.718082002282E+03    0.22023E-01   -0.80837E-01 10596   0.312E-01    0.237E+00
DAV: 365    -0.718104037954E+03   -0.22036E-01   -0.11883E+00 10612   0.316E-01    0.199E+00
DAV: 366    -0.718081977173E+03    0.22061E-01   -0.80789E-01 10652   0.312E-01    0.237E+00
DAV: 367    -0.718104113797E+03   -0.22137E-01   -0.11906E+00 10644   0.318E-01    0.199E+00
DAV: 368    -0.718081924622E+03    0.22189E-01   -0.80654E-01 10724   0.315E-01    0.237E+00
DAV: 369    -0.718104110915E+03   -0.22186E-01   -0.11892E+00 10724   0.319E-01    0.199E+00
DAV: 370    -0.718081889388E+03    0.22222E-01   -0.80620E-01 10732   0.314E-01    0.237E+00
DAV: 371    -0.718104240948E+03   -0.22352E-01   -0.11939E+00 10732   0.318E-01    0.199E+00
DAV: 372    -0.718081844310E+03    0.22397E-01   -0.80470E-01 10708   0.315E-01    0.237E+00
DAV: 373    -0.718104138357E+03   -0.22294E-01   -0.11883E+00 10708   0.318E-01    0.199E+00
DAV: 374    -0.718081838220E+03    0.22300E-01   -0.80547E-01 10716   0.314E-01    0.238E+00
DAV: 375    -0.718104374598E+03   -0.22536E-01   -0.11981E+00 10668   0.318E-01    0.199E+00
DAV: 376    -0.718081794987E+03    0.22580E-01   -0.80313E-01 10676   0.314E-01    0.237E+00
DAV: 377    -0.718104084956E+03   -0.22290E-01   -0.11845E+00 10676   0.318E-01    0.199E+00
DAV: 378    -0.718081814223E+03    0.22271E-01   -0.80540E-01 10708   0.313E-01    0.238E+00
DAV: 379    -0.718104540191E+03   -0.22726E-01   -0.12035E+00 10652   0.318E-01    0.199E+00
DAV: 380    -0.718081763919E+03    0.22776E-01   -0.80192E-01 10670   0.314E-01    0.237E+00
DAV: 381    -0.718104030271E+03   -0.22266E-01   -0.11817E+00 10648   0.317E-01    0.199E+00
DAV: 382    -0.718081786308E+03    0.22244E-01   -0.80467E-01 10704   0.314E-01    0.238E+00
DAV: 383    -0.718104563435E+03   -0.22777E-01   -0.12028E+00 10680   0.319E-01    0.198E+00
DAV: 384    -0.718081749973E+03    0.22813E-01   -0.80200E-01 10672   0.314E-01    0.237E+00
DAV: 385    -0.718104181874E+03   -0.22432E-01   -0.11873E+00 10696   0.317E-01    0.198E+00
DAV: 386    -0.718081757801E+03    0.22424E-01   -0.80309E-01 10688   0.313E-01    0.238E+00
DAV: 387    -0.718104402012E+03   -0.22644E-01   -0.11952E+00 10704   0.318E-01    0.198E+00
DAV: 388    -0.718081746812E+03    0.22655E-01   -0.80287E-01 10720   0.314E-01    0.238E+00
DAV: 389    -0.718104455781E+03   -0.22709E-01   -0.11972E+00 10696   0.318E-01    0.198E+00
DAV: 390    -0.718081732053E+03    0.22724E-01   -0.80129E-01 10672   0.314E-01    0.237E+00
DAV: 391    -0.718104169025E+03   -0.22437E-01   -0.11860E+00 10672   0.317E-01    0.198E+00
DAV: 392    -0.718081730368E+03    0.22439E-01   -0.80314E-01 10680   0.315E-01    0.238E+00
DAV: 393    -0.718104592468E+03   -0.22862E-01   -0.12015E+00 10738   0.320E-01    0.198E+00
DAV: 394    -0.718081713641E+03    0.22879E-01   -0.80105E-01 10720   0.316E-01    0.237E+00
DAV: 395    -0.718104204032E+03   -0.22490E-01   -0.11867E+00 10728   0.320E-01    0.198E+00
DAV: 396    -0.718081726489E+03    0.22478E-01   -0.80248E-01 10720   0.315E-01    0.238E+00
DAV: 397    -0.718104481011E+03   -0.22755E-01   -0.11967E+00 10784   0.319E-01    0.198E+00
DAV: 398    -0.718081719750E+03    0.22761E-01   -0.80126E-01 10714   0.315E-01    0.237E+00
DAV: 399    -0.718104303521E+03   -0.22584E-01   -0.11894E+00 10736   0.319E-01    0.198E+00
DAV: 400    -0.718081718110E+03    0.22585E-01   -0.80166E-01 10704   0.314E-01    0.237E+00
DAV: 401    -0.718104435350E+03   -0.22717E-01   -0.11941E+00 10720   0.318E-01    0.198E+00
DAV: 402    -0.718081710740E+03    0.22725E-01   -0.80119E-01 10680   0.314E-01    0.237E+00
DAV: 403    -0.718104368046E+03   -0.22657E-01   -0.11915E+00 10674   0.317E-01    0.198E+00
DAV: 404    -0.718081714262E+03    0.22654E-01   -0.80159E-01 10664   0.313E-01    0.237E+00
DAV: 405    -0.718104405486E+03   -0.22691E-01   -0.11933E+00 10648   0.317E-01    0.198E+00
DAV: 406    -0.718081720478E+03    0.22685E-01   -0.80174E-01 10634   0.313E-01    0.237E+00
DAV: 407    -0.718104351965E+03   -0.22631E-01   -0.11919E+00 10656   0.319E-01    0.198E+00
DAV: 408    -0.718081755440E+03    0.22597E-01   -0.80269E-01 10666   0.315E-01    0.237E+00
DAV: 409    -0.718104327230E+03   -0.22572E-01   -0.11920E+00 10688   0.319E-01    0.198E+00
DAV: 410    -0.718081796727E+03    0.22531E-01   -0.80353E-01 10658   0.314E-01    0.237E+00
DAV: 411    -0.718104272620E+03   -0.22476E-01   -0.11909E+00 10672   0.318E-01    0.199E+00
DAV: 412    -0.718081868811E+03    0.22404E-01   -0.80507E-01 10690   0.314E-01    0.237E+00
DAV: 413    -0.718104200483E+03   -0.22332E-01   -0.11900E+00 10672   0.318E-01    0.199E+00
DAV: 414    -0.718081941370E+03    0.22259E-01   -0.80664E-01 10650   0.314E-01    0.237E+00
DAV: 415    -0.718104131999E+03   -0.22191E-01   -0.11891E+00 10680   0.317E-01    0.199E+00
DAV: 416    -0.718081989270E+03    0.22143E-01   -0.80786E-01 10610   0.312E-01    0.237E+00
DAV: 417    -0.718104082577E+03   -0.22093E-01   -0.11889E+00 10690   0.318E-01    0.199E+00
DAV: 418    -0.718082025691E+03    0.22057E-01   -0.80880E-01 10690   0.314E-01    0.237E+00
DAV: 419    -0.718104035993E+03   -0.22010E-01   -0.11884E+00 10714   0.318E-01    0.199E+00
DAV: 420    -0.718082045833E+03    0.21990E-01   -0.80935E-01 10674   0.313E-01    0.237E+00
DAV: 421    -0.718104008359E+03   -0.21963E-01   -0.11881E+00 10738   0.318E-01    0.199E+00
DAV: 422    -0.718082054252E+03    0.21954E-01   -0.80959E-01 10690   0.314E-01    0.237E+00
DAV: 423    -0.718103991912E+03   -0.21938E-01   -0.11879E+00 10698   0.318E-01    0.199E+00
DAV: 424    -0.718082052015E+03    0.21940E-01   -0.80958E-01 10642   0.313E-01    0.237E+00
DAV: 425    -0.718103994463E+03   -0.21942E-01   -0.11881E+00 10634   0.317E-01    0.199E+00
DAV: 426    -0.718082042018E+03    0.21952E-01   -0.80930E-01 10650   0.313E-01    0.237E+00
DAV: 427    -0.718103996554E+03   -0.21955E-01   -0.11878E+00 10698   0.317E-01    0.199E+00
DAV: 428    -0.718082023015E+03    0.21974E-01   -0.80899E-01 10634   0.312E-01    0.237E+00
DAV: 429    -0.718104038555E+03   -0.22016E-01   -0.11892E+00 10618   0.316E-01    0.199E+00
DAV: 430    -0.718081997393E+03    0.22041E-01   -0.80833E-01 10642   0.312E-01    0.237E+00
DAV: 431    -0.718104040282E+03   -0.22043E-01   -0.11885E+00 10666   0.317E-01    0.199E+00
DAV: 432    -0.718081966748E+03    0.22074E-01   -0.80778E-01 10658   0.314E-01    0.237E+00
DAV: 433    -0.718104114029E+03   -0.22147E-01   -0.11908E+00 10666   0.318E-01    0.199E+00
DAV: 434    -0.718081925286E+03    0.22189E-01   -0.80667E-01 10650   0.314E-01    0.237E+00
DAV: 435    -0.718104103563E+03   -0.22178E-01   -0.11891E+00 10674   0.318E-01    0.199E+00
DAV: 436    -0.718081901070E+03    0.22202E-01   -0.80656E-01 10674   0.314E-01    0.237E+00
DAV: 437    -0.718104242248E+03   -0.22341E-01   -0.11944E+00 10650   0.319E-01    0.199E+00
DAV: 438    -0.718081848740E+03    0.22394E-01   -0.80476E-01 10682   0.315E-01    0.237E+00
DAV: 439    -0.718104116189E+03   -0.22267E-01   -0.11875E+00 10634   0.318E-01    0.199E+00
DAV: 440    -0.718081848137E+03    0.22268E-01   -0.80568E-01 10650   0.313E-01    0.238E+00
DAV: 441    -0.718104373690E+03   -0.22526E-01   -0.11982E+00 10642   0.318E-01    0.199E+00
DAV: 442    -0.718081796338E+03    0.22577E-01   -0.80335E-01 10682   0.314E-01    0.237E+00
DAV: 443    -0.718104137769E+03   -0.22341E-01   -0.11872E+00 10658   0.318E-01    0.199E+00
DAV: 444    -0.718081802056E+03    0.22336E-01   -0.80434E-01 10642   0.313E-01    0.238E+00
DAV: 445    -0.718104357228E+03   -0.22555E-01   -0.11956E+00 10682   0.318E-01    0.199E+00
DAV: 446    -0.718081777693E+03    0.22580E-01   -0.80363E-01 10682   0.314E-01    0.238E+00
DAV: 447    -0.718104397645E+03   -0.22620E-01   -0.11963E+00 10650   0.318E-01    0.198E+00
DAV: 448    -0.718081741018E+03    0.22657E-01   -0.80170E-01 10690   0.314E-01    0.237E+00
DAV: 449    -0.718104166155E+03   -0.22425E-01   -0.11857E+00 10658   0.318E-01    0.198E+00
DAV: 450    -0.718081750381E+03    0.22416E-01   -0.80373E-01 10658   0.314E-01    0.238E+00
DAV: 451    -0.718104648959E+03   -0.22899E-01   -0.12047E+00 10626   0.319E-01    0.198E+00
DAV: 452    -0.718081699654E+03    0.22949E-01   -0.80018E-01 10634   0.316E-01    0.237E+00
DAV: 453    -0.718104096907E+03   -0.22397E-01   -0.11821E+00 10618   0.318E-01    0.198E+00
DAV: 454    -0.718081723985E+03    0.22373E-01   -0.80321E-01 10650   0.314E-01    0.238E+00
DAV: 455    -0.718104645404E+03   -0.22921E-01   -0.12038E+00 10634   0.319E-01    0.198E+00
DAV: 456    -0.718081697454E+03    0.22948E-01   -0.80065E-01 10682   0.315E-01    0.237E+00
DAV: 457    -0.718104194771E+03   -0.22497E-01   -0.11860E+00 10706   0.320E-01    0.198E+00
DAV: 458    -0.718081718999E+03    0.22476E-01   -0.80264E-01 10722   0.315E-01    0.238E+00
DAV: 459    -0.718104510474E+03   -0.22791E-01   -0.11984E+00 10714   0.320E-01    0.198E+00
DAV: 460    -0.718081719918E+03    0.22791E-01   -0.80144E-01 10714   0.314E-01    0.237E+00
DAV: 461    -0.718104272909E+03   -0.22553E-01   -0.11889E+00 10690   0.318E-01    0.198E+00
DAV: 462    -0.718081734552E+03    0.22538E-01   -0.80222E-01 10738   0.315E-01    0.237E+00
DAV: 463    -0.718104411837E+03   -0.22677E-01   -0.11940E+00 10738   0.321E-01    0.198E+00
DAV: 464    -0.718081731082E+03    0.22681E-01   -0.80161E-01 10722   0.316E-01    0.237E+00
DAV: 465    -0.718104328740E+03   -0.22598E-01   -0.11906E+00 10674   0.319E-01    0.198E+00
DAV: 466    -0.718081732482E+03    0.22596E-01   -0.80202E-01 10690   0.314E-01    0.237E+00
DAV: 467    -0.718104382708E+03   -0.22650E-01   -0.11931E+00 10682   0.318E-01    0.198E+00
DAV: 468    -0.718081744794E+03    0.22638E-01   -0.80221E-01 10722   0.314E-01    0.237E+00
DAV: 469    -0.718104326129E+03   -0.22581E-01   -0.11913E+00 10706   0.318E-01    0.198E+00
DAV: 470    -0.718081763450E+03    0.22563E-01   -0.80277E-01 10730   0.314E-01    0.237E+00
DAV: 471    -0.718104325570E+03   -0.22562E-01   -0.11919E+00 10682   0.318E-01    0.198E+00
DAV: 472    -0.718081788703E+03    0.22537E-01   -0.80330E-01 10754   0.315E-01    0.237E+00
DAV: 473    -0.718104280192E+03   -0.22491E-01   -0.11909E+00 10698   0.319E-01    0.198E+00
DAV: 474    -0.718081815370E+03    0.22465E-01   -0.80392E-01 10738   0.314E-01    0.237E+00
DAV: 475    -0.718104256814E+03   -0.22441E-01   -0.11906E+00 10690   0.318E-01    0.198E+00
DAV: 476    -0.718081838894E+03    0.22418E-01   -0.80447E-01 10714   0.314E-01    0.237E+00
DAV: 477    -0.718104220438E+03   -0.22382E-01   -0.11901E+00 10642   0.319E-01    0.199E+00
DAV: 478    -0.718081879164E+03    0.22341E-01   -0.80535E-01 10698   0.315E-01    0.237E+00
DAV: 479    -0.718104187648E+03   -0.22308E-01   -0.11898E+00 10634   0.319E-01    0.199E+00
DAV: 480    -0.718081907511E+03    0.22280E-01   -0.80602E-01 10714   0.314E-01    0.237E+00
DAV: 481    -0.718104161750E+03   -0.22254E-01   -0.11898E+00 10690   0.318E-01    0.199E+00
DAV: 482    -0.718081944014E+03    0.22218E-01   -0.80694E-01 10730   0.315E-01    0.237E+00
DAV: 483    -0.718104130081E+03   -0.22186E-01   -0.11897E+00 10706   0.319E-01    0.199E+00
DAV: 484    -0.718081969989E+03    0.22160E-01   -0.80760E-01 10738   0.314E-01    0.237E+00
DAV: 485    -0.718104092515E+03   -0.22123E-01   -0.11893E+00 10690   0.317E-01    0.199E+00
DAV: 486    -0.718081990641E+03    0.22102E-01   -0.80819E-01 10714   0.313E-01    0.237E+00
DAV: 487    -0.718104068983E+03   -0.22078E-01   -0.11893E+00 10698   0.319E-01    0.199E+00
DAV: 488    -0.718082005553E+03    0.22063E-01   -0.80862E-01 10698   0.315E-01    0.237E+00
DAV: 489    -0.718104046535E+03   -0.22041E-01   -0.11890E+00 10682   0.318E-01    0.199E+00
DAV: 490    -0.718082011236E+03    0.22035E-01   -0.80877E-01 10698   0.313E-01    0.237E+00
DAV: 491    -0.718104043232E+03   -0.22032E-01   -0.11891E+00 10674   0.318E-01    0.199E+00
DAV: 492    -0.718082004951E+03    0.22038E-01   -0.80863E-01 10714   0.314E-01    0.237E+00
DAV: 493    -0.718104054991E+03   -0.22050E-01   -0.11894E+00 10682   0.317E-01    0.199E+00
DAV: 494    -0.718081993316E+03    0.22062E-01   -0.80837E-01 10722   0.313E-01    0.237E+00
DAV: 495    -0.718104074086E+03   -0.22081E-01   -0.11900E+00 10658   0.317E-01    0.199E+00
DAV: 496    -0.718081972301E+03    0.22102E-01   -0.80784E-01 10666   0.313E-01    0.237E+00
DAV: 497    -0.718104106679E+03   -0.22134E-01   -0.11903E+00 10650   0.317E-01    0.199E+00
DAV: 498    -0.718081939590E+03    0.22167E-01   -0.80709E-01 10658   0.313E-01    0.237E+00
DAV: 499    -0.718104149918E+03   -0.22210E-01   -0.11917E+00 10666   0.317E-01    0.199E+00
DAV: 500    -0.718081888016E+03    0.22262E-01   -0.80608E-01 10658   0.313E-01
 -----------------------------------------------------------------------------
|                                                                             |
|           W    W    AA    RRRRR   N    N  II  N    N   GGGG   !!!           |
|           W    W   A  A   R    R  NN   N  II  NN   N  G    G  !!!           |
|           W    W  A    A  R    R  N N  N  II  N N  N  G       !!!           |
|           W WW W  AAAAAA  RRRRR   N  N N  II  N  N N  G  GGG   !            |
|           WW  WW  A    A  R   R   N   NN  II  N   NN  G    G                |
|           W    W  A    A  R    R  N    N  II  N    N   GGGG   !!!           |
|                                                                             |
|     The electronic self-consistency was not achieved in the given           |
|     number of steps (NELM). The forces and other quantities evaluated       |
|     might not be reliable so examine the results carefully. If you find     |
|     spurious results, we suggest increasing NELM, if you were close to      |
|     convergence or switching to a different ALGO or adjusting the           |
|     density mixing parameters otherwise.                                    |
|                                                                             |
 -----------------------------------------------------------------------------

   1 F= -.71808189E+03 E0= -.71806196E+03  d E =-.398645E-01
 writing wavefunctions
Warning: ieee_invalid is signaling
Warning: ieee_divide_by_zero is signaling
Warning: ieee_underflow is signaling
Warning: ieee_inexact is signaling
FORTRAN STOP
Warning: ieee_invalid is signaling
Warning: ieee_divide_by_zero is signaling
Warning: ieee_underflow is signaling
Warning: ieee_inexact is signaling
FORTRAN STOP
Warning: ieee_invalid is signaling
Warning: ieee_divide_by_zero is signaling
Warning: ieee_underflow is signaling
Warning: ieee_inexact is signaling
FORTRAN STOP
Warning: ieee_invalid is signaling
Warning: ieee_divide_by_zero is signaling
Warning: ieee_underflow is signaling
Warning: ieee_inexact is signaling
FORTRAN STOP
