 vasp.6.4.2 20Jul23 (build Nov 12 2023 22:16:35) complex                         
 executed on              LinuxNV date 2025.05.13  11:17:49
 running    4 mpi-ranks, on    1 nodes
 distrk:  each k-point on    1 cores,    4 groups
 distr:  one band on NCORE=   1 cores,    1 groups
 OpenACC runtime initialized ...    4 GPUs detected


--------------------------------------------------------------------------------------------------------


 INCAR:
   PREC = Normal
   ENCUT = 450
   NELM = 500
   IBRION = -1
   ISPIN = 1
   NSW = 0
   ISIF = 2
   EDIFF = 1E-5
   EDIFFG = -5E-3
   ISTART = 1
   ICHARG = 1
   ISMEAR = 0
   SIGMA = 0.05
   LWAVE = .T.
   LCHARG = .T.
   LREAL = Auto
   LPLANE = .TRUE.
   NPAR = 1
   KPAR = 4
   NCORE = 1
   ALGO = All
   LHFCALC = .TRUE.
   HSE06 = .TRUE.
   HFSCREEN = 0.2
   TIME = 0.4
   AEXX = 0.32
   LMAXFOCK = 4
   PRECFOCK = Fast
   NELECT = 1052
   ICORELEVEL = 1
   ISYM = 0

 POTCAR:    PAW_PBE Ga_d 06Jul2010                
 POTCAR:    PAW_PBE O 08Apr2002                   
 POTCAR:    PAW_PBE Fe 06Sep2000                  
 POTCAR:    PAW_PBE Ga_d 06Jul2010                
   SHA256 =  a60ddf36e14f00ea098d9e3914b3745f1b7105e68786148f49ae384e44b4226c Ga_d/POTCAR           
   COPYR  = (c) Copyright 06Jul2010 Georg Kresse                                                    
   COPYR  = This file is part of the software VASP. Any use, copying, and all other rights are regul
   COPYR  = If you do not have a valid VASP license, you may not use, copy or distribute this file. 
   VRHFIN =Ga: s2p1                                                                                 
   LEXCH  = PE                                                                                      
   EATOM  =  2148.8298 eV,  157.9345 Ry                                                             
                                                                                                    
   TITEL  = PAW_PBE Ga_d 06Jul2010                                                                  
   LULTRA =        F    use ultrasoft PP ?                                                          
   IUNSCR =        1    unscreen: 0-lin 1-nonlin 2-no                                               
   RPACOR =    1.700    partial core radius                                                         
   POMASS =   69.723; ZVAL   =   13.000    mass and valenz                                          
   RCORE  =    2.300    outmost cutoff radius                                                       
   RWIGS  =    2.300; RWIGS  =    1.217    wigner-seitz radius (au A)                               
   ENMAX  =  282.691; ENMIN  =  212.018 eV                                                          
   ICORE  =        3    local potential                                                             
   LCOR   =        T    correct aug charges                                                         
   LPAW   =        T    paw PP                                                                      
   EAUG   =  490.690                                                                                
   DEXC   =    0.000                                                                                
   RMAX   =    2.341    core radius for proj-oper                                                   
   RAUG   =    1.300    factor for augmentation sphere                                              
   RDEP   =    2.413    radius for radial grids                                                     
   RDEPT  =    1.856    core radius for aug-charge                                                  
                                                                                                    
   Atomic configuration                                                                             
    9 entries                                                                                       
     n  l   j            E        occ.                                                              
     1  0  0.50    -10228.7831   2.0000                                                             
     2  0  0.50     -1262.1604   2.0000                                                             
     2  1  1.50     -1098.6333   6.0000                                                             
     3  0  0.50      -148.1110   2.0000                                                             
     3  1  1.50       -98.8436   6.0000                                                             
     3  2  2.50       -19.1549  10.0000                                                             
     4  0  0.50        -8.9483   2.0000                                                             
     4  1  0.50        -2.5791   1.0000                                                             
     4  3  2.50        -2.7416   0.0000                                                             
   Description                                                                                      
     l       E           TYP  RCUT    TYP  RCUT                                                     
     2    -19.1549037     23  2.300                                                                 
     2     -5.4423304     23  2.300                                                                 
     0     -8.9483111     23  2.300                                                                 
     0     68.0291300     23  2.300                                                                 
     1     -2.5790802     23  2.100                                                                 
     1     81.6349560     23  2.300                                                                 
     3      6.8029130     23  2.300                                                                 
  local pseudopotential read in
  partial core-charges read in
  partial kinetic energy density read in
  atomic valenz-charges read in
  non local Contribution for L=            2  read in
    real space projection operators read in
  non local Contribution for L=            2  read in
    real space projection operators read in
  non local Contribution for L=            0  read in
    real space projection operators read in
  non local Contribution for L=            0  read in
    real space projection operators read in
  non local Contribution for L=            1  read in
    real space projection operators read in
  non local Contribution for L=            1  read in
    real space projection operators read in
    PAW grid and wavefunctions read in
 
   number of l-projection  operators is LMAX  =            6
   number of lm-projection operators is LMMAX =           18
 
 POTCAR:    PAW_PBE O 08Apr2002                   
   SHA256 =  818f92134a0a090dccd8ba1447fa70422a3b330e708bb4f08108d8ae51209ddf O/POTCAR              
   COPYR  = (c) Copyright 08Apr2002 Georg Kresse                                                    
   COPYR  = This file is part of the software VASP. Any use, copying, and all other rights are regul
   COPYR  = If you do not have a valid VASP license, you may not use, copy or distribute this file. 
   VRHFIN =O: s2p4                                                                                  
   LEXCH  = PE                                                                                      
   EATOM  =   432.3788 eV,   31.7789 Ry                                                             
                                                                                                    
   TITEL  = PAW_PBE O 08Apr2002                                                                     
   LULTRA =        F    use ultrasoft PP ?                                                          
   IUNSCR =        1    unscreen: 0-lin 1-nonlin 2-no                                               
   RPACOR =    1.200    partial core radius                                                         
   POMASS =   16.000; ZVAL   =    6.000    mass and valenz                                          
   RCORE  =    1.520    outmost cutoff radius                                                       
   RWIGS  =    1.550; RWIGS  =    0.820    wigner-seitz radius (au A)                               
   ENMAX  =  400.000; ENMIN  =  300.000 eV                                                          
   ICORE  =        2    local potential                                                             
   LCOR   =        T    correct aug charges                                                         
   LPAW   =        T    paw PP                                                                      
   EAUG   =  605.392                                                                                
   DEXC   =    0.000                                                                                
   RMAX   =    1.553    core radius for proj-oper                                                   
   RAUG   =    1.300    factor for augmentation sphere                                              
   RDEP   =    1.550    radius for radial grids                                                     
   RDEPT  =    1.329    core radius for aug-charge                                                  
                                                                                                    
   Atomic configuration                                                                             
    4 entries                                                                                       
     n  l   j            E        occ.                                                              
     1  0  0.50      -514.6923   2.0000                                                             
     2  0  0.50       -23.9615   2.0000                                                             
     2  1  0.50        -9.0305   4.0000                                                             
     3  2  1.50        -9.5241   0.0000                                                             
   Description                                                                                      
     l       E           TYP  RCUT    TYP  RCUT                                                     
     0    -23.9615318     23  1.200                                                                 
     0     -9.5240782     23  1.200                                                                 
     1     -9.0304911     23  1.520                                                                 
     1      8.1634956     23  1.520                                                                 
     2     -9.5240782      7  1.500                                                                 
  local pseudopotential read in
  partial core-charges read in
  partial kinetic energy density read in
  kinetic energy density of atom read in
  atomic valenz-charges read in
  non local Contribution for L=            0  read in
    real space projection operators read in
  non local Contribution for L=            0  read in
    real space projection operators read in
  non local Contribution for L=            1  read in
    real space projection operators read in
  non local Contribution for L=            1  read in
    real space projection operators read in
    PAW grid and wavefunctions read in
 
   number of l-projection  operators is LMAX  =            4
   number of lm-projection operators is LMMAX =            8
 
 POTCAR:    PAW_PBE Fe 06Sep2000                  
   SHA256 =  cd5a22d9368cc8b5cc476bea79732366149640da08ac9009b0e1b7fc627eea28 Fe/POTCAR             
   COPYR  = (c) Copyright 06Sep2000 Georg Kresse                                                    
   COPYR  = This file is part of the software VASP. Any use, copying, and all other rights are regul
   COPYR  = If you do not have a valid VASP license, you may not use, copy or distribute this file. 
   VRHFIN =Fe:  d7 s1                                                                               
   LEXCH  = PE                                                                                      
   EATOM  =   594.3153 eV,   43.6809 Ry                                                             
                                                                                                    
   TITEL  = PAW_PBE Fe 06Sep2000                                                                    
   LULTRA =        F    use ultrasoft PP ?                                                          
   IUNSCR =        1    unscreen: 0-lin 1-nonlin 2-no                                               
   RPACOR =    2.000    partial core radius                                                         
   POMASS =   55.847; ZVAL   =    8.000    mass and valenz                                          
   RCORE  =    2.300    outmost cutoff radius                                                       
   RWIGS  =    2.460; RWIGS  =    1.302    wigner-seitz radius (au A)                               
   ENMAX  =  267.882; ENMIN  =  200.911 eV                                                          
   RCLOC  =    1.701    cutoff for local pot                                                        
   LCOR   =        T    correct aug charges                                                         
   LPAW   =        T    paw PP                                                                      
   EAUG   =  511.368                                                                                
   DEXC   =    0.000                                                                                
   RMAX   =    2.356    core radius for proj-oper                                                   
   RAUG   =    1.300    factor for augmentation sphere                                              
   RDEP   =    2.442    radius for radial grids                                                     
   RDEPT  =    1.890    core radius for aug-charge                                                  
                                                                                                    
   Atomic configuration                                                                             
    9 entries                                                                                       
     n  l   j            E        occ.                                                              
     1  0  0.50     -6993.8440   2.0000                                                             
     2  0  0.50      -814.6047   2.0000                                                             
     2  1  1.50      -693.3689   6.0000                                                             
     3  0  0.50       -89.4732   2.0000                                                             
     3  1  1.50       -55.6373   6.0000                                                             
     3  2  2.50        -3.8151   7.0000                                                             
     4  0  0.50        -4.2551   1.0000                                                             
     4  1  1.50        -3.4015   0.0000                                                             
     4  3  2.50        -1.3606   0.0000                                                             
   Description                                                                                      
     l       E           TYP  RCUT    TYP  RCUT                                                     
     2     -3.8151135     23  2.300                                                                 
     2     -5.1756961     23  2.300                                                                 
     0     -4.2550963     23  2.300                                                                 
     0      7.2035603     23  2.300                                                                 
     1     -2.7211652     23  2.300                                                                 
     1     18.4316424     23  2.300                                                                 
  local pseudopotential read in
  partial core-charges read in
  partial kinetic energy density read in
  atomic valenz-charges read in
  non local Contribution for L=            2  read in
    real space projection operators read in
  non local Contribution for L=            2  read in
    real space projection operators read in
  non local Contribution for L=            0  read in
    real space projection operators read in
  non local Contribution for L=            0  read in
    real space projection operators read in
  non local Contribution for L=            1  read in
    real space projection operators read in
  non local Contribution for L=            1  read in
    real space projection operators read in
    PAW grid and wavefunctions read in
 
   number of l-projection  operators is LMAX  =            6
   number of lm-projection operators is LMMAX =           18
 
 Optimization of the real space projectors (new method)

 maximal supplied QI-value         = 16.25
 optimisation between [QCUT,QGAM] = [ 10.73, 21.61] = [ 32.22,130.83] Ry 
 Optimized for a Real-space Cutoff    1.42 Angstroem

   l    n(q)    QCUT    max X(q) W(low)/X(q) W(high)/X(q)  e(spline) 
   2      8    10.726     7.143    0.22E-03    0.16E-03    0.73E-07
   2      8    10.726     5.586    0.40E-03    0.26E-03    0.10E-06
   0      9    10.726    12.382    0.25E-04    0.21E-05    0.37E-07
   0      9    10.726     6.622    0.42E-04    0.48E-05    0.77E-07
   1      9    10.726     7.935    0.27E-03    0.13E-04    0.16E-06
   1      9    10.726     2.425    0.23E-03    0.15E-04    0.14E-06
 Optimization of the real space projectors (new method)

 maximal supplied QI-value         = 24.76
 optimisation between [QCUT,QGAM] = [ 10.64, 21.54] = [ 31.73,129.89] Ry 
 Optimized for a Real-space Cutoff    1.23 Angstroem

   l    n(q)    QCUT    max X(q) W(low)/X(q) W(high)/X(q)  e(spline) 
   0      8    10.645    20.381    0.38E-03    0.60E-03    0.15E-06
   0      8    10.645    15.268    0.40E-03    0.65E-03    0.17E-06
   1      7    10.645     5.964    0.30E-03    0.63E-03    0.18E-06
   1      7    10.645     5.382    0.24E-03    0.53E-03    0.16E-06
 Optimization of the real space projectors (new method)

 maximal supplied QI-value         = 16.25
 optimisation between [QCUT,QGAM] = [ 10.73, 21.61] = [ 32.22,130.83] Ry 
 Optimized for a Real-space Cutoff    1.38 Angstroem

   l    n(q)    QCUT    max X(q) W(low)/X(q) W(high)/X(q)  e(spline) 
   2      8    10.726    80.901    0.27E-03    0.52E-03    0.20E-06
   2      8    10.726    75.754    0.27E-03    0.52E-03    0.20E-06
   0      9    10.726    58.752    0.33E-03    0.19E-03    0.52E-07
   0      9    10.726    30.679    0.30E-03    0.18E-03    0.49E-07
   1      8    10.726    17.977    0.22E-03    0.18E-03    0.17E-06
   1      8    10.726    13.559    0.18E-03    0.14E-03    0.14E-06
  PAW_PBE Ga_d 06Jul2010                :
 energy of atom  1       EATOM=-2148.8298
 kinetic energy error for atom=    0.0038 (will be added to EATOM!!)
  PAW_PBE O 08Apr2002                   :
 energy of atom  2       EATOM= -432.3788
 kinetic energy error for atom=    0.0389 (will be added to EATOM!!)
  PAW_PBE Fe 06Sep2000                  :
 energy of atom  3       EATOM= -594.3153
 kinetic energy error for atom=    0.0034 (will be added to EATOM!!)
 
 
 POSCAR: Ga8 O12
  positions in direct lattice
  velocities in cartesian coordinates
 exchange correlation table for  LEXCH =        8
   RHO(1)=    0.500       N(1)  =     2000
   RHO(2)=  100.500       N(2)  =     4000
 


--------------------------------------------------------------------------------------------------------


 ion  position               nearest neighbor table
   1  0.659  0.999  0.158-  84 1.94  82 1.96  78 1.96  66 2.03  60 2.06  64 2.07
   2  0.658  0.002  0.655-  83 1.94  85 1.94  79 1.95  67 2.03  61 2.08  65 2.10
   3  0.659  0.333  0.155-  86 1.95  78 1.95  80 1.97  62 2.00  68 2.05  60 2.09
   4  0.658  0.334  0.658-  81 1.93  87 1.94  79 1.96  69 2.03  61 2.07  63 2.09
   5  0.659  0.665  0.156-  88 1.94  82 1.96  80 1.96  62 2.02  70 2.04  64 2.09
   6  0.657  0.670  0.659-  81 1.91  89 1.94  83 1.96  71 2.04  65 2.05  63 2.10
   7  0.840  0.167  0.343-  90 1.95  72 1.95  74 1.97  60 2.01  68 2.07  66 2.08
   8  0.841  0.167  0.843-  91 1.95  75 1.95  73 1.95  61 2.03  67 2.07  69 2.08
   9  0.840  0.500  0.340-  92 1.95  74 1.96  76 1.96  62 2.05  70 2.06  68 2.06
  10  0.840  0.500  0.844-  93 1.95  77 1.95  75 1.95  63 2.00  71 2.08  69 2.08
  11  0.840  0.833  0.343-  94 1.95  72 1.95  76 1.97  64 2.01  70 2.07  66 2.07
  12  0.841  0.834  0.843-  95 1.94  77 1.95  73 1.95  65 2.03  71 2.07  67 2.08
  13  0.590  0.170  0.396-  56 1.84  79 1.85  54 1.86  60 1.88 120 3.01
  14  0.590  0.166  0.898-  78 1.84  57 1.85  55 1.85  61 1.87
  15  0.589  0.500  0.897-  80 1.83  57 1.85  59 1.85  63 1.86
  16  0.591  0.829  0.398-  58 1.84  83 1.85  54 1.86  64 1.88
  17  0.590  0.833  0.898-  82 1.84  59 1.85  55 1.85  65 1.87
  18  0.909  1.000  0.103-  73 1.84  52 1.85  48 1.85  66 1.87
  19  0.908  1.000  0.602-  72 1.84  53 1.85  49 1.85  67 1.87
  20  0.911  0.333  0.103-  75 1.84  48 1.85  50 1.85  68 1.87
  21  0.907  0.334  0.601-  49 1.85  51 1.85  74 1.85  69 1.87
  22  0.910  0.667  0.103-  77 1.84  52 1.85  50 1.85  70 1.87
  23  0.907  0.666  0.601-  53 1.85  51 1.85  76 1.85  71 1.87
  24  0.161  0.167  0.158-  48 1.95 116 1.96 114 1.96 102 2.02  98 2.07  96 2.08
  25  0.158  0.167  0.656-  49 1.95 117 1.95 115 1.96 103 2.02  97 2.07  99 2.08
  26  0.161  0.500  0.158-  50 1.95 118 1.96 116 1.96 104 2.01 100 2.07  98 2.07
  27  0.159  0.500  0.656-  51 1.95 119 1.95 117 1.95 105 2.02  99 2.08 101 2.08
  28  0.161  0.833  0.158-  52 1.95 118 1.96 114 1.96 106 2.02 100 2.06  96 2.08
  29  0.158  0.833  0.656-  53 1.95 119 1.95 115 1.96 107 2.02  97 2.07 101 2.08
  30  0.343  1.000  0.344-  54 1.94 108 1.95 112 1.95  96 2.03 106 2.07 102 2.08
  31  0.340  1.000  0.843-  55 1.95 109 1.95 113 1.95  97 2.03 107 2.06 103 2.07
  32  0.346  0.335  0.344-  56 1.93 110 1.95 108 1.96  98 2.06 104 2.07 102 2.09
  33  0.340  0.334  0.843-  57 1.94 111 1.95 109 1.96  99 2.02 105 2.08 103 2.08
  34  0.346  0.665  0.345-  58 1.93 110 1.95 112 1.97 100 2.07 104 2.07 106 2.09
  35  0.340  0.666  0.843-  59 1.94 111 1.95 113 1.96 101 2.02 105 2.08 107 2.08
  36  0.090  1.000  0.397- 115 1.84  94 1.85  90 1.85  96 1.87
  37  0.092  0.000  0.899- 114 1.84  95 1.85  91 1.85  97 1.87
  38  0.092  0.334  0.397- 117 1.84  92 1.85  90 1.85  98 1.87
  39  0.091  0.333  0.898- 116 1.84  91 1.85  93 1.85  99 1.87
  40  0.092  0.666  0.397- 119 1.84  94 1.85  92 1.85 100 1.87
  41  0.091  0.667  0.898- 118 1.84  93 1.85  95 1.85 101 1.87
  42  0.408  0.166  0.101-  86 1.84 109 1.84  84 1.85 102 1.87
  43  0.408  0.167  0.603- 108 1.84  87 1.84  85 1.85 103 1.87
  44  0.411  0.500  0.104-  86 1.84  88 1.84 111 1.85 104 1.87
  45  0.409  0.501  0.602- 110 1.84  89 1.84  87 1.84 105 1.89
  46  0.409  0.833  0.102-  88 1.84 113 1.84  84 1.85 106 1.87
  47  0.407  0.834  0.602- 112 1.84  89 1.84  85 1.85 107 1.87
  48  0.998  0.166  0.128-  20 1.85  18 1.85  24 1.95
  49  0.995  0.167  0.626-  21 1.85  19 1.85  25 1.95
  50  0.998  0.500  0.128-  20 1.85  22 1.85  26 1.95
  51  0.995  0.500  0.626-  21 1.85  23 1.85  27 1.95
  52  0.998  0.834  0.128-  22 1.85  18 1.85  28 1.95
  53  0.995  0.833  0.626-  19 1.85  23 1.85  29 1.95
  54  0.505  0.999  0.373-  13 1.86  16 1.86  30 1.94
  55  0.503  1.000  0.873-  17 1.85  14 1.85  31 1.95
  56  0.507  0.340  0.368-  13 1.84 120 1.90  32 1.93
  57  0.502  0.333  0.872-  14 1.85  15 1.85  33 1.94
  58  0.508  0.660  0.379-  16 1.84 120 1.90  34 1.93
  59  0.502  0.667  0.874-  17 1.85  15 1.85  35 1.94
  60  0.673  0.165  0.280-  13 1.88   7 2.01   1 2.06   3 2.09
  61  0.672  0.167  0.781-  14 1.87   8 2.03   4 2.07   2 2.08
  62  0.670  0.497  0.271- 120 1.87   3 2.00   5 2.02   9 2.05
  63  0.673  0.500  0.784-  15 1.86  10 2.00   4 2.09   6 2.10
  64  0.672  0.833  0.280-  16 1.88  11 2.01   1 2.07   5 2.09
  65  0.672  0.835  0.782-  17 1.87  12 2.03   6 2.05   2 2.10
  66  0.828  0.999  0.220-  18 1.87   1 2.03  11 2.07   7 2.08
  67  0.827  0.001  0.720-  19 1.87   2 2.03   8 2.07  12 2.08
  68  0.829  0.332  0.219-  20 1.87   3 2.05   9 2.06   7 2.07
  69  0.827  0.334  0.719-  21 1.87   4 2.03   8 2.08  10 2.08
  70  0.829  0.667  0.220-  22 1.87   5 2.04   9 2.06  11 2.07
  71  0.827  0.667  0.720-  23 1.87   6 2.04  12 2.07  10 2.08
  72  0.832  1.000  0.446-  19 1.84   7 1.95  11 1.95
  73  0.833  0.000  0.946-  18 1.84  12 1.95   8 1.95
  74  0.828  0.335  0.445-  21 1.85   9 1.96   7 1.97
  75  0.834  0.333  0.946-  20 1.84   8 1.95  10 1.95
  76  0.828  0.664  0.445-  23 1.85   9 1.96  11 1.97
  77  0.834  0.668  0.946-  22 1.84  12 1.95  10 1.95
  78  0.669  0.166  0.054-  14 1.84   3 1.95   1 1.96
  79  0.667  0.168  0.554-  13 1.85   2 1.95   4 1.96
  80  0.670  0.500  0.051-  15 1.83   5 1.96   3 1.97
  81  0.660  0.503  0.561- 120 1.80   6 1.91   4 1.93
  82  0.668  0.833  0.054-  17 1.84   1 1.96   5 1.96
  83  0.668  0.835  0.555-  16 1.85   2 1.94   6 1.96
  84  0.496  1.000  0.126-  46 1.85  42 1.85   1 1.94
  85  0.496  0.000  0.628-  43 1.85  47 1.85   2 1.94
  86  0.496  0.332  0.123-  42 1.84  44 1.84   3 1.95
  87  0.495  0.333  0.629-  43 1.84  45 1.84   4 1.94
  88  0.496  0.667  0.126-  46 1.84  44 1.84   5 1.94
  89  0.494  0.669  0.631-  47 1.84  45 1.84   6 1.94
  90  0.003  0.167  0.373-  36 1.85  38 1.85   7 1.95
  91  0.004  0.166  0.873-  39 1.85  37 1.85   8 1.95
  92  0.003  0.500  0.373-  38 1.85  40 1.85   9 1.95
  93  0.003  0.500  0.873-  41 1.85  39 1.85  10 1.95
  94  0.003  0.832  0.373-  36 1.85  40 1.85  11 1.95
  95  0.004  0.834  0.873-  37 1.85  41 1.85  12 1.94
  96  0.173  1.000  0.281-  36 1.87  30 2.03  28 2.08  24 2.08
  97  0.171  0.000  0.780-  37 1.87  31 2.03  25 2.07  29 2.07
  98  0.174  0.333  0.281-  38 1.87  32 2.06  24 2.07  26 2.07
  99  0.171  0.334  0.780-  39 1.87  33 2.02  27 2.08  25 2.08
 100  0.174  0.667  0.281-  40 1.87  28 2.06  34 2.07  26 2.07
 101  0.171  0.666  0.780-  41 1.87  35 2.02  29 2.08  27 2.08
 102  0.329  0.166  0.220-  42 1.87  24 2.02  30 2.08  32 2.09
 103  0.326  0.166  0.719-  43 1.87  25 2.02  31 2.07  33 2.08
 104  0.328  0.500  0.219-  44 1.87  26 2.01  32 2.07  34 2.07
 105  0.327  0.500  0.719-  45 1.89  27 2.02  35 2.08  33 2.08
 106  0.329  0.833  0.220-  46 1.87  28 2.02  30 2.07  34 2.09
 107  0.326  0.834  0.720-  47 1.87  29 2.02  31 2.06  35 2.08
 108  0.334  0.167  0.445-  43 1.84  30 1.95  32 1.96
 109  0.330  0.166  0.945-  42 1.84  31 1.95  33 1.96
 110  0.330  0.500  0.446-  45 1.84  34 1.95  32 1.95
 111  0.332  0.500  0.946-  44 1.85  35 1.95  33 1.95
 112  0.333  0.833  0.445-  47 1.84  30 1.95  34 1.97
 113  0.331  0.834  0.945-  46 1.84  31 1.95  35 1.96
 114  0.169  1.000  0.055-  37 1.84  24 1.96  28 1.96
 115  0.167  1.000  0.554-  36 1.84  25 1.96  29 1.96
 116  0.168  0.333  0.054-  39 1.84  24 1.96  26 1.96
 117  0.167  0.333  0.554-  38 1.84  25 1.95  27 1.95
 118  0.168  0.667  0.054-  41 1.84  28 1.96  26 1.96
 119  0.167  0.667  0.554-  40 1.84  27 1.95  29 1.95
 120  0.608  0.499  0.403-  81 1.80  62 1.87  56 1.90  58 1.90  13 3.01
 

IMPORTANT INFORMATION: All symmetrisations will be switched off!
NOSYMM: (Re-)initialisation of all symmetry stuff for point group C_1.


----------------------------------------------------------------------------------------

                                     Primitive cell                                     

  volume of cell :    1268.8050

  direct lattice vectors                    reciprocal lattice vectors
     0.000000000 12.280473709  0.000000000     0.000000000  0.081430084 -0.019947422
     9.142701149  0.000000000  0.000000000     0.109376866 -0.000000000  0.000000000
     0.000000000 -2.768261641-11.300697481     0.000000000  0.000000000 -0.088490113

  length of vectors
    12.280473709  9.142701149 11.634819984     0.083837689  0.109376866  0.088490113

  position of ions in fractional coordinates (direct lattice)
     0.658921714  0.999455296  0.157532758
     0.658240832  0.001517049  0.655351905
     0.658840137  0.333319072  0.154688560
     0.657545836  0.333666404  0.658226724
     0.658766702  0.664938973  0.155512892
     0.656782514  0.669915774  0.659390195
     0.840207501  0.166676853  0.342832577
     0.841038665  0.166739559  0.843217656
     0.839952346  0.499524600  0.340027557
     0.840217190  0.500285714  0.843924729
     0.840037656  0.832737376  0.343016749
     0.841106345  0.833692722  0.843350468
     0.589891901  0.170287607  0.396316979
     0.590481103  0.166498645  0.897776843
     0.589296512  0.499894900  0.897280036
     0.590723085  0.828958532  0.398137187
     0.590475300  0.833422854  0.898348913
     0.909379366  0.999814744  0.102573920
     0.908093650  0.999996061  0.602229312
     0.910573200  0.332878404  0.102511922
     0.907332536  0.333792495  0.601348237
     0.910295565  0.666911559  0.102670539
     0.906776347  0.666162856  0.601498867
     0.160515160  0.166904752  0.157836078
     0.157866280  0.166745934  0.656308872
     0.160573834  0.500099728  0.157527380
     0.158502385  0.500009492  0.656025760
     0.160608185  0.832816290  0.158086976
     0.157626648  0.833260584  0.656336683
     0.342932471  0.999876345  0.343675831
     0.339791211  0.999939356  0.842671251
     0.346011874  0.335426338  0.344078016
     0.339934790  0.333683661  0.843378219
     0.346210295  0.664511735  0.344952187
     0.339927326  0.666298964  0.843250625
     0.090269162  0.999817356  0.396982354
     0.091624120  0.000030300  0.898709712
     0.091984282  0.333556884  0.396791602
     0.090760220  0.333488460  0.897880860
     0.091839220  0.666352504  0.396916105
     0.090692963  0.666654664  0.897881834
     0.408271668  0.166091367  0.101285805
     0.407982808  0.166822548  0.602516319
     0.410512325  0.499562909  0.103531376
     0.409332622  0.500676803  0.601615739
     0.408556874  0.833373840  0.101670649
     0.407364019  0.834478392  0.602489789
     0.997648212  0.165883307  0.127721600
     0.995025563  0.167249953  0.626172490
     0.997568809  0.499998192  0.127770356
     0.995269172  0.500125516  0.626103018
     0.997614022  0.833732313  0.127912229
     0.994811161  0.832611354  0.626098486
     0.505356777  0.999395471  0.373088868
     0.502742725  0.999940873  0.872932447
     0.507103579  0.339521141  0.368091082
     0.502334163  0.332573151  0.872101510
     0.508151196  0.659520632  0.378824719
     0.502369968  0.667291774  0.873651029
     0.672896566  0.165393796  0.279667234
     0.672247258  0.166773390  0.780793670
     0.670454635  0.497052311  0.270777282
     0.673132566  0.500240724  0.783699830
     0.672476723  0.832727991  0.280323977
     0.672375312  0.834663045  0.781574522
     0.828012022  0.999342954  0.219640365
     0.827061844  0.000756199  0.719608296
     0.829279536  0.331736454  0.219414141
     0.827035244  0.333734280  0.719463733
     0.828712401  0.667145597  0.219589244
     0.827099644  0.667112612  0.720070983
     0.832139459  0.999877914  0.445519495
     0.832682438  0.000118111  0.945979103
     0.827891898  0.335101295  0.444839144
     0.833863076  0.332611633  0.946120701
     0.828150588  0.664401565  0.444693195
     0.833703559  0.667645131  0.946307075
     0.668558533  0.165653576  0.053823901
     0.666637199  0.168209266  0.553889757
     0.669968439  0.499819756  0.051197741
     0.660167074  0.503314408  0.560717481
     0.668277293  0.833205659  0.054450462
     0.668224039  0.834623367  0.555284722
     0.496204125  0.999836995  0.125877057
     0.495793823  0.000407991  0.628330951
     0.495942246  0.331750262  0.122696981
     0.495159177  0.332999447  0.628651187
     0.496204864  0.667400308  0.126209390
     0.494464946  0.668687573  0.631396537
     0.003235313  0.167300158  0.373240957
     0.003764590  0.166380860  0.872623273
     0.003373772  0.499880070  0.373072944
     0.003143721  0.500081966  0.872520747
     0.003065809  0.832496330  0.373186730
     0.003701515  0.833778501  0.872579176
     0.173477602  0.999914089  0.281310035
     0.170810570  0.000067135  0.779595580
     0.174154304  0.333169376  0.280651204
     0.171443774  0.333622213  0.779956547
     0.174106425  0.666736759  0.280853308
     0.171438490  0.666434139  0.779998488
     0.328616235  0.166355296  0.219710641
     0.326089853  0.166304764  0.719263252
     0.327945895  0.500387673  0.219314567
     0.326843433  0.499978025  0.719263375
     0.329164248  0.832817187  0.220410200
     0.325785035  0.834183810  0.719534357
     0.334027583  0.167391933  0.445233732
     0.330060231  0.166123306  0.944957069
     0.329877232  0.499607361  0.446234872
     0.331959678  0.500081122  0.946390360
     0.332797216  0.833055148  0.445499737
     0.330612082  0.833549587  0.945312775
     0.169000553  0.999750519  0.055087210
     0.166904748  0.999972605  0.553764710
     0.168042122  0.333264974  0.054286731
     0.167215002  0.333071321  0.554001768
     0.168055337  0.666834362  0.054263099
     0.167354660  0.666927018  0.554040545
     0.608454355  0.498727852  0.402600464

  ion indices of the primitive-cell ions
   primitive index   ion index
                 1           1
                 2           2
                 3           3
                 4           4
                 5           5
                 6           6
                 7           7
                 8           8
                 9           9
                10          10
                11          11
                12          12
                13          13
                14          14
                15          15
                16          16
                17          17
                18          18
                19          19
                20          20
                21          21
                22          22
                23          23
                24          24
                25          25
                26          26
                27          27
                28          28
                29          29
                30          30
                31          31
                32          32
                33          33
                34          34
                35          35
                36          36
                37          37
                38          38
                39          39
                40          40
                41          41
                42          42
                43          43
                44          44
                45          45
                46          46
                47          47
                48          48
                49          49
                50          50
                51          51
                52          52
                53          53
                54          54
                55          55
                56          56
                57          57
                58          58
                59          59
                60          60
                61          61
                62          62
                63          63
                64          64
                65          65
                66          66
                67          67
                68          68
                69          69
                70          70
                71          71
                72          72
                73          73
                74          74
                75          75
                76          76
                77          77
                78          78
                79          79
                80          80
                81          81
                82          82
                83          83
                84          84
                85          85
                86          86
                87          87
                88          88
                89          89
                90          90
                91          91
                92          92
                93          93
                94          94
                95          95
                96          96
                97          97
                98          98
                99          99
               100         100
               101         101
               102         102
               103         103
               104         104
               105         105
               106         106
               107         107
               108         108
               109         109
               110         110
               111         111
               112         112
               113         113
               114         114
               115         115
               116         116
               117         117
               118         118
               119         119
               120         120

----------------------------------------------------------------------------------------

 
 
 KPOINTS: Automatic mesh                          

Automatic generation of k-mesh.
 Grid dimensions read from file:
 generate k-points for:    2    2    2

 Generating k-lattice:

  Cartesian coordinates                     Fractional coordinates (reciprocal lattice)
     0.000000000  0.040715042 -0.009973711     0.500000000  0.000000000 -0.000000000
     0.054688433 -0.000000000  0.000000000     0.000000000  0.500000000  0.000000000
     0.000000000  0.000000000 -0.044245057     0.000000000  0.000000000  0.500000000

  Length of vectors
     0.041918845  0.054688433  0.044245057

  Shift w.r.t. Gamma in fractional coordinates (k-lattice)
     0.000000000  0.000000000  0.000000000

 
 Subroutine IBZKPT returns following result:
 ===========================================
 
 Found      8 irreducible k-points:
 
 Following reciprocal coordinates:
            Coordinates               Weight
  0.000000  0.000000  0.000000      1.000000
  0.500000  0.000000  0.000000      1.000000
  0.000000  0.500000  0.000000      1.000000
  0.500000  0.500000  0.000000      1.000000
  0.000000  0.000000  0.500000      1.000000
  0.500000  0.000000  0.500000      1.000000
  0.000000  0.500000  0.500000      1.000000
  0.500000  0.500000  0.500000      1.000000
 
 Following cartesian coordinates:
            Coordinates               Weight
  0.000000  0.000000 -0.000000      1.000000
  0.000000  0.040715 -0.009974      1.000000
  0.054688  0.000000 -0.000000      1.000000
  0.054688  0.040715 -0.009974      1.000000
  0.000000  0.000000 -0.044245      1.000000
  0.000000  0.040715 -0.054219      1.000000
  0.054688  0.000000 -0.044245      1.000000
  0.054688  0.040715 -0.054219      1.000000
 
 
 Subroutine IBZKPT_HF returns following result:
 ==============================================
 
 Found      8 k-points in 1st BZ
 the following      8 k-points will be used (e.g. in the exchange kernel)
 Following reciprocal coordinates:   # in IRBZ
  0.000000  0.000000  0.000000    0.12500000   1 t-inv F
  0.500000  0.000000  0.000000    0.12500000   2 t-inv F
  0.000000  0.500000  0.000000    0.12500000   3 t-inv F
  0.500000  0.500000  0.000000    0.12500000   4 t-inv F
  0.000000  0.000000  0.500000    0.12500000   5 t-inv F
  0.500000  0.000000  0.500000    0.12500000   6 t-inv F
  0.000000  0.500000  0.500000    0.12500000   7 t-inv F
  0.500000  0.500000  0.500000    0.12500000   8 t-inv F


--------------------------------------------------------------------------------------------------------




 Dimension of arrays:
   k-points           NKPTS =      8   k-points in BZ     NKDIM =      8   number of bands    NBANDS=    631
   number of dos      NEDOS =    301   number of ions     NIONS =    120
   non local maximal  LDIM  =      6   non local SUM 2l+1 LMDIM =     18
   total plane-waves  NPLWV = 184320
   max r-space proj   IRMAX =   1800   max aug-charges    IRDMAX=   5704
   dimension x,y,z NGX =    64 NGY =   48 NGZ =   60
   dimension x,y,z NGXF=   128 NGYF=   96 NGZF=  120
   support grid    NGXF=   128 NGYF=   96 NGZF=  120
   ions per type =              47  72   1
   NGX,Y,Z   is equivalent  to a cutoff of   8.66,  8.73,  8.57 a.u.
   NGXF,Y,Z  is equivalent  to a cutoff of  17.33, 17.46, 17.15 a.u.

 SYSTEM =  unknown system                          
 POSCAR =  Ga8 O12                                 

 Startparameter for this run:
   NWRITE =      2    write-flag & timer
   PREC   = normal    normal or accurate (medium, high low for compatibility)
   ISTART =      1    job   : 0-new  1-cont  2-samecut
   ICHARG =      1    charge: 1-file 2-atom 10-const
   ISPIN  =      1    spin polarized calculation?
   LNONCOLLINEAR =      F non collinear calculations
   LSORBIT =      F    spin-orbit coupling
   INIWAV =      1    electr: 0-lowe 1-rand  2-diag
   LASPH  =      F    aspherical Exc in radial PAW
 Electronic Relaxation 1
   ENCUT  =  450.0 eV  33.07 Ry    5.75 a.u.  21.24 15.81 20.12*2*pi/ulx,y,z
   ENINI  =  450.0     initial cutoff
   ENAUG  =  605.4 eV  augmentation charge cutoff
   NELM   =    500;   NELMIN=  2; NELMDL=  0     # of ELM steps 
   EDIFF  = 0.1E-04   stopping-criterion for ELM
   LREAL  =      T    real-space projection
   NLSPLINE    = F    spline interpolate recip. space projectors
   LCOMPAT=      F    compatible to vasp.4.4
   GGA_COMPAT  = T    GGA compatible to vasp.4.4-vasp.4.6
   LMAXPAW     = -100 max onsite density
   LMAXMIX     =    2 max onsite mixed and CHGCAR
   VOSKOWN=      0    Vosko Wilk Nusair interpolation
   ROPT   =   -0.00050  -0.00050  -0.00050
 Ionic relaxation
   EDIFFG = -.5E-02   stopping-criterion for IOM
   NSW    =      0    number of steps for IOM
   NBLOCK =      1;   KBLOCK =      1    inner block; outer block 
   IBRION =     -1    ionic relax: 0-MD 1-quasi-New 2-CG
   NFREE  =      0    steps in history (QN), initial steepest desc. (CG)
   ISIF   =      2    stress and relaxation
   IWAVPR =     10    prediction:  0-non 1-charg 2-wave 3-comb
   ISYM   =      0    0-nonsym 1-usesym 2-fastsym
   LCORR  =      T    Harris-Foulkes like correction to forces

   POTIM  = 0.5000    time-step for ionic-motion
   TEIN   =    0.0    initial temperature
   TEBEG  =    0.0;   TEEND  =   0.0 temperature during run
   SMASS  =  -3.00    Nose mass-parameter (am)
   estimated Nose-frequenzy (Omega)   =  0.10E-29 period in steps = 0.13E+47 mass=  -0.345E-26a.u.
   SCALEE = 1.0000    scale energy and forces
   NPACO  =    256;   APACO  = 10.0  distance and # of slots for P.C.
   PSTRESS=    0.0 pullay stress

  Mass of Ions in am
   POMASS =  69.72 16.00 55.85
  Ionic Valenz
   ZVAL   =  13.00  6.00  8.00
  Atomic Wigner-Seitz radii
   RWIGS  =  -1.00 -1.00 -1.00
  virtual crystal weights 
   VCA    =   1.00  1.00  1.00
   NELECT =    1052.0000    total number of electrons
   NUPDOWN=      -1.0000    fix difference up-down

 DOS related values:
   EMIN   =  10.00;   EMAX   =-10.00  energy-range for DOS
   EFERMI =   0.00;   METHOD = LEGACY      
   ISMEAR =     0;   SIGMA  =   0.05  broadening in eV -4-tet -1-fermi 0-gaus

 Electronic relaxation 2 (details)
   IALGO  =     58    algorithm
   LDIAG  =      T    sub-space diagonalisation (order eigenvalues)
   LSUBROT=      F    optimize rotation matrix (better conditioning)
   TURBO    =      0    0=normal 1=particle mesh
   IRESTART =      0    0=no restart 2=restart with 2 vectors
   NREBOOT  =      0    no. of reboots
   NMIN     =      0    reboot dimension
   EREF     =   0.00    reference energy to select bands
   IMIX   =      4    mixing-type and parameters
     AMIX     =   0.40;   BMIX     =  1.00
     AMIX_MAG =   1.60;   BMIX_MAG =  1.00
     AMIN     =   0.10
     WC   =   100.;   INIMIX=   1;  MIXPRE=   1;  MAXMIX= -45

 Intra band minimization:
   WEIMIN = 0.0000     energy-eigenvalue tresh-hold
   EBREAK =  0.40E-08  absolut break condition
   DEPER  =   0.30     relativ break condition  

   TIME   =   0.40     timestep for ELM

  volume/ion in A,a.u.               =      10.57        71.35
  Fermi-wavevector in a.u.,A,eV,Ry     =   1.537972  2.906346 32.182650  2.365358
  Thomas-Fermi vector in A             =   2.644406
 
 Write flags
   LWAVE        =      T    write WAVECAR
   LDOWNSAMPLE  =      F    k-point downsampling of WAVECAR
   LCHARG       =      T    write CHGCAR
   LVTOT        =      F    write LOCPOT, total local potential
   LVHAR        =      F    write LOCPOT, Hartree potential only
   LELF         =      F    write electronic localiz. function (ELF)
   LORBIT       =      0    0 simple, 1 ext, 2 COOP (PROOUT), +10 PAW based schemes


 Dipole corrections
   LMONO  =      F    monopole corrections only (constant potential shift)
   LDIPOL =      F    correct potential (dipole corrections)
   IDIPOL =      0    1-x, 2-y, 3-z, 4-all directions 
   EPSILON=  1.0000000 bulk dielectric constant

 Core level calculations are selected ICORELEVEL =  1
 Exchange correlation treatment:
   GGA     =    --    GGA type
   LEXCH   =     8    internal setting for exchange type
   LIBXC   =     F    Libxc                    
   VOSKOWN =     0    Vosko Wilk Nusair interpolation
   EXXOEP  =     0    0=HF, 1=EXX-LHF (local Hartree Fock) 2=EXX OEP
   LHFCALC =     T    Hartree Fock is set to
   LSYMGRAD=     F    symmetrize gradient (conserves proper symmetry)
   PRECFOCK=fast      Normal, Fast or Accurate (Low or Medium for compatibility)
   LRHFCALC=     F    long range Hartree Fock
   LRSCOR  =     F    long range correlation only (use DFT for short range part)
   LTHOMAS =     F    Thomas Fermi screening in HF
   LMODELHF=     F    short range full HF, long range fraction AEXX
   FOCKCORR=     1    mode to apply convergence corrections
   LFOCKACE=     T    use Adeptively-Compressed-Exchange operator
   ENCUT4O =  -1.0   cutoff for four orbital integrals eV
   LMAXFOCK=     4    L truncation for augmentation on plane wave grid
   LMAXFOCKAE=  -1    L truncation for all-electron charge restoration on plane wave grid
   NMAXFOCKAE=   1    number of basis functions for all-electron charge restoration
   LFOCKAEDFT=     F  apply the AE augmentation even for DFT
   NKREDX  =     1    reduce k-point grid by
   NKREDY  =     1    reduce k-point grid by
   NKREDZ  =     1    reduce k-point grid by
   SHIFTRED=     F    shift reduced grid of Gamma
   HFKIDENT=     F    idential grid for each k-point
   ODDONLY =     F    use only odd q-grid points
   EVENONLY=     F    use only even q-grid points
   HFALPHA =   -1.0000 decay constant for conv. correction
   MCALPHA =    0.0000 extent of test-charge in conv. correction in multipole expansion
   AEXX    =    0.3200 exact exchange contribution
   HFSCREEN=    0.2000 screening length (either q_TF or 0.3 A-1)
   HFSCREENC=   0.2000 screening length for correlation (either q_TF or 0.3 A-1)
   HFRCUT  =    0.0000 spherical cutoff for potential kernel
   ALDAX   =    0.6800 LDA exchange part
   AGGAX   =    0.6800 GGA exchange part
   ALDAC   =    1.0000 LDA correlation
   AGGAC   =    1.0000 GGA correlation
   ENCUTFOCK=  -1.0 apply spherical cutoff to Coloumb kernel
   NBANDSGWLOW=     1    first orbital included in HF term
   NBLOCK_FOCK=    64    blocking factor in FOCK_ACC

 Linear response parameters
   LEPSILON=     F    determine dielectric tensor
   LRPA    =     F    only Hartree local field effects (RPA)
   LNABLA  =     F    use nabla operator in PAW spheres
   LVEL    =     F    velocity operator in full k-point grid
   CSHIFT  =0.1000    complex shift for real part using Kramers Kronig
   OMEGAMAX=  -1.0    maximum frequency
   DEG_THRESHOLD= 0.2000000E-02 threshold for treating states as degnerate
   RTIME   =   -0.100 relaxation time in fs
  (WPLASMAI=    0.000 imaginary part of plasma frequency in eV, 0.658/RTIME)
   DFIELD  = 0.0000000 0.0000000 0.0000000 field for delta impulse in time
 
  Optional k-point grid parameters
   LKPOINTS_OPT  =     F    use optional k-point grid
   KPOINTS_OPT_MODE=     1    mode for optional k-point grid
 
 Orbital magnetization related:
   ORBITALMAG=     F  switch on orbital magnetization
   LCHIMAG   =     F  perturbation theory with respect to B field
   DQ        =  0.001000  dq finite difference perturbation B field
   LLRAUG    =     F  two centre corrections for induced B field
   LBONE     =     F  B-component reconstruction in AE one-centre
   LVGVCALC  =     T  calculate vGv susceptibility
   LVGVAPPL  =     F  apply vGv susceptibility instead of pGv for G=0

 Random number generation:
   RANDOM_GENERATOR = DEFAULT
   PCG_SEED         = not used


--------------------------------------------------------------------------------------------------------


 Static calculation
 charge density and potential will be updated during run
 non-spin polarized calculation
 Conjugate gradient for all bands (Freysoldt, et al. PRB 79, 241103 (2009))
 preconditioned conjugated gradient                                        
 perform sub-space diagonalisation
    before iterative eigenvector-optimisation
 modified Broyden-mixing scheme, WC =      100.0
 initial mixing is a Kerker type mixing with AMIX =  0.4000 and BMIX =      1.0000
 Hartree-type preconditioning will be used
 using additional bands           105
 real space projection scheme for non local part
 use partial core corrections
 no Harris-corrections to forces 
 use gradient corrections 
 use of overlap-Matrix (Vanderbilt PP)
 Gauss-broadening in eV      SIGMA  =   0.05


--------------------------------------------------------------------------------------------------------


  energy-cutoff  :      450.00
  volume of cell :     1268.81
      direct lattice vectors                 reciprocal lattice vectors
     0.000000000 12.280473709  0.000000000     0.000000000  0.081430084 -0.019947422
     9.142701149  0.000000000  0.000000000     0.109376866 -0.000000000  0.000000000
     0.000000000 -2.768261641-11.300697481     0.000000000  0.000000000 -0.088490113

  length of vectors
    12.280473709  9.142701149 11.634819984     0.083837689  0.109376866  0.088490113


 
 old parameters found on file WAVECAR:
  energy-cutoff  :      450.00
  volume of cell :     1268.81
      direct lattice vectors                 reciprocal lattice vectors
     0.000000000 12.280473709  0.000000000     0.000000000  0.081430084 -0.019947422
     9.142701149  0.000000000  0.000000000     0.109376866 -0.000000000  0.000000000
     0.000000000 -2.768261641-11.300697481     0.000000000  0.000000000 -0.088490113

  length of vectors

 
 k-points in units of 2pi/SCALE and weight: Automatic mesh                          
   0.00000000  0.00000000 -0.00000000       0.125
   0.00000000  0.04071504 -0.00997371       0.125
   0.05468843  0.00000000 -0.00000000       0.125
   0.05468843  0.04071504 -0.00997371       0.125
   0.00000000  0.00000000 -0.04424506       0.125
   0.00000000  0.04071504 -0.05421877       0.125
   0.05468843  0.00000000 -0.04424506       0.125
   0.05468843  0.04071504 -0.05421877       0.125
 
 k-points in reciprocal lattice and weights: Automatic mesh                          
   0.00000000  0.00000000  0.00000000       0.125
   0.50000000  0.00000000  0.00000000       0.125
   0.00000000  0.50000000  0.00000000       0.125
   0.50000000  0.50000000  0.00000000       0.125
   0.00000000  0.00000000  0.50000000       0.125
   0.50000000  0.00000000  0.50000000       0.125
   0.00000000  0.50000000  0.50000000       0.125
   0.50000000  0.50000000  0.50000000       0.125
 
 position of ions in fractional coordinates (direct lattice) 
   0.65892171  0.99945530  0.15753276
   0.65824083  0.00151705  0.65535191
   0.65884014  0.33331907  0.15468856
   0.65754584  0.33366640  0.65822672
   0.65876670  0.66493897  0.15551289
   0.65678251  0.66991577  0.65939020
   0.84020750  0.16667685  0.34283258
   0.84103866  0.16673956  0.84321766
   0.83995235  0.49952460  0.34002756
   0.84021719  0.50028571  0.84392473
   0.84003766  0.83273738  0.34301675
   0.84110634  0.83369272  0.84335047
   0.58989190  0.17028761  0.39631698
   0.59048110  0.16649865  0.89777684
   0.58929651  0.49989490  0.89728004
   0.59072309  0.82895853  0.39813719
   0.59047530  0.83342285  0.89834891
   0.90937937  0.99981474  0.10257392
   0.90809365  0.99999606  0.60222931
   0.91057320  0.33287840  0.10251192
   0.90733254  0.33379250  0.60134824
   0.91029556  0.66691156  0.10267054
   0.90677635  0.66616286  0.60149887
   0.16051516  0.16690475  0.15783608
   0.15786628  0.16674593  0.65630887
   0.16057383  0.50009973  0.15752738
   0.15850239  0.50000949  0.65602576
   0.16060819  0.83281629  0.15808698
   0.15762665  0.83326058  0.65633668
   0.34293247  0.99987635  0.34367583
   0.33979121  0.99993936  0.84267125
   0.34601187  0.33542634  0.34407802
   0.33993479  0.33368366  0.84337822
   0.34621030  0.66451174  0.34495219
   0.33992733  0.66629896  0.84325062
   0.09026916  0.99981736  0.39698235
   0.09162412  0.00003030  0.89870971
   0.09198428  0.33355688  0.39679160
   0.09076022  0.33348846  0.89788086
   0.09183922  0.66635250  0.39691611
   0.09069296  0.66665466  0.89788183
   0.40827167  0.16609137  0.10128581
   0.40798281  0.16682255  0.60251632
   0.41051233  0.49956291  0.10353138
   0.40933262  0.50067680  0.60161574
   0.40855687  0.83337384  0.10167065
   0.40736402  0.83447839  0.60248979
   0.99764821  0.16588331  0.12772160
   0.99502556  0.16724995  0.62617249
   0.99756881  0.49999819  0.12777036
   0.99526917  0.50012552  0.62610302
   0.99761402  0.83373231  0.12791223
   0.99481116  0.83261135  0.62609849
   0.50535678  0.99939547  0.37308887
   0.50274272  0.99994087  0.87293245
   0.50710358  0.33952114  0.36809108
   0.50233416  0.33257315  0.87210151
   0.50815120  0.65952063  0.37882472
   0.50236997  0.66729177  0.87365103
   0.67289657  0.16539380  0.27966723
   0.67224726  0.16677339  0.78079367
   0.67045463  0.49705231  0.27077728
   0.67313257  0.50024072  0.78369983
   0.67247672  0.83272799  0.28032398
   0.67237531  0.83466304  0.78157452
   0.82801202  0.99934295  0.21964036
   0.82706184  0.00075620  0.71960830
   0.82927954  0.33173645  0.21941414
   0.82703524  0.33373428  0.71946373
   0.82871240  0.66714560  0.21958924
   0.82709964  0.66711261  0.72007098
   0.83213946  0.99987791  0.44551949
   0.83268244  0.00011811  0.94597910
   0.82789190  0.33510129  0.44483914
   0.83386308  0.33261163  0.94612070
   0.82815059  0.66440157  0.44469320
   0.83370356  0.66764513  0.94630707
   0.66855853  0.16565358  0.05382390
   0.66663720  0.16820927  0.55388976
   0.66996844  0.49981976  0.05119774
   0.66016707  0.50331441  0.56071748
   0.66827729  0.83320566  0.05445046
   0.66822404  0.83462337  0.55528472
   0.49620412  0.99983700  0.12587706
   0.49579382  0.00040799  0.62833095
   0.49594225  0.33175026  0.12269698
   0.49515918  0.33299945  0.62865119
   0.49620486  0.66740031  0.12620939
   0.49446495  0.66868757  0.63139654
   0.00323531  0.16730016  0.37324096
   0.00376459  0.16638086  0.87262327
   0.00337377  0.49988007  0.37307294
   0.00314372  0.50008197  0.87252075
   0.00306581  0.83249633  0.37318673
   0.00370152  0.83377850  0.87257918
   0.17347760  0.99991409  0.28131004
   0.17081057  0.00006714  0.77959558
   0.17415430  0.33316938  0.28065120
   0.17144377  0.33362221  0.77995655
   0.17410642  0.66673676  0.28085331
   0.17143849  0.66643414  0.77999849
   0.32861623  0.16635530  0.21971064
   0.32608985  0.16630476  0.71926325
   0.32794589  0.50038767  0.21931457
   0.32684343  0.49997802  0.71926337
   0.32916425  0.83281719  0.22041020
   0.32578503  0.83418381  0.71953436
   0.33402758  0.16739193  0.44523373
   0.33006023  0.16612331  0.94495707
   0.32987723  0.49960736  0.44623487
   0.33195968  0.50008112  0.94639036
   0.33279722  0.83305515  0.44549974
   0.33061208  0.83354959  0.94531278
   0.16900055  0.99975052  0.05508721
   0.16690475  0.99997261  0.55376471
   0.16804212  0.33326497  0.05428673
   0.16721500  0.33307132  0.55400177
   0.16805534  0.66683436  0.05426310
   0.16735466  0.66692702  0.55404055
   0.60845436  0.49872785  0.40260046
 
 position of ions in cartesian coordinates  (Angst):
   9.13772109  7.65577890 -1.78023004
   0.01386992  6.26932370 -7.40593363
   3.04743666  7.66265057 -1.74808862
   3.05061222  6.25283056 -7.43842108
   6.07933831  7.65946679 -1.75740415
   6.12483972  6.24023581 -7.45156912
   1.52387665  9.36909585 -3.87424724
   1.52444996  7.99410612 -9.52894764
   4.56700414  9.37372745 -3.84254856
   4.57396278  7.98206065 -9.53693806
   7.61346897  9.36650024 -3.87632851
   7.62220340  7.99456960 -9.53044851
   1.55688870  6.14704289 -4.47865829
   1.52224735  4.76610646-10.14550451
   4.57038968  4.75293442-10.13989024
   7.57892013  6.15221142 -4.49922791
   7.61973609  4.76445156-10.15196930
   9.14100741 10.88365795 -1.15915684
   9.14266513  9.48469189 -6.80561127
   3.04340777 10.89849042 -1.15845622
   3.05176503  9.47778409 -6.79565451
   6.09737308 10.89464184 -1.16024870
   6.09052791  9.47053685 -6.79735674
   1.52596026  1.53427064 -1.78365776
   1.52450824  0.12183803 -7.41674802
   4.57226236  1.53584575 -1.78016926
   4.57143736  0.13043343 -7.41354866
   7.61419046  1.53471848 -1.78649309
   7.61825250  0.11881825 -7.41706230
   9.14157061  3.25998857 -3.88377660
   9.14214670  1.84006253 -9.52277289
   3.06670276  3.29669175 -3.88832157
   3.05076999  1.83986868 -9.53076212
   6.07543220  3.29670852 -3.89820031
   6.09177231  1.84013024 -9.52932021
   9.14103129  0.00959705 -4.48617749
   0.00027703 -1.36267603-10.15604658
   3.04961090  0.03118758 -4.48402186
   3.04898533 -1.37099065-10.14667998
   6.09226181  0.02906149 -4.48542883
   6.09502436 -1.37181930-10.14669098
   1.51852373  4.73338387 -1.14460025
   1.52520870  3.34229933 -6.80885465
   4.56735438  4.75468388 -1.16997676
   4.57753838  3.36136873 -6.79867746
   7.61928797  4.73582099 -1.14894925
   7.62938656  3.33477376 -6.80855484
   1.51662150 11.89802584 -1.44334316
   1.52911634 10.48597598 -7.07618588
   4.57133405 11.89691576 -1.44389414
   4.57249813 10.48915993 -7.07540080
   7.62256538 11.89707825 -1.44549740
   7.61231678 10.48354788 -7.07534958
   9.13717412  5.17321301 -4.21616444
   9.14216056  3.75741340 -9.86474551
   3.10414033  5.20849975 -4.15968596
   3.04061693  3.75469633 -9.85535534
   6.02980004  5.19165146 -4.28098355
   6.10084927  3.75084656 -9.87286598
   1.51214605  7.48929651 -3.16043481
   1.52475927  6.09407361 -8.82351307
   4.54440073  7.48391815 -3.05997215
   4.57355144  6.09690061 -8.85635469
   7.61338316  7.48232261 -3.16785646
   7.63107478  6.09348457 -8.83233723
   9.13669397  9.56035787 -2.48208932
   0.00691370  8.16464719 -8.13207566
   3.03296726  9.57654979 -2.47953283
   3.05123278  8.16472072 -8.13044199
   6.09951282  9.56910037 -2.48151161
   6.09921124  8.16383055 -8.13730434
   9.14158495  8.98575222 -5.03468103
   0.00107985  7.60701712-10.69022367
   3.06373099  8.93547355 -5.02699260
   3.04096876  7.62112393-10.69182382
   6.07442495  8.93905441 -5.02534327
   6.10407990  7.61864906-10.69392997
   1.51452114  8.06121685 -0.60824762
   1.53788705  6.65330882 -6.25934058
   4.56970265  8.08580105 -0.57857018
   4.60165321  6.55495170 -6.33649862
   7.61775033  8.05602860 -0.61532820
   7.63071202  6.66893435 -6.27510466
   9.14121085  5.74516108 -1.42249854
   0.00373014  4.34919854 -7.10057800
   3.03309350  5.75074836 -1.38656147
   3.04451443  4.34051828 -7.10419689
   6.10184156  5.74425017 -1.42625414
   6.11361064  4.32439296 -7.13522126
   1.52957535 -0.99349745 -4.21788314
   1.52117048 -2.36941859 -9.86125162
   4.57025409 -0.99133200 -4.21598448
   4.57209996 -2.37675933 -9.86009301
   7.61126516 -0.99542892 -4.21727033
   7.62298766 -2.37007110 -9.86075329
   9.14191569  1.35164735 -3.17899961
   0.00061380 -0.06048982 -8.80997381
   3.04606803  1.36178139 -3.17155436
   3.05020819 -0.05371303 -8.81405299
   6.09577493  1.36063393 -3.17383828
   6.09300817 -0.05389403 -8.81452695
   1.52093676  3.42734649 -2.48288349
   1.52047475  2.01342900 -8.12817642
   4.57489495  3.42021083 -2.47840757
   4.57114966  2.02268297 -8.12817781
   7.61419865  3.43213979 -2.49078899
   7.62669327  2.00893519 -8.13124009
   1.53041441  2.86949349 -5.03145172
   1.51881574  1.43740758-10.67867397
   4.56776080  2.81575380 -5.04276530
   4.57209225  1.45676596-10.69487116
   7.61637426  2.85364762 -5.03445775
   7.62089477  1.44319988-10.68269370
   9.14042022  1.92291104 -0.62252390
   9.14245068  0.51670376 -6.25792746
   3.04694206  1.91335699 -0.61347792
   3.04517155  0.51985760 -6.26060638
   6.09666729  1.91358470 -0.61321087
   6.09751442  0.52146531 -6.26104459
   4.55971971  6.35760429 -4.54966605
 


--------------------------------------------------------------------------------------------------------


 k-point   1 :   0.0000 0.0000 0.0000  plane waves:   27533
 k-point   2 :   0.5000 0.0000 0.0000  plane waves:   27522
 k-point   3 :   0.0000 0.5000 0.0000  plane waves:   27488
 k-point   4 :   0.5000 0.5000 0.0000  plane waves:   27488
 k-point   5 :   0.0000 0.0000 0.5000  plane waves:   27482
 k-point   6 :   0.5000 0.0000 0.5000  plane waves:   27476
 k-point   7 :   0.0000 0.5000 0.5000  plane waves:   27468
 k-point   8 :   0.5000 0.5000 0.5000  plane waves:   27564

 maximum and minimum number of plane-waves per node :     27564    27468

 maximum number of plane-waves:     27564
 maximum index in each direction: 
   IXMAX=   21   IYMAX=   15   IZMAX=   20
   IXMIN=  -21   IYMIN=  -16   IZMIN=  -20


 serial   3D FFT for wavefunctions
 parallel 3D FFT for charge:
    minimum data exchange during FFTs selected (reduces bandwidth)


 FFT grid for exact exchange (Hartree Fock) 
  NGX = 48; NGY = 36; NGZ = 48

 
 Radii for the augmentation spheres in the non-local exchange
 for species   1 augmentation radius   1.392 (default was   1.031)
       energy cutoff for augmentation   1800.0
 for species   2 augmentation radius   0.974 (default was   0.722)
       energy cutoff for augmentation   1800.0
 for species   3 augmentation radius   1.364 (default was   1.010)
       energy cutoff for augmentation   1800.0
 Maximum index for augmentation-charges in exchange           747
  SETUP_FOCK is finished

 total amount of memory used by VASP MPI-rank0  7246750. kBytes
=======================================================================

   base      :      30000. kBytes
   nonlr-proj:      32920. kBytes
   fftplans  :      51012. kBytes
   grid      :     102973. kBytes
   one-center:       1866. kBytes
   HF        :        194. kBytes
   wavefun   :    7027785. kBytes
 
     INWAV:  cpu time      3.5440: real time      3.9592
 Broyden mixing: mesh for mixing (old mesh)
   NGX = 43   NGY = 31   NGZ = 41
  (NGX  =128   NGY  = 96   NGZ  =120)
  gives a total of  54653 points

 initial charge density was supplied:
 number of electron    1051.9998402 magnetization 
 charge density for first step will be calculated from the start-wavefunctions


--------------------------------------------------------------------------------------------------------


 Maximum index for non-local projection operator          1719
 Maximum index for augmentation-charges          5367 (set IRDMAX)


--------------------------------------------------------------------------------------------------------


 initial charge from wavefunction
 First call to EWALD:  gamma=   0.164
 Maximum number of real-space cells 3x 3x 3
 Maximum number of reciprocal cells 3x 2x 3

    FEWALD:  cpu time      0.0729: real time      0.0729


--------------------------------------- Ionic step        1  -------------------------------------------




--------------------------------------- Iteration      1(   1)  ---------------------------------------


    POTLOK:  cpu time      1.4839: real time      1.4838
    SETDIJ:  cpu time      0.5308: real time      0.5307
    TRIAL :  cpu time    235.5032: real time    235.4788
    CORREC:  cpu time    236.7575: real time    236.7139
    CHARGE:  cpu time      0.2338: real time      0.2337
    --------------------------------------------
      LOOP:  cpu time    475.4659: real time    475.3973

 eigenvalue-minimisations  :     0
 total energy-change (2. order) :-0.9471955E+03  (-0.5506070E+01)
 number of electron    1051.9998387 magnetization 
 augmentation part      454.9401735 magnetization 

 Free energy of the ion-electron system (eV)
  ---------------------------------------------------
  alpha Z        PSCENC =      5496.83009512
  Ewald energy   TEWEN  =    -87921.27853549
  -Hartree energ DENC   =    -33469.09470027
  -exchange      EXHF   =      3850.11783305
  -V(xc)+E(xc)   XCENC  =      2884.37334654
  PAW double counting   =    120023.15732200  -135110.90223340
  entropy T*S    EENTRO =        -0.01174316
  eigenvalues    EBANDS =     -9041.42900319
  atomic energy  EATOM  =    132341.04863466
  ---------------------------------------------------
  free energy    TOTEN  =      -947.19547574 eV

  energy without entropy =     -947.18373258  energy(sigma->0) =     -947.18960416
  exchange ACFDT corr.  =        -0.21457812  see jH, gK, PRB 81, 115126


--------------------------------------------------------------------------------------------------------




--------------------------------------- Iteration      1(   2)  ---------------------------------------


    POTLOK:  cpu time      1.5426: real time      1.5424
    SETDIJ:  cpu time      0.5305: real time      0.5304
    TRIAL :  cpu time    234.7808: real time    234.7386
    CORREC:  cpu time    236.9006: real time    236.8556
    CHARGE:  cpu time      0.2350: real time      0.2349
    --------------------------------------------
      LOOP:  cpu time    473.9898: real time    473.9027

 eigenvalue-minimisations  :     0
 total energy-change (2. order) :-0.5391590E+01  (-0.2666361E+01)
 number of electron    1051.9998384 magnetization 
 augmentation part      455.3129785 magnetization 

 Free energy of the ion-electron system (eV)
  ---------------------------------------------------
  alpha Z        PSCENC =      5496.83009512
  Ewald energy   TEWEN  =    -87921.27853549
  -Hartree energ DENC   =    -33622.46208682
  -exchange      EXHF   =      3860.47285346
  -V(xc)+E(xc)   XCENC  =      2889.14044237
  PAW double counting   =    120479.71723362  -135794.62924497
  entropy T*S    EENTRO =        -0.01182272
  eigenvalues    EBANDS =     -8681.41471460
  atomic energy  EATOM  =    132341.04863466
  ---------------------------------------------------
  free energy    TOTEN  =      -952.58706580 eV

  energy without entropy =     -952.57524309  energy(sigma->0) =     -952.58115445
  exchange ACFDT corr.  =        -0.23312350  see jH, gK, PRB 81, 115126


--------------------------------------------------------------------------------------------------------




--------------------------------------- Iteration      1(   3)  ---------------------------------------


    POTLOK:  cpu time      1.4847: real time      1.4845
    SETDIJ:  cpu time      0.5289: real time      0.5288
    TRIAL :  cpu time    234.6365: real time    234.5922
    CORREC:  cpu time    237.0116: real time    236.9692
    CHARGE:  cpu time      0.2356: real time      0.2355
    --------------------------------------------
      LOOP:  cpu time    473.8975: real time    473.8106

 eigenvalue-minimisations  :     0
 total energy-change (2. order) :-0.2789111E+01  (-0.8843800E+00)
 number of electron    1051.9998383 magnetization 
 augmentation part      455.4885556 magnetization 

 Free energy of the ion-electron system (eV)
  ---------------------------------------------------
  alpha Z        PSCENC =      5496.83009512
  Ewald energy   TEWEN  =    -87921.27853549
  -Hartree energ DENC   =    -33602.58032070
  -exchange      EXHF   =      3867.61268431
  -V(xc)+E(xc)   XCENC  =      2889.81120534
  PAW double counting   =    120461.47569467  -135741.45423112
  entropy T*S    EENTRO =        -0.01209723
  eigenvalues    EBANDS =     -8746.82958098
  atomic energy  EATOM  =    132341.04863466
  ---------------------------------------------------
  free energy    TOTEN  =      -955.37617692 eV

  energy without entropy =     -955.36407969  energy(sigma->0) =     -955.37012830
  exchange ACFDT corr.  =        -0.46705205  see jH, gK, PRB 81, 115126


--------------------------------------------------------------------------------------------------------




--------------------------------------- Iteration      1(   4)  ---------------------------------------


    POTLOK:  cpu time      1.5313: real time      1.5308
    SETDIJ:  cpu time      0.5316: real time      0.5314
    TRIAL :  cpu time    234.7961: real time    234.7494
    CORREC:  cpu time    236.9595: real time    236.9100
    CHARGE:  cpu time      0.2336: real time      0.2336
    --------------------------------------------
      LOOP:  cpu time    474.0532: real time    473.9568

 eigenvalue-minimisations  :     0
 total energy-change (2. order) :-0.9057795E+00  (-0.2052515E+00)
 number of electron    1051.9998382 magnetization 
 augmentation part      455.9254084 magnetization 

 Free energy of the ion-electron system (eV)
  ---------------------------------------------------
  alpha Z        PSCENC =      5496.83009512
  Ewald energy   TEWEN  =    -87921.27853549
  -Hartree energ DENC   =    -33577.04802840
  -exchange      EXHF   =      3869.93445589
  -V(xc)+E(xc)   XCENC  =      2889.73142540
  PAW double counting   =    120450.91353244  -135693.07882382
  entropy T*S    EENTRO =        -0.00417249
  eigenvalues    EBANDS =     -8813.32261496
  atomic energy  EATOM  =    132341.04863466
  ---------------------------------------------------
  free energy    TOTEN  =      -956.28195640 eV

  energy without entropy =     -956.27778391  energy(sigma->0) =     -956.27987016
  exchange ACFDT corr.  =        -0.41421404  see jH, gK, PRB 81, 115126


--------------------------------------------------------------------------------------------------------




--------------------------------------- Iteration      1(   5)  ---------------------------------------


    POTLOK:  cpu time      1.4884: real time      1.4880
    SETDIJ:  cpu time      0.5298: real time      0.5297
    TRIAL :  cpu time    234.7897: real time    234.7402
    CORREC:  cpu time    236.7236: real time    236.6785
    CHARGE:  cpu time      0.2313: real time      0.2312
    --------------------------------------------
      LOOP:  cpu time    473.7653: real time    473.6704

 eigenvalue-minimisations  :     0
 total energy-change (2. order) :-0.1852066E+00  (-0.2346147E+00)
 number of electron    1051.9998382 magnetization 
 augmentation part      456.2943991 magnetization 

 Free energy of the ion-electron system (eV)
  ---------------------------------------------------
  alpha Z        PSCENC =      5496.83009512
  Ewald energy   TEWEN  =    -87921.27853549
  -Hartree energ DENC   =    -33589.74929464
  -exchange      EXHF   =      3871.91684586
  -V(xc)+E(xc)   XCENC  =      2890.51459085
  PAW double counting   =    120503.10407962  -135757.33228263
  entropy T*S    EENTRO =        -0.00000499
  eigenvalues    EBANDS =     -8791.51712385
  atomic energy  EATOM  =    132341.04863466
  ---------------------------------------------------
  free energy    TOTEN  =      -956.46716300 eV

  energy without entropy =     -956.46715800  energy(sigma->0) =     -956.46716050
  exchange ACFDT corr.  =        -0.07100091  see jH, gK, PRB 81, 115126


--------------------------------------------------------------------------------------------------------




--------------------------------------- Iteration      1(   6)  ---------------------------------------


    POTLOK:  cpu time      1.5381: real time      1.5378
    SETDIJ:  cpu time      0.5297: real time      0.5296
    TRIAL :  cpu time    234.7597: real time    234.7148
    CORREC:  cpu time    237.0560: real time    237.0136
    CHARGE:  cpu time      0.2349: real time      0.2348
    --------------------------------------------
      LOOP:  cpu time    474.1210: real time    474.0335

 eigenvalue-minimisations  :     0
 total energy-change (2. order) :-0.3506373E+00  (-0.1589191E+00)
 number of electron    1051.9998382 magnetization 
 augmentation part      456.3423070 magnetization 

 Free energy of the ion-electron system (eV)
  ---------------------------------------------------
  alpha Z        PSCENC =      5496.83009512
  Ewald energy   TEWEN  =    -87921.27853549
  -Hartree energ DENC   =    -33613.73101471
  -exchange      EXHF   =      3873.80087816
  -V(xc)+E(xc)   XCENC  =      2891.43767816
  PAW double counting   =    120566.85753450  -135839.77886694
  entropy T*S    EENTRO =        -0.00000925
  eigenvalues    EBANDS =     -8752.00419872
  atomic energy  EATOM  =    132341.04863466
  ---------------------------------------------------
  free energy    TOTEN  =      -956.81780027 eV

  energy without entropy =     -956.81779102  energy(sigma->0) =     -956.81779564
  exchange ACFDT corr.  =        -0.00001741  see jH, gK, PRB 81, 115126


--------------------------------------------------------------------------------------------------------




--------------------------------------- Iteration      1(   7)  ---------------------------------------


    POTLOK:  cpu time      1.4825: real time      1.4827
    SETDIJ:  cpu time      0.5307: real time      0.5306
    TRIAL :  cpu time    234.7507: real time    234.7094
    CORREC:  cpu time    236.8460: real time    236.8026
    CHARGE:  cpu time      0.2361: real time      0.2361
    --------------------------------------------
      LOOP:  cpu time    473.8464: real time    473.7670

 eigenvalue-minimisations  :     0
 total energy-change (2. order) :-0.1547116E+00  (-0.9771407E-01)
 number of electron    1051.9998383 magnetization 
 augmentation part      456.3321630 magnetization 

 Free energy of the ion-electron system (eV)
  ---------------------------------------------------
  alpha Z        PSCENC =      5496.83009512
  Ewald energy   TEWEN  =    -87921.27853549
  -Hartree energ DENC   =    -33615.64905231
  -exchange      EXHF   =      3874.53494221
  -V(xc)+E(xc)   XCENC  =      2891.60585564
  PAW double counting   =    120593.66845790  -135863.17204206
  entropy T*S    EENTRO =        -0.00000290
  eigenvalues    EBANDS =     -8754.56085823
  atomic energy  EATOM  =    132341.04863466
  ---------------------------------------------------
  free energy    TOTEN  =      -956.97251182 eV

  energy without entropy =     -956.97250892  energy(sigma->0) =     -956.97251037
  exchange ACFDT corr.  =        -0.00003372  see jH, gK, PRB 81, 115126


--------------------------------------------------------------------------------------------------------




--------------------------------------- Iteration      1(   8)  ---------------------------------------


    POTLOK:  cpu time      1.4709: real time      1.4706
    SETDIJ:  cpu time      0.5293: real time      0.5292
    TRIAL :  cpu time    234.6292: real time    234.5846
    CORREC:  cpu time    236.8728: real time    236.8281
    CHARGE:  cpu time      0.2344: real time      0.2343
    --------------------------------------------
      LOOP:  cpu time    473.7368: real time    473.6475

 eigenvalue-minimisations  :     0
 total energy-change (2. order) :-0.9685301E-01  (-0.4709132E-01)
 number of electron    1051.9998382 magnetization 
 augmentation part      456.3777549 magnetization 

 Free energy of the ion-electron system (eV)
  ---------------------------------------------------
  alpha Z        PSCENC =      5496.83009512
  Ewald energy   TEWEN  =    -87921.27853549
  -Hartree energ DENC   =    -33609.96393526
  -exchange      EXHF   =      3874.98104896
  -V(xc)+E(xc)   XCENC  =      2891.56115394
  PAW double counting   =    120611.48865825  -135869.09940462
  entropy T*S    EENTRO =        -0.00000002
  eigenvalues    EBANDS =     -8772.63707748
  atomic energy  EATOM  =    132341.04863466
  ---------------------------------------------------
  free energy    TOTEN  =      -957.06936484 eV

  energy without entropy =     -957.06936482  energy(sigma->0) =     -957.06936483
  exchange ACFDT corr.  =        -0.00000967  see jH, gK, PRB 81, 115126


--------------------------------------------------------------------------------------------------------




--------------------------------------- Iteration      1(   9)  ---------------------------------------


    POTLOK:  cpu time      1.4811: real time      1.4809
    SETDIJ:  cpu time      0.5314: real time      0.5312
    TRIAL :  cpu time    234.8125: real time    234.7682
    CORREC:  cpu time    236.8404: real time    236.7920
    CHARGE:  cpu time      0.2373: real time      0.2372
    --------------------------------------------
      LOOP:  cpu time    473.9050: real time    473.8121

 eigenvalue-minimisations  :     0
 total energy-change (2. order) :-0.4694261E-01  (-0.3246604E-01)
 number of electron    1051.9998382 magnetization 
 augmentation part      456.4504423 magnetization 

 Free energy of the ion-electron system (eV)
  ---------------------------------------------------
  alpha Z        PSCENC =      5496.83009512
  Ewald energy   TEWEN  =    -87921.27853549
  -Hartree energ DENC   =    -33610.60619103
  -exchange      EXHF   =      3875.29770619
  -V(xc)+E(xc)   XCENC  =      2891.64527627
  PAW double counting   =    120626.28656938  -135881.49869618
  entropy T*S    EENTRO =        -0.00000000
  eigenvalues    EBANDS =     -8774.84116634
  atomic energy  EATOM  =    132341.04863466
  ---------------------------------------------------
  free energy    TOTEN  =      -957.11630745 eV

  energy without entropy =     -957.11630745  energy(sigma->0) =     -957.11630745
  exchange ACFDT corr.  =        -0.00000005  see jH, gK, PRB 81, 115126


--------------------------------------------------------------------------------------------------------




--------------------------------------- Iteration      1(  10)  ---------------------------------------


    POTLOK:  cpu time      1.4989: real time      1.4990
    SETDIJ:  cpu time      0.5301: real time      0.5300
    TRIAL :  cpu time    234.6698: real time    234.6292
    CORREC:  cpu time    236.7153: real time    236.6726
    CHARGE:  cpu time      0.2456: real time      0.2456
    --------------------------------------------
      LOOP:  cpu time    473.6626: real time    473.5796

 eigenvalue-minimisations  :     0
 total energy-change (2. order) :-0.3242582E-01  (-0.2244671E-01)
 number of electron    1051.9998382 magnetization 
 augmentation part      456.4751432 magnetization 

 Free energy of the ion-electron system (eV)
  ---------------------------------------------------
  alpha Z        PSCENC =      5496.83009512
  Ewald energy   TEWEN  =    -87921.27853549
  -Hartree energ DENC   =    -33615.53474563
  -exchange      EXHF   =      3875.53937491
  -V(xc)+E(xc)   XCENC  =      2891.79810795
  PAW double counting   =    120640.52667779  -135901.06070662
  entropy T*S    EENTRO =        -0.00000000
  eigenvalues    EBANDS =     -8765.01763594
  atomic energy  EATOM  =    132341.04863466
  ---------------------------------------------------
  free energy    TOTEN  =      -957.14873327 eV

  energy without entropy =     -957.14873327  energy(sigma->0) =     -957.14873327
  exchange ACFDT corr.  =        -0.00000000  see jH, gK, PRB 81, 115126


--------------------------------------------------------------------------------------------------------




--------------------------------------- Iteration      1(  11)  ---------------------------------------


    POTLOK:  cpu time      1.5080: real time      1.5078
    SETDIJ:  cpu time      0.5312: real time      0.5310
    TRIAL :  cpu time    234.7064: real time    234.6660
    CORREC:  cpu time    236.6217: real time    236.5816
    CHARGE:  cpu time      0.2342: real time      0.2341
    --------------------------------------------
      LOOP:  cpu time    473.6017: real time    473.5211

 eigenvalue-minimisations  :     0
 total energy-change (2. order) :-0.2239156E-01  (-0.1216496E-01)
 number of electron    1051.9998382 magnetization 
 augmentation part      456.4435428 magnetization 

 Free energy of the ion-electron system (eV)
  ---------------------------------------------------
  alpha Z        PSCENC =      5496.83009512
  Ewald energy   TEWEN  =    -87921.27853549
  -Hartree energ DENC   =    -33617.94459896
  -exchange      EXHF   =      3875.57132562
  -V(xc)+E(xc)   XCENC  =      2891.83786667
  PAW double counting   =    120642.74130903  -135908.28270635
  entropy T*S    EENTRO =        -0.00000000
  eigenvalues    EBANDS =     -8757.69451512
  atomic energy  EATOM  =    132341.04863466
  ---------------------------------------------------
  free energy    TOTEN  =      -957.17112483 eV

  energy without entropy =     -957.17112483  energy(sigma->0) =     -957.17112483
  exchange ACFDT corr.  =        -0.00000000  see jH, gK, PRB 81, 115126


--------------------------------------------------------------------------------------------------------




--------------------------------------- Iteration      1(  12)  ---------------------------------------


    POTLOK:  cpu time      1.4929: real time      1.4927
    SETDIJ:  cpu time      0.5306: real time      0.5305
    TRIAL :  cpu time    234.7514: real time    234.7139
    CORREC:  cpu time    236.9125: real time    236.8688
    CHARGE:  cpu time      0.2423: real time      0.2423
    --------------------------------------------
      LOOP:  cpu time    473.9301: real time    473.8547

 eigenvalue-minimisations  :     0
 total energy-change (2. order) :-0.1215716E-01  (-0.1430455E-01)
 number of electron    1051.9998382 magnetization 
 augmentation part      456.3753324 magnetization 

 Free energy of the ion-electron system (eV)
  ---------------------------------------------------
  alpha Z        PSCENC =      5496.83009512
  Ewald energy   TEWEN  =    -87921.27853549
  -Hartree energ DENC   =    -33615.64940376
  -exchange      EXHF   =      3875.42085517
  -V(xc)+E(xc)   XCENC  =      2891.73659581
  PAW double counting   =    120634.62205186  -135900.23444817
  entropy T*S    EENTRO =        -0.00000000
  eigenvalues    EBANDS =     -8759.67912717
  atomic energy  EATOM  =    132341.04863466
  ---------------------------------------------------
  free energy    TOTEN  =      -957.18328199 eV

  energy without entropy =     -957.18328199  energy(sigma->0) =     -957.18328199
  exchange ACFDT corr.  =        -0.00000000  see jH, gK, PRB 81, 115126


--------------------------------------------------------------------------------------------------------




--------------------------------------- Iteration      1(  13)  ---------------------------------------


    POTLOK:  cpu time      1.5104: real time      1.5101
    SETDIJ:  cpu time      0.5296: real time      0.5294
    TRIAL :  cpu time    234.8137: real time    234.7700
    CORREC:  cpu time    236.7965: real time    236.7613
    CHARGE:  cpu time      0.2321: real time      0.2320
    --------------------------------------------
      LOOP:  cpu time    473.8826: real time    473.8037

 eigenvalue-minimisations  :     0
 total energy-change (2. order) :-0.1430432E-01  (-0.1225886E-01)
 number of electron    1051.9998382 magnetization 
 augmentation part      456.3410796 magnetization 

 Free energy of the ion-electron system (eV)
  ---------------------------------------------------
  alpha Z        PSCENC =      5496.83009512
  Ewald energy   TEWEN  =    -87921.27853549
  -Hartree energ DENC   =    -33609.84608941
  -exchange      EXHF   =      3875.09429614
  -V(xc)+E(xc)   XCENC  =      2891.52068089
  PAW double counting   =    120618.27094389  -135880.21194019
  entropy T*S    EENTRO =        -0.00000000
  eigenvalues    EBANDS =     -8768.62567192
  atomic energy  EATOM  =    132341.04863466
  ---------------------------------------------------
  free energy    TOTEN  =      -957.19758631 eV

  energy without entropy =     -957.19758631  energy(sigma->0) =     -957.19758631
  exchange ACFDT corr.  =        -0.00000000  see jH, gK, PRB 81, 115126


--------------------------------------------------------------------------------------------------------




--------------------------------------- Iteration      1(  14)  ---------------------------------------


    POTLOK:  cpu time      1.4882: real time      1.4880
    SETDIJ:  cpu time      0.5302: real time      0.5301
    TRIAL :  cpu time    234.7294: real time    234.6893
    CORREC:  cpu time    236.9655: real time    236.9231
    CHARGE:  cpu time      0.2311: real time      0.2311
    --------------------------------------------
      LOOP:  cpu time    473.9463: real time    473.8642

 eigenvalue-minimisations  :     0
 total energy-change (2. order) :-0.1226159E-01  (-0.8698350E-02)
 number of electron    1051.9998381 magnetization 
 augmentation part      456.3487339 magnetization 

 Free energy of the ion-electron system (eV)
  ---------------------------------------------------
  alpha Z        PSCENC =      5496.83009512
  Ewald energy   TEWEN  =    -87921.27853549
  -Hartree energ DENC   =    -33607.75385825
  -exchange      EXHF   =      3874.86046810
  -V(xc)+E(xc)   XCENC  =      2891.42361824
  PAW double counting   =    120603.99704391  -135863.83332878
  entropy T*S    EENTRO =        -0.00000000
  eigenvalues    EBANDS =     -8772.50398540
  atomic energy  EATOM  =    132341.04863466
  ---------------------------------------------------
  free energy    TOTEN  =      -957.20984790 eV

  energy without entropy =     -957.20984790  energy(sigma->0) =     -957.20984790
  exchange ACFDT corr.  =         0.00000000  see jH, gK, PRB 81, 115126


--------------------------------------------------------------------------------------------------------




--------------------------------------- Iteration      1(  15)  ---------------------------------------


    POTLOK:  cpu time      1.4680: real time      1.4678
    SETDIJ:  cpu time      0.5303: real time      0.5302
    TRIAL :  cpu time    234.7041: real time    234.6645
    CORREC:  cpu time    236.7884: real time    236.7558
    CHARGE:  cpu time      0.2413: real time      0.2413
    --------------------------------------------
      LOOP:  cpu time    473.7346: real time    473.6626

 eigenvalue-minimisations  :     0
 total energy-change (2. order) :-0.8698582E-02  (-0.8279129E-02)
 number of electron    1051.9998381 magnetization 
 augmentation part      456.3550242 magnetization 

 Free energy of the ion-electron system (eV)
  ---------------------------------------------------
  alpha Z        PSCENC =      5496.83009512
  Ewald energy   TEWEN  =    -87921.27853549
  -Hartree energ DENC   =    -33610.77272459
  -exchange      EXHF   =      3874.79909520
  -V(xc)+E(xc)   XCENC  =      2891.48956801
  PAW double counting   =    120595.73786060  -135857.14927715
  entropy T*S    EENTRO =        -0.00000000
  eigenvalues    EBANDS =     -8767.92326283
  atomic energy  EATOM  =    132341.04863466
  ---------------------------------------------------
  free energy    TOTEN  =      -957.21854648 eV

  energy without entropy =     -957.21854648  energy(sigma->0) =     -957.21854648
  exchange ACFDT corr.  =        -0.00000000  see jH, gK, PRB 81, 115126


--------------------------------------------------------------------------------------------------------




--------------------------------------- Iteration      1(  16)  ---------------------------------------


    POTLOK:  cpu time      1.5172: real time      1.5170
    SETDIJ:  cpu time      0.5311: real time      0.5310
    TRIAL :  cpu time    234.6157: real time    234.5797
    CORREC:  cpu time    236.7909: real time    236.7613
    CHARGE:  cpu time      0.2450: real time      0.2450
    --------------------------------------------
      LOOP:  cpu time    473.7004: real time    473.6347

 eigenvalue-minimisations  :     0
 total energy-change (2. order) :-0.8278570E-02  (-0.5548828E-02)
 number of electron    1051.9998381 magnetization 
 augmentation part      456.3375667 magnetization 

 Free energy of the ion-electron system (eV)
  ---------------------------------------------------
  alpha Z        PSCENC =      5496.83009512
  Ewald energy   TEWEN  =    -87921.27853549
  -Hartree energ DENC   =    -33614.47516273
  -exchange      EXHF   =      3874.76065874
  -V(xc)+E(xc)   XCENC  =      2891.57562737
  PAW double counting   =    120587.72351284  -135851.78015875
  entropy T*S    EENTRO =        -0.00000000
  eigenvalues    EBANDS =     -8761.63149680
  atomic energy  EATOM  =    132341.04863466
  ---------------------------------------------------
  free energy    TOTEN  =      -957.22682505 eV

  energy without entropy =     -957.22682505  energy(sigma->0) =     -957.22682505
  exchange ACFDT corr.  =         0.00000000  see jH, gK, PRB 81, 115126


--------------------------------------------------------------------------------------------------------




--------------------------------------- Iteration      1(  17)  ---------------------------------------


    POTLOK:  cpu time      1.4835: real time      1.4837
    SETDIJ:  cpu time      0.5279: real time      0.5278
    TRIAL :  cpu time    234.6738: real time    234.6390
    CORREC:  cpu time    236.8747: real time    236.8385
    CHARGE:  cpu time      0.2385: real time      0.2385
    --------------------------------------------
      LOOP:  cpu time    473.7987: real time    473.7337

 eigenvalue-minimisations  :     0
 total energy-change (2. order) :-0.5551555E-02  (-0.5104231E-02)
 number of electron    1051.9998381 magnetization 
 augmentation part      456.3092664 magnetization 

 Free energy of the ion-electron system (eV)
  ---------------------------------------------------
  alpha Z        PSCENC =      5496.83009512
  Ewald energy   TEWEN  =    -87921.27853549
  -Hartree energ DENC   =    -33614.08219673
  -exchange      EXHF   =      3874.68026095
  -V(xc)+E(xc)   XCENC  =      2891.55094346
  PAW double counting   =    120583.06307489  -135847.36750912
  entropy T*S    EENTRO =        -0.00000000
  eigenvalues    EBANDS =     -8761.67714434
  atomic energy  EATOM  =    132341.04863466
  ---------------------------------------------------
  free energy    TOTEN  =      -957.23237661 eV

  energy without entropy =     -957.23237661  energy(sigma->0) =     -957.23237661
  exchange ACFDT corr.  =        -0.00000000  see jH, gK, PRB 81, 115126


--------------------------------------------------------------------------------------------------------




--------------------------------------- Iteration      1(  18)  ---------------------------------------


    POTLOK:  cpu time      1.5127: real time      1.5125
    SETDIJ:  cpu time      0.5285: real time      0.5284
    TRIAL :  cpu time    234.5791: real time    234.5400
    CORREC:  cpu time    236.8013: real time    236.7565
    CHARGE:  cpu time      0.2394: real time      0.2394
    --------------------------------------------
      LOOP:  cpu time    473.6612: real time    473.5773

 eigenvalue-minimisations  :     0
 total energy-change (2. order) :-0.5104548E-02  (-0.4183939E-02)
 number of electron    1051.9998381 magnetization 
 augmentation part      456.3004217 magnetization 

 Free energy of the ion-electron system (eV)
  ---------------------------------------------------
  alpha Z        PSCENC =      5496.83009512
  Ewald energy   TEWEN  =    -87921.27853549
  -Hartree energ DENC   =    -33610.63308844
  -exchange      EXHF   =      3874.56441256
  -V(xc)+E(xc)   XCENC  =      2891.44500671
  PAW double counting   =    120583.03783900  -135845.55352821
  entropy T*S    EENTRO =        -0.00000000
  eigenvalues    EBANDS =     -8766.69831705
  atomic energy  EATOM  =    132341.04863466
  ---------------------------------------------------
  free energy    TOTEN  =      -957.23748115 eV

  energy without entropy =     -957.23748115  energy(sigma->0) =     -957.23748115
  exchange ACFDT corr.  =        -0.00000000  see jH, gK, PRB 81, 115126


--------------------------------------------------------------------------------------------------------




--------------------------------------- Iteration      1(  19)  ---------------------------------------


    POTLOK:  cpu time      1.4914: real time      1.4910
    SETDIJ:  cpu time      0.5296: real time      0.5295
    TRIAL :  cpu time    234.8133: real time    234.7678
    CORREC:  cpu time    236.7326: real time    236.6910
    CHARGE:  cpu time      0.2327: real time      0.2326
    --------------------------------------------
      LOOP:  cpu time    473.8024: real time    473.7153

 eigenvalue-minimisations  :     0
 total energy-change (2. order) :-0.4187266E-02  (-0.3466906E-02)
 number of electron    1051.9998381 magnetization 
 augmentation part      456.3147557 magnetization 

 Free energy of the ion-electron system (eV)
  ---------------------------------------------------
  alpha Z        PSCENC =      5496.83009512
  Ewald energy   TEWEN  =    -87921.27853549
  -Hartree energ DENC   =    -33608.35755428
  -exchange      EXHF   =      3874.51544648
  -V(xc)+E(xc)   XCENC  =      2891.38234046
  PAW double counting   =    120585.88503879  -135847.09936837
  entropy T*S    EENTRO =        -0.00000000
  eigenvalues    EBANDS =     -8770.16776579
  atomic energy  EATOM  =    132341.04863466
  ---------------------------------------------------
  free energy    TOTEN  =      -957.24166842 eV

  energy without entropy =     -957.24166842  energy(sigma->0) =     -957.24166842
  exchange ACFDT corr.  =        -0.00000000  see jH, gK, PRB 81, 115126


--------------------------------------------------------------------------------------------------------




--------------------------------------- Iteration      1(  20)  ---------------------------------------


    POTLOK:  cpu time      1.4846: real time      1.4844
    SETDIJ:  cpu time      0.5300: real time      0.5299
    TRIAL :  cpu time    234.7270: real time    234.6958
    CORREC:  cpu time    236.8727: real time    236.8294
    CHARGE:  cpu time      0.2383: real time      0.2382
    --------------------------------------------
      LOOP:  cpu time    473.8533: real time    473.7787

 eigenvalue-minimisations  :     0
 total energy-change (2. order) :-0.3467025E-02  (-0.3773232E-02)
 number of electron    1051.9998381 magnetization 
 augmentation part      456.3370250 magnetization 

 Free energy of the ion-electron system (eV)
  ---------------------------------------------------
  alpha Z        PSCENC =      5496.83009512
  Ewald energy   TEWEN  =    -87921.27853549
  -Hartree energ DENC   =    -33609.04586723
  -exchange      EXHF   =      3874.57337553
  -V(xc)+E(xc)   XCENC  =      2891.41414434
  PAW double counting   =    120589.32399764  -135850.83768692
  entropy T*S    EENTRO =        -0.00000000
  eigenvalues    EBANDS =     -8769.27329309
  atomic energy  EATOM  =    132341.04863466
  ---------------------------------------------------
  free energy    TOTEN  =      -957.24513545 eV

  energy without entropy =     -957.24513545  energy(sigma->0) =     -957.24513545
  exchange ACFDT corr.  =        -0.00000000  see jH, gK, PRB 81, 115126


--------------------------------------------------------------------------------------------------------




--------------------------------------- Iteration      1(  21)  ---------------------------------------


    POTLOK:  cpu time      1.5004: real time      1.5007
    SETDIJ:  cpu time      0.5297: real time      0.5296
    TRIAL :  cpu time    234.5722: real time    234.5375
    CORREC:  cpu time    236.7484: real time    236.7124
    CHARGE:  cpu time      0.2333: real time      0.2332
    --------------------------------------------
      LOOP:  cpu time    473.5843: real time    473.5193

 eigenvalue-minimisations  :     0
 total energy-change (2. order) :-0.3774165E-02  (-0.2873565E-02)
 number of electron    1051.9998381 magnetization 
 augmentation part      456.3456453 magnetization 

 Free energy of the ion-electron system (eV)
  ---------------------------------------------------
  alpha Z        PSCENC =      5496.83009512
  Ewald energy   TEWEN  =    -87921.27853549
  -Hartree energ DENC   =    -33611.45919257
  -exchange      EXHF   =      3874.70494479
  -V(xc)+E(xc)   XCENC  =      2891.50324063
  PAW double counting   =    120592.32074954  -135854.95004570
  entropy T*S    EENTRO =        -0.00000000
  eigenvalues    EBANDS =     -8765.96880057
  atomic energy  EATOM  =    132341.04863466
  ---------------------------------------------------
  free energy    TOTEN  =      -957.24890961 eV

  energy without entropy =     -957.24890961  energy(sigma->0) =     -957.24890961
  exchange ACFDT corr.  =        -0.00000000  see jH, gK, PRB 81, 115126


--------------------------------------------------------------------------------------------------------




--------------------------------------- Iteration      1(  22)  ---------------------------------------


    POTLOK:  cpu time      1.5059: real time      1.5057
    SETDIJ:  cpu time      0.5290: real time      0.5289
    TRIAL :  cpu time    234.7292: real time    234.6875
    CORREC:  cpu time    237.0846: real time    237.0381
    CHARGE:  cpu time      0.2319: real time      0.2318
    --------------------------------------------
      LOOP:  cpu time    474.0808: real time    473.9925

 eigenvalue-minimisations  :     0
 total energy-change (2. order) :-0.2871642E-02  (-0.2599974E-02)
 number of electron    1051.9998381 magnetization 
 augmentation part      456.3438254 magnetization 

 Free energy of the ion-electron system (eV)
  ---------------------------------------------------
  alpha Z        PSCENC =      5496.83009512
  Ewald energy   TEWEN  =    -87921.27853549
  -Hartree energ DENC   =    -33612.68091262
  -exchange      EXHF   =      3874.80190011
  -V(xc)+E(xc)   XCENC  =      2891.55512476
  PAW double counting   =    120594.03814273  -135857.03669688
  entropy T*S    EENTRO =        -0.00000000
  eigenvalues    EBANDS =     -8764.52953362
  atomic energy  EATOM  =    132341.04863466
  ---------------------------------------------------
  free energy    TOTEN  =      -957.25178125 eV

  energy without entropy =     -957.25178125  energy(sigma->0) =     -957.25178125
  exchange ACFDT corr.  =         0.00000000  see jH, gK, PRB 81, 115126


--------------------------------------------------------------------------------------------------------




--------------------------------------- Iteration      1(  23)  ---------------------------------------


    POTLOK:  cpu time      1.4639: real time      1.4635
    SETDIJ:  cpu time      0.5273: real time      0.5271
    TRIAL :  cpu time    234.8044: real time    234.7599
    CORREC:  cpu time    236.7831: real time    236.7512
    CHARGE:  cpu time      0.2343: real time      0.2343
    --------------------------------------------
      LOOP:  cpu time    473.8132: real time    473.7415

 eigenvalue-minimisations  :     0
 total energy-change (2. order) :-0.2599947E-02  (-0.2605284E-02)
 number of electron    1051.9998381 magnetization 
 augmentation part      456.3429530 magnetization 

 Free energy of the ion-electron system (eV)
  ---------------------------------------------------
  alpha Z        PSCENC =      5496.83009512
  Ewald energy   TEWEN  =    -87921.27853549
  -Hartree energ DENC   =    -33612.08292683
  -exchange      EXHF   =      3874.85439645
  -V(xc)+E(xc)   XCENC  =      2891.55290034
  PAW double counting   =    120597.28376662  -135859.55293310
  entropy T*S    EENTRO =        -0.00000000
  eigenvalues    EBANDS =     -8765.90977896
  atomic energy  EATOM  =    132341.04863466
  ---------------------------------------------------
  free energy    TOTEN  =      -957.25438120 eV

  energy without entropy =     -957.25438120  energy(sigma->0) =     -957.25438120
  exchange ACFDT corr.  =        -0.00000000  see jH, gK, PRB 81, 115126


--------------------------------------------------------------------------------------------------------




--------------------------------------- Iteration      1(  24)  ---------------------------------------


    POTLOK:  cpu time      1.5013: real time      1.5010
    SETDIJ:  cpu time      0.5275: real time      0.5274
    TRIAL :  cpu time    234.7402: real time    234.6939
    CORREC:  cpu time    236.7437: real time    236.6950
    CHARGE:  cpu time      0.2385: real time      0.2385
    --------------------------------------------
      LOOP:  cpu time    473.7514: real time    473.6563

 eigenvalue-minimisations  :     0
 total energy-change (2. order) :-0.2605336E-02  (-0.2190033E-02)
 number of electron    1051.9998381 magnetization 
 augmentation part      456.3512350 magnetization 

 Free energy of the ion-electron system (eV)
  ---------------------------------------------------
  alpha Z        PSCENC =      5496.83009512
  Ewald energy   TEWEN  =    -87921.27853549
  -Hartree energ DENC   =    -33610.81331478
  -exchange      EXHF   =      3874.88293099
  -V(xc)+E(xc)   XCENC  =      2891.52724932
  PAW double counting   =    120602.93313862  -135864.22426474
  entropy T*S    EENTRO =        -0.00000000
  eigenvalues    EBANDS =     -8768.16292023
  atomic energy  EATOM  =    132341.04863466
  ---------------------------------------------------
  free energy    TOTEN  =      -957.25698654 eV

  energy without entropy =     -957.25698654  energy(sigma->0) =     -957.25698654
  exchange ACFDT corr.  =        -0.00000000  see jH, gK, PRB 81, 115126


--------------------------------------------------------------------------------------------------------




--------------------------------------- Iteration      1(  25)  ---------------------------------------


    POTLOK:  cpu time      1.4918: real time      1.4916
    SETDIJ:  cpu time      0.5307: real time      0.5306
    TRIAL :  cpu time    234.7687: real time    234.7603
    CORREC:  cpu time    236.8006: real time    236.7594
    CHARGE:  cpu time      0.2348: real time      0.2347
    --------------------------------------------
      LOOP:  cpu time    473.8268: real time    473.7771

 eigenvalue-minimisations  :     0
 total energy-change (2. order) :-0.2189915E-02  (-0.2123899E-02)
 number of electron    1051.9998381 magnetization 
 augmentation part      456.3637353 magnetization 

 Free energy of the ion-electron system (eV)
  ---------------------------------------------------
  alpha Z        PSCENC =      5496.83009512
  Ewald energy   TEWEN  =    -87921.27853549
  -Hartree energ DENC   =    -33610.75899781
  -exchange      EXHF   =      3874.91527715
  -V(xc)+E(xc)   XCENC  =      2891.52855763
  PAW double counting   =    120608.96262187  -135870.32915396
  entropy T*S    EENTRO =        -0.00000000
  eigenvalues    EBANDS =     -8768.17767562
  atomic energy  EATOM  =    132341.04863466
  ---------------------------------------------------
  free energy    TOTEN  =      -957.25917645 eV

  energy without entropy =     -957.25917645  energy(sigma->0) =     -957.25917645
  exchange ACFDT corr.  =        -0.00000000  see jH, gK, PRB 81, 115126


--------------------------------------------------------------------------------------------------------




--------------------------------------- Iteration      1(  26)  ---------------------------------------


    POTLOK:  cpu time      1.4789: real time      1.4787
    SETDIJ:  cpu time      0.5300: real time      0.5299
    TRIAL :  cpu time    234.7179: real time    234.6829
    CORREC:  cpu time    236.8468: real time    236.8121
    CHARGE:  cpu time      0.2401: real time      0.2401
    --------------------------------------------
      LOOP:  cpu time    473.8144: real time    473.7448

 eigenvalue-minimisations  :     0
 total energy-change (2. order) :-0.2124565E-02  (-0.1817447E-02)
 number of electron    1051.9998381 magnetization 
 augmentation part      456.3679508 magnetization 

 Free energy of the ion-electron system (eV)
  ---------------------------------------------------
  alpha Z        PSCENC =      5496.83009512
  Ewald energy   TEWEN  =    -87921.27853549
  -Hartree energ DENC   =    -33612.03549782
  -exchange      EXHF   =      3874.96075418
  -V(xc)+E(xc)   XCENC  =      2891.56292842
  PAW double counting   =    120613.80756839  -135876.18151553
  entropy T*S    EENTRO =        -0.00000000
  eigenvalues    EBANDS =     -8765.97573294
  atomic energy  EATOM  =    132341.04863466
  ---------------------------------------------------
  free energy    TOTEN  =      -957.26130102 eV

  energy without entropy =     -957.26130102  energy(sigma->0) =     -957.26130102
  exchange ACFDT corr.  =         0.00000000  see jH, gK, PRB 81, 115126


--------------------------------------------------------------------------------------------------------




--------------------------------------- Iteration      1(  27)  ---------------------------------------


    POTLOK:  cpu time      1.4385: real time      1.4382
    SETDIJ:  cpu time      0.5299: real time      0.5297
    TRIAL :  cpu time    234.7542: real time    234.7143
    CORREC:  cpu time    236.7204: real time    236.6792
    CHARGE:  cpu time      0.2347: real time      0.2347
    --------------------------------------------
      LOOP:  cpu time    473.6781: real time    473.5968

 eigenvalue-minimisations  :     0
 total energy-change (2. order) :-0.1817318E-02  (-0.1443853E-02)
 number of electron    1051.9998381 magnetization 
 augmentation part      456.3616264 magnetization 

 Free energy of the ion-electron system (eV)
  ---------------------------------------------------
  alpha Z        PSCENC =      5496.83009512
  Ewald energy   TEWEN  =    -87921.27853549
  -Hartree energ DENC   =    -33613.13917067
  -exchange      EXHF   =      3874.98500577
  -V(xc)+E(xc)   XCENC  =      2891.59096907
  PAW double counting   =    120614.66149253  -135877.77726036
  entropy T*S    EENTRO =        -0.00000000
  eigenvalues    EBANDS =     -8764.18434894
  atomic energy  EATOM  =    132341.04863466
  ---------------------------------------------------
  free energy    TOTEN  =      -957.26311833 eV

  energy without entropy =     -957.26311833  energy(sigma->0) =     -957.26311833
  exchange ACFDT corr.  =        -0.00000000  see jH, gK, PRB 81, 115126


--------------------------------------------------------------------------------------------------------




--------------------------------------- Iteration      1(  28)  ---------------------------------------


    POTLOK:  cpu time      1.4502: real time      1.4500
    SETDIJ:  cpu time      0.5330: real time      0.5329
    TRIAL :  cpu time    234.7792: real time    234.7349
    CORREC:  cpu time    237.1955: real time    237.1478
    CHARGE:  cpu time      0.2457: real time      0.2457
    --------------------------------------------
      LOOP:  cpu time    474.2040: real time    474.1179

 eigenvalue-minimisations  :     0
 total energy-change (2. order) :-0.1443879E-02  (-0.1230735E-02)
 number of electron    1051.9998382 magnetization 
 augmentation part      456.3533450 magnetization 

 Free energy of the ion-electron system (eV)
  ---------------------------------------------------
  alpha Z        PSCENC =      5496.83009512
  Ewald energy   TEWEN  =    -87921.27853549
  -Hartree energ DENC   =    -33612.96266001
  -exchange      EXHF   =      3874.96355266
  -V(xc)+E(xc)   XCENC  =      2891.58274581
  PAW double counting   =    120612.30461253  -135875.15719987
  entropy T*S    EENTRO =        -0.00000000
  eigenvalues    EBANDS =     -8764.59580761
  atomic energy  EATOM  =    132341.04863466
  ---------------------------------------------------
  free energy    TOTEN  =      -957.26456221 eV

  energy without entropy =     -957.26456221  energy(sigma->0) =     -957.26456221
  exchange ACFDT corr.  =        -0.00000000  see jH, gK, PRB 81, 115126


--------------------------------------------------------------------------------------------------------




--------------------------------------- Iteration      1(  29)  ---------------------------------------


    POTLOK:  cpu time      1.4875: real time      1.4872
    SETDIJ:  cpu time      0.5301: real time      0.5300
    TRIAL :  cpu time    234.7108: real time    234.6709
    CORREC:  cpu time    236.5895: real time    236.5533
    CHARGE:  cpu time      0.2337: real time      0.2337
    --------------------------------------------
      LOOP:  cpu time    473.5519: real time    473.4757

 eigenvalue-minimisations  :     0
 total energy-change (2. order) :-0.1230696E-02  (-0.8626680E-03)
 number of electron    1051.9998382 magnetization 
 augmentation part      456.3516128 magnetization 

 Free energy of the ion-electron system (eV)
  ---------------------------------------------------
  alpha Z        PSCENC =      5496.83009512
  Ewald energy   TEWEN  =    -87921.27853549
  -Hartree energ DENC   =    -33612.00350370
  -exchange      EXHF   =      3874.91015817
  -V(xc)+E(xc)   XCENC  =      2891.55133704
  PAW double counting   =    120608.92774247  -135871.06576495
  entropy T*S    EENTRO =        -0.00000000
  eigenvalues    EBANDS =     -8766.18595622
  atomic energy  EATOM  =    132341.04863466
  ---------------------------------------------------
  free energy    TOTEN  =      -957.26579291 eV

  energy without entropy =     -957.26579291  energy(sigma->0) =     -957.26579291
  exchange ACFDT corr.  =         0.00000000  see jH, gK, PRB 81, 115126


--------------------------------------------------------------------------------------------------------




--------------------------------------- Iteration      1(  30)  ---------------------------------------


    POTLOK:  cpu time      1.4915: real time      1.4912
    SETDIJ:  cpu time      0.5313: real time      0.5311
    TRIAL :  cpu time    234.8664: real time    234.8257
    CORREC:  cpu time    236.9352: real time    236.8980
    CHARGE:  cpu time      0.2342: real time      0.2342
    --------------------------------------------
      LOOP:  cpu time    474.0591: real time    473.9811

 eigenvalue-minimisations  :     0
 total energy-change (2. order) :-0.8627307E-03  (-0.6348580E-03)
 number of electron    1051.9998382 magnetization 
 augmentation part      456.3530460 magnetization 

 Free energy of the ion-electron system (eV)
  ---------------------------------------------------
  alpha Z        PSCENC =      5496.83009512
  Ewald energy   TEWEN  =    -87921.27853549
  -Hartree energ DENC   =    -33611.46649270
  -exchange      EXHF   =      3874.86177521
  -V(xc)+E(xc)   XCENC  =      2891.52992854
  PAW double counting   =    120606.22223399  -135868.21677789
  entropy T*S    EENTRO =        -0.00000000
  eigenvalues    EBANDS =     -8766.79751707
  atomic energy  EATOM  =    132341.04863466
  ---------------------------------------------------
  free energy    TOTEN  =      -957.26665564 eV

  energy without entropy =     -957.26665564  energy(sigma->0) =     -957.26665564
  exchange ACFDT corr.  =         0.00000000  see jH, gK, PRB 81, 115126


--------------------------------------------------------------------------------------------------------




--------------------------------------- Iteration      1(  31)  ---------------------------------------


    POTLOK:  cpu time      1.5359: real time      1.5357
    SETDIJ:  cpu time      0.5295: real time      0.5294
    TRIAL :  cpu time    234.7675: real time    234.7314
    CORREC:  cpu time    236.8753: real time    236.8383
    CHARGE:  cpu time      0.2411: real time      0.2411
    --------------------------------------------
      LOOP:  cpu time    473.9508: real time    473.8775

 eigenvalue-minimisations  :     0
 total energy-change (2. order) :-0.6348732E-03  (-0.4054811E-03)
 number of electron    1051.9998382 magnetization 
 augmentation part      456.3524329 magnetization 

 Free energy of the ion-electron system (eV)
  ---------------------------------------------------
  alpha Z        PSCENC =      5496.83009512
  Ewald energy   TEWEN  =    -87921.27853549
  -Hartree energ DENC   =    -33611.48676371
  -exchange      EXHF   =      3874.82661793
  -V(xc)+E(xc)   XCENC  =      2891.52280826
  PAW double counting   =    120603.96111028  -135866.33763033
  entropy T*S    EENTRO =        -0.00000000
  eigenvalues    EBANDS =     -8766.35362721
  atomic energy  EATOM  =    132341.04863466
  ---------------------------------------------------
  free energy    TOTEN  =      -957.26729051 eV

  energy without entropy =     -957.26729051  energy(sigma->0) =     -957.26729051
  exchange ACFDT corr.  =        -0.00000000  see jH, gK, PRB 81, 115126


--------------------------------------------------------------------------------------------------------




--------------------------------------- Iteration      1(  32)  ---------------------------------------


    POTLOK:  cpu time      1.5194: real time      1.5192
    SETDIJ:  cpu time      0.5321: real time      0.5319
    TRIAL :  cpu time    234.7634: real time    234.7263
    CORREC:  cpu time    236.7337: real time    236.6904
    CHARGE:  cpu time      0.2396: real time      0.2395
    --------------------------------------------
      LOOP:  cpu time    473.7897: real time    473.7092

 eigenvalue-minimisations  :     0
 total energy-change (2. order) :-0.4054468E-03  (-0.3929246E-03)
 number of electron    1051.9998382 magnetization 
 augmentation part      456.3494589 magnetization 

 Free energy of the ion-electron system (eV)
  ---------------------------------------------------
  alpha Z        PSCENC =      5496.83009512
  Ewald energy   TEWEN  =    -87921.27853549
  -Hartree energ DENC   =    -33611.62465594
  -exchange      EXHF   =      3874.80714459
  -V(xc)+E(xc)   XCENC  =      2891.52164120
  PAW double counting   =    120601.96389197  -135864.64838313
  entropy T*S    EENTRO =        -0.00000000
  eigenvalues    EBANDS =     -8765.88752892
  atomic energy  EATOM  =    132341.04863466
  ---------------------------------------------------
  free energy    TOTEN  =      -957.26769596 eV

  energy without entropy =     -957.26769596  energy(sigma->0) =     -957.26769596
  exchange ACFDT corr.  =        -0.00000000  see jH, gK, PRB 81, 115126


--------------------------------------------------------------------------------------------------------




--------------------------------------- Iteration      1(  33)  ---------------------------------------


    POTLOK:  cpu time      1.4924: real time      1.4920
    SETDIJ:  cpu time      0.5324: real time      0.5323
    TRIAL :  cpu time    234.7447: real time    234.6998
    CORREC:  cpu time    237.0812: real time    237.0362
    CHARGE:  cpu time      0.2388: real time      0.2388
    --------------------------------------------
      LOOP:  cpu time    474.0897: real time    474.0052

 eigenvalue-minimisations  :     0
 total energy-change (2. order) :-0.3922048E-03  (-0.2055760E-03)
 number of electron    1051.9998382 magnetization 
 augmentation part      456.3501887 magnetization 

 Free energy of the ion-electron system (eV)
  ---------------------------------------------------
  alpha Z        PSCENC =      5496.83009512
  Ewald energy   TEWEN  =    -87921.27853549
  -Hartree energ DENC   =    -33611.45798110
  -exchange      EXHF   =      3874.81373449
  -V(xc)+E(xc)   XCENC  =      2891.52056728
  PAW double counting   =    120601.95221887  -135864.29993610
  entropy T*S    EENTRO =        -0.00000000
  eigenvalues    EBANDS =     -8766.39688590
  atomic energy  EATOM  =    132341.04863466
  ---------------------------------------------------
  free energy    TOTEN  =      -957.26808816 eV

  energy without entropy =     -957.26808816  energy(sigma->0) =     -957.26808816
  exchange ACFDT corr.  =        -0.00000000  see jH, gK, PRB 81, 115126


--------------------------------------------------------------------------------------------------------




--------------------------------------- Iteration      1(  34)  ---------------------------------------


    POTLOK:  cpu time      1.4962: real time      1.4959
    SETDIJ:  cpu time      0.5308: real time      0.5307
    TRIAL :  cpu time    234.6282: real time    234.5843
    CORREC:  cpu time    236.7349: real time    236.6943
    CHARGE:  cpu time      0.2410: real time      0.2410
    --------------------------------------------
      LOOP:  cpu time    473.6321: real time    473.5474

 eigenvalue-minimisations  :     0
 total energy-change (2. order) :-0.2062268E-03  (-0.1069434E-03)
 number of electron    1051.9998382 magnetization 
 augmentation part      456.3501536 magnetization 

 Free energy of the ion-electron system (eV)
  ---------------------------------------------------
  alpha Z        PSCENC =      5496.83009512
  Ewald energy   TEWEN  =    -87921.27853549
  -Hartree energ DENC   =    -33611.64483403
  -exchange      EXHF   =      3874.82423550
  -V(xc)+E(xc)   XCENC  =      2891.52761726
  PAW double counting   =    120602.54145733  -135864.93124003
  entropy T*S    EENTRO =        -0.00000000
  eigenvalues    EBANDS =     -8766.18572471
  atomic energy  EATOM  =    132341.04863466
  ---------------------------------------------------
  free energy    TOTEN  =      -957.26829439 eV

  energy without entropy =     -957.26829439  energy(sigma->0) =     -957.26829439
  exchange ACFDT corr.  =        -0.00000000  see jH, gK, PRB 81, 115126


--------------------------------------------------------------------------------------------------------




--------------------------------------- Iteration      1(  35)  ---------------------------------------


    POTLOK:  cpu time      1.4303: real time      1.4300
    SETDIJ:  cpu time      0.5295: real time      0.5293
    TRIAL :  cpu time    234.7274: real time    234.6914
    CORREC:  cpu time    236.7244: real time    236.6829
    CHARGE:  cpu time      0.2329: real time      0.2328
    --------------------------------------------
      LOOP:  cpu time    473.6453: real time    473.5676

 eigenvalue-minimisations  :     0
 total energy-change (2. order) :-0.1068879E-03  (-0.6567643E-04)
 number of electron    1051.9998382 magnetization 
 augmentation part      456.3492757 magnetization 

 Free energy of the ion-electron system (eV)
  ---------------------------------------------------
  alpha Z        PSCENC =      5496.83009512
  Ewald energy   TEWEN  =    -87921.27853549
  -Hartree energ DENC   =    -33611.67334054
  -exchange      EXHF   =      3874.82617419
  -V(xc)+E(xc)   XCENC  =      2891.52860435
  PAW double counting   =    120602.70019547  -135865.12835273
  entropy T*S    EENTRO =        -0.00000000
  eigenvalues    EBANDS =     -8766.12187630
  atomic energy  EATOM  =    132341.04863466
  ---------------------------------------------------
  free energy    TOTEN  =      -957.26840128 eV

  energy without entropy =     -957.26840128  energy(sigma->0) =     -957.26840128
  exchange ACFDT corr.  =        -0.00000000  see jH, gK, PRB 81, 115126


--------------------------------------------------------------------------------------------------------




--------------------------------------- Iteration      1(  36)  ---------------------------------------


    POTLOK:  cpu time      1.4578: real time      1.4576
    SETDIJ:  cpu time      0.5302: real time      0.5301
    TRIAL :  cpu time    234.7671: real time    234.7284
    CORREC:  cpu time    236.8584: real time    236.8246
    CHARGE:  cpu time      0.2333: real time      0.2333
    --------------------------------------------
      LOOP:  cpu time    473.8487: real time    473.7761

 eigenvalue-minimisations  :     0
 total energy-change (2. order) :-0.6547166E-04  (-0.3726013E-04)
 number of electron    1051.9998382 magnetization 
 augmentation part      456.3486946 magnetization 

 Free energy of the ion-electron system (eV)
  ---------------------------------------------------
  alpha Z        PSCENC =      5496.83009512
  Ewald energy   TEWEN  =    -87921.27853549
  -Hartree energ DENC   =    -33611.56763774
  -exchange      EXHF   =      3874.82483230
  -V(xc)+E(xc)   XCENC  =      2891.52600686
  PAW double counting   =    120602.52902921  -135864.91422639
  entropy T*S    EENTRO =        -0.00000000
  eigenvalues    EBANDS =     -8766.26666526
  atomic energy  EATOM  =    132341.04863466
  ---------------------------------------------------
  free energy    TOTEN  =      -957.26846675 eV

  energy without entropy =     -957.26846675  energy(sigma->0) =     -957.26846675
  exchange ACFDT corr.  =        -0.00000000  see jH, gK, PRB 81, 115126


--------------------------------------------------------------------------------------------------------




--------------------------------------- Iteration      1(  37)  ---------------------------------------


    POTLOK:  cpu time      1.4456: real time      1.4454
    SETDIJ:  cpu time      0.5309: real time      0.5308
    TRIAL :  cpu time    234.7005: real time    234.6678
    CORREC:  cpu time    236.6704: real time    236.6293
    CHARGE:  cpu time      0.2385: real time      0.2384
    --------------------------------------------
      LOOP:  cpu time    473.5866: real time    473.5129

 eigenvalue-minimisations  :     0
 total energy-change (2. order) :-0.3716597E-04  (-0.2228234E-04)
 number of electron    1051.9998382 magnetization 
 augmentation part      456.3486254 magnetization 

 Free energy of the ion-electron system (eV)
  ---------------------------------------------------
  alpha Z        PSCENC =      5496.83009512
  Ewald energy   TEWEN  =    -87921.27853549
  -Hartree energ DENC   =    -33611.52574088
  -exchange      EXHF   =      3874.82506475
  -V(xc)+E(xc)   XCENC  =      2891.52564527
  PAW double counting   =    120602.17748271  -135864.51685350
  entropy T*S    EENTRO =        -0.00000000
  eigenvalues    EBANDS =     -8766.35429655
  atomic energy  EATOM  =    132341.04863466
  ---------------------------------------------------
  free energy    TOTEN  =      -957.26850392 eV

  energy without entropy =     -957.26850392  energy(sigma->0) =     -957.26850392
  exchange ACFDT corr.  =        -0.00000000  see jH, gK, PRB 81, 115126


--------------------------------------------------------------------------------------------------------




--------------------------------------- Iteration      1(  38)  ---------------------------------------


    POTLOK:  cpu time      1.4478: real time      1.4476
    SETDIJ:  cpu time      0.5305: real time      0.5304
    TRIAL :  cpu time    234.8461: real time    234.8009
    CORREC:  cpu time    237.0482: real time    237.0013
    CHARGE:  cpu time      0.2337: real time      0.2336
    --------------------------------------------
      LOOP:  cpu time    474.1066: real time    474.0172

 eigenvalue-minimisations  :     0
 total energy-change (2. order) :-0.2230572E-04  (-0.1555601E-04)
 number of electron    1051.9998382 magnetization 
 augmentation part      456.3485438 magnetization 

 Free energy of the ion-electron system (eV)
  ---------------------------------------------------
  alpha Z        PSCENC =      5496.83009512
  Ewald energy   TEWEN  =    -87921.27853549
  -Hartree energ DENC   =    -33611.56622518
  -exchange      EXHF   =      3874.82614013
  -V(xc)+E(xc)   XCENC  =      2891.52719490
  PAW double counting   =    120601.84081028  -135864.18352375
  entropy T*S    EENTRO =        -0.00000000
  eigenvalues    EBANDS =     -8766.31311689
  atomic energy  EATOM  =    132341.04863466
  ---------------------------------------------------
  free energy    TOTEN  =      -957.26852622 eV

  energy without entropy =     -957.26852622  energy(sigma->0) =     -957.26852622
  exchange ACFDT corr.  =        -0.00000000  see jH, gK, PRB 81, 115126


--------------------------------------------------------------------------------------------------------




--------------------------------------- Iteration      1(  39)  ---------------------------------------


    POTLOK:  cpu time      1.4684: real time      1.4682
    SETDIJ:  cpu time      0.5299: real time      0.5298
    TRIAL :  cpu time    234.6928: real time    234.6477
    CORREC:  cpu time    236.7938: real time    236.7502
    CHARGE:  cpu time      0.2348: real time      0.2347
    --------------------------------------------
      LOOP:  cpu time    473.7227: real time    473.6337

 eigenvalue-minimisations  :     0
 total energy-change (2. order) :-0.1558888E-04  (-0.9985583E-05)
 number of electron    1051.9998382 magnetization 
 augmentation part      456.3483237 magnetization 

 Free energy of the ion-electron system (eV)
  ---------------------------------------------------
  alpha Z        PSCENC =      5496.83009512
  Ewald energy   TEWEN  =    -87921.27853549
  -Hartree energ DENC   =    -33611.59248972
  -exchange      EXHF   =      3874.82568569
  -V(xc)+E(xc)   XCENC  =      2891.52764693
  PAW double counting   =    120601.57646851  -135863.93693188
  entropy T*S    EENTRO =        -0.00000000
  eigenvalues    EBANDS =     -8766.26911562
  atomic energy  EATOM  =    132341.04863466
  ---------------------------------------------------
  free energy    TOTEN  =      -957.26854181 eV

  energy without entropy =     -957.26854181  energy(sigma->0) =     -957.26854181
  exchange ACFDT corr.  =        -0.00000000  see jH, gK, PRB 81, 115126


--------------------------------------------------------------------------------------------------------




--------------------------------------- Iteration      1(  40)  ---------------------------------------


    POTLOK:  cpu time      1.5179: real time      1.5176
    SETDIJ:  cpu time      0.5293: real time      0.5292
    TRIAL :  cpu time    234.6856: real time    234.6518
    CORREC:  cpu time    236.7330: real time    236.6918
    EDDIAG:  cpu time    232.7132: real time    232.6688
    CHARGE:  cpu time      0.2783: real time      0.2782
    --------------------------------------------
      LOOP:  cpu time    707.4605: real time    707.3407

 eigenvalue-minimisations  :     0
 total energy-change (2. order) :-0.9987554E-05  (-0.6214250E-05)
 number of electron    1051.9998382 magnetization 
 augmentation part      456.3482301 magnetization 

 Free energy of the ion-electron system (eV)
  ---------------------------------------------------
  alpha Z        PSCENC =      5496.83009512
  Ewald energy   TEWEN  =    -87921.27853549
  -Hartree energ DENC   =    -33611.57749454
  -exchange      EXHF   =      3874.82308593
  -V(xc)+E(xc)   XCENC  =      2891.52677227
  PAW double counting   =    120601.20416784  -135863.56170576
  entropy T*S    EENTRO =        -0.00000000
  eigenvalues    EBANDS =     -8766.28144426
  atomic energy  EATOM  =    132341.04863466
  ---------------------------------------------------
  free energy    TOTEN  =      -957.26855180 eV

  energy without entropy =     -957.26855180  energy(sigma->0) =     -957.26855180
  exchange ACFDT corr.  =        -0.00000000  see jH, gK, PRB 81, 115126


--------------------------------------------------------------------------------------------------------


  average scaling for gradient   0.5911


 the core state eigenenergies are
   1-  1s -10216.5169  2s  -1249.7873  2p  -1086.2399  3s   -136.9409  3p    -87.7290
     
   2-  1s -10216.5122  2s  -1249.7853  2p  -1086.2376  3s   -136.9359  3p    -87.7240
     
   3-  1s -10216.2322  2s  -1249.5091  2p  -1085.9610  3s   -136.6644  3p    -87.4528
     
   4-  1s -10216.1958  2s  -1249.4742  2p  -1085.9260  3s   -136.6270  3p    -87.4152
     
   5-  1s -10216.2802  2s  -1249.5543  2p  -1086.0066  3s   -136.7062  3p    -87.4944
     
   6-  1s -10216.1468  2s  -1249.4289  2p  -1085.8802  3s   -136.5855  3p    -87.3740
     
   7-  1s -10216.5786  2s  -1249.8484  2p  -1086.3011  3s   -136.9984  3p    -87.7864
     
   8-  1s -10216.6273  2s  -1249.8987  2p  -1086.3512  3s   -137.0524  3p    -87.8405
     
   9-  1s -10216.4845  2s  -1249.7545  2p  -1086.2073  3s   -136.9003  3p    -87.6880
     
  10-  1s -10216.5471  2s  -1249.8179  2p  -1086.2704  3s   -136.9716  3p    -87.7598
     
  11-  1s -10216.5771  2s  -1249.8472  2p  -1086.2999  3s   -136.9977  3p    -87.7857
     
  12-  1s -10216.6229  2s  -1249.8946  2p  -1086.3470  3s   -137.0487  3p    -87.8369
     
  13-  1s -10216.1635  2s  -1249.5363  2p  -1085.9790  3s   -136.6365  3p    -87.4227
     
  14-  1s -10216.6384  2s  -1250.0133  2p  -1086.4555  3s   -137.1247  3p    -87.9115
     
  15-  1s -10216.3961  2s  -1249.7830  2p  -1086.2236  3s   -136.9052  3p    -87.6926
     
  16-  1s -10216.1527  2s  -1249.5252  2p  -1085.9679  3s   -136.6259  3p    -87.4121
     
  17-  1s -10216.6345  2s  -1250.0097  2p  -1086.4518  3s   -137.1219  3p    -87.9086
     
  18-  1s -10216.6832  2s  -1250.0580  2p  -1086.5002  3s   -137.1703  3p    -87.9571
     
  19-  1s -10216.6776  2s  -1250.0526  2p  -1086.4947  3s   -137.1661  3p    -87.9529
     
  20-  1s -10216.6299  2s  -1250.0068  2p  -1086.4487  3s   -137.1217  3p    -87.9086
     
  21-  1s -10216.6513  2s  -1250.0237  2p  -1086.4662  3s   -137.1324  3p    -87.9189
     
  22-  1s -10216.6387  2s  -1250.0149  2p  -1086.4569  3s   -137.1288  3p    -87.9157
     
  23-  1s -10216.6526  2s  -1250.0236  2p  -1086.4663  3s   -137.1312  3p    -87.9177
     
  24-  1s -10216.6276  2s  -1249.8985  2p  -1086.3511  3s   -137.0514  3p    -87.8395
     
  25-  1s -10216.6896  2s  -1249.9607  2p  -1086.4132  3s   -137.1133  3p    -87.9014
     
  26-  1s -10216.5926  2s  -1249.8641  2p  -1086.3166  3s   -137.0182  3p    -87.8064
     
  27-  1s -10216.6760  2s  -1249.9461  2p  -1086.3988  3s   -137.0964  3p    -87.8844
     
  28-  1s -10216.6360  2s  -1249.9062  2p  -1086.3588  3s   -137.0580  3p    -87.8461
     
  29-  1s -10216.6905  2s  -1249.9615  2p  -1086.4141  3s   -137.1140  3p    -87.9021
     
  30-  1s -10216.4962  2s  -1249.7667  2p  -1086.2193  3s   -136.9167  3p    -87.7047
     
  31-  1s -10216.6530  2s  -1249.9252  2p  -1086.3776  3s   -137.0795  3p    -87.8677
     
  32-  1s -10216.2946  2s  -1249.5651  2p  -1086.0180  3s   -136.7036  3p    -87.4910
     
  33-  1s -10216.6458  2s  -1249.9163  2p  -1086.3690  3s   -137.0659  3p    -87.8539
     
  34-  1s -10216.3070  2s  -1249.5763  2p  -1086.0294  3s   -136.7130  3p    -87.5003
     
  35-  1s -10216.6417  2s  -1249.9124  2p  -1086.3650  3s   -137.0628  3p    -87.8508
     
  36-  1s -10216.7109  2s  -1250.0836  2p  -1086.5261  3s   -137.1925  3p    -87.9790
     
  37-  1s -10216.7248  2s  -1250.0997  2p  -1086.5419  3s   -137.2119  3p    -87.9987
     
  38-  1s -10216.6801  2s  -1250.0523  2p  -1086.4949  3s   -137.1616  3p    -87.9482
     
  39-  1s -10216.7143  2s  -1250.0888  2p  -1086.5311  3s   -137.2006  3p    -87.9873
     
  40-  1s -10216.6758  2s  -1250.0483  2p  -1086.4908  3s   -137.1578  3p    -87.9444
     
  41-  1s -10216.7142  2s  -1250.0888  2p  -1086.5310  3s   -137.2007  3p    -87.9874
     
  42-  1s -10216.5395  2s  -1249.9166  2p  -1086.3585  3s   -137.0324  3p    -87.8193
     
  43-  1s -10216.5257  2s  -1249.9035  2p  -1086.3453  3s   -137.0190  3p    -87.8059
     
  44-  1s -10216.4738  2s  -1249.8451  2p  -1086.2877  3s   -136.9583  3p    -87.7451
     
  45-  1s -10216.4437  2s  -1249.8144  2p  -1086.2571  3s   -136.9251  3p    -87.7118
     
  46-  1s -10216.5560  2s  -1249.9325  2p  -1086.3745  3s   -137.0473  3p    -87.8342
     
  47-  1s -10216.5105  2s  -1249.8893  2p  -1086.3309  3s   -137.0059  3p    -87.7929
     
  48-  1s   -500.6407
  49-  1s   -500.6655
  50-  1s   -500.6397
  51-  1s   -500.6212
  52-  1s   -500.6390
  53-  1s   -500.6653
  54-  1s   -500.2810
  55-  1s   -500.6189
  56-  1s   -499.4114
  57-  1s   -500.5597
  58-  1s   -499.4071
  59-  1s   -500.5559
  60-  1s   -500.5258
  61-  1s   -500.7648
  62-  1s   -499.7141
  63-  1s   -500.4510
  64-  1s   -500.5369
  65-  1s   -500.7677
  66-  1s   -500.7356
  67-  1s   -500.7953
  68-  1s   -500.6416
  69-  1s   -500.6657
  70-  1s   -500.6676
  71-  1s   -500.6473
  72-  1s   -500.3242
  73-  1s   -500.3906
  74-  1s   -500.3462
  75-  1s   -500.3331
  76-  1s   -500.3357
  77-  1s   -500.3252
  78-  1s   -500.3016
  79-  1s   -500.0880
  80-  1s   -500.0276
  81-  1s   -499.1141
  82-  1s   -500.2999
  83-  1s   -500.0640
  84-  1s   -500.5298
  85-  1s   -500.5193
  86-  1s   -500.3512
  87-  1s   -500.3509
  88-  1s   -500.3964
  89-  1s   -500.3255
  90-  1s   -500.6454
  91-  1s   -500.6661
  92-  1s   -500.6187
  93-  1s   -500.6492
  94-  1s   -500.6442
  95-  1s   -500.6683
  96-  1s   -500.7921
  97-  1s   -500.8527
  98-  1s   -500.7302
  99-  1s   -500.8546
 100-  1s   -500.7222
 101-  1s   -500.8544
 102-  1s   -500.6714
 103-  1s   -500.7990
 104-  1s   -500.6075
 105-  1s   -500.7336
 106-  1s   -500.6867
 107-  1s   -500.7951
 108-  1s   -500.2100
 109-  1s   -500.3717
 110-  1s   -500.0940
 111-  1s   -500.3106
 112-  1s   -500.2033
 113-  1s   -500.3724
 114-  1s   -500.4082
 115-  1s   -500.4127
 116-  1s   -500.3819
 117-  1s   -500.3855
 118-  1s   -500.3802
 119-  1s   -500.3859
 120-  1s  -6983.2792  2s   -804.4534  2p   -683.1725  3s    -79.0961  3p    -45.2277
     
 
 E-fermi :   6.1706     XC(G=0):  -8.8600     alpha+bet :-12.5010

 Fermi energy:         6.1706105990

 k-point     1 :       0.0000    0.0000    0.0000
  band No.  band energies     occupation 
      1     -18.7532      2.00000
      2     -18.4641      2.00000
      3     -18.3986      2.00000
      4     -18.2933      2.00000
      5     -18.1982      2.00000
      6     -18.0796      2.00000
      7     -18.0650      2.00000
      8     -17.9823      2.00000
      9     -17.9011      2.00000
     10     -17.8872      2.00000
     11     -17.8690      2.00000
     12     -17.8189      2.00000
     13     -17.7992      2.00000
     14     -17.7512      2.00000
     15     -17.7479      2.00000
     16     -17.7382      2.00000
     17     -17.7159      2.00000
     18     -17.6972      2.00000
     19     -17.6719      2.00000
     20     -17.6222      2.00000
     21     -17.6000      2.00000
     22     -17.5982      2.00000
     23     -17.5673      2.00000
     24     -17.5481      2.00000
     25     -17.5398      2.00000
     26     -17.4762      2.00000
     27     -17.4710      2.00000
     28     -17.4620      2.00000
     29     -17.4588      2.00000
     30     -17.4468      2.00000
     31     -17.4106      2.00000
     32     -17.3820      2.00000
     33     -17.3750      2.00000
     34     -17.3493      2.00000
     35     -17.3226      2.00000
     36     -17.3171      2.00000
     37     -17.3022      2.00000
     38     -17.2843      2.00000
     39     -17.2701      2.00000
     40     -17.2362      2.00000
     41     -17.2254      2.00000
     42     -17.2250      2.00000
     43     -17.2046      2.00000
     44     -17.1599      2.00000
     45     -17.1486      2.00000
     46     -17.1393      2.00000
     47     -17.1295      2.00000
     48     -17.1253      2.00000
     49     -17.0873      2.00000
     50     -17.0816      2.00000
     51     -17.0805      2.00000
     52     -17.0755      2.00000
     53     -17.0519      2.00000
     54     -17.0386      2.00000
     55     -17.0309      2.00000
     56     -17.0259      2.00000
     57     -17.0158      2.00000
     58     -16.9802      2.00000
     59     -16.9390      2.00000
     60     -16.9378      2.00000
     61     -16.9283      2.00000
     62     -16.9081      2.00000
     63     -16.8940      2.00000
     64     -16.8679      2.00000
     65     -16.8550      2.00000
     66     -16.8133      2.00000
     67     -16.7826      2.00000
     68     -16.7623      2.00000
     69     -16.3579      2.00000
     70     -16.1215      2.00000
     71     -16.0261      2.00000
     72     -15.8533      2.00000
     73     -13.2168      2.00000
     74     -13.2121      2.00000
     75     -13.1833      2.00000
     76     -13.1778      2.00000
     77     -13.1604      2.00000
     78     -13.1557      2.00000
     79     -13.1508      2.00000
     80     -13.1349      2.00000
     81     -13.1285      2.00000
     82     -13.1202      2.00000
     83     -13.1138      2.00000
     84     -13.1091      2.00000
     85     -13.1013      2.00000
     86     -13.0989      2.00000
     87     -13.0930      2.00000
     88     -13.0883      2.00000
     89     -13.0806      2.00000
     90     -13.0787      2.00000
     91     -13.0775      2.00000
     92     -13.0760      2.00000
     93     -13.0704      2.00000
     94     -13.0629      2.00000
     95     -13.0603      2.00000
     96     -13.0553      2.00000
     97     -13.0514      2.00000
     98     -13.0482      2.00000
     99     -13.0471      2.00000
    100     -13.0442      2.00000
    101     -13.0418      2.00000
    102     -13.0314      2.00000
    103     -13.0264      2.00000
    104     -13.0223      2.00000
    105     -13.0178      2.00000
    106     -13.0082      2.00000
    107     -13.0079      2.00000
    108     -13.0061      2.00000
    109     -13.0020      2.00000
    110     -12.9992      2.00000
    111     -12.9926      2.00000
    112     -12.9904      2.00000
    113     -12.9886      2.00000
    114     -12.9853      2.00000
    115     -12.9845      2.00000
    116     -12.9804      2.00000
    117     -12.9770      2.00000
    118     -12.9743      2.00000
    119     -12.9678      2.00000
    120     -12.9649      2.00000
    121     -12.9641      2.00000
    122     -12.9639      2.00000
    123     -12.9600      2.00000
    124     -12.9574      2.00000
    125     -12.9496      2.00000
    126     -12.9488      2.00000
    127     -12.9455      2.00000
    128     -12.9408      2.00000
    129     -12.9397      2.00000
    130     -12.9364      2.00000
    131     -12.9320      2.00000
    132     -12.9310      2.00000
    133     -12.9284      2.00000
    134     -12.9229      2.00000
    135     -12.9198      2.00000
    136     -12.9154      2.00000
    137     -12.9142      2.00000
    138     -12.9117      2.00000
    139     -12.9107      2.00000
    140     -12.9078      2.00000
    141     -12.9044      2.00000
    142     -12.9034      2.00000
    143     -12.8971      2.00000
    144     -12.8963      2.00000
    145     -12.8905      2.00000
    146     -12.8903      2.00000
    147     -12.8805      2.00000
    148     -12.8779      2.00000
    149     -12.8761      2.00000
    150     -12.8719      2.00000
    151     -12.8714      2.00000
    152     -12.8705      2.00000
    153     -12.8666      2.00000
    154     -12.8644      2.00000
    155     -12.8634      2.00000
    156     -12.8614      2.00000
    157     -12.8537      2.00000
    158     -12.8472      2.00000
    159     -12.8430      2.00000
    160     -12.8388      2.00000
    161     -12.8323      2.00000
    162     -12.8292      2.00000
    163     -12.8268      2.00000
    164     -12.8202      2.00000
    165     -12.8180      2.00000
    166     -12.8176      2.00000
    167     -12.8148      2.00000
    168     -12.8108      2.00000
    169     -12.8092      2.00000
    170     -12.8065      2.00000
    171     -12.8029      2.00000
    172     -12.7953      2.00000
    173     -12.7943      2.00000
    174     -12.7914      2.00000
    175     -12.7868      2.00000
    176     -12.7864      2.00000
    177     -12.7841      2.00000
    178     -12.7828      2.00000
    179     -12.7798      2.00000
    180     -12.7785      2.00000
    181     -12.7779      2.00000
    182     -12.7756      2.00000
    183     -12.7749      2.00000
    184     -12.7708      2.00000
    185     -12.7701      2.00000
    186     -12.7689      2.00000
    187     -12.7680      2.00000
    188     -12.7660      2.00000
    189     -12.7644      2.00000
    190     -12.7604      2.00000
    191     -12.7581      2.00000
    192     -12.7570      2.00000
    193     -12.7527      2.00000
    194     -12.7490      2.00000
    195     -12.7463      2.00000
    196     -12.7414      2.00000
    197     -12.7355      2.00000
    198     -12.7334      2.00000
    199     -12.7302      2.00000
    200     -12.7284      2.00000
    201     -12.7267      2.00000
    202     -12.7182      2.00000
    203     -12.7106      2.00000
    204     -12.7096      2.00000
    205     -12.7052      2.00000
    206     -12.7042      2.00000
    207     -12.6984      2.00000
    208     -12.6974      2.00000
    209     -12.6919      2.00000
    210     -12.6898      2.00000
    211     -12.6877      2.00000
    212     -12.6853      2.00000
    213     -12.6834      2.00000
    214     -12.6793      2.00000
    215     -12.6739      2.00000
    216     -12.6721      2.00000
    217     -12.6679      2.00000
    218     -12.6626      2.00000
    219     -12.6584      2.00000
    220     -12.6574      2.00000
    221     -12.6554      2.00000
    222     -12.6530      2.00000
    223     -12.6429      2.00000
    224     -12.6412      2.00000
    225     -12.6370      2.00000
    226     -12.6326      2.00000
    227     -12.6317      2.00000
    228     -12.6247      2.00000
    229     -12.6224      2.00000
    230     -12.6188      2.00000
    231     -12.6157      2.00000
    232     -12.6033      2.00000
    233     -12.5934      2.00000
    234     -12.5914      2.00000
    235     -12.5901      2.00000
    236     -12.5852      2.00000
    237     -12.5662      2.00000
    238     -12.5580      2.00000
    239     -12.5466      2.00000
    240     -12.5244      2.00000
    241     -12.5119      2.00000
    242     -12.5020      2.00000
    243     -12.4915      2.00000
    244     -12.4850      2.00000
    245     -12.4835      2.00000
    246     -12.4741      2.00000
    247     -12.4663      2.00000
    248     -12.4533      2.00000
    249     -12.4503      2.00000
    250     -12.4453      2.00000
    251     -12.4340      2.00000
    252     -12.4210      2.00000
    253     -12.4143      2.00000
    254     -12.4075      2.00000
    255     -12.4042      2.00000
    256     -12.4034      2.00000
    257     -12.3937      2.00000
    258     -12.3894      2.00000
    259     -12.3834      2.00000
    260     -12.3762      2.00000
    261     -12.3751      2.00000
    262     -12.3605      2.00000
    263     -12.3529      2.00000
    264     -12.3475      2.00000
    265     -12.3449      2.00000
    266     -12.3420      2.00000
    267     -12.3297      2.00000
    268     -12.3254      2.00000
    269     -12.3138      2.00000
    270     -12.3081      2.00000
    271     -12.2959      2.00000
    272     -12.2917      2.00000
    273     -12.2879      2.00000
    274     -12.2799      2.00000
    275     -12.2738      2.00000
    276     -12.2464      2.00000
    277     -12.2452      2.00000
    278     -12.2413      2.00000
    279     -12.2315      2.00000
    280     -12.2208      2.00000
    281     -12.2125      2.00000
    282     -12.2031      2.00000
    283     -12.1749      2.00000
    284     -12.0974      2.00000
    285     -12.0811      2.00000
    286     -12.0439      2.00000
    287     -12.0412      2.00000
    288     -12.0395      2.00000
    289     -12.0151      2.00000
    290     -12.0116      2.00000
    291     -11.9869      2.00000
    292     -11.9855      2.00000
    293     -11.9633      2.00000
    294     -11.9466      2.00000
    295     -11.9192      2.00000
    296     -11.9105      2.00000
    297     -11.8601      2.00000
    298     -11.8358      2.00000
    299     -11.8312      2.00000
    300     -11.7808      2.00000
    301     -11.7697      2.00000
    302     -11.7626      2.00000
    303     -11.7338      2.00000
    304     -11.6917      2.00000
    305     -11.6662      2.00000
    306     -11.6588      2.00000
    307     -11.5718      2.00000
    308      -5.2856      2.00000
    309      -5.1011      2.00000
    310      -4.9208      2.00000
    311      -4.8916      2.00000
    312      -4.6018      2.00000
    313      -4.5832      2.00000
    314      -4.4952      2.00000
    315      -4.4946      2.00000
    316      -4.4678      2.00000
    317      -4.4572      2.00000
    318      -4.3844      2.00000
    319      -4.3055      2.00000
    320      -4.2926      2.00000
    321      -4.2643      2.00000
    322      -4.2600      2.00000
    323      -4.2229      2.00000
    324      -4.2184      2.00000
    325      -4.1317      2.00000
    326      -4.0670      2.00000
    327      -3.9716      2.00000
    328      -3.9213      2.00000
    329      -3.9192      2.00000
    330      -3.8245      2.00000
    331      -3.7996      2.00000
    332      -3.7640      2.00000
    333      -3.6995      2.00000
    334      -3.6893      2.00000
    335      -3.6000      2.00000
    336      -3.5896      2.00000
    337      -3.5747      2.00000
    338      -3.5530      2.00000
    339      -3.5266      2.00000
    340      -3.5004      2.00000
    341      -3.3597      2.00000
    342      -3.2771      2.00000
    343      -3.2732      2.00000
    344      -3.2189      2.00000
    345      -3.2083      2.00000
    346      -3.2008      2.00000
    347      -3.1435      2.00000
    348      -3.1091      2.00000
    349      -2.9794      2.00000
    350      -2.8349      2.00000
    351      -2.7968      2.00000
    352      -2.7624      2.00000
    353      -2.6628      2.00000
    354      -2.5826      2.00000
    355      -2.5589      2.00000
    356      -2.5024      2.00000
    357      -2.4978      2.00000
    358      -2.4187      2.00000
    359      -2.4067      2.00000
    360      -2.4031      2.00000
    361      -2.3725      2.00000
    362      -2.3245      2.00000
    363      -2.3183      2.00000
    364      -2.3042      2.00000
    365      -2.2963      2.00000
    366      -2.1960      2.00000
    367      -2.0598      2.00000
    368      -2.0391      2.00000
    369      -1.9976      2.00000
    370      -1.9972      2.00000
    371      -1.9452      2.00000
    372      -1.8915      2.00000
    373      -1.8699      2.00000
    374      -1.7866      2.00000
    375      -1.7591      2.00000
    376      -1.7178      2.00000
    377      -1.7107      2.00000
    378      -1.7074      2.00000
    379      -1.6836      2.00000
    380      -1.6707      2.00000
    381      -1.6076      2.00000
    382      -1.5970      2.00000
    383      -1.5362      2.00000
    384      -1.5031      2.00000
    385      -1.4049      2.00000
    386      -1.3720      2.00000
    387      -1.2789      2.00000
    388      -1.2712      2.00000
    389      -1.2043      2.00000
    390      -1.1753      2.00000
    391      -1.1509      2.00000
    392      -1.1425      2.00000
    393      -1.0753      2.00000
    394      -1.0414      2.00000
    395      -1.0024      2.00000
    396      -0.9879      2.00000
    397      -0.9767      2.00000
    398      -0.9690      2.00000
    399      -0.9103      2.00000
    400      -0.8733      2.00000
    401      -0.8200      2.00000
    402      -0.7384      2.00000
    403      -0.6920      2.00000
    404      -0.6647      2.00000
    405      -0.6428      2.00000
    406      -0.6255      2.00000
    407      -0.6228      2.00000
    408      -0.5902      2.00000
    409      -0.5864      2.00000
    410      -0.5625      2.00000
    411      -0.5543      2.00000
    412      -0.5356      2.00000
    413      -0.5000      2.00000
    414      -0.4094      2.00000
    415      -0.3395      2.00000
    416      -0.3320      2.00000
    417      -0.3218      2.00000
    418      -0.3146      2.00000
    419      -0.3067      2.00000
    420      -0.2968      2.00000
    421      -0.2909      2.00000
    422      -0.2735      2.00000
    423      -0.2645      2.00000
    424      -0.1986      2.00000
    425      -0.1843      2.00000
    426      -0.1586      2.00000
    427      -0.1497      2.00000
    428      -0.1335      2.00000
    429      -0.1025      2.00000
    430      -0.0909      2.00000
    431      -0.0844      2.00000
    432      -0.0325      2.00000
    433       0.0027      2.00000
    434       0.0136      2.00000
    435       0.0237      2.00000
    436       0.0405      2.00000
    437       0.0713      2.00000
    438       0.0962      2.00000
    439       0.1145      2.00000
    440       0.1751      2.00000
    441       0.2417      2.00000
    442       0.2570      2.00000
    443       0.3568      2.00000
    444       0.3895      2.00000
    445       0.4454      2.00000
    446       0.4558      2.00000
    447       0.4808      2.00000
    448       0.5105      2.00000
    449       0.5368      2.00000
    450       0.5695      2.00000
    451       0.5832      2.00000
    452       0.5850      2.00000
    453       0.6063      2.00000
    454       0.6248      2.00000
    455       0.6330      2.00000
    456       0.6647      2.00000
    457       0.6749      2.00000
    458       0.6982      2.00000
    459       0.7193      2.00000
    460       0.7434      2.00000
    461       0.7550      2.00000
    462       0.7856      2.00000
    463       0.8067      2.00000
    464       0.8184      2.00000
    465       0.8404      2.00000
    466       0.8548      2.00000
    467       0.8653      2.00000
    468       0.8728      2.00000
    469       0.9086      2.00000
    470       0.9182      2.00000
    471       0.9246      2.00000
    472       0.9570      2.00000
    473       0.9669      2.00000
    474       1.0158      2.00000
    475       1.0851      2.00000
    476       1.1209      2.00000
    477       1.1254      2.00000
    478       1.1551      2.00000
    479       1.1766      2.00000
    480       1.1835      2.00000
    481       1.2006      2.00000
    482       1.2103      2.00000
    483       1.2322      2.00000
    484       1.2370      2.00000
    485       1.2738      2.00000
    486       1.2882      2.00000
    487       1.2894      2.00000
    488       1.2934      2.00000
    489       1.3296      2.00000
    490       1.3350      2.00000
    491       1.3576      2.00000
    492       1.3604      2.00000
    493       1.3690      2.00000
    494       1.3808      2.00000
    495       1.4260      2.00000
    496       1.4279      2.00000
    497       1.4388      2.00000
    498       1.4730      2.00000
    499       1.4885      2.00000
    500       1.4924      2.00000
    501       1.4980      2.00000
    502       1.5291      2.00000
    503       1.5322      2.00000
    504       1.5607      2.00000
    505       1.6007      2.00000
    506       1.6031      2.00000
    507       1.6160      2.00000
    508       1.6444      2.00000
    509       1.6521      2.00000
    510       1.6552      2.00000
    511       1.7275      2.00000
    512       1.7376      2.00000
    513       1.7562      2.00000
    514       1.7763      2.00000
    515       1.7917      2.00000
    516       1.8201      2.00000
    517       1.8217      2.00000
    518       1.8426      2.00000
    519       1.9170      2.00000
    520       1.9686      2.00000
    521       2.0849      2.00000
    522       2.2974      2.00000
    523       2.3813      2.00000
    524       4.6811      2.00000
    525       5.0764      2.00000
    526       5.9219      2.00000
    527       6.7121      0.00000
    528       8.9315      0.00000
    529       9.1348      0.00000
    530       9.1951      0.00000
    531       9.2475      0.00000
    532       9.6601      0.00000
    533       9.7433      0.00000
    534       9.9382      0.00000
    535      10.1723      0.00000
    536      10.1837      0.00000
    537      10.2240      0.00000
    538      10.2349      0.00000
    539      10.3824      0.00000
    540      10.3948      0.00000
    541      10.5331      0.00000
    542      10.5929      0.00000
    543      10.6273      0.00000
    544      10.7154      0.00000
    545      10.7436      0.00000
    546      10.7957      0.00000
    547      10.8064      0.00000
    548      10.8468      0.00000
    549      10.8816      0.00000
    550      10.9000      0.00000
    551      11.0049      0.00000
    552      11.0510      0.00000
    553      11.0797      0.00000
    554      11.1441      0.00000
    555      11.1868      0.00000
    556      11.3406      0.00000
    557      11.4127      0.00000
    558      11.4282      0.00000
    559      11.4369      0.00000
    560      11.5553      0.00000
    561      11.6070      0.00000
    562      11.6715      0.00000
    563      11.7352      0.00000
    564      11.8174      0.00000
    565      11.9991      0.00000
    566      12.0126      0.00000
    567      12.0300      0.00000
    568      12.0346      0.00000
    569      12.1654      0.00000
    570      12.2237      0.00000
    571      12.2761      0.00000
    572      12.2979      0.00000
    573      12.3541      0.00000
    574      12.3839      0.00000
    575      12.4175      0.00000
    576      12.5287      0.00000
    577      12.5984      0.00000
    578      12.6554      0.00000
    579      12.9680      0.00000
    580      13.0810      0.00000
    581      13.1003      0.00000
    582      13.1479      0.00000
    583      13.2179      0.00000
    584      13.2326      0.00000
    585      13.3053      0.00000
    586      13.3934      0.00000
    587      13.4060      0.00000
    588      13.4532      0.00000
    589      13.5018      0.00000
    590      13.6206      0.00000
    591      13.6763      0.00000
    592      13.6930      0.00000
    593      13.7004      0.00000
    594      13.7667      0.00000
    595      13.7990      0.00000
    596      13.8449      0.00000
    597      13.8894      0.00000
    598      13.8965      0.00000
    599      13.9702      0.00000
    600      14.0073      0.00000
    601      14.0593      0.00000
    602      14.0620      0.00000
    603      14.1027      0.00000
    604      14.2429      0.00000
    605      14.3016      0.00000
    606      14.3197      0.00000
    607      14.3382      0.00000
    608      14.3654      0.00000
    609      14.3787      0.00000
    610      14.4868      0.00000
    611      14.5545      0.00000
    612      14.6020      0.00000
    613      14.6048      0.00000
    614      14.6817      0.00000
    615      14.6971      0.00000
    616      14.7289      0.00000
    617      14.8282      0.00000
    618      14.8425      0.00000
    619      14.9279      0.00000
    620      14.9755      0.00000
    621      14.9765      0.00000
    622      15.1044      0.00000
    623      15.1292      0.00000
    624      15.2609      0.00000
    625      15.2925      0.00000
    626      15.4681      0.00000
    627      15.5901      0.00000
    628      15.6220      0.00000
    629      15.7198      0.00000
    630      15.8374      0.00000
    631      15.8416      0.00000

 k-point     2 :       0.5000    0.0000    0.0000
  band No.  band energies     occupation 
      1     -18.6918      2.00000
      2     -18.5754      2.00000
      3     -18.4234      2.00000
      4     -18.3442      2.00000
      5     -18.0469      2.00000
      6     -18.0357      2.00000
      7     -17.9785      2.00000
      8     -17.9453      2.00000
      9     -17.9392      2.00000
     10     -17.9142      2.00000
     11     -17.8883      2.00000
     12     -17.8484      2.00000
     13     -17.8463      2.00000
     14     -17.8048      2.00000
     15     -17.7769      2.00000
     16     -17.7556      2.00000
     17     -17.6987      2.00000
     18     -17.6699      2.00000
     19     -17.6372      2.00000
     20     -17.6213      2.00000
     21     -17.6155      2.00000
     22     -17.5948      2.00000
     23     -17.5743      2.00000
     24     -17.5531      2.00000
     25     -17.5476      2.00000
     26     -17.4946      2.00000
     27     -17.4867      2.00000
     28     -17.4549      2.00000
     29     -17.4443      2.00000
     30     -17.4264      2.00000
     31     -17.4011      2.00000
     32     -17.3966      2.00000
     33     -17.3792      2.00000
     34     -17.3425      2.00000
     35     -17.3371      2.00000
     36     -17.3173      2.00000
     37     -17.2822      2.00000
     38     -17.2766      2.00000
     39     -17.2738      2.00000
     40     -17.2385      2.00000
     41     -17.2162      2.00000
     42     -17.2114      2.00000
     43     -17.1987      2.00000
     44     -17.1539      2.00000
     45     -17.1456      2.00000
     46     -17.1443      2.00000
     47     -17.1395      2.00000
     48     -17.1302      2.00000
     49     -17.0899      2.00000
     50     -17.0858      2.00000
     51     -17.0812      2.00000
     52     -17.0756      2.00000
     53     -17.0529      2.00000
     54     -17.0378      2.00000
     55     -17.0319      2.00000
     56     -17.0255      2.00000
     57     -17.0165      2.00000
     58     -16.9801      2.00000
     59     -16.9400      2.00000
     60     -16.9370      2.00000
     61     -16.9283      2.00000
     62     -16.9085      2.00000
     63     -16.8934      2.00000
     64     -16.8676      2.00000
     65     -16.8554      2.00000
     66     -16.8142      2.00000
     67     -16.7825      2.00000
     68     -16.7624      2.00000
     69     -16.3578      2.00000
     70     -16.1217      2.00000
     71     -16.0261      2.00000
     72     -15.8533      2.00000
     73     -13.2168      2.00000
     74     -13.2136      2.00000
     75     -13.1778      2.00000
     76     -13.1761      2.00000
     77     -13.1604      2.00000
     78     -13.1557      2.00000
     79     -13.1398      2.00000
     80     -13.1368      2.00000
     81     -13.1291      2.00000
     82     -13.1271      2.00000
     83     -13.1146      2.00000
     84     -13.1088      2.00000
     85     -13.1037      2.00000
     86     -13.0997      2.00000
     87     -13.0972      2.00000
     88     -13.0850      2.00000
     89     -13.0824      2.00000
     90     -13.0788      2.00000
     91     -13.0782      2.00000
     92     -13.0764      2.00000
     93     -13.0653      2.00000
     94     -13.0648      2.00000
     95     -13.0580      2.00000
     96     -13.0539      2.00000
     97     -13.0521      2.00000
     98     -13.0513      2.00000
     99     -13.0465      2.00000
    100     -13.0407      2.00000
    101     -13.0376      2.00000
    102     -13.0324      2.00000
    103     -13.0256      2.00000
    104     -13.0203      2.00000
    105     -13.0175      2.00000
    106     -13.0084      2.00000
    107     -13.0071      2.00000
    108     -13.0035      2.00000
    109     -13.0016      2.00000
    110     -12.9965      2.00000
    111     -12.9934      2.00000
    112     -12.9905      2.00000
    113     -12.9884      2.00000
    114     -12.9848      2.00000
    115     -12.9841      2.00000
    116     -12.9800      2.00000
    117     -12.9752      2.00000
    118     -12.9725      2.00000
    119     -12.9694      2.00000
    120     -12.9664      2.00000
    121     -12.9658      2.00000
    122     -12.9629      2.00000
    123     -12.9570      2.00000
    124     -12.9547      2.00000
    125     -12.9476      2.00000
    126     -12.9467      2.00000
    127     -12.9420      2.00000
    128     -12.9404      2.00000
    129     -12.9394      2.00000
    130     -12.9367      2.00000
    131     -12.9338      2.00000
    132     -12.9326      2.00000
    133     -12.9303      2.00000
    134     -12.9212      2.00000
    135     -12.9186      2.00000
    136     -12.9164      2.00000
    137     -12.9158      2.00000
    138     -12.9153      2.00000
    139     -12.9116      2.00000
    140     -12.9076      2.00000
    141     -12.9058      2.00000
    142     -12.9038      2.00000
    143     -12.8972      2.00000
    144     -12.8967      2.00000
    145     -12.8936      2.00000
    146     -12.8847      2.00000
    147     -12.8810      2.00000
    148     -12.8771      2.00000
    149     -12.8753      2.00000
    150     -12.8720      2.00000
    151     -12.8712      2.00000
    152     -12.8660      2.00000
    153     -12.8644      2.00000
    154     -12.8631      2.00000
    155     -12.8621      2.00000
    156     -12.8561      2.00000
    157     -12.8503      2.00000
    158     -12.8450      2.00000
    159     -12.8409      2.00000
    160     -12.8361      2.00000
    161     -12.8347      2.00000
    162     -12.8298      2.00000
    163     -12.8288      2.00000
    164     -12.8235      2.00000
    165     -12.8180      2.00000
    166     -12.8161      2.00000
    167     -12.8137      2.00000
    168     -12.8093      2.00000
    169     -12.8042      2.00000
    170     -12.8039      2.00000
    171     -12.8007      2.00000
    172     -12.7990      2.00000
    173     -12.7964      2.00000
    174     -12.7944      2.00000
    175     -12.7917      2.00000
    176     -12.7871      2.00000
    177     -12.7846      2.00000
    178     -12.7829      2.00000
    179     -12.7824      2.00000
    180     -12.7817      2.00000
    181     -12.7800      2.00000
    182     -12.7755      2.00000
    183     -12.7743      2.00000
    184     -12.7694      2.00000
    185     -12.7690      2.00000
    186     -12.7675      2.00000
    187     -12.7663      2.00000
    188     -12.7639      2.00000
    189     -12.7625      2.00000
    190     -12.7598      2.00000
    191     -12.7572      2.00000
    192     -12.7546      2.00000
    193     -12.7517      2.00000
    194     -12.7488      2.00000
    195     -12.7473      2.00000
    196     -12.7437      2.00000
    197     -12.7399      2.00000
    198     -12.7328      2.00000
    199     -12.7304      2.00000
    200     -12.7272      2.00000
    201     -12.7220      2.00000
    202     -12.7139      2.00000
    203     -12.7118      2.00000
    204     -12.7080      2.00000
    205     -12.7042      2.00000
    206     -12.7025      2.00000
    207     -12.7015      2.00000
    208     -12.7005      2.00000
    209     -12.6938      2.00000
    210     -12.6913      2.00000
    211     -12.6877      2.00000
    212     -12.6837      2.00000
    213     -12.6824      2.00000
    214     -12.6800      2.00000
    215     -12.6707      2.00000
    216     -12.6660      2.00000
    217     -12.6647      2.00000
    218     -12.6639      2.00000
    219     -12.6629      2.00000
    220     -12.6594      2.00000
    221     -12.6546      2.00000
    222     -12.6515      2.00000
    223     -12.6463      2.00000
    224     -12.6372      2.00000
    225     -12.6365      2.00000
    226     -12.6351      2.00000
    227     -12.6327      2.00000
    228     -12.6308      2.00000
    229     -12.6239      2.00000
    230     -12.6196      2.00000
    231     -12.6122      2.00000
    232     -12.6104      2.00000
    233     -12.6039      2.00000
    234     -12.5981      2.00000
    235     -12.5902      2.00000
    236     -12.5883      2.00000
    237     -12.5707      2.00000
    238     -12.5524      2.00000
    239     -12.5514      2.00000
    240     -12.5398      2.00000
    241     -12.5255      2.00000
    242     -12.5148      2.00000
    243     -12.5106      2.00000
    244     -12.5080      2.00000
    245     -12.4953      2.00000
    246     -12.4924      2.00000
    247     -12.4867      2.00000
    248     -12.4635      2.00000
    249     -12.4599      2.00000
    250     -12.4481      2.00000
    251     -12.4366      2.00000
    252     -12.4309      2.00000
    253     -12.4181      2.00000
    254     -12.4155      2.00000
    255     -12.4126      2.00000
    256     -12.4084      2.00000
    257     -12.4019      2.00000
    258     -12.3993      2.00000
    259     -12.3932      2.00000
    260     -12.3872      2.00000
    261     -12.3782      2.00000
    262     -12.3637      2.00000
    263     -12.3570      2.00000
    264     -12.3538      2.00000
    265     -12.3518      2.00000
    266     -12.3459      2.00000
    267     -12.3397      2.00000
    268     -12.3366      2.00000
    269     -12.3305      2.00000
    270     -12.3182      2.00000
    271     -12.2971      2.00000
    272     -12.2914      2.00000
    273     -12.2799      2.00000
    274     -12.2753      2.00000
    275     -12.2591      2.00000
    276     -12.2507      2.00000
    277     -12.2430      2.00000
    278     -12.1895      2.00000
    279     -12.1805      2.00000
    280     -12.1640      2.00000
    281     -12.1547      2.00000
    282     -12.1433      2.00000
    283     -12.1358      2.00000
    284     -12.0803      2.00000
    285     -12.0785      2.00000
    286     -12.0515      2.00000
    287     -12.0482      2.00000
    288     -12.0475      2.00000
    289     -12.0267      2.00000
    290     -11.9878      2.00000
    291     -11.9727      2.00000
    292     -11.9625      2.00000
    293     -11.9453      2.00000
    294     -11.9202      2.00000
    295     -11.9174      2.00000
    296     -11.9027      2.00000
    297     -11.8571      2.00000
    298     -11.8436      2.00000
    299     -11.8026      2.00000
    300     -11.7924      2.00000
    301     -11.7846      2.00000
    302     -11.7734      2.00000
    303     -11.7647      2.00000
    304     -11.6965      2.00000
    305     -11.6894      2.00000
    306     -11.6655      2.00000
    307     -11.6422      2.00000
    308      -5.2784      2.00000
    309      -5.0876      2.00000
    310      -4.8294      2.00000
    311      -4.8226      2.00000
    312      -4.7029      2.00000
    313      -4.6363      2.00000
    314      -4.4426      2.00000
    315      -4.4310      2.00000
    316      -4.3590      2.00000
    317      -4.3454      2.00000
    318      -4.3333      2.00000
    319      -4.2930      2.00000
    320      -4.2772      2.00000
    321      -4.2555      2.00000
    322      -4.2494      2.00000
    323      -4.2180      2.00000
    324      -4.2112      2.00000
    325      -4.1784      2.00000
    326      -4.1512      2.00000
    327      -4.1470      2.00000
    328      -4.1371      2.00000
    329      -4.1140      2.00000
    330      -4.0412      2.00000
    331      -4.0289      2.00000
    332      -3.8909      2.00000
    333      -3.7919      2.00000
    334      -3.6434      2.00000
    335      -3.5603      2.00000
    336      -3.4793      2.00000
    337      -3.4512      2.00000
    338      -3.4298      2.00000
    339      -3.4026      2.00000
    340      -3.2633      2.00000
    341      -3.2402      2.00000
    342      -3.2346      2.00000
    343      -3.2234      2.00000
    344      -3.2057      2.00000
    345      -3.1648      2.00000
    346      -3.1569      2.00000
    347      -3.1320      2.00000
    348      -3.0197      2.00000
    349      -2.9858      2.00000
    350      -2.9324      2.00000
    351      -2.7829      2.00000
    352      -2.7430      2.00000
    353      -2.7249      2.00000
    354      -2.6396      2.00000
    355      -2.6094      2.00000
    356      -2.5933      2.00000
    357      -2.5739      2.00000
    358      -2.5729      2.00000
    359      -2.4833      2.00000
    360      -2.4671      2.00000
    361      -2.3073      2.00000
    362      -2.2901      2.00000
    363      -2.2419      2.00000
    364      -2.2356      2.00000
    365      -2.1833      2.00000
    366      -2.1781      2.00000
    367      -2.1008      2.00000
    368      -2.0592      2.00000
    369      -2.0147      2.00000
    370      -1.9161      2.00000
    371      -1.8889      2.00000
    372      -1.8878      2.00000
    373      -1.7919      2.00000
    374      -1.7854      2.00000
    375      -1.7493      2.00000
    376      -1.7347      2.00000
    377      -1.6744      2.00000
    378      -1.6421      2.00000
    379      -1.5434      2.00000
    380      -1.5049      2.00000
    381      -1.4768      2.00000
    382      -1.4686      2.00000
    383      -1.4583      2.00000
    384      -1.4165      2.00000
    385      -1.3673      2.00000
    386      -1.3224      2.00000
    387      -1.2980      2.00000
    388      -1.2693      2.00000
    389      -1.2558      2.00000
    390      -1.2042      2.00000
    391      -1.1346      2.00000
    392      -1.1235      2.00000
    393      -1.1220      2.00000
    394      -1.0873      2.00000
    395      -1.0669      2.00000
    396      -1.0594      2.00000
    397      -1.0062      2.00000
    398      -0.9634      2.00000
    399      -0.9606      2.00000
    400      -0.9288      2.00000
    401      -0.8830      2.00000
    402      -0.8747      2.00000
    403      -0.8497      2.00000
    404      -0.8348      2.00000
    405      -0.7794      2.00000
    406      -0.7632      2.00000
    407      -0.7383      2.00000
    408      -0.6985      2.00000
    409      -0.6742      2.00000
    410      -0.6351      2.00000
    411      -0.6328      2.00000
    412      -0.5930      2.00000
    413      -0.5773      2.00000
    414      -0.5724      2.00000
    415      -0.5583      2.00000
    416      -0.4811      2.00000
    417      -0.3443      2.00000
    418      -0.2922      2.00000
    419      -0.2786      2.00000
    420      -0.2703      2.00000
    421      -0.2512      2.00000
    422      -0.2485      2.00000
    423      -0.2200      2.00000
    424      -0.2031      2.00000
    425      -0.1847      2.00000
    426      -0.1514      2.00000
    427      -0.0592      2.00000
    428      -0.0373      2.00000
    429      -0.0324      2.00000
    430      -0.0146      2.00000
    431      -0.0093      2.00000
    432       0.0115      2.00000
    433       0.0204      2.00000
    434       0.0549      2.00000
    435       0.0758      2.00000
    436       0.0887      2.00000
    437       0.0959      2.00000
    438       0.1257      2.00000
    439       0.1434      2.00000
    440       0.1572      2.00000
    441       0.2086      2.00000
    442       0.2232      2.00000
    443       0.2282      2.00000
    444       0.3644      2.00000
    445       0.4863      2.00000
    446       0.5005      2.00000
    447       0.5070      2.00000
    448       0.5197      2.00000
    449       0.5594      2.00000
    450       0.5911      2.00000
    451       0.6065      2.00000
    452       0.6378      2.00000
    453       0.6459      2.00000
    454       0.6667      2.00000
    455       0.6716      2.00000
    456       0.6756      2.00000
    457       0.7625      2.00000
    458       0.7728      2.00000
    459       0.7937      2.00000
    460       0.8176      2.00000
    461       0.8376      2.00000
    462       0.8496      2.00000
    463       0.8669      2.00000
    464       0.8705      2.00000
    465       0.9111      2.00000
    466       0.9380      2.00000
    467       0.9463      2.00000
    468       0.9780      2.00000
    469       0.9928      2.00000
    470       1.0211      2.00000
    471       1.0295      2.00000
    472       1.0652      2.00000
    473       1.0770      2.00000
    474       1.0946      2.00000
    475       1.1167      2.00000
    476       1.1256      2.00000
    477       1.1412      2.00000
    478       1.1473      2.00000
    479       1.1519      2.00000
    480       1.1597      2.00000
    481       1.1733      2.00000
    482       1.2071      2.00000
    483       1.2249      2.00000
    484       1.2455      2.00000
    485       1.2481      2.00000
    486       1.2691      2.00000
    487       1.2748      2.00000
    488       1.2812      2.00000
    489       1.3091      2.00000
    490       1.3179      2.00000
    491       1.3286      2.00000
    492       1.3322      2.00000
    493       1.3477      2.00000
    494       1.3862      2.00000
    495       1.3967      2.00000
    496       1.4210      2.00000
    497       1.4269      2.00000
    498       1.4284      2.00000
    499       1.4372      2.00000
    500       1.4458      2.00000
    501       1.4592      2.00000
    502       1.4707      2.00000
    503       1.4778      2.00000
    504       1.4850      2.00000
    505       1.4919      2.00000
    506       1.5344      2.00000
    507       1.5432      2.00000
    508       1.5780      2.00000
    509       1.6057      2.00000
    510       1.6188      2.00000
    511       1.6335      2.00000
    512       1.6909      2.00000
    513       1.7568      2.00000
    514       1.7737      2.00000
    515       1.7750      2.00000
    516       1.8109      2.00000
    517       1.8161      2.00000
    518       1.8418      2.00000
    519       1.9203      2.00000
    520       1.9482      2.00000
    521       2.0769      2.00000
    522       2.2976      2.00000
    523       2.3661      2.00000
    524       4.6801      2.00000
    525       5.0764      2.00000
    526       5.9222      2.00000
    527       7.4232      0.00000
    528       7.6319      0.00000
    529       9.1831      0.00000
    530       9.2070      0.00000
    531       9.6973      0.00000
    532       9.7177      0.00000
    533       9.9268      0.00000
    534       9.9355      0.00000
    535      10.0720      0.00000
    536      10.1603      0.00000
    537      10.2100      0.00000
    538      10.2885      0.00000
    539      10.3804      0.00000
    540      10.5078      0.00000
    541      10.5221      0.00000
    542      10.5560      0.00000
    543      10.6484      0.00000
    544      10.7107      0.00000
    545      10.7701      0.00000
    546      10.7860      0.00000
    547      10.8101      0.00000
    548      10.8438      0.00000
    549      10.8495      0.00000
    550      10.8835      0.00000
    551      11.0043      0.00000
    552      11.0283      0.00000
    553      11.1517      0.00000
    554      11.1606      0.00000
    555      11.1969      0.00000
    556      11.2532      0.00000
    557      11.3315      0.00000
    558      11.3729      0.00000
    559      11.4187      0.00000
    560      11.4940      0.00000
    561      11.5264      0.00000
    562      11.5734      0.00000
    563      11.5798      0.00000
    564      11.9262      0.00000
    565      12.0626      0.00000
    566      12.1385      0.00000
    567      12.1742      0.00000
    568      12.3290      0.00000
    569      12.3561      0.00000
    570      12.3996      0.00000
    571      12.4206      0.00000
    572      12.4503      0.00000
    573      12.4639      0.00000
    574      12.4939      0.00000
    575      12.5093      0.00000
    576      12.5588      0.00000
    577      12.6270      0.00000
    578      12.7020      0.00000
    579      12.8215      0.00000
    580      12.8269      0.00000
    581      12.8915      0.00000
    582      13.0336      0.00000
    583      13.0582      0.00000
    584      13.2279      0.00000
    585      13.2421      0.00000
    586      13.2613      0.00000
    587      13.3651      0.00000
    588      13.4377      0.00000
    589      13.4413      0.00000
    590      13.4719      0.00000
    591      13.5929      0.00000
    592      13.6075      0.00000
    593      13.6210      0.00000
    594      13.6922      0.00000
    595      13.7966      0.00000
    596      13.8181      0.00000
    597      13.9383      0.00000
    598      13.9475      0.00000
    599      13.9779      0.00000
    600      13.9917      0.00000
    601      14.0010      0.00000
    602      14.0166      0.00000
    603      14.0746      0.00000
    604      14.0912      0.00000
    605      14.1770      0.00000
    606      14.2056      0.00000
    607      14.3474      0.00000
    608      14.3688      0.00000
    609      14.3905      0.00000
    610      14.4122      0.00000
    611      14.4150      0.00000
    612      14.4950      0.00000
    613      14.6367      0.00000
    614      14.7369      0.00000
    615      14.7886      0.00000
    616      14.8518      0.00000
    617      14.8777      0.00000
    618      14.9596      0.00000
    619      14.9748      0.00000
    620      14.9978      0.00000
    621      15.0430      0.00000
    622      15.1926      0.00000
    623      15.4516      0.00000
    624      15.5244      0.00000
    625      15.5876      0.00000
    626      15.6142      0.00000
    627      15.6339      0.00000
    628      15.6648      0.00000
    629      15.7425      0.00000
    630      15.7501      0.00000
    631      15.7573      0.00000

 k-point     3 :       0.0000    0.5000    0.0000
  band No.  band energies     occupation 
      1     -18.5824      2.00000
      2     -18.5219      2.00000
      3     -18.3151      2.00000
      4     -18.2623      2.00000
      5     -18.2612      2.00000
      6     -18.1694      2.00000
      7     -18.1607      2.00000
      8     -18.0850      2.00000
      9     -18.0690      2.00000
     10     -18.0163      2.00000
     11     -17.8894      2.00000
     12     -17.8251      2.00000
     13     -17.8104      2.00000
     14     -17.7438      2.00000
     15     -17.7311      2.00000
     16     -17.6529      2.00000
     17     -17.6290      2.00000
     18     -17.6092      2.00000
     19     -17.6062      2.00000
     20     -17.5888      2.00000
     21     -17.5824      2.00000
     22     -17.5731      2.00000
     23     -17.5695      2.00000
     24     -17.5180      2.00000
     25     -17.4977      2.00000
     26     -17.4679      2.00000
     27     -17.4596      2.00000
     28     -17.4395      2.00000
     29     -17.4339      2.00000
     30     -17.4170      2.00000
     31     -17.4037      2.00000
     32     -17.3764      2.00000
     33     -17.3737      2.00000
     34     -17.3584      2.00000
     35     -17.3480      2.00000
     36     -17.3147      2.00000
     37     -17.2986      2.00000
     38     -17.2854      2.00000
     39     -17.2693      2.00000
     40     -17.2655      2.00000
     41     -17.2565      2.00000
     42     -17.2331      2.00000
     43     -17.2195      2.00000
     44     -17.2158      2.00000
     45     -17.1542      2.00000
     46     -17.1450      2.00000
     47     -17.1216      2.00000
     48     -17.1092      2.00000
     49     -17.0922      2.00000
     50     -17.0895      2.00000
     51     -17.0803      2.00000
     52     -17.0611      2.00000
     53     -17.0555      2.00000
     54     -17.0513      2.00000
     55     -17.0359      2.00000
     56     -17.0138      2.00000
     57     -16.9948      2.00000
     58     -16.9745      2.00000
     59     -16.9489      2.00000
     60     -16.9438      2.00000
     61     -16.9336      2.00000
     62     -16.8932      2.00000
     63     -16.8861      2.00000
     64     -16.8703      2.00000
     65     -16.8507      2.00000
     66     -16.8144      2.00000
     67     -16.7733      2.00000
     68     -16.7703      2.00000
     69     -16.3588      2.00000
     70     -16.1238      2.00000
     71     -16.0232      2.00000
     72     -15.8519      2.00000
     73     -13.2107      2.00000
     74     -13.2061      2.00000
     75     -13.1751      2.00000
     76     -13.1697      2.00000
     77     -13.1569      2.00000
     78     -13.1541      2.00000
     79     -13.1418      2.00000
     80     -13.1335      2.00000
     81     -13.1312      2.00000
     82     -13.1280      2.00000
     83     -13.1190      2.00000
     84     -13.1149      2.00000
     85     -13.1141      2.00000
     86     -13.1121      2.00000
     87     -13.1014      2.00000
     88     -13.0935      2.00000
     89     -13.0884      2.00000
     90     -13.0877      2.00000
     91     -13.0853      2.00000
     92     -13.0828      2.00000
     93     -13.0745      2.00000
     94     -13.0710      2.00000
     95     -13.0649      2.00000
     96     -13.0594      2.00000
     97     -13.0559      2.00000
     98     -13.0461      2.00000
     99     -13.0404      2.00000
    100     -13.0346      2.00000
    101     -13.0331      2.00000
    102     -13.0307      2.00000
    103     -13.0235      2.00000
    104     -13.0215      2.00000
    105     -13.0201      2.00000
    106     -13.0193      2.00000
    107     -13.0164      2.00000
    108     -13.0101      2.00000
    109     -13.0068      2.00000
    110     -13.0033      2.00000
    111     -12.9979      2.00000
    112     -12.9970      2.00000
    113     -12.9920      2.00000
    114     -12.9903      2.00000
    115     -12.9842      2.00000
    116     -12.9807      2.00000
    117     -12.9761      2.00000
    118     -12.9731      2.00000
    119     -12.9726      2.00000
    120     -12.9695      2.00000
    121     -12.9679      2.00000
    122     -12.9628      2.00000
    123     -12.9600      2.00000
    124     -12.9576      2.00000
    125     -12.9568      2.00000
    126     -12.9491      2.00000
    127     -12.9446      2.00000
    128     -12.9414      2.00000
    129     -12.9393      2.00000
    130     -12.9376      2.00000
    131     -12.9313      2.00000
    132     -12.9276      2.00000
    133     -12.9234      2.00000
    134     -12.9230      2.00000
    135     -12.9219      2.00000
    136     -12.9170      2.00000
    137     -12.9161      2.00000
    138     -12.9155      2.00000
    139     -12.9147      2.00000
    140     -12.9097      2.00000
    141     -12.9083      2.00000
    142     -12.9025      2.00000
    143     -12.8971      2.00000
    144     -12.8955      2.00000
    145     -12.8944      2.00000
    146     -12.8868      2.00000
    147     -12.8839      2.00000
    148     -12.8831      2.00000
    149     -12.8783      2.00000
    150     -12.8752      2.00000
    151     -12.8738      2.00000
    152     -12.8676      2.00000
    153     -12.8671      2.00000
    154     -12.8660      2.00000
    155     -12.8634      2.00000
    156     -12.8583      2.00000
    157     -12.8515      2.00000
    158     -12.8482      2.00000
    159     -12.8477      2.00000
    160     -12.8446      2.00000
    161     -12.8436      2.00000
    162     -12.8433      2.00000
    163     -12.8385      2.00000
    164     -12.8335      2.00000
    165     -12.8292      2.00000
    166     -12.8275      2.00000
    167     -12.8221      2.00000
    168     -12.8212      2.00000
    169     -12.8164      2.00000
    170     -12.8138      2.00000
    171     -12.8110      2.00000
    172     -12.8087      2.00000
    173     -12.7997      2.00000
    174     -12.7976      2.00000
    175     -12.7908      2.00000
    176     -12.7881      2.00000
    177     -12.7865      2.00000
    178     -12.7859      2.00000
    179     -12.7818      2.00000
    180     -12.7803      2.00000
    181     -12.7771      2.00000
    182     -12.7750      2.00000
    183     -12.7742      2.00000
    184     -12.7722      2.00000
    185     -12.7646      2.00000
    186     -12.7633      2.00000
    187     -12.7610      2.00000
    188     -12.7586      2.00000
    189     -12.7581      2.00000
    190     -12.7528      2.00000
    191     -12.7491      2.00000
    192     -12.7474      2.00000
    193     -12.7446      2.00000
    194     -12.7431      2.00000
    195     -12.7395      2.00000
    196     -12.7313      2.00000
    197     -12.7300      2.00000
    198     -12.7286      2.00000
    199     -12.7275      2.00000
    200     -12.7233      2.00000
    201     -12.7153      2.00000
    202     -12.7118      2.00000
    203     -12.7095      2.00000
    204     -12.7065      2.00000
    205     -12.6999      2.00000
    206     -12.6992      2.00000
    207     -12.6932      2.00000
    208     -12.6910      2.00000
    209     -12.6900      2.00000
    210     -12.6858      2.00000
    211     -12.6853      2.00000
    212     -12.6782      2.00000
    213     -12.6759      2.00000
    214     -12.6733      2.00000
    215     -12.6671      2.00000
    216     -12.6624      2.00000
    217     -12.6610      2.00000
    218     -12.6585      2.00000
    219     -12.6554      2.00000
    220     -12.6520      2.00000
    221     -12.6505      2.00000
    222     -12.6409      2.00000
    223     -12.6389      2.00000
    224     -12.6372      2.00000
    225     -12.6295      2.00000
    226     -12.6291      2.00000
    227     -12.6218      2.00000
    228     -12.6168      2.00000
    229     -12.6098      2.00000
    230     -12.6059      2.00000
    231     -12.5988      2.00000
    232     -12.5864      2.00000
    233     -12.5827      2.00000
    234     -12.5769      2.00000
    235     -12.5738      2.00000
    236     -12.5537      2.00000
    237     -12.5463      2.00000
    238     -12.5296      2.00000
    239     -12.5184      2.00000
    240     -12.5136      2.00000
    241     -12.5087      2.00000
    242     -12.5050      2.00000
    243     -12.4931      2.00000
    244     -12.4772      2.00000
    245     -12.4729      2.00000
    246     -12.4541      2.00000
    247     -12.4444      2.00000
    248     -12.4359      2.00000
    249     -12.4310      2.00000
    250     -12.4273      2.00000
    251     -12.4236      2.00000
    252     -12.4220      2.00000
    253     -12.4188      2.00000
    254     -12.4106      2.00000
    255     -12.4051      2.00000
    256     -12.3974      2.00000
    257     -12.3926      2.00000
    258     -12.3904      2.00000
    259     -12.3878      2.00000
    260     -12.3821      2.00000
    261     -12.3801      2.00000
    262     -12.3789      2.00000
    263     -12.3631      2.00000
    264     -12.3570      2.00000
    265     -12.3519      2.00000
    266     -12.3448      2.00000
    267     -12.3391      2.00000
    268     -12.3298      2.00000
    269     -12.3266      2.00000
    270     -12.3216      2.00000
    271     -12.3117      2.00000
    272     -12.2985      2.00000
    273     -12.2977      2.00000
    274     -12.2848      2.00000
    275     -12.2725      2.00000
    276     -12.2658      2.00000
    277     -12.2628      2.00000
    278     -12.2484      2.00000
    279     -12.2378      2.00000
    280     -12.1937      2.00000
    281     -12.1890      2.00000
    282     -12.1832      2.00000
    283     -12.1610      2.00000
    284     -12.1512      2.00000
    285     -12.1447      2.00000
    286     -12.1408      2.00000
    287     -12.1073      2.00000
    288     -12.0754      2.00000
    289     -12.0682      2.00000
    290     -12.0596      2.00000
    291     -12.0138      2.00000
    292     -11.9962      2.00000
    293     -11.9779      2.00000
    294     -11.9432      2.00000
    295     -11.9359      2.00000
    296     -11.9032      2.00000
    297     -11.8401      2.00000
    298     -11.8095      2.00000
    299     -11.8076      2.00000
    300     -11.7781      2.00000
    301     -11.7554      2.00000
    302     -11.7245      2.00000
    303     -11.6939      2.00000
    304     -11.6714      2.00000
    305     -11.6373      2.00000
    306     -11.6131      2.00000
    307     -11.5286      2.00000
    308      -5.1244      2.00000
    309      -5.0837      2.00000
    310      -4.9819      2.00000
    311      -4.9245      2.00000
    312      -4.9034      2.00000
    313      -4.8501      2.00000
    314      -4.8345      2.00000
    315      -4.7101      2.00000
    316      -4.6014      2.00000
    317      -4.5528      2.00000
    318      -4.5227      2.00000
    319      -4.4255      2.00000
    320      -4.3408      2.00000
    321      -4.2776      2.00000
    322      -4.2467      2.00000
    323      -4.2443      2.00000
    324      -4.1855      2.00000
    325      -4.1189      2.00000
    326      -4.0856      2.00000
    327      -4.0433      2.00000
    328      -4.0101      2.00000
    329      -3.9934      2.00000
    330      -3.9320      2.00000
    331      -3.9170      2.00000
    332      -3.8792      2.00000
    333      -3.7162      2.00000
    334      -3.6404      2.00000
    335      -3.5946      2.00000
    336      -3.5910      2.00000
    337      -3.5759      2.00000
    338      -3.5365      2.00000
    339      -3.4886      2.00000
    340      -3.4606      2.00000
    341      -3.3291      2.00000
    342      -3.2270      2.00000
    343      -3.1042      2.00000
    344      -3.0919      2.00000
    345      -3.0140      2.00000
    346      -2.9846      2.00000
    347      -2.9150      2.00000
    348      -2.9114      2.00000
    349      -2.8649      2.00000
    350      -2.8511      2.00000
    351      -2.8426      2.00000
    352      -2.7775      2.00000
    353      -2.7179      2.00000
    354      -2.6015      2.00000
    355      -2.5317      2.00000
    356      -2.4975      2.00000
    357      -2.4165      2.00000
    358      -2.2702      2.00000
    359      -2.2238      2.00000
    360      -2.2163      2.00000
    361      -2.0843      2.00000
    362      -2.0456      2.00000
    363      -2.0092      2.00000
    364      -2.0077      2.00000
    365      -1.9657      2.00000
    366      -1.9331      2.00000
    367      -1.8743      2.00000
    368      -1.8652      2.00000
    369      -1.8597      2.00000
    370      -1.8232      2.00000
    371      -1.8142      2.00000
    372      -1.7957      2.00000
    373      -1.7742      2.00000
    374      -1.7613      2.00000
    375      -1.7378      2.00000
    376      -1.7226      2.00000
    377      -1.6201      2.00000
    378      -1.5971      2.00000
    379      -1.5904      2.00000
    380      -1.5478      2.00000
    381      -1.4810      2.00000
    382      -1.4723      2.00000
    383      -1.4529      2.00000
    384      -1.4358      2.00000
    385      -1.4181      2.00000
    386      -1.3882      2.00000
    387      -1.3588      2.00000
    388      -1.3510      2.00000
    389      -1.3338      2.00000
    390      -1.2691      2.00000
    391      -1.2137      2.00000
    392      -1.0860      2.00000
    393      -1.0790      2.00000
    394      -1.0146      2.00000
    395      -0.9979      2.00000
    396      -0.9940      2.00000
    397      -0.9781      2.00000
    398      -0.9366      2.00000
    399      -0.9221      2.00000
    400      -0.9015      2.00000
    401      -0.8839      2.00000
    402      -0.8578      2.00000
    403      -0.8455      2.00000
    404      -0.8126      2.00000
    405      -0.8032      2.00000
    406      -0.7999      2.00000
    407      -0.7722      2.00000
    408      -0.7266      2.00000
    409      -0.6979      2.00000
    410      -0.6618      2.00000
    411      -0.5536      2.00000
    412      -0.5257      2.00000
    413      -0.5186      2.00000
    414      -0.4971      2.00000
    415      -0.4913      2.00000
    416      -0.4465      2.00000
    417      -0.3745      2.00000
    418      -0.3500      2.00000
    419      -0.3390      2.00000
    420      -0.3267      2.00000
    421      -0.3233      2.00000
    422      -0.2618      2.00000
    423      -0.2412      2.00000
    424      -0.2227      2.00000
    425      -0.1912      2.00000
    426      -0.1875      2.00000
    427      -0.1387      2.00000
    428      -0.1222      2.00000
    429      -0.1057      2.00000
    430      -0.0961      2.00000
    431      -0.0737      2.00000
    432      -0.0226      2.00000
    433       0.0555      2.00000
    434       0.0621      2.00000
    435       0.1013      2.00000
    436       0.1314      2.00000
    437       0.1391      2.00000
    438       0.1735      2.00000
    439       0.2025      2.00000
    440       0.2400      2.00000
    441       0.2743      2.00000
    442       0.2873      2.00000
    443       0.2915      2.00000
    444       0.3342      2.00000
    445       0.3353      2.00000
    446       0.4022      2.00000
    447       0.4108      2.00000
    448       0.4344      2.00000
    449       0.4516      2.00000
    450       0.4815      2.00000
    451       0.4932      2.00000
    452       0.4994      2.00000
    453       0.5174      2.00000
    454       0.5205      2.00000
    455       0.5535      2.00000
    456       0.5821      2.00000
    457       0.6126      2.00000
    458       0.6148      2.00000
    459       0.6398      2.00000
    460       0.7201      2.00000
    461       0.7373      2.00000
    462       0.7408      2.00000
    463       0.7956      2.00000
    464       0.7985      2.00000
    465       0.8402      2.00000
    466       0.9035      2.00000
    467       0.9068      2.00000
    468       0.9261      2.00000
    469       0.9381      2.00000
    470       0.9592      2.00000
    471       0.9697      2.00000
    472       1.0365      2.00000
    473       1.0575      2.00000
    474       1.0629      2.00000
    475       1.0794      2.00000
    476       1.0905      2.00000
    477       1.0963      2.00000
    478       1.1166      2.00000
    479       1.1264      2.00000
    480       1.1394      2.00000
    481       1.1465      2.00000
    482       1.1549      2.00000
    483       1.1848      2.00000
    484       1.1974      2.00000
    485       1.2163      2.00000
    486       1.2227      2.00000
    487       1.2465      2.00000
    488       1.2641      2.00000
    489       1.2743      2.00000
    490       1.3058      2.00000
    491       1.3135      2.00000
    492       1.3190      2.00000
    493       1.3504      2.00000
    494       1.3707      2.00000
    495       1.3737      2.00000
    496       1.3884      2.00000
    497       1.4005      2.00000
    498       1.4056      2.00000
    499       1.4281      2.00000
    500       1.4364      2.00000
    501       1.4401      2.00000
    502       1.4560      2.00000
    503       1.4714      2.00000
    504       1.4913      2.00000
    505       1.4997      2.00000
    506       1.5357      2.00000
    507       1.5498      2.00000
    508       1.5531      2.00000
    509       1.5819      2.00000
    510       1.6009      2.00000
    511       1.6365      2.00000
    512       1.6597      2.00000
    513       1.6861      2.00000
    514       1.7280      2.00000
    515       1.7855      2.00000
    516       1.7895      2.00000
    517       1.8654      2.00000
    518       1.8862      2.00000
    519       1.9510      2.00000
    520       2.0165      2.00000
    521       2.1049      2.00000
    522       2.2883      2.00000
    523       2.4070      2.00000
    524       4.7101      2.00000
    525       5.0706      2.00000
    526       5.9250      2.00000
    527       7.9351      0.00000
    528       8.0403      0.00000
    529       9.3956      0.00000
    530       9.4872      0.00000
    531       9.5472      0.00000
    532       9.7049      0.00000
    533       9.7572      0.00000
    534       9.8410      0.00000
    535       9.8823      0.00000
    536       9.8996      0.00000
    537       9.9033      0.00000
    538      10.1507      0.00000
    539      10.3123      0.00000
    540      10.3603      0.00000
    541      10.3971      0.00000
    542      10.4540      0.00000
    543      10.5316      0.00000
    544      10.7071      0.00000
    545      10.7218      0.00000
    546      11.0843      0.00000
    547      11.0993      0.00000
    548      11.2803      0.00000
    549      11.3316      0.00000
    550      11.3759      0.00000
    551      11.3836      0.00000
    552      11.4011      0.00000
    553      11.4610      0.00000
    554      11.4891      0.00000
    555      11.4967      0.00000
    556      11.5157      0.00000
    557      11.5693      0.00000
    558      11.6582      0.00000
    559      11.7001      0.00000
    560      11.7162      0.00000
    561      11.7859      0.00000
    562      11.8071      0.00000
    563      11.8103      0.00000
    564      11.8942      0.00000
    565      12.0078      0.00000
    566      12.0829      0.00000
    567      12.1069      0.00000
    568      12.1575      0.00000
    569      12.2477      0.00000
    570      12.3359      0.00000
    571      12.3956      0.00000
    572      12.4411      0.00000
    573      12.4956      0.00000
    574      12.5127      0.00000
    575      12.5309      0.00000
    576      12.5775      0.00000
    577      12.6946      0.00000
    578      12.7100      0.00000
    579      12.7622      0.00000
    580      12.8364      0.00000
    581      12.8538      0.00000
    582      12.9773      0.00000
    583      12.9928      0.00000
    584      13.0572      0.00000
    585      13.0628      0.00000
    586      13.0818      0.00000
    587      13.1115      0.00000
    588      13.1318      0.00000
    589      13.1799      0.00000
    590      13.1907      0.00000
    591      13.2063      0.00000
    592      13.2263      0.00000
    593      13.2963      0.00000
    594      13.3182      0.00000
    595      13.4335      0.00000
    596      13.4528      0.00000
    597      13.5387      0.00000
    598      13.6974      0.00000
    599      13.8176      0.00000
    600      14.0857      0.00000
    601      14.1004      0.00000
    602      14.2093      0.00000
    603      14.2160      0.00000
    604      14.2537      0.00000
    605      14.2872      0.00000
    606      14.3623      0.00000
    607      14.5004      0.00000
    608      14.6365      0.00000
    609      14.6902      0.00000
    610      14.7701      0.00000
    611      14.8233      0.00000
    612      14.8658      0.00000
    613      14.9289      0.00000
    614      14.9990      0.00000
    615      15.0246      0.00000
    616      15.0501      0.00000
    617      15.0546      0.00000
    618      15.1263      0.00000
    619      15.1380      0.00000
    620      15.1882      0.00000
    621      15.2539      0.00000
    622      15.3128      0.00000
    623      15.3725      0.00000
    624      15.4026      0.00000
    625      15.4298      0.00000
    626      15.4585      0.00000
    627      15.4686      0.00000
    628      15.5686      0.00000
    629      15.5904      0.00000
    630      15.6669      0.00000
    631      15.7400      0.00000

 k-point     4 :       0.5000    0.5000    0.0000
  band No.  band energies     occupation 
      1     -18.5174      2.00000
      2     -18.4775      2.00000
      3     -18.4315      2.00000
      4     -18.3334      2.00000
      5     -18.2735      2.00000
      6     -18.2203      2.00000
      7     -18.2178      2.00000
      8     -18.1085      2.00000
      9     -17.8800      2.00000
     10     -17.8406      2.00000
     11     -17.8315      2.00000
     12     -17.8176      2.00000
     13     -17.7640      2.00000
     14     -17.7512      2.00000
     15     -17.7339      2.00000
     16     -17.7314      2.00000
     17     -17.6630      2.00000
     18     -17.6376      2.00000
     19     -17.6238      2.00000
     20     -17.6111      2.00000
     21     -17.6052      2.00000
     22     -17.5836      2.00000
     23     -17.5818      2.00000
     24     -17.5696      2.00000
     25     -17.5550      2.00000
     26     -17.4971      2.00000
     27     -17.4817      2.00000
     28     -17.4593      2.00000
     29     -17.4329      2.00000
     30     -17.4001      2.00000
     31     -17.3885      2.00000
     32     -17.3680      2.00000
     33     -17.3663      2.00000
     34     -17.3220      2.00000
     35     -17.3198      2.00000
     36     -17.3111      2.00000
     37     -17.2825      2.00000
     38     -17.2776      2.00000
     39     -17.2635      2.00000
     40     -17.2485      2.00000
     41     -17.2400      2.00000
     42     -17.2297      2.00000
     43     -17.2070      2.00000
     44     -17.1839      2.00000
     45     -17.1727      2.00000
     46     -17.1577      2.00000
     47     -17.1458      2.00000
     48     -17.1075      2.00000
     49     -17.0991      2.00000
     50     -17.0949      2.00000
     51     -17.0757      2.00000
     52     -17.0636      2.00000
     53     -17.0557      2.00000
     54     -17.0509      2.00000
     55     -17.0366      2.00000
     56     -17.0131      2.00000
     57     -16.9968      2.00000
     58     -16.9729      2.00000
     59     -16.9492      2.00000
     60     -16.9441      2.00000
     61     -16.9339      2.00000
     62     -16.8931      2.00000
     63     -16.8840      2.00000
     64     -16.8730      2.00000
     65     -16.8508      2.00000
     66     -16.8152      2.00000
     67     -16.7731      2.00000
     68     -16.7704      2.00000
     69     -16.3587      2.00000
     70     -16.1239      2.00000
     71     -16.0232      2.00000
     72     -15.8520      2.00000
     73     -13.2090      2.00000
     74     -13.2056      2.00000
     75     -13.1782      2.00000
     76     -13.1714      2.00000
     77     -13.1538      2.00000
     78     -13.1520      2.00000
     79     -13.1429      2.00000
     80     -13.1353      2.00000
     81     -13.1301      2.00000
     82     -13.1284      2.00000
     83     -13.1190      2.00000
     84     -13.1163      2.00000
     85     -13.1157      2.00000
     86     -13.1060      2.00000
     87     -13.1021      2.00000
     88     -13.0952      2.00000
     89     -13.0930      2.00000
     90     -13.0904      2.00000
     91     -13.0856      2.00000
     92     -13.0810      2.00000
     93     -13.0748      2.00000
     94     -13.0645      2.00000
     95     -13.0630      2.00000
     96     -13.0573      2.00000
     97     -13.0533      2.00000
     98     -13.0432      2.00000
     99     -13.0404      2.00000
    100     -13.0362      2.00000
    101     -13.0321      2.00000
    102     -13.0313      2.00000
    103     -13.0266      2.00000
    104     -13.0243      2.00000
    105     -13.0208      2.00000
    106     -13.0198      2.00000
    107     -13.0141      2.00000
    108     -13.0100      2.00000
    109     -13.0061      2.00000
    110     -13.0023      2.00000
    111     -12.9971      2.00000
    112     -12.9938      2.00000
    113     -12.9893      2.00000
    114     -12.9891      2.00000
    115     -12.9821      2.00000
    116     -12.9796      2.00000
    117     -12.9792      2.00000
    118     -12.9759      2.00000
    119     -12.9738      2.00000
    120     -12.9685      2.00000
    121     -12.9647      2.00000
    122     -12.9636      2.00000
    123     -12.9604      2.00000
    124     -12.9578      2.00000
    125     -12.9566      2.00000
    126     -12.9470      2.00000
    127     -12.9450      2.00000
    128     -12.9435      2.00000
    129     -12.9416      2.00000
    130     -12.9329      2.00000
    131     -12.9280      2.00000
    132     -12.9256      2.00000
    133     -12.9228      2.00000
    134     -12.9189      2.00000
    135     -12.9172      2.00000
    136     -12.9170      2.00000
    137     -12.9152      2.00000
    138     -12.9145      2.00000
    139     -12.9129      2.00000
    140     -12.9083      2.00000
    141     -12.9027      2.00000
    142     -12.9022      2.00000
    143     -12.8968      2.00000
    144     -12.8937      2.00000
    145     -12.8933      2.00000
    146     -12.8868      2.00000
    147     -12.8835      2.00000
    148     -12.8821      2.00000
    149     -12.8766      2.00000
    150     -12.8751      2.00000
    151     -12.8748      2.00000
    152     -12.8701      2.00000
    153     -12.8671      2.00000
    154     -12.8651      2.00000
    155     -12.8574      2.00000
    156     -12.8555      2.00000
    157     -12.8536      2.00000
    158     -12.8507      2.00000
    159     -12.8486      2.00000
    160     -12.8463      2.00000
    161     -12.8428      2.00000
    162     -12.8359      2.00000
    163     -12.8338      2.00000
    164     -12.8293      2.00000
    165     -12.8269      2.00000
    166     -12.8240      2.00000
    167     -12.8220      2.00000
    168     -12.8118      2.00000
    169     -12.8104      2.00000
    170     -12.8079      2.00000
    171     -12.8050      2.00000
    172     -12.8008      2.00000
    173     -12.7989      2.00000
    174     -12.7974      2.00000
    175     -12.7957      2.00000
    176     -12.7916      2.00000
    177     -12.7854      2.00000
    178     -12.7845      2.00000
    179     -12.7833      2.00000
    180     -12.7830      2.00000
    181     -12.7789      2.00000
    182     -12.7737      2.00000
    183     -12.7726      2.00000
    184     -12.7693      2.00000
    185     -12.7676      2.00000
    186     -12.7669      2.00000
    187     -12.7616      2.00000
    188     -12.7550      2.00000
    189     -12.7541      2.00000
    190     -12.7509      2.00000
    191     -12.7461      2.00000
    192     -12.7434      2.00000
    193     -12.7432      2.00000
    194     -12.7419      2.00000
    195     -12.7405      2.00000
    196     -12.7359      2.00000
    197     -12.7347      2.00000
    198     -12.7323      2.00000
    199     -12.7272      2.00000
    200     -12.7269      2.00000
    201     -12.7164      2.00000
    202     -12.7097      2.00000
    203     -12.7073      2.00000
    204     -12.7043      2.00000
    205     -12.7023      2.00000
    206     -12.6992      2.00000
    207     -12.6956      2.00000
    208     -12.6904      2.00000
    209     -12.6897      2.00000
    210     -12.6854      2.00000
    211     -12.6846      2.00000
    212     -12.6806      2.00000
    213     -12.6777      2.00000
    214     -12.6736      2.00000
    215     -12.6688      2.00000
    216     -12.6673      2.00000
    217     -12.6608      2.00000
    218     -12.6591      2.00000
    219     -12.6579      2.00000
    220     -12.6544      2.00000
    221     -12.6495      2.00000
    222     -12.6473      2.00000
    223     -12.6465      2.00000
    224     -12.6402      2.00000
    225     -12.6395      2.00000
    226     -12.6286      2.00000
    227     -12.6257      2.00000
    228     -12.6238      2.00000
    229     -12.6147      2.00000
    230     -12.6120      2.00000
    231     -12.6034      2.00000
    232     -12.5975      2.00000
    233     -12.5973      2.00000
    234     -12.5932      2.00000
    235     -12.5875      2.00000
    236     -12.5785      2.00000
    237     -12.5751      2.00000
    238     -12.5587      2.00000
    239     -12.5501      2.00000
    240     -12.5289      2.00000
    241     -12.5227      2.00000
    242     -12.5099      2.00000
    243     -12.4935      2.00000
    244     -12.4857      2.00000
    245     -12.4718      2.00000
    246     -12.4628      2.00000
    247     -12.4542      2.00000
    248     -12.4483      2.00000
    249     -12.4430      2.00000
    250     -12.4291      2.00000
    251     -12.4259      2.00000
    252     -12.4214      2.00000
    253     -12.4194      2.00000
    254     -12.4156      2.00000
    255     -12.4097      2.00000
    256     -12.4007      2.00000
    257     -12.3968      2.00000
    258     -12.3942      2.00000
    259     -12.3867      2.00000
    260     -12.3863      2.00000
    261     -12.3816      2.00000
    262     -12.3653      2.00000
    263     -12.3611      2.00000
    264     -12.3558      2.00000
    265     -12.3477      2.00000
    266     -12.3459      2.00000
    267     -12.3393      2.00000
    268     -12.3332      2.00000
    269     -12.3300      2.00000
    270     -12.3215      2.00000
    271     -12.3067      2.00000
    272     -12.2939      2.00000
    273     -12.2840      2.00000
    274     -12.2734      2.00000
    275     -12.2707      2.00000
    276     -12.2523      2.00000
    277     -12.2384      2.00000
    278     -12.2303      2.00000
    279     -12.2205      2.00000
    280     -12.1955      2.00000
    281     -12.1890      2.00000
    282     -12.1561      2.00000
    283     -12.1411      2.00000
    284     -12.1312      2.00000
    285     -12.1164      2.00000
    286     -12.0823      2.00000
    287     -12.0702      2.00000
    288     -12.0664      2.00000
    289     -12.0487      2.00000
    290     -12.0405      2.00000
    291     -12.0153      2.00000
    292     -11.9435      2.00000
    293     -11.9415      2.00000
    294     -11.9331      2.00000
    295     -11.9231      2.00000
    296     -11.9058      2.00000
    297     -11.8890      2.00000
    298     -11.8143      2.00000
    299     -11.8030      2.00000
    300     -11.7971      2.00000
    301     -11.7672      2.00000
    302     -11.7600      2.00000
    303     -11.7214      2.00000
    304     -11.6840      2.00000
    305     -11.6717      2.00000
    306     -11.6362      2.00000
    307     -11.5291      2.00000
    308      -5.1178      2.00000
    309      -5.0809      2.00000
    310      -5.0595      2.00000
    311      -5.0517      2.00000
    312      -4.9843      2.00000
    313      -4.8233      2.00000
    314      -4.7885      2.00000
    315      -4.6154      2.00000
    316      -4.5631      2.00000
    317      -4.4879      2.00000
    318      -4.3510      2.00000
    319      -4.3409      2.00000
    320      -4.2655      2.00000
    321      -4.2340      2.00000
    322      -4.2300      2.00000
    323      -4.2143      2.00000
    324      -4.1705      2.00000
    325      -4.1104      2.00000
    326      -4.0748      2.00000
    327      -4.0728      2.00000
    328      -4.0524      2.00000
    329      -3.9881      2.00000
    330      -3.9259      2.00000
    331      -3.9137      2.00000
    332      -3.8950      2.00000
    333      -3.8327      2.00000
    334      -3.7450      2.00000
    335      -3.7119      2.00000
    336      -3.6865      2.00000
    337      -3.6742      2.00000
    338      -3.5845      2.00000
    339      -3.4248      2.00000
    340      -3.4140      2.00000
    341      -3.3165      2.00000
    342      -3.2622      2.00000
    343      -3.1703      2.00000
    344      -3.1421      2.00000
    345      -3.0238      2.00000
    346      -2.9946      2.00000
    347      -2.9613      2.00000
    348      -2.9238      2.00000
    349      -2.8531      2.00000
    350      -2.8255      2.00000
    351      -2.8155      2.00000
    352      -2.6930      2.00000
    353      -2.6851      2.00000
    354      -2.6416      2.00000
    355      -2.5877      2.00000
    356      -2.5628      2.00000
    357      -2.3343      2.00000
    358      -2.2822      2.00000
    359      -2.2708      2.00000
    360      -2.2554      2.00000
    361      -2.1573      2.00000
    362      -2.1284      2.00000
    363      -2.0785      2.00000
    364      -1.9453      2.00000
    365      -1.9277      2.00000
    366      -1.8548      2.00000
    367      -1.8543      2.00000
    368      -1.8461      2.00000
    369      -1.8364      2.00000
    370      -1.8164      2.00000
    371      -1.7642      2.00000
    372      -1.7147      2.00000
    373      -1.7065      2.00000
    374      -1.6962      2.00000
    375      -1.6860      2.00000
    376      -1.6778      2.00000
    377      -1.6436      2.00000
    378      -1.6247      2.00000
    379      -1.5125      2.00000
    380      -1.4879      2.00000
    381      -1.4604      2.00000
    382      -1.4338      2.00000
    383      -1.4120      2.00000
    384      -1.3722      2.00000
    385      -1.3698      2.00000
    386      -1.3332      2.00000
    387      -1.3160      2.00000
    388      -1.3000      2.00000
    389      -1.2786      2.00000
    390      -1.2264      2.00000
    391      -1.2123      2.00000
    392      -1.1692      2.00000
    393      -1.1158      2.00000
    394      -1.0718      2.00000
    395      -1.0590      2.00000
    396      -1.0140      2.00000
    397      -0.9877      2.00000
    398      -0.9580      2.00000
    399      -0.9431      2.00000
    400      -0.8984      2.00000
    401      -0.8594      2.00000
    402      -0.8448      2.00000
    403      -0.8236      2.00000
    404      -0.7656      2.00000
    405      -0.7273      2.00000
    406      -0.7205      2.00000
    407      -0.7031      2.00000
    408      -0.6934      2.00000
    409      -0.6374      2.00000
    410      -0.6061      2.00000
    411      -0.6044      2.00000
    412      -0.5921      2.00000
    413      -0.5674      2.00000
    414      -0.5498      2.00000
    415      -0.5237      2.00000
    416      -0.5175      2.00000
    417      -0.5075      2.00000
    418      -0.4897      2.00000
    419      -0.4844      2.00000
    420      -0.4454      2.00000
    421      -0.4285      2.00000
    422      -0.4171      2.00000
    423      -0.3169      2.00000
    424      -0.3070      2.00000
    425      -0.2200      2.00000
    426      -0.1154      2.00000
    427      -0.1088      2.00000
    428      -0.0916      2.00000
    429      -0.0872      2.00000
    430      -0.0704      2.00000
    431      -0.0542      2.00000
    432      -0.0148      2.00000
    433      -0.0143      2.00000
    434       0.0113      2.00000
    435       0.1106      2.00000
    436       0.1373      2.00000
    437       0.1544      2.00000
    438       0.2229      2.00000
    439       0.2473      2.00000
    440       0.2887      2.00000
    441       0.2948      2.00000
    442       0.3394      2.00000
    443       0.3429      2.00000
    444       0.3517      2.00000
    445       0.3834      2.00000
    446       0.3973      2.00000
    447       0.4339      2.00000
    448       0.4460      2.00000
    449       0.4653      2.00000
    450       0.4862      2.00000
    451       0.5249      2.00000
    452       0.5305      2.00000
    453       0.5673      2.00000
    454       0.6335      2.00000
    455       0.6567      2.00000
    456       0.6855      2.00000
    457       0.6881      2.00000
    458       0.7076      2.00000
    459       0.7126      2.00000
    460       0.7169      2.00000
    461       0.7335      2.00000
    462       0.7626      2.00000
    463       0.7740      2.00000
    464       0.7777      2.00000
    465       0.8206      2.00000
    466       0.8279      2.00000
    467       0.8429      2.00000
    468       0.8611      2.00000
    469       0.9027      2.00000
    470       0.9100      2.00000
    471       0.9203      2.00000
    472       0.9577      2.00000
    473       0.9632      2.00000
    474       1.0338      2.00000
    475       1.0568      2.00000
    476       1.0649      2.00000
    477       1.0729      2.00000
    478       1.0873      2.00000
    479       1.1174      2.00000
    480       1.1241      2.00000
    481       1.1420      2.00000
    482       1.1555      2.00000
    483       1.1708      2.00000
    484       1.1795      2.00000
    485       1.1916      2.00000
    486       1.2064      2.00000
    487       1.2164      2.00000
    488       1.2258      2.00000
    489       1.2350      2.00000
    490       1.2518      2.00000
    491       1.2571      2.00000
    492       1.2638      2.00000
    493       1.2740      2.00000
    494       1.3133      2.00000
    495       1.3196      2.00000
    496       1.3416      2.00000
    497       1.3465      2.00000
    498       1.3605      2.00000
    499       1.3745      2.00000
    500       1.4001      2.00000
    501       1.4289      2.00000
    502       1.4706      2.00000
    503       1.5013      2.00000
    504       1.5192      2.00000
    505       1.5665      2.00000
    506       1.5866      2.00000
    507       1.6050      2.00000
    508       1.6381      2.00000
    509       1.6521      2.00000
    510       1.6800      2.00000
    511       1.6934      2.00000
    512       1.7363      2.00000
    513       1.7594      2.00000
    514       1.8136      2.00000
    515       1.8304      2.00000
    516       1.8553      2.00000
    517       1.8746      2.00000
    518       1.9290      2.00000
    519       1.9303      2.00000
    520       1.9641      2.00000
    521       2.1045      2.00000
    522       2.2886      2.00000
    523       2.4020      2.00000
    524       4.7102      2.00000
    525       5.0702      2.00000
    526       5.9244      2.00000
    527       8.3277      0.00000
    528       8.3623      0.00000
    529       8.4654      0.00000
    530       8.6705      0.00000
    531       9.7303      0.00000
    532       9.8354      0.00000
    533       9.8388      0.00000
    534       9.8751      0.00000
    535       9.8871      0.00000
    536      10.0254      0.00000
    537      10.2942      0.00000
    538      10.3118      0.00000
    539      10.3450      0.00000
    540      10.3544      0.00000
    541      10.4067      0.00000
    542      10.4243      0.00000
    543      10.4646      0.00000
    544      10.5733      0.00000
    545      10.6244      0.00000
    546      11.0247      0.00000
    547      11.0537      0.00000
    548      11.3433      0.00000
    549      11.4051      0.00000
    550      11.4634      0.00000
    551      11.4676      0.00000
    552      11.5005      0.00000
    553      11.5168      0.00000
    554      11.5260      0.00000
    555      11.5675      0.00000
    556      11.5734      0.00000
    557      11.5823      0.00000
    558      11.6662      0.00000
    559      11.6845      0.00000
    560      11.7842      0.00000
    561      11.7977      0.00000
    562      11.8331      0.00000
    563      11.8620      0.00000
    564      11.8855      0.00000
    565      12.0419      0.00000
    566      12.0965      0.00000
    567      12.1559      0.00000
    568      12.2226      0.00000
    569      12.2421      0.00000
    570      12.2827      0.00000
    571      12.3209      0.00000
    572      12.3723      0.00000
    573      12.4733      0.00000
    574      12.5292      0.00000
    575      12.6165      0.00000
    576      12.6493      0.00000
    577      12.7898      0.00000
    578      12.8232      0.00000
    579      12.8338      0.00000
    580      12.8418      0.00000
    581      12.8979      0.00000
    582      12.9283      0.00000
    583      12.9592      0.00000
    584      12.9796      0.00000
    585      13.0020      0.00000
    586      13.0263      0.00000
    587      13.0373      0.00000
    588      13.0395      0.00000
    589      13.0769      0.00000
    590      13.1363      0.00000
    591      13.1498      0.00000
    592      13.2248      0.00000
    593      13.2876      0.00000
    594      13.3094      0.00000
    595      13.3936      0.00000
    596      13.4513      0.00000
    597      13.5738      0.00000
    598      13.5795      0.00000
    599      13.7800      0.00000
    600      13.9534      0.00000
    601      13.9913      0.00000
    602      14.0214      0.00000
    603      14.0674      0.00000
    604      14.1102      0.00000
    605      14.1348      0.00000
    606      14.3889      0.00000
    607      14.4187      0.00000
    608      14.6023      0.00000
    609      14.7986      0.00000
    610      14.8441      0.00000
    611      14.8758      0.00000
    612      14.9687      0.00000
    613      14.9906      0.00000
    614      14.9959      0.00000
    615      15.0428      0.00000
    616      15.0651      0.00000
    617      15.0776      0.00000
    618      15.1127      0.00000
    619      15.1504      0.00000
    620      15.1727      0.00000
    621      15.2627      0.00000
    622      15.2898      0.00000
    623      15.3212      0.00000
    624      15.3482      0.00000
    625      15.4557      0.00000
    626      15.5379      0.00000
    627      15.5572      0.00000
    628      15.6711      0.00000
    629      15.6846      0.00000
    630      15.7336      0.00000
    631      15.7557      0.00000

 k-point     5 :       0.0000    0.0000    0.5000
  band No.  band energies     occupation 
      1     -18.6897      2.00000
      2     -18.5831      2.00000
      3     -18.3930      2.00000
      4     -18.3233      2.00000
      5     -18.1026      2.00000
      6     -18.0464      2.00000
      7     -18.0266      2.00000
      8     -18.0075      2.00000
      9     -17.9546      2.00000
     10     -17.9392      2.00000
     11     -17.8244      2.00000
     12     -17.8199      2.00000
     13     -17.7985      2.00000
     14     -17.7814      2.00000
     15     -17.7644      2.00000
     16     -17.7496      2.00000
     17     -17.6739      2.00000
     18     -17.6691      2.00000
     19     -17.6580      2.00000
     20     -17.6276      2.00000
     21     -17.6045      2.00000
     22     -17.5998      2.00000
     23     -17.5770      2.00000
     24     -17.5460      2.00000
     25     -17.5338      2.00000
     26     -17.5101      2.00000
     27     -17.5097      2.00000
     28     -17.4465      2.00000
     29     -17.4433      2.00000
     30     -17.4353      2.00000
     31     -17.3855      2.00000
     32     -17.3755      2.00000
     33     -17.3666      2.00000
     34     -17.3539      2.00000
     35     -17.3227      2.00000
     36     -17.3162      2.00000
     37     -17.3032      2.00000
     38     -17.2880      2.00000
     39     -17.2632      2.00000
     40     -17.2176      2.00000
     41     -17.2117      2.00000
     42     -17.2063      2.00000
     43     -17.1935      2.00000
     44     -17.1727      2.00000
     45     -17.1373      2.00000
     46     -17.1362      2.00000
     47     -17.1253      2.00000
     48     -17.1194      2.00000
     49     -17.1141      2.00000
     50     -17.1070      2.00000
     51     -17.0883      2.00000
     52     -17.0799      2.00000
     53     -17.0715      2.00000
     54     -17.0421      2.00000
     55     -17.0329      2.00000
     56     -17.0314      2.00000
     57     -17.0076      2.00000
     58     -17.0053      2.00000
     59     -16.9825      2.00000
     60     -16.9203      2.00000
     61     -16.9161      2.00000
     62     -16.9071      2.00000
     63     -16.8858      2.00000
     64     -16.8659      2.00000
     65     -16.8430      2.00000
     66     -16.8105      2.00000
     67     -16.7820      2.00000
     68     -16.7570      2.00000
     69     -16.3562      2.00000
     70     -16.1222      2.00000
     71     -16.0261      2.00000
     72     -15.8534      2.00000
     73     -13.2168      2.00000
     74     -13.2063      2.00000
     75     -13.1898      2.00000
     76     -13.1783      2.00000
     77     -13.1584      2.00000
     78     -13.1579      2.00000
     79     -13.1421      2.00000
     80     -13.1347      2.00000
     81     -13.1301      2.00000
     82     -13.1099      2.00000
     83     -13.1053      2.00000
     84     -13.1026      2.00000
     85     -13.1008      2.00000
     86     -13.0937      2.00000
     87     -13.0895      2.00000
     88     -13.0845      2.00000
     89     -13.0836      2.00000
     90     -13.0789      2.00000
     91     -13.0765      2.00000
     92     -13.0761      2.00000
     93     -13.0662      2.00000
     94     -13.0624      2.00000
     95     -13.0612      2.00000
     96     -13.0563      2.00000
     97     -13.0560      2.00000
     98     -13.0489      2.00000
     99     -13.0437      2.00000
    100     -13.0430      2.00000
    101     -13.0327      2.00000
    102     -13.0302      2.00000
    103     -13.0200      2.00000
    104     -13.0177      2.00000
    105     -13.0156      2.00000
    106     -13.0145      2.00000
    107     -13.0122      2.00000
    108     -13.0049      2.00000
    109     -13.0027      2.00000
    110     -12.9974      2.00000
    111     -12.9925      2.00000
    112     -12.9921      2.00000
    113     -12.9904      2.00000
    114     -12.9881      2.00000
    115     -12.9820      2.00000
    116     -12.9778      2.00000
    117     -12.9736      2.00000
    118     -12.9704      2.00000
    119     -12.9693      2.00000
    120     -12.9675      2.00000
    121     -12.9651      2.00000
    122     -12.9647      2.00000
    123     -12.9583      2.00000
    124     -12.9573      2.00000
    125     -12.9523      2.00000
    126     -12.9499      2.00000
    127     -12.9481      2.00000
    128     -12.9463      2.00000
    129     -12.9447      2.00000
    130     -12.9386      2.00000
    131     -12.9379      2.00000
    132     -12.9363      2.00000
    133     -12.9310      2.00000
    134     -12.9295      2.00000
    135     -12.9259      2.00000
    136     -12.9238      2.00000
    137     -12.9201      2.00000
    138     -12.9143      2.00000
    139     -12.9125      2.00000
    140     -12.9102      2.00000
    141     -12.9064      2.00000
    142     -12.9044      2.00000
    143     -12.9037      2.00000
    144     -12.8997      2.00000
    145     -12.8942      2.00000
    146     -12.8904      2.00000
    147     -12.8882      2.00000
    148     -12.8837      2.00000
    149     -12.8768      2.00000
    150     -12.8755      2.00000
    151     -12.8705      2.00000
    152     -12.8679      2.00000
    153     -12.8661      2.00000
    154     -12.8635      2.00000
    155     -12.8628      2.00000
    156     -12.8610      2.00000
    157     -12.8561      2.00000
    158     -12.8516      2.00000
    159     -12.8470      2.00000
    160     -12.8398      2.00000
    161     -12.8380      2.00000
    162     -12.8345      2.00000
    163     -12.8340      2.00000
    164     -12.8215      2.00000
    165     -12.8178      2.00000
    166     -12.8170      2.00000
    167     -12.8122      2.00000
    168     -12.8104      2.00000
    169     -12.8088      2.00000
    170     -12.8046      2.00000
    171     -12.8024      2.00000
    172     -12.8005      2.00000
    173     -12.7987      2.00000
    174     -12.7955      2.00000
    175     -12.7925      2.00000
    176     -12.7875      2.00000
    177     -12.7869      2.00000
    178     -12.7848      2.00000
    179     -12.7834      2.00000
    180     -12.7816      2.00000
    181     -12.7790      2.00000
    182     -12.7764      2.00000
    183     -12.7751      2.00000
    184     -12.7741      2.00000
    185     -12.7694      2.00000
    186     -12.7682      2.00000
    187     -12.7674      2.00000
    188     -12.7652      2.00000
    189     -12.7604      2.00000
    190     -12.7593      2.00000
    191     -12.7542      2.00000
    192     -12.7509      2.00000
    193     -12.7484      2.00000
    194     -12.7480      2.00000
    195     -12.7449      2.00000
    196     -12.7423      2.00000
    197     -12.7408      2.00000
    198     -12.7339      2.00000
    199     -12.7324      2.00000
    200     -12.7306      2.00000
    201     -12.7265      2.00000
    202     -12.7217      2.00000
    203     -12.7141      2.00000
    204     -12.7127      2.00000
    205     -12.7107      2.00000
    206     -12.7101      2.00000
    207     -12.7082      2.00000
    208     -12.6988      2.00000
    209     -12.6962      2.00000
    210     -12.6938      2.00000
    211     -12.6927      2.00000
    212     -12.6902      2.00000
    213     -12.6843      2.00000
    214     -12.6779      2.00000
    215     -12.6763      2.00000
    216     -12.6703      2.00000
    217     -12.6689      2.00000
    218     -12.6605      2.00000
    219     -12.6599      2.00000
    220     -12.6593      2.00000
    221     -12.6580      2.00000
    222     -12.6564      2.00000
    223     -12.6416      2.00000
    224     -12.6401      2.00000
    225     -12.6300      2.00000
    226     -12.6294      2.00000
    227     -12.6262      2.00000
    228     -12.6237      2.00000
    229     -12.6211      2.00000
    230     -12.6181      2.00000
    231     -12.6144      2.00000
    232     -12.6064      2.00000
    233     -12.6030      2.00000
    234     -12.5928      2.00000
    235     -12.5783      2.00000
    236     -12.5677      2.00000
    237     -12.5648      2.00000
    238     -12.5422      2.00000
    239     -12.5242      2.00000
    240     -12.5096      2.00000
    241     -12.5004      2.00000
    242     -12.4981      2.00000
    243     -12.4910      2.00000
    244     -12.4824      2.00000
    245     -12.4729      2.00000
    246     -12.4702      2.00000
    247     -12.4464      2.00000
    248     -12.4401      2.00000
    249     -12.4360      2.00000
    250     -12.4327      2.00000
    251     -12.4269      2.00000
    252     -12.4194      2.00000
    253     -12.4142      2.00000
    254     -12.4076      2.00000
    255     -12.3996      2.00000
    256     -12.3994      2.00000
    257     -12.3895      2.00000
    258     -12.3852      2.00000
    259     -12.3824      2.00000
    260     -12.3734      2.00000
    261     -12.3669      2.00000
    262     -12.3635      2.00000
    263     -12.3616      2.00000
    264     -12.3517      2.00000
    265     -12.3506      2.00000
    266     -12.3436      2.00000
    267     -12.3363      2.00000
    268     -12.3304      2.00000
    269     -12.3227      2.00000
    270     -12.3185      2.00000
    271     -12.2895      2.00000
    272     -12.2839      2.00000
    273     -12.2766      2.00000
    274     -12.2697      2.00000
    275     -12.2533      2.00000
    276     -12.2494      2.00000
    277     -12.2385      2.00000
    278     -12.2139      2.00000
    279     -12.2037      2.00000
    280     -12.1947      2.00000
    281     -12.1947      2.00000
    282     -12.1784      2.00000
    283     -12.1595      2.00000
    284     -12.1497      2.00000
    285     -12.1283      2.00000
    286     -12.1175      2.00000
    287     -12.0709      2.00000
    288     -12.0443      2.00000
    289     -12.0375      2.00000
    290     -12.0279      2.00000
    291     -12.0165      2.00000
    292     -12.0000      2.00000
    293     -11.9437      2.00000
    294     -11.9364      2.00000
    295     -11.9288      2.00000
    296     -11.8962      2.00000
    297     -11.8465      2.00000
    298     -11.8344      2.00000
    299     -11.8296      2.00000
    300     -11.7999      2.00000
    301     -11.7667      2.00000
    302     -11.7548      2.00000
    303     -11.7283      2.00000
    304     -11.6788      2.00000
    305     -11.6613      2.00000
    306     -11.6589      2.00000
    307     -11.5799      2.00000
    308      -4.9679      2.00000
    309      -4.9122      2.00000
    310      -4.7674      2.00000
    311      -4.7237      2.00000
    312      -4.7057      2.00000
    313      -4.6464      2.00000
    314      -4.6326      2.00000
    315      -4.5344      2.00000
    316      -4.4828      2.00000
    317      -4.4768      2.00000
    318      -4.3804      2.00000
    319      -4.3585      2.00000
    320      -4.2569      2.00000
    321      -4.2561      2.00000
    322      -4.2507      2.00000
    323      -4.2386      2.00000
    324      -4.1514      2.00000
    325      -4.1443      2.00000
    326      -4.1304      2.00000
    327      -4.0814      2.00000
    328      -4.0493      2.00000
    329      -3.9727      2.00000
    330      -3.9019      2.00000
    331      -3.8963      2.00000
    332      -3.8350      2.00000
    333      -3.8245      2.00000
    334      -3.7970      2.00000
    335      -3.7669      2.00000
    336      -3.7599      2.00000
    337      -3.7207      2.00000
    338      -3.6659      2.00000
    339      -3.5018      2.00000
    340      -3.4653      2.00000
    341      -3.4376      2.00000
    342      -3.4062      2.00000
    343      -3.2587      2.00000
    344      -3.2266      2.00000
    345      -3.0550      2.00000
    346      -3.0452      2.00000
    347      -2.9341      2.00000
    348      -2.9307      2.00000
    349      -2.8581      2.00000
    350      -2.8031      2.00000
    351      -2.7277      2.00000
    352      -2.7188      2.00000
    353      -2.6527      2.00000
    354      -2.5992      2.00000
    355      -2.5870      2.00000
    356      -2.5576      2.00000
    357      -2.5249      2.00000
    358      -2.5095      2.00000
    359      -2.3670      2.00000
    360      -2.2886      2.00000
    361      -2.2733      2.00000
    362      -2.2701      2.00000
    363      -2.2674      2.00000
    364      -2.2540      2.00000
    365      -2.2406      2.00000
    366      -2.2235      2.00000
    367      -2.2111      2.00000
    368      -2.1729      2.00000
    369      -2.1486      2.00000
    370      -2.0731      2.00000
    371      -1.9933      2.00000
    372      -1.9775      2.00000
    373      -1.9332      2.00000
    374      -1.8904      2.00000
    375      -1.8430      2.00000
    376      -1.7292      2.00000
    377      -1.7088      2.00000
    378      -1.6497      2.00000
    379      -1.5851      2.00000
    380      -1.5444      2.00000
    381      -1.5094      2.00000
    382      -1.4360      2.00000
    383      -1.3965      2.00000
    384      -1.3769      2.00000
    385      -1.3489      2.00000
    386      -1.3315      2.00000
    387      -1.2891      2.00000
    388      -1.2870      2.00000
    389      -1.1973      2.00000
    390      -1.1869      2.00000
    391      -1.1518      2.00000
    392      -1.1446      2.00000
    393      -1.1281      2.00000
    394      -1.0537      2.00000
    395      -1.0384      2.00000
    396      -1.0202      2.00000
    397      -0.9494      2.00000
    398      -0.9339      2.00000
    399      -0.9099      2.00000
    400      -0.8886      2.00000
    401      -0.8750      2.00000
    402      -0.8282      2.00000
    403      -0.7513      2.00000
    404      -0.7345      2.00000
    405      -0.6578      2.00000
    406      -0.6317      2.00000
    407      -0.6183      2.00000
    408      -0.5978      2.00000
    409      -0.5567      2.00000
    410      -0.5511      2.00000
    411      -0.5347      2.00000
    412      -0.5161      2.00000
    413      -0.4618      2.00000
    414      -0.4545      2.00000
    415      -0.4210      2.00000
    416      -0.3374      2.00000
    417      -0.3062      2.00000
    418      -0.2436      2.00000
    419      -0.2317      2.00000
    420      -0.2246      2.00000
    421      -0.2140      2.00000
    422      -0.2058      2.00000
    423      -0.1838      2.00000
    424      -0.1192      2.00000
    425      -0.1135      2.00000
    426      -0.0806      2.00000
    427      -0.0751      2.00000
    428      -0.0714      2.00000
    429      -0.0448      2.00000
    430      -0.0424      2.00000
    431      -0.0063      2.00000
    432       0.0095      2.00000
    433       0.0570      2.00000
    434       0.0683      2.00000
    435       0.0809      2.00000
    436       0.1153      2.00000
    437       0.1183      2.00000
    438       0.1609      2.00000
    439       0.1954      2.00000
    440       0.2111      2.00000
    441       0.2375      2.00000
    442       0.2622      2.00000
    443       0.2847      2.00000
    444       0.2896      2.00000
    445       0.3214      2.00000
    446       0.4350      2.00000
    447       0.4556      2.00000
    448       0.4649      2.00000
    449       0.5034      2.00000
    450       0.5259      2.00000
    451       0.5460      2.00000
    452       0.5663      2.00000
    453       0.5808      2.00000
    454       0.6126      2.00000
    455       0.6353      2.00000
    456       0.6414      2.00000
    457       0.6550      2.00000
    458       0.6723      2.00000
    459       0.7169      2.00000
    460       0.7482      2.00000
    461       0.7778      2.00000
    462       0.8010      2.00000
    463       0.8597      2.00000
    464       0.8648      2.00000
    465       0.8737      2.00000
    466       0.8848      2.00000
    467       0.8985      2.00000
    468       0.9376      2.00000
    469       0.9576      2.00000
    470       0.9764      2.00000
    471       0.9777      2.00000
    472       1.0029      2.00000
    473       1.0122      2.00000
    474       1.0454      2.00000
    475       1.0532      2.00000
    476       1.0549      2.00000
    477       1.0703      2.00000
    478       1.0861      2.00000
    479       1.1129      2.00000
    480       1.1382      2.00000
    481       1.1582      2.00000
    482       1.1633      2.00000
    483       1.2000      2.00000
    484       1.2151      2.00000
    485       1.2193      2.00000
    486       1.2551      2.00000
    487       1.3184      2.00000
    488       1.3253      2.00000
    489       1.3399      2.00000
    490       1.3581      2.00000
    491       1.3785      2.00000
    492       1.3934      2.00000
    493       1.3986      2.00000
    494       1.4040      2.00000
    495       1.4226      2.00000
    496       1.4324      2.00000
    497       1.4376      2.00000
    498       1.4391      2.00000
    499       1.4633      2.00000
    500       1.4690      2.00000
    501       1.4874      2.00000
    502       1.4987      2.00000
    503       1.5035      2.00000
    504       1.5039      2.00000
    505       1.5449      2.00000
    506       1.5716      2.00000
    507       1.5889      2.00000
    508       1.6106      2.00000
    509       1.6174      2.00000
    510       1.6280      2.00000
    511       1.6567      2.00000
    512       1.6861      2.00000
    513       1.6929      2.00000
    514       1.7381      2.00000
    515       1.7686      2.00000
    516       1.7909      2.00000
    517       1.8196      2.00000
    518       1.8279      2.00000
    519       1.8672      2.00000
    520       1.8813      2.00000
    521       2.0015      2.00000
    522       2.2151      2.00000
    523       2.3505      2.00000
    524       4.6844      2.00000
    525       5.0748      2.00000
    526       5.8680      2.00000
    527       7.5641      0.00000
    528       7.6496      0.00000
    529       9.0447      0.00000
    530       9.1264      0.00000
    531       9.7463      0.00000
    532       9.8527      0.00000
    533       9.9878      0.00000
    534      10.2660      0.00000
    535      10.3919      0.00000
    536      10.4762      0.00000
    537      10.4805      0.00000
    538      10.5200      0.00000
    539      10.5380      0.00000
    540      10.5485      0.00000
    541      10.5678      0.00000
    542      10.6368      0.00000
    543      10.7283      0.00000
    544      10.7321      0.00000
    545      10.7498      0.00000
    546      10.7586      0.00000
    547      10.8040      0.00000
    548      10.8298      0.00000
    549      10.8397      0.00000
    550      10.8665      0.00000
    551      10.9584      0.00000
    552      10.9699      0.00000
    553      11.0049      0.00000
    554      11.0978      0.00000
    555      11.1036      0.00000
    556      11.1752      0.00000
    557      11.2539      0.00000
    558      11.2995      0.00000
    559      11.3419      0.00000
    560      11.3509      0.00000
    561      11.4265      0.00000
    562      11.4920      0.00000
    563      11.5923      0.00000
    564      11.7069      0.00000
    565      11.8082      0.00000
    566      11.9461      0.00000
    567      12.0972      0.00000
    568      12.1655      0.00000
    569      12.1805      0.00000
    570      12.2147      0.00000
    571      12.2224      0.00000
    572      12.2835      0.00000
    573      12.3021      0.00000
    574      12.3064      0.00000
    575      12.3280      0.00000
    576      12.4673      0.00000
    577      12.5338      0.00000
    578      12.6018      0.00000
    579      12.7599      0.00000
    580      12.9954      0.00000
    581      13.0530      0.00000
    582      13.1324      0.00000
    583      13.1858      0.00000
    584      13.2561      0.00000
    585      13.2661      0.00000
    586      13.3855      0.00000
    587      13.3932      0.00000
    588      13.5420      0.00000
    589      13.6351      0.00000
    590      13.6514      0.00000
    591      13.6781      0.00000
    592      13.7656      0.00000
    593      13.8177      0.00000
    594      13.8760      0.00000
    595      13.8917      0.00000
    596      13.9122      0.00000
    597      13.9149      0.00000
    598      13.9278      0.00000
    599      13.9753      0.00000
    600      13.9848      0.00000
    601      14.0389      0.00000
    602      14.1502      0.00000
    603      14.1661      0.00000
    604      14.2122      0.00000
    605      14.2577      0.00000
    606      14.3459      0.00000
    607      14.3661      0.00000
    608      14.4632      0.00000
    609      14.4775      0.00000
    610      14.4976      0.00000
    611      14.5313      0.00000
    612      14.5356      0.00000
    613      14.5792      0.00000
    614      14.6126      0.00000
    615      14.6490      0.00000
    616      14.6640      0.00000
    617      14.7336      0.00000
    618      14.7600      0.00000
    619      14.8552      0.00000
    620      15.0721      0.00000
    621      15.1252      0.00000
    622      15.1289      0.00000
    623      15.1651      0.00000
    624      15.1815      0.00000
    625      15.2515      0.00000
    626      15.3784      0.00000
    627      15.4997      0.00000
    628      15.5472      0.00000
    629      15.5903      0.00000
    630      15.6503      0.00000
    631      15.8020      0.00000

 k-point     6 :       0.5000    0.0000    0.5000
  band No.  band energies     occupation 
      1     -18.6449      2.00000
      2     -18.5774      2.00000
      3     -18.4741      2.00000
      4     -18.3822      2.00000
      5     -18.0189      2.00000
      6     -18.0110      2.00000
      7     -17.9929      2.00000
      8     -17.9715      2.00000
      9     -17.9571      2.00000
     10     -17.9293      2.00000
     11     -17.8879      2.00000
     12     -17.8723      2.00000
     13     -17.7765      2.00000
     14     -17.7680      2.00000
     15     -17.7602      2.00000
     16     -17.7569      2.00000
     17     -17.7188      2.00000
     18     -17.6791      2.00000
     19     -17.6315      2.00000
     20     -17.6237      2.00000
     21     -17.6140      2.00000
     22     -17.5963      2.00000
     23     -17.5776      2.00000
     24     -17.5084      2.00000
     25     -17.4991      2.00000
     26     -17.4968      2.00000
     27     -17.4863      2.00000
     28     -17.4738      2.00000
     29     -17.4702      2.00000
     30     -17.4217      2.00000
     31     -17.4110      2.00000
     32     -17.3910      2.00000
     33     -17.3876      2.00000
     34     -17.3816      2.00000
     35     -17.3466      2.00000
     36     -17.3222      2.00000
     37     -17.2843      2.00000
     38     -17.2735      2.00000
     39     -17.2559      2.00000
     40     -17.2164      2.00000
     41     -17.2115      2.00000
     42     -17.1983      2.00000
     43     -17.1891      2.00000
     44     -17.1581      2.00000
     45     -17.1450      2.00000
     46     -17.1402      2.00000
     47     -17.1249      2.00000
     48     -17.1221      2.00000
     49     -17.1084      2.00000
     50     -17.1052      2.00000
     51     -17.0919      2.00000
     52     -17.0798      2.00000
     53     -17.0721      2.00000
     54     -17.0434      2.00000
     55     -17.0338      2.00000
     56     -17.0288      2.00000
     57     -17.0084      2.00000
     58     -17.0065      2.00000
     59     -16.9834      2.00000
     60     -16.9198      2.00000
     61     -16.9146      2.00000
     62     -16.9070      2.00000
     63     -16.8857      2.00000
     64     -16.8645      2.00000
     65     -16.8443      2.00000
     66     -16.8097      2.00000
     67     -16.7820      2.00000
     68     -16.7574      2.00000
     69     -16.3560      2.00000
     70     -16.1225      2.00000
     71     -16.0262      2.00000
     72     -15.8533      2.00000
     73     -13.2167      2.00000
     74     -13.2082      2.00000
     75     -13.1869      2.00000
     76     -13.1783      2.00000
     77     -13.1584      2.00000
     78     -13.1579      2.00000
     79     -13.1382      2.00000
     80     -13.1307      2.00000
     81     -13.1256      2.00000
     82     -13.1104      2.00000
     83     -13.1043      2.00000
     84     -13.1038      2.00000
     85     -13.1014      2.00000
     86     -13.0990      2.00000
     87     -13.0947      2.00000
     88     -13.0815      2.00000
     89     -13.0795      2.00000
     90     -13.0791      2.00000
     91     -13.0765      2.00000
     92     -13.0763      2.00000
     93     -13.0684      2.00000
     94     -13.0650      2.00000
     95     -13.0618      2.00000
     96     -13.0571      2.00000
     97     -13.0553      2.00000
     98     -13.0485      2.00000
     99     -13.0431      2.00000
    100     -13.0387      2.00000
    101     -13.0340      2.00000
    102     -13.0274      2.00000
    103     -13.0209      2.00000
    104     -13.0199      2.00000
    105     -13.0174      2.00000
    106     -13.0144      2.00000
    107     -13.0048      2.00000
    108     -13.0036      2.00000
    109     -12.9999      2.00000
    110     -12.9951      2.00000
    111     -12.9918      2.00000
    112     -12.9908      2.00000
    113     -12.9894      2.00000
    114     -12.9875      2.00000
    115     -12.9809      2.00000
    116     -12.9747      2.00000
    117     -12.9739      2.00000
    118     -12.9704      2.00000
    119     -12.9680      2.00000
    120     -12.9661      2.00000
    121     -12.9646      2.00000
    122     -12.9617      2.00000
    123     -12.9576      2.00000
    124     -12.9557      2.00000
    125     -12.9552      2.00000
    126     -12.9500      2.00000
    127     -12.9492      2.00000
    128     -12.9456      2.00000
    129     -12.9442      2.00000
    130     -12.9391      2.00000
    131     -12.9374      2.00000
    132     -12.9341      2.00000
    133     -12.9328      2.00000
    134     -12.9293      2.00000
    135     -12.9243      2.00000
    136     -12.9216      2.00000
    137     -12.9202      2.00000
    138     -12.9154      2.00000
    139     -12.9142      2.00000
    140     -12.9137      2.00000
    141     -12.9124      2.00000
    142     -12.9082      2.00000
    143     -12.9047      2.00000
    144     -12.9019      2.00000
    145     -12.8894      2.00000
    146     -12.8892      2.00000
    147     -12.8852      2.00000
    148     -12.8818      2.00000
    149     -12.8810      2.00000
    150     -12.8721      2.00000
    151     -12.8703      2.00000
    152     -12.8686      2.00000
    153     -12.8653      2.00000
    154     -12.8633      2.00000
    155     -12.8619      2.00000
    156     -12.8572      2.00000
    157     -12.8512      2.00000
    158     -12.8456      2.00000
    159     -12.8425      2.00000
    160     -12.8363      2.00000
    161     -12.8345      2.00000
    162     -12.8331      2.00000
    163     -12.8301      2.00000
    164     -12.8257      2.00000
    165     -12.8181      2.00000
    166     -12.8138      2.00000
    167     -12.8120      2.00000
    168     -12.8098      2.00000
    169     -12.8080      2.00000
    170     -12.8064      2.00000
    171     -12.8022      2.00000
    172     -12.8004      2.00000
    173     -12.8000      2.00000
    174     -12.7958      2.00000
    175     -12.7948      2.00000
    176     -12.7907      2.00000
    177     -12.7893      2.00000
    178     -12.7869      2.00000
    179     -12.7847      2.00000
    180     -12.7815      2.00000
    181     -12.7794      2.00000
    182     -12.7754      2.00000
    183     -12.7740      2.00000
    184     -12.7710      2.00000
    185     -12.7694      2.00000
    186     -12.7679      2.00000
    187     -12.7654      2.00000
    188     -12.7630      2.00000
    189     -12.7621      2.00000
    190     -12.7595      2.00000
    191     -12.7562      2.00000
    192     -12.7548      2.00000
    193     -12.7532      2.00000
    194     -12.7511      2.00000
    195     -12.7441      2.00000
    196     -12.7424      2.00000
    197     -12.7384      2.00000
    198     -12.7362      2.00000
    199     -12.7321      2.00000
    200     -12.7308      2.00000
    201     -12.7252      2.00000
    202     -12.7236      2.00000
    203     -12.7213      2.00000
    204     -12.7167      2.00000
    205     -12.7115      2.00000
    206     -12.7082      2.00000
    207     -12.7071      2.00000
    208     -12.7023      2.00000
    209     -12.6995      2.00000
    210     -12.6900      2.00000
    211     -12.6861      2.00000
    212     -12.6829      2.00000
    213     -12.6821      2.00000
    214     -12.6770      2.00000
    215     -12.6755      2.00000
    216     -12.6725      2.00000
    217     -12.6676      2.00000
    218     -12.6665      2.00000
    219     -12.6625      2.00000
    220     -12.6609      2.00000
    221     -12.6547      2.00000
    222     -12.6518      2.00000
    223     -12.6465      2.00000
    224     -12.6400      2.00000
    225     -12.6387      2.00000
    226     -12.6302      2.00000
    227     -12.6279      2.00000
    228     -12.6256      2.00000
    229     -12.6178      2.00000
    230     -12.6170      2.00000
    231     -12.6115      2.00000
    232     -12.6074      2.00000
    233     -12.5974      2.00000
    234     -12.5906      2.00000
    235     -12.5892      2.00000
    236     -12.5851      2.00000
    237     -12.5608      2.00000
    238     -12.5475      2.00000
    239     -12.5458      2.00000
    240     -12.5380      2.00000
    241     -12.5184      2.00000
    242     -12.5054      2.00000
    243     -12.4969      2.00000
    244     -12.4838      2.00000
    245     -12.4778      2.00000
    246     -12.4639      2.00000
    247     -12.4581      2.00000
    248     -12.4496      2.00000
    249     -12.4380      2.00000
    250     -12.4343      2.00000
    251     -12.4311      2.00000
    252     -12.4237      2.00000
    253     -12.4194      2.00000
    254     -12.4112      2.00000
    255     -12.4086      2.00000
    256     -12.4067      2.00000
    257     -12.4028      2.00000
    258     -12.3973      2.00000
    259     -12.3890      2.00000
    260     -12.3862      2.00000
    261     -12.3722      2.00000
    262     -12.3648      2.00000
    263     -12.3598      2.00000
    264     -12.3582      2.00000
    265     -12.3523      2.00000
    266     -12.3486      2.00000
    267     -12.3391      2.00000
    268     -12.3364      2.00000
    269     -12.3329      2.00000
    270     -12.3257      2.00000
    271     -12.3096      2.00000
    272     -12.2846      2.00000
    273     -12.2791      2.00000
    274     -12.2734      2.00000
    275     -12.2621      2.00000
    276     -12.2544      2.00000
    277     -12.2434      2.00000
    278     -12.2381      2.00000
    279     -12.2136      2.00000
    280     -12.1991      2.00000
    281     -12.1569      2.00000
    282     -12.1133      2.00000
    283     -12.0768      2.00000
    284     -12.0693      2.00000
    285     -12.0632      2.00000
    286     -12.0449      2.00000
    287     -12.0414      2.00000
    288     -12.0135      2.00000
    289     -12.0029      2.00000
    290     -11.9926      2.00000
    291     -11.9895      2.00000
    292     -11.9888      2.00000
    293     -11.9796      2.00000
    294     -11.9668      2.00000
    295     -11.9357      2.00000
    296     -11.9133      2.00000
    297     -11.8642      2.00000
    298     -11.8427      2.00000
    299     -11.8281      2.00000
    300     -11.8083      2.00000
    301     -11.7890      2.00000
    302     -11.7589      2.00000
    303     -11.7480      2.00000
    304     -11.7179      2.00000
    305     -11.6769      2.00000
    306     -11.6638      2.00000
    307     -11.6188      2.00000
    308      -5.0497      2.00000
    309      -4.9981      2.00000
    310      -4.6260      2.00000
    311      -4.6039      2.00000
    312      -4.6012      2.00000
    313      -4.5839      2.00000
    314      -4.5565      2.00000
    315      -4.5022      2.00000
    316      -4.4999      2.00000
    317      -4.4799      2.00000
    318      -4.3863      2.00000
    319      -4.3414      2.00000
    320      -4.3371      2.00000
    321      -4.3205      2.00000
    322      -4.2763      2.00000
    323      -4.2520      2.00000
    324      -4.1501      2.00000
    325      -4.1474      2.00000
    326      -4.0889      2.00000
    327      -4.0583      2.00000
    328      -4.0415      2.00000
    329      -4.0191      2.00000
    330      -4.0068      2.00000
    331      -3.9919      2.00000
    332      -3.9623      2.00000
    333      -3.9332      2.00000
    334      -3.8552      2.00000
    335      -3.8308      2.00000
    336      -3.7760      2.00000
    337      -3.7403      2.00000
    338      -3.7105      2.00000
    339      -3.3544      2.00000
    340      -3.3332      2.00000
    341      -3.2254      2.00000
    342      -3.1772      2.00000
    343      -3.1670      2.00000
    344      -3.1556      2.00000
    345      -3.1361      2.00000
    346      -3.1194      2.00000
    347      -3.1050      2.00000
    348      -3.0820      2.00000
    349      -2.9637      2.00000
    350      -2.9483      2.00000
    351      -2.8031      2.00000
    352      -2.7959      2.00000
    353      -2.7610      2.00000
    354      -2.7022      2.00000
    355      -2.6516      2.00000
    356      -2.5071      2.00000
    357      -2.5044      2.00000
    358      -2.4462      2.00000
    359      -2.3434      2.00000
    360      -2.3371      2.00000
    361      -2.2874      2.00000
    362      -2.2683      2.00000
    363      -2.1895      2.00000
    364      -2.1678      2.00000
    365      -2.1065      2.00000
    366      -2.0888      2.00000
    367      -2.0592      2.00000
    368      -2.0410      2.00000
    369      -1.8797      2.00000
    370      -1.8420      2.00000
    371      -1.8028      2.00000
    372      -1.7988      2.00000
    373      -1.7922      2.00000
    374      -1.7750      2.00000
    375      -1.7643      2.00000
    376      -1.7519      2.00000
    377      -1.7160      2.00000
    378      -1.6931      2.00000
    379      -1.6209      2.00000
    380      -1.6038      2.00000
    381      -1.5689      2.00000
    382      -1.5399      2.00000
    383      -1.5175      2.00000
    384      -1.5043      2.00000
    385      -1.4671      2.00000
    386      -1.4015      2.00000
    387      -1.3502      2.00000
    388      -1.3488      2.00000
    389      -1.3412      2.00000
    390      -1.3384      2.00000
    391      -1.3197      2.00000
    392      -1.2212      2.00000
    393      -1.1691      2.00000
    394      -1.1402      2.00000
    395      -1.0716      2.00000
    396      -1.0283      2.00000
    397      -0.9848      2.00000
    398      -0.9731      2.00000
    399      -0.9437      2.00000
    400      -0.9390      2.00000
    401      -0.9113      2.00000
    402      -0.9066      2.00000
    403      -0.8636      2.00000
    404      -0.8255      2.00000
    405      -0.7664      2.00000
    406      -0.6572      2.00000
    407      -0.6117      2.00000
    408      -0.5449      2.00000
    409      -0.5317      2.00000
    410      -0.4856      2.00000
    411      -0.4754      2.00000
    412      -0.3617      2.00000
    413      -0.3574      2.00000
    414      -0.3342      2.00000
    415      -0.3272      2.00000
    416      -0.3118      2.00000
    417      -0.2856      2.00000
    418      -0.2527      2.00000
    419      -0.2442      2.00000
    420      -0.2245      2.00000
    421      -0.1756      2.00000
    422      -0.1635      2.00000
    423      -0.1588      2.00000
    424      -0.1454      2.00000
    425      -0.1269      2.00000
    426      -0.1050      2.00000
    427      -0.0618      2.00000
    428      -0.0572      2.00000
    429      -0.0457      2.00000
    430      -0.0247      2.00000
    431      -0.0138      2.00000
    432       0.0806      2.00000
    433       0.1052      2.00000
    434       0.1070      2.00000
    435       0.1321      2.00000
    436       0.1602      2.00000
    437       0.1661      2.00000
    438       0.1945      2.00000
    439       0.2365      2.00000
    440       0.2440      2.00000
    441       0.2833      2.00000
    442       0.3060      2.00000
    443       0.3264      2.00000
    444       0.3703      2.00000
    445       0.4019      2.00000
    446       0.4290      2.00000
    447       0.4526      2.00000
    448       0.4622      2.00000
    449       0.4987      2.00000
    450       0.5187      2.00000
    451       0.5416      2.00000
    452       0.5520      2.00000
    453       0.5670      2.00000
    454       0.5810      2.00000
    455       0.5994      2.00000
    456       0.6223      2.00000
    457       0.6341      2.00000
    458       0.6702      2.00000
    459       0.6971      2.00000
    460       0.7021      2.00000
    461       0.7229      2.00000
    462       0.7612      2.00000
    463       0.7761      2.00000
    464       0.8019      2.00000
    465       0.8214      2.00000
    466       0.8760      2.00000
    467       0.9047      2.00000
    468       0.9437      2.00000
    469       0.9455      2.00000
    470       0.9585      2.00000
    471       0.9833      2.00000
    472       1.0002      2.00000
    473       1.0493      2.00000
    474       1.0575      2.00000
    475       1.0598      2.00000
    476       1.0654      2.00000
    477       1.0727      2.00000
    478       1.0860      2.00000
    479       1.0895      2.00000
    480       1.1099      2.00000
    481       1.1679      2.00000
    482       1.1831      2.00000
    483       1.1926      2.00000
    484       1.1950      2.00000
    485       1.2344      2.00000
    486       1.2577      2.00000
    487       1.2745      2.00000
    488       1.2982      2.00000
    489       1.3112      2.00000
    490       1.3179      2.00000
    491       1.3321      2.00000
    492       1.3369      2.00000
    493       1.3554      2.00000
    494       1.3778      2.00000
    495       1.3854      2.00000
    496       1.3982      2.00000
    497       1.4263      2.00000
    498       1.4506      2.00000
    499       1.4627      2.00000
    500       1.4900      2.00000
    501       1.4983      2.00000
    502       1.5016      2.00000
    503       1.5182      2.00000
    504       1.5380      2.00000
    505       1.5484      2.00000
    506       1.5791      2.00000
    507       1.5870      2.00000
    508       1.5897      2.00000
    509       1.6169      2.00000
    510       1.6483      2.00000
    511       1.6567      2.00000
    512       1.6836      2.00000
    513       1.7048      2.00000
    514       1.7560      2.00000
    515       1.7876      2.00000
    516       1.8032      2.00000
    517       1.8083      2.00000
    518       1.8751      2.00000
    519       1.8813      2.00000
    520       1.9452      2.00000
    521       2.0153      2.00000
    522       2.2226      2.00000
    523       2.3717      2.00000
    524       4.6835      2.00000
    525       5.0741      2.00000
    526       5.8728      2.00000
    527       7.8633      0.00000
    528       7.9118      0.00000
    529       8.4203      0.00000
    530       8.5472      0.00000
    531       9.9794      0.00000
    532      10.1242      0.00000
    533      10.1570      0.00000
    534      10.2880      0.00000
    535      10.3635      0.00000
    536      10.4974      0.00000
    537      10.5155      0.00000
    538      10.5234      0.00000
    539      10.5500      0.00000
    540      10.5572      0.00000
    541      10.5615      0.00000
    542      10.5831      0.00000
    543      10.5903      0.00000
    544      10.6776      0.00000
    545      10.6867      0.00000
    546      10.7123      0.00000
    547      10.7307      0.00000
    548      10.7588      0.00000
    549      10.8571      0.00000
    550      10.8594      0.00000
    551      10.9235      0.00000
    552      10.9723      0.00000
    553      11.0663      0.00000
    554      11.1127      0.00000
    555      11.1286      0.00000
    556      11.1767      0.00000
    557      11.2832      0.00000
    558      11.4281      0.00000
    559      11.4596      0.00000
    560      11.5629      0.00000
    561      11.5918      0.00000
    562      11.6271      0.00000
    563      11.6420      0.00000
    564      11.6516      0.00000
    565      11.6718      0.00000
    566      11.8454      0.00000
    567      11.9490      0.00000
    568      11.9839      0.00000
    569      12.0496      0.00000
    570      12.4057      0.00000
    571      12.4452      0.00000
    572      12.4991      0.00000
    573      12.5061      0.00000
    574      12.5218      0.00000
    575      12.5325      0.00000
    576      12.6061      0.00000
    577      12.6407      0.00000
    578      12.6995      0.00000
    579      12.8187      0.00000
    580      12.8447      0.00000
    581      12.9235      0.00000
    582      13.0531      0.00000
    583      13.1026      0.00000
    584      13.2021      0.00000
    585      13.2298      0.00000
    586      13.2801      0.00000
    587      13.2906      0.00000
    588      13.3956      0.00000
    589      13.4618      0.00000
    590      13.4745      0.00000
    591      13.4936      0.00000
    592      13.5514      0.00000
    593      13.6165      0.00000
    594      13.6617      0.00000
    595      13.7243      0.00000
    596      13.7342      0.00000
    597      13.7964      0.00000
    598      13.9423      0.00000
    599      13.9692      0.00000
    600      14.0242      0.00000
    601      14.1001      0.00000
    602      14.1137      0.00000
    603      14.1479      0.00000
    604      14.2711      0.00000
    605      14.2931      0.00000
    606      14.3066      0.00000
    607      14.3570      0.00000
    608      14.3636      0.00000
    609      14.3976      0.00000
    610      14.4600      0.00000
    611      14.5074      0.00000
    612      14.5548      0.00000
    613      14.6020      0.00000
    614      14.6158      0.00000
    615      14.6839      0.00000
    616      14.8529      0.00000
    617      14.8644      0.00000
    618      14.9018      0.00000
    619      14.9624      0.00000
    620      15.0647      0.00000
    621      15.1101      0.00000
    622      15.2865      0.00000
    623      15.3606      0.00000
    624      15.4309      0.00000
    625      15.4516      0.00000
    626      15.5099      0.00000
    627      15.6256      0.00000
    628      15.6558      0.00000
    629      15.6628      0.00000
    630      15.7152      0.00000
    631      15.7406      0.00000

 k-point     7 :       0.0000    0.5000    0.5000
  band No.  band energies     occupation 
      1     -18.5239      2.00000
      2     -18.4689      2.00000
      3     -18.4245      2.00000
      4     -18.3627      2.00000
      5     -18.2599      2.00000
      6     -18.1860      2.00000
      7     -18.1611      2.00000
      8     -18.1016      2.00000
      9     -17.9938      2.00000
     10     -17.9359      2.00000
     11     -17.9150      2.00000
     12     -17.8101      2.00000
     13     -17.7441      2.00000
     14     -17.7085      2.00000
     15     -17.7066      2.00000
     16     -17.6983      2.00000
     17     -17.6792      2.00000
     18     -17.6698      2.00000
     19     -17.6277      2.00000
     20     -17.6141      2.00000
     21     -17.5748      2.00000
     22     -17.5721      2.00000
     23     -17.5347      2.00000
     24     -17.5164      2.00000
     25     -17.4934      2.00000
     26     -17.4692      2.00000
     27     -17.4632      2.00000
     28     -17.4590      2.00000
     29     -17.4474      2.00000
     30     -17.4039      2.00000
     31     -17.3877      2.00000
     32     -17.3784      2.00000
     33     -17.3750      2.00000
     34     -17.3479      2.00000
     35     -17.3400      2.00000
     36     -17.2992      2.00000
     37     -17.2880      2.00000
     38     -17.2830      2.00000
     39     -17.2608      2.00000
     40     -17.2552      2.00000
     41     -17.2492      2.00000
     42     -17.2273      2.00000
     43     -17.1827      2.00000
     44     -17.1754      2.00000
     45     -17.1705      2.00000
     46     -17.1460      2.00000
     47     -17.1282      2.00000
     48     -17.1270      2.00000
     49     -17.1073      2.00000
     50     -17.1012      2.00000
     51     -17.0982      2.00000
     52     -17.0822      2.00000
     53     -17.0610      2.00000
     54     -17.0553      2.00000
     55     -17.0404      2.00000
     56     -17.0324      2.00000
     57     -17.0200      2.00000
     58     -16.9761      2.00000
     59     -16.9645      2.00000
     60     -16.9345      2.00000
     61     -16.9276      2.00000
     62     -16.8922      2.00000
     63     -16.8744      2.00000
     64     -16.8628      2.00000
     65     -16.8450      2.00000
     66     -16.8121      2.00000
     67     -16.7698      2.00000
     68     -16.7656      2.00000
     69     -16.3571      2.00000
     70     -16.1246      2.00000
     71     -16.0232      2.00000
     72     -15.8522      2.00000
     73     -13.2076      2.00000
     74     -13.2043      2.00000
     75     -13.1815      2.00000
     76     -13.1753      2.00000
     77     -13.1603      2.00000
     78     -13.1525      2.00000
     79     -13.1420      2.00000
     80     -13.1367      2.00000
     81     -13.1271      2.00000
     82     -13.1209      2.00000
     83     -13.1195      2.00000
     84     -13.1122      2.00000
     85     -13.1065      2.00000
     86     -13.1039      2.00000
     87     -13.1034      2.00000
     88     -13.0999      2.00000
     89     -13.0896      2.00000
     90     -13.0861      2.00000
     91     -13.0806      2.00000
     92     -13.0762      2.00000
     93     -13.0738      2.00000
     94     -13.0729      2.00000
     95     -13.0646      2.00000
     96     -13.0599      2.00000
     97     -13.0488      2.00000
     98     -13.0480      2.00000
     99     -13.0425      2.00000
    100     -13.0395      2.00000
    101     -13.0363      2.00000
    102     -13.0354      2.00000
    103     -13.0275      2.00000
    104     -13.0204      2.00000
    105     -13.0181      2.00000
    106     -13.0152      2.00000
    107     -13.0116      2.00000
    108     -13.0112      2.00000
    109     -13.0047      2.00000
    110     -13.0032      2.00000
    111     -13.0010      2.00000
    112     -12.9956      2.00000
    113     -12.9923      2.00000
    114     -12.9905      2.00000
    115     -12.9843      2.00000
    116     -12.9803      2.00000
    117     -12.9783      2.00000
    118     -12.9767      2.00000
    119     -12.9741      2.00000
    120     -12.9696      2.00000
    121     -12.9667      2.00000
    122     -12.9626      2.00000
    123     -12.9589      2.00000
    124     -12.9552      2.00000
    125     -12.9549      2.00000
    126     -12.9481      2.00000
    127     -12.9449      2.00000
    128     -12.9421      2.00000
    129     -12.9412      2.00000
    130     -12.9381      2.00000
    131     -12.9366      2.00000
    132     -12.9304      2.00000
    133     -12.9298      2.00000
    134     -12.9229      2.00000
    135     -12.9195      2.00000
    136     -12.9188      2.00000
    137     -12.9153      2.00000
    138     -12.9106      2.00000
    139     -12.9090      2.00000
    140     -12.9078      2.00000
    141     -12.9066      2.00000
    142     -12.9020      2.00000
    143     -12.8981      2.00000
    144     -12.8962      2.00000
    145     -12.8907      2.00000
    146     -12.8875      2.00000
    147     -12.8854      2.00000
    148     -12.8851      2.00000
    149     -12.8816      2.00000
    150     -12.8801      2.00000
    151     -12.8779      2.00000
    152     -12.8706      2.00000
    153     -12.8645      2.00000
    154     -12.8616      2.00000
    155     -12.8595      2.00000
    156     -12.8572      2.00000
    157     -12.8555      2.00000
    158     -12.8512      2.00000
    159     -12.8494      2.00000
    160     -12.8466      2.00000
    161     -12.8424      2.00000
    162     -12.8408      2.00000
    163     -12.8404      2.00000
    164     -12.8322      2.00000
    165     -12.8295      2.00000
    166     -12.8278      2.00000
    167     -12.8212      2.00000
    168     -12.8166      2.00000
    169     -12.8122      2.00000
    170     -12.8103      2.00000
    171     -12.8070      2.00000
    172     -12.8021      2.00000
    173     -12.8014      2.00000
    174     -12.7992      2.00000
    175     -12.7931      2.00000
    176     -12.7913      2.00000
    177     -12.7901      2.00000
    178     -12.7875      2.00000
    179     -12.7844      2.00000
    180     -12.7795      2.00000
    181     -12.7790      2.00000
    182     -12.7777      2.00000
    183     -12.7745      2.00000
    184     -12.7694      2.00000
    185     -12.7633      2.00000
    186     -12.7608      2.00000
    187     -12.7607      2.00000
    188     -12.7559      2.00000
    189     -12.7543      2.00000
    190     -12.7514      2.00000
    191     -12.7491      2.00000
    192     -12.7456      2.00000
    193     -12.7451      2.00000
    194     -12.7440      2.00000
    195     -12.7376      2.00000
    196     -12.7337      2.00000
    197     -12.7293      2.00000
    198     -12.7279      2.00000
    199     -12.7266      2.00000
    200     -12.7170      2.00000
    201     -12.7163      2.00000
    202     -12.7122      2.00000
    203     -12.7089      2.00000
    204     -12.7038      2.00000
    205     -12.6969      2.00000
    206     -12.6956      2.00000
    207     -12.6937      2.00000
    208     -12.6876      2.00000
    209     -12.6842      2.00000
    210     -12.6838      2.00000
    211     -12.6806      2.00000
    212     -12.6769      2.00000
    213     -12.6746      2.00000
    214     -12.6712      2.00000
    215     -12.6700      2.00000
    216     -12.6678      2.00000
    217     -12.6602      2.00000
    218     -12.6588      2.00000
    219     -12.6565      2.00000
    220     -12.6548      2.00000
    221     -12.6526      2.00000
    222     -12.6495      2.00000
    223     -12.6431      2.00000
    224     -12.6376      2.00000
    225     -12.6363      2.00000
    226     -12.6340      2.00000
    227     -12.6307      2.00000
    228     -12.6226      2.00000
    229     -12.6167      2.00000
    230     -12.6144      2.00000
    231     -12.5988      2.00000
    232     -12.5962      2.00000
    233     -12.5941      2.00000
    234     -12.5927      2.00000
    235     -12.5829      2.00000
    236     -12.5670      2.00000
    237     -12.5632      2.00000
    238     -12.5335      2.00000
    239     -12.5207      2.00000
    240     -12.5169      2.00000
    241     -12.5078      2.00000
    242     -12.4888      2.00000
    243     -12.4868      2.00000
    244     -12.4725      2.00000
    245     -12.4695      2.00000
    246     -12.4637      2.00000
    247     -12.4537      2.00000
    248     -12.4424      2.00000
    249     -12.4288      2.00000
    250     -12.4264      2.00000
    251     -12.4224      2.00000
    252     -12.4155      2.00000
    253     -12.4120      2.00000
    254     -12.4104      2.00000
    255     -12.4064      2.00000
    256     -12.4047      2.00000
    257     -12.3975      2.00000
    258     -12.3866      2.00000
    259     -12.3842      2.00000
    260     -12.3814      2.00000
    261     -12.3763      2.00000
    262     -12.3725      2.00000
    263     -12.3684      2.00000
    264     -12.3638      2.00000
    265     -12.3509      2.00000
    266     -12.3445      2.00000
    267     -12.3344      2.00000
    268     -12.3270      2.00000
    269     -12.3232      2.00000
    270     -12.3204      2.00000
    271     -12.3055      2.00000
    272     -12.3016      2.00000
    273     -12.2989      2.00000
    274     -12.2878      2.00000
    275     -12.2846      2.00000
    276     -12.2788      2.00000
    277     -12.2682      2.00000
    278     -12.2546      2.00000
    279     -12.2336      2.00000
    280     -12.1965      2.00000
    281     -12.1878      2.00000
    282     -12.1666      2.00000
    283     -12.1520      2.00000
    284     -12.1433      2.00000
    285     -12.0966      2.00000
    286     -12.0930      2.00000
    287     -12.0805      2.00000
    288     -12.0786      2.00000
    289     -12.0644      2.00000
    290     -12.0452      2.00000
    291     -11.9821      2.00000
    292     -11.9699      2.00000
    293     -11.9577      2.00000
    294     -11.9494      2.00000
    295     -11.9231      2.00000
    296     -11.8977      2.00000
    297     -11.8659      2.00000
    298     -11.8572      2.00000
    299     -11.8384      2.00000
    300     -11.8201      2.00000
    301     -11.7465      2.00000
    302     -11.7132      2.00000
    303     -11.6908      2.00000
    304     -11.6593      2.00000
    305     -11.6406      2.00000
    306     -11.6355      2.00000
    307     -11.5578      2.00000
    308      -4.8461      2.00000
    309      -4.8265      2.00000
    310      -4.8133      2.00000
    311      -4.7900      2.00000
    312      -4.7872      2.00000
    313      -4.7810      2.00000
    314      -4.7448      2.00000
    315      -4.7266      2.00000
    316      -4.6224      2.00000
    317      -4.5716      2.00000
    318      -4.5640      2.00000
    319      -4.5284      2.00000
    320      -4.5253      2.00000
    321      -4.4795      2.00000
    322      -4.3960      2.00000
    323      -4.3862      2.00000
    324      -4.2977      2.00000
    325      -4.2892      2.00000
    326      -4.2366      2.00000
    327      -4.0613      2.00000
    328      -4.0127      2.00000
    329      -3.9810      2.00000
    330      -3.9716      2.00000
    331      -3.8220      2.00000
    332      -3.8180      2.00000
    333      -3.7568      2.00000
    334      -3.7463      2.00000
    335      -3.6995      2.00000
    336      -3.6767      2.00000
    337      -3.6734      2.00000
    338      -3.5864      2.00000
    339      -3.5349      2.00000
    340      -3.5046      2.00000
    341      -3.4655      2.00000
    342      -3.3943      2.00000
    343      -3.0023      2.00000
    344      -2.9840      2.00000
    345      -2.9675      2.00000
    346      -2.9285      2.00000
    347      -2.9229      2.00000
    348      -2.9187      2.00000
    349      -2.8471      2.00000
    350      -2.8025      2.00000
    351      -2.6807      2.00000
    352      -2.5188      2.00000
    353      -2.4874      2.00000
    354      -2.4838      2.00000
    355      -2.4410      2.00000
    356      -2.4206      2.00000
    357      -2.4087      2.00000
    358      -2.3498      2.00000
    359      -2.3462      2.00000
    360      -2.3289      2.00000
    361      -2.2845      2.00000
    362      -2.2512      2.00000
    363      -2.0042      2.00000
    364      -1.9710      2.00000
    365      -1.9583      2.00000
    366      -1.8955      2.00000
    367      -1.8937      2.00000
    368      -1.8798      2.00000
    369      -1.8716      2.00000
    370      -1.8638      2.00000
    371      -1.8339      2.00000
    372      -1.8107      2.00000
    373      -1.8028      2.00000
    374      -1.8011      2.00000
    375      -1.7867      2.00000
    376      -1.7572      2.00000
    377      -1.6834      2.00000
    378      -1.6017      2.00000
    379      -1.5581      2.00000
    380      -1.5554      2.00000
    381      -1.4947      2.00000
    382      -1.4268      2.00000
    383      -1.3846      2.00000
    384      -1.3699      2.00000
    385      -1.3424      2.00000
    386      -1.3297      2.00000
    387      -1.3199      2.00000
    388      -1.3049      2.00000
    389      -1.2559      2.00000
    390      -1.2009      2.00000
    391      -1.1987      2.00000
    392      -1.1837      2.00000
    393      -1.1049      2.00000
    394      -1.0978      2.00000
    395      -1.0879      2.00000
    396      -0.9722      2.00000
    397      -0.9542      2.00000
    398      -0.9464      2.00000
    399      -0.9280      2.00000
    400      -0.9060      2.00000
    401      -0.8690      2.00000
    402      -0.8659      2.00000
    403      -0.7552      2.00000
    404      -0.7062      2.00000
    405      -0.6872      2.00000
    406      -0.6827      2.00000
    407      -0.6773      2.00000
    408      -0.6611      2.00000
    409      -0.6573      2.00000
    410      -0.6388      2.00000
    411      -0.6311      2.00000
    412      -0.6254      2.00000
    413      -0.6142      2.00000
    414      -0.6024      2.00000
    415      -0.5785      2.00000
    416      -0.5468      2.00000
    417      -0.4784      2.00000
    418      -0.4329      2.00000
    419      -0.3799      2.00000
    420      -0.3543      2.00000
    421      -0.3430      2.00000
    422      -0.1896      2.00000
    423      -0.1141      2.00000
    424      -0.1080      2.00000
    425      -0.0672      2.00000
    426       0.0152      2.00000
    427       0.0306      2.00000
    428       0.0616      2.00000
    429       0.0943      2.00000
    430       0.0979      2.00000
    431       0.1145      2.00000
    432       0.1336      2.00000
    433       0.1494      2.00000
    434       0.1631      2.00000
    435       0.1848      2.00000
    436       0.2132      2.00000
    437       0.2324      2.00000
    438       0.2651      2.00000
    439       0.2680      2.00000
    440       0.2717      2.00000
    441       0.2914      2.00000
    442       0.3143      2.00000
    443       0.3203      2.00000
    444       0.3382      2.00000
    445       0.3533      2.00000
    446       0.3638      2.00000
    447       0.3969      2.00000
    448       0.4181      2.00000
    449       0.4349      2.00000
    450       0.4881      2.00000
    451       0.4942      2.00000
    452       0.5398      2.00000
    453       0.5442      2.00000
    454       0.5571      2.00000
    455       0.5694      2.00000
    456       0.5808      2.00000
    457       0.6003      2.00000
    458       0.6137      2.00000
    459       0.6213      2.00000
    460       0.6476      2.00000
    461       0.6862      2.00000
    462       0.6954      2.00000
    463       0.7103      2.00000
    464       0.7305      2.00000
    465       0.7402      2.00000
    466       0.7494      2.00000
    467       0.7731      2.00000
    468       0.7926      2.00000
    469       0.8107      2.00000
    470       0.8263      2.00000
    471       0.8480      2.00000
    472       0.8635      2.00000
    473       0.8811      2.00000
    474       0.9109      2.00000
    475       1.0212      2.00000
    476       1.0528      2.00000
    477       1.0780      2.00000
    478       1.0832      2.00000
    479       1.0854      2.00000
    480       1.1057      2.00000
    481       1.1135      2.00000
    482       1.1326      2.00000
    483       1.1358      2.00000
    484       1.1602      2.00000
    485       1.1738      2.00000
    486       1.1979      2.00000
    487       1.2149      2.00000
    488       1.2265      2.00000
    489       1.2536      2.00000
    490       1.2682      2.00000
    491       1.2841      2.00000
    492       1.2891      2.00000
    493       1.3395      2.00000
    494       1.3507      2.00000
    495       1.3846      2.00000
    496       1.3908      2.00000
    497       1.4189      2.00000
    498       1.4334      2.00000
    499       1.4395      2.00000
    500       1.4522      2.00000
    501       1.4550      2.00000
    502       1.4918      2.00000
    503       1.5072      2.00000
    504       1.5507      2.00000
    505       1.5588      2.00000
    506       1.5837      2.00000
    507       1.5956      2.00000
    508       1.6125      2.00000
    509       1.6183      2.00000
    510       1.6342      2.00000
    511       1.6423      2.00000
    512       1.6755      2.00000
    513       1.6834      2.00000
    514       1.7097      2.00000
    515       1.7156      2.00000
    516       1.7788      2.00000
    517       1.8694      2.00000
    518       1.8917      2.00000
    519       1.8989      2.00000
    520       1.9838      2.00000
    521       2.0359      2.00000
    522       2.2246      2.00000
    523       2.3949      2.00000
    524       4.7131      2.00000
    525       5.0680      2.00000
    526       5.8795      2.00000
    527       8.5580      0.00000
    528       8.6195      0.00000
    529       8.6279      0.00000
    530       8.7329      0.00000
    531       9.5936      0.00000
    532       9.6895      0.00000
    533       9.7222      0.00000
    534       9.8139      0.00000
    535       9.9208      0.00000
    536      10.2523      0.00000
    537      10.2851      0.00000
    538      10.3267      0.00000
    539      10.3998      0.00000
    540      10.4812      0.00000
    541      10.5044      0.00000
    542      10.5765      0.00000
    543      10.6199      0.00000
    544      10.7267      0.00000
    545      10.7771      0.00000
    546      10.7995      0.00000
    547      11.0110      0.00000
    548      11.0434      0.00000
    549      11.1825      0.00000
    550      11.2434      0.00000
    551      11.2738      0.00000
    552      11.5415      0.00000
    553      11.5628      0.00000
    554      11.6173      0.00000
    555      11.6297      0.00000
    556      11.6805      0.00000
    557      11.7103      0.00000
    558      11.7255      0.00000
    559      11.7413      0.00000
    560      11.7565      0.00000
    561      11.7742      0.00000
    562      11.8360      0.00000
    563      11.8704      0.00000
    564      11.8941      0.00000
    565      11.9321      0.00000
    566      12.0009      0.00000
    567      12.0657      0.00000
    568      12.2007      0.00000
    569      12.2378      0.00000
    570      12.2897      0.00000
    571      12.2993      0.00000
    572      12.3297      0.00000
    573      12.3589      0.00000
    574      12.3856      0.00000
    575      12.4127      0.00000
    576      12.4310      0.00000
    577      12.5064      0.00000
    578      12.5659      0.00000
    579      12.5773      0.00000
    580      12.6081      0.00000
    581      12.6486      0.00000
    582      12.7130      0.00000
    583      12.7235      0.00000
    584      12.9893      0.00000
    585      13.0452      0.00000
    586      13.0490      0.00000
    587      13.1090      0.00000
    588      13.2505      0.00000
    589      13.2966      0.00000
    590      13.3436      0.00000
    591      13.4215      0.00000
    592      13.4461      0.00000
    593      13.4834      0.00000
    594      13.5510      0.00000
    595      13.5601      0.00000
    596      13.5862      0.00000
    597      13.7827      0.00000
    598      13.8195      0.00000
    599      13.9412      0.00000
    600      14.0006      0.00000
    601      14.3194      0.00000
    602      14.3298      0.00000
    603      14.3876      0.00000
    604      14.4557      0.00000
    605      14.4634      0.00000
    606      14.5057      0.00000
    607      14.5166      0.00000
    608      14.5460      0.00000
    609      14.5713      0.00000
    610      14.5954      0.00000
    611      14.6244      0.00000
    612      14.6601      0.00000
    613      14.6962      0.00000
    614      14.7428      0.00000
    615      14.8005      0.00000
    616      14.8400      0.00000
    617      14.8541      0.00000
    618      14.9092      0.00000
    619      15.0102      0.00000
    620      15.0952      0.00000
    621      15.1158      0.00000
    622      15.1612      0.00000
    623      15.3527      0.00000
    624      15.3852      0.00000
    625      15.4584      0.00000
    626      15.4614      0.00000
    627      15.6454      0.00000
    628      15.6534      0.00000
    629      15.6954      0.00000
    630      15.7031      0.00000
    631      15.7411      0.00000

 k-point     8 :       0.5000    0.5000    0.5000
  band No.  band energies     occupation 
      1     -18.4771      2.00000
      2     -18.4338      2.00000
      3     -18.4213      2.00000
      4     -18.3602      2.00000
      5     -18.3306      2.00000
      6     -18.2555      2.00000
      7     -18.2506      2.00000
      8     -18.1278      2.00000
      9     -17.9024      2.00000
     10     -17.8619      2.00000
     11     -17.8440      2.00000
     12     -17.7902      2.00000
     13     -17.7043      2.00000
     14     -17.6941      2.00000
     15     -17.6862      2.00000
     16     -17.6739      2.00000
     17     -17.6718      2.00000
     18     -17.6570      2.00000
     19     -17.6512      2.00000
     20     -17.6241      2.00000
     21     -17.6220      2.00000
     22     -17.6133      2.00000
     23     -17.5771      2.00000
     24     -17.5455      2.00000
     25     -17.5193      2.00000
     26     -17.4946      2.00000
     27     -17.4762      2.00000
     28     -17.4634      2.00000
     29     -17.4445      2.00000
     30     -17.4035      2.00000
     31     -17.3790      2.00000
     32     -17.3691      2.00000
     33     -17.3632      2.00000
     34     -17.3550      2.00000
     35     -17.3261      2.00000
     36     -17.3081      2.00000
     37     -17.2892      2.00000
     38     -17.2857      2.00000
     39     -17.2656      2.00000
     40     -17.2510      2.00000
     41     -17.2346      2.00000
     42     -17.2300      2.00000
     43     -17.1869      2.00000
     44     -17.1852      2.00000
     45     -17.1509      2.00000
     46     -17.1428      2.00000
     47     -17.1340      2.00000
     48     -17.1226      2.00000
     49     -17.1010      2.00000
     50     -17.1006      2.00000
     51     -17.0969      2.00000
     52     -17.0810      2.00000
     53     -17.0656      2.00000
     54     -17.0563      2.00000
     55     -17.0422      2.00000
     56     -17.0343      2.00000
     57     -17.0193      2.00000
     58     -16.9754      2.00000
     59     -16.9652      2.00000
     60     -16.9340      2.00000
     61     -16.9271      2.00000
     62     -16.8922      2.00000
     63     -16.8747      2.00000
     64     -16.8608      2.00000
     65     -16.8460      2.00000
     66     -16.8112      2.00000
     67     -16.7700      2.00000
     68     -16.7661      2.00000
     69     -16.3571      2.00000
     70     -16.1248      2.00000
     71     -16.0233      2.00000
     72     -15.8522      2.00000
     73     -13.2052      2.00000
     74     -13.2037      2.00000
     75     -13.1826      2.00000
     76     -13.1758      2.00000
     77     -13.1639      2.00000
     78     -13.1535      2.00000
     79     -13.1420      2.00000
     80     -13.1371      2.00000
     81     -13.1237      2.00000
     82     -13.1205      2.00000
     83     -13.1186      2.00000
     84     -13.1112      2.00000
     85     -13.1065      2.00000
     86     -13.1057      2.00000
     87     -13.1025      2.00000
     88     -13.0997      2.00000
     89     -13.0884      2.00000
     90     -13.0875      2.00000
     91     -13.0809      2.00000
     92     -13.0796      2.00000
     93     -13.0729      2.00000
     94     -13.0678      2.00000
     95     -13.0602      2.00000
     96     -13.0597      2.00000
     97     -13.0482      2.00000
     98     -13.0478      2.00000
     99     -13.0435      2.00000
    100     -13.0392      2.00000
    101     -13.0365      2.00000
    102     -13.0353      2.00000
    103     -13.0262      2.00000
    104     -13.0257      2.00000
    105     -13.0196      2.00000
    106     -13.0145      2.00000
    107     -13.0137      2.00000
    108     -13.0118      2.00000
    109     -13.0022      2.00000
    110     -13.0015      2.00000
    111     -12.9978      2.00000
    112     -12.9947      2.00000
    113     -12.9902      2.00000
    114     -12.9888      2.00000
    115     -12.9848      2.00000
    116     -12.9821      2.00000
    117     -12.9809      2.00000
    118     -12.9735      2.00000
    119     -12.9710      2.00000
    120     -12.9701      2.00000
    121     -12.9667      2.00000
    122     -12.9616      2.00000
    123     -12.9591      2.00000
    124     -12.9556      2.00000
    125     -12.9549      2.00000
    126     -12.9490      2.00000
    127     -12.9448      2.00000
    128     -12.9431      2.00000
    129     -12.9403      2.00000
    130     -12.9375      2.00000
    131     -12.9340      2.00000
    132     -12.9272      2.00000
    133     -12.9261      2.00000
    134     -12.9213      2.00000
    135     -12.9193      2.00000
    136     -12.9156      2.00000
    137     -12.9120      2.00000
    138     -12.9094      2.00000
    139     -12.9077      2.00000
    140     -12.9057      2.00000
    141     -12.9048      2.00000
    142     -12.9008      2.00000
    143     -12.8978      2.00000
    144     -12.8964      2.00000
    145     -12.8923      2.00000
    146     -12.8904      2.00000
    147     -12.8846      2.00000
    148     -12.8827      2.00000
    149     -12.8796      2.00000
    150     -12.8773      2.00000
    151     -12.8721      2.00000
    152     -12.8713      2.00000
    153     -12.8628      2.00000
    154     -12.8612      2.00000
    155     -12.8565      2.00000
    156     -12.8543      2.00000
    157     -12.8531      2.00000
    158     -12.8509      2.00000
    159     -12.8482      2.00000
    160     -12.8465      2.00000
    161     -12.8386      2.00000
    162     -12.8364      2.00000
    163     -12.8330      2.00000
    164     -12.8319      2.00000
    165     -12.8273      2.00000
    166     -12.8237      2.00000
    167     -12.8171      2.00000
    168     -12.8123      2.00000
    169     -12.8108      2.00000
    170     -12.8090      2.00000
    171     -12.8086      2.00000
    172     -12.8041      2.00000
    173     -12.8001      2.00000
    174     -12.7987      2.00000
    175     -12.7952      2.00000
    176     -12.7926      2.00000
    177     -12.7897      2.00000
    178     -12.7870      2.00000
    179     -12.7855      2.00000
    180     -12.7825      2.00000
    181     -12.7799      2.00000
    182     -12.7769      2.00000
    183     -12.7721      2.00000
    184     -12.7682      2.00000
    185     -12.7673      2.00000
    186     -12.7608      2.00000
    187     -12.7566      2.00000
    188     -12.7547      2.00000
    189     -12.7527      2.00000
    190     -12.7513      2.00000
    191     -12.7464      2.00000
    192     -12.7436      2.00000
    193     -12.7421      2.00000
    194     -12.7401      2.00000
    195     -12.7357      2.00000
    196     -12.7346      2.00000
    197     -12.7278      2.00000
    198     -12.7257      2.00000
    199     -12.7246      2.00000
    200     -12.7198      2.00000
    201     -12.7182      2.00000
    202     -12.7121      2.00000
    203     -12.7061      2.00000
    204     -12.7023      2.00000
    205     -12.7003      2.00000
    206     -12.6977      2.00000
    207     -12.6931      2.00000
    208     -12.6886      2.00000
    209     -12.6875      2.00000
    210     -12.6845      2.00000
    211     -12.6806      2.00000
    212     -12.6782      2.00000
    213     -12.6755      2.00000
    214     -12.6742      2.00000
    215     -12.6695      2.00000
    216     -12.6666      2.00000
    217     -12.6652      2.00000
    218     -12.6633      2.00000
    219     -12.6599      2.00000
    220     -12.6586      2.00000
    221     -12.6558      2.00000
    222     -12.6528      2.00000
    223     -12.6491      2.00000
    224     -12.6475      2.00000
    225     -12.6381      2.00000
    226     -12.6325      2.00000
    227     -12.6286      2.00000
    228     -12.6245      2.00000
    229     -12.6198      2.00000
    230     -12.6156      2.00000
    231     -12.6075      2.00000
    232     -12.6065      2.00000
    233     -12.6005      2.00000
    234     -12.5913      2.00000
    235     -12.5900      2.00000
    236     -12.5802      2.00000
    237     -12.5754      2.00000
    238     -12.5613      2.00000
    239     -12.5482      2.00000
    240     -12.5436      2.00000
    241     -12.5338      2.00000
    242     -12.5173      2.00000
    243     -12.4994      2.00000
    244     -12.4958      2.00000
    245     -12.4901      2.00000
    246     -12.4820      2.00000
    247     -12.4690      2.00000
    248     -12.4593      2.00000
    249     -12.4549      2.00000
    250     -12.4404      2.00000
    251     -12.4319      2.00000
    252     -12.4263      2.00000
    253     -12.4216      2.00000
    254     -12.4159      2.00000
    255     -12.4139      2.00000
    256     -12.4080      2.00000
    257     -12.3990      2.00000
    258     -12.3876      2.00000
    259     -12.3825      2.00000
    260     -12.3802      2.00000
    261     -12.3752      2.00000
    262     -12.3674      2.00000
    263     -12.3638      2.00000
    264     -12.3560      2.00000
    265     -12.3477      2.00000
    266     -12.3385      2.00000
    267     -12.3364      2.00000
    268     -12.3302      2.00000
    269     -12.3156      2.00000
    270     -12.3020      2.00000
    271     -12.2996      2.00000
    272     -12.2840      2.00000
    273     -12.2818      2.00000
    274     -12.2710      2.00000
    275     -12.2622      2.00000
    276     -12.2492      2.00000
    277     -12.2351      2.00000
    278     -12.2238      2.00000
    279     -12.2135      2.00000
    280     -12.1936      2.00000
    281     -12.1899      2.00000
    282     -12.1645      2.00000
    283     -12.1517      2.00000
    284     -12.1337      2.00000
    285     -12.0931      2.00000
    286     -12.0490      2.00000
    287     -12.0206      2.00000
    288     -12.0082      2.00000
    289     -11.9975      2.00000
    290     -11.9818      2.00000
    291     -11.9770      2.00000
    292     -11.9702      2.00000
    293     -11.9621      2.00000
    294     -11.9567      2.00000
    295     -11.9510      2.00000
    296     -11.8981      2.00000
    297     -11.8689      2.00000
    298     -11.8547      2.00000
    299     -11.8411      2.00000
    300     -11.8164      2.00000
    301     -11.7936      2.00000
    302     -11.7583      2.00000
    303     -11.7129      2.00000
    304     -11.6950      2.00000
    305     -11.6822      2.00000
    306     -11.6402      2.00000
    307     -11.5598      2.00000
    308      -4.9258      2.00000
    309      -4.9156      2.00000
    310      -4.8811      2.00000
    311      -4.8520      2.00000
    312      -4.8295      2.00000
    313      -4.8111      2.00000
    314      -4.7997      2.00000
    315      -4.7726      2.00000
    316      -4.5466      2.00000
    317      -4.5325      2.00000
    318      -4.5068      2.00000
    319      -4.4796      2.00000
    320      -4.4394      2.00000
    321      -4.4339      2.00000
    322      -4.3158      2.00000
    323      -4.2471      2.00000
    324      -4.2412      2.00000
    325      -4.1869      2.00000
    326      -4.0832      2.00000
    327      -3.9368      2.00000
    328      -3.9164      2.00000
    329      -3.8734      2.00000
    330      -3.8605      2.00000
    331      -3.8579      2.00000
    332      -3.8157      2.00000
    333      -3.8027      2.00000
    334      -3.7721      2.00000
    335      -3.7347      2.00000
    336      -3.7126      2.00000
    337      -3.6692      2.00000
    338      -3.6589      2.00000
    339      -3.5516      2.00000
    340      -3.5222      2.00000
    341      -3.5141      2.00000
    342      -3.4950      2.00000
    343      -3.3128      2.00000
    344      -3.2780      2.00000
    345      -3.2358      2.00000
    346      -3.1207      2.00000
    347      -3.0064      2.00000
    348      -2.9867      2.00000
    349      -2.9400      2.00000
    350      -2.8770      2.00000
    351      -2.6391      2.00000
    352      -2.6173      2.00000
    353      -2.5921      2.00000
    354      -2.5082      2.00000
    355      -2.4544      2.00000
    356      -2.3864      2.00000
    357      -2.3544      2.00000
    358      -2.3088      2.00000
    359      -2.2991      2.00000
    360      -2.0555      2.00000
    361      -2.0134      2.00000
    362      -2.0102      2.00000
    363      -1.9552      2.00000
    364      -1.9457      2.00000
    365      -1.9164      2.00000
    366      -1.9109      2.00000
    367      -1.8929      2.00000
    368      -1.8841      2.00000
    369      -1.8811      2.00000
    370      -1.8018      2.00000
    371      -1.7436      2.00000
    372      -1.7227      2.00000
    373      -1.6997      2.00000
    374      -1.6986      2.00000
    375      -1.6785      2.00000
    376      -1.6554      2.00000
    377      -1.5900      2.00000
    378      -1.5789      2.00000
    379      -1.5592      2.00000
    380      -1.5197      2.00000
    381      -1.4783      2.00000
    382      -1.4595      2.00000
    383      -1.4478      2.00000
    384      -1.4382      2.00000
    385      -1.3649      2.00000
    386      -1.3557      2.00000
    387      -1.3236      2.00000
    388      -1.3171      2.00000
    389      -1.3124      2.00000
    390      -1.2910      2.00000
    391      -1.1372      2.00000
    392      -1.0909      2.00000
    393      -1.0836      2.00000
    394      -1.0201      2.00000
    395      -0.9315      2.00000
    396      -0.9041      2.00000
    397      -0.9012      2.00000
    398      -0.8924      2.00000
    399      -0.8662      2.00000
    400      -0.8563      2.00000
    401      -0.8519      2.00000
    402      -0.8402      2.00000
    403      -0.8301      2.00000
    404      -0.7814      2.00000
    405      -0.7649      2.00000
    406      -0.7593      2.00000
    407      -0.7383      2.00000
    408      -0.7178      2.00000
    409      -0.6981      2.00000
    410      -0.6774      2.00000
    411      -0.6542      2.00000
    412      -0.6295      2.00000
    413      -0.6258      2.00000
    414      -0.5332      2.00000
    415      -0.4935      2.00000
    416      -0.4907      2.00000
    417      -0.4567      2.00000
    418      -0.4420      2.00000
    419      -0.3967      2.00000
    420      -0.3725      2.00000
    421      -0.3590      2.00000
    422      -0.2980      2.00000
    423      -0.2724      2.00000
    424      -0.2704      2.00000
    425      -0.2026      2.00000
    426      -0.1448      2.00000
    427      -0.1114      2.00000
    428      -0.0883      2.00000
    429      -0.0285      2.00000
    430      -0.0145      2.00000
    431      -0.0004      2.00000
    432       0.0228      2.00000
    433       0.0326      2.00000
    434       0.0731      2.00000
    435       0.0956      2.00000
    436       0.1098      2.00000
    437       0.1617      2.00000
    438       0.1729      2.00000
    439       0.1959      2.00000
    440       0.2115      2.00000
    441       0.2548      2.00000
    442       0.3133      2.00000
    443       0.3525      2.00000
    444       0.3754      2.00000
    445       0.4201      2.00000
    446       0.4444      2.00000
    447       0.4535      2.00000
    448       0.4579      2.00000
    449       0.4728      2.00000
    450       0.4976      2.00000
    451       0.5194      2.00000
    452       0.5514      2.00000
    453       0.5548      2.00000
    454       0.5754      2.00000
    455       0.5895      2.00000
    456       0.5994      2.00000
    457       0.6224      2.00000
    458       0.6376      2.00000
    459       0.6659      2.00000
    460       0.7245      2.00000
    461       0.7827      2.00000
    462       0.7874      2.00000
    463       0.8003      2.00000
    464       0.8219      2.00000
    465       0.8317      2.00000
    466       0.8472      2.00000
    467       0.8819      2.00000
    468       0.8891      2.00000
    469       0.9107      2.00000
    470       0.9215      2.00000
    471       0.9639      2.00000
    472       0.9981      2.00000
    473       1.0060      2.00000
    474       1.0201      2.00000
    475       1.0305      2.00000
    476       1.0614      2.00000
    477       1.0779      2.00000
    478       1.1007      2.00000
    479       1.1094      2.00000
    480       1.1168      2.00000
    481       1.1271      2.00000
    482       1.1354      2.00000
    483       1.1436      2.00000
    484       1.1453      2.00000
    485       1.1637      2.00000
    486       1.1760      2.00000
    487       1.2004      2.00000
    488       1.2231      2.00000
    489       1.2261      2.00000
    490       1.2510      2.00000
    491       1.2652      2.00000
    492       1.2876      2.00000
    493       1.3156      2.00000
    494       1.3296      2.00000
    495       1.3310      2.00000
    496       1.3571      2.00000
    497       1.3629      2.00000
    498       1.3852      2.00000
    499       1.4128      2.00000
    500       1.4205      2.00000
    501       1.4259      2.00000
    502       1.4605      2.00000
    503       1.4915      2.00000
    504       1.5005      2.00000
    505       1.5093      2.00000
    506       1.5264      2.00000
    507       1.5374      2.00000
    508       1.5560      2.00000
    509       1.6002      2.00000
    510       1.6062      2.00000
    511       1.6300      2.00000
    512       1.6761      2.00000
    513       1.6803      2.00000
    514       1.7905      2.00000
    515       1.8116      2.00000
    516       1.8183      2.00000
    517       1.8643      2.00000
    518       1.8804      2.00000
    519       1.8943      2.00000
    520       1.9540      2.00000
    521       2.0405      2.00000
    522       2.2139      2.00000
    523       2.3894      2.00000
    524       4.7131      2.00000
    525       5.0683      2.00000
    526       5.8792      2.00000
    527       8.7623      0.00000
    528       8.7956      0.00000
    529       8.8295      0.00000
    530       8.8724      0.00000
    531       9.1474      0.00000
    532       9.2427      0.00000
    533       9.2560      0.00000
    534       9.4390      0.00000
    535       9.9047      0.00000
    536      10.3571      0.00000
    537      10.4595      0.00000
    538      10.5168      0.00000
    539      10.5490      0.00000
    540      10.5894      0.00000
    541      10.6227      0.00000
    542      10.6249      0.00000
    543      10.7322      0.00000
    544      10.7582      0.00000
    545      10.8453      0.00000
    546      10.8737      0.00000
    547      11.0111      0.00000
    548      11.0677      0.00000
    549      11.0946      0.00000
    550      11.1040      0.00000
    551      11.1544      0.00000
    552      11.5685      0.00000
    553      11.6437      0.00000
    554      11.6889      0.00000
    555      11.7044      0.00000
    556      11.7093      0.00000
    557      11.7550      0.00000
    558      11.7796      0.00000
    559      11.8111      0.00000
    560      11.8281      0.00000
    561      11.8492      0.00000
    562      11.8934      0.00000
    563      11.9677      0.00000
    564      12.0710      0.00000
    565      12.1090      0.00000
    566      12.1512      0.00000
    567      12.1911      0.00000
    568      12.2000      0.00000
    569      12.2277      0.00000
    570      12.2394      0.00000
    571      12.2447      0.00000
    572      12.3173      0.00000
    573      12.3253      0.00000
    574      12.3342      0.00000
    575      12.3904      0.00000
    576      12.4104      0.00000
    577      12.4121      0.00000
    578      12.4281      0.00000
    579      12.4552      0.00000
    580      12.4698      0.00000
    581      12.4888      0.00000
    582      12.6529      0.00000
    583      12.8584      0.00000
    584      13.0804      0.00000
    585      13.1048      0.00000
    586      13.1853      0.00000
    587      13.2133      0.00000
    588      13.2378      0.00000
    589      13.2602      0.00000
    590      13.2645      0.00000
    591      13.3086      0.00000
    592      13.3249      0.00000
    593      13.4006      0.00000
    594      13.4675      0.00000
    595      13.6105      0.00000
    596      13.6819      0.00000
    597      13.7151      0.00000
    598      13.8235      0.00000
    599      13.9500      0.00000
    600      13.9703      0.00000
    601      13.9759      0.00000
    602      14.0301      0.00000
    603      14.0400      0.00000
    604      14.1820      0.00000
    605      14.3465      0.00000
    606      14.3767      0.00000
    607      14.4002      0.00000
    608      14.4585      0.00000
    609      14.4809      0.00000
    610      14.5261      0.00000
    611      14.5975      0.00000
    612      14.6470      0.00000
    613      14.7188      0.00000
    614      14.8039      0.00000
    615      14.8218      0.00000
    616      14.9925      0.00000
    617      15.0165      0.00000
    618      15.0431      0.00000
    619      15.0789      0.00000
    620      15.1453      0.00000
    621      15.1616      0.00000
    622      15.2115      0.00000
    623      15.3552      0.00000
    624      15.5000      0.00000
    625      15.5026      0.00000
    626      15.5423      0.00000
    627      15.5932      0.00000
    628      15.6652      0.00000
    629      15.7001      0.00000
    630      15.7424      0.00000
    631      15.7434      0.00000


--------------------------------------------------------------------------------------------------------


 soft charge-density along one line, spin component            1
         0         1         2         3         4         5         6         7         8         9
 total charge-density along one line
 
 pseudopotential strength for first ion, spin component:            1
 -8.872  -0.002   0.000  -0.004   0.000  -1.308   0.001  -0.000
 -0.002  -8.899  -0.002  -0.000   0.002   0.001  -1.292   0.003
  0.000  -0.002  -8.901  -0.001  -0.007  -0.000   0.003  -1.291
 -0.004  -0.000  -0.001  -8.891  -0.002   0.004   0.000   0.001
  0.000   0.002  -0.007  -0.002  -8.876  -0.000   0.002   0.007
 -1.308   0.001  -0.000   0.004  -0.000   5.905  -0.001   0.000
  0.001  -1.292   0.003   0.000   0.002  -0.001   5.894  -0.003
 -0.000   0.003  -1.291   0.001   0.007   0.000  -0.003   5.895
  0.004   0.000   0.001  -1.290   0.001  -0.005  -0.000  -0.000
 -0.000   0.002   0.007   0.001  -1.300  -0.000  -0.003  -0.006
 -0.000  -0.000  -0.001  -0.000   0.001   0.000  -0.001   0.001
  0.000  -0.001   0.003   0.000  -0.002  -0.000   0.001  -0.001
 -0.000  -0.004   0.000  -0.000   0.001   0.000   0.001  -0.000
 -0.000   0.001  -0.005   0.000   0.001   0.000  -0.000   0.002
  0.001  -0.000   0.000  -0.002  -0.000  -0.001   0.000  -0.000
  0.000   0.004  -0.002   0.000  -0.005   0.000   0.001   0.001
  0.000  -0.002   0.006  -0.000  -0.003  -0.000   0.002  -0.000
 -0.004   0.000  -0.000  -0.002   0.000   0.003  -0.000   0.000
 total augmentation occupancy for first ion, spin component:            1
  1.992  -0.000   0.000   0.000  -0.000  -0.005  -0.000   0.000   0.006  -0.000  -0.000  -0.000   0.000  -0.000   0.004   0.000
 -0.000   1.992   0.000  -0.000   0.002  -0.000  -0.003   0.004  -0.000   0.012  -0.001  -0.001   0.001   0.004  -0.000   0.001
  0.000   0.000   1.992  -0.000   0.001   0.000   0.004  -0.004  -0.000   0.009   0.000  -0.001   0.004  -0.000   0.000   0.001
  0.000  -0.000  -0.000   1.995  -0.000   0.006  -0.000  -0.000   0.021  -0.000  -0.000  -0.000  -0.000   0.000   0.010  -0.000
 -0.000   0.002   0.001  -0.000   1.995  -0.000   0.012   0.009  -0.000   0.019   0.001   0.001   0.008   0.005  -0.000   0.001
 -0.005  -0.000   0.000   0.006  -0.000   0.052  -0.000   0.000   0.037   0.000  -0.001  -0.000   0.000  -0.000   0.038   0.000
 -0.000  -0.003   0.004  -0.000   0.012  -0.000   0.069   0.021  -0.000   0.060  -0.011  -0.001   0.005   0.030  -0.000   0.000
  0.000   0.004  -0.004  -0.000   0.009   0.000   0.021   0.057  -0.000   0.052  -0.021  -0.002   0.030  -0.010   0.001   0.001
  0.006  -0.000  -0.000   0.021  -0.000   0.037  -0.000  -0.000   0.197  -0.002  -0.004  -0.000  -0.000   0.002   0.067  -0.000
 -0.000   0.012   0.009  -0.000   0.019   0.000   0.060   0.052  -0.002   0.171   0.012   0.000   0.056   0.035  -0.000   0.002
 -0.000  -0.001   0.000  -0.000   0.001  -0.001  -0.011  -0.021  -0.004   0.012   0.996   0.054  -0.003   0.050   0.000  -0.000
 -0.000  -0.001  -0.001  -0.000   0.001  -0.000  -0.001  -0.002  -0.000   0.000   0.054   0.004  -0.001   0.002   0.000  -0.000
  0.000   0.001   0.004  -0.000   0.008   0.000   0.005   0.030  -0.000   0.056  -0.003  -0.001   0.816  -0.018  -0.002   0.027
 -0.000   0.004  -0.000   0.000   0.005  -0.000   0.030  -0.010   0.002   0.035   0.050   0.002  -0.018   0.767  -0.007  -0.001
  0.004  -0.000   0.000   0.010  -0.000   0.038  -0.000   0.001   0.067  -0.000   0.000   0.000  -0.002  -0.007   0.851  -0.000
  0.000   0.001   0.001  -0.000   0.001   0.000   0.000   0.001  -0.000   0.002  -0.000  -0.000   0.027  -0.001  -0.000   0.001
 -0.000   0.001   0.000   0.000   0.001  -0.000   0.001  -0.000   0.000   0.001   0.002   0.000  -0.001   0.024  -0.000  -0.000
  0.001  -0.000   0.000   0.002  -0.000   0.001  -0.000   0.000   0.002  -0.000   0.000   0.000  -0.000  -0.000   0.028  -0.000


------------------------ aborting loop because EDIFF is reached ----------------------------------------


    FORLOC:  cpu time      0.0115: real time      0.0115
    FORHF :  cpu time    589.8744: real time    589.7747
    FORNL :  cpu time      1.0260: real time      1.0258
    STRESS:  cpu time      3.1316: real time      3.1310
    FORCOR:  cpu time      1.4520: real time      1.4518
    OFIELD:  cpu time      0.0019: real time      0.0019

  FORCE on cell =-STRESS in cart. coord.  units (eV):
  Direction    XX          YY          ZZ          XY          YZ          ZX
  --------------------------------------------------------------------------------------
  Alpha Z  5496.83010  5496.83010  5496.83010
  Ewald  -24751.87109-32094.15199-31076.04556     2.28508 -1737.04285   -19.00773
  Hartree 14060.13327  9453.77749 10097.65168     2.02026 -1204.76962    -6.56155
  E(xc)   -4079.05207 -4082.25503 -4081.68596    -0.01274    -0.54109    -0.07228
  Local   -6141.84729  5644.40542  3951.81387    -4.53732  2906.45644    24.15418
  n-local  5865.15490  5807.22231  5828.53663     0.32695    -6.28866    -0.05847
  augment  5438.39797  5462.57732  5470.25238     0.17921     6.29273     0.79333
  Kinetic 12446.04006 12655.55784 12666.45857    -0.23703    41.01805     1.16771
  Fock    -8366.23973 -8372.64475 -8368.28716    -0.24110    -0.12901    -1.00319
  -------------------------------------------------------------------------------------
  Total     -32.45389   -28.68130   -14.47546    -0.21670     4.99600    -0.58800
  in kB     -40.98099   -36.21717   -18.27882    -0.27363     6.30868    -0.74250
  external pressure =      -31.83 kB  Pullay stress =        0.00 kB


 VOLUME and BASIS-vectors are now :
 -----------------------------------------------------------------------------
  energy-cutoff  :      450.00
  volume of cell :     1268.81
      direct lattice vectors                 reciprocal lattice vectors
     0.000000000 12.280473709  0.000000000     0.000000000  0.081430084 -0.019947422
     9.142701149  0.000000000  0.000000000     0.109376866 -0.000000000  0.000000000
     0.000000000 -2.768261641-11.300697481     0.000000000  0.000000000 -0.088490113

  length of vectors
    12.280473709  9.142701149 11.634819984     0.083837689  0.109376866  0.088490113


 FORCES acting on ions:
    Electron-Ion                     Ewald-Force                    Non-Local-Force
 -----------------------------------------------------------------------------------------------
   0.342E+01 0.538E+02 -.617E+02   -.338E+01 -.538E+02 0.649E+02   -.251E-01 0.144E-01 -.317E+01
   -.251E+01 0.403E+02 -.108E+03   0.249E+01 -.396E+02 0.114E+03   0.522E-02 -.527E+00 -.584E+01
   0.207E+01 0.598E+02 -.428E+02   0.226E+01 -.608E+02 0.434E+02   -.351E+01 0.847E+00 -.115E+01
   -.153E+02 0.344E+02 -.144E+03   0.202E+02 -.340E+02 0.152E+03   -.387E+01 -.320E+00 -.684E+01
   -.143E+01 0.664E+02 -.355E+02   -.249E+01 -.671E+02 0.367E+02   0.314E+01 0.666E+00 -.168E+01
   0.184E+02 0.364E+02 -.135E+03   -.234E+02 -.359E+02 0.143E+03   0.397E+01 -.321E+00 -.735E+01
   -.158E+02 -.227E+02 0.104E+03   0.159E+02 0.210E+02 -.108E+03   0.147E-01 0.134E+01 0.324E+01
   -.261E+01 -.364E+02 0.679E+02   0.307E+01 0.358E+02 -.721E+02   -.344E+00 0.408E+00 0.402E+01
   -.177E+01 0.905E+01 0.113E+03   0.169E+01 -.123E+02 -.116E+03   0.569E-01 0.232E+01 0.262E+01
   0.151E+01 -.413E+02 0.628E+02   -.140E+01 0.395E+02 -.663E+02   -.852E-01 0.144E+01 0.360E+01
   0.161E+02 -.210E+02 0.102E+03   -.163E+02 0.194E+02 -.105E+03   0.520E-01 0.131E+01 0.336E+01
   -.153E+00 -.376E+02 0.687E+02   -.421E+00 0.370E+02 -.728E+02   0.454E+00 0.421E+00 0.406E+01
   -.530E+02 -.414E+02 0.395E+02   0.572E+02 0.365E+02 -.400E+02   -.341E+01 0.415E+01 0.621E+00
   0.440E+00 -.496E+02 0.269E+02   -.315E+00 0.478E+02 -.288E+02   -.733E-01 0.166E+01 0.178E+01
   0.339E+00 -.318E+02 0.224E+02   -.320E+00 0.330E+02 -.251E+02   -.140E-01 -.988E+00 0.246E+01
   0.540E+02 -.442E+02 0.209E+02   -.583E+02 0.391E+02 -.221E+02   0.347E+01 0.428E+01 0.121E+01
   -.468E+00 -.491E+02 0.294E+02   0.332E+00 0.473E+02 -.313E+02   0.784E-01 0.165E+01 0.181E+01
   0.411E-01 0.522E+02 -.237E+02   -.724E-01 -.504E+02 0.250E+02   0.303E-01 -.170E+01 -.132E+01
   -.767E+00 0.587E+02 -.412E+02   0.770E+00 -.570E+02 0.434E+02   -.278E-02 -.159E+01 -.197E+01
   -.284E+01 0.507E+02 -.217E+02   0.270E+01 -.495E+02 0.229E+02   0.138E+00 -.118E+01 -.122E+01
   -.119E+02 0.725E+02 -.577E+02   0.122E+02 -.713E+02 0.591E+02   -.245E+00 -.128E+01 -.128E+01
   0.211E+01 0.519E+02 -.201E+02   -.201E+01 -.505E+02 0.215E+02   -.113E+00 -.132E+01 -.144E+01
   0.134E+02 0.723E+02 -.583E+02   -.138E+02 -.710E+02 0.597E+02   0.220E+00 -.133E+01 -.126E+01
   -.208E+01 0.356E+02 -.680E+02   0.235E+01 -.346E+02 0.717E+02   -.238E+00 -.747E+00 -.357E+01
   -.410E+01 0.468E+02 -.956E+02   0.424E+01 -.460E+02 0.100E+03   -.114E+00 -.599E+00 -.424E+01
   -.373E+00 0.302E+02 -.695E+02   0.417E+00 -.287E+02 0.730E+02   -.359E-01 -.115E+01 -.344E+01
   0.366E+00 0.482E+02 -.954E+02   -.356E+00 -.473E+02 0.999E+02   -.662E-02 -.753E+00 -.424E+01
   0.201E+01 0.330E+02 -.684E+02   -.236E+01 -.322E+02 0.721E+02   0.307E+00 -.593E+00 -.361E+01
   0.409E+01 0.493E+02 -.948E+02   -.422E+01 -.485E+02 0.992E+02   0.106E+00 -.626E+00 -.419E+01
   -.401E+00 -.569E+02 0.901E+02   0.361E+00 0.578E+02 -.950E+02   0.364E-01 -.823E+00 0.460E+01
   -.406E+00 -.497E+02 0.821E+02   0.381E+00 0.494E+02 -.864E+02   0.173E-01 0.254E+00 0.409E+01
   -.164E+02 -.961E+02 0.986E+02   0.175E+02 0.102E+03 -.104E+03   -.905E+00 -.445E+01 0.506E+01
   -.261E+01 -.434E+02 0.800E+02   0.298E+01 0.434E+02 -.845E+02   -.313E+00 -.251E-01 0.429E+01
   0.155E+02 -.100E+03 0.865E+02   -.167E+02 0.106E+03 -.924E+02   0.100E+01 -.428E+01 0.541E+01
   0.237E+01 -.427E+02 0.810E+02   -.276E+01 0.428E+02 -.857E+02   0.344E+00 -.374E-01 0.439E+01
   -.914E+00 -.486E+02 0.271E+02   0.943E+00 0.468E+02 -.289E+02   -.225E-01 0.165E+01 0.172E+01
   0.959E-01 -.421E+02 0.322E+02   -.111E+00 0.398E+02 -.336E+02   0.212E-01 0.201E+01 0.139E+01
   -.939E+00 -.471E+02 0.310E+02   0.103E+01 0.452E+02 -.326E+02   -.677E-01 0.171E+01 0.147E+01
   -.421E+01 -.433E+02 0.266E+02   0.424E+01 0.412E+02 -.283E+02   -.128E-01 0.188E+01 0.164E+01
   0.238E+01 -.453E+02 0.305E+02   -.243E+01 0.435E+02 -.320E+02   0.249E-01 0.166E+01 0.143E+01
   0.355E+01 -.441E+02 0.275E+02   -.363E+01 0.420E+02 -.292E+02   0.639E-01 0.188E+01 0.164E+01
   -.721E+01 0.396E+02 0.111E+01   0.813E+01 -.368E+02 -.313E+00   -.735E+00 -.240E+01 -.961E+00
   -.102E+02 0.326E+02 -.567E+02   0.111E+02 -.294E+02 0.589E+02   -.756E+00 -.275E+01 -.196E+01
   -.428E+01 0.277E+02 0.312E+02   0.422E+01 -.251E+02 -.307E+02   0.498E-01 -.219E+01 -.759E+00
   0.328E+01 0.515E+01 -.745E+02   -.332E+01 -.218E+01 0.772E+02   0.437E-01 -.232E+01 -.227E+01
   0.127E+02 0.377E+02 0.175E+01   -.134E+02 -.350E+02 -.106E+01   0.526E+00 -.232E+01 -.872E+00
   0.349E+01 0.328E+02 -.585E+02   -.481E+01 -.296E+02 0.605E+02   0.109E+01 -.273E+01 -.181E+01
   0.156E+01 -.179E+02 0.186E+02   -.169E+01 0.252E+02 -.224E+02   0.100E+00 -.629E+01 0.333E+01
   -.446E+01 -.123E+02 0.751E+01   0.460E+01 0.196E+02 -.110E+02   -.146E+00 -.618E+01 0.303E+01
   -.349E+00 -.172E+02 0.191E+02   0.373E+00 0.245E+02 -.230E+02   -.194E-01 -.627E+01 0.337E+01
   -.699E+00 -.114E+02 0.600E+01   0.814E+00 0.189E+02 -.961E+01   -.956E-01 -.638E+01 0.308E+01
   -.102E+01 -.183E+02 0.186E+02   0.112E+01 0.258E+02 -.225E+02   -.780E-01 -.637E+01 0.336E+01
   0.519E+01 -.126E+02 0.725E+01   -.548E+01 0.198E+02 -.107E+02   0.276E+00 -.615E+01 0.296E+01
   0.192E+01 0.114E+00 -.897E+01   -.211E+01 -.562E+01 0.122E+02   0.165E+00 0.470E+01 -.278E+01
   -.190E+00 0.158E+02 -.153E+02   0.183E+00 -.231E+02 0.191E+02   0.928E-02 0.628E+01 -.325E+01
   -.107E+03 -.459E+02 0.120E+01   0.116E+03 0.435E+02 0.352E+01   -.826E+01 0.135E+01 -.392E+01
   0.801E+00 0.152E+02 -.178E+02   -.736E+00 -.222E+02 0.218E+02   -.838E-01 0.595E+01 -.340E+01
   0.107E+03 -.440E+02 0.452E+01   -.116E+03 0.407E+02 -.375E+01   0.835E+01 0.209E+01 -.385E+00
   -.626E+00 0.163E+02 -.123E+02   0.555E+00 -.233E+02 0.157E+02   0.854E-01 0.604E+01 -.294E+01
   -.143E+02 0.806E+02 0.523E+02   0.151E+02 -.798E+02 -.482E+02   -.805E+00 -.607E+00 -.353E+01
   0.833E+00 0.625E+02 0.310E+02   -.104E+01 -.605E+02 -.264E+02   0.156E+00 -.180E+01 -.406E+01
   -.489E+01 0.149E+03 0.123E+03   0.497E+01 -.153E+03 -.123E+03   0.712E-02 0.476E+01 0.214E+01
   0.210E+00 0.578E+02 0.201E+02   -.794E-02 -.556E+02 -.134E+02   -.167E+00 -.196E+01 -.611E+01
   0.163E+02 0.835E+02 0.501E+02   -.169E+02 -.828E+02 -.457E+02   0.635E+00 -.548E+00 -.371E+01
   -.794E+01 0.621E+02 0.332E+02   0.911E+01 -.600E+02 -.287E+02   -.979E+00 -.185E+01 -.400E+01
   0.636E+00 -.601E+02 -.323E+02   -.611E+00 0.577E+02 0.276E+02   -.243E-01 0.215E+01 0.411E+01
   0.127E+00 -.607E+02 -.457E+02   -.260E+00 0.582E+02 0.413E+02   0.113E+00 0.222E+01 0.380E+01
   0.546E+00 -.526E+02 -.292E+02   -.582E+00 0.493E+02 0.249E+02   -.555E-01 0.301E+01 0.371E+01
   -.616E+01 -.591E+02 -.545E+02   0.655E+01 0.564E+02 0.502E+02   -.418E+00 0.243E+01 0.360E+01
   -.120E+01 -.525E+02 -.294E+02   0.135E+01 0.494E+02 0.252E+02   -.448E-01 0.281E+01 0.370E+01
   0.763E+01 -.589E+02 -.553E+02   -.814E+01 0.560E+02 0.512E+02   0.527E+00 0.266E+01 0.339E+01
   -.433E+00 0.130E+03 0.609E+02   0.424E+00 -.142E+03 -.571E+02   0.113E-01 0.110E+02 -.327E+01
   -.765E+00 0.123E+03 0.624E+02   0.847E+00 -.136E+03 -.589E+02   -.682E-01 0.110E+02 -.304E+01
   -.143E+02 0.150E+03 0.617E+02   0.144E+02 -.163E+03 -.579E+02   -.233E+00 0.116E+02 -.331E+01
   -.201E+00 0.121E+03 0.614E+02   0.456E+00 -.133E+03 -.580E+02   -.235E+00 0.109E+02 -.303E+01
   0.162E+02 0.148E+03 0.606E+02   -.166E+02 -.162E+03 -.568E+02   0.366E+00 0.115E+02 -.329E+01
   -.313E+00 0.121E+03 0.620E+02   0.174E+00 -.134E+03 -.584E+02   0.137E+00 0.109E+02 -.311E+01
   0.271E+01 -.122E+03 -.546E+02   -.313E+01 0.135E+03 0.507E+02   0.337E+00 -.110E+02 0.341E+01
   -.189E+02 -.116E+03 -.836E+02   0.197E+02 0.127E+03 0.812E+02   -.863E+00 -.103E+02 0.194E+01
   -.788E+00 -.126E+03 -.472E+02   0.714E+00 0.139E+03 0.422E+02   0.569E-01 -.114E+02 0.457E+01
   0.358E+01 -.780E+02 -.172E+03   -.334E+01 0.849E+02 0.175E+03   -.269E+00 -.601E+01 -.488E+01
   0.824E+00 -.121E+03 -.533E+02   -.852E+00 0.133E+03 0.493E+02   0.474E-01 -.110E+02 0.345E+01
   0.153E+02 -.120E+03 -.843E+02   -.162E+02 0.132E+03 0.820E+02   0.902E+00 -.107E+02 0.192E+01
   0.100E+01 -.207E+02 0.268E+02   -.930E+00 0.283E+02 -.305E+02   -.639E-01 -.650E+01 0.328E+01
   0.123E+00 -.248E+02 0.616E+01   -.261E+00 0.322E+02 -.101E+02   0.124E+00 -.648E+01 0.340E+01
   -.785E+01 -.216E+02 0.345E+02   0.793E+01 0.298E+02 -.380E+02   -.123E+00 -.716E+01 0.312E+01
   -.776E+01 -.295E+02 -.865E+01   0.816E+01 0.374E+02 0.512E+01   -.437E+00 -.700E+01 0.297E+01
   0.663E+01 -.188E+02 0.452E+02   -.667E+01 0.265E+02 -.498E+02   0.892E-01 -.672E+01 0.405E+01
   0.948E+01 -.273E+02 -.613E+00   -.999E+01 0.350E+02 -.388E+01   0.528E+00 -.682E+01 0.379E+01
   -.452E+01 0.216E+02 -.864E+01   0.485E+01 -.292E+02 0.120E+02   -.305E+00 0.654E+01 -.291E+01
   -.278E+00 0.191E+02 -.196E+02   0.222E+00 -.265E+02 0.237E+02   0.399E-01 0.643E+01 -.353E+01
   -.141E+00 0.281E+02 -.521E+01   0.166E+00 -.359E+02 0.832E+01   -.244E-01 0.678E+01 -.270E+01
   0.374E+00 0.193E+02 -.216E+02   -.408E+00 -.270E+02 0.258E+02   0.267E-01 0.666E+01 -.360E+01
   0.421E+01 0.223E+02 -.926E+01   -.449E+01 -.299E+02 0.127E+02   0.255E+00 0.659E+01 -.297E+01
   0.307E+00 0.185E+02 -.193E+02   -.292E+00 -.258E+02 0.234E+02   0.961E-03 0.640E+01 -.355E+01
   -.587E+00 0.582E+02 0.462E+02   0.639E+00 -.556E+02 -.419E+02   -.445E-01 -.236E+01 -.368E+01
   -.105E+00 0.688E+02 0.325E+02   0.105E+00 -.669E+02 -.278E+02   -.178E-02 -.172E+01 -.407E+01
   -.161E+00 0.489E+02 0.488E+02   0.269E+00 -.451E+02 -.449E+02   -.113E+00 -.335E+01 -.332E+01
   -.235E+01 0.682E+02 0.326E+02   0.239E+01 -.663E+02 -.279E+02   -.455E-01 -.167E+01 -.411E+01
   0.737E+00 0.480E+02 0.483E+02   -.876E+00 -.441E+02 -.446E+02   0.139E+00 -.344E+01 -.323E+01
   0.251E+01 0.683E+02 0.332E+02   -.259E+01 -.663E+02 -.285E+02   0.778E-01 -.168E+01 -.410E+01
   -.803E+01 -.726E+02 -.211E+02   0.868E+01 0.710E+02 0.155E+02   -.630E+00 0.126E+01 0.498E+01
   -.365E+01 -.687E+02 -.435E+02   0.396E+01 0.669E+02 0.389E+02   -.280E+00 0.145E+01 0.398E+01
   -.286E+01 -.864E+02 -.199E+02   0.297E+01 0.849E+02 0.148E+02   -.940E-01 0.109E+01 0.452E+01
   0.127E+01 -.714E+02 -.470E+02   -.135E+01 0.703E+02 0.431E+02   0.699E-01 0.871E+00 0.334E+01
   0.103E+02 -.744E+02 -.216E+02   -.109E+02 0.728E+02 0.161E+02   0.612E+00 0.132E+01 0.485E+01
   0.409E+01 -.681E+02 -.426E+02   -.457E+01 0.664E+02 0.381E+02   0.427E+00 0.142E+01 0.387E+01
   -.890E+01 0.110E+03 0.549E+02   0.957E+01 -.121E+03 -.506E+02   -.657E+00 0.101E+02 -.374E+01
   -.258E+01 0.121E+03 0.670E+02   0.277E+01 -.133E+03 -.638E+02   -.177E+00 0.109E+02 -.272E+01
   0.269E+01 0.104E+03 0.557E+02   -.284E+01 -.117E+03 -.518E+02   0.124E+00 0.115E+02 -.338E+01
   -.112E+01 0.120E+03 0.725E+02   0.117E+01 -.132E+03 -.701E+02   -.467E-01 0.105E+02 -.202E+01
   0.823E+01 0.112E+03 0.529E+02   -.903E+01 -.124E+03 -.484E+02   0.763E+00 0.104E+02 -.387E+01
   0.278E+01 0.120E+03 0.679E+02   -.288E+01 -.132E+03 -.646E+02   0.102E+00 0.108E+02 -.282E+01
   0.979E+00 -.120E+03 -.570E+02   -.997E+00 0.132E+03 0.531E+02   0.161E-01 -.109E+02 0.335E+01
   -.850E+00 -.123E+03 -.686E+02   0.840E+00 0.135E+03 0.651E+02   0.102E-01 -.109E+02 0.296E+01
   -.200E+01 -.122E+03 -.573E+02   0.206E+01 0.135E+03 0.536E+02   -.621E-01 -.108E+02 0.323E+01
   -.260E+00 -.121E+03 -.681E+02   0.271E+00 0.134E+03 0.648E+02   -.198E-01 -.108E+02 0.288E+01
   0.142E+01 -.123E+03 -.575E+02   -.150E+01 0.136E+03 0.539E+02   0.733E-01 -.108E+02 0.318E+01
   0.642E+00 -.121E+03 -.678E+02   -.602E+00 0.133E+03 0.644E+02   -.239E-01 -.109E+02 0.288E+01
   0.710E+00 -.332E+02 0.210E+02   -.312E+00 0.247E+02 -.194E+02   -.354E+00 0.857E+01 -.112E+01
 -----------------------------------------------------------------------------------------------
   0.249E+00 -.177E+00 0.380E+00   -.380E-12 -.782E-13 0.156E-12   -.233E+00 0.426E+00 -.447E+00
 
 
 POSITION                                       TOTAL-FORCE (eV/Angst)
 -----------------------------------------------------------------------------------
      9.13772      7.65578     -1.78023         0.003539      0.019276     -0.138393
      0.01387      6.26932     -7.40593        -0.001578      0.073493      0.211781
      3.04744      7.66265     -1.74809         0.480619     -0.082450     -0.430749
      3.05061      6.25283     -7.43842         0.660330      0.083917      0.572678
      6.07934      7.65947     -1.75740        -0.477996     -0.066424     -0.409167
      6.12484      6.24024     -7.45157        -0.672516      0.110659      0.604202
      1.52388      9.36910     -3.87425         0.094934     -0.241051      0.040209
      1.52445      7.99411     -9.52895         0.070918     -0.126395      0.083607
      4.56700      9.37373     -3.84255        -0.011385     -0.605091      0.188460
      4.57396      7.98206     -9.53694         0.010554     -0.242497      0.162555
      7.61347      9.36650     -3.87633        -0.092884     -0.235543      0.034316
      7.62220      7.99457     -9.53045        -0.072116     -0.132156      0.079714
      1.55689      6.14704     -4.47866         0.446584     -0.378898      0.086036
      1.52225      4.76611    -10.14550         0.038406     -0.007312      0.020526
      4.57039      4.75293    -10.13989         0.002711      0.156266     -0.014319
      7.57892      6.15221     -4.49923        -0.441201     -0.384231      0.066926
      7.61974      4.76445    -10.15197        -0.043792     -0.010564      0.013742
      9.14101     10.88366     -1.15916        -0.000229     -0.022607     -0.059510
      9.14267      9.48469     -6.80561         0.000057     -0.058582      0.043186
      3.04341     10.89849     -1.15846         0.008666     -0.100263     -0.074873
      3.05177      9.47778     -6.79565         0.061441     -0.183118      0.063408
      6.09737     10.89464     -1.16025        -0.014158     -0.100527     -0.076688
      6.09053      9.47054     -6.79736        -0.061974     -0.181188      0.066083
      1.52596      1.53427     -1.78366         0.012602      0.161991     -0.073982
      1.52451      0.12184     -7.41675         0.013906      0.077573      0.040241
      4.57226      1.53585     -1.78017         0.003065      0.200651     -0.085795
      4.57144      0.13043     -7.41355         0.002024      0.076431      0.038301
      7.61419      1.53472     -1.78649        -0.018902      0.154996     -0.074855
      7.61825      0.11882     -7.41706        -0.014910      0.079577      0.036268
      9.14157      3.25999     -3.88378         0.000572      0.121646     -0.086973
      9.14215      1.84006     -9.52277        -0.004421     -0.026711     -0.007781
      3.06670      3.29669     -3.88832         0.088991      0.686477     -0.178870
      3.05077      1.83987     -9.53076         0.027045      0.013048     -0.013957
      6.07543      3.29671     -3.89820        -0.094221      0.673675     -0.208610
      6.09177      1.84013     -9.52932        -0.026008      0.007772     -0.021078
      9.14103      0.00960     -4.48618         0.000187     -0.009535      0.017337
      0.00028     -1.36268    -10.15605         0.005553     -0.047678      0.013690
      3.04961      0.03119     -4.48402         0.014940     -0.020450      0.024273
      3.04899     -1.37099    -10.14668         0.012887     -0.045987      0.011182
      6.09226      0.02906     -4.48543        -0.020831     -0.016726      0.022505
      6.09502     -1.37182    -10.14669        -0.010077     -0.042488      0.008770
      1.51852      4.73338     -1.14460         0.104502      0.126268     -0.174607
      1.52521      3.34230     -6.80885         0.129678      0.202871      0.103085
      4.56735      4.75468     -1.16998        -0.003611      0.186072     -0.323266
      4.57754      3.36137     -6.79868         0.005748      0.346141      0.189803
      7.61929      4.73582     -1.14895        -0.106931      0.124479     -0.177917
      7.62939      3.33477     -6.80855        -0.127962      0.198557      0.088866
      1.51662     11.89803     -1.44334        -0.011465     -0.139346      0.131936
      1.52912     10.48598     -7.07619        -0.032062     -0.111492      0.081933
      4.57133     11.89692     -1.44389         0.000722     -0.132006      0.129875
      4.57250     10.48916     -7.07540         0.000670     -0.098198      0.077546
      7.62257     11.89708     -1.44550         0.010156     -0.147744      0.135890
      7.61232     10.48355     -7.07535         0.036044     -0.113245      0.076914
      9.13717      5.17321     -4.21616         0.005993      0.081052     -0.090715
      9.14216      3.75741     -9.86475         0.005273      0.136835     -0.114016
      3.10414      5.20850     -4.15969        -1.321620     -0.932290      0.046266
      3.04062      3.75470     -9.85536        -0.033536      0.109040     -0.109287
      6.02980      5.19165     -4.28098         1.315881     -0.897828      0.333681
      6.10085      3.75085     -9.87287         0.030012      0.114389     -0.106614
      1.51215      7.48930     -3.16043        -0.145635      0.132976     -0.016352
      1.52476      6.09407     -8.82351        -0.024965     -0.033761     -0.193506
      4.54440      7.48392     -3.05997         0.100122      1.295603      1.857208
      4.57355      6.09690     -8.85635         0.002250     -0.096179     -0.540144
      7.61338      7.48232     -3.16786         0.126522      0.138043     -0.020022
      7.63107      6.09348     -8.83234        -0.005924     -0.041897     -0.197182
      9.13669      9.56036     -2.48209        -0.002038      0.140660      0.167474
      0.00691      8.16465     -8.13208         0.000555      0.121572      0.045986
      3.03297      9.57655     -2.47953        -0.101754      0.283654      0.191351
      3.05123      8.16472     -8.13044        -0.112525      0.194960     -0.042726
      6.09951      9.56910     -2.48151         0.095859      0.280232      0.196939
      6.09921      8.16383     -8.13730         0.121358      0.205358     -0.056428
      9.14158      8.98575     -5.03468         0.004363      0.465487     -0.118506
      0.00108      7.60702    -10.69022         0.001934      0.433703     -0.093460
      3.06373      8.93547     -5.02699        -0.111824      0.564388     -0.160955
      3.04097      7.62112    -10.69182        -0.025113      0.444704     -0.112607
      6.07442      8.93905     -5.02534         0.107495      0.552993     -0.163818
      6.10408      7.61865    -10.69393         0.024820      0.447825     -0.119144
      1.51452      8.06122     -0.60825        -0.016886     -0.391911      0.154619
      1.53789      6.65331     -6.25934        -0.167177     -0.317425     -0.108878
      4.56970      8.08580     -0.57857        -0.006490     -0.400434      0.403873
      4.60165      6.55495     -6.33650        -0.095224     -0.262642     -2.865802
      7.61775      8.05603     -0.61533         0.028269     -0.391604      0.152357
      7.63071      6.66893     -6.27510         0.186941     -0.343989     -0.114039
      9.14121      5.74516     -1.42250        -0.006676     -0.231635      0.176361
      0.00373      4.34920     -7.10058         0.009980     -0.259053      0.084083
      3.03309      5.75075     -1.38656        -0.072195     -0.294055      0.272225
      3.04451      4.34052     -7.10420        -0.132225     -0.403837      0.018601
      6.10184      5.74425     -1.42625         0.069635     -0.281387      0.295583
      6.11361      4.32439     -7.13522         0.127196     -0.387000      0.040707
      1.52958     -0.99350     -4.21788        -0.034944      0.256354     -0.117059
      1.52117     -2.36942     -9.86125        -0.008730      0.233117     -0.150804
      4.57025     -0.99133     -4.21598        -0.004613      0.280963     -0.115478
      4.57210     -2.37676     -9.86009        -0.002597      0.259718     -0.158490
      7.61127     -0.99543     -4.21727         0.029517      0.258311     -0.122979
      7.62299     -2.37007     -9.86075         0.016630      0.240440     -0.152680
      9.14192      1.35165     -3.17900        -0.001225     -0.124092     -0.083948
      0.00061     -0.06049     -8.80997        -0.001861     -0.054721     -0.138674
      3.04607      1.36178     -3.17155        -0.028283     -0.171133     -0.067871
      3.05021     -0.05371     -8.81405        -0.009384     -0.048465     -0.134910
      6.09577      1.36063     -3.17384         0.026178     -0.171242     -0.061936
      6.09301     -0.05389     -8.81453         0.013653     -0.051499     -0.134693
      1.52094      3.42735     -2.48288        -0.096885     -0.109396      0.268716
      1.52047      2.01343     -8.12818        -0.029139     -0.050794      0.082870
      4.57489      3.42021     -2.47841        -0.003272     -0.163767      0.283908
      4.57115      2.02268     -8.12818         0.005462     -0.088660      0.039372
      7.61420      3.43214     -2.49079         0.094095     -0.110422      0.265999
      7.62669      2.00894     -8.13124         0.033584     -0.048711      0.075573
      1.53041      2.86949     -5.03145        -0.116735      0.243106     -0.139425
      1.51882      1.43741    -10.67867        -0.023618      0.376556     -0.009447
      4.56776      2.81575     -5.04277         0.003710      0.249471     -0.129879
      4.57209      1.45677    -10.69487        -0.006709      0.348632      0.032163
      7.61637      2.85365     -5.03446         0.119753      0.265329     -0.142012
      7.62089      1.44320    -10.68269         0.022717      0.365689     -0.023947
      9.14042      1.92291     -0.62252         0.001001     -0.428398      0.140295
      9.14245      0.51670     -6.25793         0.001655     -0.423726      0.050689
      3.04694      1.91336     -0.61348        -0.013088     -0.422162      0.139310
      3.04517      0.51986     -6.26061        -0.013391     -0.422223      0.054985
      6.09667      1.91358     -0.61321         0.012794     -0.425423      0.133574
      6.09751      0.52147     -6.26104         0.011751     -0.427272      0.048199
      4.55972      6.35760     -4.54967         0.032508      0.416537      0.241010
 -----------------------------------------------------------------------------------
    total drift:                                0.000628     -0.018063     -0.020061


--------------------------------------------------------------------------------------------------------



  FREE ENERGIE OF THE ION-ELECTRON SYSTEM (eV)
  ---------------------------------------------------
  free  energy   TOTEN  =      -957.26855180 eV

  energy  without entropy=     -957.26855180  energy(sigma->0) =     -957.26855180
 


--------------------------------------------------------------------------------------------------------


    POTLOK:  cpu time      2.0155: real time      2.0273


--------------------------------------------------------------------------------------------------------


 writing wavefunctions
     LOOP+:  cpu time  19790.0083: real time  19788.8329
    4ORBIT:  cpu time      0.0000: real time      0.0000

 total amount of memory used by VASP MPI-rank0  7490204. kBytes
=======================================================================

   base      :      30000. kBytes
   nonlr-proj:      47104. kBytes
   fftplans  :      51012. kBytes
   grid      :     102973. kBytes
   one-center:       1866. kBytes
   HF        :        194. kBytes
   wavefun   :    7027785. kBytes
   fock_wrk  :     229270. kBytes
 
  
  
 General timing and accounting informations for this job:
 ========================================================
  
                  Total CPU time used (sec):    19820.455
                            User time (sec):    19803.775
                          System time (sec):       16.680
                         Elapsed time (sec):    19822.662
  
                   Maximum memory used (kb):    12856576.
                   Average memory used (kb):          N/A
  
                          Minor page faults:      9211592
                          Major page faults:            3
                 Voluntary context switches:       406680
