Ga48 O72                                
    1.000000000000000     
     0.0000000000000000   12.2804734172212839    0.0000000000000000
     9.1427020537309431    0.0000000000000000    0.0000000000000000
     0.0000000000000000   -2.7682617730220320  -11.3006977184464645
   Ga   O    P 
    47    71     1
Direct
  0.6580567065641674  0.9980370501208782  0.1555378873908708
  0.6616004806906588  0.9986688390554264  0.6562180190295592
  0.6584798435342165  0.3302942726184313  0.1559633722286122
  0.6595561481756889  0.3318805601942643  0.6574473479094536
  0.6580508491174157  0.6646519342926567  0.1559297700627553
  0.6616338579573195  0.6649566483896479  0.6563958183861729
  0.8438852738045242  0.1639022668882575  0.3414508164638690
  0.8418981490498112  0.1623036110199223  0.8450268445807154
  0.8398458654555014  0.5008219877180338  0.3411339547276171
  0.8422868644126567  0.4975174374454028  0.8436291571788814
  0.8419880669703304  0.8339164771847720  0.3425879573229693
  0.8414181451657896  0.8299866878753335  0.8454208790799882
  0.5925894819033672  0.1642378924352954  0.3972716869612185
  0.5912485612571885  0.1638758293576927  0.8968125692443465
  0.5918621598985609  0.4970863363138349  0.3979140509050865
  0.5929997715035071  0.5014346421586779  0.8976443409349883
  0.5908293754510723  0.8312873489347155  0.3970217800126576
  0.5889246007153375  0.8322498973693087  0.8961353283812556
  0.9110320322159779  0.9961103817347166  0.1043723745806702
  0.9092300262456803  0.0088620052488082  0.6020560048598043
  0.9093067920948741  0.3303540325773113  0.1017872983574861
  0.8999953961258242  0.3509416693722969  0.5991045242193636
  0.9092517803655298  0.6630098811643705  0.1024477053770312
  0.9094208360035907  0.6799826775185807  0.6015175983390151
  0.1590422823074320  0.1598859528941148  0.1590306785502023
  0.1599316035065854  0.4964512696030141  0.1552665816757255
  0.1557436098295781  0.5203073726175802  0.6566757746079901
  0.1595103178009580  0.8301815277115523  0.1586885543757077
  0.1609595903858363  0.8667503529106000  0.6281934422377518
  0.3404122183052678  0.9970786278297652  0.3425756658462760
  0.3369079058292854  0.0012774602707353  0.8376123962136930
  0.3417009905046697  0.3293971921423591  0.3436116191797964
  0.3472002369882432  0.3294798520091220  0.8394608458143225
  0.3412852886728217  0.6629715824814681  0.3419513661220748
  0.3376186050440992  0.6664428962179656  0.8408544853438755
  0.1072990821712452  0.9857917805763492  0.4230175493863015
  0.0939409451915267  0.9885573436311503  0.8961633414842041
  0.0856264381270364  0.3257675682530419  0.3906671885878623
  0.0896532048682133  0.3230970872065555  0.8981093697930547
  0.0875824964464442  0.6650364574991485  0.3931167298806031
  0.0918412581104064  0.6602196288133158  0.8977310338622644
  0.4068777859262127  0.1640433269556709  0.0999892308102446
  0.4128978586282557  0.1651008507941185  0.6039120158422193
  0.4075338510054891  0.4957955659978097  0.0989554449786851
  0.4095058840052062  0.4987072953635305  0.6014809112528070
  0.4085718659063318  0.8305022441160830  0.1001461827987811
  0.4138249888865388  0.8310316955997550  0.6010489457839370
  0.9967701984836168  0.1640716463762359  0.1291110411765004
  0.9964879770065238  0.1857607503927383  0.6278300444030194
  0.9971882119125581  0.4965475735563629  0.1270388511643361
  0.9935911304393841  0.5106998700514609  0.6270529902110340
  0.9967685228868532  0.8288427771721629  0.1246358308764997
  0.9984868261932576  0.8450245810164674  0.6258038394004615
  0.5038049229644486  0.9986119545312704  0.3730949326460831
  0.5023575019648092  0.9987811671351352  0.8720996637274823
  0.5041348231002871  0.3304753430662757  0.3737939837018942
  0.5080628365767907  0.3337787125470655  0.8737018964785150
  0.5043015503837367  0.6634152068183141  0.3728839771132115
  0.5014703541825440  0.6648829728721353  0.8689491657342856
  0.6733112316858652  0.1650050069444688  0.2798162834485325
  0.6737938990914358  0.1648210018000142  0.7804371723826193
  0.6721476820485393  0.4976019992840790  0.2796819111557269
  0.6741844482662600  0.4997879873291708  0.7802873124615388
  0.6725128208935516  0.8318892717618454  0.2799106123748274
  0.6736472151140234  0.8325968949568221  0.7807619257530760
  0.8265762014408580  0.9980910734459272  0.2186466287029987
  0.8295115651577305  0.0016870167755059  0.7193829384841166
  0.8286730472321437  0.3297634292491622  0.2192535320646058
  0.8274276254964477  0.3331293272056470  0.7205180890055161
  0.8264269403570310  0.6634716499550706  0.2180750364667716
  0.8288149679027157  0.6679158772801941  0.7195435849718024
  0.8320736960342145  0.0025023454372999  0.4465291056753813
  0.8330553682789343  0.9965928123801504  0.9472412123341627
  0.8322667997788997  0.3333184861999285  0.4426759017940469
  0.8336690768807813  0.3297995932412974  0.9453546569476288
  0.8321965293702220  0.6680351630671950  0.4450389443146818
  0.8319499160408412  0.6618597429701083  0.9460326860854238
  0.6680265636274498  0.1642929768871113  0.0535044185608342
  0.6700326015841682  0.1661771537754859  0.5540624211294443
  0.6685356615337383  0.4979763488680575  0.0543791980538444
  0.6719550815650095  0.4975675652735774  0.5539304657274755
  0.6661045163590344  0.8307047286628517  0.0529935363760146
  0.6693339537644860  0.8316201344742780  0.5535757462133120
  0.4953288381064240  0.9981580659239171  0.1266235329780940
  0.5000260859010197  0.9981867625625611  0.6257189121054623
  0.4957850488942483  0.3298557323151456  0.1263406955371451
  0.4984604267207118  0.3337297683394311  0.6256470159918663
  0.4952136831229765  0.6625370700376152  0.1251264515892672
  0.4989877632592581  0.6631862397345643  0.6267796521996800
  0.0087700021032475  0.1535176612288183  0.3809000201517350
  0.0044940977558525  0.1563821714154301  0.8708152534615081
  0.0027872808868352  0.4953639405286907  0.3716985611652888
  0.0051548893614424  0.4918580509538799  0.8717042743955830
  0.0011479738216593  0.8311997427441042  0.3648589496824215
  0.0025380207139207  0.8252763501326115  0.8728078666072605
  0.1731662640085077  0.9953994957481882  0.2838438143355972
  0.1738934147468498  0.9849233768429997  0.7808429992181658
  0.1729042904981810  0.3298861616460727  0.2807489149832847
  0.1621108395921027  0.3183084893507839  0.7658197728113478
  0.1731898176512416  0.6621319927945706  0.2796634364168540
  0.1742097194154439  0.6584218834418110  0.7839292050160083
  0.3278351973063849  0.1639172549837227  0.2201872595225822
  0.3384799499863291  0.1701826264638697  0.7239205514380203
  0.3278470297056231  0.4951440182847264  0.2183815915994245
  0.3239936370348460  0.4959753957544706  0.7152744026114775
  0.3285173461645172  0.8291198133648479  0.2186769058734512
  0.3248585544333977  0.8361852102120437  0.7105378312501927
  0.3298130892264126  0.1637089954252033  0.4486312597380859
  0.3285760989900766  0.1675555372033344  0.9436154761502493
  0.3309824712098219  0.4962325402333434  0.4454790214792013
  0.3308297960639237  0.4929653139378019  0.9413576924297402
  0.3353843268253840  0.8299502897123219  0.4452571232599709
  0.3345361531189681  0.8320106477654790  0.9431234096874519
  0.1676775147998271  0.9954950362046375  0.0546391271151307
  0.1676414775910686  0.3273811436642688  0.0536935557684046
  0.1507566052353368  0.3389011268495139  0.5577392103157948
  0.1691302508205084  0.6630499789608137  0.0542034269985834
  0.1656722995466211  0.6713618377831594  0.5495516630160893
  0.1399498066554585  0.1985281695442893  0.6477800150191229
 
  0.00000000E+00  0.00000000E+00  0.00000000E+00
  0.00000000E+00  0.00000000E+00  0.00000000E+00
  0.00000000E+00  0.00000000E+00  0.00000000E+00
  0.00000000E+00  0.00000000E+00  0.00000000E+00
  0.00000000E+00  0.00000000E+00  0.00000000E+00
  0.00000000E+00  0.00000000E+00  0.00000000E+00
  0.00000000E+00  0.00000000E+00  0.00000000E+00
  0.00000000E+00  0.00000000E+00  0.00000000E+00
  0.00000000E+00  0.00000000E+00  0.00000000E+00
  0.00000000E+00  0.00000000E+00  0.00000000E+00
  0.00000000E+00  0.00000000E+00  0.00000000E+00
  0.00000000E+00  0.00000000E+00  0.00000000E+00
  0.00000000E+00  0.00000000E+00  0.00000000E+00
  0.00000000E+00  0.00000000E+00  0.00000000E+00
  0.00000000E+00  0.00000000E+00  0.00000000E+00
  0.00000000E+00  0.00000000E+00  0.00000000E+00
  0.00000000E+00  0.00000000E+00  0.00000000E+00
  0.00000000E+00  0.00000000E+00  0.00000000E+00
  0.00000000E+00  0.00000000E+00  0.00000000E+00
  0.00000000E+00  0.00000000E+00  0.00000000E+00
  0.00000000E+00  0.00000000E+00  0.00000000E+00
  0.00000000E+00  0.00000000E+00  0.00000000E+00
  0.00000000E+00  0.00000000E+00  0.00000000E+00
  0.00000000E+00  0.00000000E+00  0.00000000E+00
  0.00000000E+00  0.00000000E+00  0.00000000E+00
  0.00000000E+00  0.00000000E+00  0.00000000E+00
  0.00000000E+00  0.00000000E+00  0.00000000E+00
  0.00000000E+00  0.00000000E+00  0.00000000E+00
  0.00000000E+00  0.00000000E+00  0.00000000E+00
  0.00000000E+00  0.00000000E+00  0.00000000E+00
  0.00000000E+00  0.00000000E+00  0.00000000E+00
  0.00000000E+00  0.00000000E+00  0.00000000E+00
  0.00000000E+00  0.00000000E+00  0.00000000E+00
  0.00000000E+00  0.00000000E+00  0.00000000E+00
  0.00000000E+00  0.00000000E+00  0.00000000E+00
  0.00000000E+00  0.00000000E+00  0.00000000E+00
  0.00000000E+00  0.00000000E+00  0.00000000E+00
  0.00000000E+00  0.00000000E+00  0.00000000E+00
  0.00000000E+00  0.00000000E+00  0.00000000E+00
  0.00000000E+00  0.00000000E+00  0.00000000E+00
  0.00000000E+00  0.00000000E+00  0.00000000E+00
  0.00000000E+00  0.00000000E+00  0.00000000E+00
  0.00000000E+00  0.00000000E+00  0.00000000E+00
  0.00000000E+00  0.00000000E+00  0.00000000E+00
  0.00000000E+00  0.00000000E+00  0.00000000E+00
  0.00000000E+00  0.00000000E+00  0.00000000E+00
  0.00000000E+00  0.00000000E+00  0.00000000E+00
  0.00000000E+00  0.00000000E+00  0.00000000E+00
  0.00000000E+00  0.00000000E+00  0.00000000E+00
  0.00000000E+00  0.00000000E+00  0.00000000E+00
  0.00000000E+00  0.00000000E+00  0.00000000E+00
  0.00000000E+00  0.00000000E+00  0.00000000E+00
  0.00000000E+00  0.00000000E+00  0.00000000E+00
  0.00000000E+00  0.00000000E+00  0.00000000E+00
  0.00000000E+00  0.00000000E+00  0.00000000E+00
  0.00000000E+00  0.00000000E+00  0.00000000E+00
  0.00000000E+00  0.00000000E+00  0.00000000E+00
  0.00000000E+00  0.00000000E+00  0.00000000E+00
  0.00000000E+00  0.00000000E+00  0.00000000E+00
  0.00000000E+00  0.00000000E+00  0.00000000E+00
  0.00000000E+00  0.00000000E+00  0.00000000E+00
  0.00000000E+00  0.00000000E+00  0.00000000E+00
  0.00000000E+00  0.00000000E+00  0.00000000E+00
  0.00000000E+00  0.00000000E+00  0.00000000E+00
  0.00000000E+00  0.00000000E+00  0.00000000E+00
  0.00000000E+00  0.00000000E+00  0.00000000E+00
  0.00000000E+00  0.00000000E+00  0.00000000E+00
  0.00000000E+00  0.00000000E+00  0.00000000E+00
  0.00000000E+00  0.00000000E+00  0.00000000E+00
  0.00000000E+00  0.00000000E+00  0.00000000E+00
  0.00000000E+00  0.00000000E+00  0.00000000E+00
  0.00000000E+00  0.00000000E+00  0.00000000E+00
  0.00000000E+00  0.00000000E+00  0.00000000E+00
  0.00000000E+00  0.00000000E+00  0.00000000E+00
  0.00000000E+00  0.00000000E+00  0.00000000E+00
  0.00000000E+00  0.00000000E+00  0.00000000E+00
  0.00000000E+00  0.00000000E+00  0.00000000E+00
  0.00000000E+00  0.00000000E+00  0.00000000E+00
  0.00000000E+00  0.00000000E+00  0.00000000E+00
  0.00000000E+00  0.00000000E+00  0.00000000E+00
  0.00000000E+00  0.00000000E+00  0.00000000E+00
  0.00000000E+00  0.00000000E+00  0.00000000E+00
  0.00000000E+00  0.00000000E+00  0.00000000E+00
  0.00000000E+00  0.00000000E+00  0.00000000E+00
  0.00000000E+00  0.00000000E+00  0.00000000E+00
  0.00000000E+00  0.00000000E+00  0.00000000E+00
  0.00000000E+00  0.00000000E+00  0.00000000E+00
  0.00000000E+00  0.00000000E+00  0.00000000E+00
  0.00000000E+00  0.00000000E+00  0.00000000E+00
  0.00000000E+00  0.00000000E+00  0.00000000E+00
  0.00000000E+00  0.00000000E+00  0.00000000E+00
  0.00000000E+00  0.00000000E+00  0.00000000E+00
  0.00000000E+00  0.00000000E+00  0.00000000E+00
  0.00000000E+00  0.00000000E+00  0.00000000E+00
  0.00000000E+00  0.00000000E+00  0.00000000E+00
  0.00000000E+00  0.00000000E+00  0.00000000E+00
  0.00000000E+00  0.00000000E+00  0.00000000E+00
  0.00000000E+00  0.00000000E+00  0.00000000E+00
  0.00000000E+00  0.00000000E+00  0.00000000E+00
  0.00000000E+00  0.00000000E+00  0.00000000E+00
  0.00000000E+00  0.00000000E+00  0.00000000E+00
  0.00000000E+00  0.00000000E+00  0.00000000E+00
  0.00000000E+00  0.00000000E+00  0.00000000E+00
  0.00000000E+00  0.00000000E+00  0.00000000E+00
  0.00000000E+00  0.00000000E+00  0.00000000E+00
  0.00000000E+00  0.00000000E+00  0.00000000E+00
  0.00000000E+00  0.00000000E+00  0.00000000E+00
  0.00000000E+00  0.00000000E+00  0.00000000E+00
  0.00000000E+00  0.00000000E+00  0.00000000E+00
  0.00000000E+00  0.00000000E+00  0.00000000E+00
  0.00000000E+00  0.00000000E+00  0.00000000E+00
  0.00000000E+00  0.00000000E+00  0.00000000E+00
  0.00000000E+00  0.00000000E+00  0.00000000E+00
  0.00000000E+00  0.00000000E+00  0.00000000E+00
  0.00000000E+00  0.00000000E+00  0.00000000E+00
  0.00000000E+00  0.00000000E+00  0.00000000E+00
  0.00000000E+00  0.00000000E+00  0.00000000E+00
  0.00000000E+00  0.00000000E+00  0.00000000E+00
  0.00000000E+00  0.00000000E+00  0.00000000E+00
