       N       E                     dE             d eps       ncg     rms          ort
SDA:   1    -0.947083309495E+03   -0.94708E+03    0.00000E+00  5040   0.261E+02 0.000E+00
CGA:   2    -0.952117842854E+03   -0.50345E+01   -0.50365E+01  5040   0.790E+01 0.155E+00
CGA:   3    -0.954804371277E+03   -0.26865E+01   -0.25927E+01  5040   0.438E+01 0.611E+00
CGA:   4    -0.955447901328E+03   -0.64353E+00   -0.64245E+00  5040   0.124E+01 0.103E+00
CGA:   5    -0.955875893329E+03   -0.42799E+00   -0.41903E+00  5040   0.770E+00 0.603E-01
CGA:   6    -0.956068337189E+03   -0.19244E+00   -0.33826E+00  5040   0.122E+01-0.491E+00
CGA:   7    -0.956224197980E+03   -0.15586E+00   -0.15679E+00  5040   0.153E+00 0.397E-03
CGA:   8    -0.956266346608E+03   -0.42149E-01   -0.42121E-01  5040   0.832E-01 0.443E-03
CGA:   9    -0.956289003651E+03   -0.22657E-01   -0.22609E-01  5040   0.470E-01 0.577E-03
CGA:  10    -0.956270648984E+03    0.18355E-01   -0.17963E-01  5040   0.790E+00-0.243E+00
CGA:  11    -0.956303763736E+03   -0.33115E-01   -0.71770E-01  5040   0.191E+00-0.273E+00
CGA:  12    -0.956319773076E+03   -0.16009E-01   -0.13826E-01  5040   0.103E-01 0.936E-02
CGA:  13    -0.956324187278E+03   -0.44142E-02   -0.44951E-02  5040   0.302E-01-0.380E-03
CGA:  14    -0.956328891547E+03   -0.47043E-02   -0.47159E-02  5040   0.254E-01 0.434E-04
CGA:  15    -0.956333551474E+03   -0.46599E-02   -0.46571E-02  5040   0.121E-01 0.559E-05
CGA:  16    -0.956336820461E+03   -0.32690E-02   -0.32503E-02  5040   0.150E-01 0.299E-03
CGA:  17    -0.956338691629E+03   -0.18712E-02   -0.18637E-02  5040   0.816E-02 0.639E-04
CGA:  18    -0.956339805724E+03   -0.11141E-02   -0.11310E-02  5040   0.190E-02 0.601E-05
CGA:  19    -0.956340108083E+03   -0.30236E-03   -0.30286E-03  5040   0.141E-02-0.310E-05
CGA:  20    -0.956340292144E+03   -0.18406E-03   -0.18249E-03  5040   0.535E-03-0.147E-04
CGA:  21    -0.956340374812E+03   -0.82668E-04   -0.82252E-04  5040   0.230E-03-0.803E-05
CGA:  22    -0.956340414856E+03   -0.40043E-04   -0.39879E-04  5040   0.157E-03-0.587E-05
CGA:  23    -0.956340437333E+03   -0.22477E-04   -0.22115E-04  5040   0.100E-03-0.562E-05
CGA:  24    -0.956340452284E+03   -0.14951E-04   -0.14894E-04  5040   0.550E-04-0.127E-05
CGA:  25    -0.956340462264E+03   -0.99805E-05   -0.99956E-05  5040   0.398E-04 0.104E-05
   1 F= -.95634046E+03 E0= -.95633388E+03  d E =-.131591E-01
