Ga8 O12                                 
    1.000000000000000     
     0.0000000000000000   12.2804737091000007    0.0000000000000000
     9.1427011490000005    0.0000000000000000    0.0000000000000000
     0.0000000000000000   -2.7682616411000001  -11.3006974810000003
   Ga   O    Cu   N 
    47    71     1     1
Direct
  0.6593397454053396 -0.0004401508506770  0.1569236124200241
  0.6585249942414194  0.0010483341780653  0.6561991303173622
  0.6603970912240975  0.3326255715010877  0.1563513439986071
  0.6591943024667019  0.3342038272326668  0.6563168246928295
  0.6590896453690831  0.6658623083546310  0.1567493981856139
  0.6588399607742724  0.6672274380514563  0.6562683647664309
  0.8410125654930781  0.1669309551678638  0.3441127734444479
  0.8407966427151438  0.1664408691866932  0.8430356543157012
  0.8413849373864309  0.4998880827410700  0.3438521304744828
  0.8408888455325091  0.5000563814312905  0.8433839557741607
  0.8407429520462524  0.8335317918928314  0.3438613319948808
  0.8408157484095118  0.8330930301694474  0.8432522474061747
  0.5887096431779621  0.1694828954202549  0.3965074865375745
  0.5917630495247737  0.1663922622000867  0.8976122472099868
  0.5902139339625321  0.5029065229844588  0.3971466801227007
  0.5914120978843803  0.4996518900697535  0.8980478560861462
  0.5914337390651223  0.8357284588735131  0.3979997432735417
  0.5916641188914368  0.8329877877540227  0.8979299209264804
  0.9077537770113019 -0.0000947263373265  0.1021496802471131
  0.9092455307646586 -0.0000003610261454  0.6026065364246888
  0.9095491415635962  0.3334285432096423  0.1025287564046503
  0.9095115623297952  0.3334338697318088  0.6026889963639608
  0.9093658653894533  0.6660752694292108  0.1028785628287673
  0.9094048466164499  0.6668693352685814  0.6028054095444397
  0.1583198326066853  0.1649889062363978  0.1552982056583073
  0.1596588255812176  0.1663158106021062  0.6576047917601950
  0.1604168166716325  0.4991841832501910  0.1567428105911685
  0.1596422291941120  0.5001181904059454  0.6580466834326857
  0.1582694308165871  0.8330042916516459  0.1577912252732570
  0.1599416190398704  0.8334770471952424  0.6568554193005949
  0.3408035748949612  0.0006925420801218  0.3421791935985756
  0.3419987005545286 -0.0006778318864955  0.8424286803733176
  0.3417425720792436  0.3332342915429584  0.8441510496834210
  0.3402711739713503  0.6649997225419684  0.3418958218644204
  0.3419664912421534  0.6654609745576970  0.8450166158579214
  0.0910814704717152  0.0005097242097140  0.3973999563935321
  0.0910886034006173 -0.0008708431206006  0.8970568024748232
  0.0925585776840979  0.3332830608423870  0.4004719925181321
  0.0900125738439141  0.3323005528391974  0.8969031684810407
  0.0904125137389586  0.6675596092821010  0.3981064273696016
  0.0914437903780252  0.6660694541218060  0.8977674634863141
  0.4103383904851997  0.1651435212683305  0.1010108013211200
  0.4080016915684077  0.1686299345701952  0.5996934744037349
  0.4090144611078854  0.4953850708548267  0.1068848124154032
  0.4088396728684380  0.4995005351547208  0.6026292428207398
  0.4093427865666940  0.8311483623183106  0.1021879791734899
  0.4086930843497200  0.8336555963921551  0.6014719884493992
  0.9958994165228665  0.1660003004385624  0.1276489149418138
  0.9968124752642148  0.1665792556367608  0.6272473212918532
  0.9976467229574176  0.4996468816184144  0.1280952181271854
  0.9968573612948842  0.5002110033675196  0.6277735858126019
  0.9954162286552064  0.8337230519358396  0.1265048868725441
  0.9970735966310180  0.8334954196630857  0.6277097976379454
  0.5032093975655479  0.0016810461410640  0.3717694718561064
  0.5044470403607124 -0.0002698515605188  0.8724027200021882
  0.5008750418436185  0.3371197629791837  0.3725372711851981
  0.5043797920737080  0.3328207806692805  0.8722916268879480
  0.5043254875496258  0.6697717634809486  0.3756350962753289
  0.5043430300270902  0.6664754699874130  0.8726725824724632
  0.6722675984619065  0.1674344619505598  0.2809192371437520
  0.6726445518330330  0.1668879966533106  0.7798432841048382
  0.6725535728357078  0.4997394007387911  0.2807173336867531
  0.6726512388197029  0.5001613654105759  0.7803372753951084
  0.6727641528036448  0.8333985127239287  0.2807018963536979
  0.6723549574051068  0.8335533902721501  0.7801127221847707
  0.8272916580151336  0.0003754520953908  0.2201561129336204
  0.8271614907758326  0.0002245816257149  0.7191634449210768
  0.8280737997072741  0.3333451761153553  0.2199137795545296
  0.8275662284259797  0.3334963294805662  0.7193967007792371
  0.8277866184874625  0.6661686081683534  0.2200777382342396
  0.8273735918208532  0.6668671221832607  0.7194651018290091
  0.8319369009546780  0.0003450756936762  0.4462457362662991
  0.8315753808728192 -0.0002036682423985  0.9453727267615886
  0.8324672400668722  0.3335460460810021  0.4462493497002919
  0.8326752499843354  0.3331467127269974  0.9458567572960135
  0.8325206746947039  0.6666116737023895  0.4462430452207140
  0.8324361666172811  0.6663835121735753  0.9460907310307393
  0.6693203351887468  0.1654800748388501  0.0540991482273294
  0.6664979665490077  0.1681529646038726  0.5530103009939354
  0.6692438779141244  0.4995840118733337  0.0543104008324634
  0.6678945511696152  0.5005567788980416  0.5537613951399379
  0.6684897029181019  0.8326580218250899  0.0545701036929781
  0.6682265866841688  0.8346426232257907  0.5545651151395065
  0.4969981230455558 -0.0018469522237222  0.1268714730361642
  0.4953969498349852  0.0013359265247093  0.6254838416830102
  0.4987619905575839  0.3302475683040037  0.1257454790072386
  0.4965976332460081  0.3339637720429490  0.6268051136708775
  0.4966352101919464  0.6644022811180157  0.1269874373878634
  0.4960244405288180  0.6666084883301732  0.6268819152720272
  0.0038981521167794  0.1674152187921050  0.3733676119350355
  0.0030545763991934  0.1652351893433681  0.8715916630572432
  0.0043723073110396  0.4994313053780782  0.3735313857198060
  0.0035327648206543  0.4999186294320984  0.8725973273951765
  0.0029489677698515  0.8344679036974343  0.3738501150336659
  0.0036249518909008  0.8325192675260603  0.8724965596148607
  0.1722338041192227  0.0006948639821076  0.2800174962510669
  0.1730402243071324 -0.0003640063087406  0.7802908015103408
  0.1721660517266859  0.3293567719659355  0.2813768883231901
  0.1730334480224220  0.3329874644379802  0.7813304191667523
  0.1692681290546540  0.6722026110256792  0.2804340550974995
  0.1733858631328025  0.6663168804554441  0.7811852067878519
  0.3266374365470185  0.1647941873476569  0.2165451526295073
  0.3280984384493104  0.1668240958845571  0.7187564339945719
  0.3280761989537450  0.4998426363059144  0.7206377531478743
  0.3273423082184976  0.8347239293421009  0.2186148544206322
  0.3280017466825267  0.8330122528975148  0.7194234560006640
  0.3309520570115752  0.1704327757530155  0.4422470190815275
  0.3326040051536951  0.1654686880092392  0.9449500469585290
  0.3246113579600897  0.5013924271316346  0.4480549067372955
  0.3345605086056319  0.4987586163722049  0.9476624127036692
  0.3320961266066210  0.8338505438116084  0.4447566521569354
  0.3329355212784254  0.8331521915137644  0.9454976927856785
  0.1673148268093046 -0.0014484238115243  0.0537411847050277
  0.1688303048221365  0.0003993814469299  0.5539308155389804
  0.1648931833835203  0.3307991761071532  0.0532656841051421
  0.1684343343106381  0.3332574281342330  0.5563371240483391
  0.1687069821891305  0.6670659035325270  0.0543633100047108
  0.1680690687847304  0.6665426700759631  0.5547089154647220
  0.3379081050468632  0.3371661937339525  0.3366191417409828
  0.3249805969969856  0.4988181398669322  0.2247714725779740
 
  0.00000000E+00  0.00000000E+00  0.00000000E+00
  0.00000000E+00  0.00000000E+00  0.00000000E+00
  0.00000000E+00  0.00000000E+00  0.00000000E+00
  0.00000000E+00  0.00000000E+00  0.00000000E+00
  0.00000000E+00  0.00000000E+00  0.00000000E+00
  0.00000000E+00  0.00000000E+00  0.00000000E+00
  0.00000000E+00  0.00000000E+00  0.00000000E+00
  0.00000000E+00  0.00000000E+00  0.00000000E+00
  0.00000000E+00  0.00000000E+00  0.00000000E+00
  0.00000000E+00  0.00000000E+00  0.00000000E+00
  0.00000000E+00  0.00000000E+00  0.00000000E+00
  0.00000000E+00  0.00000000E+00  0.00000000E+00
  0.00000000E+00  0.00000000E+00  0.00000000E+00
  0.00000000E+00  0.00000000E+00  0.00000000E+00
  0.00000000E+00  0.00000000E+00  0.00000000E+00
  0.00000000E+00  0.00000000E+00  0.00000000E+00
  0.00000000E+00  0.00000000E+00  0.00000000E+00
  0.00000000E+00  0.00000000E+00  0.00000000E+00
  0.00000000E+00  0.00000000E+00  0.00000000E+00
  0.00000000E+00  0.00000000E+00  0.00000000E+00
  0.00000000E+00  0.00000000E+00  0.00000000E+00
  0.00000000E+00  0.00000000E+00  0.00000000E+00
  0.00000000E+00  0.00000000E+00  0.00000000E+00
  0.00000000E+00  0.00000000E+00  0.00000000E+00
  0.00000000E+00  0.00000000E+00  0.00000000E+00
  0.00000000E+00  0.00000000E+00  0.00000000E+00
  0.00000000E+00  0.00000000E+00  0.00000000E+00
  0.00000000E+00  0.00000000E+00  0.00000000E+00
  0.00000000E+00  0.00000000E+00  0.00000000E+00
  0.00000000E+00  0.00000000E+00  0.00000000E+00
  0.00000000E+00  0.00000000E+00  0.00000000E+00
  0.00000000E+00  0.00000000E+00  0.00000000E+00
  0.00000000E+00  0.00000000E+00  0.00000000E+00
  0.00000000E+00  0.00000000E+00  0.00000000E+00
  0.00000000E+00  0.00000000E+00  0.00000000E+00
  0.00000000E+00  0.00000000E+00  0.00000000E+00
  0.00000000E+00  0.00000000E+00  0.00000000E+00
  0.00000000E+00  0.00000000E+00  0.00000000E+00
  0.00000000E+00  0.00000000E+00  0.00000000E+00
  0.00000000E+00  0.00000000E+00  0.00000000E+00
  0.00000000E+00  0.00000000E+00  0.00000000E+00
  0.00000000E+00  0.00000000E+00  0.00000000E+00
  0.00000000E+00  0.00000000E+00  0.00000000E+00
  0.00000000E+00  0.00000000E+00  0.00000000E+00
  0.00000000E+00  0.00000000E+00  0.00000000E+00
  0.00000000E+00  0.00000000E+00  0.00000000E+00
  0.00000000E+00  0.00000000E+00  0.00000000E+00
  0.00000000E+00  0.00000000E+00  0.00000000E+00
  0.00000000E+00  0.00000000E+00  0.00000000E+00
  0.00000000E+00  0.00000000E+00  0.00000000E+00
  0.00000000E+00  0.00000000E+00  0.00000000E+00
  0.00000000E+00  0.00000000E+00  0.00000000E+00
  0.00000000E+00  0.00000000E+00  0.00000000E+00
  0.00000000E+00  0.00000000E+00  0.00000000E+00
  0.00000000E+00  0.00000000E+00  0.00000000E+00
  0.00000000E+00  0.00000000E+00  0.00000000E+00
  0.00000000E+00  0.00000000E+00  0.00000000E+00
  0.00000000E+00  0.00000000E+00  0.00000000E+00
  0.00000000E+00  0.00000000E+00  0.00000000E+00
  0.00000000E+00  0.00000000E+00  0.00000000E+00
  0.00000000E+00  0.00000000E+00  0.00000000E+00
  0.00000000E+00  0.00000000E+00  0.00000000E+00
  0.00000000E+00  0.00000000E+00  0.00000000E+00
  0.00000000E+00  0.00000000E+00  0.00000000E+00
  0.00000000E+00  0.00000000E+00  0.00000000E+00
  0.00000000E+00  0.00000000E+00  0.00000000E+00
  0.00000000E+00  0.00000000E+00  0.00000000E+00
  0.00000000E+00  0.00000000E+00  0.00000000E+00
  0.00000000E+00  0.00000000E+00  0.00000000E+00
  0.00000000E+00  0.00000000E+00  0.00000000E+00
  0.00000000E+00  0.00000000E+00  0.00000000E+00
  0.00000000E+00  0.00000000E+00  0.00000000E+00
  0.00000000E+00  0.00000000E+00  0.00000000E+00
  0.00000000E+00  0.00000000E+00  0.00000000E+00
  0.00000000E+00  0.00000000E+00  0.00000000E+00
  0.00000000E+00  0.00000000E+00  0.00000000E+00
  0.00000000E+00  0.00000000E+00  0.00000000E+00
  0.00000000E+00  0.00000000E+00  0.00000000E+00
  0.00000000E+00  0.00000000E+00  0.00000000E+00
  0.00000000E+00  0.00000000E+00  0.00000000E+00
  0.00000000E+00  0.00000000E+00  0.00000000E+00
  0.00000000E+00  0.00000000E+00  0.00000000E+00
  0.00000000E+00  0.00000000E+00  0.00000000E+00
  0.00000000E+00  0.00000000E+00  0.00000000E+00
  0.00000000E+00  0.00000000E+00  0.00000000E+00
  0.00000000E+00  0.00000000E+00  0.00000000E+00
  0.00000000E+00  0.00000000E+00  0.00000000E+00
  0.00000000E+00  0.00000000E+00  0.00000000E+00
  0.00000000E+00  0.00000000E+00  0.00000000E+00
  0.00000000E+00  0.00000000E+00  0.00000000E+00
  0.00000000E+00  0.00000000E+00  0.00000000E+00
  0.00000000E+00  0.00000000E+00  0.00000000E+00
  0.00000000E+00  0.00000000E+00  0.00000000E+00
  0.00000000E+00  0.00000000E+00  0.00000000E+00
  0.00000000E+00  0.00000000E+00  0.00000000E+00
  0.00000000E+00  0.00000000E+00  0.00000000E+00
  0.00000000E+00  0.00000000E+00  0.00000000E+00
  0.00000000E+00  0.00000000E+00  0.00000000E+00
  0.00000000E+00  0.00000000E+00  0.00000000E+00
  0.00000000E+00  0.00000000E+00  0.00000000E+00
  0.00000000E+00  0.00000000E+00  0.00000000E+00
  0.00000000E+00  0.00000000E+00  0.00000000E+00
  0.00000000E+00  0.00000000E+00  0.00000000E+00
  0.00000000E+00  0.00000000E+00  0.00000000E+00
  0.00000000E+00  0.00000000E+00  0.00000000E+00
  0.00000000E+00  0.00000000E+00  0.00000000E+00
  0.00000000E+00  0.00000000E+00  0.00000000E+00
  0.00000000E+00  0.00000000E+00  0.00000000E+00
  0.00000000E+00  0.00000000E+00  0.00000000E+00
  0.00000000E+00  0.00000000E+00  0.00000000E+00
  0.00000000E+00  0.00000000E+00  0.00000000E+00
  0.00000000E+00  0.00000000E+00  0.00000000E+00
  0.00000000E+00  0.00000000E+00  0.00000000E+00
  0.00000000E+00  0.00000000E+00  0.00000000E+00
  0.00000000E+00  0.00000000E+00  0.00000000E+00
  0.00000000E+00  0.00000000E+00  0.00000000E+00
  0.00000000E+00  0.00000000E+00  0.00000000E+00
  0.00000000E+00  0.00000000E+00  0.00000000E+00
  0.00000000E+00  0.00000000E+00  0.00000000E+00
  0.00000000E+00  0.00000000E+00  0.00000000E+00
