       N       E                     dE             d eps       ncg     rms          ort
SDA:   1    -0.715904855530E+03   -0.71590E+03    0.00000E+00   693   0.482E+03 0.000E+00
CGA:   2    -0.869287976126E+03   -0.15338E+03   -0.15416E+03   693   0.252E+03-0.231E+01
CGA:   3    -0.923812842484E+03   -0.54525E+02   -0.54459E+02   693   0.651E+02 0.814E+01
CGA:   4    -0.944498403056E+03   -0.20686E+02   -0.20178E+02   693   0.207E+02 0.376E+01
CGA:   5    -0.950470213439E+03   -0.59718E+01   -0.59598E+01   693   0.793E+01 0.131E+00
CGA:   6    -0.953346574165E+03   -0.28764E+01   -0.28769E+01   693   0.375E+01-0.270E-02
CGA:   7    -0.954415464083E+03   -0.10689E+01   -0.10726E+01   693   0.134E+01-0.459E-01
CGA:   8    -0.954817165967E+03   -0.40170E+00   -0.40437E+00   693   0.434E+00-0.276E-01
CGA:   9    -0.954921759366E+03   -0.10459E+00   -0.10469E+00   693   0.155E+00-0.354E-02
CGA:  10    -0.954958462052E+03   -0.36703E-01   -0.36708E-01   693   0.539E-01-0.248E-03
CGA:  11    -0.954972500836E+03   -0.14039E-01   -0.14039E-01   693   0.204E-01 0.559E-04
CGA:  12    -0.954981366203E+03   -0.88654E-02   -0.88970E-02   693   0.930E-01-0.150E-03
CGA:  13    -0.955197788026E+03   -0.21642E+00    0.29039E-02   693   0.831E+01 0.656E+00
CGA:  14    -0.956023797347E+03   -0.82601E+00   -0.12730E+01   693   0.253E+00 0.157E+00
CGA:  15    -0.956175209815E+03   -0.15141E+00   -0.13959E+00   693   0.208E+00 0.361E-01
CGA:  16    -0.956229006369E+03   -0.53797E-01   -0.53926E-01   693   0.770E-01 0.186E-02
CGA:  17    -0.956259111799E+03   -0.30105E-01   -0.29719E-01   693   0.272E-01 0.237E-02
CGA:  18    -0.956267925612E+03   -0.88138E-02   -0.87944E-02   693   0.106E-01 0.252E-03
CGA:  19    -0.956270796897E+03   -0.28713E-02   -0.28709E-02   693   0.318E-02 0.282E-04
CGA:  20    -0.956271777116E+03   -0.98022E-03   -0.98146E-03   693   0.120E-02-0.272E-04
CGA:  21    -0.956272148745E+03   -0.37163E-03   -0.37148E-03   693   0.484E-03 0.311E-05
CGA:  22    -0.956272288819E+03   -0.14007E-03   -0.13996E-03   693   0.193E-03 0.492E-05
CGA:  23    -0.956272351429E+03   -0.62609E-04   -0.62732E-04   693   0.910E-04-0.223E-05
CGA:  24    -0.956272379030E+03   -0.27602E-04   -0.27642E-04   693   0.419E-04-0.107E-05
CGA:  25    -0.956272390188E+03   -0.11157E-04   -0.11158E-04   693   0.194E-04 0.205E-06
CGA:  26    -0.956272395445E+03   -0.52569E-05   -0.52573E-05   693   0.831E-05 0.203E-06
   1 F= -.95627240E+03 E0= -.95627240E+03  d E =-.886477E-19  mag=    -1.0000
