 running    4 mpi-ranks, on    1 nodes
 distrk:  each k-point on    1 cores,    4 groups
 distr:  one band on    1 cores,    1 groups
 OpenACC runtime initialized ...    4 GPUs detected
 vasp.6.4.2 20Jul23 (build Nov 12 2023 22:16:35) complex                         
 POSCAR found type information on POSCAR GaO Fe
 POSCAR found :  3 types and     120 ions
 scaLAPACK will be used selectively (only on CPU)
 LDA part: xc-table for Pade appr. of Perdew
 found WAVECAR, reading the header
 POSCAR, INCAR and KPOINTS ok, starting setup
 FFT: planning ... GRIDC
 FFT: planning ... GRID_SOFT
 FFT: planning ... GRID
 reading WAVECAR
 the WAVECAR file was read successfully
 charge-density read from file: unknown                                 
 initial charge from wavefunction
 entering main loop
       N       E                     dE             d eps       ncg     rms          ort
 gam= 0.000 g(H,U,f)=  0.226E+02 0.361E+01 0.253E+01 ort(H,U,f) = 0.000E+00 0.000E+00 0.000E+00
SDA:   1    -0.954206371441E+03   -0.95421E+03    0.00000E+00  5040   0.287E+02 0.000E+00
 gam= 0.000 trial= 0.400  step= 0.377 mean= 0.400
 gam= 0.251 g(H,U,f)=  0.450E+01 0.270E+01 0.188E-03 ort(H,U,f) =-0.172E+01 0.280E+01 0.106E-03
CGA:   2    -0.959585649467E+03   -0.53793E+01   -0.54067E+01  5040   0.720E+01 0.108E+01
 gam= 0.251 trial= 0.399  step= 0.795 mean= 0.399
 gam= 0.259 g(H,U,f)=  0.125E+01 0.619E+00 0.152E-05 ort(H,U,f) =-0.971E+00 0.140E+01 0.711E-06
CGA:   3    -0.962641052674E+03   -0.30554E+01   -0.29670E+01  5040   0.187E+01 0.426E+00
 gam= 0.259 trial= 0.419  step= 0.510 mean= 0.419
 gam= 0.604 g(H,U,f)=  0.874E+00 0.254E+00 0.124E-04 ort(H,U,f) =-0.538E+00 0.570E+00 0.662E-05
CGA:   4    -0.963147121868E+03   -0.50607E+00   -0.50404E+00  5040   0.113E+01 0.315E-01
 gam= 0.604 trial= 0.423  step= 0.526 mean= 0.423
 gam= 0.278 g(H,U,f)=  0.263E+00 0.516E-01 0.587E-05 ort(H,U,f) =-0.221E+00 0.243E+00 0.140E-04
CGA:   5    -0.963450648200E+03   -0.30353E+00   -0.30190E+00  5040   0.314E+00 0.219E-01
 gam= 0.278 trial= 0.428  step= 0.520 mean= 0.428
 gam= 0.456 g(H,U,f)=  0.130E+00 0.128E-01 0.164E-05 ort(H,U,f) =-0.448E-01 0.469E-01 0.567E-05
CGA:   6    -0.963534093768E+03   -0.83446E-01   -0.83302E-01  5040   0.143E+00 0.218E-02
 gam= 0.456 trial= 0.433  step= 0.424 mean= 0.433
 gam= 0.228 g(H,U,f)=  0.274E-01 0.525E-02 0.172E-05 ort(H,U,f) =-0.163E-01 0.168E-01 0.460E-05
CGA:   7    -0.963564634065E+03   -0.30540E-01   -0.30544E-01  5040   0.326E-01 0.482E-03
 gam= 0.228 trial= 0.432  step= 0.453 mean= 0.432
 gam= 0.465 g(H,U,f)=  0.124E-01 0.275E-02 0.741E-06 ort(H,U,f) =-0.618E-02 0.621E-02 0.188E-05
CGA:   8    -0.963572049619E+03   -0.74156E-02   -0.74151E-02  5040   0.152E-01 0.328E-04
 gam= 0.465 trial= 0.434  step= 0.444 mean= 0.434
 gam= 0.428 g(H,U,f)=  0.499E-02 0.150E-02 0.172E-06 ort(H,U,f) =-0.370E-02 0.378E-02 0.789E-06
CGA:   9    -0.963575419077E+03   -0.33695E-02   -0.33690E-02  5040   0.649E-02 0.820E-04
 gam= 0.428 trial= 0.434  step= 0.547 mean= 0.434
 gam= 0.622 g(H,U,f)=  0.313E-02 0.902E-03 0.170E-07 ort(H,U,f) =-0.194E-02 0.203E-02 0.775E-07
CGA:  10    -0.963577207301E+03   -0.17882E-02   -0.17831E-02  5040   0.403E-02 0.888E-04
 gam= 0.622 trial= 0.440  step= 0.569 mean= 0.440
 gam= 0.684 g(H,U,f)=  0.213E-02 0.625E-03 0.193E-06 ort(H,U,f) =-0.128E-02 0.132E-02-0.321E-06
CGA:  11    -0.963578372262E+03   -0.11650E-02   -0.11622E-02  5040   0.276E-02 0.427E-04
 gam= 0.684 trial= 0.446  step= 0.575 mean= 0.446
 gam= 0.871 g(H,U,f)=  0.177E-02 0.627E-03 0.560E-06 ort(H,U,f) =-0.100E-02 0.104E-02-0.590E-07
CGA:  12    -0.963579174623E+03   -0.80236E-03   -0.80026E-03  5040   0.240E-02 0.326E-04
 gam= 0.871 trial= 0.453  step= 0.736 mean= 0.453
 gam= 1.277 g(H,U,f)=  0.226E-02 0.808E-03 0.103E-05 ort(H,U,f) =-0.115E-02 0.119E-02 0.748E-06
CGA:  13    -0.963580073983E+03   -0.89936E-03   -0.89403E-03  5040   0.307E-02 0.378E-04
 gam= 1.277 trial= 0.467  step= 1.058 mean= 0.467
 gam= 2.436 g(H,U,f)=  0.603E-02 0.143E-02 0.279E-05 ort(H,U,f) =-0.204E-02 0.205E-02 0.367E-05
CGA:  14    -0.963581724677E+03   -0.16507E-02   -0.16472E-02  5040   0.747E-02 0.974E-05
 gam= 2.436 trial= 0.496  step= 1.183 mean= 0.496
 gam= 3.114 g(H,U,f)=  0.191E-01 0.410E-02 0.997E-05 ort(H,U,f) =-0.614E-02 0.541E-02 0.255E-04
CGA:  15    -0.963585943504E+03   -0.42188E-02   -0.44295E-02  5040   0.233E-01-0.698E-03
 gam= 3.114 trial= 0.531  step= 0.557 mean= 0.531
 gam= 1.545 g(H,U,f)=  0.237E-01 0.122E-01 0.175E-04 ort(H,U,f) =-0.107E-01 0.710E-02 0.106E-03
CGA:  16    -0.963591729988E+03   -0.57865E-02   -0.58704E-02  5040   0.359E-01-0.349E-02
 gam= 1.545 trial= 0.532  step= 0.226 mean= 0.532
 gam= 1.030 g(H,U,f)=  0.190E-01 0.180E-01 0.205E-04 ort(H,U,f) =-0.373E-02 0.523E-02 0.168E-03
CGA:  17    -0.963595500194E+03   -0.37702E-02   -0.34480E-02  5040   0.370E-01 0.166E-02
 gam= 1.030 trial= 0.517  step= 0.225 mean= 0.517
 gam= 0.976 g(H,U,f)=  0.161E-01 0.200E-01 0.227E-04 ort(H,U,f) =-0.493E-02 0.557E-02 0.172E-03
CGA:  18    -0.963600019827E+03   -0.45196E-02   -0.43604E-02  5040   0.361E-01 0.810E-03
 gam= 0.976 trial= 0.502  step= 0.228 mean= 0.502
 gam= 1.058 g(H,U,f)=  0.198E-01 0.184E-01 0.224E-04 ort(H,U,f) =-0.746E-02 0.761E-02 0.164E-03
CGA:  19    -0.963604294055E+03   -0.42742E-02   -0.42099E-02  5040   0.382E-01 0.317E-03
 gam= 1.058 trial= 0.488  step= 0.212 mean= 0.488
 gam= 0.936 g(H,U,f)=  0.192E-01 0.165E-01 0.187E-04 ort(H,U,f) =-0.593E-02 0.599E-02 0.158E-03
CGA:  20    -0.963608417389E+03   -0.41233E-02   -0.40822E-02  5040   0.357E-01 0.216E-03
 gam= 0.936 trial= 0.475  step= 0.197 mean= 0.475
 gam= 0.866 g(H,U,f)=  0.153E-01 0.156E-01 0.132E-04 ort(H,U,f) =-0.426E-02 0.429E-02 0.129E-03
CGA:  21    -0.963611977768E+03   -0.35604E-02   -0.35315E-02  5040   0.309E-01 0.159E-03
 gam= 0.866 trial= 0.461  step= 0.195 mean= 0.461
 gam= 0.900 g(H,U,f)=  0.130E-01 0.149E-01 0.800E-05 ort(H,U,f) =-0.482E-02 0.487E-02 0.917E-04
CGA:  22    -0.963615029955E+03   -0.30522E-02   -0.30291E-02  5040   0.278E-01 0.140E-03
 gam= 0.900 trial= 0.447  step= 0.197 mean= 0.447
 gam= 0.936 g(H,U,f)=  0.119E-01 0.141E-01 0.401E-05 ort(H,U,f) =-0.554E-02 0.563E-02 0.610E-04
CGA:  23    -0.963617799734E+03   -0.27698E-02   -0.27490E-02  5040   0.260E-01 0.157E-03
 gam= 0.936 trial= 0.435  step= 0.196 mean= 0.435
 gam= 0.971 g(H,U,f)=  0.111E-01 0.142E-01 0.139E-05 ort(H,U,f) =-0.599E-02 0.613E-02 0.332E-04
CGA:  24    -0.963620389595E+03   -0.25899E-02   -0.25727E-02  5040   0.253E-01 0.177E-03
 gam= 0.971 trial= 0.423  step= 0.204 mean= 0.423
 gam= 1.073 g(H,U,f)=  0.118E-01 0.154E-01 0.262E-06 ort(H,U,f) =-0.743E-02 0.762E-02 0.382E-05
CGA:  25    -0.963622997725E+03   -0.26081E-02   -0.25922E-02  5040   0.271E-01 0.194E-03
 gam= 1.073 trial= 0.412  step= 0.215 mean= 0.412
 gam= 1.155 g(H,U,f)=  0.141E-01 0.172E-01 0.143E-05 ort(H,U,f) =-0.101E-01 0.104E-01-0.329E-04
CGA:  26    -0.963625976451E+03   -0.29787E-02   -0.29433E-02  5040   0.313E-01 0.294E-03
 gam= 1.155 trial= 0.402  step= 0.208 mean= 0.402
 gam= 1.122 g(H,U,f)=  0.163E-01 0.188E-01 0.585E-05 ort(H,U,f) =-0.125E-01 0.133E-01-0.772E-04
CGA:  27    -0.963629381615E+03   -0.34052E-02   -0.32897E-02  5040   0.351E-01 0.723E-03
 gam= 1.122 trial= 0.392  step= 0.183 mean= 0.392
 gam= 1.076 g(H,U,f)=  0.176E-01 0.202E-01 0.121E-04 ort(H,U,f) =-0.116E-01 0.134E-01-0.106E-03
CGA:  28    -0.963632905861E+03   -0.35242E-02   -0.32806E-02  5040   0.378E-01 0.174E-02
 gam= 1.076 trial= 0.382  step= 0.155 mean= 0.382
 gam= 1.048 g(H,U,f)=  0.182E-01 0.214E-01 0.177E-04 ort(H,U,f) =-0.651E-02 0.925E-02-0.102E-03
CGA:  29    -0.963636275246E+03   -0.33694E-02   -0.30740E-02  5040   0.396E-01 0.264E-02
 gam= 1.048 trial= 0.371  step= 0.134 mean= 0.371
 gam= 1.018 g(H,U,f)=  0.177E-01 0.226E-01 0.212E-04 ort(H,U,f) = 0.759E-03 0.175E-02-0.713E-04
CGA:  30    -0.963639354434E+03   -0.30792E-02   -0.28478E-02  5040   0.403E-01 0.244E-02
 gam= 1.018 trial= 0.359  step= 0.120 mean= 0.359
 gam= 0.974 g(H,U,f)=  0.159E-01 0.234E-01 0.227E-04 ort(H,U,f) = 0.719E-02-0.574E-02-0.297E-04
CGA:  31    -0.963642039466E+03   -0.26850E-02   -0.25635E-02  5040   0.393E-01 0.142E-02
 gam= 0.974 trial= 0.347  step= 0.111 mean= 0.347
 gam= 0.000 g(H,U,f)=  0.133E-01 0.236E-01 0.226E-04 ort(H,U,f) = 0.984E-02-0.933E-02 0.873E-05
SDA:  32    -0.963644333741E+03   -0.22943E-02   -0.22511E-02  5040   0.369E-01 0.518E-03
 gam= 0.000 trial= 0.335  step= 1.273 mean= 0.335
 gam= 1.633 g(H,U,f)=  0.472E-01 0.131E-01 0.986E-05 ort(H,U,f) =-0.159E-01 0.159E-01 0.144E-04
CGA:  33    -0.963667855481E+03   -0.23522E-01   -0.23489E-01  5040   0.603E-01 0.576E-04
 gam= 1.633 trial= 0.382  step= 0.654 mean= 0.382
 gam= 0.717 g(H,U,f)=  0.381E-01 0.510E-02 0.184E-05 ort(H,U,f) =-0.192E-01 0.196E-01 0.129E-04
CGA:  34    -0.963687669928E+03   -0.19814E-01   -0.19749E-01  5040   0.432E-01 0.443E-03
 gam= 0.717 trial= 0.396  step= 0.395 mean= 0.396
 gam= 0.572 g(H,U,f)=  0.213E-01 0.345E-02 0.804E-06 ort(H,U,f) =-0.111E-01 0.111E-01 0.406E-05
CGA:  35    -0.963696275385E+03   -0.86055E-02   -0.86055E-02  5040   0.247E-01 0.453E-04
 gam= 0.572 trial= 0.395  step= 0.470 mean= 0.395
 gam= 0.760 g(H,U,f)=  0.157E-01 0.306E-02 0.805E-06 ort(H,U,f) =-0.643E-02 0.644E-02 0.741E-06
CGA:  36    -0.963702091893E+03   -0.58165E-02   -0.58158E-02  5040   0.188E-01 0.850E-05
 gam= 0.760 trial= 0.399  step= 0.489 mean= 0.399
 gam= 0.746 g(H,U,f)=  0.114E-01 0.266E-02 0.735E-06 ort(H,U,f) =-0.579E-02 0.582E-02 0.207E-06
CGA:  37    -0.963706690531E+03   -0.45986E-02   -0.45974E-02  5040   0.140E-01 0.249E-04
 gam= 0.746 trial= 0.404  step= 0.553 mean= 0.404
 gam= 0.894 g(H,U,f)=  0.102E-01 0.235E-02 0.560E-06 ort(H,U,f) =-0.554E-02 0.557E-02 0.440E-06
CGA:  38    -0.963710571345E+03   -0.38808E-02   -0.38793E-02  5040   0.125E-01 0.224E-04
 gam= 0.894 trial= 0.411  step= 0.620 mean= 0.411
 gam= 1.012 g(H,U,f)=  0.107E-01 0.201E-02 0.305E-06 ort(H,U,f) =-0.597E-02 0.592E-02 0.871E-06
CGA:  39    -0.963714458341E+03   -0.38870E-02   -0.38925E-02  5040   0.127E-01-0.464E-04
 gam= 1.012 trial= 0.422  step= 0.647 mean= 0.422
 gam= 1.004 g(H,U,f)=  0.111E-01 0.159E-02 0.736E-07 ort(H,U,f) =-0.608E-02 0.600E-02 0.825E-06
CGA:  40    -0.963718535178E+03   -0.40768E-02   -0.40864E-02  5040   0.127E-01-0.771E-04
 gam= 1.004 trial= 0.433  step= 0.654 mean= 0.433
 gam= 0.858 g(H,U,f)=  0.967E-02 0.125E-02 0.297E-06 ort(H,U,f) =-0.487E-02 0.483E-02 0.271E-06
CGA:  41    -0.963722669319E+03   -0.41341E-02   -0.41390E-02  5040   0.109E-01-0.401E-04
 gam= 0.858 trial= 0.444  step= 0.598 mean= 0.444
 gam= 0.772 g(H,U,f)=  0.737E-02 0.107E-02 0.635E-06 ort(H,U,f) =-0.323E-02 0.321E-02 0.524E-06
CGA:  42    -0.963725924592E+03   -0.32553E-02   -0.32571E-02  5040   0.843E-02-0.191E-04
 gam= 0.772 trial= 0.452  step= 0.549 mean= 0.452
 gam= 0.635 g(H,U,f)=  0.457E-02 0.785E-03 0.683E-06 ort(H,U,f) =-0.211E-02 0.211E-02 0.108E-05
CGA:  43    -0.963728233248E+03   -0.23087E-02   -0.23089E-02  5040   0.535E-02-0.271E-05
 gam= 0.635 trial= 0.457  step= 0.539 mean= 0.457
 gam= 0.595 g(H,U,f)=  0.271E-02 0.470E-03 0.549E-06 ort(H,U,f) =-0.131E-02 0.130E-02 0.117E-05
CGA:  44    -0.963729674129E+03   -0.14409E-02   -0.14413E-02  5040   0.318E-02-0.918E-05
 gam= 0.595 trial= 0.461  step= 0.560 mean= 0.461
 gam= 0.548 g(H,U,f)=  0.147E-02 0.272E-03 0.322E-06 ort(H,U,f) =-0.755E-03 0.753E-03 0.916E-06
CGA:  45    -0.963730563366E+03   -0.88924E-03   -0.88929E-03  5040   0.175E-02-0.123E-05
 gam= 0.548 trial= 0.466  step= 0.587 mean= 0.466
 gam= 0.609 g(H,U,f)=  0.906E-03 0.158E-03 0.110E-06 ort(H,U,f) =-0.415E-03 0.423E-03 0.478E-06
CGA:  46    -0.963731076525E+03   -0.51316E-03   -0.51263E-03  5040   0.106E-02 0.874E-05
 gam= 0.609 trial= 0.472  step= 0.570 mean= 0.472
 gam= 0.620 g(H,U,f)=  0.556E-03 0.104E-03 0.166E-07 ort(H,U,f) =-0.253E-03 0.259E-03 0.146E-06
CGA:  47    -0.963731381515E+03   -0.30499E-03   -0.30469E-03  5040   0.660E-03 0.607E-05
 gam= 0.620 trial= 0.477  step= 0.556 mean= 0.477
 gam= 0.699 g(H,U,f)=  0.383E-03 0.775E-04 0.273E-08 ort(H,U,f) =-0.174E-03 0.179E-03-0.166E-07
CGA:  48    -0.963731566245E+03   -0.18473E-03   -0.18454E-03  5040   0.461E-03 0.469E-05
 gam= 0.699 trial= 0.481  step= 0.546 mean= 0.481
 gam= 0.701 g(H,U,f)=  0.263E-03 0.598E-04 0.145E-07 ort(H,U,f) =-0.140E-03 0.144E-03-0.632E-07
CGA:  49    -0.963731693110E+03   -0.12687E-03   -0.12675E-03  5040   0.323E-03 0.363E-05
 gam= 0.701 trial= 0.484  step= 0.582 mean= 0.484
 gam= 0.770 g(H,U,f)=  0.207E-03 0.420E-04 0.299E-07 ort(H,U,f) =-0.110E-03 0.114E-03-0.450E-07
CGA:  50    -0.963731788013E+03   -0.94902E-04   -0.94715E-04  5040   0.249E-03 0.383E-05
 gam= 0.770 trial= 0.489  step= 0.592 mean= 0.489
 gam= 0.780 g(H,U,f)=  0.168E-03 0.258E-04 0.336E-07 ort(H,U,f) =-0.844E-04 0.863E-04-0.592E-08
CGA:  51    -0.963731862530E+03   -0.74517E-04   -0.74422E-04  5040   0.194E-03 0.187E-05
 gam= 0.780 trial= 0.494  step= 0.536 mean= 0.494
 gam= 0.706 g(H,U,f)=  0.122E-03 0.147E-04 0.237E-07 ort(H,U,f) =-0.583E-04 0.576E-04 0.225E-07
CGA:  52    -0.963731914922E+03   -0.52392E-04   -0.52405E-04  5040   0.137E-03-0.588E-06
 gam= 0.706 trial= 0.496  step= 0.515 mean= 0.496
 gam= 0.635 g(H,U,f)=  0.784E-04 0.861E-05 0.118E-07 ort(H,U,f) =-0.335E-04 0.319E-04 0.265E-07
CGA:  53    -0.963731950096E+03   -0.35174E-04   -0.35190E-04  5040   0.870E-04-0.164E-05
 gam= 0.635 trial= 0.497  step= 0.500 mean= 0.497
 gam= 0.573 g(H,U,f)=  0.448E-04 0.507E-05 0.428E-08 ort(H,U,f) =-0.178E-04 0.163E-04 0.170E-07
CGA:  54    -0.963731971611E+03   -0.21516E-04   -0.21518E-04  5040   0.498E-04-0.150E-05
 gam= 0.573 trial= 0.497  step= 0.514 mean= 0.497
 gam= 0.570 g(H,U,f)=  0.251E-04 0.325E-05 0.825E-09 ort(H,U,f) =-0.976E-05 0.842E-05 0.613E-08
CGA:  55    -0.963731984200E+03   -0.12588E-04   -0.12600E-04  5040   0.284E-04-0.133E-05
 gam= 0.570 trial= 0.498  step= 0.529 mean= 0.498
 gam= 0.651 g(H,U,f)=  0.163E-04 0.222E-05 0.136E-10 ort(H,U,f) =-0.655E-05 0.510E-05-0.157E-10
CGA:  56    -0.963731991484E+03   -0.72841E-05   -0.73069E-05  5040   0.185E-04-0.144E-05
 gam= 0.651 trial= 0.500  step= 0.458 mean= 0.500
 final diagonalization
   1 F= -.96373199E+03 E0= -.96371810E+03  d E =-.277904E-01
 writing wavefunctions
Warning: ieee_invalid is signaling
Warning: ieee_divide_by_zero is signaling
Warning: ieee_underflow is signaling
Warning: ieee_inexact is signaling
FORTRAN STOP
Warning: ieee_invalid is signaling
Warning: ieee_divide_by_zero is signaling
Warning: ieee_underflow is signaling
Warning: ieee_inexact is signaling
FORTRAN STOP
Warning: ieee_invalid is signaling
Warning: ieee_divide_by_zero is signaling
Warning: ieee_underflow is signaling
Warning: ieee_inexact is signaling
FORTRAN STOP
Warning: ieee_invalid is signaling
Warning: ieee_divide_by_zero is signaling
Warning: ieee_underflow is signaling
Warning: ieee_inexact is signaling
FORTRAN STOP
