 running    4 mpi-ranks, on    1 nodes
 distrk:  each k-point on    1 cores,    4 groups
 distr:  one band on    1 cores,    1 groups
 OpenACC runtime initialized ...    4 GPUs detected
 vasp.6.4.2 20Jul23 (build Nov 12 2023 22:16:35) complex                         
 POSCAR found type information on POSCAR GaO N Fe
 POSCAR found :  4 types and     120 ions
 scaLAPACK will be used selectively (only on CPU)
 LDA part: xc-table for Pade appr. of Perdew
 POSCAR, INCAR and KPOINTS ok, starting setup
 FFT: planning ... GRIDC
 FFT: planning ... GRID_SOFT
 FFT: planning ... GRID
 WAVECAR not read
 entering main loop
       N       E                     dE             d eps       ncg     rms          rms(c)
DAV:   1     0.217736708069E+05    0.21774E+05   -0.32055E+05 10080   0.281E+03
DAV:   2     0.483953618982E+04   -0.16934E+05   -0.15964E+05 10080   0.815E+02
DAV:   3    -0.145952395846E+03   -0.49855E+04   -0.46783E+04 12784   0.321E+02
DAV:   4    -0.791654767043E+03   -0.64570E+03   -0.62847E+03 12408   0.122E+02
DAV:   5    -0.838969142279E+03   -0.47314E+02   -0.46843E+02 14616   0.359E+01    0.756E+01
RMM:   6    -0.848069195332E+03   -0.91001E+01   -0.83967E+02 13805   0.338E+01    0.224E+02
RMM:   7    -0.808045603655E+03    0.40024E+02   -0.87216E+01 15329   0.117E+01    0.141E+02
RMM:   8    -0.725251346231E+03    0.82794E+02   -0.49020E+01 13177   0.661E+00    0.418E+01
RMM:   9    -0.721123681000E+03    0.41277E+01   -0.70622E+00 12869   0.348E+00    0.244E+01
RMM:  10    -0.718060658077E+03    0.30630E+01   -0.50074E+00 13135   0.255E+00    0.189E+01
RMM:  11    -0.717825744989E+03    0.23491E+00   -0.34444E+00 13197   0.199E+00    0.161E+01
RMM:  12    -0.717589863339E+03    0.23588E+00   -0.81004E-01 13837   0.140E+00    0.101E+01
RMM:  13    -0.717251085012E+03    0.33878E+00   -0.35377E-01 15022   0.872E-01    0.670E+00
RMM:  14    -0.716989023231E+03    0.26206E+00   -0.33714E-01 13435   0.700E-01    0.368E+00
RMM:  15    -0.716933565360E+03    0.55458E-01   -0.79162E-02 14074   0.337E-01    0.289E+00
RMM:  16    -0.716873882858E+03    0.59683E-01   -0.68608E-02 13157   0.246E-01    0.218E+00
RMM:  17    -0.716827432511E+03    0.46450E-01   -0.12125E-01 13243   0.314E-01    0.575E-01
RMM:  18    -0.716828302275E+03   -0.86976E-03   -0.21498E-02 15076   0.200E-01    0.452E-01
RMM:  19    -0.716826775441E+03    0.15268E-02   -0.13454E-02 14115   0.104E-01    0.168E-01
RMM:  20    -0.716826435158E+03    0.34028E-03   -0.66214E-03 13003   0.781E-02    0.222E-01
RMM:  21    -0.716826630035E+03   -0.19488E-03   -0.31541E-03 13865   0.521E-02    0.919E-02
RMM:  22    -0.716826543712E+03    0.86322E-04   -0.90431E-04 10796   0.307E-02    0.108E-01
RMM:  23    -0.716826522716E+03    0.20996E-04   -0.44493E-04  9698   0.163E-02    0.317E-02
RMM:  24    -0.716826487881E+03    0.34835E-04   -0.15919E-04 10031   0.140E-02    0.601E-02
RMM:  25    -0.716826485011E+03    0.28699E-05   -0.72359E-05  7868   0.896E-03
   1 F= -.71682649E+03 E0= -.71682648E+03  d E =-.716826E+03
 curvature:   0.00 expect dE= 0.000E+00 dE for cont linesearch  0.000E+00
 trial: gam= 0.00000 g(F)=  0.145E+01 g(S)=  0.000E+00 ort = 0.000E+00 (trialstep = 0.100E+01)
 search vector abs. value=  0.145E+01
 bond charge predicted
       N       E                     dE             d eps       ncg     rms          rms(c)
DAV:   1    -0.716331734602E+03    0.49475E+00   -0.29459E+02 10976   0.177E+01    0.103E+01
RMM:   2    -0.719034686766E+03   -0.27030E+01   -0.12594E+01 12059   0.543E+00    0.227E+01
RMM:   3    -0.717074850122E+03    0.19598E+01   -0.42666E+00 14683   0.269E+00    0.767E+00
RMM:   4    -0.716834151347E+03    0.24070E+00   -0.71324E-01 13867   0.108E+00    0.642E+00
RMM:   5    -0.716730637464E+03    0.10351E+00   -0.36326E-01 13854   0.719E-01    0.273E+00
RMM:   6    -0.716708613358E+03    0.22024E-01   -0.12049E-01 14133   0.358E-01    0.129E+00
RMM:   7    -0.716715057913E+03   -0.64446E-02   -0.32733E-02 14084   0.194E-01    0.855E-01
RMM:   8    -0.716710707969E+03    0.43499E-02   -0.10731E-02 14036   0.115E-01    0.490E-01
RMM:   9    -0.716710163490E+03    0.54448E-03   -0.30709E-03 13403   0.559E-02    0.287E-01
RMM:  10    -0.716709938236E+03    0.22525E-03   -0.14294E-03 11182   0.332E-02    0.215E-01
RMM:  11    -0.716709745168E+03    0.19307E-03   -0.52147E-04 10500   0.239E-02    0.884E-02
RMM:  12    -0.716709733735E+03    0.11432E-04   -0.32271E-04  9959   0.152E-02    0.558E-02
RMM:  13    -0.716709719566E+03    0.14170E-04   -0.86536E-05  8610   0.105E-02    0.263E-02
RMM:  14    -0.716709717272E+03    0.22938E-05   -0.46974E-05  6986   0.705E-03
   2 F= -.71670972E+03 E0= -.71670865E+03  d E =0.116768E+00
 trial-energy change:    0.116768  1 .order    0.645550   -1.451537    2.742638
 step:   0.5343(harm=  0.3461)  dis= 0.09915  next Energy=  -717.294927 (dE=-0.468E+00)
 bond charge predicted
       N       E                     dE             d eps       ncg     rms          rms(c)
DAV:   1    -0.717308033076E+03   -0.59831E+00   -0.65918E+01 11656   0.860E+00    0.612E+00
RMM:   2    -0.719186804654E+03   -0.18788E+01   -0.52731E+00 11072   0.387E+00    0.164E+01
RMM:   3    -0.717380833098E+03    0.18060E+01   -0.11072E+00 13028   0.157E+00    0.410E+00
RMM:   4    -0.717301116770E+03    0.79716E-01   -0.23940E-01 14555   0.592E-01    0.405E+00
RMM:   5    -0.717290515643E+03    0.10601E-01   -0.75245E-02 13242   0.278E-01    0.211E+00
RMM:   6    -0.717282532639E+03    0.79830E-02   -0.43928E-02 13155   0.217E-01    0.126E+00
RMM:   7    -0.717270977613E+03    0.11555E-01   -0.12604E-02 14750   0.137E-01    0.559E-01
RMM:   8    -0.717269842402E+03    0.11352E-02   -0.28439E-03 12624   0.507E-02    0.298E-01
RMM:   9    -0.717269364279E+03    0.47812E-03   -0.13676E-03 11389   0.401E-02    0.133E-01
RMM:  10    -0.717269368996E+03   -0.47171E-05   -0.64117E-04 10709   0.221E-02    0.260E-02
RMM:  11    -0.717269383264E+03   -0.14268E-04   -0.14756E-04  8903   0.137E-02    0.589E-02
RMM:  12    -0.717269379280E+03    0.39837E-05   -0.58573E-05  7213   0.777E-03
   3 F= -.71726938E+03 E0= -.71726938E+03  d E =-.442894E+00
 curvature:  -0.16 expect dE=-0.210E-01 dE for cont linesearch -0.646E-05
 trial: gam= 0.08582 g(F)=  0.132E+00 g(S)=  0.000E+00 ort = 0.769E-02 (trialstep = 0.907E+00)
 search vector abs. value=  0.144E+00
 bond charge predicted
       N       E                     dE             d eps       ncg     rms          rms(c)
DAV:   1    -0.717221189091E+03    0.48194E-01   -0.27502E+01 11024   0.744E+00    0.136E+00
RMM:   2    -0.717323919910E+03   -0.10273E+00   -0.10576E+00 13297   0.211E+00    0.182E+00
RMM:   3    -0.717333957597E+03   -0.10038E-01   -0.23303E-01 14727   0.875E-01    0.890E-01
RMM:   4    -0.717338196585E+03   -0.42390E-02   -0.34824E-02 14836   0.315E-01    0.111E+00
RMM:   5    -0.717331887066E+03    0.63095E-02   -0.83894E-03 14461   0.144E-01    0.509E-01
RMM:   6    -0.717329989183E+03    0.18979E-02   -0.52698E-03 13271   0.866E-02    0.233E-01
RMM:   7    -0.717329946290E+03    0.42893E-04   -0.20434E-03 13070   0.493E-02    0.139E-01
RMM:   8    -0.717329876639E+03    0.69650E-04   -0.33444E-04 10929   0.263E-02    0.953E-02
RMM:   9    -0.717329772192E+03    0.10445E-03   -0.34925E-04 11104   0.206E-02    0.604E-02
RMM:  10    -0.717329762089E+03    0.10104E-04   -0.10200E-04  9589   0.132E-02    0.197E-02
RMM:  11    -0.717329762376E+03   -0.28701E-06   -0.38827E-05  7464   0.851E-03
   4 F= -.71732976E+03 E0= -.71732976E+03  d E =-.603831E-01
 trial-energy change:   -0.060383  1 .order   -0.059588   -0.120532    0.001355
 step:   0.8972(harm=  0.8968)  dis= 0.02501  next Energy=  -717.329770 (dE=-0.604E-01)
 bond charge predicted
       N       E                     dE             d eps       ncg     rms          rms(c)
DAV:   1    -0.717329750620E+03    0.11469E-04   -0.30632E-03 11520   0.789E-02    0.230E-02
RMM:   2    -0.717329760705E+03   -0.10085E-04   -0.12238E-04 10857   0.225E-02    0.163E-02
RMM:   3    -0.717329761528E+03   -0.82256E-06   -0.23660E-05  6458   0.101E-02
   5 F= -.71732976E+03 E0= -.71732976E+03  d E =-.603822E-01
 curvature:  -0.49 expect dE=-0.271E-01 dE for cont linesearch -0.119E-04
 trial: gam= 0.40348 g(F)=  0.558E-01 g(S)=  0.000E+00 ort = 0.188E-02 (trialstep = 0.905E+00)
 search vector abs. value=  0.808E-01
 bond charge predicted
       N       E                     dE             d eps       ncg     rms          rms(c)
DAV:   1    -0.717302188328E+03    0.27572E-01   -0.15767E+01 10928   0.556E+00    0.863E-01
RMM:   2    -0.717353570283E+03   -0.51382E-01   -0.51987E-01 13036   0.144E+00    0.901E-01
RMM:   3    -0.717363235262E+03   -0.96650E-02   -0.12097E-01 14950   0.592E-01    0.652E-01
RMM:   4    -0.717361044655E+03    0.21906E-02   -0.15544E-02 14711   0.215E-01    0.393E-01
RMM:   5    -0.717359802480E+03    0.12422E-02   -0.37680E-03 14741   0.940E-02    0.217E-01
RMM:   6    -0.717359138256E+03    0.66422E-03   -0.35984E-03 12535   0.703E-02    0.758E-02
RMM:   7    -0.717359115782E+03    0.22474E-04   -0.64706E-04 13240   0.348E-02    0.524E-02
RMM:   8    -0.717359077707E+03    0.38075E-04   -0.17716E-04 10102   0.172E-02    0.238E-02
RMM:   9    -0.717359074772E+03    0.29350E-05   -0.10027E-04  9462   0.118E-02    0.167E-02
RMM:  10    -0.717359074611E+03    0.16062E-06   -0.35610E-05  7186   0.827E-03
   6 F= -.71735907E+03 E0= -.71735907E+03  d E =-.293131E-01
 trial-energy change:   -0.029313  1 .order   -0.029469   -0.051192   -0.007746
 step:   1.0705(harm=  1.0663)  dis= 0.01473  next Energy=  -717.359782 (dE=-0.300E-01)
 bond charge predicted
       N       E                     dE             d eps       ncg     rms          rms(c)
DAV:   1    -0.717357994955E+03    0.10798E-02   -0.52905E-01 11832   0.102E+00    0.159E-01
RMM:   2    -0.717359718054E+03   -0.17231E-02   -0.17271E-02 13010   0.261E-01    0.176E-01
RMM:   3    -0.717360007800E+03   -0.28975E-03   -0.39353E-03 14808   0.107E-01    0.122E-01
RMM:   4    -0.717359927099E+03    0.80702E-04   -0.52293E-04 12892   0.402E-02    0.713E-02
RMM:   5    -0.717359885717E+03    0.41382E-04   -0.14140E-04 10520   0.208E-02    0.401E-02
RMM:   6    -0.717359865880E+03    0.19836E-04   -0.13488E-04 10000   0.144E-02    0.156E-02
RMM:   7    -0.717359863841E+03    0.20392E-05   -0.25935E-05  7001   0.851E-03
   7 F= -.71735986E+03 E0= -.71735986E+03  d E =-.301023E-01
 curvature:  -0.76 expect dE=-0.281E-01 dE for cont linesearch -0.120E-05
 trial: gam= 0.65484 g(F)=  0.369E-01 g(S)=  0.000E+00 ort = 0.356E-03 (trialstep = 0.938E+00)
 search vector abs. value=  0.720E-01
 bond charge predicted
       N       E                     dE             d eps       ncg     rms          rms(c)
DAV:   1    -0.717324956626E+03    0.34909E-01   -0.15082E+01 10712   0.539E+00    0.818E-01
RMM:   2    -0.717367554121E+03   -0.42597E-01   -0.45437E-01 12609   0.137E+00    0.534E-01
RMM:   3    -0.717380760862E+03   -0.13207E-01   -0.12290E-01 14867   0.584E-01    0.606E-01
RMM:   4    -0.717380183357E+03    0.57750E-03   -0.15534E-02 14689   0.215E-01    0.400E-01
RMM:   5    -0.717379211929E+03    0.97143E-03   -0.37259E-03 14662   0.928E-02    0.212E-01
RMM:   6    -0.717378891126E+03    0.32080E-03   -0.28158E-03 12388   0.657E-02    0.897E-02
RMM:   7    -0.717378901726E+03   -0.10601E-04   -0.66058E-04 12860   0.328E-02    0.505E-02
RMM:   8    -0.717378863213E+03    0.38513E-04   -0.20282E-04  9895   0.177E-02    0.334E-02
RMM:   9    -0.717378859105E+03    0.41082E-05   -0.10132E-04  8933   0.113E-02    0.114E-02
RMM:  10    -0.717378859902E+03   -0.79724E-06   -0.41315E-05  7303   0.817E-03
   8 F= -.71737886E+03 E0= -.71737886E+03  d E =-.189961E-01
 trial-energy change:   -0.018996  1 .order   -0.018729   -0.034846   -0.002612
 step:   1.0102(harm=  1.0140)  dis= 0.01475  next Energy=  -717.378960 (dE=-0.191E-01)
 bond charge predicted
       N       E                     dE             d eps       ncg     rms          rms(c)
DAV:   1    -0.717378732622E+03    0.12648E-03   -0.90045E-02 11624   0.417E-01    0.618E-02
RMM:   2    -0.717378985170E+03   -0.25255E-03   -0.26934E-03 12623   0.104E-01    0.457E-02
RMM:   3    -0.717379057088E+03   -0.71918E-04   -0.71045E-04 14265   0.443E-02    0.457E-02
RMM:   4    -0.717379054100E+03    0.29877E-05   -0.98837E-05  9456   0.176E-02
   9 F= -.71737905E+03 E0= -.71737905E+03  d E =-.191903E-01
 curvature:  -0.98 expect dE=-0.183E-01 dE for cont linesearch -0.133E-05
 trial: gam= 0.47557 g(F)=  0.187E-01 g(S)=  0.000E+00 ort = 0.313E-03 (trialstep = 0.952E+00)
 search vector abs. value=  0.353E-01
 bond charge predicted
       N       E                     dE             d eps       ncg     rms          rms(c)
DAV:   1    -0.717359506393E+03    0.19551E-01   -0.74956E+00 10688   0.396E+00    0.708E-01
RMM:   2    -0.717393523807E+03   -0.34017E-01   -0.26239E-01 13111   0.107E+00    0.148E+00
RMM:   3    -0.717388593217E+03    0.49306E-02   -0.70143E-02 14245   0.484E-01    0.373E-01
RMM:   4    -0.717387771440E+03    0.82178E-03   -0.10232E-02 14714   0.169E-01    0.434E-01
RMM:   5    -0.717386981876E+03    0.78956E-03   -0.20658E-03 14850   0.696E-02    0.168E-01
RMM:   6    -0.717386658064E+03    0.32381E-03   -0.14380E-03 12542   0.444E-02    0.872E-02
RMM:   7    -0.717386626452E+03    0.31612E-04   -0.43826E-04 11972   0.288E-02    0.511E-02
RMM:   8    -0.717386613731E+03    0.12721E-04   -0.12533E-04  8974   0.144E-02    0.285E-02
RMM:   9    -0.717386604587E+03    0.91446E-05   -0.59190E-05  8216   0.995E-03
  10 F= -.71738660E+03 E0= -.71738660E+03  d E =-.755049E-02
 trial-energy change:   -0.007550  1 .order   -0.007114   -0.017930    0.003702
 step:   0.8046(harm=  0.7895)  dis= 0.00486  next Energy=  -717.386890 (dE=-0.784E-02)
 bond charge predicted
       N       E                     dE             d eps       ncg     rms          rms(c)
DAV:   1    -0.717386177080E+03    0.43665E-03   -0.17936E-01 10912   0.612E-01    0.114E-01
RMM:   2    -0.717387002346E+03   -0.82527E-03   -0.62314E-03 13179   0.162E-01    0.235E-01
RMM:   3    -0.717386863283E+03    0.13906E-03   -0.15723E-03 14062   0.733E-02    0.592E-02
RMM:   4    -0.717386838113E+03    0.25170E-04   -0.22504E-04 11784   0.260E-02    0.674E-02
RMM:   5    -0.717386819756E+03    0.18357E-04   -0.53995E-05  8045   0.136E-02    0.278E-02
RMM:   6    -0.717386810394E+03    0.93615E-05   -0.32313E-05  7015   0.858E-03
  11 F= -.71738681E+03 E0= -.71738681E+03  d E =-.775629E-02
 curvature:  -0.73 expect dE=-0.946E-02 dE for cont linesearch -0.675E-06
 trial: gam= 0.73047 g(F)=  0.129E-01 g(S)=  0.000E+00 ort = 0.180E-03 (trialstep = 0.923E+00)
 search vector abs. value=  0.320E-01
 bond charge predicted
       N       E                     dE             d eps       ncg     rms          rms(c)
DAV:   1    -0.717368757029E+03    0.18063E-01   -0.64991E+00 10648   0.370E+00    0.572E-01
RMM:   2    -0.717394089498E+03   -0.25332E-01   -0.21616E-01 12931   0.974E-01    0.106E+00
RMM:   3    -0.717393855181E+03    0.23432E-03   -0.58192E-02 14461   0.441E-01    0.327E-01
RMM:   4    -0.717393295993E+03    0.55919E-03   -0.75470E-03 14737   0.151E-01    0.295E-01
RMM:   5    -0.717392836277E+03    0.45972E-03   -0.14959E-03 14914   0.600E-02    0.119E-01
RMM:   6    -0.717392618647E+03    0.21763E-03   -0.88281E-04 12382   0.366E-02    0.782E-02
RMM:   7    -0.717392578314E+03    0.40333E-04   -0.39243E-04 11891   0.270E-02    0.438E-02
RMM:   8    -0.717392564830E+03    0.13484E-04   -0.88372E-05  8951   0.141E-02    0.209E-02
RMM:   9    -0.717392559546E+03    0.52841E-05   -0.48386E-05  8127   0.908E-03
  12 F= -.71739256E+03 E0= -.71739256E+03  d E =-.574915E-02
 trial-energy change:   -0.005749  1 .order   -0.005333   -0.012031    0.001365
 step:   0.8425(harm=  0.8289)  dis= 0.00562  next Energy=  -717.392619 (dE=-0.581E-02)
 bond charge predicted
       N       E                     dE             d eps       ncg     rms          rms(c)
DAV:   1    -0.717392406386E+03    0.15844E-03   -0.48891E-02 11016   0.322E-01    0.513E-02
RMM:   2    -0.717392593121E+03   -0.18674E-03   -0.16322E-03 12907   0.836E-02    0.871E-02
RMM:   3    -0.717392596240E+03   -0.31187E-05   -0.42193E-04 13566   0.374E-02    0.311E-02
RMM:   4    -0.717392589964E+03    0.62762E-05   -0.54362E-05  7864   0.144E-02
  13 F= -.71739259E+03 E0= -.71739259E+03  d E =-.577957E-02
 curvature:  -1.00 expect dE=-0.666E-02 dE for cont linesearch -0.317E-04
 trial: gam= 0.45084 g(F)=  0.670E-02 g(S)=  0.000E+00 ort = 0.101E-02 (trialstep = 0.907E+00)
 search vector abs. value=  0.141E-01
 bond charge predicted
       N       E                     dE             d eps       ncg     rms          rms(c)
DAV:   1    -0.717385266823E+03    0.73294E-02   -0.28725E+00 10520   0.241E+00    0.305E-01
RMM:   2    -0.717394308141E+03   -0.90413E-02   -0.94765E-02 12914   0.615E-01    0.196E-01
RMM:   3    -0.717396670567E+03   -0.23624E-02   -0.22190E-02 15164   0.251E-01    0.262E-01
RMM:   4    -0.717396391620E+03    0.27895E-03   -0.25528E-03 14624   0.914E-02    0.124E-01
RMM:   5    -0.717396254671E+03    0.13695E-03   -0.57155E-04 13505   0.374E-02    0.770E-02
RMM:   6    -0.717396144938E+03    0.10973E-03   -0.33199E-04 11046   0.236E-02    0.373E-02
RMM:   7    -0.717396147309E+03   -0.23709E-05   -0.19714E-04 10485   0.182E-02    0.243E-02
RMM:   8    -0.717396137433E+03    0.98760E-05   -0.45633E-05  8030   0.117E-02
  14 F= -.71739614E+03 E0= -.71739614E+03  d E =-.354747E-02
 trial-energy change:   -0.003547  1 .order   -0.003455   -0.006484   -0.000426
 step:   0.9650(harm=  0.9706)  dis= 0.00466  next Energy=  -717.396151 (dE=-0.356E-02)
 bond charge predicted
       N       E                     dE             d eps       ncg     rms          rms(c)
DAV:   1    -0.717396122185E+03    0.25123E-04   -0.12255E-02 11608   0.158E-01    0.236E-02
RMM:   2    -0.717396167183E+03   -0.44998E-04   -0.46315E-04 12804   0.433E-02    0.221E-02
RMM:   3    -0.717396176832E+03   -0.96491E-05   -0.11707E-04 11584   0.183E-02    0.194E-02
RMM:   4    -0.717396174296E+03    0.25360E-05   -0.15488E-05  6140   0.922E-03
  15 F= -.71739617E+03 E0= -.71739617E+03  d E =-.358433E-02
 curvature:  -0.95 expect dE=-0.300E-02 dE for cont linesearch -0.490E-05
 trial: gam= 0.43879 g(F)=  0.315E-02 g(S)=  0.000E+00 ort = 0.270E-03 (trialstep = 0.918E+00)
 search vector abs. value=  0.611E-02
 bond charge predicted
       N       E                     dE             d eps       ncg     rms          rms(c)
DAV:   1    -0.717393387678E+03    0.27892E-02   -0.12689E+00 10544   0.159E+00    0.291E-01
RMM:   2    -0.717398312471E+03   -0.49248E-02   -0.41038E-02 12603   0.413E-01    0.490E-01
RMM:   3    -0.717398215331E+03    0.97141E-04   -0.11057E-02 14415   0.187E-01    0.184E-01
RMM:   4    -0.717397987545E+03    0.22779E-03   -0.15128E-03 14291   0.674E-02    0.144E-01
RMM:   5    -0.717397866631E+03    0.12091E-03   -0.34099E-04 12110   0.291E-02    0.552E-02
RMM:   6    -0.717397829434E+03    0.37197E-04   -0.19963E-04 10411   0.180E-02    0.366E-02
RMM:   7    -0.717397821844E+03    0.75895E-05   -0.80251E-05  9000   0.130E-02
  16 F= -.71739782E+03 E0= -.71739782E+03  d E =-.164755E-02
 trial-energy change:   -0.001648  1 .order   -0.001655   -0.003005   -0.000306
 step:   1.0225(harm=  1.0225)  dis= 0.00344  next Energy=  -717.397847 (dE=-0.167E-02)
 bond charge predicted
       N       E                     dE             d eps       ncg     rms          rms(c)
DAV:   1    -0.717397755521E+03    0.73913E-04   -0.16376E-02 11568   0.182E-01    0.334E-02
RMM:   2    -0.717397820021E+03   -0.64500E-04   -0.59840E-04 12644   0.493E-02    0.464E-02
RMM:   3    -0.717397824947E+03   -0.49261E-05   -0.15789E-04 11759   0.225E-02    0.218E-02
RMM:   4    -0.717397822754E+03    0.21925E-05   -0.25352E-05  6783   0.106E-02
  17 F= -.71739782E+03 E0= -.71739782E+03  d E =-.164846E-02
 curvature:  -0.95 expect dE=-0.235E-02 dE for cont linesearch -0.192E-04
 trial: gam= 0.91457 g(F)=  0.246E-02 g(S)=  0.000E+00 ort =-0.351E-03 (trialstep = 0.828E+00)
 search vector abs. value=  0.693E-02
 bond charge predicted
       N       E                     dE             d eps       ncg     rms          rms(c)
DAV:   1    -0.717394591750E+03    0.32332E-02   -0.11690E+00 10432   0.151E+00    0.273E-01
RMM:   2    -0.717399335352E+03   -0.47436E-02   -0.35757E-02 12120   0.390E-01    0.554E-01
RMM:   3    -0.717398728729E+03    0.60662E-03   -0.10987E-02 14385   0.183E-01    0.133E-01
RMM:   4    -0.717398625187E+03    0.10354E-03   -0.13578E-03 14289   0.630E-02    0.164E-01
RMM:   5    -0.717398535150E+03    0.90037E-04   -0.28331E-04 11366   0.260E-02    0.738E-02
RMM:   6    -0.717398476118E+03    0.59032E-04   -0.19831E-04 10270   0.194E-02    0.384E-02
RMM:   7    -0.717398471424E+03    0.46936E-05   -0.85007E-05  9063   0.130E-02
  18 F= -.71739847E+03 E0= -.71739847E+03  d E =-.648670E-03
 trial-energy change:   -0.000649  1 .order   -0.000648   -0.001774    0.000478
 step:   0.6519(harm=  0.6519)  dis= 0.00291  next Energy=  -717.398521 (dE=-0.699E-03)
 bond charge predicted
       N       E                     dE             d eps       ncg     rms          rms(c)
DAV:   1    -0.717398374538E+03    0.10158E-03   -0.52808E-02 10440   0.319E-01    0.591E-02
RMM:   2    -0.717398595372E+03   -0.22083E-03   -0.16223E-03 12295   0.815E-02    0.125E-01
RMM:   3    -0.717398554574E+03    0.40799E-04   -0.45154E-04 12459   0.379E-02    0.312E-02
RMM:   4    -0.717398544706E+03    0.98676E-05   -0.61874E-05  8373   0.156E-02
  19 F= -.71739854E+03 E0= -.71739854E+03  d E =-.721952E-03
 curvature:  -1.05 expect dE=-0.118E-02 dE for cont linesearch -0.975E-05
 ZBRENT: interpolating
 opt :   0.7054  next Energy=  -717.398551 (dE=-0.729E-03)
 bond charge predicted
       N       E                     dE             d eps       ncg     rms          rms(c)
DAV:   1    -0.717398510268E+03    0.44306E-04   -0.48582E-03 11128   0.975E-02    0.258E-02
RMM:   2    -0.717398544678E+03   -0.34411E-04   -0.21453E-04 11283   0.283E-02    0.510E-02
RMM:   3    -0.717398527602E+03    0.17076E-04   -0.53183E-05  7894   0.143E-02    0.143E-02
RMM:   4    -0.717398526869E+03    0.73320E-06   -0.11563E-05  5976   0.762E-03
  20 F= -.71739853E+03 E0= -.71739853E+03  d E =-.704115E-03
 curvature:  -0.73 expect dE=-0.101E-02 dE for cont linesearch -0.253E-04
 ZBRENT: interpolating
 opt :   0.6701  next Energy=  -717.398547 (dE=-0.724E-03)
 bond charge predicted
       N       E                     dE             d eps       ncg     rms          rms(c)
DAV:   1    -0.717398526405E+03    0.11975E-05   -0.20558E-03 10472   0.630E-02    0.115E-02
RMM:   2    -0.717398535908E+03   -0.95029E-05   -0.73895E-05  8761   0.172E-02
  21 F= -.71739854E+03 E0= -.71739854E+03  d E =-.713153E-03
 curvature:  -0.07 expect dE=-0.774E-04 dE for cont linesearch -0.109E-05
 ZBRENT: bisectioning
 opt :   0.6878  next Energy=  -717.398543 (dE=-0.720E-03)
 bond charge predicted
       N       E                     dE             d eps       ncg     rms          rms(c)
DAV:   1    -0.717398529168E+03   -0.27631E-05   -0.49689E-04 10238   0.320E-02    0.503E-03
RMM:   2    -0.717398530448E+03   -0.12800E-05   -0.16755E-05  5934   0.952E-03
  22 F= -.71739853E+03 E0= -.71739853E+03  d E =-.707693E-03
 curvature:  -0.41 expect dE=-0.527E-03 dE for cont linesearch -0.150E-04
 ZBRENT: interpolating
 opt :   0.6772  next Energy=  -717.398537 (dE=-0.714E-03)
 bond charge predicted
       N       E                     dE             d eps       ncg     rms          rms(c)
DAV:   1    -0.717398531960E+03   -0.27926E-05   -0.16296E-04  9088   0.188E-02    0.752E-03
RMM:   2    -0.717398536350E+03   -0.43891E-05   -0.17026E-05  5759   0.958E-03
  23 F= -.71739854E+03 E0= -.71739854E+03  d E =-.713595E-03
 curvature:  -0.03 expect dE=-0.371E-04 dE for cont linesearch -0.115E-06
 trial: gam= 0.34317 g(F)=  0.115E-02 g(S)=  0.000E+00 ort = 0.158E-03 (trialstep = 0.797E+00)
 search vector abs. value=  0.208E-02
 bond charge predicted
       N       E                     dE             d eps       ncg     rms          rms(c)
DAV:   1    -0.717397761091E+03    0.77087E-03   -0.31315E-01 10508   0.822E-01    0.957E-02
RMM:   2    -0.717398808145E+03   -0.10471E-02   -0.10789E-02 13247   0.216E-01    0.934E-02
RMM:   3    -0.717399056764E+03   -0.24862E-03   -0.25456E-03 14711   0.902E-02    0.881E-02
RMM:   4    -0.717399015522E+03    0.41241E-04   -0.31869E-04 12522   0.325E-02    0.406E-02
RMM:   5    -0.717398992988E+03    0.22534E-04   -0.95119E-05 10202   0.175E-02    0.242E-02
RMM:   6    -0.717398989583E+03    0.34053E-05   -0.39088E-05  7586   0.951E-03
  24 F= -.71739899E+03 E0= -.71739899E+03  d E =-.453233E-03
 trial-energy change:   -0.000453  1 .order   -0.000498   -0.000964   -0.000032
 step:   0.8362(harm=  0.8246)  dis= 0.00134  next Energy=  -717.398990 (dE=-0.454E-03)
 bond charge predicted
       N       E                     dE             d eps       ncg     rms          rms(c)
DAV:   1    -0.717398983592E+03    0.93968E-05   -0.71413E-04 13344   0.485E-02    0.155E-02
RMM:   2    -0.717398987803E+03   -0.42117E-05   -0.49126E-05  8785   0.146E-02
  25 F= -.71739899E+03 E0= -.71739899E+03  d E =-.451454E-03
 curvature:  -0.58 expect dE=-0.356E-03 dE for cont linesearch -0.133E-04
 ZBRENT: interpolating
 opt :   0.8034  next Energy=  -717.398990 (dE=-0.453E-03)
 bond charge predicted
       N       E                     dE             d eps       ncg     rms          rms(c)
DAV:   1    -0.717398985520E+03   -0.19287E-05   -0.50081E-04 10920   0.337E-02    0.130E-02
RMM:   2    -0.717398992943E+03   -0.74232E-05   -0.27746E-05  6388   0.126E-02
  26 F= -.71739899E+03 E0= -.71739899E+03  d E =-.456594E-03
 curvature:  -0.01 expect dE=-0.281E-05 dE for cont linesearch -0.540E-07
 ZBRENT: bisectioning
 opt :   0.8198  next Energy=  -717.398998 (dE=-0.461E-03)
 bond charge predicted
       N       E                     dE             d eps       ncg     rms          rms(c)
DAV:   1    -0.717398986522E+03   -0.10014E-05   -0.14839E-04 11512   0.224E-02    0.893E-03
RMM:   2    -0.717398989700E+03   -0.31786E-05   -0.14830E-05  5829   0.900E-03
  27 F= -.71739899E+03 E0= -.71739899E+03  d E =-.453351E-03
 curvature:  -0.46 expect dE=-0.269E-03 dE for cont linesearch -0.561E-05
 ZBRENT: interpolating
 opt :   0.8113  next Energy=  -717.398994 (dE=-0.457E-03)
 bond charge predicted
       N       E                     dE             d eps       ncg     rms          rms(c)
DAV:   1    -0.717398986859E+03   -0.33713E-06   -0.42731E-05  7674   0.137E-02    0.393E-03
RMM:   2    -0.717398987974E+03   -0.11156E-05   -0.54432E-06  5303   0.574E-03
  28 F= -.71739899E+03 E0= -.71739899E+03  d E =-.451625E-03
 curvature:  -0.05 expect dE=-0.277E-04 dE for cont linesearch -0.410E-06
 ZBRENT: bisectioning
 opt :   0.8156  next Energy=  -717.398989 (dE=-0.452E-03)
 bond charge predicted
       N       E                     dE             d eps       ncg     rms          rms(c)
DAV:   1    -0.717398986956E+03   -0.96996E-07   -0.98305E-06  5712   0.676E-03    0.133E-03
RMM:   2    -0.717398987039E+03   -0.82771E-07   -0.18005E-06  5082   0.279E-03
  29 F= -.71739899E+03 E0= -.71739899E+03  d E =-.450689E-03
 curvature:  -0.06 expect dE=-0.384E-04 dE for cont linesearch -0.354E-06
 trial: gam= 0.51277 g(F)=  0.598E-03 g(S)=  0.000E+00 ort =-0.107E-03 (trialstep = 0.801E+00)
 search vector abs. value=  0.103E-02
 bond charge predicted
       N       E                     dE             d eps       ncg     rms          rms(c)
DAV:   1    -0.717398666501E+03    0.32046E-03   -0.15181E-01 10684   0.577E-01    0.965E-02
RMM:   2    -0.717399336195E+03   -0.66969E-03   -0.52841E-03 13089   0.157E-01    0.198E-01
RMM:   3    -0.717399263029E+03    0.73166E-04   -0.14045E-03 14059   0.707E-02    0.490E-02
RMM:   4    -0.717399251887E+03    0.11141E-04   -0.20695E-04 11650   0.253E-02    0.584E-02
RMM:   5    -0.717399237390E+03    0.14498E-04   -0.49925E-05  7995   0.139E-02    0.241E-02
RMM:   6    -0.717399230210E+03    0.71795E-05   -0.28874E-05  6913   0.834E-03
  30 F= -.71739923E+03 E0= -.71739923E+03  d E =-.243172E-03
 trial-energy change:   -0.000243  1 .order   -0.000231   -0.000435   -0.000027
 step:   0.8544(harm=  0.8544)  dis= 0.00120  next Energy=  -717.399219 (dE=-0.232E-03)
 bond charge predicted
       N       E                     dE             d eps       ncg     rms          rms(c)
DAV:   1    -0.717399225292E+03    0.12098E-04   -0.64091E-04 12072   0.427E-02    0.137E-02
RMM:   2    -0.717399230113E+03   -0.48213E-05   -0.43446E-05  8689   0.153E-02
  31 F= -.71739923E+03 E0= -.71739923E+03  d E =-.243074E-03
 curvature:  -0.81 expect dE=-0.410E-03 dE for cont linesearch -0.256E-04
 ZBRENT: interpolating
 opt :   0.8095  next Energy=  -717.399230 (dE=-0.243E-03)
 bond charge predicted
       N       E                     dE             d eps       ncg     rms          rms(c)
DAV:   1    -0.717399227329E+03   -0.20370E-05   -0.44209E-04 10808   0.321E-02    0.789E-03
RMM:   2    -0.717399230919E+03   -0.35902E-05   -0.22630E-05  6188   0.117E-02
  32 F= -.71739923E+03 E0= -.71739923E+03  d E =-.243880E-03
 curvature:  -0.00 expect dE=-0.197E-05 dE for cont linesearch -0.356E-07
 ZBRENT: bisectioning
 opt :   0.8320  next Energy=  -717.399235 (dE=-0.248E-03)
 bond charge predicted
       N       E                     dE             d eps       ncg     rms          rms(c)
DAV:   1    -0.717399228503E+03   -0.11739E-05   -0.11637E-04 11568   0.184E-02    0.644E-03
RMM:   2    -0.717399230432E+03   -0.19294E-05   -0.98909E-06  5499   0.735E-03
  33 F= -.71739923E+03 E0= -.71739923E+03  d E =-.243393E-03
 curvature:  -0.47 expect dE=-0.213E-03 dE for cont linesearch -0.472E-05
 ZBRENT: interpolating
 opt :   0.8201  next Energy=  -717.399231 (dE=-0.244E-03)
 bond charge predicted
       N       E                     dE             d eps       ncg     rms          rms(c)
DAV:   1    -0.717399228632E+03   -0.12980E-06   -0.31798E-05  7256   0.117E-02    0.222E-03
RMM:   2    -0.717399229255E+03   -0.62285E-06   -0.53160E-06  5240   0.582E-03
  34 F= -.71739923E+03 E0= -.71739923E+03  d E =-.242217E-03
 curvature:  -0.05 expect dE=-0.190E-04 dE for cont linesearch -0.370E-06
 ZBRENT: bisectioning
 opt :   0.8260  next Energy=  -717.399230 (dE=-0.243E-03)
 bond charge predicted
       N       E                     dE             d eps       ncg     rms          rms(c)
DAV:   1    -0.717399228903E+03   -0.27069E-06   -0.53354E-06  5520   0.505E-03    0.176E-03
RMM:   2    -0.717399228978E+03   -0.75066E-07   -0.13750E-06  4854   0.249E-03
  35 F= -.71739923E+03 E0= -.71739923E+03  d E =-.241940E-03
 curvature:  -0.07 expect dE=-0.257E-04 dE for cont linesearch -0.402E-06
 ZBRENT: interpolating
 opt :   0.8233  next Energy=  -717.399229 (dE=-0.242E-03)
 bond charge predicted
       N       E                     dE             d eps       ncg     rms          rms(c)
DAV:   1    -0.717399229019E+03   -0.11575E-06   -0.59930E-07  5400   0.175E-03    0.165E-03
RMM:   2    -0.717399229021E+03   -0.19791E-08   -0.12552E-07  2121   0.940E-04
  36 F= -.71739923E+03 E0= -.71739923E+03  d E =-.241982E-03
 curvature:  -0.02 expect dE=-0.673E-05 dE for cont linesearch -0.174E-07
 trial: gam= 0.54984 g(F)=  0.367E-03 g(S)=  0.000E+00 ort = 0.313E-04 (trialstep = 0.806E+00)
 search vector abs. value=  0.714E-03
 bond charge predicted
       N       E                     dE             d eps       ncg     rms          rms(c)
DAV:   1    -0.717398981199E+03    0.24782E-03   -0.10369E-01 10784   0.476E-01    0.961E-02
RMM:   2    -0.717399480897E+03   -0.49970E-03   -0.35606E-03 12905   0.130E-01    0.196E-01
RMM:   3    -0.717399382612E+03    0.98285E-04   -0.10253E-03 13959   0.599E-02    0.533E-02
RMM:   4    -0.717399362611E+03    0.20000E-04   -0.16275E-04 11354   0.225E-02    0.564E-02
RMM:   5    -0.717399349299E+03    0.13312E-04   -0.38082E-05  7371   0.121E-02    0.224E-02
RMM:   6    -0.717399343681E+03    0.56180E-05   -0.21659E-05  6467   0.726E-03
  37 F= -.71739934E+03 E0= -.71739934E+03  d E =-.114660E-03
 trial-energy change:   -0.000115  1 .order   -0.000132   -0.000310    0.000046
 step:   0.7009(harm=  0.7009)  dis= 0.00098  next Energy=  -717.399364 (dE=-0.135E-03)
 bond charge predicted
       N       E                     dE             d eps       ncg     rms          rms(c)
DAV:   1    -0.717399340166E+03    0.91335E-05   -0.17933E-03 11088   0.649E-02    0.981E-03
RMM:   2    -0.717399350197E+03   -0.10031E-04   -0.94657E-05 10501   0.233E-02    0.196E-02
RMM:   3    -0.717399348914E+03    0.12827E-05   -0.21125E-05  6310   0.101E-02
  38 F= -.71739935E+03 E0= -.71739935E+03  d E =-.119893E-03
 curvature:  -0.65 expect dE=-0.182E-03 dE for cont linesearch -0.297E-05
 ZBRENT: interpolating
 opt :   0.7531  next Energy=  -717.399350 (dE=-0.121E-03)
 bond charge predicted
       N       E                     dE             d eps       ncg     rms          rms(c)
DAV:   1    -0.717399343895E+03    0.63021E-05   -0.41045E-04 11034   0.308E-02    0.110E-02
RMM:   2    -0.717399347898E+03   -0.40031E-05   -0.25666E-05  6296   0.117E-02
  39 F= -.71739935E+03 E0= -.71739935E+03  d E =-.118877E-03
 curvature:  -0.33 expect dE=-0.128E-03 dE for cont linesearch -0.125E-04
 ZBRENT: interpolating
 opt :   0.7143  next Energy=  -717.399349 (dE=-0.120E-03)
 bond charge predicted
       N       E                     dE             d eps       ncg     rms          rms(c)
DAV:   1    -0.717399347389E+03   -0.34945E-05   -0.21955E-04 11168   0.248E-02    0.687E-03
RMM:   2    -0.717399350065E+03   -0.26759E-05   -0.17360E-05  5619   0.100E-02
  40 F= -.71739935E+03 E0= -.71739935E+03  d E =-.121044E-03
 curvature:  -0.01 expect dE=-0.306E-05 dE for cont linesearch -0.186E-07
 trial: gam= 0.85688 g(F)=  0.308E-03 g(S)=  0.000E+00 ort = 0.366E-04 (trialstep = 0.628E+00)
 search vector abs. value=  0.895E-03
 bond charge predicted
       N       E                     dE             d eps       ncg     rms          rms(c)
DAV:   1    -0.717399147450E+03    0.19994E-03   -0.80662E-02 10924   0.423E-01    0.496E-02
RMM:   2    -0.717399406982E+03   -0.25953E-03   -0.26179E-03 13072   0.108E-01    0.502E-02
RMM:   3    -0.717399463935E+03   -0.56953E-04   -0.63913E-04 14687   0.443E-02    0.405E-02
RMM:   4    -0.717399456947E+03    0.69880E-05   -0.87264E-05  9961   0.175E-02
  41 F= -.71739946E+03 E0= -.71739946E+03  d E =-.106882E-03
 trial-energy change:   -0.000107  1 .order   -0.000097   -0.000213    0.000019
 step:   0.5770(harm=  0.5770)  dis= 0.00068  next Energy=  -717.399448 (dE=-0.979E-04)
 bond charge predicted
       N       E                     dE             d eps       ncg     rms          rms(c)
DAV:   1    -0.717399446212E+03    0.17723E-04   -0.54794E-04 12176   0.378E-02    0.127E-02
RMM:   2    -0.717399447571E+03   -0.13582E-05   -0.32078E-05  6980   0.127E-02
  42 F= -.71739945E+03 E0= -.71739945E+03  d E =-.975057E-04
 curvature:  -0.76 expect dE=-0.151E-03 dE for cont linesearch -0.395E-04
 ZBRENT: interpolating
 opt :   0.6218  next Energy=  -717.399457 (dE=-0.107E-03)
 bond charge predicted
       N       E                     dE             d eps       ncg     rms          rms(c)
DAV:   1    -0.717399449431E+03   -0.32182E-05   -0.37231E-04 11176   0.307E-02    0.138E-02
RMM:   2    -0.717399461920E+03   -0.12490E-04   -0.38147E-05  7036   0.141E-02    0.394E-02
RMM:   3    -0.717399451063E+03    0.10857E-04   -0.70658E-06  5571   0.591E-03    0.515E-03
RMM:   4    -0.717399450439E+03    0.62407E-06   -0.21807E-06  5530   0.350E-03
  43 F= -.71739945E+03 E0= -.71739945E+03  d E =-.100374E-03
 curvature:  -0.00 expect dE=-0.260E-06 dE for cont linesearch -0.976E-09
 trial: gam= 0.15227 g(F)=  0.143E-03 g(S)=  0.000E+00 ort = 0.219E-04 (trialstep = 0.627E+00)
 search vector abs. value=  0.170E-03
 bond charge predicted
       N       E                     dE             d eps       ncg     rms          rms(c)
DAV:   1    -0.717399450021E+03    0.10416E-05   -0.15125E-02 10592   0.182E-01    0.307E-02
RMM:   2    -0.717399510954E+03   -0.60932E-04   -0.56679E-04 13274   0.505E-02    0.466E-02
RMM:   3    -0.717399515120E+03   -0.41668E-05   -0.13604E-04 11853   0.211E-02    0.202E-02
RMM:   4    -0.717399512803E+03    0.23178E-05   -0.22147E-05  6301   0.108E-02
  44 F= -.71739951E+03 E0= -.71739951E+03  d E =-.623639E-04
 trial-energy change:   -0.000062  1 .order   -0.000048   -0.000092   -0.000003
 step:   0.6504(harm=  0.6504)  dis= 0.00050  next Energy=  -717.399498 (dE=-0.476E-04)
 bond charge predicted
       N       E                     dE             d eps       ncg     rms          rms(c)
DAV:   1    -0.717399510215E+03    0.49057E-05   -0.31170E-05  7488   0.139E-02    0.718E-03
RMM:   2    -0.717399511229E+03   -0.10144E-05   -0.12303E-05  5820   0.897E-03
  45 F= -.71739951E+03 E0= -.71739951E+03  d E =-.607904E-04
 curvature:  -0.38 expect dE=-0.286E-04 dE for cont linesearch -0.215E-05
 ZBRENT: interpolating
 opt :   0.6303  next Energy=  -717.399513 (dE=-0.624E-04)
 bond charge predicted
       N       E                     dE             d eps       ncg     rms          rms(c)
DAV:   1    -0.717399510309E+03   -0.94202E-07   -0.10092E-05  7144   0.849E-03    0.399E-03
RMM:   2    -0.717399511047E+03   -0.73764E-06   -0.44513E-06  5278   0.446E-03
  46 F= -.71739951E+03 E0= -.71739951E+03  d E =-.606078E-04
 curvature:  -0.00 expect dE=-0.172E-06 dE for cont linesearch -0.435E-07
 ZBRENT: interpolating
 opt :   0.6441  next Energy=  -717.399511 (dE=-0.609E-04)
 bond charge predicted
       N       E                     dE             d eps       ncg     rms          rms(c)
DAV:   1    -0.717399510903E+03   -0.59383E-06   -0.60480E-06  5584   0.614E-03    0.198E-03
RMM:   2    -0.717399511054E+03   -0.15097E-06   -0.17774E-06  5139   0.289E-03
  47 F= -.71739951E+03 E0= -.71739951E+03  d E =-.606150E-04
 curvature:  -0.00 expect dE=-0.226E-06 dE for cont linesearch -0.696E-09
 trial: gam= 0.44829 g(F)=  0.628E-04 g(S)=  0.000E+00 ort = 0.574E-05 (trialstep = 0.630E+00)
 search vector abs. value=  0.102E-03
 bond charge predicted
       N       E                     dE             d eps       ncg     rms          rms(c)
DAV:   1    -0.717399519307E+03   -0.84044E-05   -0.91584E-03 10936   0.140E-01    0.375E-02
RMM:   2    -0.717399588811E+03   -0.69504E-04   -0.36551E-04 12678   0.404E-02    0.865E-02
RMM:   3    -0.717399554273E+03    0.34538E-04   -0.10261E-04 10213   0.192E-02    0.186E-02
RMM:   4    -0.717399550102E+03    0.41707E-05   -0.19052E-05  6245   0.955E-03
  48 F= -.71739955E+03 E0= -.71739955E+03  d E =-.390487E-04
 trial-energy change:   -0.000039  1 .order   -0.000018   -0.000041    0.000006
 step:   0.5533(harm=  0.5533)  dis= 0.00042  next Energy=  -717.399529 (dE=-0.181E-04)
 bond charge predicted
       N       E                     dE             d eps       ncg     rms          rms(c)
DAV:   1    -0.717399546218E+03    0.80552E-05   -0.13925E-04 10848   0.177E-02    0.112E-02
RMM:   2    -0.717399550320E+03   -0.41023E-05   -0.15243E-05  5871   0.721E-03
  49 F= -.71739955E+03 E0= -.71739955E+03  d E =-.392665E-04
 curvature:  -0.43 expect dE=-0.250E-04 dE for cont linesearch -0.168E-04
 ZBRENT: interpolating
 opt :   0.6206  next Energy=  -717.399550 (dE=-0.391E-04)
 bond charge predicted
       N       E                     dE             d eps       ncg     rms          rms(c)
DAV:   1    -0.717399546786E+03   -0.56859E-06   -0.10065E-04 12272   0.203E-02    0.699E-03
RMM:   2    -0.717399547692E+03   -0.90556E-06   -0.76960E-06  5323   0.634E-03
  50 F= -.71739955E+03 E0= -.71739955E+03  d E =-.366384E-04
 curvature:  -0.00 expect dE=-0.420E-07 dE for cont linesearch -0.153E-08
 ZBRENT: interpolating
 opt :   0.6261  next Energy=  -717.399550 (dE=-0.391E-04)
 bond charge predicted
       N       E                     dE             d eps       ncg     rms          rms(c)
DAV:   1    -0.717399547570E+03   -0.78367E-06   -0.63185E-06  5528   0.872E-03    0.674E-03
RMM:   2    -0.717399549678E+03   -0.21079E-05   -0.40347E-06  5192   0.405E-03
  51 F= -.71739955E+03 E0= -.71739955E+03  d E =-.386244E-04
 curvature:  -0.01 expect dE=-0.419E-06 dE for cont linesearch -0.439E-07
 ZBRENT: interpolating
 opt :   0.6289  next Energy=  -717.399550 (dE=-0.391E-04)
 bond charge predicted
       N       E                     dE             d eps       ncg     rms          rms(c)
DAV:   1    -0.717399547677E+03   -0.10649E-06   -0.11148E-05  5408   0.980E-03    0.355E-03
RMM:   2    -0.717399548023E+03   -0.34623E-06   -0.97316E-07  4929   0.194E-03
  52 F= -.71739955E+03 E0= -.71739955E+03  d E =-.369692E-04
 curvature:  -0.00 expect dE=-0.817E-07 dE for cont linesearch -0.748E-08
 ZBRENT: interpolating
 opt :   0.6298  next Energy=  -717.399550 (dE=-0.391E-04)
 bond charge predicted
       N       E                     dE             d eps       ncg     rms          rms(c)
DAV:   1    -0.717399547685E+03   -0.78435E-08   -0.36644E-06  5280   0.453E-03    0.190E-03
RMM:   2    -0.717399547840E+03   -0.15585E-06   -0.24684E-07  2365   0.112E-03
  53 F= -.71739955E+03 E0= -.71739955E+03  d E =-.367867E-04
 curvature:  -0.00 expect dE=-0.252E-07 dE for cont linesearch -0.216E-08
 ZBRENT: interpolating
 opt :   0.6301  next Energy=  -717.399550 (dE=-0.390E-04)
 bond charge predicted
       N       E                     dE             d eps       ncg     rms          rms(c)
DAV:   1    -0.717399547656E+03    0.28616E-07   -0.13353E-06  5272   0.239E-03    0.575E-04
RMM:   2    -0.717399547652E+03    0.34124E-08   -0.43037E-08  1018   0.730E-04
  54 F= -.71739955E+03 E0= -.71739955E+03  d E =-.365988E-04
 curvature:  -0.00 expect dE=-0.900E-08 dE for cont linesearch -0.668E-09
 ZBRENT: interpolating
 opt :   0.6302  next Energy=  -717.399550 (dE=-0.390E-04)
 bond charge predicted
       N       E                     dE             d eps       ncg     rms          rms(c)
DAV:   1    -0.717399547648E+03    0.83674E-08   -0.22389E-07  5240   0.706E-04    0.465E-04
RMM:   2    -0.717399547642E+03    0.58135E-08   -0.36782E-09   791   0.431E-04
  55 F= -.71739955E+03 E0= -.71739955E+03  d E =-.365880E-04
 curvature:  -0.00 expect dE=-0.322E-08 dE for cont linesearch -0.286E-09
 ZBRENT: interpolating
 opt :   0.6303  next Energy=  -717.399550 (dE=-0.390E-04)
 bond charge predicted
       N       E                     dE             d eps       ncg     rms          rms(c)
DAV:   1    -0.717399547647E+03    0.55297E-09   -0.34294E-08  5208   0.429E-04    0.424E-04
RMM:   2    -0.717399547646E+03    0.72032E-09   -0.99241E-11   661   0.233E-04
  56 F= -.71739955E+03 E0= -.71739955E+03  d E =-.365926E-04
 curvature:  -0.00 expect dE=-0.755E-09 dE for cont linesearch -0.682E-10
 ZBRENT: interpolating
 opt :   0.6303  next Energy=  -717.399550 (dE=-0.390E-04)
 bond charge predicted
       N       E                     dE             d eps       ncg     rms          rms(c)
DAV:   1    -0.717399547645E+03    0.17972E-08   -0.10849E-08  5208   0.403E-04    0.422E-04
RMM:   2    -0.717399547654E+03   -0.87894E-08   -0.91255E-09   711   0.300E-04
  57 F= -.71739955E+03 E0= -.71739955E+03  d E =-.366003E-04
 curvature:  -0.00 expect dE=-0.221E-09 dE for cont linesearch -0.187E-10
 ZBRENT: interpolating
 opt :   0.6303  next Energy=  -717.399550 (dE=-0.390E-04)
 bond charge predicted
       N       E                     dE             d eps       ncg     rms          rms(c)
DAV:   1    -0.717399547643E+03    0.25830E-08   -0.45450E-08  5202   0.482E-04    0.213E-04
RMM:   2    -0.717399547642E+03    0.28376E-09    0.00000E+00   497   0.173E-04
  58 F= -.71739955E+03 E0= -.71739955E+03  d E =-.365886E-04
 curvature:  -0.00 expect dE=-0.671E-10 dE for cont linesearch -0.612E-11
 ZBRENT: interpolating
 opt :   0.6303  next Energy=  -717.399550 (dE=-0.390E-04)
 bond charge predicted
       N       E                     dE             d eps       ncg     rms          rms(c)
DAV:   1    -0.717399547644E+03   -0.18699E-08   -0.14352E-08  5184   0.174E-04    0.133E-04
RMM:   2    -0.717399547645E+03   -0.10259E-08   -0.72624E-10   496   0.142E-04
  59 F= -.71739955E+03 E0= -.71739955E+03  d E =-.365918E-04
 curvature:  -0.00 expect dE=-0.183E-10 dE for cont linesearch -0.168E-11
 ZBRENT: interpolating
 opt :   0.6303  next Energy=  -717.399550 (dE=-0.390E-04)
 bond charge predicted
       N       E                     dE             d eps       ncg     rms          rms(c)
DAV:   1    -0.717399547646E+03   -0.13752E-08   -0.78715E-09  5178   0.180E-04    0.607E-05
RMM:   2    -0.717399547646E+03   -0.37835E-09    0.00000E+00   418   0.101E-04
  60 F= -.71739955E+03 E0= -.71739955E+03  d E =-.365925E-04
 curvature:  -0.00 expect dE=-0.526E-11 dE for cont linesearch -0.495E-12
 ZBRENT: interpolating
 opt :   0.6303  next Energy=  -717.399550 (dE=-0.390E-04)
 bond charge predicted
       N       E                     dE             d eps       ncg     rms          rms(c)
DAV:   1    -0.717399547645E+03    0.64028E-09   -0.30999E-09  5184   0.881E-05    0.762E-05
RMM:   2    -0.717399547645E+03    0.29831E-09    0.00000E+00   393   0.572E-05
  61 F= -.71739955E+03 E0= -.71739955E+03  d E =-.365912E-04
 curvature:  -0.00 expect dE=-0.148E-11 dE for cont linesearch -0.141E-12
 ZBRENT:  accuracy reached
 opt :   0.0000  next Energy=     0.000000 (dE= 0.717E+03)
 bond charge predicted
       N       E                     dE             d eps       ncg     rms          rms(c)
DAV:   1    -0.717399484453E+03    0.63193E-04   -0.90768E-03 10892   0.139E-01    0.370E-02
RMM:   2    -0.717399554374E+03   -0.69921E-04   -0.36042E-04 12592   0.394E-02    0.879E-02
RMM:   3    -0.717399517860E+03    0.36514E-04   -0.97308E-05  9739   0.188E-02    0.177E-02
RMM:   4    -0.717399513885E+03    0.39750E-05   -0.18523E-05  6255   0.931E-03
  62 F= -.71739951E+03 E0= -.71739951E+03  d E =-.283108E-05
 curvature:   0.00 expect dE= 0.000E+00 dE for cont linesearch  0.000E+00
 -----------------------------------------------------------------------------
|                                                                             |
|     EEEEEEE  RRRRRR   RRRRRR   OOOOOOO  RRRRRR      ###     ###     ###     |
|     E        R     R  R     R  O     O  R     R     ###     ###     ###     |
|     E        R     R  R     R  O     O  R     R     ###     ###     ###     |
|     EEEEE    RRRRRR   RRRRRR   O     O  RRRRRR       #       #       #      |
|     E        R   R    R   R    O     O  R   R                               |
|     E        R    R   R    R   O     O  R    R      ###     ###     ###     |
|     EEEEEEE  R     R  R     R  OOOOOOO  R     R     ###     ###     ###     |
|                                                                             |
|     ZBRENT: fatal error in bracketing                                       |
|      please rerun with smaller EDIFF, or copy CONTCAR                       |
|      to POSCAR and continue                                                 |
|                                                                             |
|       ---->  I REFUSE TO CONTINUE WITH THIS SICK JOB ... BYE!!! <----       |
|                                                                             |
 -----------------------------------------------------------------------------

Warning: ieee_invalid is signaling
Warning: ieee_divide_by_zero is signaling
Warning: ieee_underflow is signaling
Warning: ieee_inexact is signaling
    1
Warning: ieee_invalid is signaling
Warning: ieee_divide_by_zero is signaling
Warning: ieee_underflow is signaling
Warning: ieee_inexact is signaling
    1
Warning: ieee_invalid is signaling
Warning: ieee_divide_by_zero is signaling
Warning: ieee_underflow is signaling
Warning: ieee_inexact is signaling
    1
Warning: ieee_invalid is signaling
Warning: ieee_divide_by_zero is signaling
Warning: ieee_underflow is signaling
Warning: ieee_inexact is signaling
    1
--------------------------------------------------------------------------
Primary job  terminated normally, but 1 process returned
a non-zero exit code. Per user-direction, the job has been aborted.
--------------------------------------------------------------------------
--------------------------------------------------------------------------
mpirun detected that one or more processes exited with non-zero status, thus causing
the job to be terminated. The first process to do so was:

  Process name: [[30315,1],0]
  Exit code:    1
--------------------------------------------------------------------------
