 running    4 mpi-ranks, on    1 nodes
 distrk:  each k-point on    1 cores,    4 groups
 distr:  one band on    1 cores,    1 groups
 OpenACC runtime initialized ...    4 GPUs detected
 vasp.6.4.2 20Jul23 (build Nov 12 2023 22:16:35) complex                         
 POSCAR found type information on POSCAR GaO N Fe
 POSCAR found :  4 types and     120 ions
 scaLAPACK will be used selectively (only on CPU)
 LDA part: xc-table for Pade appr. of Perdew
 POSCAR, INCAR and KPOINTS ok, starting setup
 FFT: planning ... GRIDC
 FFT: planning ... GRID_SOFT
 FFT: planning ... GRID
 WAVECAR not read
 entering main loop
       N       E                     dE             d eps       ncg     rms          rms(c)
DAV:   1     0.217908787043E+05    0.21791E+05   -0.32040E+05 10080   0.281E+03
DAV:   2     0.484672907287E+04   -0.16944E+05   -0.15969E+05 10080   0.815E+02
DAV:   3    -0.143847474732E+03   -0.49906E+04   -0.46843E+04 12800   0.321E+02
DAV:   4    -0.791658353833E+03   -0.64781E+03   -0.63123E+03 12416   0.123E+02
DAV:   5    -0.838964980634E+03   -0.47307E+02   -0.46834E+02 14608   0.359E+01    0.756E+01
RMM:   6    -0.848126568358E+03   -0.91616E+01   -0.84045E+02 13835   0.338E+01    0.224E+02
RMM:   7    -0.808031148577E+03    0.40095E+02   -0.86740E+01 15358   0.117E+01    0.141E+02
RMM:   8    -0.725336748254E+03    0.82694E+02   -0.49099E+01 13116   0.658E+00    0.419E+01
RMM:   9    -0.721089616054E+03    0.42471E+01   -0.71224E+00 12871   0.347E+00    0.243E+01
RMM:  10    -0.718059349205E+03    0.30303E+01   -0.49776E+00 13134   0.255E+00    0.189E+01
RMM:  11    -0.717822359266E+03    0.23699E+00   -0.34215E+00 13221   0.199E+00    0.161E+01
RMM:  12    -0.717587960017E+03    0.23440E+00   -0.79530E-01 13818   0.140E+00    0.101E+01
RMM:  13    -0.717248219104E+03    0.33974E+00   -0.35206E-01 15025   0.871E-01    0.667E+00
RMM:  14    -0.716988231950E+03    0.25999E+00   -0.33508E-01 13425   0.696E-01    0.367E+00
RMM:  15    -0.716933369880E+03    0.54862E-01   -0.78521E-02 14071   0.335E-01    0.289E+00
RMM:  16    -0.716873662546E+03    0.59707E-01   -0.68843E-02 13161   0.246E-01    0.217E+00
RMM:  17    -0.716827246502E+03    0.46416E-01   -0.12245E-01 13248   0.316E-01    0.560E-01
RMM:  18    -0.716828320228E+03   -0.10737E-02   -0.21257E-02 15035   0.200E-01    0.456E-01
RMM:  19    -0.716826788476E+03    0.15318E-02   -0.13442E-02 14145   0.104E-01    0.167E-01
RMM:  20    -0.716826456381E+03    0.33209E-03   -0.66177E-03 12995   0.780E-02    0.224E-01
RMM:  21    -0.716826644013E+03   -0.18763E-03   -0.31134E-03 13835   0.519E-02    0.922E-02
RMM:  22    -0.716826551851E+03    0.92161E-04   -0.88968E-04 10801   0.305E-02    0.108E-01
RMM:  23    -0.716826531549E+03    0.20302E-04   -0.44554E-04  9691   0.163E-02    0.317E-02
RMM:  24    -0.716826496048E+03    0.35501E-04   -0.15861E-04 10039   0.140E-02    0.610E-02
RMM:  25    -0.716826492906E+03    0.31423E-05   -0.71482E-05  7842   0.899E-03
   1 F= -.71682649E+03 E0= -.71682649E+03  d E =-.716826E+03
 curvature:   0.00 expect dE= 0.000E+00 dE for cont linesearch  0.000E+00
 trial: gam= 0.00000 g(F)=  0.145E+01 g(S)=  0.000E+00 ort = 0.000E+00 (trialstep = 0.100E+01)
 search vector abs. value=  0.145E+01
 bond charge predicted
       N       E                     dE             d eps       ncg     rms          rms(c)
DAV:   1    -0.716329875168E+03    0.49662E+00   -0.29456E+02 10944   0.177E+01    0.103E+01
RMM:   2    -0.719041467412E+03   -0.27116E+01   -0.12654E+01 12069   0.543E+00    0.227E+01
RMM:   3    -0.717076198419E+03    0.19653E+01   -0.42879E+00 14671   0.269E+00    0.766E+00
RMM:   4    -0.716834096599E+03    0.24210E+00   -0.71357E-01 13858   0.108E+00    0.640E+00
RMM:   5    -0.716732709270E+03    0.10139E+00   -0.36720E-01 13828   0.720E-01    0.275E+00
RMM:   6    -0.716708828475E+03    0.23881E-01   -0.12006E-01 14177   0.358E-01    0.129E+00
RMM:   7    -0.716715172976E+03   -0.63445E-02   -0.32864E-02 14066   0.194E-01    0.852E-01
RMM:   8    -0.716710853128E+03    0.43198E-02   -0.10698E-02 14068   0.115E-01    0.488E-01
RMM:   9    -0.716710312933E+03    0.54020E-03   -0.30976E-03 13405   0.558E-02    0.285E-01
RMM:  10    -0.716710088126E+03    0.22481E-03   -0.14172E-03 11201   0.331E-02    0.214E-01
RMM:  11    -0.716709903313E+03    0.18481E-03   -0.52409E-04 10462   0.237E-02    0.878E-02
RMM:  12    -0.716709892447E+03    0.10865E-04   -0.32366E-04  9935   0.153E-02    0.556E-02
RMM:  13    -0.716709878849E+03    0.13598E-04   -0.87318E-05  8568   0.105E-02    0.258E-02
RMM:  14    -0.716709876861E+03    0.19886E-05   -0.47526E-05  6972   0.706E-03
   2 F= -.71670988E+03 E0= -.71670881E+03  d E =0.116616E+00
 trial-energy change:    0.116616  1 .order    0.645345   -1.451403    2.742094
 step:   0.5343(harm=  0.3461)  dis= 0.09916  next Energy=  -717.294930 (dE=-0.468E+00)
 bond charge predicted
       N       E                     dE             d eps       ncg     rms          rms(c)
DAV:   1    -0.717307967352E+03   -0.59809E+00   -0.65913E+01 11640   0.860E+00    0.612E+00
RMM:   2    -0.719187386959E+03   -0.18794E+01   -0.52812E+00 11075   0.388E+00    0.164E+01
RMM:   3    -0.717380729341E+03    0.18067E+01   -0.11093E+00 13030   0.158E+00    0.410E+00
RMM:   4    -0.717301116936E+03    0.79612E-01   -0.23991E-01 14556   0.593E-01    0.405E+00
RMM:   5    -0.717290793407E+03    0.10324E-01   -0.75693E-02 13226   0.278E-01    0.211E+00
RMM:   6    -0.717282678107E+03    0.81153E-02   -0.43902E-02 13161   0.217E-01    0.126E+00
RMM:   7    -0.717271025394E+03    0.11653E-01   -0.12730E-02 14749   0.137E-01    0.566E-01
RMM:   8    -0.717269861434E+03    0.11640E-02   -0.28504E-03 12625   0.511E-02    0.300E-01
RMM:   9    -0.717269374950E+03    0.48648E-03   -0.13840E-03 11401   0.402E-02    0.136E-01
RMM:  10    -0.717269377960E+03   -0.30103E-05   -0.64809E-04 10733   0.223E-02    0.264E-02
RMM:  11    -0.717269392485E+03   -0.14524E-04   -0.15105E-04  8905   0.138E-02    0.596E-02
RMM:  12    -0.717269388361E+03    0.41241E-05   -0.59628E-05  7248   0.784E-03
   3 F= -.71726939E+03 E0= -.71726939E+03  d E =-.442895E+00
 curvature:  -0.16 expect dE=-0.210E-01 dE for cont linesearch -0.634E-05
 trial: gam= 0.08588 g(F)=  0.132E+00 g(S)=  0.000E+00 ort = 0.761E-02 (trialstep = 0.907E+00)
 search vector abs. value=  0.144E+00
 bond charge predicted
       N       E                     dE             d eps       ncg     rms          rms(c)
DAV:   1    -0.717221109480E+03    0.48283E-01   -0.27504E+01 10984   0.744E+00    0.136E+00
RMM:   2    -0.717323960723E+03   -0.10285E+00   -0.10589E+00 13301   0.211E+00    0.182E+00
RMM:   3    -0.717333957334E+03   -0.99966E-02   -0.23257E-01 14728   0.875E-01    0.890E-01
RMM:   4    -0.717338189403E+03   -0.42321E-02   -0.34814E-02 14851   0.315E-01    0.111E+00
RMM:   5    -0.717331886268E+03    0.63031E-02   -0.84192E-03 14436   0.144E-01    0.509E-01
RMM:   6    -0.717329989157E+03    0.18971E-02   -0.52830E-03 13272   0.868E-02    0.233E-01
RMM:   7    -0.717329945348E+03    0.43809E-04   -0.20455E-03 13060   0.494E-02    0.138E-01
RMM:   8    -0.717329876378E+03    0.68971E-04   -0.33681E-04 10933   0.263E-02    0.950E-02
RMM:   9    -0.717329772542E+03    0.10384E-03   -0.34807E-04 11106   0.206E-02    0.602E-02
RMM:  10    -0.717329762530E+03    0.10012E-04   -0.10136E-04  9602   0.132E-02    0.196E-02
RMM:  11    -0.717329762855E+03   -0.32458E-06   -0.38743E-05  7440   0.850E-03
   4 F= -.71732976E+03 E0= -.71732976E+03  d E =-.603745E-01
 trial-energy change:   -0.060374  1 .order   -0.059581   -0.120528    0.001366
 step:   0.8971(harm=  0.8967)  dis= 0.02501  next Energy=  -717.329770 (dE=-0.604E-01)
 bond charge predicted
       N       E                     dE             d eps       ncg     rms          rms(c)
DAV:   1    -0.717329750928E+03    0.11602E-04   -0.31124E-03 11480   0.795E-02    0.230E-02
RMM:   2    -0.717329761218E+03   -0.10290E-04   -0.12452E-04 10902   0.227E-02    0.164E-02
RMM:   3    -0.717329762090E+03   -0.87239E-06   -0.23945E-05  6439   0.101E-02
   5 F= -.71732976E+03 E0= -.71732976E+03  d E =-.603737E-01
 curvature:  -0.49 expect dE=-0.271E-01 dE for cont linesearch -0.119E-04
 trial: gam= 0.40341 g(F)=  0.558E-01 g(S)=  0.000E+00 ort = 0.188E-02 (trialstep = 0.905E+00)
 search vector abs. value=  0.808E-01
 bond charge predicted
       N       E                     dE             d eps       ncg     rms          rms(c)
DAV:   1    -0.717302176726E+03    0.27584E-01   -0.15768E+01 10920   0.556E+00    0.863E-01
RMM:   2    -0.717353639013E+03   -0.51462E-01   -0.52053E-01 13039   0.144E+00    0.903E-01
RMM:   3    -0.717363232727E+03   -0.95937E-02   -0.12035E-01 14949   0.591E-01    0.653E-01
RMM:   4    -0.717361042099E+03    0.21906E-02   -0.15607E-02 14710   0.216E-01    0.393E-01
RMM:   5    -0.717359798888E+03    0.12432E-02   -0.37783E-03 14748   0.940E-02    0.217E-01
RMM:   6    -0.717359135230E+03    0.66366E-03   -0.35820E-03 12534   0.703E-02    0.758E-02
RMM:   7    -0.717359113276E+03    0.21954E-04   -0.64283E-04 13240   0.347E-02    0.525E-02
RMM:   8    -0.717359075393E+03    0.37883E-04   -0.17787E-04 10097   0.172E-02    0.238E-02
RMM:   9    -0.717359072423E+03    0.29693E-05   -0.10005E-04  9471   0.118E-02    0.167E-02
RMM:  10    -0.717359072320E+03    0.10384E-06   -0.35813E-05  7185   0.825E-03
   6 F= -.71735907E+03 E0= -.71735907E+03  d E =-.293102E-01
 trial-energy change:   -0.029310  1 .order   -0.029470   -0.051199   -0.007741
 step:   1.0704(harm=  1.0661)  dis= 0.01473  next Energy=  -717.359779 (dE=-0.300E-01)
 bond charge predicted
       N       E                     dE             d eps       ncg     rms          rms(c)
DAV:   1    -0.717357992968E+03    0.10795E-02   -0.52874E-01 11848   0.102E+00    0.159E-01
RMM:   2    -0.717359714120E+03   -0.17212E-02   -0.17241E-02 13005   0.261E-01    0.177E-01
RMM:   3    -0.717360004308E+03   -0.29019E-03   -0.39407E-03 14807   0.107E-01    0.122E-01
RMM:   4    -0.717359923397E+03    0.80911E-04   -0.52315E-04 12899   0.403E-02    0.712E-02
RMM:   5    -0.717359882042E+03    0.41354E-04   -0.14161E-04 10533   0.208E-02    0.401E-02
RMM:   6    -0.717359862135E+03    0.19907E-04   -0.13312E-04 10027   0.144E-02    0.156E-02
RMM:   7    -0.717359860233E+03    0.19021E-05   -0.25830E-05  6980   0.843E-03
   7 F= -.71735986E+03 E0= -.71735986E+03  d E =-.300981E-01
 curvature:  -0.76 expect dE=-0.281E-01 dE for cont linesearch -0.117E-05
 trial: gam= 0.65518 g(F)=  0.369E-01 g(S)=  0.000E+00 ort = 0.353E-03 (trialstep = 0.938E+00)
 search vector abs. value=  0.721E-01
 bond charge predicted
       N       E                     dE             d eps       ncg     rms          rms(c)
DAV:   1    -0.717324916975E+03    0.34945E-01   -0.15092E+01 10712   0.540E+00    0.819E-01
RMM:   2    -0.717367591984E+03   -0.42675E-01   -0.45507E-01 12611   0.137E+00    0.536E-01
RMM:   3    -0.717380789465E+03   -0.13197E-01   -0.12267E-01 14875   0.584E-01    0.609E-01
RMM:   4    -0.717380178547E+03    0.61092E-03   -0.15537E-02 14691   0.215E-01    0.401E-01
RMM:   5    -0.717379204617E+03    0.97393E-03   -0.37362E-03 14666   0.928E-02    0.211E-01
RMM:   6    -0.717378885712E+03    0.31890E-03   -0.28123E-03 12391   0.656E-02    0.895E-02
RMM:   7    -0.717378895896E+03   -0.10184E-04   -0.66090E-04 12862   0.329E-02    0.503E-02
RMM:   8    -0.717378857481E+03    0.38415E-04   -0.20217E-04  9897   0.177E-02    0.333E-02
RMM:   9    -0.717378853462E+03    0.40193E-05   -0.10105E-04  8926   0.113E-02    0.115E-02
RMM:  10    -0.717378854275E+03   -0.81369E-06   -0.41287E-05  7304   0.817E-03
   8 F= -.71737885E+03 E0= -.71737885E+03  d E =-.189940E-01
 trial-energy change:   -0.018994  1 .order   -0.018726   -0.034862   -0.002590
 step:   1.0095(harm=  1.0133)  dis= 0.01475  next Energy=  -717.378953 (dE=-0.191E-01)
 bond charge predicted
       N       E                     dE             d eps       ncg     rms          rms(c)
DAV:   1    -0.717378730248E+03    0.12321E-03   -0.88347E-02 11616   0.413E-01    0.613E-02
RMM:   2    -0.717378978565E+03   -0.24832E-03   -0.26471E-03 12619   0.103E-01    0.453E-02
RMM:   3    -0.717379049014E+03   -0.70449E-04   -0.69675E-04 14226   0.438E-02    0.455E-02
RMM:   4    -0.717379045947E+03    0.30673E-05   -0.97318E-05  9391   0.175E-02
   9 F= -.71737905E+03 E0= -.71737905E+03  d E =-.191857E-01
 curvature:  -0.98 expect dE=-0.183E-01 dE for cont linesearch -0.135E-05
 trial: gam= 0.47571 g(F)=  0.187E-01 g(S)=  0.000E+00 ort = 0.315E-03 (trialstep = 0.952E+00)
 search vector abs. value=  0.353E-01
 bond charge predicted
       N       E                     dE             d eps       ncg     rms          rms(c)
DAV:   1    -0.717359471506E+03    0.19578E-01   -0.75033E+00 10688   0.396E+00    0.709E-01
RMM:   2    -0.717393568841E+03   -0.34097E-01   -0.26284E-01 13121   0.107E+00    0.148E+00
RMM:   3    -0.717388588058E+03    0.49808E-02   -0.70071E-02 14242   0.484E-01    0.373E-01
RMM:   4    -0.717387768058E+03    0.82000E-03   -0.10275E-02 14721   0.169E-01    0.434E-01
RMM:   5    -0.717386977116E+03    0.79094E-03   -0.20570E-03 14861   0.696E-02    0.169E-01
RMM:   6    -0.717386651410E+03    0.32571E-03   -0.14437E-03 12545   0.445E-02    0.873E-02
RMM:   7    -0.717386619978E+03    0.31433E-04   -0.44017E-04 11973   0.288E-02    0.511E-02
RMM:   8    -0.717386607325E+03    0.12652E-04   -0.12645E-04  8979   0.145E-02    0.286E-02
RMM:   9    -0.717386598200E+03    0.91259E-05   -0.59541E-05  8235   0.997E-03
  10 F= -.71738660E+03 E0= -.71738660E+03  d E =-.755225E-02
 trial-energy change:   -0.007552  1 .order   -0.007115   -0.017949    0.003718
 step:   0.8040(harm=  0.7889)  dis= 0.00486  next Energy=  -717.386886 (dE=-0.784E-02)
 bond charge predicted
       N       E                     dE             d eps       ncg     rms          rms(c)
DAV:   1    -0.717386168118E+03    0.43921E-03   -0.18056E-01 10904   0.614E-01    0.115E-01
RMM:   2    -0.717387000020E+03   -0.83190E-03   -0.62828E-03 13165   0.163E-01    0.236E-01
RMM:   3    -0.717386859267E+03    0.14075E-03   -0.15856E-03 14061   0.736E-02    0.594E-02
RMM:   4    -0.717386833988E+03    0.25278E-04   -0.22768E-04 11793   0.261E-02    0.676E-02
RMM:   5    -0.717386815453E+03    0.18535E-04   -0.54386E-05  8035   0.136E-02    0.279E-02
RMM:   6    -0.717386806032E+03    0.94213E-05   -0.32551E-05  7029   0.862E-03
  11 F= -.71738681E+03 E0= -.71738681E+03  d E =-.776009E-02
 curvature:  -0.73 expect dE=-0.945E-02 dE for cont linesearch -0.673E-06
 trial: gam= 0.72974 g(F)=  0.129E-01 g(S)=  0.000E+00 ort = 0.180E-03 (trialstep = 0.923E+00)
 search vector abs. value=  0.320E-01
 bond charge predicted
       N       E                     dE             d eps       ncg     rms          rms(c)
DAV:   1    -0.717368774669E+03    0.18041E-01   -0.64929E+00 10648   0.370E+00    0.571E-01
RMM:   2    -0.717394056118E+03   -0.25281E-01   -0.21591E-01 12931   0.973E-01    0.105E+00
RMM:   3    -0.717393854272E+03    0.20185E-03   -0.58118E-02 14459   0.440E-01    0.327E-01
RMM:   4    -0.717393296920E+03    0.55735E-03   -0.75482E-03 14741   0.151E-01    0.295E-01
RMM:   5    -0.717392836450E+03    0.46047E-03   -0.14916E-03 14907   0.600E-02    0.118E-01
RMM:   6    -0.717392620320E+03    0.21613E-03   -0.87927E-04 12384   0.365E-02    0.782E-02
RMM:   7    -0.717392579614E+03    0.40706E-04   -0.38979E-04 11876   0.270E-02    0.439E-02
RMM:   8    -0.717392566240E+03    0.13374E-04   -0.88392E-05  8934   0.141E-02    0.208E-02
RMM:   9    -0.717392560936E+03    0.53039E-05   -0.48467E-05  8122   0.909E-03
  12 F= -.71739256E+03 E0= -.71739256E+03  d E =-.575490E-02
 trial-energy change:   -0.005755  1 .order   -0.005341   -0.012027    0.001345
 step:   0.8433(harm=  0.8299)  dis= 0.00562  next Energy=  -717.392618 (dE=-0.581E-02)
 bond charge predicted
       N       E                     dE             d eps       ncg     rms          rms(c)
DAV:   1    -0.717392411325E+03    0.15492E-03   -0.47608E-02 11016   0.318E-01    0.505E-02
RMM:   2    -0.717392593207E+03   -0.18188E-03   -0.15927E-03 12912   0.825E-02    0.856E-02
RMM:   3    -0.717392596349E+03   -0.31425E-05   -0.40999E-04 13490   0.368E-02    0.307E-02
RMM:   4    -0.717392590150E+03    0.61990E-05   -0.52860E-05  7759   0.143E-02
  13 F= -.71739259E+03 E0= -.71739259E+03  d E =-.578412E-02
 curvature:  -1.00 expect dE=-0.666E-02 dE for cont linesearch -0.310E-04
 trial: gam= 0.45056 g(F)=  0.669E-02 g(S)=  0.000E+00 ort = 0.997E-03 (trialstep = 0.907E+00)
 search vector abs. value=  0.141E-01
 bond charge predicted
       N       E                     dE             d eps       ncg     rms          rms(c)
DAV:   1    -0.717385286466E+03    0.73099E-02   -0.28659E+00 10488   0.241E+00    0.305E-01
RMM:   2    -0.717394317789E+03   -0.90313E-02   -0.94648E-02 12928   0.614E-01    0.196E-01
RMM:   3    -0.717396671373E+03   -0.23536E-02   -0.22066E-02 15163   0.250E-01    0.263E-01
RMM:   4    -0.717396389715E+03    0.28166E-03   -0.25416E-03 14614   0.912E-02    0.124E-01
RMM:   5    -0.717396252762E+03    0.13695E-03   -0.57156E-04 13497   0.373E-02    0.768E-02
RMM:   6    -0.717396143549E+03    0.10921E-03   -0.33043E-04 11025   0.235E-02    0.371E-02
RMM:   7    -0.717396145631E+03   -0.20820E-05   -0.19560E-04 10487   0.182E-02    0.243E-02
RMM:   8    -0.717396135850E+03    0.97812E-05   -0.45385E-05  8012   0.116E-02
  14 F= -.71739614E+03 E0= -.71739614E+03  d E =-.354570E-02
 trial-energy change:   -0.003546  1 .order   -0.003452   -0.006473   -0.000431
 step:   0.9656(harm=  0.9715)  dis= 0.00466  next Energy=  -717.396150 (dE=-0.356E-02)
 bond charge predicted
       N       E                     dE             d eps       ncg     rms          rms(c)
DAV:   1    -0.717396119935E+03    0.25696E-04   -0.12512E-02 11600   0.160E-01    0.238E-02
RMM:   2    -0.717396165824E+03   -0.45889E-04   -0.47251E-04 12805   0.438E-02    0.222E-02
RMM:   3    -0.717396175668E+03   -0.98433E-05   -0.11936E-04 11657   0.185E-02    0.196E-02
RMM:   4    -0.717396173108E+03    0.25601E-05   -0.15724E-05  6147   0.927E-03
  15 F= -.71739617E+03 E0= -.71739617E+03  d E =-.358296E-02
 curvature:  -0.95 expect dE=-0.299E-02 dE for cont linesearch -0.460E-05
 trial: gam= 0.43986 g(F)=  0.315E-02 g(S)=  0.000E+00 ort = 0.261E-03 (trialstep = 0.919E+00)
 search vector abs. value=  0.611E-02
 bond charge predicted
       N       E                     dE             d eps       ncg     rms          rms(c)
DAV:   1    -0.717393382998E+03    0.27927E-02   -0.12691E+00 10536   0.159E+00    0.290E-01
RMM:   2    -0.717398295742E+03   -0.49127E-02   -0.41036E-02 12608   0.413E-01    0.487E-01
RMM:   3    -0.717398215232E+03    0.80510E-04   -0.11081E-02 14421   0.187E-01    0.184E-01
RMM:   4    -0.717397987794E+03    0.22744E-03   -0.15089E-03 14297   0.674E-02    0.144E-01
RMM:   5    -0.717397867175E+03    0.12062E-03   -0.33918E-04 12117   0.291E-02    0.551E-02
RMM:   6    -0.717397830170E+03    0.37005E-04   -0.19888E-04 10404   0.179E-02    0.365E-02
RMM:   7    -0.717397822667E+03    0.75031E-05   -0.80095E-05  8998   0.130E-02
  16 F= -.71739782E+03 E0= -.71739782E+03  d E =-.164956E-02
 trial-energy change:   -0.001650  1 .order   -0.001657   -0.003001   -0.000313
 step:   1.0253(harm=  1.0253)  dis= 0.00344  next Energy=  -717.397848 (dE=-0.167E-02)
 bond charge predicted
       N       E                     dE             d eps       ncg     rms          rms(c)
DAV:   1    -0.717397753450E+03    0.76720E-04   -0.17250E-02 11568   0.186E-01    0.342E-02
RMM:   2    -0.717397821242E+03   -0.67792E-04   -0.62813E-04 12670   0.504E-02    0.475E-02
RMM:   3    -0.717397826250E+03   -0.50079E-05   -0.16360E-04 11840   0.229E-02    0.225E-02
RMM:   4    -0.717397823933E+03    0.23167E-05   -0.26295E-05  6820   0.108E-02
  17 F= -.71739782E+03 E0= -.71739782E+03  d E =-.165083E-02
 curvature:  -0.96 expect dE=-0.236E-02 dE for cont linesearch -0.199E-04
 trial: gam= 0.91615 g(F)=  0.246E-02 g(S)=  0.000E+00 ort =-0.356E-03 (trialstep = 0.827E+00)
 search vector abs. value=  0.694E-02
 bond charge predicted
       N       E                     dE             d eps       ncg     rms          rms(c)
DAV:   1    -0.717394591360E+03    0.32349E-02   -0.11693E+00 10404   0.151E+00    0.273E-01
RMM:   2    -0.717399340563E+03   -0.47492E-02   -0.35730E-02 12117   0.390E-01    0.556E-01
RMM:   3    -0.717398726213E+03    0.61435E-03   -0.11014E-02 14369   0.183E-01    0.133E-01
RMM:   4    -0.717398621926E+03    0.10429E-03   -0.13625E-03 14286   0.632E-02    0.165E-01
RMM:   5    -0.717398531691E+03    0.90235E-04   -0.28531E-04 11354   0.260E-02    0.740E-02
RMM:   6    -0.717398472412E+03    0.59279E-04   -0.19876E-04 10261   0.194E-02    0.385E-02
RMM:   7    -0.717398467604E+03    0.48079E-05   -0.85005E-05  9081   0.131E-02
  18 F= -.71739847E+03 E0= -.71739847E+03  d E =-.643671E-03
 trial-energy change:   -0.000644  1 .order   -0.000644   -0.001769    0.000482
 step:   0.6502(harm=  0.6502)  dis= 0.00291  next Energy=  -717.398519 (dE=-0.695E-03)
 bond charge predicted
       N       E                     dE             d eps       ncg     rms          rms(c)
DAV:   1    -0.717398370120E+03    0.10229E-03   -0.53733E-02 10440   0.322E-01    0.597E-02
RMM:   2    -0.717398594793E+03   -0.22467E-03   -0.16463E-03 12282   0.821E-02    0.127E-01
RMM:   3    -0.717398552780E+03    0.42013E-04   -0.45865E-04 12477   0.382E-02    0.315E-02
RMM:   4    -0.717398542756E+03    0.10025E-04   -0.63066E-05  8407   0.157E-02    0.364E-02
RMM:   5    -0.717398537385E+03    0.53709E-05   -0.15469E-05  6254   0.793E-03
  19 F= -.71739854E+03 E0= -.71739854E+03  d E =-.713452E-03
 curvature:  -1.05 expect dE=-0.125E-02 dE for cont linesearch -0.646E-07
 trial: gam= 0.39687 g(F)=  0.118E-02 g(S)=  0.000E+00 ort =-0.206E-04 (trialstep = 0.792E+00)
 search vector abs. value=  0.226E-02
 bond charge predicted
       N       E                     dE             d eps       ncg     rms          rms(c)
DAV:   1    -0.717397674276E+03    0.86848E-03   -0.33640E-01 10592   0.853E-01    0.103E-01
RMM:   2    -0.717398839041E+03   -0.11648E-02   -0.11618E-02 13221   0.224E-01    0.127E-01
RMM:   3    -0.717399051407E+03   -0.21237E-03   -0.27460E-03 14599   0.947E-02    0.821E-02
RMM:   4    -0.717399017515E+03    0.33892E-04   -0.33824E-04 12649   0.333E-02    0.431E-02
RMM:   5    -0.717398996134E+03    0.21381E-04   -0.93682E-05 10191   0.174E-02    0.253E-02
RMM:   6    -0.717398991473E+03    0.46614E-05   -0.51734E-05  8217   0.105E-02
  20 F= -.71739899E+03 E0= -.71739899E+03  d E =-.454088E-03
 trial-energy change:   -0.000454  1 .order   -0.000484   -0.000931   -0.000038
 step:   0.8252(harm=  0.8252)  dis= 0.00139  next Energy=  -717.399023 (dE=-0.485E-03)
 bond charge predicted
       N       E                     dE             d eps       ncg     rms          rms(c)
DAV:   1    -0.717398985730E+03    0.10404E-04   -0.58647E-04 13840   0.433E-02    0.159E-02
RMM:   2    -0.717398989592E+03   -0.38617E-05   -0.37857E-05  7899   0.125E-02
  21 F= -.71739899E+03 E0= -.71739899E+03  d E =-.452207E-03
 curvature:  -0.79 expect dE=-0.469E-03 dE for cont linesearch -0.138E-04
 ZBRENT: interpolating
 opt :   0.7983  next Energy=  -717.398992 (dE=-0.454E-03)
 bond charge predicted
       N       E                     dE             d eps       ncg     rms          rms(c)
DAV:   1    -0.717398987268E+03   -0.15381E-05   -0.38040E-04 10728   0.305E-02    0.140E-02
RMM:   2    -0.717398996746E+03   -0.94774E-05   -0.28738E-05  6499   0.124E-02
  22 F= -.71739900E+03 E0= -.71739900E+03  d E =-.459361E-03
 curvature:  -0.01 expect dE=-0.490E-05 dE for cont linesearch -0.661E-07
 ZBRENT: bisectioning
 opt :   0.8118  next Energy=  -717.399000 (dE=-0.462E-03)
 bond charge predicted
       N       E                     dE             d eps       ncg     rms          rms(c)
DAV:   1    -0.717398987401E+03   -0.13251E-06   -0.12188E-04 10464   0.217E-02    0.878E-03
RMM:   2    -0.717398990092E+03   -0.26914E-05   -0.14507E-05  5773   0.921E-03
  23 F= -.71739899E+03 E0= -.71739899E+03  d E =-.452707E-03
 curvature:  -0.39 expect dE=-0.231E-03 dE for cont linesearch -0.800E-05
 ZBRENT: interpolating
 opt :   0.8034  next Energy=  -717.398997 (dE=-0.460E-03)
 bond charge predicted
       N       E                     dE             d eps       ncg     rms          rms(c)
DAV:   1    -0.717398987870E+03   -0.46864E-06   -0.41288E-05  7656   0.127E-02    0.399E-03
RMM:   2    -0.717398989110E+03   -0.12405E-05   -0.55349E-06  5321   0.562E-03
  24 F= -.71739899E+03 E0= -.71739899E+03  d E =-.451725E-03
 curvature:  -0.02 expect dE=-0.895E-05 dE for cont linesearch -0.120E-06
 ZBRENT: bisectioning
 opt :   0.8076  next Energy=  -717.398990 (dE=-0.452E-03)
 bond charge predicted
       N       E                     dE             d eps       ncg     rms          rms(c)
DAV:   1    -0.717398987903E+03   -0.33448E-07   -0.10331E-05  5824   0.701E-03    0.145E-03
RMM:   2    -0.717398987990E+03   -0.86577E-07   -0.20108E-06  5139   0.287E-03
  25 F= -.71739899E+03 E0= -.71739899E+03  d E =-.450605E-03
 curvature:  -0.07 expect dE=-0.415E-04 dE for cont linesearch -0.462E-06
 ZBRENT: interpolating
 opt :   0.8056  next Energy=  -717.398988 (dE=-0.451E-03)
 bond charge predicted
       N       E                     dE             d eps       ncg     rms          rms(c)
DAV:   1    -0.717398988016E+03   -0.11284E-06   -0.10405E-06  5522   0.204E-03    0.179E-03
RMM:   2    -0.717398988007E+03    0.90658E-08   -0.19280E-07  2507   0.107E-03
  26 F= -.71739899E+03 E0= -.71739899E+03  d E =-.450622E-03
 curvature:  -0.02 expect dE=-0.107E-04 dE for cont linesearch -0.234E-07
 trial: gam= 0.41503 g(F)=  0.566E-03 g(S)=  0.000E+00 ort = 0.528E-04 (trialstep = 0.795E+00)
 search vector abs. value=  0.100E-02
 bond charge predicted
       N       E                     dE             d eps       ncg     rms          rms(c)
DAV:   1    -0.717398679222E+03    0.30879E-03   -0.14536E-01 10632   0.566E-01    0.754E-02
RMM:   2    -0.717399219223E+03   -0.54000E-03   -0.49772E-03 13160   0.152E-01    0.128E-01
RMM:   3    -0.717399261010E+03   -0.41787E-04   -0.12751E-03 14248   0.661E-02    0.432E-02
RMM:   4    -0.717399255517E+03    0.54930E-05   -0.17321E-04 11453   0.234E-02    0.395E-02
RMM:   5    -0.717399245582E+03    0.99352E-05   -0.43761E-05  7850   0.130E-02
  27 F= -.71739925E+03 E0= -.71739925E+03  d E =-.257575E-03
 trial-energy change:   -0.000258  1 .order   -0.000257   -0.000468   -0.000047
 step:   0.8829(harm=  0.8829)  dis= 0.00114  next Energy=  -717.399248 (dE=-0.260E-03)
 bond charge predicted
       N       E                     dE             d eps       ncg     rms          rms(c)
DAV:   1    -0.717399238441E+03    0.17076E-04   -0.17189E-03 12566   0.697E-02    0.146E-02
RMM:   2    -0.717399254187E+03   -0.15746E-04   -0.11217E-04 10279   0.242E-02    0.334E-02
RMM:   3    -0.717399246287E+03    0.78997E-05   -0.22587E-05  6766   0.983E-03
  28 F= -.71739925E+03 E0= -.71739925E+03  d E =-.258281E-03
 curvature:  -0.75 expect dE=-0.183E-03 dE for cont linesearch -0.215E-05
 ZBRENT: interpolating
 opt :   0.8408  next Energy=  -717.399247 (dE=-0.259E-03)
 bond charge predicted
       N       E                     dE             d eps       ncg     rms          rms(c)
DAV:   1    -0.717399241895E+03    0.12292E-04   -0.38095E-04 10408   0.314E-02    0.898E-03
RMM:   2    -0.717399245001E+03   -0.31061E-05   -0.23711E-05  6074   0.124E-02
  29 F= -.71739925E+03 E0= -.71739924E+03  d E =-.256995E-03
 curvature:  -0.39 expect dE=-0.961E-04 dE for cont linesearch -0.135E-04
 ZBRENT: interpolating
 opt :   0.8735  next Energy=  -717.399247 (dE=-0.259E-03)
 bond charge predicted
       N       E                     dE             d eps       ncg     rms          rms(c)
DAV:   1    -0.717399244676E+03   -0.27810E-05   -0.22367E-04 10874   0.238E-02    0.805E-03
RMM:   2    -0.717399247739E+03   -0.30626E-05   -0.17435E-05  5855   0.946E-03
  30 F= -.71739925E+03 E0= -.71739925E+03  d E =-.259732E-03
 curvature:  -0.01 expect dE=-0.165E-05 dE for cont linesearch -0.975E-08
 trial: gam= 0.39697 g(F)=  0.226E-03 g(S)=  0.000E+00 ort =-0.365E-04 (trialstep = 0.810E+00)
 search vector abs. value=  0.354E-03
 bond charge predicted
       N       E                     dE             d eps       ncg     rms          rms(c)
DAV:   1    -0.717399169143E+03    0.75533E-04   -0.52576E-02 10776   0.344E-01    0.561E-02
RMM:   2    -0.717399404004E+03   -0.23486E-03   -0.18867E-03 13043   0.965E-02    0.115E-01
RMM:   3    -0.717399386162E+03    0.17841E-04   -0.53233E-04 13692   0.437E-02    0.309E-02
RMM:   4    -0.717399381037E+03    0.51256E-05   -0.77543E-05  9312   0.166E-02
  31 F= -.71739938E+03 E0= -.71739938E+03  d E =-.133298E-03
 trial-energy change:   -0.000133  1 .order   -0.000080   -0.000171    0.000011
 step:   0.7924(harm=  0.7616)  dis= 0.00067  next Energy=  -717.399381 (dE=-0.133E-03)
 bond charge predicted
       N       E                     dE             d eps       ncg     rms          rms(c)
DAV:   1    -0.717399376064E+03    0.10098E-04   -0.75986E-05  8662   0.143E-02    0.153E-02
RMM:   2    -0.717399377540E+03   -0.14758E-05   -0.16330E-05  5997   0.759E-03
  32 F= -.71739938E+03 E0= -.71739938E+03  d E =-.129801E-03
 curvature:  -0.38 expect dE=-0.492E-04 dE for cont linesearch -0.167E-04
 ZBRENT: interpolating
 opt :   0.8086  next Energy=  -717.399381 (dE=-0.133E-03)
 bond charge predicted
       N       E                     dE             d eps       ncg     rms          rms(c)
DAV:   1    -0.717399374707E+03    0.13578E-05   -0.24386E-05  7912   0.175E-02    0.123E-02
RMM:   2    -0.717399379787E+03   -0.50809E-05   -0.11467E-05  5703   0.694E-03
  33 F= -.71739938E+03 E0= -.71739938E+03  d E =-.132048E-03
 curvature:  -0.00 expect dE=-0.234E-07 dE for cont linesearch -0.145E-09
 trial: gam= 0.26807 g(F)=  0.843E-04 g(S)=  0.000E+00 ort = 0.136E-04 (trialstep = 0.810E+00)
 search vector abs. value=  0.117E-03
 bond charge predicted
       N       E                     dE             d eps       ncg     rms          rms(c)
DAV:   1    -0.717399359599E+03    0.15107E-04   -0.17938E-02 10728   0.199E-01    0.262E-02
RMM:   2    -0.717399420508E+03   -0.60909E-04   -0.65085E-04 13043   0.546E-02    0.104E-02
RMM:   3    -0.717399436265E+03   -0.15757E-04   -0.15866E-04 11838   0.228E-02    0.190E-02
RMM:   4    -0.717399434779E+03    0.14861E-05   -0.23712E-05  6369   0.115E-02
  34 F= -.71739943E+03 E0= -.71739943E+03  d E =-.549911E-04
 trial-energy change:   -0.000055  1 .order   -0.000042   -0.000071   -0.000014
 step:   1.0020(harm=  1.0020)  dis= 0.00037  next Energy=  -717.399424 (dE=-0.441E-04)
 bond charge predicted
       N       E                     dE             d eps       ncg     rms          rms(c)
DAV:   1    -0.717399438534E+03   -0.22689E-05   -0.10496E-03 11472   0.482E-02    0.823E-03
RMM:   2    -0.717399441463E+03   -0.29297E-05   -0.42992E-05  7975   0.140E-02
  35 F= -.71739944E+03 E0= -.71739944E+03  d E =-.616758E-04
 curvature:  -0.67 expect dE=-0.391E-04 dE for cont linesearch -0.702E-06
 trial: gam= 0.75312 g(F)=  0.587E-04 g(S)=  0.000E+00 ort = 0.111E-04 (trialstep = 0.700E+00)
 search vector abs. value=  0.142E-03
 bond charge predicted
       N       E                     dE             d eps       ncg     rms          rms(c)
DAV:   1    -0.717399430471E+03    0.80629E-05   -0.16218E-02 11216   0.187E-01    0.277E-02
RMM:   2    -0.717399480836E+03   -0.50366E-04   -0.50058E-04 12316   0.482E-02    0.341E-02
RMM:   3    -0.717399491019E+03   -0.10183E-04   -0.14465E-04 11772   0.214E-02    0.185E-02
RMM:   4    -0.717399489593E+03    0.14262E-05   -0.22427E-05  6740   0.110E-02
  36 F= -.71739949E+03 E0= -.71739949E+03  d E =-.481300E-04
 trial-energy change:   -0.000048  1 .order   -0.000030   -0.000047   -0.000013
 step:   0.9568(harm=  0.9568)  dis= 0.00055  next Energy=  -717.399474 (dE=-0.321E-04)
 bond charge predicted
       N       E                     dE             d eps       ncg     rms          rms(c)
DAV:   1    -0.717399492919E+03   -0.18992E-05   -0.22117E-03 12128   0.695E-02    0.121E-02
RMM:   2    -0.717399502122E+03   -0.92031E-05   -0.75575E-05  9014   0.196E-02
  37 F= -.71739950E+03 E0= -.71739950E+03  d E =-.606585E-04
 curvature:  -1.01 expect dE=-0.141E-03 dE for cont linesearch -0.103E-05
 ZBRENT: interpolating
 opt :   0.8540  next Energy=  -717.399503 (dE=-0.613E-04)
 bond charge predicted
       N       E                     dE             d eps       ncg     rms          rms(c)
DAV:   1    -0.717399494984E+03   -0.20654E-05   -0.35260E-04 10218   0.286E-02    0.681E-03
RMM:   2    -0.717399495778E+03   -0.79368E-06   -0.15082E-05  5993   0.973E-03
  38 F= -.71739950E+03 E0= -.71739950E+03  d E =-.543145E-04
 curvature:  -0.61 expect dE=-0.784E-04 dE for cont linesearch -0.312E-04
 ZBRENT: interpolating
 opt :   0.9441  next Energy=  -717.399502 (dE=-0.607E-04)
 bond charge predicted
       N       E                     dE             d eps       ncg     rms          rms(c)
DAV:   1    -0.717399498452E+03   -0.34679E-05   -0.23205E-04 10408   0.228E-02    0.678E-03
RMM:   2    -0.717399502162E+03   -0.37101E-05   -0.16557E-05  5877   0.961E-03
  39 F= -.71739950E+03 E0= -.71739950E+03  d E =-.606988E-04
 curvature:  -0.00 expect dE=-0.182E-06 dE for cont linesearch -0.293E-10
 trial: gam= 2.15296 g(F)=  0.122E-03 g(S)=  0.000E+00 ort =-0.167E-05 (trialstep = 0.138E+00)
 search vector abs. value=  0.772E-03
 bond charge predicted
       N       E                     dE             d eps       ncg     rms          rms(c)
DAV:   1    -0.717399506389E+03   -0.79374E-05   -0.34442E-03 11242   0.881E-02    0.119E-02
RMM:   2    -0.717399517804E+03   -0.11415E-04   -0.11236E-04 10164   0.233E-02    0.142E-02
RMM:   3    -0.717399519410E+03   -0.16060E-05   -0.33967E-05  7246   0.112E-02
  40 F= -.71739952E+03 E0= -.71739952E+03  d E =-.172481E-04
 trial-energy change:   -0.000017  1 .order   -0.000013   -0.000016   -0.000009
 step:   0.3169(harm=  0.3169)  dis= 0.00035  next Energy=  -717.399521 (dE=-0.188E-04)
 bond charge predicted
       N       E                     dE             d eps       ncg     rms          rms(c)
DAV:   1    -0.717399520403E+03   -0.25986E-05   -0.58009E-03 11264   0.114E-01    0.148E-02
RMM:   2    -0.717399540494E+03   -0.20092E-04   -0.20392E-04 12198   0.313E-02    0.189E-02
RMM:   3    -0.717399544056E+03   -0.35614E-05   -0.60672E-05  9369   0.143E-02
  41 F= -.71739954E+03 E0= -.71739954E+03  d E =-.418938E-04
 curvature:  -1.03 expect dE=-0.414E-04 dE for cont linesearch -0.334E-06
 ZBRENT: extrapolating
 opt :   0.3721  next Energy=  -717.399544 (dE=-0.423E-04)
 bond charge predicted
       N       E                     dE             d eps       ncg     rms          rms(c)
DAV:   1    -0.717399548667E+03   -0.81730E-05   -0.58746E-04 13274   0.391E-02    0.754E-03
RMM:   2    -0.717399550654E+03   -0.19866E-05   -0.25166E-05  6859   0.109E-02
  42 F= -.71739955E+03 E0= -.71739955E+03  d E =-.484920E-04
 curvature:  -1.35 expect dE=-0.616E-04 dE for cont linesearch -0.493E-05
 ZBRENT: increasing intervall
 opt :   0.4826  next Energy=  -717.399561 (dE=-0.585E-04)
 bond charge predicted
       N       E                     dE             d eps       ncg     rms          rms(c)
DAV:   1    -0.717399550739E+03   -0.20720E-05   -0.21947E-03 11640   0.706E-02    0.951E-03
RMM:   2    -0.717399557997E+03   -0.72580E-05   -0.81066E-05  9371   0.192E-02
  43 F= -.71739956E+03 E0= -.71739956E+03  d E =-.558354E-04
 curvature:  -2.73 expect dE=-0.152E-03 dE for cont linesearch -0.485E-05
 ZBRENT: bracketing found
 ZBRENT: interpolating
 opt :   0.4372  next Energy=  -717.399559 (dE=-0.567E-04)
 bond charge predicted
       N       E                     dE             d eps       ncg     rms          rms(c)
DAV:   1    -0.717399555614E+03   -0.48746E-05   -0.35646E-04 10208   0.293E-02    0.118E-02
RMM:   2    -0.717399562765E+03   -0.71508E-05   -0.25530E-05  6087   0.118E-02
  44 F= -.71739956E+03 E0= -.71739956E+03  d E =-.606028E-04
 curvature:  -0.47 expect dE=-0.543E-04 dE for cont linesearch -0.233E-04
 ZBRENT: interpolating
 opt :   0.4754  next Energy=  -717.399558 (dE=-0.560E-04)
 bond charge predicted
       N       E                     dE             d eps       ncg     rms          rms(c)
DAV:   1    -0.717399556466E+03   -0.85237E-06   -0.23385E-04 11536   0.272E-02    0.500E-03
RMM:   2    -0.717399558484E+03   -0.20171E-05   -0.19660E-05  5846   0.111E-02
  45 F= -.71739956E+03 E0= -.71739956E+03  d E =-.563215E-04
 curvature:  -0.00 expect dE=-0.156E-06 dE for cont linesearch -0.377E-08
 ZBRENT: bisectioning
 opt :   0.4563  next Energy=  -717.399559 (dE=-0.568E-04)
 bond charge predicted
       N       E                     dE             d eps       ncg     rms          rms(c)
DAV:   1    -0.717399555999E+03    0.46726E-06   -0.54795E-05  8768   0.127E-02    0.422E-03
RMM:   2    -0.717399557298E+03   -0.12994E-05   -0.66132E-06  5187   0.651E-03
  46 F= -.71739956E+03 E0= -.71739956E+03  d E =-.551365E-04
 curvature:  -0.37 expect dE=-0.331E-04 dE for cont linesearch -0.107E-04
 ZBRENT: interpolating
 opt :   0.4719  next Energy=  -717.399559 (dE=-0.564E-04)
 bond charge predicted
       N       E                     dE             d eps       ncg     rms          rms(c)
DAV:   1    -0.717399557688E+03   -0.16885E-05   -0.34328E-05  7496   0.105E-02    0.149E-03
RMM:   2    -0.717399558001E+03   -0.31378E-06   -0.39594E-06  5124   0.522E-03
  47 F= -.71739956E+03 E0= -.71739956E+03  d E =-.558394E-04
 curvature:  -0.00 expect dE=-0.111E-06 dE for cont linesearch -0.259E-09
 trial: gam= 0.34774 g(F)=  0.571E-04 g(S)=  0.000E+00 ort =-0.101E-04 (trialstep = 0.204E+00)
 search vector abs. value=  0.143E-03
 bond charge predicted
       N       E                     dE             d eps       ncg     rms          rms(c)
DAV:   1    -0.717399567536E+03   -0.98484E-05   -0.14013E-03 10608   0.566E-02    0.670E-03
RMM:   2    -0.717399572876E+03   -0.53404E-05   -0.54334E-05  8661   0.153E-02
  48 F= -.71739957E+03 E0= -.71739957E+03  d E =-.148750E-04
 trial-energy change:   -0.000015  1 .order   -0.000008   -0.000011   -0.000004
 step:   0.3429(harm=  0.3429)  dis= 0.00015  next Energy=  -717.399567 (dE=-0.918E-05)
 bond charge predicted
       N       E                     dE             d eps       ncg     rms          rms(c)
DAV:   1    -0.717399578695E+03   -0.11158E-04   -0.68391E-04 11112   0.411E-02    0.967E-03
RMM:   2    -0.717399585833E+03   -0.71385E-05   -0.44994E-05  7920   0.145E-02
  49 F= -.71739959E+03 E0= -.71739959E+03  d E =-.278316E-04
 curvature:  -0.46 expect dE=-0.221E-04 dE for cont linesearch -0.227E-05
 ZBRENT: increasing intervall
 opt :   0.6199  next Energy=  -717.399595 (dE=-0.366E-04)
 bond charge predicted
       N       E                     dE             d eps       ncg     rms          rms(c)
DAV:   1    -0.717399583516E+03   -0.48217E-05   -0.25578E-03 11568   0.783E-02    0.119E-02
RMM:   2    -0.717399596937E+03   -0.13421E-04   -0.11968E-04 11176   0.254E-02    0.242E-02
RMM:   3    -0.717399595789E+03    0.11477E-05   -0.31454E-05  7047   0.114E-02
  50 F= -.71739960E+03 E0= -.71739960E+03  d E =-.377876E-04
 curvature:  -1.77 expect dE=-0.386E-04 dE for cont linesearch -0.159E-06
 trial: gam= 0.26529 g(F)=  0.218E-04 g(S)=  0.000E+00 ort = 0.359E-05 (trialstep = 0.288E+00)
 search vector abs. value=  0.338E-04
 bond charge predicted
       N       E                     dE             d eps       ncg     rms          rms(c)
DAV:   1    -0.717399601569E+03   -0.46327E-05   -0.64926E-04 11224   0.384E-02    0.166E-02
RMM:   2    -0.717399610028E+03   -0.84585E-05   -0.42811E-05  7373   0.153E-02
  51 F= -.71739961E+03 E0= -.71739961E+03  d E =-.142389E-04
 trial-energy change:   -0.000014  1 .order   -0.000002   -0.000007    0.000002
 step:   0.2216(harm=  0.2216)  dis= 0.00012  next Energy=  -717.399598 (dE=-0.252E-05)
 bond charge predicted
       N       E                     dE             d eps       ncg     rms          rms(c)
DAV:   1    -0.717399602233E+03   -0.66400E-06   -0.71275E-05  8264   0.177E-02    0.972E-03
RMM:   2    -0.717399606953E+03   -0.47195E-05   -0.16403E-05  5700   0.835E-03
  52 F= -.71739961E+03 E0= -.71739961E+03  d E =-.111639E-04
 curvature:  -0.16 expect dE=-0.128E-04 dE for cont linesearch -0.741E-05
 ZBRENT: interpolating
 opt :   0.2778  next Energy=  -717.399610 (dE=-0.143E-04)
 bond charge predicted
       N       E                     dE             d eps       ncg     rms          rms(c)
DAV:   1    -0.717399603268E+03   -0.10344E-05   -0.41194E-05  6112   0.143E-02    0.483E-03
RMM:   2    -0.717399604160E+03   -0.89224E-06   -0.54237E-06  5228   0.471E-03
  53 F= -.71739960E+03 E0= -.71739960E+03  d E =-.837103E-05
 curvature:  -0.00 expect dE=-0.107E-07 dE for cont linesearch -0.314E-10
 trial: gam= 0.88099 g(F)=  0.147E-04 g(S)=  0.000E+00 ort = 0.120E-05 (trialstep = 0.224E+00)
 search vector abs. value=  0.430E-04
 bond charge predicted
       N       E                     dE             d eps       ncg     rms          rms(c)
DAV:   1    -0.717399607577E+03   -0.43093E-05   -0.52628E-04 10482   0.350E-02    0.507E-03
RMM:   2    -0.717399609067E+03   -0.14897E-05   -0.18021E-05  5586   0.105E-02
  54 F= -.71739961E+03 E0= -.71739961E+03  d E =-.490681E-05
 ZBRENT: can't locate minimum, use default step
 trial-energy change:   -0.000005  1 .order   -0.000003   -0.000004   -0.000003
 step:   0.8971(harm=  0.9433)  dis= 0.00030  next Energy=  -717.399612 (dE=-0.742E-05)
 reached required accuracy - stopping structural energy minimisation
Warning: ieee_invalid is signaling
Warning: ieee_divide_by_zero is signaling
Warning: ieee_underflow is signaling
Warning: ieee_inexact is signaling
FORTRAN STOP
Warning: ieee_invalid is signaling
Warning: ieee_divide_by_zero is signaling
Warning: ieee_underflow is signaling
Warning: ieee_inexact is signaling
FORTRAN STOP
Warning: ieee_invalid is signaling
Warning: ieee_divide_by_zero is signaling
Warning: ieee_underflow is signaling
Warning: ieee_inexact is signaling
FORTRAN STOP
Warning: ieee_invalid is signaling
Warning: ieee_divide_by_zero is signaling
Warning: ieee_underflow is signaling
Warning: ieee_inexact is signaling
FORTRAN STOP
