       N       E                     dE             d eps       ncg     rms          rms(c)
DAV:   1     0.122848675574E+05    0.12285E+05   -0.58350E+05 10568   0.705E+03
DAV:   2    -0.309123800127E+05   -0.43197E+05   -0.41762E+05 13336   0.120E+03
DAV:   3    -0.354160088315E+05   -0.45036E+04   -0.40925E+04 14278   0.352E+02
DAV:   4    -0.358838417389E+05   -0.46783E+03   -0.40424E+03 16792   0.101E+02
DAV:   5    -0.359308354060E+05   -0.46994E+02   -0.42435E+02 19472   0.296E+01    0.731E+02
DAV:   6    -0.106741023754E+05    0.25257E+05   -0.19790E+04 14338   0.243E+02    0.585E+02
DAV:   7    -0.436280611931E+04    0.63113E+04   -0.70918E+03 16026   0.167E+02    0.277E+02
DAV:   8    -0.116978196442E+04    0.31930E+04   -0.10615E+04 14496   0.263E+02    0.229E+02
DAV:   9    -0.766390860287E+03    0.40339E+03   -0.14099E+03 15104   0.118E+02    0.171E+02
DAV:  10    -0.767998859682E+03   -0.16080E+01   -0.86910E+02 14720   0.700E+01    0.122E+02
DAV:  11    -0.772137475495E+03   -0.41386E+01   -0.49123E+02 13576   0.879E+01    0.103E+02
DAV:  12    -0.735322202255E+03    0.36815E+02   -0.79769E+01 14284   0.246E+01    0.610E+01
DAV:  13    -0.718956726619E+03    0.16365E+02   -0.81934E+01 12472   0.384E+01    0.626E+01
DAV:  14    -0.715520706734E+03    0.34360E+01   -0.44294E+01 15136   0.140E+01    0.381E+01
DAV:  15    -0.713955562283E+03    0.15651E+01   -0.13960E+01 14384   0.845E+00    0.253E+01
DAV:  16    -0.712931882138E+03    0.10237E+01   -0.49672E+00 13592   0.540E+00    0.154E+01
DAV:  17    -0.712485567736E+03    0.44631E+00   -0.11998E+00 14048   0.548E+00    0.656E+00
DAV:  18    -0.712423946000E+03    0.61622E-01   -0.97249E-01 12928   0.327E+00    0.340E+00
DAV:  19    -0.712381330850E+03    0.42615E-01   -0.34621E-01 14800   0.253E+00    0.986E-01
DAV:  20    -0.712391311459E+03   -0.99806E-02   -0.27831E-01 13816   0.182E+00    0.920E-01
DAV:  21    -0.712388692921E+03    0.26185E-02   -0.82505E-02 14568   0.135E+00    0.709E-01
DAV:  22    -0.712385340725E+03    0.33522E-02   -0.22898E-02 15136   0.141E+00    0.502E-01
DAV:  23    -0.712390702383E+03   -0.53617E-02   -0.67539E-02 11896   0.971E-01    0.488E-01
DAV:  24    -0.712389467589E+03    0.12348E-02   -0.10486E-02 11960   0.974E-01    0.273E-01
DAV:  25    -0.712389568276E+03   -0.10069E-03   -0.90110E-03 12464   0.530E-01    0.130E-01
DAV:  26    -0.712390173457E+03   -0.60518E-03   -0.81019E-03 11736   0.455E-01    0.881E-02
DAV:  27    -0.712390138775E+03    0.34682E-04   -0.12698E-03 12856   0.226E-01    0.670E-02
DAV:  28    -0.712390092216E+03    0.46559E-04   -0.53510E-04 14712   0.173E-01    0.210E-02
DAV:  29    -0.712390126316E+03   -0.34100E-04   -0.55886E-04 15024   0.646E-02    0.191E-02
DAV:  30    -0.712390135044E+03   -0.87284E-05   -0.15741E-04  8632   0.369E-02    0.111E-02
DAV:  31    -0.712390133776E+03    0.12685E-05   -0.24259E-05  6048   0.246E-02
   1 F= -.71239013E+03 E0= -.71237809E+03  d E =-.240861E-01
