Ga8 O12                                 
    1.000000000000000     
     0.0000000000000000   12.2804737091000007    0.0000000000000000
     9.1427011490000005    0.0000000000000000    0.0000000000000000
     0.0000000000000000   -2.7682616411000001  -11.3006974810000003
   Ga   O    N    Fe
    47    71     1     1
Direct
  0.6592077864190892  0.0006544183378689  0.1577858941420080
  0.6584702107263839  0.0007386173621091  0.6555589657254520
  0.6594146113053005  0.3333334341469615  0.1583543516889991
  0.6590396302165163  0.3333331788660003  0.6537095348919497
  0.6592083545660672  0.6660119336402873  0.1577852155259771
  0.6584694165898263  0.6659300537791213  0.6555572559376096
  0.8407946582805483  0.1667852173320802  0.3443449376702448
  0.8407237261002797  0.1666947950627344  0.8430202302300744
  0.8407943298604807  0.4998814168144585  0.3443452106922857
  0.8407220718032619  0.4999725908372726  0.8430202081592872
  0.8418362619978290  0.8333340004868405  0.3433629913263240
  0.8408220568795771  0.8333319691689565  0.8429773837127171
  0.5839915602524501  0.1696259737491111  0.3956081132241495
  0.5918196815798357  0.1668245767953857  0.8977403098561231
  0.5839930885043685  0.4970391109916160  0.3956111898456945
  0.5918193692904297  0.4998417954710048  0.8977393220740841
  0.5921530428915501  0.8333342474121033  0.3981484974776297
  0.5919177926213813  0.8333332452647442  0.8982156957840109
  0.9089535773276961  0.0001420969861932  0.1023731065085652
  0.9095275690291597 -0.0000331534895609  0.6029218851465541
  0.9086579972419255  0.3333320300411080  0.1026009301087922
  0.9099888624832451  0.3333335142124828  0.6027382756988763
  0.9089527282692886  0.6665251491320315  0.1023713742039328
  0.9095287654636940  0.6666996021193732  0.6029217346887773
  0.1595988408920104  0.1676944236905599  0.1582480931147565
  0.1600178888767683  0.1667279124484103  0.6570331278663742
  0.1595972343016629  0.4989731136887671  0.1582453915863056
  0.1600177731348996  0.4999391457311584  0.6570325522588141
  0.1591792572258245  0.8333343432959371  0.1570657779881177
  0.1598067626663017  0.8333329358712339  0.6571439361386301
  0.3407217343861737  0.0012862828410233  0.3439073194427127
  0.3419241620472553  0.0003731696885444  0.8436419548509168
  0.3419521764027034  0.3333324142767226  0.8433516845683544
  0.3407246156375883  0.6653823118838874  0.3439045107756813
  0.3419242666882651  0.6662922909346497  0.8436409875188702
  0.0912431421584019  0.0005592160226496  0.3977740953644298
  0.0915386142281299  0.0002338806113615  0.8982170041841536
  0.0941012890288540  0.3333330482992674  0.3971204150286815
  0.0914334987373494  0.3333331435165881  0.8979622456487583
  0.0912401121709276  0.6661078202420677  0.3977674165955256
  0.0915398756570804  0.6664322155595607  0.8982166721543255
  0.4086065016702046  0.1672130793706421  0.1042075553460373
  0.4076156472160731  0.1682610142144990  0.5982218950240459
  0.4086062664178809  0.4994532783949616  0.1042072593473758
  0.4076158333535740  0.4984057002914066  0.5982204636650449
  0.4089028112483502  0.8333339014434035  0.1031455295483170
  0.4086511269337574  0.8333338338868123  0.6016914186721645
  0.9962158590443023  0.1668267716929555  0.1265998524325149
  0.9972131506708242  0.1664849318778096  0.6283176537781365
  0.9962147625166743  0.4998395973826172  0.1265981705408107
  0.9972130523099950  0.5001811184811061  0.6283187980702076
  0.9961960614835667  0.8333330830052086  0.1265270029032108
  0.9972018269746383  0.8333338875647748  0.6283952836183908
  0.5028766219653077 -0.0032092098033978  0.3730123810103688
  0.5044194992008674 -0.0000083930898697  0.8728918927952978
  0.5043198855136104  0.3333332135009190  0.8731799609912466
  0.5028794058082967  0.6698755766940279  0.3730175365607568
  0.5044190104080243  0.6666746364235617  0.8728921599836558
  0.6727551798645481  0.1655547195253245  0.2813690929848292
  0.6728332231693630  0.1666548480740003  0.7800808559507425
  0.6727545405532277  0.5011103321324801  0.2813697362204047
  0.6728318325571701  0.5000112529804190  0.7800793232897592
  0.6736193185522777  0.8333333192321429  0.2809421229496626
  0.6723134865878173  0.8333330646921562  0.7800594316377598
  0.8282030045904398  0.0000264664894945  0.2199714571441265
  0.8278494338371524 -0.0000695920563001  0.7198003344980378
  0.8277345508308475  0.3333337256378037  0.2201636261954806
  0.8277131638040482  0.3333337465539700  0.7192713160970280
  0.8282032850261758  0.6666402293412586  0.2199718354037997
  0.8278490337631885  0.6667381406667933  0.7197998022851135
  0.8338507268017977 -0.0004816846027224  0.4463071525615658
  0.8319287853031887 -0.0000902501424486  0.9456999161655599
  0.8331539160377521  0.3333333871192678  0.4465676446407625
  0.8320419640552321  0.3333332504686713  0.9456835168838557
  0.8338506494539797  0.6671492924174728  0.4463071057949918
  0.8319187683688721  0.6667525440342976  0.9457005014630777
  0.6684596055985313  0.1668407026116202  0.0545668261931640
  0.6679800374608018  0.1656170129993322  0.5527280644854877
  0.6684591917867971  0.4998259223843316  0.0545662535528508
  0.6679821334567030  0.5010503831054236  0.5527303130184963
  0.6680586272294088  0.8333334229103814  0.0550740299418023
  0.6690984641671347  0.8333347272685551  0.5548109378407228
  0.4963098687881475  0.0002243265083398  0.1273807936453418
  0.4954795956146754  0.0007574480435767  0.6263201054951979
  0.4968073305591433  0.3333308563720004  0.1261926829614287
  0.4967933377918067  0.3333334783929855  0.6289605326379714
  0.4963100995624180  0.6664427088877682  0.1273821763376304
  0.4954796815783679  0.6659095858361272  0.6263204914141541
  0.0042034528923320  0.1675752573659307  0.3732406218246180
  0.0036203458215074  0.1667146935278379  0.8727226643817038
  0.0042025458624776  0.4990898721039020  0.3732392595954401
  0.0036199150293357  0.4999524221903742  0.8727230282600139
  0.0042450560297492  0.8333349960224200  0.3733130664203833
  0.0039831307751208  0.8333321208087826  0.8732257059178860
  0.1712930022564310 -0.0006268902110256  0.2798167613608908
  0.1732006498706376  0.0001581795454281  0.7810584377878728
  0.1729372499609173  0.3333338353912129  0.2787901782002487
  0.1732750799486111  0.3333334060759044  0.7810406433427628
  0.1712950375650898  0.6672965004818201  0.2798163647064119
  0.1732013515488525  0.6665090886689856  0.7810577086430319
  0.3270779785053838  0.1670669210537840  0.2212541340808240
  0.3282739843814632  0.1667238977065209  0.7189939059605394
  0.3270768926778476  0.4996010685958220  0.2212531021259886
  0.3282733420896496  0.4999424416401700  0.7189917935442096
  0.3267267382078925  0.8333326039567286  0.2193638860005720
  0.3279914343924684  0.8333323252167824  0.7199519552429910
  0.3284706138568671  0.1698691795668265  0.4425247199324990
  0.3332697631296403  0.1667556454697381  0.9463264683391371
  0.3284747866034070  0.4968009310875051  0.4425225414043697
  0.3332714742807411  0.4999104668996497  0.9463237413414843
  0.3297832825774689  0.8333324980897835  0.4458134239476670
  0.3329239141179137  0.8333327113093818  0.9459801794175556
  0.1683006367446885  0.0006203124189482  0.0546331265297248
  0.1680834119332884 -0.0000131959790024  0.5545806931977874
  0.1686309996347900  0.3333333178226376  0.0539133096174593
  0.1676750604091514  0.3333331796589965  0.5548791449505646
  0.1683032172016502  0.6660480278089105  0.0546324311744775
  0.1680688288146351  0.6666761625133579  0.5545798584147524
  0.4921464228003827  0.3333332891810910  0.3704720233905128
  0.3429418466522658  0.3333338616721624  0.3382565275617042
 
  0.00000000E+00  0.00000000E+00  0.00000000E+00
  0.00000000E+00  0.00000000E+00  0.00000000E+00
  0.00000000E+00  0.00000000E+00  0.00000000E+00
  0.00000000E+00  0.00000000E+00  0.00000000E+00
  0.00000000E+00  0.00000000E+00  0.00000000E+00
  0.00000000E+00  0.00000000E+00  0.00000000E+00
  0.00000000E+00  0.00000000E+00  0.00000000E+00
  0.00000000E+00  0.00000000E+00  0.00000000E+00
  0.00000000E+00  0.00000000E+00  0.00000000E+00
  0.00000000E+00  0.00000000E+00  0.00000000E+00
  0.00000000E+00  0.00000000E+00  0.00000000E+00
  0.00000000E+00  0.00000000E+00  0.00000000E+00
  0.00000000E+00  0.00000000E+00  0.00000000E+00
  0.00000000E+00  0.00000000E+00  0.00000000E+00
  0.00000000E+00  0.00000000E+00  0.00000000E+00
  0.00000000E+00  0.00000000E+00  0.00000000E+00
  0.00000000E+00  0.00000000E+00  0.00000000E+00
  0.00000000E+00  0.00000000E+00  0.00000000E+00
  0.00000000E+00  0.00000000E+00  0.00000000E+00
  0.00000000E+00  0.00000000E+00  0.00000000E+00
  0.00000000E+00  0.00000000E+00  0.00000000E+00
  0.00000000E+00  0.00000000E+00  0.00000000E+00
  0.00000000E+00  0.00000000E+00  0.00000000E+00
  0.00000000E+00  0.00000000E+00  0.00000000E+00
  0.00000000E+00  0.00000000E+00  0.00000000E+00
  0.00000000E+00  0.00000000E+00  0.00000000E+00
  0.00000000E+00  0.00000000E+00  0.00000000E+00
  0.00000000E+00  0.00000000E+00  0.00000000E+00
  0.00000000E+00  0.00000000E+00  0.00000000E+00
  0.00000000E+00  0.00000000E+00  0.00000000E+00
  0.00000000E+00  0.00000000E+00  0.00000000E+00
  0.00000000E+00  0.00000000E+00  0.00000000E+00
  0.00000000E+00  0.00000000E+00  0.00000000E+00
  0.00000000E+00  0.00000000E+00  0.00000000E+00
  0.00000000E+00  0.00000000E+00  0.00000000E+00
  0.00000000E+00  0.00000000E+00  0.00000000E+00
  0.00000000E+00  0.00000000E+00  0.00000000E+00
  0.00000000E+00  0.00000000E+00  0.00000000E+00
  0.00000000E+00  0.00000000E+00  0.00000000E+00
  0.00000000E+00  0.00000000E+00  0.00000000E+00
  0.00000000E+00  0.00000000E+00  0.00000000E+00
  0.00000000E+00  0.00000000E+00  0.00000000E+00
  0.00000000E+00  0.00000000E+00  0.00000000E+00
  0.00000000E+00  0.00000000E+00  0.00000000E+00
  0.00000000E+00  0.00000000E+00  0.00000000E+00
  0.00000000E+00  0.00000000E+00  0.00000000E+00
  0.00000000E+00  0.00000000E+00  0.00000000E+00
  0.00000000E+00  0.00000000E+00  0.00000000E+00
  0.00000000E+00  0.00000000E+00  0.00000000E+00
  0.00000000E+00  0.00000000E+00  0.00000000E+00
  0.00000000E+00  0.00000000E+00  0.00000000E+00
  0.00000000E+00  0.00000000E+00  0.00000000E+00
  0.00000000E+00  0.00000000E+00  0.00000000E+00
  0.00000000E+00  0.00000000E+00  0.00000000E+00
  0.00000000E+00  0.00000000E+00  0.00000000E+00
  0.00000000E+00  0.00000000E+00  0.00000000E+00
  0.00000000E+00  0.00000000E+00  0.00000000E+00
  0.00000000E+00  0.00000000E+00  0.00000000E+00
  0.00000000E+00  0.00000000E+00  0.00000000E+00
  0.00000000E+00  0.00000000E+00  0.00000000E+00
  0.00000000E+00  0.00000000E+00  0.00000000E+00
  0.00000000E+00  0.00000000E+00  0.00000000E+00
  0.00000000E+00  0.00000000E+00  0.00000000E+00
  0.00000000E+00  0.00000000E+00  0.00000000E+00
  0.00000000E+00  0.00000000E+00  0.00000000E+00
  0.00000000E+00  0.00000000E+00  0.00000000E+00
  0.00000000E+00  0.00000000E+00  0.00000000E+00
  0.00000000E+00  0.00000000E+00  0.00000000E+00
  0.00000000E+00  0.00000000E+00  0.00000000E+00
  0.00000000E+00  0.00000000E+00  0.00000000E+00
  0.00000000E+00  0.00000000E+00  0.00000000E+00
  0.00000000E+00  0.00000000E+00  0.00000000E+00
  0.00000000E+00  0.00000000E+00  0.00000000E+00
  0.00000000E+00  0.00000000E+00  0.00000000E+00
  0.00000000E+00  0.00000000E+00  0.00000000E+00
  0.00000000E+00  0.00000000E+00  0.00000000E+00
  0.00000000E+00  0.00000000E+00  0.00000000E+00
  0.00000000E+00  0.00000000E+00  0.00000000E+00
  0.00000000E+00  0.00000000E+00  0.00000000E+00
  0.00000000E+00  0.00000000E+00  0.00000000E+00
  0.00000000E+00  0.00000000E+00  0.00000000E+00
  0.00000000E+00  0.00000000E+00  0.00000000E+00
  0.00000000E+00  0.00000000E+00  0.00000000E+00
  0.00000000E+00  0.00000000E+00  0.00000000E+00
  0.00000000E+00  0.00000000E+00  0.00000000E+00
  0.00000000E+00  0.00000000E+00  0.00000000E+00
  0.00000000E+00  0.00000000E+00  0.00000000E+00
  0.00000000E+00  0.00000000E+00  0.00000000E+00
  0.00000000E+00  0.00000000E+00  0.00000000E+00
  0.00000000E+00  0.00000000E+00  0.00000000E+00
  0.00000000E+00  0.00000000E+00  0.00000000E+00
  0.00000000E+00  0.00000000E+00  0.00000000E+00
  0.00000000E+00  0.00000000E+00  0.00000000E+00
  0.00000000E+00  0.00000000E+00  0.00000000E+00
  0.00000000E+00  0.00000000E+00  0.00000000E+00
  0.00000000E+00  0.00000000E+00  0.00000000E+00
  0.00000000E+00  0.00000000E+00  0.00000000E+00
  0.00000000E+00  0.00000000E+00  0.00000000E+00
  0.00000000E+00  0.00000000E+00  0.00000000E+00
  0.00000000E+00  0.00000000E+00  0.00000000E+00
  0.00000000E+00  0.00000000E+00  0.00000000E+00
  0.00000000E+00  0.00000000E+00  0.00000000E+00
  0.00000000E+00  0.00000000E+00  0.00000000E+00
  0.00000000E+00  0.00000000E+00  0.00000000E+00
  0.00000000E+00  0.00000000E+00  0.00000000E+00
  0.00000000E+00  0.00000000E+00  0.00000000E+00
  0.00000000E+00  0.00000000E+00  0.00000000E+00
  0.00000000E+00  0.00000000E+00  0.00000000E+00
  0.00000000E+00  0.00000000E+00  0.00000000E+00
  0.00000000E+00  0.00000000E+00  0.00000000E+00
  0.00000000E+00  0.00000000E+00  0.00000000E+00
  0.00000000E+00  0.00000000E+00  0.00000000E+00
  0.00000000E+00  0.00000000E+00  0.00000000E+00
  0.00000000E+00  0.00000000E+00  0.00000000E+00
  0.00000000E+00  0.00000000E+00  0.00000000E+00
  0.00000000E+00  0.00000000E+00  0.00000000E+00
  0.00000000E+00  0.00000000E+00  0.00000000E+00
  0.00000000E+00  0.00000000E+00  0.00000000E+00
  0.00000000E+00  0.00000000E+00  0.00000000E+00
  0.00000000E+00  0.00000000E+00  0.00000000E+00
