       N       E                     dE             d eps       ncg     rms          ort
SDA:   1    -0.943074248750E+03   -0.94307E+03    0.00000E+00  5056   0.258E+02 0.000E+00
CGA:   2    -0.948052331305E+03   -0.49781E+01   -0.49802E+01  5056   0.845E+01 0.157E+00
CGA:   3    -0.950846372642E+03   -0.27940E+01   -0.28879E+01  5056   0.116E+02-0.479E+00
CGA:   4    -0.951805765506E+03   -0.95939E+00   -0.10117E+01  5056   0.163E+01-0.235E+00
CGA:   5    -0.952190029975E+03   -0.38426E+00   -0.38227E+00  5056   0.151E+01 0.332E-01
CGA:   6    -0.952381914017E+03   -0.19188E+00   -0.19335E+00  5056   0.523E+00-0.152E-02
CGA:   7    -0.952466717884E+03   -0.84804E-01   -0.84867E-01  5056   0.170E+00 0.211E-03
CGA:   8    -0.952502824300E+03   -0.36106E-01   -0.36097E-01  5056   0.945E-01 0.441E-03
CGA:   9    -0.952513819673E+03   -0.10995E-01   -0.11019E-01  5056   0.256E-01 0.115E-03
CGA:  10    -0.952518937336E+03   -0.51177E-02   -0.51168E-02  5056   0.108E-01 0.139E-03
CGA:  11    -0.952520931938E+03   -0.19946E-02   -0.19955E-02  5056   0.586E-02 0.736E-04
CGA:  12    -0.952521925489E+03   -0.99355E-03   -0.99508E-03  5056   0.246E-02 0.583E-04
CGA:  13    -0.952522466526E+03   -0.54104E-03   -0.53959E-03  5056   0.109E-02 0.583E-04
CGA:  14    -0.952522696823E+03   -0.23030E-03   -0.22992E-03  5056   0.624E-03 0.307E-04
CGA:  15    -0.952522809386E+03   -0.11256E-03   -0.11283E-03  5056   0.297E-03 0.146E-04
CGA:  16    -0.952522870924E+03   -0.61538E-04   -0.61464E-04  5056   0.149E-03 0.802E-05
CGA:  17    -0.952522906841E+03   -0.35918E-04   -0.35761E-04  5056   0.120E-03 0.397E-05
CGA:  18    -0.952522936092E+03   -0.29250E-04   -0.29188E-04  5056   0.109E-03 0.157E-05
CGA:  19    -0.952522965593E+03   -0.29501E-04   -0.29458E-04  5056   0.108E-03 0.601E-06
CGA:  20    -0.952522993359E+03   -0.27766E-04   -0.27733E-04  5056   0.109E-03 0.614E-06
CGA:  21    -0.952523021336E+03   -0.27976E-04   -0.28050E-04  5056   0.989E-04-0.135E-05
CGA:  22    -0.952523045961E+03   -0.24625E-04   -0.24808E-04  5056   0.840E-04-0.386E-05
CGA:  23    -0.952523061844E+03   -0.15884E-04   -0.15846E-04  5056   0.591E-04-0.299E-05
CGA:  24    -0.952523072737E+03   -0.10893E-04   -0.10867E-04  5056   0.355E-04-0.146E-05
CGA:  25    -0.952523078981E+03   -0.62435E-05   -0.62434E-05  5056   0.237E-04-0.301E-08
   1 F= -.95252308E+03 E0= -.95252308E+03  d E =-.591371E-16
