Ga48 O72                                
    1.000000000000000     
     0.0000000000000000   12.2804734172212839    0.0000000000000000
     9.1427020537309431    0.0000000000000000    0.0000000000000000
     0.0000000000000000   -2.7682617730220320  -11.3006977184464645
   Ga   O    N 
    48    71     1
Direct
  0.6589562307045045  0.0000000000000000  0.1568666604608302
  0.6591744921688990  0.0000000000000000  0.6562726640476594
  0.6595185004725084  0.3334260641185163  0.1565741805670393
  0.6593086307822277  0.3333061982985189  0.6565674025234424
  0.6595185004725084  0.6665739358814836  0.1565741805670393
  0.6593086307822277  0.6666938017014811  0.6565674025234424
  0.8407159723480994  0.1665037466166386  0.3439274770144839
  0.8410451820884491  0.1665373365968749  0.8434948432219863
  0.8409617109657525  0.5000000000000000  0.3433817159960774
  0.8415062808214251  0.5000000000000000  0.8430253940883529
  0.8407159723480994  0.8334962533833613  0.3439274770144839
  0.8410451820884491  0.8334626634031248  0.8434948432219863
  0.5889567548511710  0.1657060382329370  0.3968189512567018
  0.5911448465067459  0.1667279934667496  0.8976083676129015
  0.5926938698137573  0.5000000000000000  0.3980846732275232
  0.5918761516389331  0.5000000000000000  0.8976573616312734
  0.5889567548511710  0.8342939617670633  0.3968189512567018
  0.5911448465067459  0.8332720065332504  0.8976083676129015
  0.9084637371990595  0.0000000000000000  0.1024528937774954
  0.9091176655560472  0.0000000000000000  0.6017939724263441
  0.9079744121804997  0.3334271313304352  0.1017280841317091
  0.9086785518975238  0.3332296898754694  0.6020249851644682
  0.9079744121804997  0.6665728686695653  0.1017280841317091
  0.9086785518975238  0.6667703101245306  0.6020249851644682
  0.1595600913601638  0.1606938463220522  0.1611999423477862
  0.1587462529004674  0.1658796502071198  0.6552187621765003
  0.1585336797058529  0.5000000000000000  0.1581584129007312
  0.1584501756016656  0.5000000000000000  0.6574920192487766
  0.1595600913601638  0.8393061536779478  0.1611999423477862
  0.1587462529004674  0.8341203497928800  0.6552187621765003
  0.3349953599969171  0.0000000000000000  0.3433658657966614
  0.3406688889841907  0.0000000000000000  0.8432482467279033
  0.3414603481979000  0.3334539874197222  0.3424049793593200
  0.3408624984978083  0.3334355479926043  0.8430568171101025
  0.3414603481979000  0.6665460125802782  0.3424049793593200
  0.3408624984978083  0.6665644520073958  0.8430568171101025
  0.0932938473955407  0.0000000000000000  0.3922119405576370
  0.0908912549813951  0.0000000000000000  0.8966477634839557
  0.0903403366241858  0.3326841014509957  0.3974240927945235
  0.0917362680345103  0.3325850396442044  0.8999152764752044
  0.0903403366241858  0.6673158985490049  0.3974240927945235
  0.0917362680345103  0.6674149603557951  0.8999152764752044
  0.4095297563940768  0.1674698072935764  0.1022716093628303
  0.4101398229235734  0.1672669277851101  0.6031203610896823
  0.4093404883243033  0.5000000000000000  0.1026830713739168
  0.4092252384629794  0.5000000000000000  0.6021774587249754
  0.4095297563940768  0.8325301927064234  0.1022716093628303
  0.4101398229235734  0.8327330722148902  0.6031203610896823
  0.9938818521388567  0.1673200361481051  0.1241781923893258
  0.9959086063901350  0.1668650624646489  0.6277834907574733
  0.9949140511166626  0.5000000000000000  0.1271422817532426
  0.9957562614940785  0.5000000000000000  0.6277037400851460
  0.9938818521388567  0.8326799638518950  0.1241781923893258
  0.9959086063901350  0.8331349375353512  0.6277834907574733
  0.5007424807079063  0.0000000000000000  0.3723935769348407
  0.5038521033301259  0.0000000000000000  0.8724490542285699
  0.5049937858115325  0.3345530460980117  0.3732387256216619
  0.5040055859102495  0.3336972043501620  0.8726885149290584
  0.5049937858115325  0.6654469539019882  0.3732387256216619
  0.5040055859102495  0.6663027956498376  0.8726885149290584
  0.6718731295487778  0.1664086011097533  0.2804298934179550
  0.6726350491575501  0.1666815927137247  0.7803862404994094
  0.6729710214854930  0.5000000000000000  0.2800621213305022
  0.6730090919825017  0.5000000000000000  0.7803885354675825
  0.6718731295487778  0.8335913988902469  0.2804298934179550
  0.6726350491575501  0.8333184072862752  0.7803862404994094
  0.8268235388363641  0.0000000000000000  0.2198795266806113
  0.8270952195688314  0.0000000000000000  0.7188736968557071
  0.8270084807264348  0.3332612846595536  0.2196586796654995
  0.8272912335568502  0.3332135426988823  0.7192206351246565
  0.8270084807264348  0.6667387153404467  0.2196586796654995
  0.8272912335568502  0.6667864573011181  0.7192206351246565
  0.8300345707094995  0.0000000000000000  0.4461487089410874
  0.8311160771308909  0.0000000000000000  0.9452422203513809
  0.8304968695451327  0.3337410117099484  0.4459720427201495
  0.8311088977344532  0.3337964628379376  0.9448801236159284
  0.8304968695451327  0.6662589882900517  0.4459720427201495
  0.8311088977344532  0.6662035371620624  0.9448801236159284
  0.6684403478159415  0.1665653587297629  0.0540302800084525
  0.6666799407852608  0.1665417823943731  0.5536610736976592
  0.6695629262940725  0.5000000000000000  0.0539200987604293
  0.6689162361921067  0.5000000000000000  0.5547742520021361
  0.6684403478159415  0.8334346412702370  0.0540302800084525
  0.6666799407852608  0.8334582176056270  0.5536610736976592
  0.4967064543056865  0.0000000000000000  0.1258021102074704
  0.4969774490107485  0.0000000000000000  0.6289432468883062
  0.4978182206868199  0.3342029200698748  0.1254831929691237
  0.4974680685102530  0.3341252841172186  0.6293829755209118
  0.4978182206868199  0.6657970799301252  0.1254831929691237
  0.4974680685102530  0.6658747158827817  0.6293829755209118
  0.0019297709541965  0.1670066564671833  0.3753259815971166
  0.0029675545880267  0.1667939189672473  0.8710890659672536
  0.0027251798886719  0.5000000000000000  0.3739441220502902
  0.0041670390086628  0.5000000000000000  0.8731548425105075
  0.0019297709541965  0.8329933435328164  0.3753259815971166
  0.0029675545880267  0.8332060810327524  0.8710890659672536
  0.1726588847364352  0.0000000000000000  0.7793992519763131
  0.1726612901210924  0.3370383566910281  0.2821649120953710
  0.1724292744661506  0.3331255575426046  0.7812751408596877
  0.1726612901210924  0.6629616433089719  0.2821649120953710
  0.1724292744661506  0.6668744424573950  0.7812751408596877
  0.3314939564550638  0.1736737804010257  0.2194215825530564
  0.3275401129158827  0.1669633094529300  0.7192989220125747
  0.3282537911704492  0.5000000000000000  0.2192606998784337
  0.3274255652411910  0.5000000000000000  0.7194449723288445
  0.3314939564550638  0.8263262195989745  0.2194215825530564
  0.3275401129158827  0.8330366905470697  0.7192989220125747
  0.3348873309693880  0.1699997705243539  0.4476728390095391
  0.3339052986431190  0.1671680258114532  0.9452082366398613
  0.3342215477236792  0.5000000000000000  0.4459330723944174
  0.3321218268875067  0.5000000000000000  0.9458979372129764
  0.3348873309693880  0.8300002294756463  0.4476728390095391
  0.3339052986431190  0.8328319741885467  0.9452082366398613
  0.1717855975016340  0.0000000000000000  0.0493410078228800
  0.1652683940559239  0.0000000000000000  0.5531269140971384
  0.1663498850400292  0.3315156056800960  0.0566498494362723
  0.1667964397680524  0.3339292234230998  0.5546865777517322
  0.1663498850400292  0.6684843943199037  0.0566498494362723
  0.1667964397680524  0.6660707765769004  0.5546865777517322
  0.1741672027012514  0.0000000000000000  0.2769672926342503
 
  0.00000000E+00  0.00000000E+00  0.00000000E+00
  0.00000000E+00  0.00000000E+00  0.00000000E+00
  0.00000000E+00  0.00000000E+00  0.00000000E+00
  0.00000000E+00  0.00000000E+00  0.00000000E+00
  0.00000000E+00  0.00000000E+00  0.00000000E+00
  0.00000000E+00  0.00000000E+00  0.00000000E+00
  0.00000000E+00  0.00000000E+00  0.00000000E+00
  0.00000000E+00  0.00000000E+00  0.00000000E+00
  0.00000000E+00  0.00000000E+00  0.00000000E+00
  0.00000000E+00  0.00000000E+00  0.00000000E+00
  0.00000000E+00  0.00000000E+00  0.00000000E+00
  0.00000000E+00  0.00000000E+00  0.00000000E+00
  0.00000000E+00  0.00000000E+00  0.00000000E+00
  0.00000000E+00  0.00000000E+00  0.00000000E+00
  0.00000000E+00  0.00000000E+00  0.00000000E+00
  0.00000000E+00  0.00000000E+00  0.00000000E+00
  0.00000000E+00  0.00000000E+00  0.00000000E+00
  0.00000000E+00  0.00000000E+00  0.00000000E+00
  0.00000000E+00  0.00000000E+00  0.00000000E+00
  0.00000000E+00  0.00000000E+00  0.00000000E+00
  0.00000000E+00  0.00000000E+00  0.00000000E+00
  0.00000000E+00  0.00000000E+00  0.00000000E+00
  0.00000000E+00  0.00000000E+00  0.00000000E+00
  0.00000000E+00  0.00000000E+00  0.00000000E+00
  0.00000000E+00  0.00000000E+00  0.00000000E+00
  0.00000000E+00  0.00000000E+00  0.00000000E+00
  0.00000000E+00  0.00000000E+00  0.00000000E+00
  0.00000000E+00  0.00000000E+00  0.00000000E+00
  0.00000000E+00  0.00000000E+00  0.00000000E+00
  0.00000000E+00  0.00000000E+00  0.00000000E+00
  0.00000000E+00  0.00000000E+00  0.00000000E+00
  0.00000000E+00  0.00000000E+00  0.00000000E+00
  0.00000000E+00  0.00000000E+00  0.00000000E+00
  0.00000000E+00  0.00000000E+00  0.00000000E+00
  0.00000000E+00  0.00000000E+00  0.00000000E+00
  0.00000000E+00  0.00000000E+00  0.00000000E+00
  0.00000000E+00  0.00000000E+00  0.00000000E+00
  0.00000000E+00  0.00000000E+00  0.00000000E+00
  0.00000000E+00  0.00000000E+00  0.00000000E+00
  0.00000000E+00  0.00000000E+00  0.00000000E+00
  0.00000000E+00  0.00000000E+00  0.00000000E+00
  0.00000000E+00  0.00000000E+00  0.00000000E+00
  0.00000000E+00  0.00000000E+00  0.00000000E+00
  0.00000000E+00  0.00000000E+00  0.00000000E+00
  0.00000000E+00  0.00000000E+00  0.00000000E+00
  0.00000000E+00  0.00000000E+00  0.00000000E+00
  0.00000000E+00  0.00000000E+00  0.00000000E+00
  0.00000000E+00  0.00000000E+00  0.00000000E+00
  0.00000000E+00  0.00000000E+00  0.00000000E+00
  0.00000000E+00  0.00000000E+00  0.00000000E+00
  0.00000000E+00  0.00000000E+00  0.00000000E+00
  0.00000000E+00  0.00000000E+00  0.00000000E+00
  0.00000000E+00  0.00000000E+00  0.00000000E+00
  0.00000000E+00  0.00000000E+00  0.00000000E+00
  0.00000000E+00  0.00000000E+00  0.00000000E+00
  0.00000000E+00  0.00000000E+00  0.00000000E+00
  0.00000000E+00  0.00000000E+00  0.00000000E+00
  0.00000000E+00  0.00000000E+00  0.00000000E+00
  0.00000000E+00  0.00000000E+00  0.00000000E+00
  0.00000000E+00  0.00000000E+00  0.00000000E+00
  0.00000000E+00  0.00000000E+00  0.00000000E+00
  0.00000000E+00  0.00000000E+00  0.00000000E+00
  0.00000000E+00  0.00000000E+00  0.00000000E+00
  0.00000000E+00  0.00000000E+00  0.00000000E+00
  0.00000000E+00  0.00000000E+00  0.00000000E+00
  0.00000000E+00  0.00000000E+00  0.00000000E+00
  0.00000000E+00  0.00000000E+00  0.00000000E+00
  0.00000000E+00  0.00000000E+00  0.00000000E+00
  0.00000000E+00  0.00000000E+00  0.00000000E+00
  0.00000000E+00  0.00000000E+00  0.00000000E+00
  0.00000000E+00  0.00000000E+00  0.00000000E+00
  0.00000000E+00  0.00000000E+00  0.00000000E+00
  0.00000000E+00  0.00000000E+00  0.00000000E+00
  0.00000000E+00  0.00000000E+00  0.00000000E+00
  0.00000000E+00  0.00000000E+00  0.00000000E+00
  0.00000000E+00  0.00000000E+00  0.00000000E+00
  0.00000000E+00  0.00000000E+00  0.00000000E+00
  0.00000000E+00  0.00000000E+00  0.00000000E+00
  0.00000000E+00  0.00000000E+00  0.00000000E+00
  0.00000000E+00  0.00000000E+00  0.00000000E+00
  0.00000000E+00  0.00000000E+00  0.00000000E+00
  0.00000000E+00  0.00000000E+00  0.00000000E+00
  0.00000000E+00  0.00000000E+00  0.00000000E+00
  0.00000000E+00  0.00000000E+00  0.00000000E+00
  0.00000000E+00  0.00000000E+00  0.00000000E+00
  0.00000000E+00  0.00000000E+00  0.00000000E+00
  0.00000000E+00  0.00000000E+00  0.00000000E+00
  0.00000000E+00  0.00000000E+00  0.00000000E+00
  0.00000000E+00  0.00000000E+00  0.00000000E+00
  0.00000000E+00  0.00000000E+00  0.00000000E+00
  0.00000000E+00  0.00000000E+00  0.00000000E+00
  0.00000000E+00  0.00000000E+00  0.00000000E+00
  0.00000000E+00  0.00000000E+00  0.00000000E+00
  0.00000000E+00  0.00000000E+00  0.00000000E+00
  0.00000000E+00  0.00000000E+00  0.00000000E+00
  0.00000000E+00  0.00000000E+00  0.00000000E+00
  0.00000000E+00  0.00000000E+00  0.00000000E+00
  0.00000000E+00  0.00000000E+00  0.00000000E+00
  0.00000000E+00  0.00000000E+00  0.00000000E+00
  0.00000000E+00  0.00000000E+00  0.00000000E+00
  0.00000000E+00  0.00000000E+00  0.00000000E+00
  0.00000000E+00  0.00000000E+00  0.00000000E+00
  0.00000000E+00  0.00000000E+00  0.00000000E+00
  0.00000000E+00  0.00000000E+00  0.00000000E+00
  0.00000000E+00  0.00000000E+00  0.00000000E+00
  0.00000000E+00  0.00000000E+00  0.00000000E+00
  0.00000000E+00  0.00000000E+00  0.00000000E+00
  0.00000000E+00  0.00000000E+00  0.00000000E+00
  0.00000000E+00  0.00000000E+00  0.00000000E+00
  0.00000000E+00  0.00000000E+00  0.00000000E+00
  0.00000000E+00  0.00000000E+00  0.00000000E+00
  0.00000000E+00  0.00000000E+00  0.00000000E+00
  0.00000000E+00  0.00000000E+00  0.00000000E+00
  0.00000000E+00  0.00000000E+00  0.00000000E+00
  0.00000000E+00  0.00000000E+00  0.00000000E+00
  0.00000000E+00  0.00000000E+00  0.00000000E+00
  0.00000000E+00  0.00000000E+00  0.00000000E+00
  0.00000000E+00  0.00000000E+00  0.00000000E+00
  0.00000000E+00  0.00000000E+00  0.00000000E+00
  0.00000000E+00  0.00000000E+00  0.00000000E+00
