Ga48 O72                                
    1.000000000000000     
     0.0000000000000000   12.2804734172212839    0.0000000000000000
     9.1427020537309431    0.0000000000000000    0.0000000000000000
     0.0000000000000000   -2.7682617730220320  -11.3006977184464645
   Ga   O    P 
    47    71     1
Direct
  0.6563647240064739  0.0024936327158290  0.1582970875449368
  0.6537791999294367  0.0047265863543532  0.6559200618898540
  0.6839738670203492  0.3337613789828454  0.1511281670132440
  0.6575122590059053  0.3399679627833025  0.6552103272897638
  0.6566275065305512  0.6638778859975125  0.1575255388694769
  0.6475576343517674  0.6734239523930149  0.6567581897622672
  0.8428163909840996  0.1619889516654887  0.3637712328474408
  0.8352953523452331  0.1715762416274588  0.8395474123148492
  0.8432887360885043  0.5051209014861381  0.3489169248247480
  0.8358168458227576  0.5109801129287078  0.8370171104065818
  0.8440734230974939  0.8360063618077197  0.3504330081532428
  0.8384524515664752  0.8432367472096053  0.8397004712139571
  0.5880475167178123  0.1702714810405961  0.3911453786435831
  0.5963544985219472  0.2001545901162059  0.9057516136201321
  0.5926268555666391  0.5020413596996907  0.3923687020745242
  0.6044105697824254  0.4593135519432756  0.9070348230306462
  0.5873560945055144  0.8397128531187624  0.3978199967287981
  0.5746444439159549  0.8307196702870653  0.8945232431015746
  0.9044118884867491  0.0038556321650327  0.1057915322824151
  0.9224654833500836  0.0354250038268217  0.6057891951102455
  0.9123232133600557  0.3415111777970385  0.1015470879628077
  0.9074920209250505  0.3013107032410007  0.5982269934362341
  0.9004429759989757  0.6735063972382038  0.1011232351310822
  0.9081363440951281  0.6618853101767375  0.6022429217616055
  0.1567124906600143  0.1637767323226070  0.1552865181128669
  0.1602227250484574  0.1337004998240538  0.5919955116457766
  0.1591101563151028  0.5095387876236448  0.1553276506332347
  0.1539909960346763  0.4939967104088835  0.6538113005324461
  0.1570944185114012  0.8463950976443608  0.1490307076716141
  0.1491329013548831  0.8262527659205546  0.6637900465120035
  0.3301387785754471  0.0050247074778102  0.3389713682885024
  0.3482299692061093 -0.0127134001377167  0.8482177385546791
  0.3356819308699771  0.3363560356626234  0.3405661434685134
  0.3127362103619953  0.3206220993602197  0.8449366487865545
  0.3408638209739845  0.6683000884851718  0.3340617421496051
  0.3580050174335667  0.6535289835491910  0.8469620352629119
  0.0946569118919821  0.0184622215353419  0.8712020028897928
  0.0867372627288779  0.3393796375371613  0.3962581438812748
  0.0789151904843937  0.3492029972759684  0.8952192018641432
  0.0922207923442673  0.6854637511586943  0.3980035579174829
  0.0939375617647246  0.6871015729803612  0.8908864636181698
  0.3983626720694283  0.1992197070976167  0.0909831983390768
  0.4053744568961614  0.1742438520103353  0.6089325628116423
  0.4039336937255481  0.4619797407040402  0.0930128658484296
  0.4031559596716351  0.5084908944395220  0.6012801602759505
  0.4313274410410170  0.8295039690677833  0.1165618945195406
  0.3813486824869949  0.8486365950728315  0.5955674138352600
 -0.0065511757582552  0.1706001382080678  0.1300883969025305
  0.0750667137651430  0.0768286196599750  0.6989681523523560
 -0.0043124416768436  0.5118405150673319  0.1260845021397634
  0.9884270608915415  0.4855766423728300  0.6178459225417933
 -0.0072514780972152  0.8367771262238275  0.1209483104436534
  0.9893838649187752  0.8330959914606207  0.6193551085549290
  0.4971356985945627  0.0061600618219119  0.3711715893144360
  0.5122267438053864  0.0199589610964539  0.8782537153706315
  0.5000434485707113  0.3379119199324106  0.3699350208186869
  0.4628733218223595  0.3249842914854599  0.8687025123695989
  0.5039500163128446  0.6679477673969884  0.3700566480733781
  0.5205464583910772  0.6373015136192191  0.8809953435630332
  0.6814245692798340  0.1608680908940124  0.2873739456530061
  0.6692859153108047  0.1660305820115962  0.7726362678151460
  0.6793400588551821  0.5083360598806033  0.2836012840054344
  0.6697094090144438  0.5105612422364570  0.7723153709610902
  0.6646884238369825  0.8333039411797166  0.2771202309209729
  0.6646817066258925  0.8386563689148051  0.7810125986881854
  0.8231690714712367 -0.0118766519598626  0.2207231284372055
  0.8257214739003836  0.0036297075437219  0.7187965353020670
  0.8401996267734158  0.3378579234128309  0.2273994822625789
  0.8225184213929262  0.3443361090133276  0.7194752752363784
  0.8274290015102896  0.6735986708742039  0.2245766244527364
  0.8225660387030667  0.6754134534396431  0.7158572118281664
  0.8160029582610270 -0.0125279991359566  0.4559324641090740
  0.8305728132700235  0.0063326460519788  0.9458887413741613
  0.8143828083365059  0.3455621925574502  0.4451975609002117
  0.8391407883529161  0.3424421868907702  0.9437352845057477
  0.8224220988275532  0.6671181569337261  0.4488860080012318
  0.8285790750347107  0.6771646018078267  0.9417890216135310
  0.6911534055923598  0.1546069675899912  0.0608787152216643
  0.6585976750043154  0.1730214161218973  0.5507573552091636
  0.6967097308531277  0.5132695257191225  0.0618811976878441
  0.6590915460853441  0.5065429462482273  0.5516310426965252
  0.6556122381045436  0.8328445272500562  0.0526788950790832
  0.6598851097708768  0.8377658524483825  0.5556994115982230
  0.4931114430866566  0.0201648030341808  0.1283530800140567
  0.4884867478420474  0.0041411391976258  0.6226057687162769
  0.5358422314970062  0.3324730414207673  0.1377973655576019
  0.4938332904162017  0.3409980090136981  0.6285157330514489
  0.4962777200506354  0.6415340991468029  0.1310985120951993
  0.4856929708606781  0.6783930448875293  0.6166990983745629
 -0.0034868687684466  0.1783872127707542  0.8754096890333211
  0.0047191786264326  0.5122020184796396  0.3735023279188887
 -0.0021466800294459  0.5209400523248728  0.8717575088192836
 -0.0025906019242706  0.8332396221333545  0.3752794401871416
 -0.0008154598151782  0.8485118073621445  0.8670300907867856
  0.1734765611751777 -0.0020875574598587  0.2660208765461876
  0.1998337222651392 -0.0969338069246195  0.8243393601985931
  0.1702990044227864  0.3463664011451253  0.2771437962795121
  0.1591920329784337  0.3469780718334579  0.7806109113891828
  0.1709930239168819  0.6738946683460529  0.2775959138318498
  0.1625242775118945  0.6510488870243712  0.7680416283941750
  0.3248189915667264  0.1698340109107533  0.2241529643828577
  0.3112711501390589  0.1575179390718755  0.7129389613349720
  0.3252593837858977  0.5074111703211179  0.2188508853159189
  0.3237960131718281  0.5046513452271741  0.7165035719019264
  0.3298728033422907  0.8321700996719759  0.2114371441101051
  0.3696935403039797  0.8188096060555075  0.7482376560849827
  0.3302557002397021  0.1724365889762628  0.4487419929740186
  0.3024278833074666  0.1417353947150316  0.9354895926220100
  0.3334624172307846  0.5042990652220807  0.4422375888411632
  0.3132137956401535  0.5119926374840115  0.9413819982467687
  0.3394888921592694  0.8314982996819879  0.4335582396309623
  0.3798481648877072  0.8207816860225299  0.9584075497670943
  0.1534787940196763  0.0095006355016685  0.0398329465616597
  0.2245428236876514 -0.0561623866665232  0.5741371146254183
  0.1529924884622577  0.3393790615061849  0.0530218196921918
  0.1832975435826499  0.3442011909764385  0.5510904740742637
  0.1645162881212411  0.6770250668029376  0.0501036601537848
  0.1705430662421999  0.6619534618401804  0.5531576207309538
  0.0309207338628689  0.1135390530498206  0.4008201093171793
 
  0.00000000E+00  0.00000000E+00  0.00000000E+00
  0.00000000E+00  0.00000000E+00  0.00000000E+00
  0.00000000E+00  0.00000000E+00  0.00000000E+00
  0.00000000E+00  0.00000000E+00  0.00000000E+00
  0.00000000E+00  0.00000000E+00  0.00000000E+00
  0.00000000E+00  0.00000000E+00  0.00000000E+00
  0.00000000E+00  0.00000000E+00  0.00000000E+00
  0.00000000E+00  0.00000000E+00  0.00000000E+00
  0.00000000E+00  0.00000000E+00  0.00000000E+00
  0.00000000E+00  0.00000000E+00  0.00000000E+00
  0.00000000E+00  0.00000000E+00  0.00000000E+00
  0.00000000E+00  0.00000000E+00  0.00000000E+00
  0.00000000E+00  0.00000000E+00  0.00000000E+00
  0.00000000E+00  0.00000000E+00  0.00000000E+00
  0.00000000E+00  0.00000000E+00  0.00000000E+00
  0.00000000E+00  0.00000000E+00  0.00000000E+00
  0.00000000E+00  0.00000000E+00  0.00000000E+00
  0.00000000E+00  0.00000000E+00  0.00000000E+00
  0.00000000E+00  0.00000000E+00  0.00000000E+00
  0.00000000E+00  0.00000000E+00  0.00000000E+00
  0.00000000E+00  0.00000000E+00  0.00000000E+00
  0.00000000E+00  0.00000000E+00  0.00000000E+00
  0.00000000E+00  0.00000000E+00  0.00000000E+00
  0.00000000E+00  0.00000000E+00  0.00000000E+00
  0.00000000E+00  0.00000000E+00  0.00000000E+00
  0.00000000E+00  0.00000000E+00  0.00000000E+00
  0.00000000E+00  0.00000000E+00  0.00000000E+00
  0.00000000E+00  0.00000000E+00  0.00000000E+00
  0.00000000E+00  0.00000000E+00  0.00000000E+00
  0.00000000E+00  0.00000000E+00  0.00000000E+00
  0.00000000E+00  0.00000000E+00  0.00000000E+00
  0.00000000E+00  0.00000000E+00  0.00000000E+00
  0.00000000E+00  0.00000000E+00  0.00000000E+00
  0.00000000E+00  0.00000000E+00  0.00000000E+00
  0.00000000E+00  0.00000000E+00  0.00000000E+00
  0.00000000E+00  0.00000000E+00  0.00000000E+00
  0.00000000E+00  0.00000000E+00  0.00000000E+00
  0.00000000E+00  0.00000000E+00  0.00000000E+00
  0.00000000E+00  0.00000000E+00  0.00000000E+00
  0.00000000E+00  0.00000000E+00  0.00000000E+00
  0.00000000E+00  0.00000000E+00  0.00000000E+00
  0.00000000E+00  0.00000000E+00  0.00000000E+00
  0.00000000E+00  0.00000000E+00  0.00000000E+00
  0.00000000E+00  0.00000000E+00  0.00000000E+00
  0.00000000E+00  0.00000000E+00  0.00000000E+00
  0.00000000E+00  0.00000000E+00  0.00000000E+00
  0.00000000E+00  0.00000000E+00  0.00000000E+00
  0.00000000E+00  0.00000000E+00  0.00000000E+00
  0.00000000E+00  0.00000000E+00  0.00000000E+00
  0.00000000E+00  0.00000000E+00  0.00000000E+00
  0.00000000E+00  0.00000000E+00  0.00000000E+00
  0.00000000E+00  0.00000000E+00  0.00000000E+00
  0.00000000E+00  0.00000000E+00  0.00000000E+00
  0.00000000E+00  0.00000000E+00  0.00000000E+00
  0.00000000E+00  0.00000000E+00  0.00000000E+00
  0.00000000E+00  0.00000000E+00  0.00000000E+00
  0.00000000E+00  0.00000000E+00  0.00000000E+00
  0.00000000E+00  0.00000000E+00  0.00000000E+00
  0.00000000E+00  0.00000000E+00  0.00000000E+00
  0.00000000E+00  0.00000000E+00  0.00000000E+00
  0.00000000E+00  0.00000000E+00  0.00000000E+00
  0.00000000E+00  0.00000000E+00  0.00000000E+00
  0.00000000E+00  0.00000000E+00  0.00000000E+00
  0.00000000E+00  0.00000000E+00  0.00000000E+00
  0.00000000E+00  0.00000000E+00  0.00000000E+00
  0.00000000E+00  0.00000000E+00  0.00000000E+00
  0.00000000E+00  0.00000000E+00  0.00000000E+00
  0.00000000E+00  0.00000000E+00  0.00000000E+00
  0.00000000E+00  0.00000000E+00  0.00000000E+00
  0.00000000E+00  0.00000000E+00  0.00000000E+00
  0.00000000E+00  0.00000000E+00  0.00000000E+00
  0.00000000E+00  0.00000000E+00  0.00000000E+00
  0.00000000E+00  0.00000000E+00  0.00000000E+00
  0.00000000E+00  0.00000000E+00  0.00000000E+00
  0.00000000E+00  0.00000000E+00  0.00000000E+00
  0.00000000E+00  0.00000000E+00  0.00000000E+00
  0.00000000E+00  0.00000000E+00  0.00000000E+00
  0.00000000E+00  0.00000000E+00  0.00000000E+00
  0.00000000E+00  0.00000000E+00  0.00000000E+00
  0.00000000E+00  0.00000000E+00  0.00000000E+00
  0.00000000E+00  0.00000000E+00  0.00000000E+00
  0.00000000E+00  0.00000000E+00  0.00000000E+00
  0.00000000E+00  0.00000000E+00  0.00000000E+00
  0.00000000E+00  0.00000000E+00  0.00000000E+00
  0.00000000E+00  0.00000000E+00  0.00000000E+00
  0.00000000E+00  0.00000000E+00  0.00000000E+00
  0.00000000E+00  0.00000000E+00  0.00000000E+00
  0.00000000E+00  0.00000000E+00  0.00000000E+00
  0.00000000E+00  0.00000000E+00  0.00000000E+00
  0.00000000E+00  0.00000000E+00  0.00000000E+00
  0.00000000E+00  0.00000000E+00  0.00000000E+00
  0.00000000E+00  0.00000000E+00  0.00000000E+00
  0.00000000E+00  0.00000000E+00  0.00000000E+00
  0.00000000E+00  0.00000000E+00  0.00000000E+00
  0.00000000E+00  0.00000000E+00  0.00000000E+00
  0.00000000E+00  0.00000000E+00  0.00000000E+00
  0.00000000E+00  0.00000000E+00  0.00000000E+00
  0.00000000E+00  0.00000000E+00  0.00000000E+00
  0.00000000E+00  0.00000000E+00  0.00000000E+00
  0.00000000E+00  0.00000000E+00  0.00000000E+00
  0.00000000E+00  0.00000000E+00  0.00000000E+00
  0.00000000E+00  0.00000000E+00  0.00000000E+00
  0.00000000E+00  0.00000000E+00  0.00000000E+00
  0.00000000E+00  0.00000000E+00  0.00000000E+00
  0.00000000E+00  0.00000000E+00  0.00000000E+00
  0.00000000E+00  0.00000000E+00  0.00000000E+00
  0.00000000E+00  0.00000000E+00  0.00000000E+00
  0.00000000E+00  0.00000000E+00  0.00000000E+00
  0.00000000E+00  0.00000000E+00  0.00000000E+00
  0.00000000E+00  0.00000000E+00  0.00000000E+00
  0.00000000E+00  0.00000000E+00  0.00000000E+00
  0.00000000E+00  0.00000000E+00  0.00000000E+00
  0.00000000E+00  0.00000000E+00  0.00000000E+00
  0.00000000E+00  0.00000000E+00  0.00000000E+00
  0.00000000E+00  0.00000000E+00  0.00000000E+00
  0.00000000E+00  0.00000000E+00  0.00000000E+00
  0.00000000E+00  0.00000000E+00  0.00000000E+00
  0.00000000E+00  0.00000000E+00  0.00000000E+00
  0.00000000E+00  0.00000000E+00  0.00000000E+00
