PREC=Normal
ENCUT=450
IBRION=2
ISPIN=1
NSW=300
ISIF=2
EDIFF=1E-5
EDIFFG=-5E-3
ALGO=Fast
ISTART=0
ICHARG=2
ISMEAR=0
SIGMA=0.05
LWAVE=.F.
LCHARG=.F.
LREAL=Auto
LPLANE=.TRUE.
NPAR=4
KPAR=4
NCORE=1
NELECT=1056