Ga48 O72                                
    1.000000000000000     
     0.0000000000000000   12.2804734172212839    0.0000000000000000
     9.1427020537309431    0.0000000000000000    0.0000000000000000
     0.0000000000000000   -2.7682617730220320  -11.3006977184464645
   Ga   O    P 
    47    71     1
Direct
  0.6579566511361955 -0.0018512356202614  0.1554078825036097
  0.6618815006551118 -0.0014676678117102  0.6563055361272052
  0.6583907945566951  0.3303919026187379  0.1557782791120169
  0.6598624974687505  0.3316951578278345  0.6575624949476576
  0.6579487941070978  0.6648659606573022  0.1557468516198915
  0.6619388321940249  0.6648218824266345  0.6564537566433015
  0.8437836816887188  0.1637599139016694  0.3414461746295680
  0.8420491953910576  0.1623489513746511  0.8453248144451070
  0.8395318978051201  0.5007416681945727  0.3410632653709633
  0.8424432030843418  0.4974577313436019  0.8438929312453347
  0.8419279953558685  0.8338514090232112  0.3425865709788794
  0.8415678143700989  0.8300583152584096  0.8456222149060911
  0.5927157172234431  0.1640731620001407  0.3973282947428464
  0.5911688411349925  0.1639308053458147  0.8967474613450226
  0.5919960363983248  0.4969551364316317  0.3980679558887251
  0.5929216158958410  0.5015648632663500  0.8975328821718218
  0.5910126004989282  0.8312111143417756  0.3971071304329012
  0.5889655979324661  0.8322957819378957  0.8960571870255275
  0.9109978791740012 -0.0036845427859684  0.1044476985885894
  0.9091267250371696  0.0086294777517579  0.6021276210005040
  0.9093310730413087  0.3305996829517645  0.1018365630793545
  0.8997763179388816  0.3508201546437644  0.5990982157879766
  0.9092664206155943  0.6631801783578639  0.1025265938946805
  0.9092696938616602  0.6798590373835497  0.6015338928208844
  0.1592999098877119  0.1599476844080405  0.1591076585546704
  0.1602907317147078  0.4965192951118959  0.1552163821284158
  0.1556310531313702  0.5200964458947950  0.6566061741231741
  0.1596931853247041  0.8302938923223913  0.1589784728838489
  0.1608979983629081  0.8669249091431229  0.6278463778140418
  0.3403150826006563 -0.0030024471196041  0.3428481258338340
  0.3366045034139566  0.0012866256854111  0.8373745813455240
  0.3416260946081231  0.3292768967498367  0.3438629616448044
  0.3466963182433219  0.3294612390199859  0.8391824628398187
  0.3412764859866803  0.6628643609203135  0.3422513616066465
  0.3372932572203102  0.6665761351020784  0.8407231852091250
  0.1075250549557805 -0.0139859979089492  0.4236859365395456
  0.0943660695517532 -0.0112526506685977  0.8963272354762812
  0.0853486980952202  0.3258080667120692  0.3900835560830530
  0.0904965882114932  0.3230663100239342  0.8981521902236994
  0.0874420096251784  0.6649586039027051  0.3930272667007328
  0.0920866574469165  0.6601666305673112  0.8979595166324957
  0.4063771870689392  0.1642416109622854  0.0997436833639519
  0.4130076080957898  0.1649212716167340  0.6039278545084033
  0.4071492896699040  0.4960596331165711  0.0987745860550581
  0.4095328258733959  0.4985126690880460  0.6015526409601596
  0.4081020896039917  0.8307927344393016  0.1000552567140312
  0.4139404582246384  0.8308093792628217  0.6012670766732037
  0.9970274987430399  0.1642431228249165  0.1290343987473132
 -0.0034014924612984  0.1857451572093533  0.6274818728817898
  0.9975245894769260  0.4967710041521542  0.1269402057125898
 -0.0064472059689870  0.5105242176370064  0.6268371975389073
  0.9970034106603665  0.8290308917436643  0.1246140162240239
 -0.0014803561713257  0.8447670321895004  0.6258768744500187
  0.5036987062850290 -0.0015147455383729  0.3734436154667142
  0.5020302431662028 -0.0011922035412757  0.8720687157514908
  0.5040665690372295  0.3303129540221231  0.3741874956348188
  0.5076734143496009  0.3338500403644573  0.8736273828011276
  0.5042763603491714  0.6633364155657051  0.3733343817105120
  0.5011221855571165  0.6649980349018689  0.8687789570334842
  0.6731751433884056  0.1650234348469201  0.2796254645350323
  0.6737162140170694  0.1647396727048217  0.7803074938733158
  0.6719537275465511  0.4976663409918272  0.2794990881329404
  0.6741679211478291  0.4995551333344187  0.7801108301096146
  0.6724012857665992  0.8319313575628035  0.2797410986854780
  0.6736554925655805  0.8324873136101020  0.7805701134284065
  0.8266552050911706 -0.0018120432384225  0.2188825272503661
  0.8298034714710693  0.0015727184200734  0.7197447889974496
  0.8287984650518432  0.3298318606802742  0.2195253170107723
  0.8277916425623296  0.3328536055077173  0.7208622516207620
  0.8265173312777251  0.6637093216140009  0.2183260812584752
  0.8291275445471906  0.6677549084545701  0.7198566553568853
  0.8319247988234685  0.0023412671933322  0.4465444452073316
  0.8327811360583207 -0.0033753268438073  0.9473437081659578
  0.8320585279676429  0.3331118188510432  0.4426516564113847
  0.8332864580483342  0.3298589239628487  0.9454588013996098
  0.8319818598351049  0.6679563565553731  0.4450526257876444
  0.8318176388000164  0.6619629858276058  0.9460903311161084
  0.6682312116557376  0.1644109139575480  0.0534084522513878
  0.6705067606515285  0.1660240916617804  0.5541245265071212
  0.6687110197812839  0.4981447439741011  0.0542882267718622
  0.6726109886934348  0.4973515804559915  0.5540235899589072
  0.6663513316546944  0.8309063680172090  0.0529107374926368
  0.6698799336759376  0.8314971418917596  0.5536519269870985
  0.4951935437452219 -0.0015987928175250  0.1263616200077572
  0.5002363765236388 -0.0019962108947273  0.6256948319554393
  0.4956467153134941  0.3300041899540706  0.1260422888737884
  0.4986778414630782  0.3335531075694108  0.6255684480976833
  0.4950990225494856  0.6628699846792546  0.1249174354784961
  0.4992248772337731  0.6629448860559898  0.6266981831104577
  0.0086660523704876  0.1533636982945555  0.3806782594482866
  0.0047072602042448  0.1565228347880134  0.8711130529515148
  0.0024521734309304  0.4954298738127946  0.3715078107542122
  0.0053490668604545  0.4917058317970613  0.8719039898015125
  0.0012062193974323  0.8313564601624739  0.3649893780002161
  0.0027876491613379  0.8254355414056131  0.8731880025773945
  0.1729932757671747 -0.0045660492849774  0.2842213887402944
  0.1736389206953254 -0.0150099717845833  0.7803069514320018
  0.1728908416392555  0.3299386390343624  0.2806072528132124
  0.1619299545876767  0.3183763754137018  0.7647466672044474
  0.1731263095009778  0.6621555885446230  0.2797702823612027
  0.1738408934637154  0.6587027566377711  0.7834853386619015
  0.3279987609021590  0.1638136039022401  0.2206666681932918
  0.3385657833529067  0.1699234226292730  0.7238225752004600
  0.3281326532450143  0.4952740310305372  0.2189167571922755
  0.3237835078875532  0.4958730747619824  0.7150701132753012
  0.3286370413620097  0.8292839565634484  0.2192400978026623
  0.3247823693508358  0.8359439048082816  0.7105162450618306
  0.3293912326992697  0.1635046226166900  0.4489272736171505
  0.3278239318560731  0.1675752022181301  0.9432465649161453
  0.3306832257820774  0.4960810882512523  0.4456942291775665
  0.3301784860356675  0.4930773087831122  0.9410616452884000
  0.3351429328752683  0.8298166939528432  0.4455996346329402
  0.3339794057609436  0.8322308830551347  0.9429166698737730
  0.1683872714545827 -0.0045159507934740  0.0549035352016763
  0.1685841202196844  0.3274083038631018  0.0539128171110455
  0.1505099342802130  0.3392839276599429  0.5570112259105013
  0.1698273900954032  0.6633025143221204  0.0543747748380580
  0.1655069635952721  0.6710401153887066  0.5494279088733616
  0.1397501287521942  0.1983993362536456  0.6465422460714233
 
  0.00000000E+00  0.00000000E+00  0.00000000E+00
  0.00000000E+00  0.00000000E+00  0.00000000E+00
  0.00000000E+00  0.00000000E+00  0.00000000E+00
  0.00000000E+00  0.00000000E+00  0.00000000E+00
  0.00000000E+00  0.00000000E+00  0.00000000E+00
  0.00000000E+00  0.00000000E+00  0.00000000E+00
  0.00000000E+00  0.00000000E+00  0.00000000E+00
  0.00000000E+00  0.00000000E+00  0.00000000E+00
  0.00000000E+00  0.00000000E+00  0.00000000E+00
  0.00000000E+00  0.00000000E+00  0.00000000E+00
  0.00000000E+00  0.00000000E+00  0.00000000E+00
  0.00000000E+00  0.00000000E+00  0.00000000E+00
  0.00000000E+00  0.00000000E+00  0.00000000E+00
  0.00000000E+00  0.00000000E+00  0.00000000E+00
  0.00000000E+00  0.00000000E+00  0.00000000E+00
  0.00000000E+00  0.00000000E+00  0.00000000E+00
  0.00000000E+00  0.00000000E+00  0.00000000E+00
  0.00000000E+00  0.00000000E+00  0.00000000E+00
  0.00000000E+00  0.00000000E+00  0.00000000E+00
  0.00000000E+00  0.00000000E+00  0.00000000E+00
  0.00000000E+00  0.00000000E+00  0.00000000E+00
  0.00000000E+00  0.00000000E+00  0.00000000E+00
  0.00000000E+00  0.00000000E+00  0.00000000E+00
  0.00000000E+00  0.00000000E+00  0.00000000E+00
  0.00000000E+00  0.00000000E+00  0.00000000E+00
  0.00000000E+00  0.00000000E+00  0.00000000E+00
  0.00000000E+00  0.00000000E+00  0.00000000E+00
  0.00000000E+00  0.00000000E+00  0.00000000E+00
  0.00000000E+00  0.00000000E+00  0.00000000E+00
  0.00000000E+00  0.00000000E+00  0.00000000E+00
  0.00000000E+00  0.00000000E+00  0.00000000E+00
  0.00000000E+00  0.00000000E+00  0.00000000E+00
  0.00000000E+00  0.00000000E+00  0.00000000E+00
  0.00000000E+00  0.00000000E+00  0.00000000E+00
  0.00000000E+00  0.00000000E+00  0.00000000E+00
  0.00000000E+00  0.00000000E+00  0.00000000E+00
  0.00000000E+00  0.00000000E+00  0.00000000E+00
  0.00000000E+00  0.00000000E+00  0.00000000E+00
  0.00000000E+00  0.00000000E+00  0.00000000E+00
  0.00000000E+00  0.00000000E+00  0.00000000E+00
  0.00000000E+00  0.00000000E+00  0.00000000E+00
  0.00000000E+00  0.00000000E+00  0.00000000E+00
  0.00000000E+00  0.00000000E+00  0.00000000E+00
  0.00000000E+00  0.00000000E+00  0.00000000E+00
  0.00000000E+00  0.00000000E+00  0.00000000E+00
  0.00000000E+00  0.00000000E+00  0.00000000E+00
  0.00000000E+00  0.00000000E+00  0.00000000E+00
  0.00000000E+00  0.00000000E+00  0.00000000E+00
  0.00000000E+00  0.00000000E+00  0.00000000E+00
  0.00000000E+00  0.00000000E+00  0.00000000E+00
  0.00000000E+00  0.00000000E+00  0.00000000E+00
  0.00000000E+00  0.00000000E+00  0.00000000E+00
  0.00000000E+00  0.00000000E+00  0.00000000E+00
  0.00000000E+00  0.00000000E+00  0.00000000E+00
  0.00000000E+00  0.00000000E+00  0.00000000E+00
  0.00000000E+00  0.00000000E+00  0.00000000E+00
  0.00000000E+00  0.00000000E+00  0.00000000E+00
  0.00000000E+00  0.00000000E+00  0.00000000E+00
  0.00000000E+00  0.00000000E+00  0.00000000E+00
  0.00000000E+00  0.00000000E+00  0.00000000E+00
  0.00000000E+00  0.00000000E+00  0.00000000E+00
  0.00000000E+00  0.00000000E+00  0.00000000E+00
  0.00000000E+00  0.00000000E+00  0.00000000E+00
  0.00000000E+00  0.00000000E+00  0.00000000E+00
  0.00000000E+00  0.00000000E+00  0.00000000E+00
  0.00000000E+00  0.00000000E+00  0.00000000E+00
  0.00000000E+00  0.00000000E+00  0.00000000E+00
  0.00000000E+00  0.00000000E+00  0.00000000E+00
  0.00000000E+00  0.00000000E+00  0.00000000E+00
  0.00000000E+00  0.00000000E+00  0.00000000E+00
  0.00000000E+00  0.00000000E+00  0.00000000E+00
  0.00000000E+00  0.00000000E+00  0.00000000E+00
  0.00000000E+00  0.00000000E+00  0.00000000E+00
  0.00000000E+00  0.00000000E+00  0.00000000E+00
  0.00000000E+00  0.00000000E+00  0.00000000E+00
  0.00000000E+00  0.00000000E+00  0.00000000E+00
  0.00000000E+00  0.00000000E+00  0.00000000E+00
  0.00000000E+00  0.00000000E+00  0.00000000E+00
  0.00000000E+00  0.00000000E+00  0.00000000E+00
  0.00000000E+00  0.00000000E+00  0.00000000E+00
  0.00000000E+00  0.00000000E+00  0.00000000E+00
  0.00000000E+00  0.00000000E+00  0.00000000E+00
  0.00000000E+00  0.00000000E+00  0.00000000E+00
  0.00000000E+00  0.00000000E+00  0.00000000E+00
  0.00000000E+00  0.00000000E+00  0.00000000E+00
  0.00000000E+00  0.00000000E+00  0.00000000E+00
  0.00000000E+00  0.00000000E+00  0.00000000E+00
  0.00000000E+00  0.00000000E+00  0.00000000E+00
  0.00000000E+00  0.00000000E+00  0.00000000E+00
  0.00000000E+00  0.00000000E+00  0.00000000E+00
  0.00000000E+00  0.00000000E+00  0.00000000E+00
  0.00000000E+00  0.00000000E+00  0.00000000E+00
  0.00000000E+00  0.00000000E+00  0.00000000E+00
  0.00000000E+00  0.00000000E+00  0.00000000E+00
  0.00000000E+00  0.00000000E+00  0.00000000E+00
  0.00000000E+00  0.00000000E+00  0.00000000E+00
  0.00000000E+00  0.00000000E+00  0.00000000E+00
  0.00000000E+00  0.00000000E+00  0.00000000E+00
  0.00000000E+00  0.00000000E+00  0.00000000E+00
  0.00000000E+00  0.00000000E+00  0.00000000E+00
  0.00000000E+00  0.00000000E+00  0.00000000E+00
  0.00000000E+00  0.00000000E+00  0.00000000E+00
  0.00000000E+00  0.00000000E+00  0.00000000E+00
  0.00000000E+00  0.00000000E+00  0.00000000E+00
  0.00000000E+00  0.00000000E+00  0.00000000E+00
  0.00000000E+00  0.00000000E+00  0.00000000E+00
  0.00000000E+00  0.00000000E+00  0.00000000E+00
  0.00000000E+00  0.00000000E+00  0.00000000E+00
  0.00000000E+00  0.00000000E+00  0.00000000E+00
  0.00000000E+00  0.00000000E+00  0.00000000E+00
  0.00000000E+00  0.00000000E+00  0.00000000E+00
  0.00000000E+00  0.00000000E+00  0.00000000E+00
  0.00000000E+00  0.00000000E+00  0.00000000E+00
  0.00000000E+00  0.00000000E+00  0.00000000E+00
  0.00000000E+00  0.00000000E+00  0.00000000E+00
  0.00000000E+00  0.00000000E+00  0.00000000E+00
  0.00000000E+00  0.00000000E+00  0.00000000E+00
  0.00000000E+00  0.00000000E+00  0.00000000E+00
  0.00000000E+00  0.00000000E+00  0.00000000E+00
