Ga8 O12                                 
    1.000000000000000     
     0.0000000000000000   12.2804737091000007    0.0000000000000000
     9.1427011490000005    0.0000000000000000    0.0000000000000000
     0.0000000000000000   -2.7682616411000001  -11.3006974810000003
   Ga   O    N    Fe
    47    71     1     1
Direct
  0.6589437206212381  0.9999000919519361  0.1573507046360305
  0.6581640837538600  0.9976264410848898  0.6551053016496766
  0.6589437206212381  0.3334329080480671  0.1573507046360305
  0.6581640837538600  0.3357065589151134  0.6551053016496766
  0.6588440999236838  0.6666669999999968  0.1565307044383673
  0.6581547853065999  0.6666669999999968  0.6559483500838752
  0.8412556529729969  0.1666669999999968  0.3436128087434795
  0.8404299454099231  0.1666669999999968  0.8424685472925333
  0.8411808633050200  0.5000899346312266  0.3433107150246713
  0.8408236573766743  0.5001355411949078  0.8431250463851327
  0.8411808633050200  0.8332430653687766  0.3433107150246713
  0.8408236573766743  0.8331974588050954  0.8431250463851327
  0.5914362097648294  0.1666669999999968  0.8975655990724078
  0.5901891859289989  0.4970300749437655  0.3967463035121597
  0.5911760809342255  0.4999439452067733  0.8976260636834752
  0.5901891859289989  0.8363029250562377  0.3967463035121597
  0.5911760809342255  0.8333890547932299  0.8976260636834752
  0.9086810266022525  0.9999168855349794  0.1020020650527798
  0.9100522547527063  0.9998845932042570  0.6025662228709336
  0.9086810266022525  0.3334161144650238  0.1020020650527798
  0.9100522547527063  0.3334484067957462  0.6025662228709336
  0.9088053906451918  0.6666669999999968  0.1023169049350940
  0.9086577147793093  0.6666669999999968  0.6022900717536857
  0.1585889956044895  0.1666669999999968  0.1562017453054310
  0.1598998531601055  0.1666669999999968  0.6566158680549563
  0.1592659990609064  0.4998391274131606  0.1570903763896752
  0.1590420360427274  0.5001479672155469  0.6570520831838422
  0.1592659990609064  0.8334938725868426  0.1570903763896752
  0.1590420360427274  0.8331850327844563  0.6570520831838422
  0.3406894587745839  0.0019458620341695  0.3439173798569826
  0.3411597978767915  0.0004104194948553  0.8436888846457578
  0.3406894587745839  0.3313871379658337  0.3439173798569826
  0.3411597978767915  0.3329225805051479  0.8436888846457578
  0.3420682957700123  0.6666669999999968  0.3429655166815309
  0.3409095100846073  0.6666669999999968  0.8436201146148434
  0.0909993168639005  0.9999223741516161  0.3976981794440420
  0.0909445556505375  0.0000685849561677  0.8975525882085549
  0.0909993168639005  0.3334106258483871  0.3976981794440420
  0.0909445556505375  0.3332644150438355  0.8975525882085549
  0.0914722609937826  0.6666669999999968  0.3977400092031402
  0.0910805699829993  0.6666669999999968  0.8980707058316995
  0.4095023445664836  0.1666669999999968  0.1035498369549330
  0.4100351322898632  0.1666669999999968  0.6021437823134121
  0.4089214743188165  0.4999791698759992  0.1021344647780253
  0.4080079713780265  0.5004688336967362  0.6027650875111377
  0.4089214743188165  0.8333538301240040  0.1021344647780253
  0.4080079713780265  0.8328641663032670  0.6027650875111377
  0.9961120951866462  0.1666669999999968  0.1269721090490208
  0.9972248832162478  0.1666669999999968  0.6276892954561291
  0.9963284379146415  0.5000459763158176  0.1270876791143536
  0.9966645085910315  0.5005156882243327  0.6276494903928125
  0.9963284379146415  0.8332870236841856  0.1270876791143536
  0.9966645085910315  0.8328173117756705  0.6276494903928125
  0.5044790767589973  0.0079800241232491  0.3725000538928711
  0.5038575204397944  0.0000786188797264  0.8733796161808343
  0.5044790767589973  0.3253529758767542  0.3725000538928711
  0.5038575204397944  0.3332543811202768  0.8733796161808343
  0.5044228358885192  0.6666669999999968  0.3720571494342479
  0.5037088194093755  0.6666669999999968  0.8728112658508635
  0.6725736967500282  0.1666669999999968  0.2820376476870692
  0.6722668250653214  0.1666669999999968  0.7793671645049827
  0.6724431867427256  0.4995964505149999  0.2804812192022581
  0.6724591178499395  0.5000006017460166  0.7799845706612984
  0.6724431867427256  0.8337365494850033  0.2804812192022581
  0.6724591178499395  0.8333323982539866  0.7799845706612984
  0.8275837631211402  0.0000150909986516  0.2195316894192914
  0.8272599862492740  0.0004078276047963  0.7185897827818835
  0.8275837631211402  0.3333179090013516  0.2195316894192914
  0.8272599862492740  0.3329251723952069  0.7185897827818835
  0.8272136568841404  0.6666669999999968  0.2194615880684481
  0.8271132832881563  0.6666669999999968  0.7193069793752258
  0.8338584143407886  0.9996881407104254  0.4459531014115967
  0.8317412882833963  0.0000578051522240  0.9452665622828036
  0.8338584143407886  0.3336448592895778  0.4459531014115967
  0.8317412882833963  0.3332751948477792  0.9452665622828036
  0.8325743740804157  0.6666669999999968  0.4456204119117757
  0.8318690703838314  0.6666669999999968  0.9456629406750778
  0.6678161590401857  0.1666669999999968  0.0547768116886189
  0.6679588014786404  0.4998991828943957  0.0542807570625072
  0.6669707421470648  0.5019269873994574  0.5531076798731362
  0.6679588014786404  0.8334338171056075  0.0542807570625072
  0.6669707421470648  0.8314060126005458  0.5531076798731362
  0.4964339408400278  0.9997065440184159  0.1277097716937803
  0.4954931581334421  0.9987050855650565  0.6291694932852749
  0.4964339408400278  0.3336264559815874  0.1277097716937803
  0.4954931581334421  0.3346279144349467  0.6291694932852749
  0.4963079850853021  0.6666669999999968  0.1269742186486909
  0.4957019112160808  0.6666669999999968  0.6277577700585226
  0.0038640826503240  0.1666669999999968  0.3725466239752464
  0.0033219197930592  0.1666669999999968  0.8727698581860892
  0.0038808124634926  0.5003031998342991  0.3724231324775289
  0.0034764480305611  0.5000281157201059  0.8728026808521037
  0.0038808124634926  0.8330298001657042  0.3724231324775289
  0.0034764480305611  0.8333048842798974  0.8728026808521037
  0.1723976718106570  0.9996511858977399  0.2804463548711951
  0.1726602963048336  0.0002003822581287  0.7806690581260938
  0.1723976718106570  0.3336818141022633  0.2804463548711951
  0.1726602963048336  0.3331326177418745  0.7806690581260938
  0.1734393984886182  0.6666669999999968  0.2808147366020961
  0.1723043373751878  0.6666669999999968  0.7807347739218002
  0.3263812930910177  0.1666669999999968  0.2193219368223822
  0.3278812895299197  0.1666669999999968  0.7196669645446150
  0.3284643072430171  0.4991595625593064  0.2201580718926337
  0.3270173602581750  0.5002300189515836  0.7200415065189176
  0.3284643072430171  0.8341734374406968  0.2201580718926337
  0.3270173602581750  0.8331029810484196  0.7200415065189176
  0.3295653320772871  0.1666669999999968  0.4467153386072340
  0.3326068641699891  0.1666669999999968  0.9465765475523824
  0.3339490537026819  0.4996038360006878  0.4454060315805251
  0.3319368563372720  0.4999357979066872  0.9457951225244585
  0.3339490537026819  0.8337291639993154  0.4454060315805251
  0.3319368563372720  0.8333972020933160  0.9457951225244585
  0.1677135705964616  0.9997847029123648  0.0541728580122154
  0.1678300699690780  0.9994954654065822  0.5542955235073919
  0.1677135705964616  0.3335482970876384  0.0541728580122154
  0.1678300699690780  0.3338375345934210  0.5542955235073919
  0.1683591410987617  0.6666669999999968  0.0547053008179077
  0.1686286987268275  0.6666669999999968  0.5542875860680994
  0.6587342874590476  0.1666669999999968  0.5457933525851359
  0.5966672530940258  0.1666669999999968  0.4026645137277001
 
  0.00000000E+00  0.00000000E+00  0.00000000E+00
  0.00000000E+00  0.00000000E+00  0.00000000E+00
  0.00000000E+00  0.00000000E+00  0.00000000E+00
  0.00000000E+00  0.00000000E+00  0.00000000E+00
  0.00000000E+00  0.00000000E+00  0.00000000E+00
  0.00000000E+00  0.00000000E+00  0.00000000E+00
  0.00000000E+00  0.00000000E+00  0.00000000E+00
  0.00000000E+00  0.00000000E+00  0.00000000E+00
  0.00000000E+00  0.00000000E+00  0.00000000E+00
  0.00000000E+00  0.00000000E+00  0.00000000E+00
  0.00000000E+00  0.00000000E+00  0.00000000E+00
  0.00000000E+00  0.00000000E+00  0.00000000E+00
  0.00000000E+00  0.00000000E+00  0.00000000E+00
  0.00000000E+00  0.00000000E+00  0.00000000E+00
  0.00000000E+00  0.00000000E+00  0.00000000E+00
  0.00000000E+00  0.00000000E+00  0.00000000E+00
  0.00000000E+00  0.00000000E+00  0.00000000E+00
  0.00000000E+00  0.00000000E+00  0.00000000E+00
  0.00000000E+00  0.00000000E+00  0.00000000E+00
  0.00000000E+00  0.00000000E+00  0.00000000E+00
  0.00000000E+00  0.00000000E+00  0.00000000E+00
  0.00000000E+00  0.00000000E+00  0.00000000E+00
  0.00000000E+00  0.00000000E+00  0.00000000E+00
  0.00000000E+00  0.00000000E+00  0.00000000E+00
  0.00000000E+00  0.00000000E+00  0.00000000E+00
  0.00000000E+00  0.00000000E+00  0.00000000E+00
  0.00000000E+00  0.00000000E+00  0.00000000E+00
  0.00000000E+00  0.00000000E+00  0.00000000E+00
  0.00000000E+00  0.00000000E+00  0.00000000E+00
  0.00000000E+00  0.00000000E+00  0.00000000E+00
  0.00000000E+00  0.00000000E+00  0.00000000E+00
  0.00000000E+00  0.00000000E+00  0.00000000E+00
  0.00000000E+00  0.00000000E+00  0.00000000E+00
  0.00000000E+00  0.00000000E+00  0.00000000E+00
  0.00000000E+00  0.00000000E+00  0.00000000E+00
  0.00000000E+00  0.00000000E+00  0.00000000E+00
  0.00000000E+00  0.00000000E+00  0.00000000E+00
  0.00000000E+00  0.00000000E+00  0.00000000E+00
  0.00000000E+00  0.00000000E+00  0.00000000E+00
  0.00000000E+00  0.00000000E+00  0.00000000E+00
  0.00000000E+00  0.00000000E+00  0.00000000E+00
  0.00000000E+00  0.00000000E+00  0.00000000E+00
  0.00000000E+00  0.00000000E+00  0.00000000E+00
  0.00000000E+00  0.00000000E+00  0.00000000E+00
  0.00000000E+00  0.00000000E+00  0.00000000E+00
  0.00000000E+00  0.00000000E+00  0.00000000E+00
  0.00000000E+00  0.00000000E+00  0.00000000E+00
  0.00000000E+00  0.00000000E+00  0.00000000E+00
  0.00000000E+00  0.00000000E+00  0.00000000E+00
  0.00000000E+00  0.00000000E+00  0.00000000E+00
  0.00000000E+00  0.00000000E+00  0.00000000E+00
  0.00000000E+00  0.00000000E+00  0.00000000E+00
  0.00000000E+00  0.00000000E+00  0.00000000E+00
  0.00000000E+00  0.00000000E+00  0.00000000E+00
  0.00000000E+00  0.00000000E+00  0.00000000E+00
  0.00000000E+00  0.00000000E+00  0.00000000E+00
  0.00000000E+00  0.00000000E+00  0.00000000E+00
  0.00000000E+00  0.00000000E+00  0.00000000E+00
  0.00000000E+00  0.00000000E+00  0.00000000E+00
  0.00000000E+00  0.00000000E+00  0.00000000E+00
  0.00000000E+00  0.00000000E+00  0.00000000E+00
  0.00000000E+00  0.00000000E+00  0.00000000E+00
  0.00000000E+00  0.00000000E+00  0.00000000E+00
  0.00000000E+00  0.00000000E+00  0.00000000E+00
  0.00000000E+00  0.00000000E+00  0.00000000E+00
  0.00000000E+00  0.00000000E+00  0.00000000E+00
  0.00000000E+00  0.00000000E+00  0.00000000E+00
  0.00000000E+00  0.00000000E+00  0.00000000E+00
  0.00000000E+00  0.00000000E+00  0.00000000E+00
  0.00000000E+00  0.00000000E+00  0.00000000E+00
  0.00000000E+00  0.00000000E+00  0.00000000E+00
  0.00000000E+00  0.00000000E+00  0.00000000E+00
  0.00000000E+00  0.00000000E+00  0.00000000E+00
  0.00000000E+00  0.00000000E+00  0.00000000E+00
  0.00000000E+00  0.00000000E+00  0.00000000E+00
  0.00000000E+00  0.00000000E+00  0.00000000E+00
  0.00000000E+00  0.00000000E+00  0.00000000E+00
  0.00000000E+00  0.00000000E+00  0.00000000E+00
  0.00000000E+00  0.00000000E+00  0.00000000E+00
  0.00000000E+00  0.00000000E+00  0.00000000E+00
  0.00000000E+00  0.00000000E+00  0.00000000E+00
  0.00000000E+00  0.00000000E+00  0.00000000E+00
  0.00000000E+00  0.00000000E+00  0.00000000E+00
  0.00000000E+00  0.00000000E+00  0.00000000E+00
  0.00000000E+00  0.00000000E+00  0.00000000E+00
  0.00000000E+00  0.00000000E+00  0.00000000E+00
  0.00000000E+00  0.00000000E+00  0.00000000E+00
  0.00000000E+00  0.00000000E+00  0.00000000E+00
  0.00000000E+00  0.00000000E+00  0.00000000E+00
  0.00000000E+00  0.00000000E+00  0.00000000E+00
  0.00000000E+00  0.00000000E+00  0.00000000E+00
  0.00000000E+00  0.00000000E+00  0.00000000E+00
  0.00000000E+00  0.00000000E+00  0.00000000E+00
  0.00000000E+00  0.00000000E+00  0.00000000E+00
  0.00000000E+00  0.00000000E+00  0.00000000E+00
  0.00000000E+00  0.00000000E+00  0.00000000E+00
  0.00000000E+00  0.00000000E+00  0.00000000E+00
  0.00000000E+00  0.00000000E+00  0.00000000E+00
  0.00000000E+00  0.00000000E+00  0.00000000E+00
  0.00000000E+00  0.00000000E+00  0.00000000E+00
  0.00000000E+00  0.00000000E+00  0.00000000E+00
  0.00000000E+00  0.00000000E+00  0.00000000E+00
  0.00000000E+00  0.00000000E+00  0.00000000E+00
  0.00000000E+00  0.00000000E+00  0.00000000E+00
  0.00000000E+00  0.00000000E+00  0.00000000E+00
  0.00000000E+00  0.00000000E+00  0.00000000E+00
  0.00000000E+00  0.00000000E+00  0.00000000E+00
  0.00000000E+00  0.00000000E+00  0.00000000E+00
  0.00000000E+00  0.00000000E+00  0.00000000E+00
  0.00000000E+00  0.00000000E+00  0.00000000E+00
  0.00000000E+00  0.00000000E+00  0.00000000E+00
  0.00000000E+00  0.00000000E+00  0.00000000E+00
  0.00000000E+00  0.00000000E+00  0.00000000E+00
  0.00000000E+00  0.00000000E+00  0.00000000E+00
  0.00000000E+00  0.00000000E+00  0.00000000E+00
  0.00000000E+00  0.00000000E+00  0.00000000E+00
  0.00000000E+00  0.00000000E+00  0.00000000E+00
  0.00000000E+00  0.00000000E+00  0.00000000E+00
  0.00000000E+00  0.00000000E+00  0.00000000E+00
  0.00000000E+00  0.00000000E+00  0.00000000E+00
