 running    4 mpi-ranks, on    1 nodes
 distrk:  each k-point on    1 cores,    4 groups
 distr:  one band on    1 cores,    1 groups
 OpenACC runtime initialized ...    4 GPUs detected
 vasp.6.4.2 20Jul23 (build Nov 12 2023 22:16:35) complex                         
 POSCAR found type information on POSCAR GaO N Fe
 POSCAR found :  4 types and     120 ions
 scaLAPACK will be used selectively (only on CPU)
 LDA part: xc-table for Pade appr. of Perdew
 POSCAR, INCAR and KPOINTS ok, starting setup
 FFT: planning ... GRIDC
 FFT: planning ... GRID_SOFT
 FFT: planning ... GRID
 WAVECAR not read
 initial charge from wavefunction
 entering main loop
       N       E                     dE             d eps       ncg     rms          ort
DAV:   1    -0.183816855105E+05   -0.18382E+05   -0.54196E+05  5040   0.744E+03
DAV:   2    -0.623329279228E+05   -0.43951E+05   -0.42375E+05  5040   0.121E+03
DAV:   3    -0.669746745194E+05   -0.46417E+04   -0.41997E+04  5040   0.357E+02
DAV:   4    -0.675479528075E+05   -0.57328E+03   -0.49155E+03  5040   0.108E+02
DAV:   5    -0.376433697793E+05    0.29905E+05   -0.74786E+02  5040   0.567E+01
 gam= 0.000 g(H,U,f)=  0.702E+05 0.209E+05 0.312E+04 ort(H,U,f) = 0.000E+00 0.000E+00 0.000E+00
SDA:   6     0.209237293411E+05    0.58567E+05   -0.74786E+02  5040   0.941E+05 0.000E+00
 gam= 0.000 trial= 0.400  step= 0.288 mean= 0.400
 gam= 0.419 g(H,U,f)=  0.156E+05 0.199E+05 0.393E+04 ort(H,U,f) = 0.921E+04-0.152E+05-0.133E+04
CGA:   7     0.483366115812E+04   -0.16090E+05   -0.13545E+05  5040   0.394E+05-0.736E+04
 gam= 0.419 trial= 0.394  step= 0.206 mean= 0.394
 gam= 0.665 g(H,U,f)=  0.873E+04 0.140E+05 0.350E+04 ort(H,U,f) = 0.433E+04-0.650E+04-0.322E+04
CGA:   8     0.220766659219E+04   -0.26260E+04   -0.37418E+04  5040   0.262E+05-0.539E+04
 gam= 0.665 trial= 0.385  step= 0.151 mean= 0.385
 gam= 0.336 g(H,U,f)=  0.624E+04 0.241E+04 0.171E+03 ort(H,U,f) =-0.424E+03-0.111E+04-0.100E+03
CGA:   9     0.128440344027E+04   -0.92326E+03   -0.17106E+04  5040   0.882E+04-0.164E+04
 gam= 0.336 trial= 0.373  step= 0.210 mean= 0.373
 gam= 0.587 g(H,U,f)=  0.320E+04 0.184E+04 0.132E+03 ort(H,U,f) = 0.593E+03 0.148E+03-0.110E+02
CGA:  10     0.556906136654E+03   -0.72750E+03   -0.86893E+03  5040   0.517E+04 0.730E+03
 gam= 0.587 trial= 0.365  step= 0.239 mean= 0.365
 gam= 0.439 g(H,U,f)=  0.186E+04 0.406E+03 0.670E+01 ort(H,U,f) = 0.166E+03 0.243E+03 0.965E+01
CGA:  11    -0.169989710226E+02   -0.57391E+03   -0.67050E+03  5040   0.227E+04 0.418E+03
 gam= 0.439 trial= 0.359  step= 0.350 mean= 0.359
 gam= 0.397 g(H,U,f)=  0.736E+03 0.152E+03 0.136E+02 ort(H,U,f) = 0.861E+02 0.112E+03 0.570E+01
CGA:  12    -0.445216580985E+03   -0.42822E+03   -0.43014E+03  5040   0.902E+03 0.204E+03
 gam= 0.397 trial= 0.358  step= 0.441 mean= 0.358
 gam= 0.596 g(H,U,f)=  0.368E+03 0.168E+03 0.149E+01 ort(H,U,f) =-0.393E+02 0.862E+02-0.360E-01
CGA:  13    -0.666925046392E+03   -0.22171E+03   -0.21686E+03  5040   0.537E+03 0.469E+02
 gam= 0.596 trial= 0.363  step= 0.427 mean= 0.363
 gam= 1.397 g(H,U,f)=  0.388E+03 0.344E+03 0.187E+02 ort(H,U,f) =-0.320E+02-0.161E+03-0.303E+02
CGA:  14    -0.774899125108E+03   -0.10797E+03   -0.12057E+03  5040   0.751E+03-0.223E+03
 gam= 1.397 trial= 0.366  step= 0.254 mean= 0.366
 gam= 0.475 g(H,U,f)=  0.250E+03 0.107E+03 0.148E+00 ort(H,U,f) =-0.127E+03 0.189E+03 0.784E+00
CGA:  15    -0.842136017222E+03   -0.67237E+02   -0.55759E+02  5040   0.357E+03 0.626E+02
 gam= 0.475 trial= 0.360  step= 0.094 mean= 0.360
 gam= 0.627 g(H,U,f)=  0.194E+03 0.271E+02 0.238E+01 ort(H,U,f) = 0.873E+02-0.404E+01-0.870E+01
CGA:  16    -0.863602956730E+03   -0.21467E+02   -0.18245E+02  5040   0.224E+03 0.746E+02
 gam= 0.627 trial= 0.347  step= 0.153 mean= 0.347
 gam= 2.619 g(H,U,f)=  0.168E+03 0.193E+03 0.225E+03 ort(H,U,f) = 0.122E+03-0.103E+03-0.950E+02
CGA:  17    -0.880943323265E+03   -0.17340E+02   -0.20638E+02  5040   0.586E+03-0.767E+02
 gam= 2.619 trial= 0.337  step= 0.052 mean= 0.337
 gam= 1.277 g(H,U,f)=  0.170E+03 0.283E+03 0.295E+03 ort(H,U,f) = 0.238E+03-0.134E+03 0.822E+02
CGA:  18    -0.884183029466E+03   -0.32397E+01   -0.99997E+01  5040   0.748E+03 0.186E+03
 gam= 1.277 trial= 0.323  step= 0.064 mean= 0.323
 gam= 0.651 g(H,U,f)=  0.192E+03 0.166E+03 0.129E+03 ort(H,U,f) =-0.398E+02 0.605E+02 0.152E+03
CGA:  19    -0.890787974788E+03   -0.66049E+01   -0.31345E+02  5040   0.487E+03 0.172E+03
 gam= 0.651 trial= 0.310  step= 0.069 mean= 0.310
 gam= 0.486 g(H,U,f)=  0.199E+03 0.372E+02 0.570E-01 ort(H,U,f) =-0.117E+03-0.819E+01 0.107E+00
CGA:  20    -0.888909709503E+03    0.18783E+01   -0.20635E+02  5040   0.237E+03-0.125E+03
 gam= 0.486 trial= 0.298  step= 0.084 mean= 0.298
 gam= 0.753 g(H,U,f)=  0.159E+03 0.188E+02 0.140E-04 ort(H,U,f) = 0.227E+02-0.155E+02 0.778E-04
CGA:  21    -0.896024582108E+03   -0.71149E+01   -0.73498E+01  5040   0.178E+03 0.726E+01
 gam= 0.753 trial= 0.287  step= 0.116 mean= 0.287
 gam= 0.800 g(H,U,f)=  0.112E+03 0.308E+02 0.109E-12 ort(H,U,f) = 0.437E+02-0.302E+02-0.679E-12
CGA:  22    -0.906724912246E+03   -0.10700E+02   -0.10627E+02  5040   0.143E+03 0.136E+02
 gam= 0.800 trial= 0.279  step= 0.133 mean= 0.279
 gam= 0.896 g(H,U,f)=  0.808E+02 0.469E+02 0.389E-13 ort(H,U,f) = 0.164E+02-0.110E+02 0.300E-12
CGA:  23    -0.916726967015E+03   -0.10002E+02   -0.10200E+02  5040   0.128E+03 0.538E+01
 gam= 0.896 trial= 0.271  step= 0.126 mean= 0.271
 gam= 0.776 g(H,U,f)=  0.691E+02 0.300E+02 0.358E-21 ort(H,U,f) =-0.203E+02 0.235E+02 0.219E-20
CGA:  24    -0.924689196637E+03   -0.79622E+01   -0.83185E+01  5040   0.990E+02 0.326E+01
 gam= 0.776 trial= 0.264  step= 0.121 mean= 0.264
 gam= 0.723 g(H,U,f)=  0.619E+02 0.975E+01 0.371E-18 ort(H,U,f) =-0.209E+02 0.208E+02 0.659E-18
CGA:  25    -0.930471660007E+03   -0.57825E+01   -0.61214E+01  5040   0.716E+02-0.105E+00
 gam= 0.723 trial= 0.257  step= 0.141 mean= 0.257
 gam= 0.877 g(H,U,f)=  0.538E+02 0.896E+01 0.315E-12 ort(H,U,f) =-0.419E+01 0.302E+01 0.413E-12
CGA:  26    -0.935349271251E+03   -0.48776E+01   -0.50593E+01  5040   0.628E+02-0.117E+01
 gam= 0.877 trial= 0.251  step= 0.165 mean= 0.251
 gam= 0.985 g(H,U,f)=  0.470E+02 0.149E+02 0.788E-22 ort(H,U,f) =-0.164E+01 0.548E+00-0.655E-22
CGA:  27    -0.940432479826E+03   -0.50832E+01   -0.50830E+01  5040   0.619E+02-0.109E+01
 gam= 0.985 trial= 0.247  step= 0.153 mean= 0.247
 gam= 0.836 g(H,U,f)=  0.389E+02 0.128E+02 0.852E-14 ort(H,U,f) =-0.938E+01 0.866E+01 0.283E-13
CGA:  28    -0.945107196024E+03   -0.46747E+01   -0.46446E+01  5040   0.517E+02-0.714E+00
 gam= 0.836 trial= 0.242  step= 0.138 mean= 0.242
 gam= 0.705 g(H,U,f)=  0.316E+02 0.492E+01 0.181E-13 ort(H,U,f) =-0.107E+02 0.107E+02 0.133E-12
CGA:  29    -0.948652490743E+03   -0.35453E+01   -0.35314E+01  5040   0.365E+02 0.702E-01
 gam= 0.705 trial= 0.237  step= 0.138 mean= 0.237
 gam= 0.781 g(H,U,f)=  0.269E+02 0.153E+01 0.123E-21 ort(H,U,f) =-0.767E+00 0.152E+01 0.342E-21
CGA:  30    -0.951197730457E+03   -0.25452E+01   -0.25175E+01  5040   0.285E+02 0.752E+00
 gam= 0.781 trial= 0.232  step= 0.148 mean= 0.232
 gam= 0.943 g(H,U,f)=  0.217E+02 0.515E+01 0.109E-14 ort(H,U,f) = 0.581E+01-0.473E+01-0.510E-14
CGA:  31    -0.953334393145E+03   -0.21367E+01   -0.21519E+01  5040   0.269E+02 0.108E+01
 gam= 0.943 trial= 0.228  step= 0.144 mean= 0.228
 gam= 0.834 g(H,U,f)=  0.156E+02 0.681E+01 0.630E-14 ort(H,U,f) = 0.359E+01-0.237E+01-0.151E-13
CGA:  32    -0.955289902816E+03   -0.19555E+01   -0.20018E+01  5040   0.224E+02 0.122E+01
 gam= 0.834 trial= 0.224  step= 0.127 mean= 0.224
 gam= 0.650 g(H,U,f)=  0.111E+02 0.342E+01 0.370E-14 ort(H,U,f) =-0.574E+00 0.126E+01-0.265E-14
CGA:  33    -0.956727334111E+03   -0.14374E+01   -0.14921E+01  5040   0.146E+02 0.688E+00
 gam= 0.650 trial= 0.219  step= 0.136 mean= 0.219
 gam= 0.692 g(H,U,f)=  0.865E+01 0.143E+01 0.208E-19 ort(H,U,f) =-0.108E+00 0.356E+00-0.942E-19
CGA:  34    -0.957714582441E+03   -0.98725E+00   -0.10220E+01  5040   0.101E+02 0.249E+00
 gam= 0.692 trial= 0.215  step= 0.173 mean= 0.215
 gam= 0.889 g(H,U,f)=  0.716E+01 0.180E+01 0.270E-13 ort(H,U,f) = 0.755E+00-0.651E+00-0.133E-11
CGA:  35    -0.958594456398E+03   -0.87987E+00   -0.88781E+00  5040   0.896E+01 0.104E+00
 gam= 0.889 trial= 0.213  step= 0.193 mean= 0.213
 gam= 0.873 g(H,U,f)=  0.570E+01 0.212E+01 0.188E-15 ort(H,U,f) =-0.233E+00 0.163E+00-0.947E-15
CGA:  36    -0.959469807148E+03   -0.87535E+00   -0.87534E+00  5040   0.782E+01-0.699E-01
 gam= 0.873 trial= 0.212  step= 0.174 mean= 0.212
 gam= 0.000 g(H,U,f)=  0.420E+01 0.121E+01 0.109E-14 ort(H,U,f) =-0.132E+01 0.127E+01-0.274E-13
SDA:  37    -0.960146406840E+03   -0.67660E+00   -0.67499E+00  5040   0.541E+01-0.504E-01
 gam= 0.000 trial= 0.210  step= 0.610 mean= 0.210
 gam= 0.489 g(H,U,f)=  0.143E+01 0.121E+01 0.497E-10 ort(H,U,f) = 0.292E-01-0.225E+00 0.560E-11
CGA:  38    -0.961761910794E+03   -0.16155E+01   -0.16507E+01  5040   0.265E+01-0.195E+00
 gam= 0.489 trial= 0.230  step= 0.568 mean= 0.230
 gam= 0.278 g(H,U,f)=  0.527E+00 0.209E+00 0.129E-17 ort(H,U,f) =-0.169E+00 0.225E+00 0.475E-18
CGA:  39    -0.962496264576E+03   -0.73435E+00   -0.72433E+00  5040   0.737E+00 0.559E-01
 gam= 0.278 trial= 0.247  step= 0.830 mean= 0.247
 gam= 0.313 g(H,U,f)=  0.197E+00 0.329E-01 0.247E-18 ort(H,U,f) =-0.117E+00 0.113E+00 0.254E-17
CGA:  40    -0.962807098130E+03   -0.31083E+00   -0.31204E+00  5040   0.230E+00-0.382E-02
 gam= 0.313 trial= 0.276  step= 0.720 mean= 0.276
 gam= 0.393 g(H,U,f)=  0.683E-01 0.221E-01 0.124E-16 ort(H,U,f) =-0.176E-01 0.166E-01 0.213E-16
CGA:  41    -0.962889325658E+03   -0.82228E-01   -0.82462E-01  5040   0.904E-01-0.970E-03
 gam= 0.393 trial= 0.298  step= 0.618 mean= 0.298
 gam= 0.389 g(H,U,f)=  0.247E-01 0.105E-01 0.268E-13 ort(H,U,f) = 0.334E-02-0.319E-02-0.867E-13
CGA:  42    -0.962917193491E+03   -0.27868E-01   -0.27832E-01  5040   0.352E-01 0.142E-03
 gam= 0.389 trial= 0.314  step= 0.557 mean= 0.314
 gam= 0.250 g(H,U,f)=  0.757E-02 0.123E-02 0.214E-15 ort(H,U,f) =-0.214E-03 0.375E-04 0.316E-15
CGA:  43    -0.962926971937E+03   -0.97784E-02   -0.98028E-02  5040   0.880E-02-0.177E-03
 gam= 0.250 trial= 0.326  step= 0.975 mean= 0.326
 gam= 0.497 g(H,U,f)=  0.357E-02 0.800E-03 0.195E-14 ort(H,U,f) =-0.973E-03 0.812E-03 0.863E-15
CGA:  44    -0.962931186929E+03   -0.42150E-02   -0.42673E-02  5040   0.437E-02-0.161E-03
 gam= 0.497 trial= 0.359  step= 1.014 mean= 0.359
 gam= 0.730 g(H,U,f)=  0.226E-02 0.936E-03 0.608E-15 ort(H,U,f) =-0.808E-03 0.734E-03 0.526E-15
CGA:  45    -0.962933338796E+03   -0.21519E-02   -0.21760E-02  5040   0.319E-02-0.738E-04
 gam= 0.730 trial= 0.391  step= 0.797 mean= 0.391
 gam= 0.732 g(H,U,f)=  0.146E-02 0.876E-03 0.899E-14 ort(H,U,f) =-0.453E-03 0.418E-03 0.120E-13
CGA:  46    -0.962934582546E+03   -0.12438E-02   -0.12509E-02  5040   0.234E-02-0.348E-04
 gam= 0.732 trial= 0.412  step= 0.750 mean= 0.412
 gam= 0.525 g(H,U,f)=  0.970E-03 0.257E-03 0.123E-22 ort(H,U,f) =-0.520E-03 0.500E-03-0.921E-22
CGA:  47    -0.962935445991E+03   -0.86345E-03   -0.86683E-03  5040   0.123E-02-0.202E-04
 gam= 0.525 trial= 0.429  step= 0.955 mean= 0.429
 gam= 0.562 g(H,U,f)=  0.569E-03 0.120E-03 0.263E-18 ort(H,U,f) =-0.341E-03 0.321E-03 0.136E-18
CGA:  48    -0.962936021635E+03   -0.57564E-03   -0.58077E-03  5040   0.690E-03-0.194E-04
 gam= 0.562 trial= 0.455  step= 1.107 mean= 0.455
 gam= 0.679 g(H,U,f)=  0.375E-03 0.939E-04 0.355E-15 ort(H,U,f) =-0.186E-03 0.192E-03 0.354E-15
CGA:  49    -0.962936399158E+03   -0.37752E-03   -0.37577E-03  5040   0.468E-03 0.542E-05
 gam= 0.679 trial= 0.487  step= 0.908 mean= 0.487
 gam= 0.795 g(H,U,f)=  0.260E-03 0.113E-03 0.801E-17 ort(H,U,f) =-0.949E-04 0.104E-03 0.107E-16
CGA:  50    -0.962936615437E+03   -0.21628E-03   -0.21441E-03  5040   0.372E-03 0.885E-05
 gam= 0.795 trial= 0.509  step= 0.779 mean= 0.509
 gam= 0.573 g(H,U,f)=  0.167E-03 0.460E-04 0.345E-24 ort(H,U,f) =-0.626E-04 0.694E-04 0.240E-24
CGA:  51    -0.962936764104E+03   -0.14867E-03   -0.14775E-03  5040   0.213E-03 0.678E-05
 gam= 0.573 trial= 0.522  step= 0.818 mean= 0.522
 gam= 0.456 g(H,U,f)=  0.860E-04 0.113E-04 0.558E-22 ort(H,U,f) =-0.313E-04 0.392E-04-0.165E-21
CGA:  52    -0.962936854082E+03   -0.89978E-04   -0.88812E-04  5040   0.973E-04 0.786E-05
 gam= 0.456 trial= 0.537  step= 0.906 mean= 0.537
 gam= 0.514 g(H,U,f)=  0.444E-04 0.556E-05 0.493E-20 ort(H,U,f) =-0.121E-04 0.170E-04-0.266E-20
CGA:  53    -0.962936900691E+03   -0.46609E-04   -0.45712E-04  5040   0.500E-04 0.488E-05
 gam= 0.514 trial= 0.555  step= 0.867 mean= 0.555
 gam= 0.572 g(H,U,f)=  0.240E-04 0.464E-05 0.315E-19 ort(H,U,f) =-0.691E-05 0.821E-05-0.812E-19
CGA:  54    -0.962936923656E+03   -0.22965E-04   -0.22762E-04  5040   0.286E-04 0.130E-05
 gam= 0.572 trial= 0.571  step= 0.844 mean= 0.571
 gam= 0.615 g(H,U,f)=  0.137E-04 0.393E-05 0.415E-16 ort(H,U,f) =-0.355E-05 0.429E-05 0.614E-17
CGA:  55    -0.962936936152E+03   -0.12496E-04   -0.12394E-04  5040   0.176E-04 0.748E-06
 gam= 0.615 trial= 0.585  step= 0.803 mean= 0.585
 gam= 0.608 g(H,U,f)=  0.854E-05 0.215E-05 0.444E-18 ort(H,U,f) =-0.281E-05 0.281E-05 0.282E-17
CGA:  56    -0.962936943401E+03   -0.72491E-05   -0.72499E-05  5040   0.107E-04-0.830E-08
 gam= 0.608 trial= 0.595  step= 0.864 mean= 0.595
 final diagonalization
   1 F= -.96293694E+03 E0= -.96293694E+03  d E =-.757934E-11
 writing wavefunctions
Warning: ieee_invalid is signaling
Warning: ieee_divide_by_zero is signaling
Warning: ieee_underflow is signaling
Warning: ieee_inexact is signaling
FORTRAN STOP
Warning: ieee_invalid is signaling
Warning: ieee_divide_by_zero is signaling
Warning: ieee_underflow is signaling
Warning: ieee_inexact is signaling
FORTRAN STOP
Warning: ieee_invalid is signaling
Warning: ieee_divide_by_zero is signaling
Warning: ieee_underflow is signaling
Warning: ieee_inexact is signaling
FORTRAN STOP
Warning: ieee_invalid is signaling
Warning: ieee_divide_by_zero is signaling
Warning: ieee_underflow is signaling
Warning: ieee_inexact is signaling
FORTRAN STOP
