Ga8                                     
    1.000000000000000     
     4.4320466607116726    0.0000000000000000    0.0000000000000003
    -0.0000000000000005    7.5979836802912653    0.0000000000000005
     0.0000000000000000    0.0000000000000000    4.5555035300000002
   Ga
     8
Direct
  0.0000000000000000  0.3372049872889633  0.4010795314816775
  0.0000000000000000  0.1627950127110367  0.9010795314816775
  0.0000000000000000  0.6627950127110367  0.5989204685183225
  0.0000000000000000  0.8372049872889633  0.0989204685183225
  0.5000000000000000  0.8372049872889633  0.4010795314816775
  0.5000000000000000  0.6627950127110367  0.9010795314816775
  0.5000000000000000  0.1627950127110367  0.5989204685183225
  0.5000000000000000  0.3372049872889633  0.0989204685183225
 
  0.00000000E+00  0.00000000E+00  0.00000000E+00
  0.00000000E+00  0.00000000E+00  0.00000000E+00
  0.00000000E+00  0.00000000E+00  0.00000000E+00
  0.00000000E+00  0.00000000E+00  0.00000000E+00
  0.00000000E+00  0.00000000E+00  0.00000000E+00
  0.00000000E+00  0.00000000E+00  0.00000000E+00
  0.00000000E+00  0.00000000E+00  0.00000000E+00
  0.00000000E+00  0.00000000E+00  0.00000000E+00
