       N       E                     dE             d eps       ncg     rms          ort
SDA:   1    -0.939041903706E+03   -0.93904E+03    0.00000E+00  5056   0.263E+02 0.000E+00
CGA:   2    -0.944038459478E+03   -0.49966E+01   -0.50030E+01  5056   0.793E+01 0.331E+00
CGA:   3    -0.946392800449E+03   -0.23543E+01   -0.23157E+01  5056   0.833E+01 0.345E+00
CGA:   4    -0.947290956902E+03   -0.89816E+00   -0.91946E+00  5056   0.136E+01-0.682E-01
CGA:   5    -0.947677726195E+03   -0.38677E+00   -0.38375E+00  5056   0.884E+00 0.278E-01
CGA:   6    -0.947839696771E+03   -0.16197E+00   -0.16226E+00  5056   0.357E+00 0.496E-02
CGA:   7    -0.947894676077E+03   -0.54979E-01   -0.55084E-01  5056   0.160E+00 0.303E-03
CGA:   8    -0.947926160630E+03   -0.31485E-01   -0.31487E-01  5056   0.419E-01 0.587E-03
CGA:   9    -0.947933490934E+03   -0.73303E-02   -0.73345E-02  5056   0.148E-01 0.140E-03
CGA:  10    -0.947936346360E+03   -0.28554E-02   -0.28559E-02  5056   0.808E-02 0.624E-04
CGA:  11    -0.947937672432E+03   -0.13261E-02   -0.13282E-02  5056   0.348E-02 0.578E-04
CGA:  12    -0.947938395511E+03   -0.72308E-03   -0.72227E-03  5056   0.140E-02 0.790E-04
CGA:  13    -0.947938695823E+03   -0.30031E-03   -0.29983E-03  5056   0.664E-03 0.371E-04
CGA:  14    -0.947938817602E+03   -0.12178E-03   -0.12216E-03  5056   0.266E-03 0.210E-04
CGA:  15    -0.947938862393E+03   -0.44791E-04   -0.45229E-04  5056   0.906E-04 0.137E-04
CGA:  16    -0.947938882516E+03   -0.20122E-04   -0.19991E-04  5056   0.375E-04 0.868E-05
CGA:  17    -0.947938891402E+03   -0.88859E-05   -0.88326E-05  5056   0.183E-04 0.275E-05
   1 F= -.94793889E+03 E0= -.94793889E+03  d E =-.365256E-13
