Ga48 O72                                
    1.000000000000000     
     0.0000000000000000   12.2804734172212839    0.0000000000000000
     9.1427020537309431    0.0000000000000000    0.0000000000000000
     0.0000000000000000   -2.7682617730220320  -11.3006977184464645
   Ga   O 
    48    72
Direct
  0.6590211756847566  0.0000000000000000  0.1565901843033544
  0.6590211756847566  0.0000000000000000  0.6565901843033473
  0.6590211756847566  0.3333333333333357  0.1565901843033544
  0.6590211756847566  0.3333333333333357  0.6565901843033473
  0.6590211756847566  0.6666666666666643  0.1565901843033544
  0.6590211756847566  0.6666666666666643  0.6565901843033473
  0.8409788243152434  0.1666666666666643  0.3434098156966527
  0.8409788243152434  0.1666666666666643  0.8434098156966527
  0.8409788243152434  0.5000000000000000  0.3434098156966527
  0.8409788243152434  0.5000000000000000  0.8434098156966527
  0.8409788243152434  0.8333333333333357  0.3434098156966527
  0.8409788243152434  0.8333333333333357  0.8434098156966527
  0.5910867811274443  0.1666666666666643  0.3975753503606612
  0.5910867811274443  0.1666666666666643  0.8975753503606612
  0.5910867811274443  0.5000000000000000  0.3975753503606612
  0.5910867811274443  0.5000000000000000  0.8975753503606612
  0.5910867811274443  0.8333333333333357  0.3975753503606612
  0.5910867811274443  0.8333333333333357  0.8975753503606612
  0.9089132188725557  0.0000000000000000  0.1024246496393388
  0.9089132188725557  0.0000000000000000  0.6024246496393388
  0.9089132188725557  0.3333333333333357  0.1024246496393388
  0.9089132188725557  0.3333333333333357  0.6024246496393388
  0.9089132188725557  0.6666666666666643  0.1024246496393388
  0.9089132188725557  0.6666666666666643  0.6024246496393388
  0.1590211756847566  0.1666666666666643  0.1565901843033544
  0.1590211756847566  0.1666666666666643  0.6565901843033473
  0.1590211756847566  0.5000000000000000  0.1565901843033544
  0.1590211756847566  0.5000000000000000  0.6565901843033473
  0.1590211756847566  0.8333333333333357  0.1565901843033544
  0.1590211756847566  0.8333333333333357  0.6565901843033473
  0.3409788243152434  0.0000000000000000  0.3434098156966527
  0.3409788243152434  0.0000000000000000  0.8434098156966527
  0.3409788243152434  0.3333333333333357  0.3434098156966527
  0.3409788243152434  0.3333333333333357  0.8434098156966527
  0.3409788243152434  0.6666666666666643  0.3434098156966527
  0.3409788243152434  0.6666666666666643  0.8434098156966527
  0.0910867811274443  0.0000000000000000  0.3975753503606612
  0.0910867811274443  0.0000000000000000  0.8975753503606612
  0.0910867811274443  0.3333333333333357  0.3975753503606612
  0.0910867811274443  0.3333333333333357  0.8975753503606612
  0.0910867811274443  0.6666666666666643  0.3975753503606612
  0.0910867811274443  0.6666666666666643  0.8975753503606612
  0.4089132188725557  0.1666666666666643  0.1024246496393388
  0.4089132188725557  0.1666666666666643  0.6024246496393388
  0.4089132188725557  0.5000000000000000  0.1024246496393388
  0.4089132188725557  0.5000000000000000  0.6024246496393388
  0.4089132188725557  0.8333333333333357  0.1024246496393388
  0.4089132188725557  0.8333333333333357  0.6024246496393388
  0.9963646517286975  0.1666666666666643  0.1272337551558067
  0.9963646517286975  0.1666666666666643  0.6272337551558067
  0.9963646517286975  0.5000000000000000  0.1272337551558067
  0.9963646517286975  0.5000000000000000  0.6272337551558067
  0.9963646517286975  0.8333333333333357  0.1272337551558067
  0.9963646517286975  0.8333333333333357  0.6272337551558067
  0.5036353482713025  0.0000000000000000  0.3727662448441933
  0.5036353482713025  0.0000000000000000  0.8727662448441933
  0.5036353482713025  0.3333333333333357  0.3727662448441933
  0.5036353482713025  0.3333333333333357  0.8727662448441933
  0.5036353482713025  0.6666666666666643  0.3727662448441933
  0.5036353482713025  0.6666666666666643  0.8727662448441933
  0.6725468800720407  0.1666666666666643  0.2803982348384366
  0.6725468800720407  0.1666666666666643  0.7803982348384366
  0.6725468800720407  0.5000000000000000  0.2803982348384366
  0.6725468800720407  0.5000000000000000  0.7803982348384366
  0.6725468800720407  0.8333333333333357  0.2803982348384366
  0.6725468800720407  0.8333333333333357  0.7803982348384366
  0.8274531199279593  0.0000000000000000  0.2196017651615634
  0.8274531199279593  0.0000000000000000  0.7196017651615634
  0.8274531199279593  0.3333333333333357  0.2196017651615634
  0.8274531199279593  0.3333333333333357  0.7196017651615634
  0.8274531199279593  0.6666666666666643  0.2196017651615634
  0.8274531199279593  0.6666666666666643  0.7196017651615634
  0.8320908209759423  0.0000000000000000  0.4458096832417979
  0.8320908209759423  0.0000000000000000  0.9458096832417979
  0.8320908209759423  0.3333333333333357  0.4458096832417979
  0.8320908209759423  0.3333333333333357  0.9458096832417979
  0.8320908209759423  0.6666666666666643  0.4458096832417979
  0.8320908209759423  0.6666666666666643  0.9458096832417979
  0.6679091790240506  0.1666666666666643  0.0541903167582021
  0.6679091790240506  0.1666666666666643  0.5541903167582021
  0.6679091790240506  0.5000000000000000  0.0541903167582021
  0.6679091790240506  0.5000000000000000  0.5541903167582021
  0.6679091790240506  0.8333333333333357  0.0541903167582021
  0.6679091790240506  0.8333333333333357  0.5541903167582021
  0.4963646517286975  0.0000000000000000  0.1272337551558067
  0.4963646517286975  0.0000000000000000  0.6272337551558067
  0.4963646517286975  0.3333333333333357  0.1272337551558067
  0.4963646517286975  0.3333333333333357  0.6272337551558067
  0.4963646517286975  0.6666666666666643  0.1272337551558067
  0.4963646517286975  0.6666666666666643  0.6272337551558067
  0.0036353482713025  0.1666666666666643  0.3727662448441933
  0.0036353482713025  0.1666666666666643  0.8727662448441933
  0.0036353482713025  0.5000000000000000  0.3727662448441933
  0.0036353482713025  0.5000000000000000  0.8727662448441933
  0.0036353482713025  0.8333333333333357  0.3727662448441933
  0.0036353482713025  0.8333333333333357  0.8727662448441933
  0.1725468800720407  0.0000000000000000  0.2803982348384366
  0.1725468800720407  0.0000000000000000  0.7803982348384366
  0.1725468800720407  0.3333333333333357  0.2803982348384366
  0.1725468800720407  0.3333333333333357  0.7803982348384366
  0.1725468800720407  0.6666666666666643  0.2803982348384366
  0.1725468800720407  0.6666666666666643  0.7803982348384366
  0.3274531199279593  0.1666666666666643  0.2196017651615634
  0.3274531199279593  0.1666666666666643  0.7196017651615634
  0.3274531199279593  0.5000000000000000  0.2196017651615634
  0.3274531199279593  0.5000000000000000  0.7196017651615634
  0.3274531199279593  0.8333333333333357  0.2196017651615634
  0.3274531199279593  0.8333333333333357  0.7196017651615634
  0.3320908209759423  0.1666666666666643  0.4458096832417979
  0.3320908209759423  0.1666666666666643  0.9458096832417979
  0.3320908209759423  0.5000000000000000  0.4458096832417979
  0.3320908209759423  0.5000000000000000  0.9458096832417979
  0.3320908209759423  0.8333333333333357  0.4458096832417979
  0.3320908209759423  0.8333333333333357  0.9458096832417979
  0.1679091790240506  0.0000000000000000  0.0541903167582021
  0.1679091790240506  0.0000000000000000  0.5541903167582021
  0.1679091790240506  0.3333333333333357  0.0541903167582021
  0.1679091790240506  0.3333333333333357  0.5541903167582021
  0.1679091790240506  0.6666666666666643  0.0541903167582021
  0.1679091790240506  0.6666666666666643  0.5541903167582021
 
  0.00000000E+00  0.00000000E+00  0.00000000E+00
  0.00000000E+00  0.00000000E+00  0.00000000E+00
  0.00000000E+00  0.00000000E+00  0.00000000E+00
  0.00000000E+00  0.00000000E+00  0.00000000E+00
  0.00000000E+00  0.00000000E+00  0.00000000E+00
  0.00000000E+00  0.00000000E+00  0.00000000E+00
  0.00000000E+00  0.00000000E+00  0.00000000E+00
  0.00000000E+00  0.00000000E+00  0.00000000E+00
  0.00000000E+00  0.00000000E+00  0.00000000E+00
  0.00000000E+00  0.00000000E+00  0.00000000E+00
  0.00000000E+00  0.00000000E+00  0.00000000E+00
  0.00000000E+00  0.00000000E+00  0.00000000E+00
  0.00000000E+00  0.00000000E+00  0.00000000E+00
  0.00000000E+00  0.00000000E+00  0.00000000E+00
  0.00000000E+00  0.00000000E+00  0.00000000E+00
  0.00000000E+00  0.00000000E+00  0.00000000E+00
  0.00000000E+00  0.00000000E+00  0.00000000E+00
  0.00000000E+00  0.00000000E+00  0.00000000E+00
  0.00000000E+00  0.00000000E+00  0.00000000E+00
  0.00000000E+00  0.00000000E+00  0.00000000E+00
  0.00000000E+00  0.00000000E+00  0.00000000E+00
  0.00000000E+00  0.00000000E+00  0.00000000E+00
  0.00000000E+00  0.00000000E+00  0.00000000E+00
  0.00000000E+00  0.00000000E+00  0.00000000E+00
  0.00000000E+00  0.00000000E+00  0.00000000E+00
  0.00000000E+00  0.00000000E+00  0.00000000E+00
  0.00000000E+00  0.00000000E+00  0.00000000E+00
  0.00000000E+00  0.00000000E+00  0.00000000E+00
  0.00000000E+00  0.00000000E+00  0.00000000E+00
  0.00000000E+00  0.00000000E+00  0.00000000E+00
  0.00000000E+00  0.00000000E+00  0.00000000E+00
  0.00000000E+00  0.00000000E+00  0.00000000E+00
  0.00000000E+00  0.00000000E+00  0.00000000E+00
  0.00000000E+00  0.00000000E+00  0.00000000E+00
  0.00000000E+00  0.00000000E+00  0.00000000E+00
  0.00000000E+00  0.00000000E+00  0.00000000E+00
  0.00000000E+00  0.00000000E+00  0.00000000E+00
  0.00000000E+00  0.00000000E+00  0.00000000E+00
  0.00000000E+00  0.00000000E+00  0.00000000E+00
  0.00000000E+00  0.00000000E+00  0.00000000E+00
  0.00000000E+00  0.00000000E+00  0.00000000E+00
  0.00000000E+00  0.00000000E+00  0.00000000E+00
  0.00000000E+00  0.00000000E+00  0.00000000E+00
  0.00000000E+00  0.00000000E+00  0.00000000E+00
  0.00000000E+00  0.00000000E+00  0.00000000E+00
  0.00000000E+00  0.00000000E+00  0.00000000E+00
  0.00000000E+00  0.00000000E+00  0.00000000E+00
  0.00000000E+00  0.00000000E+00  0.00000000E+00
  0.00000000E+00  0.00000000E+00  0.00000000E+00
  0.00000000E+00  0.00000000E+00  0.00000000E+00
  0.00000000E+00  0.00000000E+00  0.00000000E+00
  0.00000000E+00  0.00000000E+00  0.00000000E+00
  0.00000000E+00  0.00000000E+00  0.00000000E+00
  0.00000000E+00  0.00000000E+00  0.00000000E+00
  0.00000000E+00  0.00000000E+00  0.00000000E+00
  0.00000000E+00  0.00000000E+00  0.00000000E+00
  0.00000000E+00  0.00000000E+00  0.00000000E+00
  0.00000000E+00  0.00000000E+00  0.00000000E+00
  0.00000000E+00  0.00000000E+00  0.00000000E+00
  0.00000000E+00  0.00000000E+00  0.00000000E+00
  0.00000000E+00  0.00000000E+00  0.00000000E+00
  0.00000000E+00  0.00000000E+00  0.00000000E+00
  0.00000000E+00  0.00000000E+00  0.00000000E+00
  0.00000000E+00  0.00000000E+00  0.00000000E+00
  0.00000000E+00  0.00000000E+00  0.00000000E+00
  0.00000000E+00  0.00000000E+00  0.00000000E+00
  0.00000000E+00  0.00000000E+00  0.00000000E+00
  0.00000000E+00  0.00000000E+00  0.00000000E+00
  0.00000000E+00  0.00000000E+00  0.00000000E+00
  0.00000000E+00  0.00000000E+00  0.00000000E+00
  0.00000000E+00  0.00000000E+00  0.00000000E+00
  0.00000000E+00  0.00000000E+00  0.00000000E+00
  0.00000000E+00  0.00000000E+00  0.00000000E+00
  0.00000000E+00  0.00000000E+00  0.00000000E+00
  0.00000000E+00  0.00000000E+00  0.00000000E+00
  0.00000000E+00  0.00000000E+00  0.00000000E+00
  0.00000000E+00  0.00000000E+00  0.00000000E+00
  0.00000000E+00  0.00000000E+00  0.00000000E+00
  0.00000000E+00  0.00000000E+00  0.00000000E+00
  0.00000000E+00  0.00000000E+00  0.00000000E+00
  0.00000000E+00  0.00000000E+00  0.00000000E+00
  0.00000000E+00  0.00000000E+00  0.00000000E+00
  0.00000000E+00  0.00000000E+00  0.00000000E+00
  0.00000000E+00  0.00000000E+00  0.00000000E+00
  0.00000000E+00  0.00000000E+00  0.00000000E+00
  0.00000000E+00  0.00000000E+00  0.00000000E+00
  0.00000000E+00  0.00000000E+00  0.00000000E+00
  0.00000000E+00  0.00000000E+00  0.00000000E+00
  0.00000000E+00  0.00000000E+00  0.00000000E+00
  0.00000000E+00  0.00000000E+00  0.00000000E+00
  0.00000000E+00  0.00000000E+00  0.00000000E+00
  0.00000000E+00  0.00000000E+00  0.00000000E+00
  0.00000000E+00  0.00000000E+00  0.00000000E+00
  0.00000000E+00  0.00000000E+00  0.00000000E+00
  0.00000000E+00  0.00000000E+00  0.00000000E+00
  0.00000000E+00  0.00000000E+00  0.00000000E+00
  0.00000000E+00  0.00000000E+00  0.00000000E+00
  0.00000000E+00  0.00000000E+00  0.00000000E+00
  0.00000000E+00  0.00000000E+00  0.00000000E+00
  0.00000000E+00  0.00000000E+00  0.00000000E+00
  0.00000000E+00  0.00000000E+00  0.00000000E+00
  0.00000000E+00  0.00000000E+00  0.00000000E+00
  0.00000000E+00  0.00000000E+00  0.00000000E+00
  0.00000000E+00  0.00000000E+00  0.00000000E+00
  0.00000000E+00  0.00000000E+00  0.00000000E+00
  0.00000000E+00  0.00000000E+00  0.00000000E+00
  0.00000000E+00  0.00000000E+00  0.00000000E+00
  0.00000000E+00  0.00000000E+00  0.00000000E+00
  0.00000000E+00  0.00000000E+00  0.00000000E+00
  0.00000000E+00  0.00000000E+00  0.00000000E+00
  0.00000000E+00  0.00000000E+00  0.00000000E+00
  0.00000000E+00  0.00000000E+00  0.00000000E+00
  0.00000000E+00  0.00000000E+00  0.00000000E+00
  0.00000000E+00  0.00000000E+00  0.00000000E+00
  0.00000000E+00  0.00000000E+00  0.00000000E+00
  0.00000000E+00  0.00000000E+00  0.00000000E+00
  0.00000000E+00  0.00000000E+00  0.00000000E+00
  0.00000000E+00  0.00000000E+00  0.00000000E+00
  0.00000000E+00  0.00000000E+00  0.00000000E+00
  0.00000000E+00  0.00000000E+00  0.00000000E+00
