Ga48 O72                                
    1.000000000000000     
     0.0000000000000000   12.2804734172212839    0.0000000000000000
     9.1427020537309431    0.0000000000000000    0.0000000000000000
     0.0000000000000000   -2.7682617730220320  -11.3006977184464645
   Ga   O 
    48    72
Direct
  0.6590211756847595 -0.0000000000000000  0.1565901843033508
  0.6590211756847595  0.0000000000000000  0.6565901843033507
  0.6590211756847595  0.3333333333333357  0.1565901843033508
  0.6590211756847595  0.3333333333333357  0.6565901843033507
  0.6590211756847595  0.6666666666666643  0.1565901843033508
  0.6590211756847595  0.6666666666666643  0.6565901843033507
  0.8409788243152405  0.1666666666666643  0.3434098156966494
  0.8409788243152405  0.1666666666666643  0.8434098156966493
  0.8409788243152405  0.5000000000000000  0.3434098156966494
  0.8409788243152405  0.5000000000000000  0.8434098156966493
  0.8409788243152405  0.8333333333333357  0.3434098156966494
  0.8409788243152405  0.8333333333333357  0.8434098156966493
  0.5910867811274464  0.1666666666666643  0.3975753503606591
  0.5910867811274464  0.1666666666666643  0.8975753503606591
  0.5910867811274464  0.5000000000000000  0.3975753503606591
  0.5910867811274464  0.5000000000000000  0.8975753503606591
  0.5910867811274464  0.8333333333333357  0.3975753503606591
  0.5910867811274464  0.8333333333333357  0.8975753503606591
  0.9089132188725536  0.0000000000000000  0.1024246496393409
  0.9089132188725536 -0.0000000000000000  0.6024246496393409
  0.9089132188725536  0.3333333333333357  0.1024246496393409
  0.9089132188725536  0.3333333333333357  0.6024246496393409
  0.9089132188725536  0.6666666666666643  0.1024246496393409
  0.9089132188725536  0.6666666666666643  0.6024246496393409
  0.1590211756847595  0.1666666666666643  0.1565901843033508
  0.1590211756847595  0.1666666666666643  0.6565901843033507
  0.1590211756847595  0.5000000000000000  0.1565901843033508
  0.1590211756847595  0.5000000000000000  0.6565901843033507
  0.1590211756847595  0.8333333333333357  0.1565901843033508
  0.1590211756847595  0.8333333333333357  0.6565901843033507
  0.3409788243152404  0.0000000000000000  0.3434098156966494
  0.3409788243152405 -0.0000000000000000  0.8434098156966493
  0.3409788243152404  0.3333333333333357  0.3434098156966494
  0.3409788243152404  0.3333333333333357  0.8434098156966493
  0.3409788243152404  0.6666666666666643  0.3434098156966494
  0.3409788243152404  0.6666666666666643  0.8434098156966493
  0.0910867811274461  0.0000000000000000  0.3975753503606591
  0.0910867811274461 -0.0000000000000000  0.8975753503606591
  0.0910867811274461  0.3333333333333357  0.3975753503606591
  0.0910867811274461  0.3333333333333357  0.8975753503606591
  0.0910867811274461  0.6666666666666643  0.3975753503606591
  0.0910867811274461  0.6666666666666643  0.8975753503606591
  0.4089132188725540  0.1666666666666643  0.1024246496393409
  0.4089132188725540  0.1666666666666643  0.6024246496393409
  0.4089132188725540  0.5000000000000000  0.1024246496393409
  0.4089132188725540  0.5000000000000000  0.6024246496393409
  0.4089132188725540  0.8333333333333357  0.1024246496393409
  0.4089132188725540  0.8333333333333357  0.6024246496393409
  0.9963646517286953  0.1666666666666643  0.1272337551558059
  0.9963646517286953  0.1666666666666643  0.6272337551558059
  0.9963646517286953  0.5000000000000000  0.1272337551558059
  0.9963646517286953  0.5000000000000000  0.6272337551558059
  0.9963646517286953  0.8333333333333357  0.1272337551558059
  0.9963646517286953  0.8333333333333357  0.6272337551558059
  0.5036353482713047  0.0000000000000000  0.3727662448441940
  0.5036353482713047  0.0000000000000000  0.8727662448441941
  0.5036353482713047  0.3333333333333357  0.3727662448441940
  0.5036353482713047  0.3333333333333357  0.8727662448441941
  0.5036353482713047  0.6666666666666643  0.3727662448441940
  0.5036353482713047  0.6666666666666643  0.8727662448441941
  0.6725468800720419  0.1666666666666643  0.2803982348384348
  0.6725468800720419  0.1666666666666643  0.7803982348384350
  0.6725468800720419  0.5000000000000000  0.2803982348384348
  0.6725468800720419  0.5000000000000000  0.7803982348384350
  0.6725468800720419  0.8333333333333357  0.2803982348384348
  0.6725468800720419  0.8333333333333357  0.7803982348384350
  0.8274531199279581  0.0000000000000000  0.2196017651615651
  0.8274531199279581  0.0000000000000000  0.7196017651615650
  0.8274531199279581  0.3333333333333357  0.2196017651615651
  0.8274531199279581  0.3333333333333357  0.7196017651615650
  0.8274531199279581  0.6666666666666643  0.2196017651615651
  0.8274531199279581  0.6666666666666643  0.7196017651615650
  0.8320908209759450  0.0000000000000000  0.4458096832417973
  0.8320908209759450  0.0000000000000000  0.9458096832417973
  0.8320908209759450  0.3333333333333357  0.4458096832417973
  0.8320908209759450  0.3333333333333357  0.9458096832417973
  0.8320908209759450  0.6666666666666643  0.4458096832417973
  0.8320908209759450  0.6666666666666643  0.9458096832417973
  0.6679091790240479  0.1666666666666643  0.0541903167582028
  0.6679091790240479  0.1666666666666643  0.5541903167582027
  0.6679091790240479  0.5000000000000000  0.0541903167582028
  0.6679091790240479  0.5000000000000000  0.5541903167582027
  0.6679091790240479  0.8333333333333357  0.0541903167582028
  0.6679091790240479  0.8333333333333357  0.5541903167582027
  0.4963646517286953  0.0000000000000000  0.1272337551558059
  0.4963646517286953  0.0000000000000000  0.6272337551558059
  0.4963646517286953  0.3333333333333357  0.1272337551558059
  0.4963646517286953  0.3333333333333357  0.6272337551558059
  0.4963646517286953  0.6666666666666643  0.1272337551558059
  0.4963646517286953  0.6666666666666643  0.6272337551558059
  0.0036353482713048  0.1666666666666643  0.3727662448441940
  0.0036353482713048  0.1666666666666643  0.8727662448441941
  0.0036353482713048  0.5000000000000000  0.3727662448441940
  0.0036353482713048  0.5000000000000000  0.8727662448441941
  0.0036353482713048  0.8333333333333357  0.3727662448441940
  0.0036353482713048  0.8333333333333357  0.8727662448441941
  0.1725468800720418 -0.0000000000000000  0.2803982348384348
  0.1725468800720418 -0.0000000000000000  0.7803982348384350
  0.1725468800720418  0.3333333333333357  0.2803982348384348
  0.1725468800720418  0.3333333333333357  0.7803982348384350
  0.1725468800720418  0.6666666666666643  0.2803982348384348
  0.1725468800720418  0.6666666666666643  0.7803982348384350
  0.3274531199279583  0.1666666666666643  0.2196017651615651
  0.3274531199279583  0.1666666666666643  0.7196017651615650
  0.3274531199279583  0.5000000000000000  0.2196017651615651
  0.3274531199279583  0.5000000000000000  0.7196017651615650
  0.3274531199279583  0.8333333333333357  0.2196017651615651
  0.3274531199279583  0.8333333333333357  0.7196017651615650
  0.3320908209759449  0.1666666666666643  0.4458096832417973
  0.3320908209759449  0.1666666666666643  0.9458096832417973
  0.3320908209759449  0.5000000000000000  0.4458096832417973
  0.3320908209759449  0.5000000000000000  0.9458096832417973
  0.3320908209759449  0.8333333333333357  0.4458096832417973
  0.3320908209759449  0.8333333333333357  0.9458096832417973
  0.1679091790240479 -0.0000000000000000  0.0541903167582028
  0.1679091790240479 -0.0000000000000000  0.5541903167582027
  0.1679091790240479  0.3333333333333357  0.0541903167582028
  0.1679091790240479  0.3333333333333357  0.5541903167582027
  0.1679091790240479  0.6666666666666643  0.0541903167582028
  0.1679091790240479  0.6666666666666643  0.5541903167582027
 
  0.00000000E+00  0.00000000E+00  0.00000000E+00
  0.00000000E+00  0.00000000E+00  0.00000000E+00
  0.00000000E+00  0.00000000E+00  0.00000000E+00
  0.00000000E+00  0.00000000E+00  0.00000000E+00
  0.00000000E+00  0.00000000E+00  0.00000000E+00
  0.00000000E+00  0.00000000E+00  0.00000000E+00
  0.00000000E+00  0.00000000E+00  0.00000000E+00
  0.00000000E+00  0.00000000E+00  0.00000000E+00
  0.00000000E+00  0.00000000E+00  0.00000000E+00
  0.00000000E+00  0.00000000E+00  0.00000000E+00
  0.00000000E+00  0.00000000E+00  0.00000000E+00
  0.00000000E+00  0.00000000E+00  0.00000000E+00
  0.00000000E+00  0.00000000E+00  0.00000000E+00
  0.00000000E+00  0.00000000E+00  0.00000000E+00
  0.00000000E+00  0.00000000E+00  0.00000000E+00
  0.00000000E+00  0.00000000E+00  0.00000000E+00
  0.00000000E+00  0.00000000E+00  0.00000000E+00
  0.00000000E+00  0.00000000E+00  0.00000000E+00
  0.00000000E+00  0.00000000E+00  0.00000000E+00
  0.00000000E+00  0.00000000E+00  0.00000000E+00
  0.00000000E+00  0.00000000E+00  0.00000000E+00
  0.00000000E+00  0.00000000E+00  0.00000000E+00
  0.00000000E+00  0.00000000E+00  0.00000000E+00
  0.00000000E+00  0.00000000E+00  0.00000000E+00
  0.00000000E+00  0.00000000E+00  0.00000000E+00
  0.00000000E+00  0.00000000E+00  0.00000000E+00
  0.00000000E+00  0.00000000E+00  0.00000000E+00
  0.00000000E+00  0.00000000E+00  0.00000000E+00
  0.00000000E+00  0.00000000E+00  0.00000000E+00
  0.00000000E+00  0.00000000E+00  0.00000000E+00
  0.00000000E+00  0.00000000E+00  0.00000000E+00
  0.00000000E+00  0.00000000E+00  0.00000000E+00
  0.00000000E+00  0.00000000E+00  0.00000000E+00
  0.00000000E+00  0.00000000E+00  0.00000000E+00
  0.00000000E+00  0.00000000E+00  0.00000000E+00
  0.00000000E+00  0.00000000E+00  0.00000000E+00
  0.00000000E+00  0.00000000E+00  0.00000000E+00
  0.00000000E+00  0.00000000E+00  0.00000000E+00
  0.00000000E+00  0.00000000E+00  0.00000000E+00
  0.00000000E+00  0.00000000E+00  0.00000000E+00
  0.00000000E+00  0.00000000E+00  0.00000000E+00
  0.00000000E+00  0.00000000E+00  0.00000000E+00
  0.00000000E+00  0.00000000E+00  0.00000000E+00
  0.00000000E+00  0.00000000E+00  0.00000000E+00
  0.00000000E+00  0.00000000E+00  0.00000000E+00
  0.00000000E+00  0.00000000E+00  0.00000000E+00
  0.00000000E+00  0.00000000E+00  0.00000000E+00
  0.00000000E+00  0.00000000E+00  0.00000000E+00
  0.00000000E+00  0.00000000E+00  0.00000000E+00
  0.00000000E+00  0.00000000E+00  0.00000000E+00
  0.00000000E+00  0.00000000E+00  0.00000000E+00
  0.00000000E+00  0.00000000E+00  0.00000000E+00
  0.00000000E+00  0.00000000E+00  0.00000000E+00
  0.00000000E+00  0.00000000E+00  0.00000000E+00
  0.00000000E+00  0.00000000E+00  0.00000000E+00
  0.00000000E+00  0.00000000E+00  0.00000000E+00
  0.00000000E+00  0.00000000E+00  0.00000000E+00
  0.00000000E+00  0.00000000E+00  0.00000000E+00
  0.00000000E+00  0.00000000E+00  0.00000000E+00
  0.00000000E+00  0.00000000E+00  0.00000000E+00
  0.00000000E+00  0.00000000E+00  0.00000000E+00
  0.00000000E+00  0.00000000E+00  0.00000000E+00
  0.00000000E+00  0.00000000E+00  0.00000000E+00
  0.00000000E+00  0.00000000E+00  0.00000000E+00
  0.00000000E+00  0.00000000E+00  0.00000000E+00
  0.00000000E+00  0.00000000E+00  0.00000000E+00
  0.00000000E+00  0.00000000E+00  0.00000000E+00
  0.00000000E+00  0.00000000E+00  0.00000000E+00
  0.00000000E+00  0.00000000E+00  0.00000000E+00
  0.00000000E+00  0.00000000E+00  0.00000000E+00
  0.00000000E+00  0.00000000E+00  0.00000000E+00
  0.00000000E+00  0.00000000E+00  0.00000000E+00
  0.00000000E+00  0.00000000E+00  0.00000000E+00
  0.00000000E+00  0.00000000E+00  0.00000000E+00
  0.00000000E+00  0.00000000E+00  0.00000000E+00
  0.00000000E+00  0.00000000E+00  0.00000000E+00
  0.00000000E+00  0.00000000E+00  0.00000000E+00
  0.00000000E+00  0.00000000E+00  0.00000000E+00
  0.00000000E+00  0.00000000E+00  0.00000000E+00
  0.00000000E+00  0.00000000E+00  0.00000000E+00
  0.00000000E+00  0.00000000E+00  0.00000000E+00
  0.00000000E+00  0.00000000E+00  0.00000000E+00
  0.00000000E+00  0.00000000E+00  0.00000000E+00
  0.00000000E+00  0.00000000E+00  0.00000000E+00
  0.00000000E+00  0.00000000E+00  0.00000000E+00
  0.00000000E+00  0.00000000E+00  0.00000000E+00
  0.00000000E+00  0.00000000E+00  0.00000000E+00
  0.00000000E+00  0.00000000E+00  0.00000000E+00
  0.00000000E+00  0.00000000E+00  0.00000000E+00
  0.00000000E+00  0.00000000E+00  0.00000000E+00
  0.00000000E+00  0.00000000E+00  0.00000000E+00
  0.00000000E+00  0.00000000E+00  0.00000000E+00
  0.00000000E+00  0.00000000E+00  0.00000000E+00
  0.00000000E+00  0.00000000E+00  0.00000000E+00
  0.00000000E+00  0.00000000E+00  0.00000000E+00
  0.00000000E+00  0.00000000E+00  0.00000000E+00
  0.00000000E+00  0.00000000E+00  0.00000000E+00
  0.00000000E+00  0.00000000E+00  0.00000000E+00
  0.00000000E+00  0.00000000E+00  0.00000000E+00
  0.00000000E+00  0.00000000E+00  0.00000000E+00
  0.00000000E+00  0.00000000E+00  0.00000000E+00
  0.00000000E+00  0.00000000E+00  0.00000000E+00
  0.00000000E+00  0.00000000E+00  0.00000000E+00
  0.00000000E+00  0.00000000E+00  0.00000000E+00
  0.00000000E+00  0.00000000E+00  0.00000000E+00
  0.00000000E+00  0.00000000E+00  0.00000000E+00
  0.00000000E+00  0.00000000E+00  0.00000000E+00
  0.00000000E+00  0.00000000E+00  0.00000000E+00
  0.00000000E+00  0.00000000E+00  0.00000000E+00
  0.00000000E+00  0.00000000E+00  0.00000000E+00
  0.00000000E+00  0.00000000E+00  0.00000000E+00
  0.00000000E+00  0.00000000E+00  0.00000000E+00
  0.00000000E+00  0.00000000E+00  0.00000000E+00
  0.00000000E+00  0.00000000E+00  0.00000000E+00
  0.00000000E+00  0.00000000E+00  0.00000000E+00
  0.00000000E+00  0.00000000E+00  0.00000000E+00
  0.00000000E+00  0.00000000E+00  0.00000000E+00
  0.00000000E+00  0.00000000E+00  0.00000000E+00
  0.00000000E+00  0.00000000E+00  0.00000000E+00
  0.00000000E+00  0.00000000E+00  0.00000000E+00
