Ga48 O72                                
    1.000000000000000     
     0.0000000000000000   12.2804734172212839    0.0000000000000000
     9.1427020537309431    0.0000000000000000    0.0000000000000000
     0.0000000000000000   -2.7682617730220320  -11.3006977184464645
   Ga   O    N 
    48    71     1
Direct
  0.6593896741185574  0.0000000000000000  0.1566036847709498
  0.6591187576023856  0.0000000000000000  0.6565701472636860
  0.6596390207451748  0.3335951618850785  0.1564390897607240
  0.6590581548991210  0.3333446869367833  0.6567137610972793
  0.6596390207451748  0.6664048381149215  0.1564390897607240
  0.6590581548991210  0.6666553130632167  0.6567137610972793
  0.8401849518755355  0.1668415446722094  0.3439678934102801
  0.8407604695986990  0.1667163160064149  0.8432900638902439
  0.8408584690011622  0.5000000000000000  0.3436405191396190
  0.8411850521392239  0.5000000000000000  0.8433600005345383
  0.8401849518755355  0.8331584553277906  0.3439678934102801
  0.8407604695986990  0.8332836839935851  0.8432900638902439
  0.5905268680097890  0.1664946656652404  0.3972619009606504
  0.5910272712511428  0.1667076688097353  0.8975807892985941
  0.5922983089788190  0.5000000000000000  0.3979333867269759
  0.5911325018873868  0.5000000000000000  0.8977023759028313
  0.5905268680097890  0.8335053343347596  0.3972619009606504
  0.5910272712511428  0.8332923311902647  0.8975807892985941
  0.9080768775248487  0.0000000000000000  0.1024096520041624
  0.9087065822217610  0.0000000000000000  0.6020583586704404
  0.9084415533675383  0.3335694516031822  0.1024298675724253
  0.9085440335082495  0.3334635231354781  0.6022891203278107
  0.9084415533675383  0.6664305483968178  0.1024298675724253
  0.9085440335082495  0.6665364768645219  0.6022891203278107
  0.1605956479929631  0.1647621326578346  0.1597484737172365
  0.1583236964420180  0.1664572042496744  0.6559684607863687
  0.1586894840692992  0.5000000000000000  0.1575091790237835
  0.1586508256466246  0.5000000000000000  0.6568943068852562
  0.1605956479929631  0.8352378673421654  0.1597484737172365
  0.1583236964420180  0.8335427957503256  0.6559684607863687
  0.3399476087293536  0.0000000000000000  0.3411678771131292
  0.3405358800564429  0.0000000000000000  0.8429212431008466
  0.3417805941580738  0.3341266024459912  0.3426889561022790
  0.3406263348230709  0.3335162465381956  0.8430630218852357
  0.3417805941580738  0.6658733975540088  0.3426889561022790
  0.3406263348230709  0.6664837534618044  0.8430630218852357
  0.0911984268076012  0.0000000000000000  0.3946613910711818
  0.0903327953672388  0.0000000000000000  0.8966599895896934
  0.0904287283929861  0.3330147991436831  0.3978245186443488
  0.0914479991879347  0.3329910475565896  0.8986915215835296
  0.0904287283929861  0.6669852008563169  0.3978245186443488
  0.0914479991879347  0.6670089524434104  0.8986915215835296
  0.4104228864484725  0.1673205440324210  0.1015155172053142
  0.4090999930358237  0.1666761896217110  0.6029104880064793
  0.4091709876897482  0.5000000000000000  0.1022950350102576
  0.4088671686381176  0.5000000000000000  0.6024051784731128
  0.4104228864484725  0.8326794559675790  0.1015155172053142
  0.4090999930358237  0.8333238103782890  0.6029104880064793
  0.9956843154136479  0.1666075815245307  0.1257178075845502
  0.9957981890852494  0.1668369971661150  0.6277804865959951
  0.9958780085981829  0.5000000000000000  0.1275313343129909
  0.9960809089174418  0.5000000000000000  0.6274716810126222
  0.9956843154136479  0.8333924184754693  0.1257178075845502
  0.9957981890852494  0.8331630028338850  0.6277804865959951
  0.5028046661493093  0.0000000000000000  0.3722295305024375
  0.5034834084915829  0.0000000000000000  0.8724830088193798
  0.5044559497522343  0.3339833759539133  0.3729997185996368
  0.5034734799504079  0.3333836022207421  0.8725766025271255
  0.5044559497522343  0.6660166240460867  0.3729997185996368
  0.5034734799504079  0.6666163977792579  0.8725766025271255
  0.6721275252902146  0.1666114459202674  0.2801735706788833
  0.6724211871182320  0.1666827516787421  0.7803671361859514
  0.6728196171452296  0.5000000000000000  0.2801167937059006
  0.6725185371547013  0.5000000000000000  0.7805403198677681
  0.6721275252902146  0.8333885540797326  0.2801735706788833
  0.6724211871182320  0.8333172483212579  0.7803671361859514
  0.8272763628702435  0.0000000000000000  0.2199349822310737
  0.8272889223453106  0.0000000000000000  0.7194805960670436
  0.8273640062637497  0.3332778539899905  0.2197906130135223
  0.8273240674291458  0.3333858435319712  0.7196883073445193
  0.8273640062637497  0.6667221460100095  0.2197906130135223
  0.8273240674291458  0.6666141564680288  0.7196883073445193
  0.8304893769288952  0.0000000000000000  0.4460390671362688
  0.8316799838845910  0.0000000000000000  0.9456057985667385
  0.8306879273297341  0.3337883737657137  0.4460845990891045
  0.8319172201128353  0.3333903789401091  0.9456993653205430
  0.8306879273297341  0.6662116262342863  0.4460845990891045
  0.8319172201128353  0.6666096210598909  0.9456993653205430
  0.6682780555416912  0.1666578864290003  0.0540046654558139
  0.6671955443676651  0.1665825645426011  0.5540451193367204
  0.6690977933604643  0.5000000000000000  0.0538524968702205
  0.6681009519520984  0.5000000000000000  0.5547373781117102
  0.6682780555416912  0.8333421135709997  0.0540046654558139
  0.6671955443676651  0.8334174354573989  0.5540451193367204
  0.4969985959801519  0.0000000000000000  0.1263574451197940
  0.4964305607050861  0.0000000000000000  0.6280861664581749
  0.4975054389098901  0.3341984966434595  0.1261178579447133
  0.4964316115296086  0.3333533471769741  0.6280243798899505
  0.4975054389098901  0.6658015033565405  0.1261178579447133
  0.4964316115296086  0.6666466528230259  0.6280243798899505
  0.0018702487988449  0.1673497138914328  0.3744903262418831
  0.0032398430826674  0.1668046851965741  0.8727509080511595
  0.0031079659065867  0.5000000000000000  0.3733340006330579
  0.0040616712942736  0.5000000000000000  0.8733945562243335
  0.0018702487988449  0.8326502861085672  0.3744903262418831
  0.0032398430826674  0.8331953148034259  0.8727509080511595
  0.1721678639102393  0.0000000000000000  0.7799870974847494
  0.1728667476334564  0.3354664009395378  0.2816815928791954
  0.1723154600546550  0.3330925833047331  0.7807772807902253
  0.1728667476334564  0.6645335990604622  0.2816815928791954
  0.1723154600546550  0.6669074166952669  0.7807772807902253
  0.3308377947999404  0.1711459983105854  0.2189906221027726
  0.3270284844095102  0.1664903544613594  0.7192417961431943
  0.3278297526584808  0.5000000000000000  0.2192483515784858
  0.3272753578856324  0.5000000000000000  0.7195541105702645
  0.3308377947999404  0.8288540016894146  0.2189906221027726
  0.3270284844095102  0.8335096455386406  0.7192417961431943
  0.3339675950332222  0.1674838700026129  0.4458504500984120
  0.3323925740597957  0.1667608594532766  0.9453782667570323
  0.3332952669047060  0.5000000000000000  0.4458747798292038
  0.3316741951464479  0.5000000000000000  0.9458361213183579
  0.3339675950332222  0.8325161299973871  0.4458504500984120
  0.3323925740597957  0.8332391405467234  0.9453782667570323
  0.1703587629997614  0.0000000000000000  0.0519656826665198
  0.1658128202529525  0.0000000000000000  0.5536387493553079
  0.1671347250047717  0.3322498263652278  0.0557395211823248
  0.1677273889358588  0.3334568310976351  0.5544208330520846
  0.1671347250047717  0.6677501736347722  0.0557395211823248
  0.1677273889358588  0.6665431689023649  0.5544208330520846
  0.1734020807917673  0.0000000000000000  0.2783570840489489
 
  0.00000000E+00  0.00000000E+00  0.00000000E+00
  0.00000000E+00  0.00000000E+00  0.00000000E+00
  0.00000000E+00  0.00000000E+00  0.00000000E+00
  0.00000000E+00  0.00000000E+00  0.00000000E+00
  0.00000000E+00  0.00000000E+00  0.00000000E+00
  0.00000000E+00  0.00000000E+00  0.00000000E+00
  0.00000000E+00  0.00000000E+00  0.00000000E+00
  0.00000000E+00  0.00000000E+00  0.00000000E+00
  0.00000000E+00  0.00000000E+00  0.00000000E+00
  0.00000000E+00  0.00000000E+00  0.00000000E+00
  0.00000000E+00  0.00000000E+00  0.00000000E+00
  0.00000000E+00  0.00000000E+00  0.00000000E+00
  0.00000000E+00  0.00000000E+00  0.00000000E+00
  0.00000000E+00  0.00000000E+00  0.00000000E+00
  0.00000000E+00  0.00000000E+00  0.00000000E+00
  0.00000000E+00  0.00000000E+00  0.00000000E+00
  0.00000000E+00  0.00000000E+00  0.00000000E+00
  0.00000000E+00  0.00000000E+00  0.00000000E+00
  0.00000000E+00  0.00000000E+00  0.00000000E+00
  0.00000000E+00  0.00000000E+00  0.00000000E+00
  0.00000000E+00  0.00000000E+00  0.00000000E+00
  0.00000000E+00  0.00000000E+00  0.00000000E+00
  0.00000000E+00  0.00000000E+00  0.00000000E+00
  0.00000000E+00  0.00000000E+00  0.00000000E+00
  0.00000000E+00  0.00000000E+00  0.00000000E+00
  0.00000000E+00  0.00000000E+00  0.00000000E+00
  0.00000000E+00  0.00000000E+00  0.00000000E+00
  0.00000000E+00  0.00000000E+00  0.00000000E+00
  0.00000000E+00  0.00000000E+00  0.00000000E+00
  0.00000000E+00  0.00000000E+00  0.00000000E+00
  0.00000000E+00  0.00000000E+00  0.00000000E+00
  0.00000000E+00  0.00000000E+00  0.00000000E+00
  0.00000000E+00  0.00000000E+00  0.00000000E+00
  0.00000000E+00  0.00000000E+00  0.00000000E+00
  0.00000000E+00  0.00000000E+00  0.00000000E+00
  0.00000000E+00  0.00000000E+00  0.00000000E+00
  0.00000000E+00  0.00000000E+00  0.00000000E+00
  0.00000000E+00  0.00000000E+00  0.00000000E+00
  0.00000000E+00  0.00000000E+00  0.00000000E+00
  0.00000000E+00  0.00000000E+00  0.00000000E+00
  0.00000000E+00  0.00000000E+00  0.00000000E+00
  0.00000000E+00  0.00000000E+00  0.00000000E+00
  0.00000000E+00  0.00000000E+00  0.00000000E+00
  0.00000000E+00  0.00000000E+00  0.00000000E+00
  0.00000000E+00  0.00000000E+00  0.00000000E+00
  0.00000000E+00  0.00000000E+00  0.00000000E+00
  0.00000000E+00  0.00000000E+00  0.00000000E+00
  0.00000000E+00  0.00000000E+00  0.00000000E+00
  0.00000000E+00  0.00000000E+00  0.00000000E+00
  0.00000000E+00  0.00000000E+00  0.00000000E+00
  0.00000000E+00  0.00000000E+00  0.00000000E+00
  0.00000000E+00  0.00000000E+00  0.00000000E+00
  0.00000000E+00  0.00000000E+00  0.00000000E+00
  0.00000000E+00  0.00000000E+00  0.00000000E+00
  0.00000000E+00  0.00000000E+00  0.00000000E+00
  0.00000000E+00  0.00000000E+00  0.00000000E+00
  0.00000000E+00  0.00000000E+00  0.00000000E+00
  0.00000000E+00  0.00000000E+00  0.00000000E+00
  0.00000000E+00  0.00000000E+00  0.00000000E+00
  0.00000000E+00  0.00000000E+00  0.00000000E+00
  0.00000000E+00  0.00000000E+00  0.00000000E+00
  0.00000000E+00  0.00000000E+00  0.00000000E+00
  0.00000000E+00  0.00000000E+00  0.00000000E+00
  0.00000000E+00  0.00000000E+00  0.00000000E+00
  0.00000000E+00  0.00000000E+00  0.00000000E+00
  0.00000000E+00  0.00000000E+00  0.00000000E+00
  0.00000000E+00  0.00000000E+00  0.00000000E+00
  0.00000000E+00  0.00000000E+00  0.00000000E+00
  0.00000000E+00  0.00000000E+00  0.00000000E+00
  0.00000000E+00  0.00000000E+00  0.00000000E+00
  0.00000000E+00  0.00000000E+00  0.00000000E+00
  0.00000000E+00  0.00000000E+00  0.00000000E+00
  0.00000000E+00  0.00000000E+00  0.00000000E+00
  0.00000000E+00  0.00000000E+00  0.00000000E+00
  0.00000000E+00  0.00000000E+00  0.00000000E+00
  0.00000000E+00  0.00000000E+00  0.00000000E+00
  0.00000000E+00  0.00000000E+00  0.00000000E+00
  0.00000000E+00  0.00000000E+00  0.00000000E+00
  0.00000000E+00  0.00000000E+00  0.00000000E+00
  0.00000000E+00  0.00000000E+00  0.00000000E+00
  0.00000000E+00  0.00000000E+00  0.00000000E+00
  0.00000000E+00  0.00000000E+00  0.00000000E+00
  0.00000000E+00  0.00000000E+00  0.00000000E+00
  0.00000000E+00  0.00000000E+00  0.00000000E+00
  0.00000000E+00  0.00000000E+00  0.00000000E+00
  0.00000000E+00  0.00000000E+00  0.00000000E+00
  0.00000000E+00  0.00000000E+00  0.00000000E+00
  0.00000000E+00  0.00000000E+00  0.00000000E+00
  0.00000000E+00  0.00000000E+00  0.00000000E+00
  0.00000000E+00  0.00000000E+00  0.00000000E+00
  0.00000000E+00  0.00000000E+00  0.00000000E+00
  0.00000000E+00  0.00000000E+00  0.00000000E+00
  0.00000000E+00  0.00000000E+00  0.00000000E+00
  0.00000000E+00  0.00000000E+00  0.00000000E+00
  0.00000000E+00  0.00000000E+00  0.00000000E+00
  0.00000000E+00  0.00000000E+00  0.00000000E+00
  0.00000000E+00  0.00000000E+00  0.00000000E+00
  0.00000000E+00  0.00000000E+00  0.00000000E+00
  0.00000000E+00  0.00000000E+00  0.00000000E+00
  0.00000000E+00  0.00000000E+00  0.00000000E+00
  0.00000000E+00  0.00000000E+00  0.00000000E+00
  0.00000000E+00  0.00000000E+00  0.00000000E+00
  0.00000000E+00  0.00000000E+00  0.00000000E+00
  0.00000000E+00  0.00000000E+00  0.00000000E+00
  0.00000000E+00  0.00000000E+00  0.00000000E+00
  0.00000000E+00  0.00000000E+00  0.00000000E+00
  0.00000000E+00  0.00000000E+00  0.00000000E+00
  0.00000000E+00  0.00000000E+00  0.00000000E+00
  0.00000000E+00  0.00000000E+00  0.00000000E+00
  0.00000000E+00  0.00000000E+00  0.00000000E+00
  0.00000000E+00  0.00000000E+00  0.00000000E+00
  0.00000000E+00  0.00000000E+00  0.00000000E+00
  0.00000000E+00  0.00000000E+00  0.00000000E+00
  0.00000000E+00  0.00000000E+00  0.00000000E+00
  0.00000000E+00  0.00000000E+00  0.00000000E+00
  0.00000000E+00  0.00000000E+00  0.00000000E+00
  0.00000000E+00  0.00000000E+00  0.00000000E+00
  0.00000000E+00  0.00000000E+00  0.00000000E+00
  0.00000000E+00  0.00000000E+00  0.00000000E+00
  0.00000000E+00  0.00000000E+00  0.00000000E+00
