Ga48 O72                                
    1.000000000000000     
     0.0000000000000000   12.2804734172212839    0.0000000000000000
     9.1427020537309431    0.0000000000000000    0.0000000000000000
     0.0000000000000000   -2.7682617730220320  -11.3006977184464645
   Ga   O    N 
    48    71     1
Direct
  0.6589215097678247  0.0000000000000000  0.1563808838063118
  0.6595843469403571  0.0000000000000000  0.6566806976227505
  0.6589323107015702  0.3335089645456756  0.1565000510903556
  0.6592764959504850  0.3335007941953359  0.6565126973563123
  0.6589323107015702  0.6664910354543248  0.1565000510903556
  0.6592764959504850  0.6664992058046639  0.6565126973563123
  0.8404326837175317  0.1667262545157785  0.3430456175138930
  0.8408057304384019  0.1667886308718396  0.8434902668414724
  0.8406561387389941  0.5000000000000000  0.3431754050264261
  0.8412848366637644  0.5000000000000000  0.8433615067609824
  0.8404326837175317  0.8332737454842215  0.3430456175138930
  0.8408057304384019  0.8332113691281602  0.8434902668414724
  0.5909914503761822  0.1666596036456439  0.3976570631607061
  0.5910469543585548  0.1666366401329095  0.8975799868184136
  0.5904679182170258  0.5000000000000000  0.3975488511389472
  0.5917313144328695  0.5000000000000000  0.8976041014143988
  0.5909914503761822  0.8333403963543562  0.3976570631607061
  0.5910469543585548  0.8333633598670904  0.8975799868184136
  0.9085663089031063  0.0000000000000000  0.1022001978316885
  0.9088728885046896  0.0000000000000000  0.6023850965253607
  0.9087335733559566  0.3333599907152615  0.1023986460637794
  0.9087488998042018  0.3333702389267400  0.6020892363362322
  0.9087335733559566  0.6666400092847385  0.1023986460637794
  0.9087488998042018  0.6666297610732598  0.6020892363362322
  0.1588363721350768  0.1666722200931334  0.1560485841899772
  0.1607717305058331  0.1674276951947333  0.6559766582898235
  0.1587294881982632  0.5000000000000000  0.1565337265693713
  0.1588944413119202  0.5000000000000000  0.6566370271498296
  0.1588363721350768  0.8333277799068666  0.1560485841899772
  0.1607717305058331  0.8325723048052668  0.6559766582898235
  0.3406700163876227  0.0000000000000000  0.3429569432933101
  0.3409010368975471  0.0000000000000000  0.8446754148945468
  0.3403092351358474  0.3334163447856107  0.3434003732577516
  0.3415389744463871  0.3335867739473973  0.8438272485567901
  0.3403092351358474  0.6665836552143897  0.3434003732577516
  0.3415389744463871  0.6664132260526028  0.8438272485567901
  0.0905265753045212  0.0000000000000000  0.3947888003838037
  0.0908632840516666  0.0000000000000000  0.8978187847928459
  0.0904874778474588  0.3331704063966739  0.3977547604064914
  0.0911744303898541  0.3330553924310361  0.8971992819208160
  0.0904874778474588  0.6668295936033265  0.3977547604064914
  0.0911744303898541  0.6669446075689639  0.8971992819208160
  0.4093776320839109  0.1668977428599470  0.1031572907881624
  0.4101351455450429  0.1667635397291744  0.6033212398492325
  0.4087807250208535  0.5000000000000000  0.1026121154864352
  0.4086300992298175  0.5000000000000000  0.6025433746033901
  0.4093776320839109  0.8331022571400530  0.1031572907881624
  0.4101351455450429  0.8332364602708257  0.6033212398492325
  0.9961004412004033  0.1666200303752561  0.1264060499445292
  0.9964497392537214  0.1666063432722261  0.6282186641898846
  0.9962574041492404  0.5000000000000000  0.1271145154945577
  0.9960821246032994  0.5000000000000000  0.6275095653932341
  0.9961004412004033  0.8333799696247443  0.1264060499445292
  0.9964497392537214  0.8333936567277741  0.6282186641898846
  0.5033571766376439  0.0000000000000000  0.3730845969562331
  0.5037097347015287  0.0000000000000000  0.8732084941658804
  0.5030574733870873  0.3330164252912281  0.3730513945249704
  0.5041110050097924  0.3336523309548808  0.8730860084474250
  0.5030574733870873  0.6669835747087716  0.3730513945249704
  0.5041110050097924  0.6663476690451193  0.8730860084474250
  0.6722227874082691  0.1666747681693172  0.2804138411662495
  0.6724461870754157  0.1668261126260989  0.7803244962454046
  0.6721132627927917  0.5000000000000000  0.2805701628932000
  0.6728149676963773  0.5000000000000000  0.7801948914779308
  0.6722227874082691  0.8333252318306827  0.2804138411662495
  0.6724461870754157  0.8331738873739012  0.7803244962454046
  0.8268677103951698  0.0000000000000000  0.2191156141388957
  0.8274466915800902  0.0000000000000000  0.7196364367414728
  0.8268497015006609  0.3336510235524368  0.2191530101063972
  0.8275093335354660  0.3332888441002763  0.7195035105761372
  0.8268497015006609  0.6663489764475634  0.2191530101063972
  0.8275093335354660  0.6667111558997237  0.7195035105761372
  0.8321389574158974  0.0000000000000000  0.4457470038655372
  0.8316007313596954  0.0000000000000000  0.9456332734393363
  0.8318865337499967  0.3332931265929939  0.4456498123411859
  0.8318938527168769  0.3335324956131311  0.9457317218359605
  0.8318865337499967  0.6667068734070061  0.4456498123411859
  0.8318938527168769  0.6664675043868686  0.9457317218359605
  0.6677056454006594  0.1667557694465742  0.0541938648200347
  0.6680516425270099  0.1667348649049893  0.5541408160165611
  0.6680277616218964  0.5000000000000000  0.0542377392286489
  0.6680196920499015  0.5000000000000000  0.5539100060659981
  0.6677056454006594  0.8332442305534259  0.0541938648200347
  0.6680516425270099  0.8332651350950109  0.5541408160165611
  0.4964583565924685  0.0000000000000000  0.1279551232284628
  0.4971803260685398  0.0000000000000000  0.6272943987513899
  0.4965138812595569  0.3336724733838664  0.1278099044647042
  0.4966921954596911  0.3337917759401576  0.6269893349651511
  0.4965138812595569  0.6663275266161337  0.1278099044647042
  0.4966921954596911  0.6662082240598426  0.6269893349651511
  0.0021707996500142  0.1673026387917425  0.3694737162176538
  0.0032912362372840  0.1667383282260056  0.8727794730408045
  0.0030624423774797  0.5000000000000000  0.3721442232635092
  0.0039084445038025  0.5000000000000000  0.8726338588164128
  0.0021707996500142  0.8326973612082574  0.3694737162176538
  0.0032912362372840  0.8332616717739944  0.8727794730408045
  0.1723795489065831  0.0000000000000000  0.2782685044226412
  0.1741193717155464  0.0000000000000000  0.7837193298701766
  0.1723649354120895  0.3330312103722425  0.2805316317377439
  0.1729588360941126  0.3329561053005206  0.7802311192191689
  0.1723649354120895  0.6669687896277570  0.2805316317377439
  0.1729588360941126  0.6670438946994800  0.7802311192191689
  0.3276956845180878  0.1669771883904956  0.2201727943865462
  0.3297120426866929  0.1671996902924269  0.7210998322981635
  0.3270981898522000  0.5000000000000000  0.2195779151600507
  0.3279331596577983  0.5000000000000000  0.7201447307094435
  0.3276956845180878  0.8330228116095044  0.2201727943865462
  0.3297120426866929  0.8328003097075730  0.7210998322981635
  0.3316299145490029  0.1657175406151878  0.4467930200718414
  0.3329258959858226  0.1673691595935164  0.9466903701930237
  0.3322444888000400  0.5000000000000000  0.4458275767272301
  0.3320163883995049  0.5000000000000000  0.9460742444339252
  0.3316299145490029  0.8342824593848119  0.4467930200718414
  0.3329258959858226  0.8326308404064836  0.9466903701930237
  0.1682904356929619  0.0000000000000000  0.0540472783847352
  0.1678080091864367  0.3333571055550874  0.0540008117764546
  0.1679743518169504  0.3355865485080776  0.5539100532967497
  0.1678080091864367  0.6666428944449126  0.0540008117764546
  0.1679743518169504  0.6644134514919223  0.5539100532967497
  0.1655492590318208  0.0000000000000000  0.5538190804247879
 
  0.00000000E+00  0.00000000E+00  0.00000000E+00
  0.00000000E+00  0.00000000E+00  0.00000000E+00
  0.00000000E+00  0.00000000E+00  0.00000000E+00
  0.00000000E+00  0.00000000E+00  0.00000000E+00
  0.00000000E+00  0.00000000E+00  0.00000000E+00
  0.00000000E+00  0.00000000E+00  0.00000000E+00
  0.00000000E+00  0.00000000E+00  0.00000000E+00
  0.00000000E+00  0.00000000E+00  0.00000000E+00
  0.00000000E+00  0.00000000E+00  0.00000000E+00
  0.00000000E+00  0.00000000E+00  0.00000000E+00
  0.00000000E+00  0.00000000E+00  0.00000000E+00
  0.00000000E+00  0.00000000E+00  0.00000000E+00
  0.00000000E+00  0.00000000E+00  0.00000000E+00
  0.00000000E+00  0.00000000E+00  0.00000000E+00
  0.00000000E+00  0.00000000E+00  0.00000000E+00
  0.00000000E+00  0.00000000E+00  0.00000000E+00
  0.00000000E+00  0.00000000E+00  0.00000000E+00
  0.00000000E+00  0.00000000E+00  0.00000000E+00
  0.00000000E+00  0.00000000E+00  0.00000000E+00
  0.00000000E+00  0.00000000E+00  0.00000000E+00
  0.00000000E+00  0.00000000E+00  0.00000000E+00
  0.00000000E+00  0.00000000E+00  0.00000000E+00
  0.00000000E+00  0.00000000E+00  0.00000000E+00
  0.00000000E+00  0.00000000E+00  0.00000000E+00
  0.00000000E+00  0.00000000E+00  0.00000000E+00
  0.00000000E+00  0.00000000E+00  0.00000000E+00
  0.00000000E+00  0.00000000E+00  0.00000000E+00
  0.00000000E+00  0.00000000E+00  0.00000000E+00
  0.00000000E+00  0.00000000E+00  0.00000000E+00
  0.00000000E+00  0.00000000E+00  0.00000000E+00
  0.00000000E+00  0.00000000E+00  0.00000000E+00
  0.00000000E+00  0.00000000E+00  0.00000000E+00
  0.00000000E+00  0.00000000E+00  0.00000000E+00
  0.00000000E+00  0.00000000E+00  0.00000000E+00
  0.00000000E+00  0.00000000E+00  0.00000000E+00
  0.00000000E+00  0.00000000E+00  0.00000000E+00
  0.00000000E+00  0.00000000E+00  0.00000000E+00
  0.00000000E+00  0.00000000E+00  0.00000000E+00
  0.00000000E+00  0.00000000E+00  0.00000000E+00
  0.00000000E+00  0.00000000E+00  0.00000000E+00
  0.00000000E+00  0.00000000E+00  0.00000000E+00
  0.00000000E+00  0.00000000E+00  0.00000000E+00
  0.00000000E+00  0.00000000E+00  0.00000000E+00
  0.00000000E+00  0.00000000E+00  0.00000000E+00
  0.00000000E+00  0.00000000E+00  0.00000000E+00
  0.00000000E+00  0.00000000E+00  0.00000000E+00
  0.00000000E+00  0.00000000E+00  0.00000000E+00
  0.00000000E+00  0.00000000E+00  0.00000000E+00
  0.00000000E+00  0.00000000E+00  0.00000000E+00
  0.00000000E+00  0.00000000E+00  0.00000000E+00
  0.00000000E+00  0.00000000E+00  0.00000000E+00
  0.00000000E+00  0.00000000E+00  0.00000000E+00
  0.00000000E+00  0.00000000E+00  0.00000000E+00
  0.00000000E+00  0.00000000E+00  0.00000000E+00
  0.00000000E+00  0.00000000E+00  0.00000000E+00
  0.00000000E+00  0.00000000E+00  0.00000000E+00
  0.00000000E+00  0.00000000E+00  0.00000000E+00
  0.00000000E+00  0.00000000E+00  0.00000000E+00
  0.00000000E+00  0.00000000E+00  0.00000000E+00
  0.00000000E+00  0.00000000E+00  0.00000000E+00
  0.00000000E+00  0.00000000E+00  0.00000000E+00
  0.00000000E+00  0.00000000E+00  0.00000000E+00
  0.00000000E+00  0.00000000E+00  0.00000000E+00
  0.00000000E+00  0.00000000E+00  0.00000000E+00
  0.00000000E+00  0.00000000E+00  0.00000000E+00
  0.00000000E+00  0.00000000E+00  0.00000000E+00
  0.00000000E+00  0.00000000E+00  0.00000000E+00
  0.00000000E+00  0.00000000E+00  0.00000000E+00
  0.00000000E+00  0.00000000E+00  0.00000000E+00
  0.00000000E+00  0.00000000E+00  0.00000000E+00
  0.00000000E+00  0.00000000E+00  0.00000000E+00
  0.00000000E+00  0.00000000E+00  0.00000000E+00
  0.00000000E+00  0.00000000E+00  0.00000000E+00
  0.00000000E+00  0.00000000E+00  0.00000000E+00
  0.00000000E+00  0.00000000E+00  0.00000000E+00
  0.00000000E+00  0.00000000E+00  0.00000000E+00
  0.00000000E+00  0.00000000E+00  0.00000000E+00
  0.00000000E+00  0.00000000E+00  0.00000000E+00
  0.00000000E+00  0.00000000E+00  0.00000000E+00
  0.00000000E+00  0.00000000E+00  0.00000000E+00
  0.00000000E+00  0.00000000E+00  0.00000000E+00
  0.00000000E+00  0.00000000E+00  0.00000000E+00
  0.00000000E+00  0.00000000E+00  0.00000000E+00
  0.00000000E+00  0.00000000E+00  0.00000000E+00
  0.00000000E+00  0.00000000E+00  0.00000000E+00
  0.00000000E+00  0.00000000E+00  0.00000000E+00
  0.00000000E+00  0.00000000E+00  0.00000000E+00
  0.00000000E+00  0.00000000E+00  0.00000000E+00
  0.00000000E+00  0.00000000E+00  0.00000000E+00
  0.00000000E+00  0.00000000E+00  0.00000000E+00
  0.00000000E+00  0.00000000E+00  0.00000000E+00
  0.00000000E+00  0.00000000E+00  0.00000000E+00
  0.00000000E+00  0.00000000E+00  0.00000000E+00
  0.00000000E+00  0.00000000E+00  0.00000000E+00
  0.00000000E+00  0.00000000E+00  0.00000000E+00
  0.00000000E+00  0.00000000E+00  0.00000000E+00
  0.00000000E+00  0.00000000E+00  0.00000000E+00
  0.00000000E+00  0.00000000E+00  0.00000000E+00
  0.00000000E+00  0.00000000E+00  0.00000000E+00
  0.00000000E+00  0.00000000E+00  0.00000000E+00
  0.00000000E+00  0.00000000E+00  0.00000000E+00
  0.00000000E+00  0.00000000E+00  0.00000000E+00
  0.00000000E+00  0.00000000E+00  0.00000000E+00
  0.00000000E+00  0.00000000E+00  0.00000000E+00
  0.00000000E+00  0.00000000E+00  0.00000000E+00
  0.00000000E+00  0.00000000E+00  0.00000000E+00
  0.00000000E+00  0.00000000E+00  0.00000000E+00
  0.00000000E+00  0.00000000E+00  0.00000000E+00
  0.00000000E+00  0.00000000E+00  0.00000000E+00
  0.00000000E+00  0.00000000E+00  0.00000000E+00
  0.00000000E+00  0.00000000E+00  0.00000000E+00
  0.00000000E+00  0.00000000E+00  0.00000000E+00
  0.00000000E+00  0.00000000E+00  0.00000000E+00
  0.00000000E+00  0.00000000E+00  0.00000000E+00
  0.00000000E+00  0.00000000E+00  0.00000000E+00
  0.00000000E+00  0.00000000E+00  0.00000000E+00
  0.00000000E+00  0.00000000E+00  0.00000000E+00
  0.00000000E+00  0.00000000E+00  0.00000000E+00
  0.00000000E+00  0.00000000E+00  0.00000000E+00
  0.00000000E+00  0.00000000E+00  0.00000000E+00
