 running    4 mpi-ranks, on    1 nodes
 distrk:  each k-point on    1 cores,    4 groups
 distr:  one band on    1 cores,    1 groups
 OpenACC runtime initialized ...    4 GPUs detected
 vasp.6.4.2 20Jul23 (build Nov 12 2023 22:16:35) complex                         
 POSCAR found type information on POSCAR GaN O 
 POSCAR found :  3 types and     120 ions
 scaLAPACK will be used selectively (only on CPU)
 LDA part: xc-table for Pade appr. of Perdew
 POSCAR, INCAR and KPOINTS ok, starting setup
 FFT: planning ... GRIDC
 FFT: planning ... GRID_SOFT
 FFT: planning ... GRID
 WAVECAR not read
 initial charge from wavefunction
 entering main loop
       N       E                     dE             d eps       ncg     rms          ort
DAV:   1    -0.182974485055E+05   -0.18297E+05   -0.54235E+05  5064   0.746E+03
DAV:   2    -0.624753361431E+05   -0.44178E+05   -0.42879E+05  5064   0.119E+03
DAV:   3    -0.669574777688E+05   -0.44821E+04   -0.40003E+04  5064   0.346E+02
DAV:   4    -0.674712880370E+05   -0.51381E+03   -0.42631E+03  5064   0.102E+02
DAV:   5    -0.373379869068E+05    0.30133E+05   -0.70381E+02  5064   0.524E+01
 gam= 0.000 g(H,U,f)=  0.652E+05 0.201E+05 0.706E+03 ort(H,U,f) = 0.000E+00 0.000E+00 0.000E+00
SDA:   6     0.158133721368E+05    0.53151E+05   -0.70381E+02  5064   0.861E+05 0.000E+00
 gam= 0.000 trial= 0.400  step= 0.298 mean= 0.400
 gam= 0.272 g(H,U,f)=  0.103E+05 0.779E+04 0.540E+04 ort(H,U,f) = 0.661E+04-0.548E+04-0.609E+04
CGA:   7     0.311084170176E+04   -0.12703E+05   -0.12829E+05  5064   0.234E+05-0.496E+04
 gam= 0.272 trial= 0.395  step= 0.217 mean= 0.395
 gam= 0.331 g(H,U,f)=  0.439E+04 0.283E+04 0.538E+03 ort(H,U,f) = 0.166E+04-0.183E+03-0.271E+03
CGA:   8     0.119359344249E+04   -0.19172E+04   -0.23909E+04  5064   0.776E+04 0.120E+04
 gam= 0.331 trial= 0.386  step= 0.171 mean= 0.386
 gam= 0.000 g(H,U,f)=  0.269E+04 0.828E+04 0.947E+03 ort(H,U,f) = 0.850E+03-0.559E+04-0.703E+03
CGA:   9     0.541443785125E+03   -0.65215E+03   -0.69620E+03  5064   0.119E+05-0.545E+04
 gam= 0.000 trial= 0.375  step= 0.163 mean= 0.375
 gam= 0.721 g(H,U,f)=  0.153E+04 0.673E+04 0.323E+03 ort(H,U,f) = 0.407E+03-0.337E+04-0.181E+03
CGA:  10     0.231717597304E+03   -0.30973E+03   -0.96880E+03  5064   0.859E+04-0.314E+04
 gam= 0.721 trial= 0.365  step= 0.212 mean= 0.365
 gam= 0.402 g(H,U,f)=  0.105E+04 0.236E+04 0.424E+02 ort(H,U,f) = 0.112E+03 0.339E+02-0.737E+01
CGA:  11    -0.157418949167E+03   -0.38914E+03   -0.67069E+03  5064   0.345E+04 0.138E+03
 gam= 0.402 trial= 0.357  step= 0.260 mean= 0.357
 gam= 0.536 g(H,U,f)=  0.456E+03 0.128E+04 0.113E+03 ort(H,U,f) = 0.113E+02-0.110E+03 0.635E+02
CGA:  12    -0.607787281957E+03   -0.45037E+03   -0.45522E+03  5064   0.185E+04-0.353E+02
 gam= 0.536 trial= 0.352  step= 0.267 mean= 0.352
 gam= 0.157 g(H,U,f)=  0.169E+03 0.120E+03 0.129E+01 ort(H,U,f) = 0.725E+02 0.134E+03-0.960E-01
CGA:  13    -0.818087106987E+03   -0.21030E+03   -0.24458E+03  5064   0.290E+03 0.206E+03
 gam= 0.157 trial= 0.348  step= 0.469 mean= 0.348
 gam= 0.241 g(H,U,f)=  0.395E+02 0.259E+02 0.437E+01 ort(H,U,f) = 0.112E+02 0.307E+02 0.328E+01
CGA:  14    -0.898214765437E+03   -0.80128E+02   -0.75565E+02  5064   0.698E+02 0.452E+02
 gam= 0.241 trial= 0.354  step= 0.709 mean= 0.354
 gam= 0.345 g(H,U,f)=  0.169E+02 0.711E+01 0.935E-02 ort(H,U,f) =-0.206E+01 0.108E+02 0.619E-02
CGA:  15    -0.929074012041E+03   -0.30859E+02   -0.28627E+02  5064   0.241E+02 0.878E+01
 gam= 0.345 trial= 0.372  step= 0.747 mean= 0.372
 gam= 0.544 g(H,U,f)=  0.712E+01 0.219E+01 0.379E+01 ort(H,U,f) =-0.284E+01 0.445E+01 0.595E+01
CGA:  16    -0.939614376111E+03   -0.10540E+02   -0.10114E+02  5064   0.131E+02 0.756E+01
 gam= 0.544 trial= 0.390  step= 0.515 mean= 0.390
 gam= 0.535 g(H,U,f)=  0.517E+01 0.133E+01 0.508E+00 ort(H,U,f) = 0.925E+00 0.250E+01 0.269E+01
CGA:  17    -0.944698634383E+03   -0.50843E+01   -0.44302E+01  5064   0.701E+01 0.611E+01
 gam= 0.535 trial= 0.397  step= 0.601 mean= 0.397
 gam= 0.624 g(H,U,f)=  0.340E+01 0.969E+00 0.631E-02 ort(H,U,f) = 0.713E+00 0.682E+00-0.726E-01
CGA:  18    -0.947988726660E+03   -0.32901E+01   -0.30880E+01  5064   0.438E+01 0.132E+01
 gam= 0.624 trial= 0.407  step= 0.614 mean= 0.407
 gam= 0.485 g(H,U,f)=  0.168E+01 0.445E+00 0.553E-07 ort(H,U,f) =-0.799E+00 0.318E+00 0.249E-06
CGA:  19    -0.949544367076E+03   -0.15556E+01   -0.15975E+01  5064   0.212E+01-0.481E+00
 gam= 0.485 trial= 0.417  step= 0.499 mean= 0.417
 gam= 0.679 g(H,U,f)=  0.113E+01 0.308E+00 0.225E-15 ort(H,U,f) =-0.205E+00 0.101E+00 0.907E-16
CGA:  20    -0.950010954345E+03   -0.46659E+00   -0.47178E+00  5064   0.144E+01-0.105E+00
 gam= 0.679 trial= 0.421  step= 0.511 mean= 0.421
 gam= 0.689 g(H,U,f)=  0.746E+00 0.247E+00 0.170E-14 ort(H,U,f) =-0.828E-01 0.356E-01 0.179E-13
CGA:  21    -0.950358011166E+03   -0.34706E+00   -0.34987E+00  5064   0.993E+00-0.472E-01
 gam= 0.689 trial= 0.426  step= 0.469 mean= 0.426
 gam= 0.590 g(H,U,f)=  0.443E+00 0.143E+00 0.752E-18 ort(H,U,f) =-0.781E-01 0.832E-01 0.358E-17
CGA:  22    -0.950583431637E+03   -0.22542E+00   -0.22540E+00  5064   0.586E+00 0.510E-02
 gam= 0.590 trial= 0.428  step= 0.456 mean= 0.428
 gam= 0.626 g(H,U,f)=  0.297E+00 0.701E-01 0.719E-23 ort(H,U,f) =-0.581E-01 0.681E-01-0.128E-20
CGA:  23    -0.950717797668E+03   -0.13437E+00   -0.13425E+00  5064   0.367E+00 0.100E-01
 gam= 0.626 trial= 0.429  step= 0.482 mean= 0.429
 gam= 0.700 g(H,U,f)=  0.207E+00 0.497E-01 0.528E-21 ort(H,U,f) =-0.193E-01 0.280E-01-0.238E-21
CGA:  24    -0.950807988578E+03   -0.90191E-01   -0.89965E-01  5064   0.257E+00 0.867E-02
 gam= 0.700 trial= 0.432  step= 0.470 mean= 0.432
 gam= 0.640 g(H,U,f)=  0.123E+00 0.409E-01 0.850E-17 ort(H,U,f) =-0.146E-01 0.197E-01-0.221E-16
CGA:  25    -0.950869898128E+03   -0.61910E-01   -0.61806E-01  5064   0.164E+00 0.507E-02
 gam= 0.640 trial= 0.434  step= 0.476 mean= 0.434
 gam= 0.627 g(H,U,f)=  0.741E-01 0.290E-01 0.484E-18 ort(H,U,f) =-0.184E-01 0.204E-01 0.109E-17
CGA:  26    -0.950909784984E+03   -0.39887E-01   -0.39841E-01  5064   0.103E+00 0.197E-02
 gam= 0.627 trial= 0.436  step= 0.505 mean= 0.436
 gam= 0.682 g(H,U,f)=  0.524E-01 0.178E-01 0.216E-17 ort(H,U,f) =-0.134E-01 0.144E-01 0.990E-18
CGA:  27    -0.950936141759E+03   -0.26357E-01   -0.26314E-01  5064   0.703E-01 0.943E-03
 gam= 0.682 trial= 0.439  step= 0.505 mean= 0.439
 gam= 0.673 g(H,U,f)=  0.361E-01 0.112E-01 0.121E-11 ort(H,U,f) =-0.629E-02 0.675E-02 0.129E-11
CGA:  28    -0.950954063236E+03   -0.17921E-01   -0.17902E-01  5064   0.473E-01 0.454E-03
 gam= 0.673 trial= 0.443  step= 0.476 mean= 0.443
 gam= 0.654 g(H,U,f)=  0.229E-01 0.805E-02 0.195E-17 ort(H,U,f) =-0.317E-02 0.327E-02 0.599E-17
CGA:  29    -0.950965411735E+03   -0.11348E-01   -0.11347E-01  5064   0.309E-01 0.104E-03
 gam= 0.654 trial= 0.444  step= 0.475 mean= 0.444
 gam= 0.674 g(H,U,f)=  0.154E-01 0.549E-02 0.198E-21 ort(H,U,f) =-0.231E-02 0.235E-02 0.281E-20
CGA:  30    -0.950972779344E+03   -0.73676E-02   -0.73678E-02  5064   0.209E-01 0.330E-04
 gam= 0.674 trial= 0.446  step= 0.478 mean= 0.446
 gam= 0.643 g(H,U,f)=  0.991E-02 0.351E-02 0.405E-12 ort(H,U,f) =-0.133E-02 0.136E-02-0.215E-11
CGA:  31    -0.950977770781E+03   -0.49914E-02   -0.49912E-02  5064   0.134E-01 0.298E-04
 gam= 0.643 trial= 0.448  step= 0.487 mean= 0.448
 gam= 0.640 g(H,U,f)=  0.618E-02 0.240E-02 0.426E-13 ort(H,U,f) =-0.835E-03 0.842E-03 0.439E-13
CGA:  32    -0.950981042435E+03   -0.32717E-02   -0.32715E-02  5064   0.858E-02 0.759E-05
 gam= 0.640 trial= 0.449  step= 0.516 mean= 0.449
 gam= 0.688 g(H,U,f)=  0.425E-02 0.166E-02 0.309E-21 ort(H,U,f) =-0.784E-03 0.789E-03-0.160E-22
CGA:  33    -0.950983259890E+03   -0.22175E-02   -0.22173E-02  5064   0.591E-02 0.477E-05
 gam= 0.688 trial= 0.453  step= 0.515 mean= 0.453
 gam= 0.681 g(H,U,f)=  0.298E-02 0.104E-02 0.834E-14 ort(H,U,f) =-0.653E-03 0.673E-03 0.330E-13
CGA:  34    -0.950984782488E+03   -0.15226E-02   -0.15220E-02  5064   0.402E-02 0.199E-04
 gam= 0.681 trial= 0.456  step= 0.492 mean= 0.456
 gam= 0.657 g(H,U,f)=  0.200E-02 0.643E-03 0.357E-14 ort(H,U,f) =-0.375E-03 0.397E-03 0.265E-13
CGA:  35    -0.950985776895E+03   -0.99441E-03   -0.99404E-03  5064   0.265E-02 0.220E-04
 gam= 0.657 trial= 0.458  step= 0.490 mean= 0.458
 gam= 0.697 g(H,U,f)=  0.137E-02 0.471E-03 0.966E-15 ort(H,U,f) =-0.192E-03 0.207E-03-0.206E-13
CGA:  36    -0.950986428443E+03   -0.65155E-03   -0.65133E-03  5064   0.184E-02 0.150E-04
 gam= 0.697 trial= 0.459  step= 0.497 mean= 0.459
 gam= 0.678 g(H,U,f)=  0.911E-03 0.338E-03 0.801E-13 ort(H,U,f) =-0.148E-03 0.152E-03-0.330E-12
CGA:  37    -0.950986889408E+03   -0.46097E-03   -0.46087E-03  5064   0.125E-02 0.491E-05
 gam= 0.678 trial= 0.461  step= 0.493 mean= 0.461
 gam= 0.643 g(H,U,f)=  0.592E-03 0.211E-03 0.216E-23 ort(H,U,f) =-0.112E-03 0.108E-03 0.145E-23
CGA:  38    -0.950987198402E+03   -0.30899E-03   -0.30904E-03  5064   0.803E-03-0.344E-05
 gam= 0.643 trial= 0.463  step= 0.513 mean= 0.463
 gam= 0.696 g(H,U,f)=  0.420E-03 0.140E-03 0.139E-19 ort(H,U,f) =-0.608E-04 0.549E-04-0.409E-19
CGA:  39    -0.950987403923E+03   -0.20552E-03   -0.20567E-03  5064   0.559E-03-0.585E-05
 gam= 0.696 trial= 0.465  step= 0.519 mean= 0.465
 gam= 0.000 g(H,U,f)=  0.297E-03 0.963E-04 0.139E-16 ort(H,U,f) =-0.324E-04 0.275E-04-0.101E-16
SDA:  40    -0.950987547856E+03   -0.14393E-03   -0.14407E-03  5064   0.393E-03-0.488E-05
 gam= 0.000 trial= 0.468  step= 0.936 mean= 0.468
 gam= 0.449 g(H,U,f)=  0.134E-03 0.422E-04 0.711E-15 ort(H,U,f) =-0.504E-04 0.499E-04 0.240E-14
CGA:  41    -0.950987731692E+03   -0.18384E-03   -0.18396E-03  5064   0.176E-03-0.496E-06
 gam= 0.449 trial= 0.492  step= 0.825 mean= 0.492
 gam= 0.453 g(H,U,f)=  0.706E-04 0.934E-05 0.926E-16 ort(H,U,f) =-0.316E-04 0.303E-04 0.368E-15
CGA:  42    -0.950987804054E+03   -0.72362E-04   -0.72577E-04  5064   0.799E-04-0.130E-05
 gam= 0.453 trial= 0.508  step= 0.590 mean= 0.508
 gam= 0.333 g(H,U,f)=  0.243E-04 0.230E-05 0.624E-15 ort(H,U,f) =-0.110E-04 0.942E-05 0.521E-14
CGA:  43    -0.950987827390E+03   -0.23336E-04   -0.23400E-04  5064   0.266E-04-0.157E-05
 gam= 0.333 trial= 0.512  step= 0.623 mean= 0.512
 gam= 0.380 g(H,U,f)=  0.974E-05 0.366E-06 0.145E-23 ort(H,U,f) =-0.219E-05 0.173E-05 0.199E-22
CGA:  44    -0.950987835491E+03   -0.81011E-05   -0.81270E-05  5064   0.101E-04-0.463E-06
 gam= 0.380 trial= 0.518  step= 0.528 mean= 0.518
 final diagonalization
   1 F= -.95098784E+03 E0= -.95098784E+03  d E =-.310042E-18
 writing wavefunctions
Warning: ieee_invalid is signaling
Warning: ieee_divide_by_zero is signaling
Warning: ieee_underflow is signaling
Warning: ieee_inexact is signaling
FORTRAN STOP
Warning: ieee_invalid is signaling
Warning: ieee_divide_by_zero is signaling
Warning: ieee_underflow is signaling
Warning: ieee_inexact is signaling
FORTRAN STOP
Warning: ieee_invalid is signaling
Warning: ieee_divide_by_zero is signaling
Warning: ieee_underflow is signaling
Warning: ieee_inexact is signaling
FORTRAN STOP
Warning: ieee_invalid is signaling
Warning: ieee_divide_by_zero is signaling
Warning: ieee_underflow is signaling
Warning: ieee_inexact is signaling
FORTRAN STOP
