       N       E                     dE             d eps       ncg     rms          ort
DAV:   1    -0.182974485055E+05   -0.18297E+05   -0.54235E+05  5064   0.746E+03
DAV:   2    -0.624753361431E+05   -0.44178E+05   -0.42879E+05  5064   0.119E+03
DAV:   3    -0.669574777688E+05   -0.44821E+04   -0.40003E+04  5064   0.346E+02
DAV:   4    -0.674712880370E+05   -0.51381E+03   -0.42631E+03  5064   0.102E+02
DAV:   5    -0.373379869068E+05    0.30133E+05   -0.70381E+02  5064   0.524E+01
SDA:   6     0.158133721368E+05    0.53151E+05   -0.70381E+02  5064   0.861E+05 0.000E+00
CGA:   7     0.311084170176E+04   -0.12703E+05   -0.12829E+05  5064   0.234E+05-0.496E+04
CGA:   8     0.119359344249E+04   -0.19172E+04   -0.23909E+04  5064   0.776E+04 0.120E+04
CGA:   9     0.541443785125E+03   -0.65215E+03   -0.69620E+03  5064   0.119E+05-0.545E+04
CGA:  10     0.231717597304E+03   -0.30973E+03   -0.96880E+03  5064   0.859E+04-0.314E+04
CGA:  11    -0.157418949167E+03   -0.38914E+03   -0.67069E+03  5064   0.345E+04 0.138E+03
CGA:  12    -0.607787281957E+03   -0.45037E+03   -0.45522E+03  5064   0.185E+04-0.353E+02
CGA:  13    -0.818087106987E+03   -0.21030E+03   -0.24458E+03  5064   0.290E+03 0.206E+03
CGA:  14    -0.898214765437E+03   -0.80128E+02   -0.75565E+02  5064   0.698E+02 0.452E+02
CGA:  15    -0.929074012041E+03   -0.30859E+02   -0.28627E+02  5064   0.241E+02 0.878E+01
CGA:  16    -0.939614376111E+03   -0.10540E+02   -0.10114E+02  5064   0.131E+02 0.756E+01
CGA:  17    -0.944698634383E+03   -0.50843E+01   -0.44302E+01  5064   0.701E+01 0.611E+01
CGA:  18    -0.947988726660E+03   -0.32901E+01   -0.30880E+01  5064   0.438E+01 0.132E+01
CGA:  19    -0.949544367076E+03   -0.15556E+01   -0.15975E+01  5064   0.212E+01-0.481E+00
CGA:  20    -0.950010954345E+03   -0.46659E+00   -0.47178E+00  5064   0.144E+01-0.105E+00
CGA:  21    -0.950358011166E+03   -0.34706E+00   -0.34987E+00  5064   0.993E+00-0.472E-01
CGA:  22    -0.950583431637E+03   -0.22542E+00   -0.22540E+00  5064   0.586E+00 0.510E-02
CGA:  23    -0.950717797668E+03   -0.13437E+00   -0.13425E+00  5064   0.367E+00 0.100E-01
CGA:  24    -0.950807988578E+03   -0.90191E-01   -0.89965E-01  5064   0.257E+00 0.867E-02
CGA:  25    -0.950869898128E+03   -0.61910E-01   -0.61806E-01  5064   0.164E+00 0.507E-02
CGA:  26    -0.950909784984E+03   -0.39887E-01   -0.39841E-01  5064   0.103E+00 0.197E-02
CGA:  27    -0.950936141759E+03   -0.26357E-01   -0.26314E-01  5064   0.703E-01 0.943E-03
CGA:  28    -0.950954063236E+03   -0.17921E-01   -0.17902E-01  5064   0.473E-01 0.454E-03
CGA:  29    -0.950965411735E+03   -0.11348E-01   -0.11347E-01  5064   0.309E-01 0.104E-03
CGA:  30    -0.950972779344E+03   -0.73676E-02   -0.73678E-02  5064   0.209E-01 0.330E-04
CGA:  31    -0.950977770781E+03   -0.49914E-02   -0.49912E-02  5064   0.134E-01 0.298E-04
CGA:  32    -0.950981042435E+03   -0.32717E-02   -0.32715E-02  5064   0.858E-02 0.759E-05
CGA:  33    -0.950983259890E+03   -0.22175E-02   -0.22173E-02  5064   0.591E-02 0.477E-05
CGA:  34    -0.950984782488E+03   -0.15226E-02   -0.15220E-02  5064   0.402E-02 0.199E-04
CGA:  35    -0.950985776895E+03   -0.99441E-03   -0.99404E-03  5064   0.265E-02 0.220E-04
CGA:  36    -0.950986428443E+03   -0.65155E-03   -0.65133E-03  5064   0.184E-02 0.150E-04
CGA:  37    -0.950986889408E+03   -0.46097E-03   -0.46087E-03  5064   0.125E-02 0.491E-05
CGA:  38    -0.950987198402E+03   -0.30899E-03   -0.30904E-03  5064   0.803E-03-0.344E-05
CGA:  39    -0.950987403923E+03   -0.20552E-03   -0.20567E-03  5064   0.559E-03-0.585E-05
SDA:  40    -0.950987547856E+03   -0.14393E-03   -0.14407E-03  5064   0.393E-03-0.488E-05
CGA:  41    -0.950987731692E+03   -0.18384E-03   -0.18396E-03  5064   0.176E-03-0.496E-06
CGA:  42    -0.950987804054E+03   -0.72362E-04   -0.72577E-04  5064   0.799E-04-0.130E-05
CGA:  43    -0.950987827390E+03   -0.23336E-04   -0.23400E-04  5064   0.266E-04-0.157E-05
CGA:  44    -0.950987835491E+03   -0.81011E-05   -0.81270E-05  5064   0.101E-04-0.463E-06
   1 F= -.95098784E+03 E0= -.95098784E+03  d E =-.310042E-18
