Ga48 O72
1.0
   0.0000000000000000   12.2804734172212839    0.0000000000000000
   9.1427020537309431    0.0000000000000000    0.0000000000000000
   0.0000000000000000   -2.7682617730220320  -11.3006977184464645
Ga O
48 72
direct
   0.6588382999999999    0.0000000000000000    0.1573651699999995 Ga
   0.6588382999999999    0.0000000000000000    0.6573651699999995 Ga
   0.6588382999999999    0.3333333333333333    0.1573651699999995 Ga
   0.6588382999999999    0.3333333333333333    0.6573651699999995 Ga
   0.6588382999999999    0.6666666666666666    0.1573651699999995 Ga
   0.6588382999999999    0.6666666666666666    0.6573651699999995 Ga
   0.8411617000000000    0.1666666666666667    0.3426348300000000 Ga
   0.8411616999999999    0.1666666666666667    0.8426348300000001 Ga
   0.8411617000000000    0.5000000000000000    0.3426348300000000 Ga
   0.8411616999999999    0.5000000000000000    0.8426348300000001 Ga
   0.8411617000000000    0.8333333333333333    0.3426348300000000 Ga
   0.8411616999999999    0.8333333333333333    0.8426348300000001 Ga
   0.5904744000000000    0.1666666666666667    0.3973929999999996 Ga
   0.5904744000000001    0.1666666666666667    0.8973929999999996 Ga
   0.5904744000000000    0.5000000000000000    0.3973929999999996 Ga
   0.5904744000000001    0.5000000000000000    0.8973929999999996 Ga
   0.5904744000000000    0.8333333333333333    0.3973929999999996 Ga
   0.5904744000000001    0.8333333333333333    0.8973929999999996 Ga
   0.9095255999999989    0.0000000000000000    0.1026069999999995 Ga
   0.9095255999999989    0.0000000000000000    0.6026069999999996 Ga
   0.9095255999999989    0.3333333333333333    0.1026069999999995 Ga
   0.9095255999999989    0.3333333333333333    0.6026069999999996 Ga
   0.9095255999999989    0.6666666666666666    0.1026069999999995 Ga
   0.9095255999999989    0.6666666666666666    0.6026069999999996 Ga
   0.1588383000000000    0.1666666666666667    0.1573651699999995 Ga
   0.1588383000000000    0.1666666666666667    0.6573651699999995 Ga
   0.1588383000000000    0.5000000000000000    0.1573651699999995 Ga
   0.1588383000000000    0.5000000000000000    0.6573651699999995 Ga
   0.1588383000000000    0.8333333333333333    0.1573651699999995 Ga
   0.1588383000000000    0.8333333333333333    0.6573651699999995 Ga
   0.3411617000000000    0.0000000000000000    0.3426348300000000 Ga
   0.3411617000000000    0.0000000000000000    0.8426348300000001 Ga
   0.3411617000000000    0.3333333333333333    0.3426348300000000 Ga
   0.3411617000000000    0.3333333333333333    0.8426348300000001 Ga
   0.3411617000000000    0.6666666666666666    0.3426348300000000 Ga
   0.3411617000000000    0.6666666666666666    0.8426348300000001 Ga
   0.0904743999999990    0.0000000000000000    0.3973929999999996 Ga
   0.0904743999999990    0.0000000000000000    0.8973929999999996 Ga
   0.0904743999999990    0.3333333333333333    0.3973929999999996 Ga
   0.0904743999999990    0.3333333333333333    0.8973929999999996 Ga
   0.0904743999999990    0.6666666666666666    0.3973929999999996 Ga
   0.0904743999999990    0.6666666666666666    0.8973929999999996 Ga
   0.4095256000000000    0.1666666666666667    0.1026069999999995 Ga
   0.4095255999999999    0.1666666666666667    0.6026069999999996 Ga
   0.4095256000000000    0.5000000000000000    0.1026069999999995 Ga
   0.4095255999999999    0.5000000000000000    0.6026069999999996 Ga
   0.4095256000000000    0.8333333333333333    0.1026069999999995 Ga
   0.4095255999999999    0.8333333333333333    0.6026069999999996 Ga
   0.9964691299999989    0.1666666666666667    0.1283320449999995 O
   0.9964691299999990    0.1666666666666667    0.6283320449999996 O
   0.9964691299999989    0.5000000000000000    0.1283320449999995 O
   0.9964691299999990    0.5000000000000000    0.6283320449999996 O
   0.9964691299999989    0.8333333333333333    0.1283320449999995 O
   0.9964691299999990    0.8333333333333333    0.6283320449999996 O
   0.5035308700000001    0.0000000000000000    0.3716679550000000 O
   0.5035308700000001    0.0000000000000000    0.8716679550000000 O
   0.5035308700000001    0.3333333333333333    0.3716679550000000 O
   0.5035308700000001    0.3333333333333333    0.8716679550000000 O
   0.5035308700000001    0.6666666666666666    0.3716679550000000 O
   0.5035308700000001    0.6666666666666666    0.8716679550000000 O
   0.6733710649999990    0.1666666666666667    0.2816150799999995 O
   0.6733710649999991    0.1666666666666667    0.7816150799999996 O
   0.6733710649999990    0.5000000000000000    0.2816150799999995 O
   0.6733710649999991    0.5000000000000000    0.7816150799999996 O
   0.6733710649999990    0.8333333333333333    0.2816150799999995 O
   0.6733710649999991    0.8333333333333333    0.7816150799999996 O
   0.8266289350000000    0.0000000000000000    0.2183849200000000 O
   0.8266289349999999    0.0000000000000000    0.7183849200000001 O
   0.8266289350000000    0.3333333333333333    0.2183849200000000 O
   0.8266289349999999    0.3333333333333333    0.7183849200000001 O
   0.8266289350000000    0.6666666666666666    0.2183849200000000 O
   0.8266289349999999    0.6666666666666666    0.7183849200000001 O
   0.8354950199999991    0.0000000000000000    0.4454229599999995 O
   0.8354950199999991    0.0000000000000000    0.9454229599999996 O
   0.8354950199999991    0.3333333333333333    0.4454229599999995 O
   0.8354950199999991    0.3333333333333333    0.9454229599999996 O
   0.8354950199999991    0.6666666666666666    0.4454229599999995 O
   0.8354950199999991    0.6666666666666666    0.9454229599999996 O
   0.6645049800000000    0.1666666666666667    0.0545770400000000 O
   0.6645049800000000    0.1666666666666667    0.5545770400000001 O
   0.6645049800000000    0.5000000000000000    0.0545770400000000 O
   0.6645049800000000    0.5000000000000000    0.5545770400000001 O
   0.6645049800000000    0.8333333333333333    0.0545770400000000 O
   0.6645049800000000    0.8333333333333333    0.5545770400000001 O
   0.4964691299999990    0.0000000000000000    0.1283320449999995 O
   0.4964691299999990    0.0000000000000000    0.6283320449999996 O
   0.4964691299999990    0.3333333333333333    0.1283320449999995 O
   0.4964691299999990    0.3333333333333333    0.6283320449999996 O
   0.4964691299999990    0.6666666666666666    0.1283320449999995 O
   0.4964691299999990    0.6666666666666666    0.6283320449999996 O
   0.0035308700000000    0.1666666666666667    0.3716679550000000 O
   0.0035308700000000    0.1666666666666667    0.8716679550000000 O
   0.0035308700000000    0.5000000000000000    0.3716679550000000 O
   0.0035308700000000    0.5000000000000000    0.8716679550000000 O
   0.0035308700000000    0.8333333333333333    0.3716679550000000 O
   0.0035308700000000    0.8333333333333333    0.8716679550000000 O
   0.1733710649999990    0.0000000000000000    0.2816150799999995 O
   0.1733710649999990    0.0000000000000000    0.7816150799999996 O
   0.1733710649999990    0.3333333333333333    0.2816150799999995 O
   0.1733710649999990    0.3333333333333333    0.7816150799999996 O
   0.1733710649999990    0.6666666666666666    0.2816150799999995 O
   0.1733710649999990    0.6666666666666666    0.7816150799999996 O
   0.3266289350000000    0.1666666666666667    0.2183849200000000 O
   0.3266289350000000    0.1666666666666667    0.7183849200000001 O
   0.3266289350000000    0.5000000000000000    0.2183849200000000 O
   0.3266289350000000    0.5000000000000000    0.7183849200000001 O
   0.3266289350000000    0.8333333333333333    0.2183849200000000 O
   0.3266289350000000    0.8333333333333333    0.7183849200000001 O
   0.3354950199999990    0.1666666666666667    0.4454229599999995 O
   0.3354950199999990    0.1666666666666667    0.9454229599999996 O
   0.3354950199999990    0.5000000000000000    0.4454229599999995 O
   0.3354950199999990    0.5000000000000000    0.9454229599999996 O
   0.3354950199999990    0.8333333333333333    0.4454229599999995 O
   0.3354950199999990    0.8333333333333333    0.9454229599999996 O
   0.1645049800000000    0.0000000000000000    0.0545770400000000 O
   0.1645049800000000    0.0000000000000000    0.5545770400000001 O
   0.1645049800000000    0.3333333333333333    0.0545770400000000 O
   0.1645049800000000    0.3333333333333333    0.5545770400000001 O
   0.1645049800000000    0.6666666666666666    0.0545770400000000 O
   0.1645049800000000    0.6666666666666666    0.5545770400000001 O
