Ga8 O12                                 
    1.000000000000000     
     0.0000000000000000   12.2804737091000007    0.0000000000000000
     9.1427011490000005    0.0000000000000000    0.0000000000000000
     0.0000000000000000   -2.7682616411000001  -11.3006974810000003
   Ga   O    N    Fe
    47    71     1     1
Direct
  0.6584434769498415  0.0000001762524278  0.1571037935512649
  0.6588184209074655  0.0000000812655614  0.6568865712323415
  0.6577770822791749  0.3338090207257025  0.1587714995859741
  0.6585255674288604  0.3324591559638534  0.6557042562115427
  0.6577768791770211  0.6661909782327129  0.1587707433565342
  0.6585254612077875  0.6675410730638518  0.6557048774753156
  0.8412742019254367  0.1663931311066733  0.3433332239256259
  0.8407920777078459  0.1665780597885558  0.8434400762482284
  0.8391980949294009  0.4999986940828478  0.3455247171372022
  0.8410074112481567  0.4999999947279292  0.8427589093658767
  0.8412727626713377  0.8336008679370863  0.3433373283954211
  0.8407922005865771  0.8334222289882547  0.8434403802967907
  0.5911150939791128  0.1687634135599296  0.3976536832697235
  0.5914146765218860  0.1668058600210856  0.8984554993161993
  0.5914620710910725  0.5000000832736191  0.8974567875197650
  0.5911146469981006  0.8312367701832102  0.3976534093116939
  0.5914144976110904  0.8331945291604796  0.8984552863282005
  0.9087513692375637  0.0000000555281190  0.1025563027292264
  0.9091967868473034  0.0000003104202619  0.6024814963670977
  0.9079681341644914  0.3333032696336673  0.1023468160072269
  0.9108699438434371  0.3327592531335952  0.6034680644401718
  0.9079682627894670  0.6666969494765240  0.1023470023684538
  0.9108706215202673  0.6672407218137479  0.6034696979115282
  0.1587705383674773  0.1668226546320000  0.1569309508947683
  0.1596817101281687  0.1665546050851958  0.6567003255768071
  0.1580422828339820  0.5000000058426224  0.1560781066242498
  0.1598669187584250  0.5000001068282742  0.6564846548368379
  0.1587703373744134  0.8331775945122217  0.1569305966057613
  0.1596817510667705  0.8334456411444933  0.6567003584707649
  0.3420881016454089  0.0000001355988886  0.3429250278772642
  0.3411935940287165  0.0000001025219234  0.8428939048393573
  0.3402694825325625  0.3351413668749785  0.3429618782221198
  0.3412660918214669  0.3336705643210607  0.8435634239955974
  0.3402694134158963  0.6648587716146324  0.3429603238547401
  0.3412660896531889  0.6663297309453142  0.8435630223580048
  0.0917192670061837  0.9999998006153206  0.3977817837983864
  0.0913066749069600  0.0000001582877402  0.8975894746871091
  0.0901248361065683  0.3336790733998427  0.3974202417348565
  0.0913101269246184  0.3332855025483994  0.8974938065509903
  0.0901251276036206  0.6663213575838824  0.3974200510431558
  0.0913102210574692  0.6667146462913536  0.8974938554792899
  0.4076671019383724  0.1660227104166196  0.1012936080572402
  0.4092195612345577  0.1667271449854724  0.6025437661875017
  0.4091239705732619  0.5000001202299984  0.1029640828193692
  0.4091437510664733  0.5000001755483297  0.6016849163429328
  0.4076672212897705  0.8339775832997844  0.1012936422220037
  0.4092193428335307  0.8332729774593446  0.6025431815190601
  0.9961085481490173  0.1667987363362116  0.1267394465830591
  0.9974959507353844  0.1657979376773682  0.6285386640816526
  0.9956440002331206  0.5000000899165258  0.1266024695788843
  0.9974677457351930  0.5000001076837250  0.6282909320883903
  0.9961084642289038  0.8332014464485269  0.1267394191764737
  0.9974958638376066  0.8342022713874258  0.6285392495520483
  0.5045469203708706  0.0000000511793203  0.3728999174942231
  0.5038879295844794  0.0000002091572995  0.8729441596891974
  0.5053587351834636  0.3404991401033115  0.3748662414607367
  0.5038631419652120  0.3334103567175148  0.8722768778231540
  0.5053587399145627  0.6595009918843289  0.3748663511484907
  0.5038631773033586  0.6665898909990062  0.8722769697223356
  0.6723297124032470  0.1648491381558230  0.2810661181522107
  0.6725347243461997  0.1667610117802383  0.7805673660993904
  0.6719810066044261  0.5000001267731378  0.7781495218207155
  0.6723298245088358  0.8351507200886559  0.2810664617937135
  0.6725348409991838  0.8332392100075054  0.7805674359174972
  0.8274143316586162  0.9999994100750342  0.2196363674092936
  0.8272899374814529  0.0000000474874753  0.7194114419976643
  0.8275368106925427  0.3324338906677653  0.2200891584030344
  0.8268493618456603  0.3342317102016779  0.7184150893530870
  0.8275367719729871  0.6675659460855243  0.2200897115793694
  0.8268492791850406  0.6657685422063224  0.7184151421731215
  0.8328031879103364  0.9999990989218261  0.4461197722094496
  0.8317870920598267  0.0000001406102115  0.9458438622567584
  0.8346239101860320  0.3312395305594080  0.4474505535506310
  0.8316936893938944  0.3335829676290345  0.9452085745232921
  0.8346236346219840  0.6687583177020784  0.4474526086832569
  0.8316937153530475  0.6664171578675209  0.9452087042697030
  0.6674234321103398  0.1673252120116828  0.0552011274451090
  0.6674074396133918  0.1664364712236832  0.5541520986966404
  0.6682184283877035  0.5000001430798449  0.0542697704438879
  0.6630311584677955  0.5000002254549898  0.5482683420423129
  0.6674234060659359  0.8326750701637664  0.0552010199016379
  0.6674072746897863  0.8335635503713590  0.5541519832138562
  0.4954847106002731  0.0000001262906224  0.1266981170065691
  0.4963884481884122  0.9999999928646659  0.6275492580055158
  0.4946052988787955  0.3320774112301166  0.1256700891352835
  0.4964014768171410  0.3333905155659451  0.6271129626252829
  0.4946053686895056  0.6679228776623347  0.1256708968628217
  0.4964014604552247  0.6666097833190889  0.6271131191644486
  0.0040658859554128  0.1660815763732586  0.3725139290964279
  0.0035290463518294  0.1666969934176166  0.8727541501916392
  0.0024731731681342  0.5000002709226266  0.3726546819498182
  0.0037087218885361  0.5000001192329719  0.8727208837029039
  0.0040651676285677  0.8339182538430023  0.3725143039246177
  0.0035291335483407  0.8333031981643941  0.8727543623201726
  0.1734972858424513  0.0000000547891617  0.2807630341218754
  0.1728081026199035  0.0000001010926383  0.7803389510218750
  0.1719187274080198  0.3332864222352825  0.2802681395731241
  0.1728971345578074  0.3334329408065315  0.7804216689052410
  0.1719186596705384  0.6667137734606783  0.2802678108328607
  0.1728971248025601  0.6665673089047885  0.7804216301627065
  0.3280523309944812  0.1674402830088368  0.2200693527391806
  0.3277875946133335  0.1668510562389685  0.7194142422941923
  0.3265701911474039  0.5000000032133727  0.2194088063699482
  0.3279031376826325  0.5000000905448303  0.7193390492907312
  0.3280521490644475  0.8325599819840832  0.2200688976493126
  0.3277876225699217  0.8331492022569833  0.7194140052471596
  0.3346457410629995  0.1675578383879284  0.4452360929729835
  0.3311831499766740  0.1663992329014761  0.9448552280963938
  0.3298967779419399  0.5000003823548553  0.4459438679925256
  0.3322187309231381  0.5000002310525389  0.9459734617526294
  0.3346457388827275  0.8324420493605302  0.4452354652679631
  0.3311833090169003  0.8336009291212321  0.9448552097220571
  0.1682686900441368  0.0000001906021083  0.0544795317163747
  0.1693996923721457  0.0000001110467736  0.5541171335298216
  0.1679450814656889  0.3331788755753564  0.0541960415712808
  0.1678024939405631  0.3331003393709366  0.5538820247047695
  0.1679451029063941  0.6668212169921830  0.0541960307389999
  0.1678024194787469  0.6668998896458334  0.5538820904546853
  0.6683566194741246  0.5000002608140122  0.2851567127103536
  0.5953830557801467  0.5000000378089169  0.3931504292915591
 
  0.00000000E+00  0.00000000E+00  0.00000000E+00
  0.00000000E+00  0.00000000E+00  0.00000000E+00
  0.00000000E+00  0.00000000E+00  0.00000000E+00
  0.00000000E+00  0.00000000E+00  0.00000000E+00
  0.00000000E+00  0.00000000E+00  0.00000000E+00
  0.00000000E+00  0.00000000E+00  0.00000000E+00
  0.00000000E+00  0.00000000E+00  0.00000000E+00
  0.00000000E+00  0.00000000E+00  0.00000000E+00
  0.00000000E+00  0.00000000E+00  0.00000000E+00
  0.00000000E+00  0.00000000E+00  0.00000000E+00
  0.00000000E+00  0.00000000E+00  0.00000000E+00
  0.00000000E+00  0.00000000E+00  0.00000000E+00
  0.00000000E+00  0.00000000E+00  0.00000000E+00
  0.00000000E+00  0.00000000E+00  0.00000000E+00
  0.00000000E+00  0.00000000E+00  0.00000000E+00
  0.00000000E+00  0.00000000E+00  0.00000000E+00
  0.00000000E+00  0.00000000E+00  0.00000000E+00
  0.00000000E+00  0.00000000E+00  0.00000000E+00
  0.00000000E+00  0.00000000E+00  0.00000000E+00
  0.00000000E+00  0.00000000E+00  0.00000000E+00
  0.00000000E+00  0.00000000E+00  0.00000000E+00
  0.00000000E+00  0.00000000E+00  0.00000000E+00
  0.00000000E+00  0.00000000E+00  0.00000000E+00
  0.00000000E+00  0.00000000E+00  0.00000000E+00
  0.00000000E+00  0.00000000E+00  0.00000000E+00
  0.00000000E+00  0.00000000E+00  0.00000000E+00
  0.00000000E+00  0.00000000E+00  0.00000000E+00
  0.00000000E+00  0.00000000E+00  0.00000000E+00
  0.00000000E+00  0.00000000E+00  0.00000000E+00
  0.00000000E+00  0.00000000E+00  0.00000000E+00
  0.00000000E+00  0.00000000E+00  0.00000000E+00
  0.00000000E+00  0.00000000E+00  0.00000000E+00
  0.00000000E+00  0.00000000E+00  0.00000000E+00
  0.00000000E+00  0.00000000E+00  0.00000000E+00
  0.00000000E+00  0.00000000E+00  0.00000000E+00
  0.00000000E+00  0.00000000E+00  0.00000000E+00
  0.00000000E+00  0.00000000E+00  0.00000000E+00
  0.00000000E+00  0.00000000E+00  0.00000000E+00
  0.00000000E+00  0.00000000E+00  0.00000000E+00
  0.00000000E+00  0.00000000E+00  0.00000000E+00
  0.00000000E+00  0.00000000E+00  0.00000000E+00
  0.00000000E+00  0.00000000E+00  0.00000000E+00
  0.00000000E+00  0.00000000E+00  0.00000000E+00
  0.00000000E+00  0.00000000E+00  0.00000000E+00
  0.00000000E+00  0.00000000E+00  0.00000000E+00
  0.00000000E+00  0.00000000E+00  0.00000000E+00
  0.00000000E+00  0.00000000E+00  0.00000000E+00
  0.00000000E+00  0.00000000E+00  0.00000000E+00
  0.00000000E+00  0.00000000E+00  0.00000000E+00
  0.00000000E+00  0.00000000E+00  0.00000000E+00
  0.00000000E+00  0.00000000E+00  0.00000000E+00
  0.00000000E+00  0.00000000E+00  0.00000000E+00
  0.00000000E+00  0.00000000E+00  0.00000000E+00
  0.00000000E+00  0.00000000E+00  0.00000000E+00
  0.00000000E+00  0.00000000E+00  0.00000000E+00
  0.00000000E+00  0.00000000E+00  0.00000000E+00
  0.00000000E+00  0.00000000E+00  0.00000000E+00
  0.00000000E+00  0.00000000E+00  0.00000000E+00
  0.00000000E+00  0.00000000E+00  0.00000000E+00
  0.00000000E+00  0.00000000E+00  0.00000000E+00
  0.00000000E+00  0.00000000E+00  0.00000000E+00
  0.00000000E+00  0.00000000E+00  0.00000000E+00
  0.00000000E+00  0.00000000E+00  0.00000000E+00
  0.00000000E+00  0.00000000E+00  0.00000000E+00
  0.00000000E+00  0.00000000E+00  0.00000000E+00
  0.00000000E+00  0.00000000E+00  0.00000000E+00
  0.00000000E+00  0.00000000E+00  0.00000000E+00
  0.00000000E+00  0.00000000E+00  0.00000000E+00
  0.00000000E+00  0.00000000E+00  0.00000000E+00
  0.00000000E+00  0.00000000E+00  0.00000000E+00
  0.00000000E+00  0.00000000E+00  0.00000000E+00
  0.00000000E+00  0.00000000E+00  0.00000000E+00
  0.00000000E+00  0.00000000E+00  0.00000000E+00
  0.00000000E+00  0.00000000E+00  0.00000000E+00
  0.00000000E+00  0.00000000E+00  0.00000000E+00
  0.00000000E+00  0.00000000E+00  0.00000000E+00
  0.00000000E+00  0.00000000E+00  0.00000000E+00
  0.00000000E+00  0.00000000E+00  0.00000000E+00
  0.00000000E+00  0.00000000E+00  0.00000000E+00
  0.00000000E+00  0.00000000E+00  0.00000000E+00
  0.00000000E+00  0.00000000E+00  0.00000000E+00
  0.00000000E+00  0.00000000E+00  0.00000000E+00
  0.00000000E+00  0.00000000E+00  0.00000000E+00
  0.00000000E+00  0.00000000E+00  0.00000000E+00
  0.00000000E+00  0.00000000E+00  0.00000000E+00
  0.00000000E+00  0.00000000E+00  0.00000000E+00
  0.00000000E+00  0.00000000E+00  0.00000000E+00
  0.00000000E+00  0.00000000E+00  0.00000000E+00
  0.00000000E+00  0.00000000E+00  0.00000000E+00
  0.00000000E+00  0.00000000E+00  0.00000000E+00
  0.00000000E+00  0.00000000E+00  0.00000000E+00
  0.00000000E+00  0.00000000E+00  0.00000000E+00
  0.00000000E+00  0.00000000E+00  0.00000000E+00
  0.00000000E+00  0.00000000E+00  0.00000000E+00
  0.00000000E+00  0.00000000E+00  0.00000000E+00
  0.00000000E+00  0.00000000E+00  0.00000000E+00
  0.00000000E+00  0.00000000E+00  0.00000000E+00
  0.00000000E+00  0.00000000E+00  0.00000000E+00
  0.00000000E+00  0.00000000E+00  0.00000000E+00
  0.00000000E+00  0.00000000E+00  0.00000000E+00
  0.00000000E+00  0.00000000E+00  0.00000000E+00
  0.00000000E+00  0.00000000E+00  0.00000000E+00
  0.00000000E+00  0.00000000E+00  0.00000000E+00
  0.00000000E+00  0.00000000E+00  0.00000000E+00
  0.00000000E+00  0.00000000E+00  0.00000000E+00
  0.00000000E+00  0.00000000E+00  0.00000000E+00
  0.00000000E+00  0.00000000E+00  0.00000000E+00
  0.00000000E+00  0.00000000E+00  0.00000000E+00
  0.00000000E+00  0.00000000E+00  0.00000000E+00
  0.00000000E+00  0.00000000E+00  0.00000000E+00
  0.00000000E+00  0.00000000E+00  0.00000000E+00
  0.00000000E+00  0.00000000E+00  0.00000000E+00
  0.00000000E+00  0.00000000E+00  0.00000000E+00
  0.00000000E+00  0.00000000E+00  0.00000000E+00
  0.00000000E+00  0.00000000E+00  0.00000000E+00
  0.00000000E+00  0.00000000E+00  0.00000000E+00
  0.00000000E+00  0.00000000E+00  0.00000000E+00
  0.00000000E+00  0.00000000E+00  0.00000000E+00
  0.00000000E+00  0.00000000E+00  0.00000000E+00
  0.00000000E+00  0.00000000E+00  0.00000000E+00
