       N       E                     dE             d eps       ncg     rms          ort
SDA:   1    -0.953848493668E+03   -0.95385E+03    0.00000E+00  5040   0.263E+02 0.000E+00
CGA:   2    -0.958947443001E+03   -0.50989E+01   -0.51016E+01  5040   0.778E+01 0.221E+00
CGA:   3    -0.961848296476E+03   -0.29009E+01   -0.28384E+01  5040   0.293E+01 0.357E+00
CGA:   4    -0.962392890986E+03   -0.54459E+00   -0.54957E+00  5040   0.113E+01 0.637E-01
CGA:   5    -0.962759298940E+03   -0.36641E+00   -0.36275E+00  5040   0.357E+00 0.286E-01
CGA:   6    -0.962852089530E+03   -0.92791E-01   -0.92597E-01  5040   0.166E+00 0.282E-02
CGA:   7    -0.962889014177E+03   -0.36925E-01   -0.36918E-01  5040   0.393E-01 0.763E-03
CGA:   8    -0.962896703728E+03   -0.76896E-02   -0.76927E-02  5040   0.175E-01 0.139E-03
CGA:   9    -0.962900267459E+03   -0.35637E-02   -0.35645E-02  5040   0.566E-02 0.690E-04
CGA:  10    -0.962901717883E+03   -0.14504E-02   -0.14476E-02  5040   0.299E-02 0.656E-04
CGA:  11    -0.962902421137E+03   -0.70325E-03   -0.70213E-03  5040   0.129E-02 0.629E-04
CGA:  12    -0.962902715829E+03   -0.29469E-03   -0.29442E-03  5040   0.600E-03 0.332E-04
CGA:  13    -0.962902842775E+03   -0.12695E-03   -0.12709E-03  5040   0.251E-03 0.145E-04
CGA:  14    -0.962902903690E+03   -0.60916E-04   -0.60728E-04  5040   0.135E-03 0.909E-05
CGA:  15    -0.962902935070E+03   -0.31380E-04   -0.31359E-04  5040   0.769E-04 0.271E-05
CGA:  16    -0.962902952494E+03   -0.17423E-04   -0.17417E-04  5040   0.460E-04 0.114E-05
CGA:  17    -0.962902963044E+03   -0.10550E-04   -0.10555E-04  5040   0.268E-04-0.608E-06
CGA:  18    -0.962902969904E+03   -0.68605E-05   -0.69676E-05  5040   0.211E-04-0.236E-05
   1 F= -.96290297E+03 E0= -.96290297E+03  d E =-.161969E-14
