 running    4 mpi-ranks, on    1 nodes
 distrk:  each k-point on    1 cores,    4 groups
 distr:  one band on    1 cores,    1 groups
 OpenACC runtime initialized ...    4 GPUs detected
 vasp.6.4.2 20Jul23 (build Nov 12 2023 22:16:35) complex                         
 POSCAR found type information on POSCAR GaO Cu
 POSCAR found :  3 types and     120 ions
 scaLAPACK will be used selectively (only on CPU)
 LDA part: xc-table for Pade appr. of Perdew
 POSCAR, INCAR and KPOINTS ok, starting setup
 FFT: planning ... GRIDC
 FFT: planning ... GRID_SOFT
 FFT: planning ... GRID
 WAVECAR not read
 initial charge from wavefunction
 entering main loop
       N       E                     dE             d eps       ncg     rms          ort
DAV:   1    -0.183784136396E+05   -0.18378E+05   -0.54656E+05  5056   0.743E+03
DAV:   2    -0.622428557197E+05   -0.43864E+05   -0.42582E+05  5056   0.119E+03
DAV:   3    -0.666893961905E+05   -0.44465E+04   -0.39528E+04  5056   0.345E+02
DAV:   4    -0.671877923735E+05   -0.49840E+03   -0.42386E+03  5056   0.101E+02
DAV:   5    -0.371017945652E+05    0.30086E+05   -0.71126E+02  5056   0.521E+01
 gam= 0.000 g(H,U,f)=  0.643E+05 0.221E+05 0.241E+04 ort(H,U,f) = 0.000E+00 0.000E+00 0.000E+00
SDA:   6     0.154894969391E+05    0.52591E+05   -0.71126E+02  5056   0.887E+05 0.000E+00
 gam= 0.000 trial= 0.400  step= 0.273 mean= 0.400
 gam= 0.164 g(H,U,f)=  0.120E+05 0.248E+04 0.106E+03 ort(H,U,f) = 0.119E+05-0.499E+03-0.242E+03
CGA:   7     0.360539069719E+04   -0.11884E+05   -0.12131E+05  5056   0.145E+05 0.112E+05
 gam= 0.164 trial= 0.394  step= 0.203 mean= 0.394
 gam= 0.862 g(H,U,f)=  0.454E+04 0.593E+04 0.205E+04 ort(H,U,f) = 0.210E+04-0.562E+04-0.322E+04
CGA:   8     0.138609353936E+04   -0.22193E+04   -0.16615E+04  5056   0.125E+05-0.673E+04
 gam= 0.862 trial= 0.384  step= 0.130 mean= 0.384
 gam= 0.976 g(H,U,f)=  0.388E+04 0.750E+04 0.847E+03 ort(H,U,f) = 0.493E+03 0.855E+03 0.288E+03
CGA:   9     0.877581398575E+03   -0.50851E+03   -0.43725E+03  5056   0.122E+05 0.164E+04
 gam= 0.976 trial= 0.371  step= 0.126 mean= 0.371
 gam= 0.539 g(H,U,f)=  0.411E+04 0.242E+04 0.609E+02 ort(H,U,f) =-0.277E+04 0.562E+03 0.144E+02
CGA:  10     0.298985592345E+03   -0.57860E+03   -0.87238E+03  5056   0.659E+04-0.220E+04
 gam= 0.539 trial= 0.359  step= 0.197 mean= 0.359
 gam= 0.489 g(H,U,f)=  0.256E+04 0.649E+03 0.111E+02 ort(H,U,f) =-0.520E+03 0.213E+03 0.206E+01
CGA:  11    -0.140104070368E+03   -0.43909E+03   -0.53161E+03  5056   0.322E+04-0.305E+03
 gam= 0.489 trial= 0.351  step= 0.267 mean= 0.351
 gam= 0.358 g(H,U,f)=  0.100E+04 0.149E+03 0.192E+01 ort(H,U,f) =-0.144E+03 0.251E+03 0.568E+01
CGA:  12    -0.532315833679E+03   -0.39221E+03   -0.41068E+03  5056   0.115E+04 0.112E+03
 gam= 0.358 trial= 0.347  step= 0.350 mean= 0.347
 gam= 0.396 g(H,U,f)=  0.422E+03 0.274E+02 0.718E+01 ort(H,U,f) =-0.883E+01 0.526E+02 0.198E+02
CGA:  13    -0.741025687866E+03   -0.20871E+03   -0.20854E+03  5056   0.456E+03 0.636E+02
 gam= 0.396 trial= 0.347  step= 0.415 mean= 0.347
 gam= 0.516 g(H,U,f)=  0.220E+03 0.155E+02 0.177E-01 ort(H,U,f) = 0.162E+02 0.699E+01 0.328E-01
CGA:  14    -0.842145509225E+03   -0.10112E+03   -0.99873E+02  5056   0.235E+03 0.232E+02
 gam= 0.516 trial= 0.350  step= 0.451 mean= 0.350
 gam= 0.661 g(H,U,f)=  0.139E+03 0.172E+02 0.222E-01 ort(H,U,f) =-0.410E+02 0.987E+01 0.242E+00
CGA:  15    -0.896329785550E+03   -0.54184E+02   -0.55826E+02  5056   0.156E+03-0.309E+02
 gam= 0.661 trial= 0.355  step= 0.302 mean= 0.355
 gam= 0.568 g(H,U,f)=  0.740E+02 0.144E+02 0.354E-01 ort(H,U,f) = 0.222E+01-0.902E+01-0.296E+00
CGA:  16    -0.919958162098E+03   -0.23628E+02   -0.20431E+02  5056   0.885E+02-0.710E+01
 gam= 0.568 trial= 0.353  step= 0.229 mean= 0.353
 gam= 1.498 g(H,U,f)=  0.544E+02 0.723E+02 0.578E+01 ort(H,U,f) = 0.232E+02-0.208E+02-0.511E+00
CGA:  17    -0.929962391948E+03   -0.10004E+02   -0.96484E+01  5056   0.133E+03 0.186E+01
 gam= 1.498 trial= 0.347  step= 0.134 mean= 0.347
 gam= 0.409 g(H,U,f)=  0.364E+02 0.177E+02 0.550E-01 ort(H,U,f) =-0.125E+02 0.323E+01-0.202E-01
CGA:  18    -0.936247317480E+03   -0.62849E+01   -0.90974E+01  5056   0.541E+02-0.930E+01
 gam= 0.409 trial= 0.336  step= 0.173 mean= 0.336
 gam= 0.576 g(H,U,f)=  0.278E+02 0.302E+01 0.331E+00 ort(H,U,f) =-0.619E+01 0.564E+01 0.177E+00
CGA:  19    -0.940487151107E+03   -0.42398E+01   -0.43598E+01  5056   0.312E+02-0.376E+00
 gam= 0.576 trial= 0.328  step= 0.282 mean= 0.328
 gam= 0.891 g(H,U,f)=  0.208E+02 0.688E+01 0.570E-01 ort(H,U,f) =-0.662E+00 0.378E+00 0.319E-01
CGA:  20    -0.944860861036E+03   -0.43737E+01   -0.43629E+01  5056   0.278E+02-0.252E+00
 gam= 0.891 trial= 0.325  step= 0.200 mean= 0.325
 gam= 0.487 g(H,U,f)=  0.118E+02 0.168E+01 0.805E-11 ort(H,U,f) =-0.326E+00 0.258E+00-0.411E-10
CGA:  21    -0.947437342213E+03   -0.25765E+01   -0.27505E+01  5056   0.135E+02-0.681E-01
 gam= 0.487 trial= 0.319  step= 0.247 mean= 0.319
 gam= 0.567 g(H,U,f)=  0.707E+01 0.593E+00 0.108E-10 ort(H,U,f) =-0.601E+00 0.832E+00 0.276E-10
CGA:  22    -0.949077341615E+03   -0.16400E+01   -0.16696E+01  5056   0.767E+01 0.231E+00
 gam= 0.567 trial= 0.316  step= 0.357 mean= 0.316
 gam= 0.771 g(H,U,f)=  0.541E+01 0.499E+00 0.416E-14 ort(H,U,f) =-0.610E+00 0.633E+00 0.654E-14
CGA:  23    -0.950470583521E+03   -0.13932E+01   -0.13923E+01  5056   0.591E+01 0.230E-01
 gam= 0.771 trial= 0.318  step= 0.271 mean= 0.318
 gam= 0.511 g(H,U,f)=  0.282E+01 0.196E+00 0.144E-15 ort(H,U,f) = 0.198E-01-0.171E-01 0.570E-15
CGA:  24    -0.951273621664E+03   -0.80304E+00   -0.80296E+00  5056   0.302E+01 0.275E-02
 gam= 0.511 trial= 0.315  step= 0.312 mean= 0.315
 gam= 0.777 g(H,U,f)=  0.192E+01 0.429E+00 0.221E-15 ort(H,U,f) = 0.141E+00-0.132E+00 0.125E-14
CGA:  25    -0.951745406091E+03   -0.47178E+00   -0.47180E+00  5056   0.235E+01 0.842E-02
 gam= 0.777 trial= 0.315  step= 0.286 mean= 0.315
 gam= 0.549 g(H,U,f)=  0.104E+01 0.252E+00 0.553E-14 ort(H,U,f) =-0.179E+00 0.181E+00 0.174E-13
CGA:  26    -0.952082206064E+03   -0.33680E+00   -0.33684E+00  5056   0.129E+01 0.177E-02
 gam= 0.549 trial= 0.314  step= 0.257 mean= 0.314
 gam= 0.596 g(H,U,f)=  0.635E+00 0.133E+00 0.551E-16 ort(H,U,f) =-0.148E+00 0.147E+00 0.105E-15
CGA:  27    -0.952247630974E+03   -0.16542E+00   -0.16543E+00  5056   0.767E+00-0.626E-03
 gam= 0.596 trial= 0.311  step= 0.376 mean= 0.311
 gam= 0.877 g(H,U,f)=  0.560E+00 0.113E+00 0.110E-11 ort(H,U,f) =-0.111E+00 0.109E+00 0.343E-11
CGA:  28    -0.952391832467E+03   -0.14420E+00   -0.14427E+00  5056   0.673E+00-0.191E-02
 gam= 0.877 trial= 0.314  step= 0.320 mean= 0.314
 gam= 0.609 g(H,U,f)=  0.358E+00 0.516E-01 0.199E-15 ort(H,U,f) =-0.115E+00 0.117E+00-0.115E-14
CGA:  29    -0.952499090474E+03   -0.10726E+00   -0.10725E+00  5056   0.410E+00 0.225E-02
 gam= 0.609 trial= 0.314  step= 0.363 mean= 0.314
 gam= 0.910 g(H,U,f)=  0.294E+00 0.788E-01 0.146E-16 ort(H,U,f) =-0.826E-01 0.848E-01-0.291E-16
CGA:  30    -0.952573826711E+03   -0.74736E-01   -0.74660E-01  5056   0.373E+00 0.221E-02
 gam= 0.910 trial= 0.317  step= 0.352 mean= 0.317
 gam= 0.805 g(H,U,f)=  0.240E+00 0.605E-01 0.197E-20 ort(H,U,f) =-0.115E+00 0.113E+00-0.219E-20
CGA:  31    -0.952639869972E+03   -0.66043E-01   -0.66112E-01  5056   0.300E+00-0.223E-02
 gam= 0.805 trial= 0.319  step= 0.315 mean= 0.319
 gam= 0.969 g(H,U,f)=  0.234E+00 0.571E-01 0.161E-22 ort(H,U,f) =-0.801E-01 0.766E-01-0.119E-22
CGA:  32    -0.952686921772E+03   -0.47052E-01   -0.47039E-01  5056   0.291E+00-0.350E-02
 gam= 0.969 trial= 0.318  step= 0.339 mean= 0.318
 gam= 0.961 g(H,U,f)=  0.208E+00 0.714E-01 0.638E-14 ort(H,U,f) =-0.741E-01 0.705E-01 0.338E-13
CGA:  33    -0.952735663512E+03   -0.48742E-01   -0.48805E-01  5056   0.280E+00-0.356E-02
 gam= 0.961 trial= 0.319  step= 0.278 mean= 0.319
 gam= 0.666 g(H,U,f)=  0.146E+00 0.400E-01 0.460E-12 ort(H,U,f) =-0.985E-01 0.992E-01 0.582E-12
CGA:  34    -0.952773962450E+03   -0.38299E-01   -0.38347E-01  5056   0.186E+00 0.737E-03
 gam= 0.666 trial= 0.317  step= 0.343 mean= 0.317
 gam= 0.948 g(H,U,f)=  0.151E+00 0.252E-01 0.126E-17 ort(H,U,f) =-0.697E-01 0.715E-01 0.231E-16
CGA:  35    -0.952805996195E+03   -0.32034E-01   -0.31996E-01  5056   0.176E+00 0.181E-02
 gam= 0.948 trial= 0.319  step= 0.415 mean= 0.319
 gam= 0.883 g(H,U,f)=  0.138E+00 0.176E-01 0.270E-20 ort(H,U,f) =-0.528E-01 0.541E-01-0.200E-19
CGA:  36    -0.952843014400E+03   -0.37018E-01   -0.36939E-01  5056   0.156E+00 0.126E-02
 gam= 0.883 trial= 0.323  step= 0.322 mean= 0.323
 gam= 0.000 g(H,U,f)=  0.963E-01 0.145E-01 0.196E-21 ort(H,U,f) =-0.282E-01 0.279E-01 0.140E-20
SDA:  37    -0.952868318224E+03   -0.25304E-01   -0.25304E-01  5056   0.111E+00-0.284E-03
 gam= 0.000 trial= 0.323  step= 0.736 mean= 0.323
 gam= 0.347 g(H,U,f)=  0.335E-01 0.497E-02 0.559E-20 ort(H,U,f) =-0.351E-02 0.354E-02 0.955E-20
CGA:  38    -0.952909089244E+03   -0.40771E-01   -0.40766E-01  5056   0.385E-01 0.235E-04
 gam= 0.347 trial= 0.344  step= 0.652 mean= 0.344
 gam= 0.559 g(H,U,f)=  0.148E-01 0.666E-02 0.162E-15 ort(H,U,f) =-0.495E-02 0.501E-02 0.386E-19
CGA:  39    -0.952921640530E+03   -0.12551E-01   -0.12542E-01  5056   0.215E-01 0.547E-04
 gam= 0.559 trial= 0.359  step= 0.654 mean= 0.359
 gam= 0.382 g(H,U,f)=  0.625E-02 0.195E-02 0.634E-15 ort(H,U,f) =-0.222E-02 0.227E-02-0.147E-14
CGA:  40    -0.952928684367E+03   -0.70438E-02   -0.70364E-02  5056   0.821E-02 0.527E-04
 gam= 0.382 trial= 0.374  step= 0.821 mean= 0.374
 gam= 0.479 g(H,U,f)=  0.305E-02 0.878E-03 0.767E-17 ort(H,U,f) =-0.188E-02 0.187E-02 0.146E-16
CGA:  41    -0.952932057994E+03   -0.33736E-02   -0.33750E-02  5056   0.393E-02-0.753E-05
 gam= 0.479 trial= 0.396  step= 0.967 mean= 0.396
 gam= 0.647 g(H,U,f)=  0.197E-02 0.568E-03 0.817E-16 ort(H,U,f) =-0.901E-03 0.937E-03-0.150E-15
CGA:  42    -0.952933965907E+03   -0.19079E-02   -0.18978E-02  5056   0.254E-02 0.358E-04
 gam= 0.647 trial= 0.425  step= 0.750 mean= 0.425
 gam= 0.584 g(H,U,f)=  0.120E-02 0.288E-03 0.192E-21 ort(H,U,f) =-0.559E-03 0.569E-03-0.135E-21
CGA:  43    -0.952934928389E+03   -0.96248E-03   -0.96092E-03  5056   0.148E-02 0.104E-04
 gam= 0.584 trial= 0.441  step= 0.824 mean= 0.441
 gam= 0.558 g(H,U,f)=  0.649E-03 0.179E-03 0.252E-21 ort(H,U,f) =-0.315E-03 0.329E-03 0.724E-21
CGA:  44    -0.952935545155E+03   -0.61677E-03   -0.61422E-03  5056   0.828E-03 0.131E-04
 gam= 0.558 trial= 0.460  step= 0.696 mean= 0.460
 gam= 0.472 g(H,U,f)=  0.341E-03 0.504E-04 0.219E-19 ort(H,U,f) =-0.132E-03 0.127E-03 0.229E-19
CGA:  45    -0.952935835052E+03   -0.28990E-03   -0.29046E-03  5056   0.391E-03-0.471E-05
 gam= 0.472 trial= 0.472  step= 0.761 mean= 0.472
 gam= 0.468 g(H,U,f)=  0.161E-03 0.225E-04 0.193E-22 ort(H,U,f) =-0.596E-04 0.510E-04-0.305E-20
CGA:  46    -0.952935981756E+03   -0.14670E-03   -0.14794E-03  5056   0.183E-03-0.860E-05
 gam= 0.468 trial= 0.487  step= 0.663 mean= 0.487
 gam= 0.380 g(H,U,f)=  0.631E-04 0.644E-05 0.264E-18 ort(H,U,f) =-0.135E-04 0.819E-05 0.598E-18
CGA:  47    -0.952936040688E+03   -0.58933E-04   -0.59400E-04  5056   0.696E-04-0.530E-05
 gam= 0.380 trial= 0.495  step= 0.706 mean= 0.495
 gam= 0.408 g(H,U,f)=  0.266E-04 0.182E-05 0.225E-19 ort(H,U,f) =-0.556E-05 0.327E-05 0.508E-18
CGA:  48    -0.952936064288E+03   -0.23600E-04   -0.23841E-04  5056   0.284E-04-0.229E-05
 gam= 0.408 trial= 0.506  step= 0.694 mean= 0.506
 gam= 0.445 g(H,U,f)=  0.112E-04 0.142E-05 0.133E-17 ort(H,U,f) =-0.203E-05 0.114E-05 0.659E-17
CGA:  49    -0.952936073726E+03   -0.94375E-05   -0.95213E-05  5056   0.126E-04-0.895E-06
 gam= 0.445 trial= 0.515  step= 0.724 mean= 0.515
 final diagonalization
   1 F= -.95293607E+03 E0= -.95293607E+03  d E =-.382522E-12
 writing wavefunctions
Warning: ieee_invalid is signaling
Warning: ieee_divide_by_zero is signaling
Warning: ieee_underflow is signaling
Warning: ieee_inexact is signaling
FORTRAN STOP
Warning: ieee_invalid is signaling
Warning: ieee_divide_by_zero is signaling
Warning: ieee_underflow is signaling
Warning: ieee_inexact is signaling
FORTRAN STOP
Warning: ieee_invalid is signaling
Warning: ieee_divide_by_zero is signaling
Warning: ieee_underflow is signaling
Warning: ieee_inexact is signaling
FORTRAN STOP
Warning: ieee_invalid is signaling
Warning: ieee_divide_by_zero is signaling
Warning: ieee_underflow is signaling
Warning: ieee_inexact is signaling
FORTRAN STOP
