       N       E                     dE             d eps       ncg     rms          ort
DAV:   1    -0.183784136396E+05   -0.18378E+05   -0.54656E+05  5056   0.743E+03
DAV:   2    -0.622428557197E+05   -0.43864E+05   -0.42582E+05  5056   0.119E+03
DAV:   3    -0.666893961905E+05   -0.44465E+04   -0.39528E+04  5056   0.345E+02
DAV:   4    -0.671877923735E+05   -0.49840E+03   -0.42386E+03  5056   0.101E+02
DAV:   5    -0.371017945652E+05    0.30086E+05   -0.71126E+02  5056   0.521E+01
SDA:   6     0.154894969391E+05    0.52591E+05   -0.71126E+02  5056   0.887E+05 0.000E+00
CGA:   7     0.360539069719E+04   -0.11884E+05   -0.12131E+05  5056   0.145E+05 0.112E+05
CGA:   8     0.138609353936E+04   -0.22193E+04   -0.16615E+04  5056   0.125E+05-0.673E+04
CGA:   9     0.877581398575E+03   -0.50851E+03   -0.43725E+03  5056   0.122E+05 0.164E+04
CGA:  10     0.298985592345E+03   -0.57860E+03   -0.87238E+03  5056   0.659E+04-0.220E+04
CGA:  11    -0.140104070368E+03   -0.43909E+03   -0.53161E+03  5056   0.322E+04-0.305E+03
CGA:  12    -0.532315833679E+03   -0.39221E+03   -0.41068E+03  5056   0.115E+04 0.112E+03
CGA:  13    -0.741025687866E+03   -0.20871E+03   -0.20854E+03  5056   0.456E+03 0.636E+02
CGA:  14    -0.842145509225E+03   -0.10112E+03   -0.99873E+02  5056   0.235E+03 0.232E+02
CGA:  15    -0.896329785550E+03   -0.54184E+02   -0.55826E+02  5056   0.156E+03-0.309E+02
CGA:  16    -0.919958162098E+03   -0.23628E+02   -0.20431E+02  5056   0.885E+02-0.710E+01
CGA:  17    -0.929962391948E+03   -0.10004E+02   -0.96484E+01  5056   0.133E+03 0.186E+01
CGA:  18    -0.936247317480E+03   -0.62849E+01   -0.90974E+01  5056   0.541E+02-0.930E+01
CGA:  19    -0.940487151107E+03   -0.42398E+01   -0.43598E+01  5056   0.312E+02-0.376E+00
CGA:  20    -0.944860861036E+03   -0.43737E+01   -0.43629E+01  5056   0.278E+02-0.252E+00
CGA:  21    -0.947437342213E+03   -0.25765E+01   -0.27505E+01  5056   0.135E+02-0.681E-01
CGA:  22    -0.949077341615E+03   -0.16400E+01   -0.16696E+01  5056   0.767E+01 0.231E+00
CGA:  23    -0.950470583521E+03   -0.13932E+01   -0.13923E+01  5056   0.591E+01 0.230E-01
CGA:  24    -0.951273621664E+03   -0.80304E+00   -0.80296E+00  5056   0.302E+01 0.275E-02
CGA:  25    -0.951745406091E+03   -0.47178E+00   -0.47180E+00  5056   0.235E+01 0.842E-02
CGA:  26    -0.952082206064E+03   -0.33680E+00   -0.33684E+00  5056   0.129E+01 0.177E-02
CGA:  27    -0.952247630974E+03   -0.16542E+00   -0.16543E+00  5056   0.767E+00-0.626E-03
CGA:  28    -0.952391832467E+03   -0.14420E+00   -0.14427E+00  5056   0.673E+00-0.191E-02
CGA:  29    -0.952499090474E+03   -0.10726E+00   -0.10725E+00  5056   0.410E+00 0.225E-02
CGA:  30    -0.952573826711E+03   -0.74736E-01   -0.74660E-01  5056   0.373E+00 0.221E-02
CGA:  31    -0.952639869972E+03   -0.66043E-01   -0.66112E-01  5056   0.300E+00-0.223E-02
CGA:  32    -0.952686921772E+03   -0.47052E-01   -0.47039E-01  5056   0.291E+00-0.350E-02
CGA:  33    -0.952735663512E+03   -0.48742E-01   -0.48805E-01  5056   0.280E+00-0.356E-02
CGA:  34    -0.952773962450E+03   -0.38299E-01   -0.38347E-01  5056   0.186E+00 0.737E-03
CGA:  35    -0.952805996195E+03   -0.32034E-01   -0.31996E-01  5056   0.176E+00 0.181E-02
CGA:  36    -0.952843014400E+03   -0.37018E-01   -0.36939E-01  5056   0.156E+00 0.126E-02
SDA:  37    -0.952868318224E+03   -0.25304E-01   -0.25304E-01  5056   0.111E+00-0.284E-03
CGA:  38    -0.952909089244E+03   -0.40771E-01   -0.40766E-01  5056   0.385E-01 0.235E-04
CGA:  39    -0.952921640530E+03   -0.12551E-01   -0.12542E-01  5056   0.215E-01 0.547E-04
CGA:  40    -0.952928684367E+03   -0.70438E-02   -0.70364E-02  5056   0.821E-02 0.527E-04
CGA:  41    -0.952932057994E+03   -0.33736E-02   -0.33750E-02  5056   0.393E-02-0.753E-05
CGA:  42    -0.952933965907E+03   -0.19079E-02   -0.18978E-02  5056   0.254E-02 0.358E-04
CGA:  43    -0.952934928389E+03   -0.96248E-03   -0.96092E-03  5056   0.148E-02 0.104E-04
CGA:  44    -0.952935545155E+03   -0.61677E-03   -0.61422E-03  5056   0.828E-03 0.131E-04
CGA:  45    -0.952935835052E+03   -0.28990E-03   -0.29046E-03  5056   0.391E-03-0.471E-05
CGA:  46    -0.952935981756E+03   -0.14670E-03   -0.14794E-03  5056   0.183E-03-0.860E-05
CGA:  47    -0.952936040688E+03   -0.58933E-04   -0.59400E-04  5056   0.696E-04-0.530E-05
CGA:  48    -0.952936064288E+03   -0.23600E-04   -0.23841E-04  5056   0.284E-04-0.229E-05
CGA:  49    -0.952936073726E+03   -0.94375E-05   -0.95213E-05  5056   0.126E-04-0.895E-06
   1 F= -.95293607E+03 E0= -.95293607E+03  d E =-.382522E-12
