Ga8 O12                                 
    1.000000000000000     
     0.0000000000000000   12.2804737091000007    0.0000000000000000
     9.1427011490000005    0.0000000000000000    0.0000000000000000
     0.0000000000000000   -2.7682616411000001  -11.3006974810000003
   Ga   O    Cu
    47    72     1
Direct
  0.6593185803108469 -0.0005792258051111  0.1563493133432657
  0.6593170256012647 -0.0001431370342885  0.6570176859528422
  0.6593185803108469  0.3339122258051143  0.1563493133432657
  0.6593170256012647  0.3334761370342919  0.6570176859528422
  0.6586352780000050  0.6666669999999968  0.1568184594879778
  0.6591748165224320  0.6666669999999968  0.6566455437567957
  0.8412609175450916  0.1666669999999968  0.8430116778306566
  0.8408447776622099  0.4998943226155085  0.3429531473914167
  0.8412809237470913  0.5000221024902761  0.8432274073751820
  0.8408447776622099  0.8334386773844951  0.3429531473914167
  0.8412809237470913  0.8333108975097271  0.8432274073751820
  0.5930431119911915  0.1666669999999968  0.3987876674557259
  0.5913128838309976  0.1666669999999968  0.8978363119877241
  0.5911958329799346  0.4998840836309307  0.3975185999894513
  0.5909339622385018  0.5000630759374746  0.8972992713284651
  0.5911958329799346  0.8334489163690723  0.3975185999894513
  0.5909339622385018  0.8332699240625285  0.8972992713284651
  0.9093192639742104 -0.0001413687581348  0.1020766454469523
  0.9084676861240398  0.0003690260677211  0.6011071305605490
  0.9093192639742104  0.3334743687581381  0.1020766454469523
  0.9084676861240398  0.3329639739322822  0.6011071305605490
  0.9090100154017933  0.6666669999999968  0.1023204403457595
  0.9091734599534564  0.6666669999999968  0.6022936009763900
  0.1590462768157679  0.1666669999999968  0.1570173176057686
  0.1588645419422485  0.1666669999999968  0.6563873372114137
  0.1593183882430999  0.4999234794906812  0.1569318647692654
  0.1590263095608916  0.4998915507297852  0.6566500904120508
  0.1593183882430999  0.8334095205093220  0.1569318647692654
  0.1590263095608916  0.8334414492702180  0.6566500904120508
  0.3413328496217303  0.0003125784769855  0.3437891121090612
  0.3409964585783233  0.0001402839896406  0.8433778946536261
  0.3413328496217303  0.3330204215230177  0.3437891121090612
  0.3409964585783233  0.3331927160103628  0.8433778946536261
  0.3412362098485817  0.6666669999999968  0.3437103811255619
  0.3408655515077166  0.6666669999999968  0.8435399851819201
  0.0899520551886787  0.0002416388045561  0.3975994454465544
  0.0912430069075247  0.0000069094934405  0.8977095070703681
  0.0899520551886787  0.3330913611954472  0.3975994454465544
  0.0912430069075247  0.3333260905065626  0.8977095070703681
  0.0912885214657394  0.6666669999999968  0.3978175591518507
  0.0913526739291654  0.6666669999999968  0.8979792480922599
  0.4089350019770624  0.1666669999999968  0.1025860241432238
  0.4092500206171739  0.1666669999999968  0.6027170188489828
  0.4089693511210442  0.4997647195225776  0.1025272086774223
  0.4090666216509037  0.4999718503634034  0.6025877947376612
  0.4089693511210442  0.8335682804774256  0.1025272086774223
  0.4090666216509037  0.8333611496365998  0.6025877947376612
  0.9962926248117192  0.1666669999999968  0.1278818754787986
  0.9960936854880631  0.1666669999999968  0.6270276604245549
  0.9967432984036129  0.5002044885687634  0.1272009176519290
  0.9963929406924893  0.4997114369436522  0.6271858872019671
  0.9967432984036129  0.8331285114312397  0.1272009176519290
  0.9963929406924893  0.8336215630563514  0.6271858872019671
  0.5043255573171336  0.0006954266500144  0.3729534172754028
  0.5037015700195423  0.0000990017855725  0.8729129607537918
  0.5043255573171336  0.3326375733499889  0.3729534172754028
  0.5037015700195423  0.3332339982144308  0.8729129607537918
  0.5036810826994167  0.6666669999999968  0.3729704035740567
  0.5034420342179321  0.6666669999999968  0.8725489208628374
  0.6729245290660466  0.1666669999999968  0.2797918320452679
  0.6727532794274150  0.1666669999999968  0.7807445227631057
  0.6717888621708410  0.5007655958141096  0.2797893358432204
  0.6726977595295254  0.5000879664158921  0.7804704588782621
  0.6717888621708410  0.8325674041858936  0.2797893358432204
  0.6726977595295254  0.8332450335841110  0.7804704588782621
  0.8267809014833537 -0.0042875406834322  0.2182172074779055
  0.8278279403175441 -0.0000576805087612  0.7195058532194587
  0.8267809014833537  0.3376205406834354  0.2182172074779055
  0.8278279403175441  0.3333906805087644  0.7195058532194587
  0.8274975937906446  0.6666669999999968  0.2194335511558421
  0.8276697655279290  0.6666669999999968  0.7195116028790539
  0.8283688956896343 -0.0029610184143124  0.4456184698990467
  0.8323262312713609  0.0000220089034004  0.9455915121131037
  0.8283688956896343  0.3362940184143156  0.4456184698990467
  0.8323262312713609  0.3333109910966029  0.9455915121131037
  0.8318618084404400  0.6666669999999968  0.4457670481870273
  0.8322806217539750  0.6666669999999968  0.9457214159546619
  0.6683112858686836  0.1666669999999968  0.0544073500860546
  0.6684945322161965  0.1666669999999968  0.5552621079345160
  0.6676570025292355  0.5004604722708679  0.0538468720603309
  0.6678229217612260  0.5000320034805709  0.5542599061085881
  0.6676570025292355  0.8328725277291354  0.0538468720603309
  0.6678229217612260  0.8333009965194325  0.5542599061085881
  0.4966758599817553  0.0002410268774584  0.1273811254691712
  0.4965912639958662 -0.0000613943398691  0.6275105367260932
  0.4966758599817553  0.3330919731225448  0.1273811254691712
  0.4965912639958662  0.3333943943398724  0.6275105367260932
  0.4959519414894829  0.6666669999999968  0.1270003934830699
  0.4964619813377626  0.6666669999999968  0.6274440221368759
  0.0024460631083722  0.1666669999999968  0.3743614405592110
  0.0038502641086992  0.1666669999999968  0.8730520334864058
  0.0035548734773591  0.5003543289777715  0.3729472796286401
  0.0038996642930792  0.5000788136206267  0.8729414706361895
  0.0035548734773591  0.8329786710222317  0.3729472796286401
  0.0038996642930792  0.8332541863793763  0.8729414706361895
  0.1723183378745209  0.0003072387480442  0.2808371348040219
  0.1725940947502472  0.0001553960874424  0.7804647645656496
  0.1723183378745209  0.3330257612519589  0.2808371348040219
  0.1725940947502472  0.3331776039125608  0.7804647645656496
  0.1729078162467688  0.6666669999999968  0.2807048136346096
  0.1725940270838218  0.6666669999999968  0.7805569808120456
  0.3275181908045087  0.1666669999999968  0.2197875439303006
  0.3275053533512060  0.1666669999999968  0.7196381044678001
  0.3276523083060795  0.4994946963172580  0.2198746534300687
  0.3274686242080183  0.4998843650970388  0.7196529955804537
  0.3276523083060795  0.8338383036827457  0.2198746534300687
  0.3274686242080183  0.8334486349029643  0.7196529955804537
  0.3324399735460160  0.1666669999999968  0.4461532129695794
  0.3322009296276940  0.1666669999999968  0.9459946167441746
  0.3324609784833538  0.4998360762833809  0.4459562797054583
  0.3321569246397337  0.4997979914796634  0.9459119720059580
  0.3324609784833538  0.8334969237166227  0.4459562797054583
  0.3321569246397337  0.8335350085203397  0.9459119720059580
  0.1678950781600974  0.0001021963867688  0.0544341690719060
  0.1678826000511973  0.0000011376034111  0.5541051691998754
  0.1678950781600974  0.3332308036132341  0.0544341690719060
  0.1678826000511973  0.3333318623965922  0.5541051691998754
  0.1684422651691340  0.6666669999999968  0.0545290558306985
  0.1681584971158427  0.6666669999999968  0.5543832140640269
  0.8394354065196008  0.1666669999999968  0.3392727661921628
 
  0.00000000E+00  0.00000000E+00  0.00000000E+00
  0.00000000E+00  0.00000000E+00  0.00000000E+00
  0.00000000E+00  0.00000000E+00  0.00000000E+00
  0.00000000E+00  0.00000000E+00  0.00000000E+00
  0.00000000E+00  0.00000000E+00  0.00000000E+00
  0.00000000E+00  0.00000000E+00  0.00000000E+00
  0.00000000E+00  0.00000000E+00  0.00000000E+00
  0.00000000E+00  0.00000000E+00  0.00000000E+00
  0.00000000E+00  0.00000000E+00  0.00000000E+00
  0.00000000E+00  0.00000000E+00  0.00000000E+00
  0.00000000E+00  0.00000000E+00  0.00000000E+00
  0.00000000E+00  0.00000000E+00  0.00000000E+00
  0.00000000E+00  0.00000000E+00  0.00000000E+00
  0.00000000E+00  0.00000000E+00  0.00000000E+00
  0.00000000E+00  0.00000000E+00  0.00000000E+00
  0.00000000E+00  0.00000000E+00  0.00000000E+00
  0.00000000E+00  0.00000000E+00  0.00000000E+00
  0.00000000E+00  0.00000000E+00  0.00000000E+00
  0.00000000E+00  0.00000000E+00  0.00000000E+00
  0.00000000E+00  0.00000000E+00  0.00000000E+00
  0.00000000E+00  0.00000000E+00  0.00000000E+00
  0.00000000E+00  0.00000000E+00  0.00000000E+00
  0.00000000E+00  0.00000000E+00  0.00000000E+00
  0.00000000E+00  0.00000000E+00  0.00000000E+00
  0.00000000E+00  0.00000000E+00  0.00000000E+00
  0.00000000E+00  0.00000000E+00  0.00000000E+00
  0.00000000E+00  0.00000000E+00  0.00000000E+00
  0.00000000E+00  0.00000000E+00  0.00000000E+00
  0.00000000E+00  0.00000000E+00  0.00000000E+00
  0.00000000E+00  0.00000000E+00  0.00000000E+00
  0.00000000E+00  0.00000000E+00  0.00000000E+00
  0.00000000E+00  0.00000000E+00  0.00000000E+00
  0.00000000E+00  0.00000000E+00  0.00000000E+00
  0.00000000E+00  0.00000000E+00  0.00000000E+00
  0.00000000E+00  0.00000000E+00  0.00000000E+00
  0.00000000E+00  0.00000000E+00  0.00000000E+00
  0.00000000E+00  0.00000000E+00  0.00000000E+00
  0.00000000E+00  0.00000000E+00  0.00000000E+00
  0.00000000E+00  0.00000000E+00  0.00000000E+00
  0.00000000E+00  0.00000000E+00  0.00000000E+00
  0.00000000E+00  0.00000000E+00  0.00000000E+00
  0.00000000E+00  0.00000000E+00  0.00000000E+00
  0.00000000E+00  0.00000000E+00  0.00000000E+00
  0.00000000E+00  0.00000000E+00  0.00000000E+00
  0.00000000E+00  0.00000000E+00  0.00000000E+00
  0.00000000E+00  0.00000000E+00  0.00000000E+00
  0.00000000E+00  0.00000000E+00  0.00000000E+00
  0.00000000E+00  0.00000000E+00  0.00000000E+00
  0.00000000E+00  0.00000000E+00  0.00000000E+00
  0.00000000E+00  0.00000000E+00  0.00000000E+00
  0.00000000E+00  0.00000000E+00  0.00000000E+00
  0.00000000E+00  0.00000000E+00  0.00000000E+00
  0.00000000E+00  0.00000000E+00  0.00000000E+00
  0.00000000E+00  0.00000000E+00  0.00000000E+00
  0.00000000E+00  0.00000000E+00  0.00000000E+00
  0.00000000E+00  0.00000000E+00  0.00000000E+00
  0.00000000E+00  0.00000000E+00  0.00000000E+00
  0.00000000E+00  0.00000000E+00  0.00000000E+00
  0.00000000E+00  0.00000000E+00  0.00000000E+00
  0.00000000E+00  0.00000000E+00  0.00000000E+00
  0.00000000E+00  0.00000000E+00  0.00000000E+00
  0.00000000E+00  0.00000000E+00  0.00000000E+00
  0.00000000E+00  0.00000000E+00  0.00000000E+00
  0.00000000E+00  0.00000000E+00  0.00000000E+00
  0.00000000E+00  0.00000000E+00  0.00000000E+00
  0.00000000E+00  0.00000000E+00  0.00000000E+00
  0.00000000E+00  0.00000000E+00  0.00000000E+00
  0.00000000E+00  0.00000000E+00  0.00000000E+00
  0.00000000E+00  0.00000000E+00  0.00000000E+00
  0.00000000E+00  0.00000000E+00  0.00000000E+00
  0.00000000E+00  0.00000000E+00  0.00000000E+00
  0.00000000E+00  0.00000000E+00  0.00000000E+00
  0.00000000E+00  0.00000000E+00  0.00000000E+00
  0.00000000E+00  0.00000000E+00  0.00000000E+00
  0.00000000E+00  0.00000000E+00  0.00000000E+00
  0.00000000E+00  0.00000000E+00  0.00000000E+00
  0.00000000E+00  0.00000000E+00  0.00000000E+00
  0.00000000E+00  0.00000000E+00  0.00000000E+00
  0.00000000E+00  0.00000000E+00  0.00000000E+00
  0.00000000E+00  0.00000000E+00  0.00000000E+00
  0.00000000E+00  0.00000000E+00  0.00000000E+00
  0.00000000E+00  0.00000000E+00  0.00000000E+00
  0.00000000E+00  0.00000000E+00  0.00000000E+00
  0.00000000E+00  0.00000000E+00  0.00000000E+00
  0.00000000E+00  0.00000000E+00  0.00000000E+00
  0.00000000E+00  0.00000000E+00  0.00000000E+00
  0.00000000E+00  0.00000000E+00  0.00000000E+00
  0.00000000E+00  0.00000000E+00  0.00000000E+00
  0.00000000E+00  0.00000000E+00  0.00000000E+00
  0.00000000E+00  0.00000000E+00  0.00000000E+00
  0.00000000E+00  0.00000000E+00  0.00000000E+00
  0.00000000E+00  0.00000000E+00  0.00000000E+00
  0.00000000E+00  0.00000000E+00  0.00000000E+00
  0.00000000E+00  0.00000000E+00  0.00000000E+00
  0.00000000E+00  0.00000000E+00  0.00000000E+00
  0.00000000E+00  0.00000000E+00  0.00000000E+00
  0.00000000E+00  0.00000000E+00  0.00000000E+00
  0.00000000E+00  0.00000000E+00  0.00000000E+00
  0.00000000E+00  0.00000000E+00  0.00000000E+00
  0.00000000E+00  0.00000000E+00  0.00000000E+00
  0.00000000E+00  0.00000000E+00  0.00000000E+00
  0.00000000E+00  0.00000000E+00  0.00000000E+00
  0.00000000E+00  0.00000000E+00  0.00000000E+00
  0.00000000E+00  0.00000000E+00  0.00000000E+00
  0.00000000E+00  0.00000000E+00  0.00000000E+00
  0.00000000E+00  0.00000000E+00  0.00000000E+00
  0.00000000E+00  0.00000000E+00  0.00000000E+00
  0.00000000E+00  0.00000000E+00  0.00000000E+00
  0.00000000E+00  0.00000000E+00  0.00000000E+00
  0.00000000E+00  0.00000000E+00  0.00000000E+00
  0.00000000E+00  0.00000000E+00  0.00000000E+00
  0.00000000E+00  0.00000000E+00  0.00000000E+00
  0.00000000E+00  0.00000000E+00  0.00000000E+00
  0.00000000E+00  0.00000000E+00  0.00000000E+00
  0.00000000E+00  0.00000000E+00  0.00000000E+00
  0.00000000E+00  0.00000000E+00  0.00000000E+00
  0.00000000E+00  0.00000000E+00  0.00000000E+00
  0.00000000E+00  0.00000000E+00  0.00000000E+00
  0.00000000E+00  0.00000000E+00  0.00000000E+00
  0.00000000E+00  0.00000000E+00  0.00000000E+00
