Ga8 O12                                 
    1.000000000000000     
     0.0000000000000000   12.2804737091000007    0.0000000000000000
     9.1427011490000005    0.0000000000000000    0.0000000000000000
     0.0000000000000000   -2.7682616411000001  -11.3006974810000003
   Ga   O    Cu   N 
    47    71     1     1
Direct
  0.6609083865954917 -0.0024512758432558  0.1542291194645820
  0.6606854229810647  0.0013358015102421  0.6565453427958694
  0.6593187828313312  0.3315500624485712  0.1575545363802519
  0.6592180028948997  0.3355458786997648  0.6582947266149577
  0.6588919871716469  0.6651477865770752  0.1567284545637001
  0.6592090566330910  0.6684249853269354  0.6570115208321049
  0.8419370681461388  0.1669753275753253  0.8423995681204177
  0.8397847747398918  0.5012093110059732  0.3463428297477570
  0.8418253489821860  0.4997979098321641  0.8451492168044371
  0.8403394529363629  0.8404963253101043  0.3423024492826677
  0.8424086069080767  0.8335818248468583  0.8411873804157064
  0.5984051739388579  0.1640079436630571  0.3984864651394967
  0.5907917305635003  0.1663039827443139  0.8971567030532521
  0.5918362429225571  0.4980278307837573  0.3981608486544501
  0.5908523453310299  0.4992728292520406  0.8985539258807307
  0.5928789935947963  0.8332759879157038  0.3962675222326000
  0.5894679485205859  0.8321643214236741  0.8949950463808450
  0.9106706162484375 -0.0042900987953332  0.0998680864923595
  0.9054232735007746  0.0084997623247796  0.5927410643702860
  0.9086923013551539  0.3298693402036735  0.1054274987937506
  0.9081239953168450  0.3391270201485086  0.6019798359148804
  0.9090533080880371  0.6647104400085978  0.1037908517063292
  0.9093832574072465  0.6723926876009825  0.6015496478531190
  0.1595775821154012  0.1649837048563454  0.1579753339774828
  0.1580476760408942  0.1681435619912743  0.6561269893476043
  0.1591295426406092  0.4979551196699493  0.1585234368569094
  0.1586282939741862  0.5013758226293630  0.6565219906453287
  0.1608732047298041  0.8316655890485455  0.1573146369973792
  0.1575171997864864  0.8351982478305676  0.6564463139649637
  0.3431456059264482 -0.0002492299402331  0.3440548853238303
  0.3405106415448570  0.0003505623421738  0.8431325609307182
  0.3431970844017019  0.3317354866760830  0.3445524197546210
  0.3405994123102659  0.3331623667638323  0.8431718492188131
  0.3426440428045721  0.6657033322192435  0.3440450985193758
  0.3401701687640193  0.6667869048590849  0.8430497547114941
  0.0907053338409301 -0.0009756577913062  0.3975668865295226
  0.0914753315422504 -0.0001593331792535  0.8976676007329871
  0.0885702468529987  0.3304970793234661  0.3980462054739485
  0.0919882505706816  0.3331223995212140  0.8987382240113366
  0.0911036421543321  0.6653214979416211  0.3977250809961622
  0.0922286531681090  0.6660146048411850  0.8990236201070219
  0.4097702717589380  0.1654146435586739  0.1027467055923689
  0.4100698173713129  0.1672921951604272  0.6031041900645997
  0.4076621313343544  0.4985018551104664  0.1019667137930784
  0.4094055918758158  0.5012946538474802  0.6032630037684710
  0.4100180665353713  0.8322235790511830  0.1020636144644435
  0.4086512101040231  0.8347263937714748  0.6026153871944570
  0.9971042060704112  0.1637169824386216  0.1289369053832734
  0.9967201999564204  0.1726311889623929  0.6303504699822423
  0.9965789938982424  0.4972713782938135  0.1286700414525390
  0.9973897344384829  0.5054753019850490  0.6299415999235283
  0.9992812459281797  0.8294657025440452  0.1254930722003036
  0.9956435610884563  0.8401570129443365  0.6273532532860439
  0.5054612096979924  0.0002661525884552  0.3735050682749315
  0.5028847329453880 -0.0001637238379750  0.8711516672658395
  0.5060185450888864  0.3298290692054042  0.3737611756557009
  0.5030083601860335  0.3330160657768810  0.8727512776194138
  0.5045993079834762  0.6660008941510047  0.3736163195343509
  0.5023352201634980  0.6650405730030368  0.8711624151218983
  0.6689875087686168  0.1662152520939144  0.2738517913013042
  0.6731296210984109  0.1675116761978435  0.7814494706246012
  0.6705998805703719  0.5001430838872416  0.2791378475444634
  0.6731668025013595  0.5013047624516934  0.7824168286238652
  0.6684457517072633  0.8288525763911939  0.2754891548909220
  0.6728291912755144  0.8338478941426463  0.7796791683937498
  0.8243995225460834 -0.0160036436205154  0.2080386272791807
  0.8287239102124925  0.0018478671217386  0.7178917458083668
  0.8279435755421015  0.3313731364860021  0.2234428629215428
  0.8280555442522312  0.3355003903100792  0.7217834126640921
  0.8274786649570917  0.6632209681093766  0.2199379334788825
  0.8279494584454509  0.6675630374223998  0.7195365419698315
  0.8341861995092469 -0.0007780891926386  0.9433233639624853
  0.8229110149856828  0.3482499240840704  0.4519712390811197
  0.8340214963708528  0.3323744998381210  0.9477523019426083
  0.8315031927172758  0.6720752331600839  0.4455597550134269
  0.8340915421962648  0.6672504295315930  0.9461084348160025
  0.6683304765542057  0.1663905737690528  0.0524265417328001
  0.6651876031789588  0.1697418068541184  0.5571885797727612
  0.6685330927374531  0.4978459713951626  0.0544350187145235
  0.6644962242005820  0.5023086226466833  0.5560330802472293
  0.6642753063967273  0.8290724585267988  0.0506162452182322
  0.6681534014082257  0.8342726865243638  0.5538089749739606
  0.4966774864548984 -0.0010442141963095  0.1253386765592435
  0.4970354797098441  0.0003198844904097  0.6281148925970202
  0.4956991745443782  0.3328766522276499  0.1256344987095729
  0.4961848145122392  0.3346639679119404  0.6298511698779921
  0.4950664992519821  0.6642580773937652  0.1254106509832031
  0.4961666570753914  0.6684084484161057  0.6284540035975303
  0.0021751769357515  0.1634489770634414  0.3764933148944304
  0.0048289114686461  0.1667629027071234  0.8746976287834956
  0.0035017210719131  0.4990672926816997  0.3742804586173709
  0.0047110747199250  0.4997440218646435  0.8744121566925486
  0.0048736690400220  0.8318973971219271  0.3710197265368427
  0.0052025581736379  0.8325919616934269  0.8729932276361929
  0.1740263285026351 -0.0012742761818437  0.2811969406024920
  0.1728667811903897  0.0014148661726698  0.7807125761734086
  0.1727926856171564  0.3311170201812243  0.2823091182221792
  0.1729170578401515  0.3344335260147485  0.7811348604492523
  0.1740982860839398  0.6645151060165410  0.2814775763710773
  0.1725518996994677  0.6682703843690341  0.7808202229466300
  0.3282808990972583  0.1655423085616753  0.2200762198528762
  0.3272426969000209  0.1674635880320988  0.7193890684588186
  0.3280641576583255  0.4975730936597202  0.2206678126725638
  0.3268381139771943  0.5008347772539341  0.7194022216611659
  0.3288763610296228  0.8322776679567236  0.2198938598655781
  0.3268610157618038  0.8341659265033095  0.7194062413421338
  0.3331066110118767  0.1659670716770973  0.4466648237262522
  0.3320561814442501  0.1665013113013813  0.9460491485935461
  0.3339766020494568  0.4992071552218589  0.4464008894354842
  0.3309047397945237  0.4996371830960385  0.9452931705618431
  0.3329536466583668  0.8330530422538821  0.4458173955523751
  0.3319170364815731  0.8333077879058307  0.9456457079994625
  0.1687300042105794 -0.0010511892775498  0.0545153644086191
  0.1686207370831227  0.0010608151933300  0.5544481927305974
  0.1686636180087853  0.3319788823444973  0.0555849662590468
  0.1681106091510783  0.3347618933621639  0.5542988263757506
  0.1701420038230419  0.6640466781869244  0.0553465436398879
  0.1681622747530937  0.6681164388476094  0.5544556329267005
  0.8380332309158869  0.1665225113361138  0.3401005530943382
  0.8168638189634730  0.0096119797827015  0.4374543294449899
 
  0.00000000E+00  0.00000000E+00  0.00000000E+00
  0.00000000E+00  0.00000000E+00  0.00000000E+00
  0.00000000E+00  0.00000000E+00  0.00000000E+00
  0.00000000E+00  0.00000000E+00  0.00000000E+00
  0.00000000E+00  0.00000000E+00  0.00000000E+00
  0.00000000E+00  0.00000000E+00  0.00000000E+00
  0.00000000E+00  0.00000000E+00  0.00000000E+00
  0.00000000E+00  0.00000000E+00  0.00000000E+00
  0.00000000E+00  0.00000000E+00  0.00000000E+00
  0.00000000E+00  0.00000000E+00  0.00000000E+00
  0.00000000E+00  0.00000000E+00  0.00000000E+00
  0.00000000E+00  0.00000000E+00  0.00000000E+00
  0.00000000E+00  0.00000000E+00  0.00000000E+00
  0.00000000E+00  0.00000000E+00  0.00000000E+00
  0.00000000E+00  0.00000000E+00  0.00000000E+00
  0.00000000E+00  0.00000000E+00  0.00000000E+00
  0.00000000E+00  0.00000000E+00  0.00000000E+00
  0.00000000E+00  0.00000000E+00  0.00000000E+00
  0.00000000E+00  0.00000000E+00  0.00000000E+00
  0.00000000E+00  0.00000000E+00  0.00000000E+00
  0.00000000E+00  0.00000000E+00  0.00000000E+00
  0.00000000E+00  0.00000000E+00  0.00000000E+00
  0.00000000E+00  0.00000000E+00  0.00000000E+00
  0.00000000E+00  0.00000000E+00  0.00000000E+00
  0.00000000E+00  0.00000000E+00  0.00000000E+00
  0.00000000E+00  0.00000000E+00  0.00000000E+00
  0.00000000E+00  0.00000000E+00  0.00000000E+00
  0.00000000E+00  0.00000000E+00  0.00000000E+00
  0.00000000E+00  0.00000000E+00  0.00000000E+00
  0.00000000E+00  0.00000000E+00  0.00000000E+00
  0.00000000E+00  0.00000000E+00  0.00000000E+00
  0.00000000E+00  0.00000000E+00  0.00000000E+00
  0.00000000E+00  0.00000000E+00  0.00000000E+00
  0.00000000E+00  0.00000000E+00  0.00000000E+00
  0.00000000E+00  0.00000000E+00  0.00000000E+00
  0.00000000E+00  0.00000000E+00  0.00000000E+00
  0.00000000E+00  0.00000000E+00  0.00000000E+00
  0.00000000E+00  0.00000000E+00  0.00000000E+00
  0.00000000E+00  0.00000000E+00  0.00000000E+00
  0.00000000E+00  0.00000000E+00  0.00000000E+00
  0.00000000E+00  0.00000000E+00  0.00000000E+00
  0.00000000E+00  0.00000000E+00  0.00000000E+00
  0.00000000E+00  0.00000000E+00  0.00000000E+00
  0.00000000E+00  0.00000000E+00  0.00000000E+00
  0.00000000E+00  0.00000000E+00  0.00000000E+00
  0.00000000E+00  0.00000000E+00  0.00000000E+00
  0.00000000E+00  0.00000000E+00  0.00000000E+00
  0.00000000E+00  0.00000000E+00  0.00000000E+00
  0.00000000E+00  0.00000000E+00  0.00000000E+00
  0.00000000E+00  0.00000000E+00  0.00000000E+00
  0.00000000E+00  0.00000000E+00  0.00000000E+00
  0.00000000E+00  0.00000000E+00  0.00000000E+00
  0.00000000E+00  0.00000000E+00  0.00000000E+00
  0.00000000E+00  0.00000000E+00  0.00000000E+00
  0.00000000E+00  0.00000000E+00  0.00000000E+00
  0.00000000E+00  0.00000000E+00  0.00000000E+00
  0.00000000E+00  0.00000000E+00  0.00000000E+00
  0.00000000E+00  0.00000000E+00  0.00000000E+00
  0.00000000E+00  0.00000000E+00  0.00000000E+00
  0.00000000E+00  0.00000000E+00  0.00000000E+00
  0.00000000E+00  0.00000000E+00  0.00000000E+00
  0.00000000E+00  0.00000000E+00  0.00000000E+00
  0.00000000E+00  0.00000000E+00  0.00000000E+00
  0.00000000E+00  0.00000000E+00  0.00000000E+00
  0.00000000E+00  0.00000000E+00  0.00000000E+00
  0.00000000E+00  0.00000000E+00  0.00000000E+00
  0.00000000E+00  0.00000000E+00  0.00000000E+00
  0.00000000E+00  0.00000000E+00  0.00000000E+00
  0.00000000E+00  0.00000000E+00  0.00000000E+00
  0.00000000E+00  0.00000000E+00  0.00000000E+00
  0.00000000E+00  0.00000000E+00  0.00000000E+00
  0.00000000E+00  0.00000000E+00  0.00000000E+00
  0.00000000E+00  0.00000000E+00  0.00000000E+00
  0.00000000E+00  0.00000000E+00  0.00000000E+00
  0.00000000E+00  0.00000000E+00  0.00000000E+00
  0.00000000E+00  0.00000000E+00  0.00000000E+00
  0.00000000E+00  0.00000000E+00  0.00000000E+00
  0.00000000E+00  0.00000000E+00  0.00000000E+00
  0.00000000E+00  0.00000000E+00  0.00000000E+00
  0.00000000E+00  0.00000000E+00  0.00000000E+00
  0.00000000E+00  0.00000000E+00  0.00000000E+00
  0.00000000E+00  0.00000000E+00  0.00000000E+00
  0.00000000E+00  0.00000000E+00  0.00000000E+00
  0.00000000E+00  0.00000000E+00  0.00000000E+00
  0.00000000E+00  0.00000000E+00  0.00000000E+00
  0.00000000E+00  0.00000000E+00  0.00000000E+00
  0.00000000E+00  0.00000000E+00  0.00000000E+00
  0.00000000E+00  0.00000000E+00  0.00000000E+00
  0.00000000E+00  0.00000000E+00  0.00000000E+00
  0.00000000E+00  0.00000000E+00  0.00000000E+00
  0.00000000E+00  0.00000000E+00  0.00000000E+00
  0.00000000E+00  0.00000000E+00  0.00000000E+00
  0.00000000E+00  0.00000000E+00  0.00000000E+00
  0.00000000E+00  0.00000000E+00  0.00000000E+00
  0.00000000E+00  0.00000000E+00  0.00000000E+00
  0.00000000E+00  0.00000000E+00  0.00000000E+00
  0.00000000E+00  0.00000000E+00  0.00000000E+00
  0.00000000E+00  0.00000000E+00  0.00000000E+00
  0.00000000E+00  0.00000000E+00  0.00000000E+00
  0.00000000E+00  0.00000000E+00  0.00000000E+00
  0.00000000E+00  0.00000000E+00  0.00000000E+00
  0.00000000E+00  0.00000000E+00  0.00000000E+00
  0.00000000E+00  0.00000000E+00  0.00000000E+00
  0.00000000E+00  0.00000000E+00  0.00000000E+00
  0.00000000E+00  0.00000000E+00  0.00000000E+00
  0.00000000E+00  0.00000000E+00  0.00000000E+00
  0.00000000E+00  0.00000000E+00  0.00000000E+00
  0.00000000E+00  0.00000000E+00  0.00000000E+00
  0.00000000E+00  0.00000000E+00  0.00000000E+00
  0.00000000E+00  0.00000000E+00  0.00000000E+00
  0.00000000E+00  0.00000000E+00  0.00000000E+00
  0.00000000E+00  0.00000000E+00  0.00000000E+00
  0.00000000E+00  0.00000000E+00  0.00000000E+00
  0.00000000E+00  0.00000000E+00  0.00000000E+00
  0.00000000E+00  0.00000000E+00  0.00000000E+00
  0.00000000E+00  0.00000000E+00  0.00000000E+00
  0.00000000E+00  0.00000000E+00  0.00000000E+00
  0.00000000E+00  0.00000000E+00  0.00000000E+00
  0.00000000E+00  0.00000000E+00  0.00000000E+00
  0.00000000E+00  0.00000000E+00  0.00000000E+00
