       N       E                     dE             d eps       ncg     rms          rms(c)
DAV:   1     0.220059267872E+05    0.22006E+05   -0.32721E+05 10176   0.281E+03
DAV:   2     0.487800622056E+04   -0.17128E+05   -0.16135E+05 10176   0.821E+02
DAV:   3    -0.142408317752E+03   -0.50204E+04   -0.47193E+04 13056   0.322E+02
DAV:   4    -0.779862650548E+03   -0.63745E+03   -0.62361E+03 12568   0.122E+02
DAV:   5    -0.824826359632E+03   -0.44964E+02   -0.44593E+02 14688   0.351E+01    0.748E+01
RMM:   6    -0.755716845011E+03    0.69110E+02   -0.70602E+02 13488   0.313E+01    0.137E+02
RMM:   7    -0.735916034191E+03    0.19801E+02   -0.97406E+01 15607   0.120E+01    0.848E+01
RMM:   8    -0.706405147124E+03    0.29511E+02   -0.84544E+01 11069   0.104E+01    0.213E+01
RMM:   9    -0.705929520468E+03    0.47563E+00   -0.96719E+00 13418   0.324E+00    0.139E+01
RMM:  10    -0.706023821740E+03   -0.94301E-01   -0.47166E+00 12742   0.249E+00    0.161E+01
RMM:  11    -0.707065162172E+03   -0.10413E+01   -0.25830E+00 13452   0.253E+00    0.147E+01
RMM:  12    -0.705874289005E+03    0.11909E+01   -0.45112E-01 14465   0.104E+00    0.757E+00
RMM:  13    -0.705511092332E+03    0.36320E+00   -0.48943E-01 12715   0.856E-01    0.525E+00
RMM:  14    -0.705319520922E+03    0.19157E+00   -0.53777E-01 14042   0.928E-01    0.235E+00
RMM:  15    -0.705312210161E+03    0.73108E-02   -0.12481E-01 15340   0.399E-01    0.128E+00
RMM:  16    -0.705309158602E+03    0.30516E-02   -0.40893E-02 13932   0.246E-01    0.110E+00
RMM:  17    -0.705307737712E+03    0.14209E-02   -0.79066E-03 14291   0.134E-01    0.901E-01
RMM:  18    -0.705304636378E+03    0.31013E-02   -0.33655E-03 14373   0.732E-02    0.430E-01
RMM:  19    -0.705304656963E+03   -0.20585E-04   -0.24691E-03 12783   0.624E-02    0.558E-01
RMM:  20    -0.705303941761E+03    0.71520E-03   -0.80322E-04 12060   0.371E-02    0.151E-01
RMM:  21    -0.705303972697E+03   -0.30936E-04   -0.32007E-04 10561   0.260E-02    0.800E-02
RMM:  22    -0.705304064501E+03   -0.91804E-04   -0.25870E-04 10861   0.193E-02    0.243E-01
RMM:  23    -0.705303921461E+03    0.14304E-03   -0.97164E-05  9151   0.154E-02    0.504E-02
RMM:  24    -0.705303944327E+03   -0.22866E-04   -0.38326E-05  7083   0.882E-03    0.568E-02
RMM:  25    -0.705303937002E+03    0.73253E-05   -0.10627E-05  6177   0.502E-03
   1 F= -.70530394E+03 E0= -.70529563E+03  d E =-.705304E+03
       N       E                     dE             d eps       ncg     rms          rms(c)
DAV:   1    -0.701889974687E+03    0.34140E+01   -0.25094E+02 11312   0.350E+01    0.600E+00
RMM:   2    -0.705342405548E+03   -0.34524E+01   -0.37212E+01 14295   0.104E+01    0.278E+00
RMM:   3    -0.705566226101E+03   -0.22382E+00   -0.43900E+00 15025   0.359E+00    0.224E+00
RMM:   4    -0.705605015095E+03   -0.38789E-01   -0.80587E-01 15886   0.129E+00    0.207E+00
RMM:   5    -0.705601126477E+03    0.38886E-02   -0.11947E-01 15960   0.480E-01    0.208E+00
RMM:   6    -0.705555923219E+03    0.45203E-01   -0.55947E-02 12776   0.321E-01    0.158E+00
RMM:   7    -0.705526753886E+03    0.29169E-01   -0.62287E-02 13016   0.292E-01    0.888E-01
RMM:   8    -0.705522737921E+03    0.40160E-02   -0.38366E-02 14913   0.221E-01    0.992E-01
RMM:   9    -0.705521314211E+03    0.14237E-02   -0.14589E-02 14260   0.145E-01    0.582E-01
RMM:  10    -0.705518944459E+03    0.23698E-02   -0.54350E-03 12563   0.106E-01    0.406E-01
RMM:  11    -0.705518581827E+03    0.36263E-03   -0.35511E-03 13077   0.711E-02    0.144E-01
RMM:  12    -0.705518675172E+03   -0.93344E-04   -0.63908E-04 13688   0.375E-02    0.184E-01
RMM:  13    -0.705518564333E+03    0.11084E-03   -0.56921E-04 11778   0.269E-02    0.550E-02
RMM:  14    -0.705518592642E+03   -0.28310E-04   -0.12572E-04 10053   0.176E-02    0.553E-02
RMM:  15    -0.705518584304E+03    0.83385E-05   -0.42752E-05  8040   0.819E-03
   2 F= -.70551858E+03 E0= -.70551336E+03  d E =-.214647E+00
       N       E                     dE             d eps       ncg     rms          rms(c)
DAV:   1    -0.705131645323E+03    0.38695E+00   -0.36772E+01 11416   0.140E+01    0.259E+00
RMM:   2    -0.705783726215E+03   -0.65208E+00   -0.56615E+00 14263   0.403E+00    0.554E+00
RMM:   3    -0.705684309113E+03    0.99417E-01   -0.66405E-01 14097   0.144E+00    0.215E+00
RMM:   4    -0.705677948041E+03    0.63611E-02   -0.12800E-01 15126   0.566E-01    0.133E+00
RMM:   5    -0.705673048153E+03    0.48999E-02   -0.23962E-02 15384   0.214E-01    0.998E-01
RMM:   6    -0.705666185834E+03    0.68623E-02   -0.71589E-03 13148   0.112E-01    0.742E-01
RMM:   7    -0.705658641616E+03    0.75442E-02   -0.14278E-02 13002   0.136E-01    0.498E-01
RMM:   8    -0.705657715792E+03    0.92582E-03   -0.70901E-03 14349   0.971E-02    0.350E-01
RMM:   9    -0.705657682499E+03    0.33293E-04   -0.17579E-03 13192   0.524E-02    0.388E-01
RMM:  10    -0.705657283029E+03    0.39947E-03   -0.62226E-04 11684   0.338E-02    0.131E-01
RMM:  11    -0.705657299366E+03   -0.16337E-04   -0.24407E-04 10469   0.207E-02    0.499E-02
RMM:  12    -0.705657298389E+03    0.97623E-06   -0.88056E-05  9078   0.128E-02
   3 F= -.70565730E+03 E0= -.70565100E+03  d E =-.353361E+00
       N       E                     dE             d eps       ncg     rms          rms(c)
DAV:   1    -0.705151488626E+03    0.50581E+00   -0.60736E+01 10624   0.150E+01    0.254E+00
RMM:   2    -0.705847847078E+03   -0.69636E+00   -0.66704E+00 13886   0.417E+00    0.610E+00
RMM:   3    -0.705828123717E+03    0.19723E-01   -0.78016E-01 15020   0.136E+00    0.170E+00
RMM:   4    -0.705810043995E+03    0.18080E-01   -0.11875E-01 14735   0.534E-01    0.109E+00
RMM:   5    -0.705808999448E+03    0.10445E-02   -0.28043E-02 15405   0.204E-01    0.938E-01
RMM:   6    -0.705802939715E+03    0.60597E-02   -0.10179E-02 12467   0.137E-01    0.836E-01
RMM:   7    -0.705800026781E+03    0.29129E-02   -0.98819E-03 12826   0.111E-01    0.572E-01
RMM:   8    -0.705799499870E+03    0.52691E-03   -0.46938E-03 13971   0.891E-02    0.315E-01
RMM:   9    -0.705799287606E+03    0.21226E-03   -0.90995E-04 12245   0.411E-02    0.217E-01
RMM:  10    -0.705799158616E+03    0.12899E-03   -0.37807E-04  9796   0.286E-02    0.128E-01
RMM:  11    -0.705799124921E+03    0.33695E-04   -0.28384E-04 10611   0.190E-02    0.450E-02
RMM:  12    -0.705799144115E+03   -0.19194E-04   -0.66438E-05  9277   0.130E-02    0.344E-02
RMM:  13    -0.705799142018E+03    0.20966E-05   -0.23263E-05  6926   0.650E-03
   4 F= -.70579914E+03 E0= -.70579496E+03  d E =-.141844E+00
       N       E                     dE             d eps       ncg     rms          rms(c)
DAV:   1    -0.705756524934E+03    0.42619E-01   -0.47394E+00 11248   0.418E+00    0.716E-01
RMM:   2    -0.705813032232E+03   -0.56507E-01   -0.51320E-01 13893   0.117E+00    0.174E+00
RMM:   3    -0.705808073890E+03    0.49583E-02   -0.59072E-02 14355   0.391E-01    0.554E-01
RMM:   4    -0.705807097501E+03    0.97639E-03   -0.10558E-02 14463   0.151E-01    0.290E-01
RMM:   5    -0.705806956641E+03    0.14086E-03   -0.21995E-03 14129   0.575E-02    0.203E-01
RMM:   6    -0.705806541422E+03    0.41522E-03   -0.69041E-04 11923   0.327E-02    0.163E-01
RMM:   7    -0.705806355461E+03    0.18596E-03   -0.91670E-04 12008   0.356E-02    0.110E-01
RMM:   8    -0.705806351006E+03    0.44543E-05   -0.21409E-04 10158   0.217E-02    0.636E-02
RMM:   9    -0.705806329884E+03    0.21123E-04   -0.51161E-05  8629   0.986E-03    0.184E-02
RMM:  10    -0.705806334447E+03   -0.45631E-05   -0.18665E-05  7048   0.664E-03
   5 F= -.70580633E+03 E0= -.70580275E+03  d E =-.149036E+00
       N       E                     dE             d eps       ncg     rms          rms(c)
DAV:   1    -0.705342225329E+03    0.46410E+00   -0.61758E+01 10640   0.143E+01    0.210E+00
RMM:   2    -0.705876721942E+03   -0.53450E+00   -0.54546E+00 13939   0.398E+00    0.288E+00
RMM:   3    -0.705909060835E+03   -0.32339E-01   -0.66087E-01 15198   0.131E+00    0.158E+00
RMM:   4    -0.705899676450E+03    0.93844E-02   -0.10807E-01 14873   0.539E-01    0.917E-01
RMM:   5    -0.705899248410E+03    0.42804E-03   -0.27785E-02 15430   0.190E-01    0.652E-01
RMM:   6    -0.705897559745E+03    0.16887E-02   -0.52080E-03 14915   0.883E-02    0.691E-01
RMM:   7    -0.705893634023E+03    0.39257E-02   -0.16935E-02 13203   0.148E-01    0.530E-01
RMM:   8    -0.705893104412E+03    0.52961E-03   -0.35449E-03 13655   0.873E-02    0.289E-01
RMM:   9    -0.705892779234E+03    0.32518E-03   -0.69600E-04 11986   0.307E-02    0.118E-01
RMM:  10    -0.705892801964E+03   -0.22730E-04   -0.31064E-04 10802   0.237E-02    0.476E-02
RMM:  11    -0.705892818293E+03   -0.16329E-04   -0.13122E-04  9809   0.136E-02    0.256E-02
RMM:  12    -0.705892822273E+03   -0.39800E-05   -0.29764E-05  7931   0.950E-03
   6 F= -.70589282E+03 E0= -.70589067E+03  d E =-.864878E-01
       N       E                     dE             d eps       ncg     rms          rms(c)
DAV:   1    -0.705888465584E+03    0.43527E-02   -0.59209E-01 11736   0.140E+00    0.204E-01
RMM:   2    -0.705893566148E+03   -0.51006E-02   -0.51086E-02 13941   0.387E-01    0.284E-01
RMM:   3    -0.705893719164E+03   -0.15302E-03   -0.60671E-03 14721   0.128E-01    0.150E-01
RMM:   4    -0.705893695443E+03    0.23721E-04   -0.11384E-03 12933   0.518E-02    0.990E-02
RMM:   5    -0.705893687071E+03    0.83725E-05   -0.27796E-04 11003   0.233E-02    0.639E-02
RMM:   6    -0.705893638454E+03    0.48616E-04   -0.10477E-04  9701   0.140E-02    0.375E-02
RMM:   7    -0.705893630800E+03    0.76539E-05   -0.77246E-05  9557   0.117E-02
   7 F= -.70589363E+03 E0= -.70589158E+03  d E =-.872964E-01
       N       E                     dE             d eps       ncg     rms          rms(c)
DAV:   1    -0.705307348529E+03    0.58629E+00   -0.32055E+01 10744   0.147E+01    0.230E+00
RMM:   2    -0.705898210863E+03   -0.59086E+00   -0.62644E+00 14060   0.375E+00    0.939E-01
RMM:   3    -0.705943275415E+03   -0.45065E-01   -0.52592E-01 15665   0.104E+00    0.131E+00
RMM:   4    -0.705943562060E+03   -0.28664E-03   -0.82730E-02 15453   0.381E-01    0.828E-01
RMM:   5    -0.705942433479E+03    0.11286E-02   -0.16863E-02 15741   0.162E-01    0.629E-01
RMM:   6    -0.705941199003E+03    0.12345E-02   -0.49820E-03 14290   0.792E-02    0.552E-01
RMM:   7    -0.705938970973E+03    0.22280E-02   -0.36957E-03 12095   0.826E-02    0.350E-01
RMM:   8    -0.705938481980E+03    0.48899E-03   -0.49476E-03 13163   0.828E-02    0.317E-01
RMM:   9    -0.705938248352E+03    0.23363E-03   -0.74736E-04 13175   0.382E-02    0.133E-01
RMM:  10    -0.705938332203E+03   -0.83851E-04   -0.18133E-04  9887   0.195E-02    0.889E-02
RMM:  11    -0.705938341943E+03   -0.97393E-05   -0.18002E-04 10286   0.163E-02    0.682E-02
RMM:  12    -0.705938348542E+03   -0.65998E-05   -0.41430E-05  8507   0.106E-02
   8 F= -.70593835E+03 E0= -.70593706E+03  d E =-.447177E-01
       N       E                     dE             d eps       ncg     rms          rms(c)
DAV:   1    -0.705918776569E+03    0.19565E-01   -0.10609E+00 11384   0.268E+00    0.380E-01
RMM:   2    -0.705938468803E+03   -0.19692E-01   -0.20726E-01 14067   0.676E-01    0.263E-01
RMM:   3    -0.705939915753E+03   -0.14470E-02   -0.15932E-02 15384   0.187E-01    0.357E-01
RMM:   4    -0.705939637344E+03    0.27841E-03   -0.29704E-03 14119   0.802E-02    0.162E-01
RMM:   5    -0.705939578475E+03    0.58870E-04   -0.66795E-04 11887   0.317E-02    0.116E-01
RMM:   6    -0.705939509305E+03    0.69170E-04   -0.16506E-04  9453   0.171E-02    0.582E-02
RMM:   7    -0.705939480382E+03    0.28923E-04   -0.18103E-04 10491   0.177E-02    0.353E-02
RMM:   8    -0.705939478766E+03    0.16160E-05   -0.37106E-05  8273   0.950E-03
   9 F= -.70593948E+03 E0= -.70593830E+03  d E =-.458480E-01
       N       E                     dE             d eps       ncg     rms          rms(c)
DAV:   1    -0.705544218395E+03    0.39526E+00   -0.24638E+01 10680   0.123E+01    0.179E+00
RMM:   2    -0.705941662656E+03   -0.39744E+00   -0.41704E+00 14036   0.316E+00    0.133E+00
RMM:   3    -0.705972471432E+03   -0.30809E-01   -0.40268E-01 15548   0.978E-01    0.144E+00
RMM:   4    -0.705970924186E+03    0.15472E-02   -0.72141E-02 14952   0.406E-01    0.798E-01
RMM:   5    -0.705969622945E+03    0.13012E-02   -0.17139E-02 15348   0.151E-01    0.544E-01
RMM:   6    -0.705968775485E+03    0.84746E-03   -0.44714E-03 14425   0.685E-02    0.410E-01
RMM:   7    -0.705967245270E+03    0.15302E-02   -0.23698E-03 12659   0.610E-02    0.210E-01
RMM:   8    -0.705967029699E+03    0.21557E-03   -0.23936E-03 12807   0.559E-02    0.106E-01
RMM:   9    -0.705967032649E+03   -0.29500E-05   -0.35531E-04 11731   0.264E-02    0.906E-02
RMM:  10    -0.705966993744E+03    0.38906E-04   -0.12113E-04  9660   0.140E-02    0.436E-02
RMM:  11    -0.705967009197E+03   -0.15453E-04   -0.54823E-05  8722   0.103E-02    0.335E-02
RMM:  12    -0.705967010244E+03   -0.10469E-05   -0.15886E-05  6365   0.664E-03
  10 F= -.70596701E+03 E0= -.70596638E+03  d E =-.275315E-01
       N       E                     dE             d eps       ncg     rms          rms(c)
DAV:   1    -0.705960751648E+03    0.62575E-02   -0.39314E-01 11640   0.156E+00    0.205E-01
RMM:   2    -0.705966979972E+03   -0.62283E-02   -0.65698E-02 14005   0.392E-01    0.872E-02
RMM:   3    -0.705967474978E+03   -0.49501E-03   -0.57318E-03 15616   0.114E-01    0.142E-01
RMM:   4    -0.705967471318E+03    0.36594E-05   -0.95374E-04 13192   0.463E-02    0.732E-02
RMM:   5    -0.705967461208E+03    0.10110E-04   -0.23542E-04 10777   0.206E-02    0.627E-02
RMM:   6    -0.705967427566E+03    0.33643E-04   -0.64646E-05  8593   0.113E-02    0.330E-02
RMM:   7    -0.705967421045E+03    0.65206E-05   -0.86563E-05  9367   0.123E-02
  11 F= -.70596742E+03 E0= -.70596684E+03  d E =-.279423E-01
       N       E                     dE             d eps       ncg     rms          rms(c)
DAV:   1    -0.705822209331E+03    0.14522E+00   -0.15914E+01 10792   0.803E+00    0.114E+00
RMM:   2    -0.705977289970E+03   -0.15508E+00   -0.15803E+00 13818   0.220E+00    0.143E+00
RMM:   3    -0.705985505027E+03   -0.82151E-02   -0.18508E-01 15393   0.735E-01    0.821E-01
RMM:   4    -0.705985727403E+03   -0.22238E-03   -0.29022E-02 15083   0.283E-01    0.483E-01
RMM:   5    -0.705984564957E+03    0.11624E-02   -0.61025E-03 14910   0.111E-01    0.347E-01
RMM:   6    -0.705984080720E+03    0.48424E-03   -0.24556E-03 13295   0.588E-02    0.237E-01
RMM:   7    -0.705983919242E+03    0.16148E-03   -0.12111E-03 12304   0.490E-02    0.201E-01
RMM:   8    -0.705983791943E+03    0.12730E-03   -0.29005E-04 10675   0.219E-02    0.931E-02
RMM:   9    -0.705983817216E+03   -0.25272E-04   -0.96781E-05  9173   0.136E-02    0.637E-02
RMM:  10    -0.705983829748E+03   -0.12533E-04   -0.65488E-05  8598   0.100E-02    0.214E-02
RMM:  11    -0.705983837010E+03   -0.72615E-05   -0.18500E-05  6940   0.824E-03
  12 F= -.70598384E+03 E0= -.70598351E+03  d E =-.164160E-01
       N       E                     dE             d eps       ncg     rms          rms(c)
DAV:   1    -0.705982296631E+03    0.15331E-02   -0.16635E-01 11656   0.821E-01    0.106E-01
RMM:   2    -0.705983858197E+03   -0.15616E-02   -0.16100E-02 13816   0.220E-01    0.110E-01
RMM:   3    -0.705983977941E+03   -0.11974E-03   -0.17634E-03 15372   0.719E-02    0.946E-02
RMM:   4    -0.705983970029E+03    0.79125E-05   -0.32704E-04 12571   0.288E-02    0.426E-02
RMM:   5    -0.705983965332E+03    0.46966E-05   -0.72471E-05  8793   0.138E-02
  13 F= -.70598397E+03 E0= -.70598367E+03  d E =-.165443E-01
       N       E                     dE             d eps       ncg     rms          rms(c)
DAV:   1    -0.705946032343E+03    0.37938E-01   -0.10248E+01 10888   0.499E+00    0.860E-01
RMM:   2    -0.705991948749E+03   -0.45916E-01   -0.44692E-01 13508   0.133E+00    0.126E+00
RMM:   3    -0.705994192354E+03   -0.22436E-02   -0.82571E-02 15319   0.497E-01    0.602E-01
RMM:   4    -0.705994433390E+03   -0.24104E-03   -0.10602E-02 15136   0.188E-01    0.335E-01
RMM:   5    -0.705993984146E+03    0.44924E-03   -0.22353E-03 14776   0.775E-02    0.181E-01
RMM:   6    -0.705993499788E+03    0.48436E-03   -0.18370E-03 12378   0.545E-02    0.963E-02
RMM:   7    -0.705993507855E+03   -0.80662E-05   -0.44974E-04 12884   0.295E-02    0.707E-02
RMM:   8    -0.705993500475E+03    0.73793E-05   -0.98312E-05  8918   0.162E-02
  14 F= -.70599350E+03 E0= -.70599328E+03  d E =-.953514E-02
       N       E                     dE             d eps       ncg     rms          rms(c)
DAV:   1    -0.705993301056E+03    0.20680E-03   -0.60255E-02 11936   0.384E-01    0.640E-02
RMM:   2    -0.705993575462E+03   -0.27441E-03   -0.27328E-03 13461   0.103E-01    0.826E-02
RMM:   3    -0.705993602066E+03   -0.26604E-04   -0.50171E-04 14802   0.383E-02    0.486E-02
RMM:   4    -0.705993600235E+03    0.18311E-05   -0.62480E-05 10351   0.150E-02
  15 F= -.70599360E+03 E0= -.70599340E+03  d E =-.963490E-02
       N       E                     dE             d eps       ncg     rms          rms(c)
DAV:   1    -0.705966046695E+03    0.27555E-01   -0.34201E+00 11224   0.374E+00    0.530E-01
RMM:   2    -0.705996624216E+03   -0.30578E-01   -0.31446E-01 13782   0.103E+00    0.560E-01
RMM:   3    -0.705999012457E+03   -0.23882E-02   -0.36739E-02 15506   0.327E-01    0.413E-01
RMM:   4    -0.705998902857E+03    0.10960E-03   -0.51083E-03 15106   0.121E-01    0.202E-01
RMM:   5    -0.705998840815E+03    0.62042E-04   -0.10036E-03 14741   0.512E-02    0.151E-01
RMM:   6    -0.705998522073E+03    0.31874E-03   -0.92312E-04 12483   0.403E-02    0.413E-02
RMM:   7    -0.705998546791E+03   -0.24718E-04   -0.21301E-04 11324   0.208E-02    0.441E-02
RMM:   8    -0.705998539516E+03    0.72744E-05   -0.40571E-05  7763   0.110E-02
  16 F= -.70599854E+03 E0= -.70599834E+03  d E =-.493928E-02
       N       E                     dE             d eps       ncg     rms          rms(c)
DAV:   1    -0.705997325146E+03    0.12216E-02   -0.15461E-01 11880   0.792E-01    0.111E-01
RMM:   2    -0.705998708901E+03   -0.13838E-02   -0.14272E-02 13782   0.220E-01    0.110E-01
RMM:   3    -0.705998818239E+03   -0.10934E-03   -0.16463E-03 15340   0.703E-02    0.808E-02
RMM:   4    -0.705998818475E+03   -0.23621E-06   -0.26815E-04 12932   0.267E-02    0.412E-02
RMM:   5    -0.705998817847E+03    0.62786E-06   -0.53375E-05  8672   0.139E-02
  17 F= -.70599882E+03 E0= -.70599862E+03  d E =-.521761E-02
       N       E                     dE             d eps       ncg     rms          rms(c)
DAV:   1    -0.705987369952E+03    0.11449E-01   -0.28922E+00 11320   0.283E+00    0.461E-01
RMM:   2    -0.706001910238E+03   -0.14540E-01   -0.14035E-01 13492   0.767E-01    0.705E-01
RMM:   3    -0.706002508388E+03   -0.59815E-03   -0.25772E-02 15251   0.289E-01    0.341E-01
RMM:   4    -0.706002598944E+03   -0.90556E-04   -0.35795E-03 15077   0.111E-01    0.166E-01
RMM:   5    -0.706002487746E+03    0.11120E-03   -0.70369E-04 14344   0.442E-02    0.107E-01
RMM:   6    -0.706002352713E+03    0.13503E-03   -0.57983E-04 12443   0.323E-02    0.604E-02
RMM:   7    -0.706002353324E+03   -0.61093E-06   -0.12518E-04 10228   0.163E-02    0.393E-02
RMM:   8    -0.706002352071E+03    0.12528E-05   -0.32991E-05  7448   0.948E-03
  18 F= -.70600235E+03 E0= -.70600218E+03  d E =-.353422E-02
       N       E                     dE             d eps       ncg     rms          rms(c)
DAV:   1    -0.706001523277E+03    0.83005E-03   -0.21593E-01 11960   0.774E-01    0.121E-01
RMM:   2    -0.706002608524E+03   -0.10852E-02   -0.10595E-02 13510   0.210E-01    0.180E-01
RMM:   3    -0.706002672922E+03   -0.64398E-04   -0.18935E-03 15180   0.783E-02    0.947E-02
RMM:   4    -0.706002674368E+03   -0.14458E-05   -0.27321E-04 12816   0.312E-02    0.431E-02
RMM:   5    -0.706002668486E+03    0.58821E-05   -0.67135E-05  8992   0.167E-02
  19 F= -.70600267E+03 E0= -.70600250E+03  d E =-.385064E-02
       N       E                     dE             d eps       ncg     rms          rms(c)
DAV:   1    -0.705989216022E+03    0.13458E-01   -0.29087E+00 11344   0.292E+00    0.579E-01
RMM:   2    -0.706006414569E+03   -0.17199E-01   -0.15813E-01 13546   0.790E-01    0.944E-01
RMM:   3    -0.706005432931E+03    0.98164E-03   -0.26590E-02 15123   0.299E-01    0.384E-01
RMM:   4    -0.706005646539E+03   -0.21361E-03   -0.41520E-03 15036   0.118E-01    0.190E-01
RMM:   5    -0.706005498728E+03    0.14781E-03   -0.87615E-04 14374   0.468E-02    0.106E-01
RMM:   6    -0.706005376299E+03    0.12243E-03   -0.50748E-04 12382   0.308E-02    0.543E-02
RMM:   7    -0.706005382496E+03   -0.61975E-05   -0.14680E-04 10280   0.172E-02    0.405E-02
RMM:   8    -0.706005380562E+03    0.19340E-05   -0.44596E-05  7889   0.107E-02
  20 F= -.70600538E+03 E0= -.70600526E+03  d E =-.271208E-02
       N       E                     dE             d eps       ncg     rms          rms(c)
DAV:   1    -0.706005050372E+03    0.33212E-03   -0.80663E-02 12224   0.486E-01    0.960E-02
RMM:   2    -0.706005529423E+03   -0.47905E-03   -0.44490E-03 13554   0.132E-01    0.154E-01
RMM:   3    -0.706005512459E+03    0.16964E-04   -0.73299E-04 14919   0.494E-02    0.696E-02
RMM:   4    -0.706005515406E+03   -0.29463E-05   -0.12727E-04 11647   0.214E-02    0.303E-02
RMM:   5    -0.706005512368E+03    0.30379E-05   -0.30317E-05  7159   0.112E-02
  21 F= -.70600551E+03 E0= -.70600539E+03  d E =-.284388E-02
       N       E                     dE             d eps       ncg     rms          rms(c)
DAV:   1    -0.705995449044E+03    0.10066E-01   -0.30354E+00 11304   0.274E+00    0.589E-01
RMM:   2    -0.706009201884E+03   -0.13753E-01   -0.12067E-01 13325   0.716E-01    0.963E-01
RMM:   3    -0.706007955710E+03    0.12462E-02   -0.24849E-02 14870   0.292E-01    0.379E-01
RMM:   4    -0.706008181376E+03   -0.22567E-03   -0.39899E-03 15022   0.118E-01    0.184E-01
RMM:   5    -0.706008034356E+03    0.14702E-03   -0.80366E-04 14220   0.449E-02    0.922E-02
RMM:   6    -0.706007941954E+03    0.92402E-04   -0.46069E-04 12114   0.297E-02    0.334E-02
RMM:   7    -0.706007952114E+03   -0.10160E-04   -0.13208E-04 10022   0.164E-02    0.238E-02
RMM:   8    -0.706007951727E+03    0.38714E-06   -0.41312E-05  7679   0.972E-03
  22 F= -.70600795E+03 E0= -.70600787E+03  d E =-.243936E-02
       N       E                     dE             d eps       ncg     rms          rms(c)
DAV:   1    -0.706006768978E+03    0.11831E-02   -0.37163E-01 11848   0.957E-01    0.203E-01
RMM:   2    -0.706008458615E+03   -0.16896E-02   -0.14977E-02 13359   0.251E-01    0.333E-01
RMM:   3    -0.706008328132E+03    0.13048E-03   -0.30158E-03 14900   0.101E-01    0.136E-01
RMM:   4    -0.706008349828E+03   -0.21696E-04   -0.49167E-04 13289   0.419E-02    0.625E-02
RMM:   5    -0.706008333850E+03    0.15978E-04   -0.11266E-04 10207   0.199E-02    0.318E-02
RMM:   6    -0.706008323161E+03    0.10689E-04   -0.73064E-05  9214   0.125E-02    0.959E-03
RMM:   7    -0.706008324176E+03   -0.10156E-05   -0.17875E-05  6658   0.746E-03
  23 F= -.70600832E+03 E0= -.70600826E+03  d E =-.281181E-02
       N       E                     dE             d eps       ncg     rms          rms(c)
DAV:   1    -0.706002161629E+03    0.61615E-02   -0.14824E+00 11408   0.191E+00    0.399E-01
RMM:   2    -0.706008815482E+03   -0.66539E-02   -0.59219E-02 13328   0.501E-01    0.647E-01
RMM:   3    -0.706008331729E+03    0.48375E-03   -0.12096E-02 14790   0.204E-01    0.257E-01
RMM:   4    -0.706008421614E+03   -0.89885E-04   -0.19761E-03 14917   0.829E-02    0.121E-01
RMM:   5    -0.706008357607E+03    0.64007E-04   -0.39676E-04 12502   0.319E-02    0.619E-02
RMM:   6    -0.706008313499E+03    0.44108E-04   -0.24117E-04 10590   0.219E-02    0.200E-02
RMM:   7    -0.706008318716E+03   -0.52169E-05   -0.64532E-05  8728   0.125E-02
  24 F= -.70600832E+03 E0= -.70600827E+03  d E =-.280635E-02
       N       E                     dE             d eps       ncg     rms          rms(c)
DAV:   1    -0.706006808863E+03    0.15046E-02   -0.39772E-01 11272   0.990E-01    0.203E-01
RMM:   2    -0.706008561313E+03   -0.17524E-02   -0.15706E-02 13339   0.259E-01    0.332E-01
RMM:   3    -0.706008455326E+03    0.10599E-03   -0.32276E-03 14898   0.105E-01    0.138E-01
RMM:   4    -0.706008470225E+03   -0.14898E-04   -0.49416E-04 13351   0.422E-02    0.594E-02
RMM:   5    -0.706008454290E+03    0.15934E-04   -0.10844E-04 10289   0.200E-02    0.324E-02
RMM:   6    -0.706008440466E+03    0.13824E-04   -0.77456E-05  9351   0.132E-02    0.100E-02
RMM:   7    -0.706008441312E+03   -0.84527E-06   -0.16585E-05  6554   0.747E-03
  25 F= -.70600844E+03 E0= -.70600838E+03  d E =-.292894E-02
       N       E                     dE             d eps       ncg     rms          rms(c)
DAV:   1    -0.706003065005E+03    0.53755E-02   -0.15757E+00 11288   0.201E+00    0.426E-01
RMM:   2    -0.706010567081E+03   -0.75021E-02   -0.66767E-02 13348   0.523E-01    0.682E-01
RMM:   3    -0.706009944345E+03    0.62274E-03   -0.13012E-02 14785   0.212E-01    0.276E-01
RMM:   4    -0.706010022069E+03   -0.77724E-04   -0.21279E-03 14811   0.856E-02    0.121E-01
RMM:   5    -0.706009958267E+03    0.63802E-04   -0.43046E-04 12592   0.329E-02    0.670E-02
RMM:   6    -0.706009906146E+03    0.52121E-04   -0.25561E-04 10592   0.225E-02    0.202E-02
RMM:   7    -0.706009912077E+03   -0.59309E-05   -0.68795E-05  8797   0.127E-02
  26 F= -.70600991E+03 E0= -.70600987E+03  d E =-.147077E-02
       N       E                     dE             d eps       ncg     rms          rms(c)
DAV:   1    -0.705999102501E+03    0.10804E-01   -0.26244E+00 11500   0.259E+00    0.542E-01
RMM:   2    -0.706011528987E+03   -0.12426E-01   -0.11179E-01 13356   0.677E-01    0.846E-01
RMM:   3    -0.706010688278E+03    0.84071E-03   -0.21993E-02 14749   0.275E-01    0.340E-01
RMM:   4    -0.706010802298E+03   -0.11402E-03   -0.36235E-03 15011   0.111E-01    0.152E-01
RMM:   5    -0.706010704996E+03    0.97303E-04   -0.73445E-04 13785   0.416E-02    0.831E-02
RMM:   6    -0.706010625720E+03    0.79275E-04   -0.41499E-04 11660   0.279E-02    0.255E-02
RMM:   7    -0.706010636541E+03   -0.10821E-04   -0.11493E-04  9717   0.152E-02    0.189E-02
RMM:   8    -0.706010635875E+03    0.66609E-06   -0.37700E-05  7560   0.909E-03
  27 F= -.70601064E+03 E0= -.70601061E+03  d E =-.219456E-02
       N       E                     dE             d eps       ncg     rms          rms(c)
DAV:   1    -0.706007355709E+03    0.32808E-02   -0.96360E-01 11208   0.156E+00    0.300E-01
RMM:   2    -0.706011933264E+03   -0.45776E-02   -0.43246E-02 13391   0.411E-01    0.438E-01
RMM:   3    -0.706011925684E+03    0.75802E-05   -0.79862E-03 14987   0.161E-01    0.198E-01
RMM:   4    -0.706011926291E+03   -0.60707E-06   -0.12144E-03 14631   0.637E-02    0.832E-02
RMM:   5    -0.706011898340E+03    0.27951E-04   -0.27476E-04 11882   0.262E-02    0.533E-02
RMM:   6    -0.706011864871E+03    0.33469E-04   -0.18507E-04 10394   0.186E-02    0.171E-02
RMM:   7    -0.706011867750E+03   -0.28783E-05   -0.43504E-05  7977   0.104E-02
  28 F= -.70601187E+03 E0= -.70601185E+03  d E =-.123187E-02
       N       E                     dE             d eps       ncg     rms          rms(c)
DAV:   1    -0.706010638833E+03    0.12260E-02   -0.33206E-01 11696   0.918E-01    0.178E-01
RMM:   2    -0.706012237943E+03   -0.15991E-02   -0.15024E-02 13405   0.240E-01    0.265E-01
RMM:   3    -0.706012216307E+03    0.21637E-04   -0.27468E-03 14827   0.953E-02    0.117E-01
RMM:   4    -0.706012217131E+03   -0.82422E-06   -0.43915E-04 12936   0.381E-02    0.482E-02
RMM:   5    -0.706012208411E+03    0.87196E-05   -0.10759E-04  9582   0.189E-02    0.307E-02
RMM:   6    -0.706012198127E+03    0.10284E-04   -0.68419E-05  9030   0.118E-02    0.916E-03
RMM:   7    -0.706012198971E+03   -0.84328E-06   -0.16871E-05  6658   0.725E-03
  29 F= -.70601220E+03 E0= -.70601218E+03  d E =-.156310E-02
       N       E                     dE             d eps       ncg     rms          rms(c)
DAV:   1    -0.706005812734E+03    0.63854E-02   -0.13256E+00 11180   0.183E+00    0.344E-01
RMM:   2    -0.706012052252E+03   -0.62395E-02   -0.59396E-02 13383   0.481E-01    0.493E-01
RMM:   3    -0.706012099043E+03   -0.46790E-04   -0.10994E-02 14926   0.190E-01    0.222E-01
RMM:   4    -0.706012092407E+03    0.66360E-05   -0.16736E-03 14827   0.746E-02    0.928E-02
RMM:   5    -0.706012057599E+03    0.34808E-04   -0.37092E-04 12401   0.298E-02    0.607E-02
RMM:   6    -0.706012012612E+03    0.44987E-04   -0.23384E-04 10531   0.210E-02    0.204E-02
RMM:   7    -0.706012016864E+03   -0.42525E-05   -0.58313E-05  8473   0.117E-02
  30 F= -.70601202E+03 E0= -.70601201E+03  d E =-.138099E-02
       N       E                     dE             d eps       ncg     rms          rms(c)
DAV:   1    -0.706009532947E+03    0.24797E-02   -0.59079E-01 11144   0.122E+00    0.224E-01
RMM:   2    -0.706012261118E+03   -0.27282E-02   -0.26130E-02 13393   0.320E-01    0.320E-01
RMM:   3    -0.706012311217E+03   -0.50099E-04   -0.47289E-03 15007   0.124E-01    0.153E-01
RMM:   4    -0.706012297704E+03    0.13513E-04   -0.70785E-04 13945   0.488E-02    0.596E-02
RMM:   5    -0.706012282679E+03    0.15025E-04   -0.15887E-04 10671   0.217E-02    0.413E-02
RMM:   6    -0.706012259286E+03    0.23393E-04   -0.11985E-04  9915   0.157E-02    0.107E-02
RMM:   7    -0.706012260837E+03   -0.15510E-05   -0.25861E-05  7214   0.865E-03
  31 F= -.70601226E+03 E0= -.70601225E+03  d E =-.162496E-02
       N       E                     dE             d eps       ncg     rms          rms(c)
DAV:   1    -0.706006596031E+03    0.56633E-02   -0.10215E+00 11128   0.179E+00    0.298E-01
RMM:   2    -0.706013108000E+03   -0.65120E-02   -0.64352E-02 13543   0.481E-01    0.401E-01
RMM:   3    -0.706013306269E+03   -0.19827E-03   -0.92051E-03 15169   0.173E-01    0.209E-01
RMM:   4    -0.706013279650E+03    0.26619E-04   -0.14206E-03 14553   0.681E-02    0.821E-02
RMM:   5    -0.706013254200E+03    0.25450E-04   -0.32402E-04 11989   0.278E-02    0.649E-02
RMM:   6    -0.706013201556E+03    0.52643E-04   -0.24480E-04 10778   0.210E-02    0.217E-02
RMM:   7    -0.706013203393E+03   -0.18369E-05   -0.45023E-05  8269   0.106E-02
  32 F= -.70601320E+03 E0= -.70601319E+03  d E =-.942556E-03
       N       E                     dE             d eps       ncg     rms          rms(c)
DAV:   1    -0.706011424073E+03    0.17775E-02   -0.29072E-01 11592   0.954E-01    0.165E-01
RMM:   2    -0.706013317762E+03   -0.18937E-02   -0.18588E-02 13563   0.258E-01    0.229E-01
RMM:   3    -0.706013356301E+03   -0.38540E-04   -0.27232E-03 14953   0.942E-02    0.114E-01
RMM:   4    -0.706013350208E+03    0.60931E-05   -0.43965E-04 12861   0.379E-02    0.441E-02
RMM:   5    -0.706013343885E+03    0.63229E-05   -0.11013E-04  9546   0.189E-02    0.333E-02
RMM:   6    -0.706013331443E+03    0.12442E-04   -0.73857E-05  9225   0.120E-02    0.106E-02
RMM:   7    -0.706013331864E+03   -0.42054E-06   -0.16368E-05  6596   0.709E-03
  33 F= -.70601333E+03 E0= -.70601332E+03  d E =-.107103E-02
       N       E                     dE             d eps       ncg     rms          rms(c)
DAV:   1    -0.706008451736E+03    0.48797E-02   -0.75018E-01 11016   0.158E+00    0.251E-01
RMM:   2    -0.706013645325E+03   -0.51936E-02   -0.52708E-02 13604   0.428E-01    0.286E-01
RMM:   3    -0.706014007794E+03   -0.36247E-03   -0.71641E-03 15395   0.146E-01    0.185E-01
RMM:   4    -0.706013955722E+03    0.52071E-04   -0.10537E-03 14183   0.583E-02    0.711E-02
RMM:   5    -0.706013942151E+03    0.13571E-04   -0.24227E-04 11226   0.245E-02    0.565E-02
RMM:   6    -0.706013900237E+03    0.41914E-04   -0.21808E-04 10706   0.202E-02    0.161E-02
RMM:   7    -0.706013901661E+03   -0.14240E-05   -0.37420E-05  7796   0.991E-03
  34 F= -.70601390E+03 E0= -.70601390E+03  d E =-.569797E-03
       N       E                     dE             d eps       ncg     rms          rms(c)
DAV:   1    -0.706013776711E+03    0.12353E-03   -0.18105E-02 12224   0.245E-01    0.439E-02
RMM:   2    -0.706013910833E+03   -0.13412E-03   -0.13515E-03 13599   0.682E-02    0.532E-02
RMM:   3    -0.706013917032E+03   -0.61987E-05   -0.18455E-04 12694   0.245E-02    0.314E-02
RMM:   4    -0.706013916595E+03    0.43650E-06   -0.41267E-05  7239   0.132E-02
  35 F= -.70601392E+03 E0= -.70601391E+03  d E =-.584732E-03
       N       E                     dE             d eps       ncg     rms          rms(c)
DAV:   1    -0.706013868309E+03    0.48723E-04   -0.53972E-03 11112   0.134E-01    0.233E-02
RMM:   2    -0.706013906708E+03   -0.38400E-04   -0.41419E-04 12465   0.369E-02    0.149E-02
RMM:   3    -0.706013909146E+03   -0.24381E-05   -0.47214E-05  9180   0.125E-02
  36 F= -.70601391E+03 E0= -.70601390E+03  d E =-.577282E-03
       N       E                     dE             d eps       ncg     rms          rms(c)
DAV:   1    -0.706013897694E+03    0.90141E-05   -0.22022E-03 11064   0.861E-02    0.178E-02
RMM:   2    -0.706013914761E+03   -0.17067E-04   -0.16466E-04 10743   0.236E-02    0.253E-02
RMM:   3    -0.706013913088E+03    0.16735E-05   -0.25013E-05  6778   0.101E-02
  37 F= -.70601391E+03 E0= -.70601391E+03  d E =-.581224E-03
       N       E                     dE             d eps       ncg     rms          rms(c)
DAV:   1    -0.706013907466E+03    0.72948E-05   -0.53735E-04 10356   0.432E-02    0.100E-02
RMM:   2    -0.706013912754E+03   -0.52878E-05   -0.49891E-05  7888   0.132E-02
  38 F= -.70601391E+03 E0= -.70601391E+03  d E =-.580890E-03
       N       E                     dE             d eps       ncg     rms          rms(c)
DAV:   1    -0.706013911211E+03   -0.37442E-05   -0.25497E-04 10368   0.311E-02    0.561E-03
RMM:   2    -0.706013913594E+03   -0.23837E-05   -0.22433E-05  6324   0.943E-03
  39 F= -.70601391E+03 E0= -.70601391E+03  d E =-.581730E-03
       N       E                     dE             d eps       ncg     rms          rms(c)
DAV:   1    -0.706013911451E+03   -0.24034E-06   -0.58854E-05  9000   0.162E-02    0.403E-03
RMM:   2    -0.706013912291E+03   -0.83975E-06   -0.69049E-06  5297   0.643E-03
  40 F= -.70601391E+03 E0= -.70601391E+03  d E =-.580427E-03
       N       E                     dE             d eps       ncg     rms          rms(c)
DAV:   1    -0.706013912769E+03   -0.13183E-05   -0.19590E-05  6936   0.930E-03    0.216E-03
RMM:   2    -0.706013913124E+03   -0.35480E-06   -0.33318E-06  5234   0.430E-03
  41 F= -.70601391E+03 E0= -.70601391E+03  d E =-.581260E-03
       N       E                     dE             d eps       ncg     rms          rms(c)
DAV:   1    -0.706013912209E+03    0.56056E-06   -0.32301E-06  5520   0.460E-03    0.152E-03
RMM:   2    -0.706013912308E+03   -0.99761E-07   -0.97218E-07  4690   0.223E-03
  42 F= -.70601391E+03 E0= -.70601391E+03  d E =-.580445E-03
       N       E                     dE             d eps       ncg     rms          rms(c)
DAV:   1    -0.706013913111E+03   -0.90246E-06   -0.99289E-07  5456   0.285E-03    0.669E-04
RMM:   2    -0.706013913142E+03   -0.30581E-07   -0.33039E-07  3722   0.144E-03
  43 F= -.70601391E+03 E0= -.70601391E+03  d E =-.581278E-03
       N       E                     dE             d eps       ncg     rms          rms(c)
DAV:   1    -0.706013013331E+03    0.89978E-03   -0.17624E-01 11016   0.751E-01    0.976E-02
RMM:   2    -0.706014110242E+03   -0.10969E-02   -0.11306E-02 13725   0.206E-01    0.971E-02
RMM:   3    -0.706014222345E+03   -0.11210E-03   -0.16218E-03 15305   0.714E-02    0.758E-02
RMM:   4    -0.706014214785E+03    0.75601E-05   -0.23282E-04 12539   0.284E-02    0.327E-02
RMM:   5    -0.706014211753E+03    0.30314E-05   -0.61668E-05  8616   0.148E-02
  44 F= -.70601421E+03 E0= -.70601421E+03  d E =-.298611E-03
       N       E                     dE             d eps       ncg     rms          rms(c)
DAV:   1    -0.706014196548E+03    0.18237E-04   -0.17850E-03 13864   0.967E-02    0.169E-02
RMM:   2    -0.706014211704E+03   -0.15156E-04   -0.16982E-04 12375   0.251E-02    0.146E-02
RMM:   3    -0.706014212236E+03   -0.53190E-06   -0.23428E-05  7666   0.920E-03
  45 F= -.70601421E+03 E0= -.70601421E+03  d E =-.299094E-03
       N       E                     dE             d eps       ncg     rms          rms(c)
DAV:   1    -0.706013958411E+03    0.25329E-03   -0.79450E-02 10904   0.468E-01    0.508E-02
RMM:   2    -0.706014323879E+03   -0.36547E-03   -0.38406E-03 13586   0.127E-01    0.277E-02
RMM:   3    -0.706014383387E+03   -0.59509E-04   -0.69916E-04 15172   0.463E-02    0.329E-02
RMM:   4    -0.706014385080E+03   -0.16925E-05   -0.84728E-05 11901   0.170E-02
  46 F= -.70601439E+03 E0= -.70601438E+03  d E =-.172844E-03
       N       E                     dE             d eps       ncg     rms          rms(c)
DAV:   1    -0.706014387245E+03   -0.38572E-05   -0.28029E-04 13936   0.320E-02    0.139E-02
RMM:   2    -0.706014387058E+03    0.18672E-06   -0.25542E-05  6729   0.995E-03
  47 F= -.70601439E+03 E0= -.70601438E+03  d E =-.174822E-03
       N       E                     dE             d eps       ncg     rms          rms(c)
DAV:   1    -0.706014386710E+03    0.53434E-06   -0.93962E-04 11280   0.531E-02    0.114E-02
RMM:   2    -0.706014394635E+03   -0.79242E-05   -0.76114E-05  8795   0.184E-02
  48 F= -.70601439E+03 E0= -.70601439E+03  d E =-.182399E-03
       N       E                     dE             d eps       ncg     rms          rms(c)
DAV:   1    -0.706013632859E+03    0.75385E-03   -0.79458E-02 11024   0.620E-01    0.746E-02
RMM:   2    -0.706014445123E+03   -0.81226E-03   -0.85543E-03 13702   0.163E-01    0.266E-02
RMM:   3    -0.706014524613E+03   -0.79489E-04   -0.94871E-04 15434   0.510E-02    0.328E-02
RMM:   4    -0.706014531481E+03   -0.68688E-05   -0.12460E-04 12297   0.192E-02    0.255E-02
RMM:   5    -0.706014527901E+03    0.35804E-05   -0.30083E-05  7661   0.105E-02
  49 F= -.70601453E+03 E0= -.70601452E+03  d E =-.133266E-03
       N       E                     dE             d eps       ncg     rms          rms(c)
DAV:   1    -0.706014079436E+03    0.45205E-03   -0.41690E-02 11304   0.455E-01    0.580E-02
RMM:   2    -0.706014517441E+03   -0.43800E-03   -0.46455E-03 13756   0.119E-01    0.175E-02
RMM:   3    -0.706014555234E+03   -0.37793E-04   -0.47061E-04 14329   0.364E-02    0.159E-02
RMM:   4    -0.706014559272E+03   -0.40384E-05   -0.65484E-05 10390   0.153E-02
  50 F= -.70601456E+03 E0= -.70601456E+03  d E =-.164637E-03
       N       E                     dE             d eps       ncg     rms          rms(c)
DAV:   1    -0.706014431258E+03    0.12398E-03   -0.10307E-02 11224   0.222E-01    0.308E-02
RMM:   2    -0.706014535712E+03   -0.10445E-03   -0.11185E-03 13591   0.593E-02    0.112E-02
RMM:   3    -0.706014547924E+03   -0.12213E-04   -0.13455E-04 12102   0.192E-02    0.244E-02
RMM:   4    -0.706014546650E+03    0.12742E-05   -0.22607E-05  6593   0.104E-02
  51 F= -.70601455E+03 E0= -.70601454E+03  d E =-.152015E-03
       N       E                     dE             d eps       ncg     rms          rms(c)
DAV:   1    -0.706014507627E+03    0.40297E-04   -0.41161E-03 10984   0.141E-01    0.216E-02
RMM:   2    -0.706014551663E+03   -0.44036E-04   -0.47758E-04 12464   0.378E-02    0.871E-03
RMM:   3    -0.706014555038E+03   -0.33748E-05   -0.48288E-05  9092   0.124E-02
  52 F= -.70601456E+03 E0= -.70601455E+03  d E =-.160403E-03
       N       E                     dE             d eps       ncg     rms          rms(c)
DAV:   1    -0.706014540295E+03    0.11368E-04   -0.99775E-04 10664   0.709E-02    0.118E-02
RMM:   2    -0.706014551801E+03   -0.11506E-04   -0.12165E-04  9547   0.189E-02    0.115E-02
RMM:   3    -0.706014551192E+03    0.60914E-06   -0.14354E-05  6242   0.806E-03
  53 F= -.70601455E+03 E0= -.70601455E+03  d E =-.156558E-03
       N       E                     dE             d eps       ncg     rms          rms(c)
DAV:   1    -0.706014548853E+03    0.29481E-05   -0.42750E-04 10432   0.466E-02    0.705E-03
RMM:   2    -0.706014553876E+03   -0.50232E-05   -0.53406E-05  8741   0.128E-02
  54 F= -.70601455E+03 E0= -.70601455E+03  d E =-.159242E-03
       N       E                     dE             d eps       ncg     rms          rms(c)
DAV:   1    -0.706014552062E+03   -0.32084E-05   -0.10249E-04 10992   0.233E-02    0.572E-03
RMM:   2    -0.706014553364E+03   -0.13024E-05   -0.97877E-06  5588   0.583E-03
  55 F= -.70601455E+03 E0= -.70601455E+03  d E =-.158729E-03
       N       E                     dE             d eps       ncg     rms          rms(c)
DAV:   1    -0.706014552805E+03   -0.74338E-06   -0.32358E-05  7776   0.144E-02    0.292E-03
RMM:   2    -0.706014553453E+03   -0.64848E-06   -0.55077E-06  5231   0.573E-03
  56 F= -.70601455E+03 E0= -.70601455E+03  d E =-.158819E-03
       N       E                     dE             d eps       ncg     rms          rms(c)
DAV:   1    -0.706014233792E+03    0.31901E-03   -0.87718E-02 11016   0.476E-01    0.505E-02
RMM:   2    -0.706014578200E+03   -0.34441E-03   -0.36051E-03 13258   0.124E-01    0.210E-02
RMM:   3    -0.706014644799E+03   -0.66599E-04   -0.73129E-04 15143   0.470E-02    0.295E-02
RMM:   4    -0.706014649110E+03   -0.43117E-05   -0.84931E-05 12012   0.170E-02
  57 F= -.70601465E+03 E0= -.70601464E+03  d E =-.956571E-04
       N       E                     dE             d eps       ncg     rms          rms(c)
DAV:   1    -0.706014644625E+03    0.17387E-06   -0.75299E-05  8976   0.184E-02    0.134E-02
RMM:   2    -0.706014644083E+03    0.54216E-06   -0.14647E-05  6047   0.842E-03
  58 F= -.70601464E+03 E0= -.70601464E+03  d E =-.906293E-04
       N       E                     dE             d eps       ncg     rms          rms(c)
DAV:   1    -0.706014645187E+03   -0.56253E-06   -0.42586E-05  9432   0.159E-02    0.104E-02
RMM:   2    -0.706014648261E+03   -0.30733E-05   -0.13819E-05  5809   0.839E-03
  59 F= -.70601465E+03 E0= -.70601464E+03  d E =-.948073E-04
       N       E                     dE             d eps       ncg     rms          rms(c)
DAV:   1    -0.706014578159E+03    0.67028E-04   -0.13119E-02 10632   0.210E-01    0.249E-02
RMM:   2    -0.706014671844E+03   -0.93685E-04   -0.97873E-04 13761   0.591E-02    0.149E-02
RMM:   3    -0.706014681002E+03   -0.91583E-05   -0.12448E-04 12903   0.195E-02    0.175E-02
RMM:   4    -0.706014680830E+03    0.17234E-06   -0.19608E-05  6671   0.967E-03
  60 F= -.70601468E+03 E0= -.70601468E+03  d E =-.325693E-04
       N       E                     dE             d eps       ncg     rms          rms(c)
DAV:   1    -0.706014679513E+03    0.14896E-05   -0.11949E-05  6780   0.964E-03    0.703E-03
RMM:   2    -0.706014679441E+03    0.71908E-07   -0.63389E-06  5871   0.586E-03
  61 F= -.70601468E+03 E0= -.70601468E+03  d E =-.311802E-04
       N       E                     dE             d eps       ncg     rms          rms(c)
DAV:   1    -0.706014679552E+03   -0.39479E-07   -0.60850E-06  7352   0.875E-03    0.486E-03
RMM:   2    -0.706014680176E+03   -0.62372E-06   -0.32230E-06  5294   0.402E-03
  62 F= -.70601468E+03 E0= -.70601468E+03  d E =-.319153E-04
       N       E                     dE             d eps       ncg     rms          rms(c)
DAV:   1    -0.706014647507E+03    0.32045E-04   -0.89400E-03 10920   0.164E-01    0.201E-02
RMM:   2    -0.706014699118E+03   -0.51611E-04   -0.53396E-04 13436   0.455E-02    0.172E-02
RMM:   3    -0.706014704543E+03   -0.54243E-05   -0.78779E-05 11983   0.160E-02
  63 F= -.70601470E+03 E0= -.70601470E+03  d E =-.243665E-04
       N       E                     dE             d eps       ncg     rms          rms(c)
DAV:   1    -0.706014696965E+03    0.21527E-05   -0.47553E-04 12312   0.393E-02    0.105E-02
RMM:   2    -0.706014699976E+03   -0.30103E-05   -0.32410E-05  6733   0.106E-02
  64 F= -.70601470E+03 E0= -.70601470E+03  d E =-.197998E-04
       N       E                     dE             d eps       ncg     rms          rms(c)
DAV:   1    -0.706014701318E+03   -0.43521E-05   -0.34987E-04 10556   0.342E-02    0.446E-03
RMM:   2    -0.706014703749E+03   -0.24314E-05   -0.21996E-05  6393   0.100E-02
  65 F= -.70601470E+03 E0= -.70601470E+03  d E =-.235730E-04
       N       E                     dE             d eps       ncg     rms          rms(c)
DAV:   1    -0.706014658890E+03    0.42427E-04   -0.18558E-03 11464   0.145E-01    0.207E-02
RMM:   2    -0.706014709427E+03   -0.50536E-04   -0.53575E-04 11411   0.334E-02    0.116E-02
RMM:   3    -0.706014711066E+03   -0.16393E-05   -0.45780E-05  7814   0.118E-02
  66 F= -.70601471E+03 E0= -.70601471E+03  d E =-.731707E-05
       N       E                     dE             d eps       ncg     rms          rms(c)
DAV:   1    -0.706014699207E+03    0.10220E-04   -0.35857E-04 10544   0.660E-02    0.142E-02
RMM:   2    -0.706014709049E+03   -0.98420E-05   -0.11205E-04  8315   0.151E-02    0.946E-03
RMM:   3    -0.706014708287E+03    0.76141E-06   -0.11455E-05  5731   0.650E-03
  67 F= -.70601471E+03 E0= -.70601470E+03  d E =-.453845E-05
       N       E                     dE             d eps       ncg     rms          rms(c)
DAV:   1    -0.706014706110E+03    0.29385E-05   -0.15287E-04 10584   0.436E-02    0.746E-03
RMM:   2    -0.706014710990E+03   -0.48792E-05   -0.49156E-05  7416   0.974E-03
  68 F= -.70601471E+03 E0= -.70601471E+03  d E =-.724060E-05
       N       E                     dE             d eps       ncg     rms          rms(c)
DAV:   1    -0.706014707228E+03   -0.11180E-05   -0.72040E-05  9864   0.303E-02    0.571E-03
RMM:   2    -0.706014709432E+03   -0.22040E-05   -0.21178E-05  5910   0.733E-03
  69 F= -.70601471E+03 E0= -.70601471E+03  d E =-.568337E-05
       N       E                     dE             d eps       ncg     rms          rms(c)
DAV:   1    -0.706014708905E+03   -0.16766E-05   -0.38012E-05  7088   0.229E-02    0.418E-03
RMM:   2    -0.706014710295E+03   -0.13901E-05   -0.12591E-05  5523   0.684E-03
  70 F= -.70601471E+03 E0= -.70601471E+03  d E =-.654606E-05
       N       E                     dE             d eps       ncg     rms          rms(c)
DAV:   1    -0.706014709244E+03   -0.33897E-06   -0.84243E-06  5492   0.118E-02    0.228E-03
RMM:   2    -0.706014709557E+03   -0.31266E-06   -0.30776E-06  4784   0.340E-03
  71 F= -.70601471E+03 E0= -.70601471E+03  d E =-.580760E-05
       N       E                     dE             d eps       ncg     rms          rms(c)
DAV:   1    -0.706014709837E+03   -0.59295E-06   -0.35419E-06  5376   0.879E-03    0.192E-03
RMM:   2    -0.706014710048E+03   -0.21163E-06   -0.18391E-06  4774   0.264E-03
  72 F= -.70601471E+03 E0= -.70601471E+03  d E =-.629952E-05
       N       E                     dE             d eps       ncg     rms          rms(c)
DAV:   1    -0.706014710312E+03   -0.47543E-06   -0.83339E-04 10816   0.558E-02    0.636E-03
RMM:   2    -0.706014717048E+03   -0.67357E-05   -0.68547E-05  8818   0.159E-02
  73 F= -.70601472E+03 E0= -.70601471E+03  d E =-.699952E-05
       N       E                     dE             d eps       ncg     rms          rms(c)
DAV:   1    -0.706014715086E+03   -0.47739E-05   -0.34598E-05  7392   0.144E-02    0.449E-03
RMM:   2    -0.706014715877E+03   -0.79100E-06   -0.69853E-06  5168   0.682E-03
  74 F= -.70601472E+03 E0= -.70601471E+03  d E =-.582867E-05
       N       E                     dE             d eps       ncg     rms          rms(c)
DAV:   1    -0.706014716463E+03   -0.13771E-05   -0.20091E-05  6428   0.107E-02    0.265E-03
RMM:   2    -0.706014717061E+03   -0.59753E-06   -0.47565E-06  5175   0.535E-03
  75 F= -.70601472E+03 E0= -.70601471E+03  d E =-.701235E-05
