Ga8 O12                                 
    1.000000000000000     
     0.0000000000000000   12.2804737091000007    0.0000000000000000
     9.1427011490000005    0.0000000000000000    0.0000000000000000
     0.0000000000000000   -2.7682616411000001  -11.3006974810000003
   Ga   O    Fe
    47    72     1
Direct
  0.6589217140001912 -0.0005447037778197  0.1575327575076882
  0.6582408324653920  0.0015170487908645  0.6553519054855150
  0.6588401366590668  0.3333190715953798  0.1546885599345989
  0.6575458358965508  0.3336664041277843  0.6582267236485765
  0.6587667020656536  0.6649389730428206  0.1555128918707685
  0.6567825138900869  0.6699157743868402  0.6593901952779727
  0.8402075009909088  0.1666768526459431  0.3428325767027969
  0.8410386648776076  0.1667395591663176  0.8432176561048802
  0.8399523455679117  0.4995246000951116  0.3400275572765805
  0.8402171897799964  0.5002857144928787  0.8439247292313840
  0.8400376563139471  0.8327373761485038  0.3430167489173513
  0.8411063447912117  0.8336927215274867  0.8433504682541387
  0.5898919010863706  0.1702876071850512  0.3963169790676848
  0.5904811030292370  0.1664986450601119  0.8977768434611042
  0.5892965123178528  0.4998949001546493  0.8972800356660864
  0.5907230853806895  0.8289585322621069  0.3981371869987494
  0.5904752996271978  0.8334228540375969  0.8983489129953979
  0.9093793662757427 -0.0001852561692583  0.1025739204470209
  0.9080936499817664 -0.0000039393876407  0.6022293123325839
  0.9105731996324072  0.3328784040042736  0.1025119218922953
  0.9073325357221325  0.3337924950655685  0.6013482370366270
  0.9102955647991072  0.6669115593219275  0.1026705392143177
  0.9067763473524172  0.6661628555752737  0.6014988674740802
  0.1605151598190026  0.1669047516832781  0.1578360775638180
  0.1578662804348446  0.1667459335822368  0.6563088721859166
  0.1605738344135900  0.5000997280326994  0.1575273798604495
  0.1585023851558519  0.5000094919356093  0.6560257603670362
  0.1606081850954162  0.8328162904591214  0.1580869759124727
  0.1576266484275662  0.8332605844032712  0.6563366830621543
  0.3429324705761065 -0.0001236549850385  0.3436758312002906
  0.3397912109451363 -0.0000606443893955  0.8426712511395175
  0.3460118743417862  0.3354263376501618  0.3440780161083275
  0.3399347902123686  0.3336836612868671  0.8433782192398978
  0.3462102950235540  0.6645117350757701  0.3449521870855307
  0.3399273263494815  0.6662989644053404  0.8432506247707413
  0.0902691623349980 -0.0001826444086667  0.3969823539910584
  0.0916241198246713  0.0000303003252783  0.8987097122310128
  0.0919842816413300  0.3335568837387823  0.3967916024894508
  0.0907602201117637  0.3334884601289363  0.8978808604792246
  0.0918392197441071  0.6663525044883248  0.3969161051748207
  0.0906929627003319  0.6666546642376964  0.8978818343969590
  0.4082716679027605  0.1660913670345214  0.1012858054735352
  0.4079828079404376  0.1668225477916039  0.6025163190728269
  0.4105123252352654  0.4995629085003723  0.1035313762935242
  0.4093326220255561  0.5006768031518430  0.6016157385968443
  0.4085568735805971  0.8333738404328522  0.1016706494340578
  0.4073640192447606  0.8344783924144813  0.6024897892204103
  0.9976482122759879  0.1658833072996063  0.1277215998090585
  0.9950255628519477  0.1672499532947047  0.6261724901104997
  0.9975688092626455  0.4999981920896168  0.1277703563360082
  0.9952691720185334  0.5001255160084787  0.6261030178815767
  0.9976140221744615  0.8337323129787044  0.1279122290018323
  0.9948111608378064  0.8326113540185259  0.6260984858730579
  0.5053567773332515 -0.0006045292885217  0.3730888683808714
  0.5027427245767910 -0.0000591274182924  0.8729324471299995
  0.5071035793124014  0.3395211409985715  0.3680910815894825
  0.5023341633587675  0.3325731509665856  0.8721015099714389
  0.5081511958761589  0.6595206321536325  0.3788247192972785
  0.5023699684155100  0.6672917739262784  0.8736510287626998
  0.6728965656531518  0.1653937960699931  0.2796672344037644
  0.6722472581447168  0.1667733903867262  0.7807936704777482
  0.6704546345489493  0.4970523109278388  0.2707772823381215
  0.6731325661934531  0.5002407241023009  0.7836998296501950
  0.6724767234519377  0.8327279905673096  0.2803239769491512
  0.6723753118414801  0.8346630446804012  0.7815745218735521
  0.8280120215984420 -0.0006570462546004  0.2196403647646382
  0.8270618442323258  0.0007561990573111  0.7196082958688657
  0.8292795363279579  0.3317364540084711  0.2194141413349085
  0.8270352441154765  0.3337342797270263  0.7194637329660029
  0.8287124008940210  0.6671455969627942  0.2195892437517364
  0.8270996439235729  0.6671126119569546  0.7200709828320871
  0.8321394589616129 -0.0001220858643997  0.4455194946484449
  0.8326824379446850  0.0001181108998764  0.9459791030302126
  0.8278918982272134  0.3351012949416805  0.4448391442292804
  0.8338630755775485  0.3326116330955683  0.9461207008207094
  0.8281505882776480  0.6644015653367188  0.4446931953106889
  0.8337035585592850  0.6676451306872240  0.9463070746485894
  0.6685585328637027  0.1656535764372404  0.0538239005770744
  0.6666371987477492  0.1682092664034494  0.5538897572314423
  0.6699684385187069  0.4998197557235610  0.0511977409841351
  0.6601670736544462  0.5033144077500320  0.5607174805659833
  0.6682772927856986  0.8332056587317980  0.0544504622509620
  0.6682240391479707  0.8346233673596685  0.5552847218758284
  0.4962041247141698 -0.0001630045759755  0.1258770573150059
  0.4957938230693403  0.0004079908786212  0.6283309513406495
  0.4959422456446596  0.3317502615084912  0.1226969813833219
  0.4951591767788020  0.3329994474151043  0.6286511874098402
  0.4962048640643331  0.6674003077712403  0.1262093903824773
  0.4944649463059395  0.6686875726332557  0.6313965373056608
  0.0032353130420428  0.1673001580634488  0.3732409568691283
  0.0037645896819916  0.1663808597893893  0.8726232727695235
  0.0033737719040979  0.4998800699115887  0.3730729440963988
  0.0031437208252787  0.5000819658627335  0.8725207472164974
  0.0030658090356830  0.8324963302506029  0.3731867295053360
  0.0037015154472330  0.8337785011614572  0.8725791756725501
  0.1734776018111876 -0.0000859113262523  0.2813100353221519
  0.1708105701977360  0.0000671353868745  0.7795955802985090
  0.1741543040588535  0.3331693755450330  0.2806512044660268
  0.1714437743079714  0.3336222126127130  0.7799565473606651
  0.1741064247442491  0.6667367589179665  0.2808533084383146
  0.1714384899913309  0.6664341386433063  0.7799984881867784
  0.3286162347727156  0.1663552963004305  0.2197106414205342
  0.3260898531372451  0.1663047636041564  0.7192632522613049
  0.3279458945144827  0.5003876726196271  0.2193145670051372
  0.3268434326523443  0.4999780245612868  0.7192633746846359
  0.3291642476204734  0.8328171871557410  0.2204101996257345
  0.3257850347038149  0.8341838096045252  0.7195343568417393
  0.3340275829207435  0.1673919325037228  0.4452337322068226
  0.3300602309715585  0.1661233059292725  0.9449570690628228
  0.3298772322546576  0.4996073614227391  0.4462348723061120
  0.3319596778804955  0.5000811223459343  0.9463903602947823
  0.3327972156420668  0.8330551477459260  0.4454997368379091
  0.3306120818436896  0.8335495870165196  0.9453127753755175
  0.1690005529955432 -0.0002494813864652  0.0550872100597094
  0.1669047476385661 -0.0000273949970731  0.5537647099071233
  0.1680421218710884  0.3332649740870012  0.0542867305776765
  0.1672150023081085  0.3330713212694992  0.5540017675021003
  0.1680553373520586  0.6668343619648107  0.0542630994533971
  0.1673546598081596  0.6669270184817254  0.5540405453275593
  0.6084543554165472  0.4987278522704696  0.4026004642345433
 
  0.00000000E+00  0.00000000E+00  0.00000000E+00
  0.00000000E+00  0.00000000E+00  0.00000000E+00
  0.00000000E+00  0.00000000E+00  0.00000000E+00
  0.00000000E+00  0.00000000E+00  0.00000000E+00
  0.00000000E+00  0.00000000E+00  0.00000000E+00
  0.00000000E+00  0.00000000E+00  0.00000000E+00
  0.00000000E+00  0.00000000E+00  0.00000000E+00
  0.00000000E+00  0.00000000E+00  0.00000000E+00
  0.00000000E+00  0.00000000E+00  0.00000000E+00
  0.00000000E+00  0.00000000E+00  0.00000000E+00
  0.00000000E+00  0.00000000E+00  0.00000000E+00
  0.00000000E+00  0.00000000E+00  0.00000000E+00
  0.00000000E+00  0.00000000E+00  0.00000000E+00
  0.00000000E+00  0.00000000E+00  0.00000000E+00
  0.00000000E+00  0.00000000E+00  0.00000000E+00
  0.00000000E+00  0.00000000E+00  0.00000000E+00
  0.00000000E+00  0.00000000E+00  0.00000000E+00
  0.00000000E+00  0.00000000E+00  0.00000000E+00
  0.00000000E+00  0.00000000E+00  0.00000000E+00
  0.00000000E+00  0.00000000E+00  0.00000000E+00
  0.00000000E+00  0.00000000E+00  0.00000000E+00
  0.00000000E+00  0.00000000E+00  0.00000000E+00
  0.00000000E+00  0.00000000E+00  0.00000000E+00
  0.00000000E+00  0.00000000E+00  0.00000000E+00
  0.00000000E+00  0.00000000E+00  0.00000000E+00
  0.00000000E+00  0.00000000E+00  0.00000000E+00
  0.00000000E+00  0.00000000E+00  0.00000000E+00
  0.00000000E+00  0.00000000E+00  0.00000000E+00
  0.00000000E+00  0.00000000E+00  0.00000000E+00
  0.00000000E+00  0.00000000E+00  0.00000000E+00
  0.00000000E+00  0.00000000E+00  0.00000000E+00
  0.00000000E+00  0.00000000E+00  0.00000000E+00
  0.00000000E+00  0.00000000E+00  0.00000000E+00
  0.00000000E+00  0.00000000E+00  0.00000000E+00
  0.00000000E+00  0.00000000E+00  0.00000000E+00
  0.00000000E+00  0.00000000E+00  0.00000000E+00
  0.00000000E+00  0.00000000E+00  0.00000000E+00
  0.00000000E+00  0.00000000E+00  0.00000000E+00
  0.00000000E+00  0.00000000E+00  0.00000000E+00
  0.00000000E+00  0.00000000E+00  0.00000000E+00
  0.00000000E+00  0.00000000E+00  0.00000000E+00
  0.00000000E+00  0.00000000E+00  0.00000000E+00
  0.00000000E+00  0.00000000E+00  0.00000000E+00
  0.00000000E+00  0.00000000E+00  0.00000000E+00
  0.00000000E+00  0.00000000E+00  0.00000000E+00
  0.00000000E+00  0.00000000E+00  0.00000000E+00
  0.00000000E+00  0.00000000E+00  0.00000000E+00
  0.00000000E+00  0.00000000E+00  0.00000000E+00
  0.00000000E+00  0.00000000E+00  0.00000000E+00
  0.00000000E+00  0.00000000E+00  0.00000000E+00
  0.00000000E+00  0.00000000E+00  0.00000000E+00
  0.00000000E+00  0.00000000E+00  0.00000000E+00
  0.00000000E+00  0.00000000E+00  0.00000000E+00
  0.00000000E+00  0.00000000E+00  0.00000000E+00
  0.00000000E+00  0.00000000E+00  0.00000000E+00
  0.00000000E+00  0.00000000E+00  0.00000000E+00
  0.00000000E+00  0.00000000E+00  0.00000000E+00
  0.00000000E+00  0.00000000E+00  0.00000000E+00
  0.00000000E+00  0.00000000E+00  0.00000000E+00
  0.00000000E+00  0.00000000E+00  0.00000000E+00
  0.00000000E+00  0.00000000E+00  0.00000000E+00
  0.00000000E+00  0.00000000E+00  0.00000000E+00
  0.00000000E+00  0.00000000E+00  0.00000000E+00
  0.00000000E+00  0.00000000E+00  0.00000000E+00
  0.00000000E+00  0.00000000E+00  0.00000000E+00
  0.00000000E+00  0.00000000E+00  0.00000000E+00
  0.00000000E+00  0.00000000E+00  0.00000000E+00
  0.00000000E+00  0.00000000E+00  0.00000000E+00
  0.00000000E+00  0.00000000E+00  0.00000000E+00
  0.00000000E+00  0.00000000E+00  0.00000000E+00
  0.00000000E+00  0.00000000E+00  0.00000000E+00
  0.00000000E+00  0.00000000E+00  0.00000000E+00
  0.00000000E+00  0.00000000E+00  0.00000000E+00
  0.00000000E+00  0.00000000E+00  0.00000000E+00
  0.00000000E+00  0.00000000E+00  0.00000000E+00
  0.00000000E+00  0.00000000E+00  0.00000000E+00
  0.00000000E+00  0.00000000E+00  0.00000000E+00
  0.00000000E+00  0.00000000E+00  0.00000000E+00
  0.00000000E+00  0.00000000E+00  0.00000000E+00
  0.00000000E+00  0.00000000E+00  0.00000000E+00
  0.00000000E+00  0.00000000E+00  0.00000000E+00
  0.00000000E+00  0.00000000E+00  0.00000000E+00
  0.00000000E+00  0.00000000E+00  0.00000000E+00
  0.00000000E+00  0.00000000E+00  0.00000000E+00
  0.00000000E+00  0.00000000E+00  0.00000000E+00
  0.00000000E+00  0.00000000E+00  0.00000000E+00
  0.00000000E+00  0.00000000E+00  0.00000000E+00
  0.00000000E+00  0.00000000E+00  0.00000000E+00
  0.00000000E+00  0.00000000E+00  0.00000000E+00
  0.00000000E+00  0.00000000E+00  0.00000000E+00
  0.00000000E+00  0.00000000E+00  0.00000000E+00
  0.00000000E+00  0.00000000E+00  0.00000000E+00
  0.00000000E+00  0.00000000E+00  0.00000000E+00
  0.00000000E+00  0.00000000E+00  0.00000000E+00
  0.00000000E+00  0.00000000E+00  0.00000000E+00
  0.00000000E+00  0.00000000E+00  0.00000000E+00
  0.00000000E+00  0.00000000E+00  0.00000000E+00
  0.00000000E+00  0.00000000E+00  0.00000000E+00
  0.00000000E+00  0.00000000E+00  0.00000000E+00
  0.00000000E+00  0.00000000E+00  0.00000000E+00
  0.00000000E+00  0.00000000E+00  0.00000000E+00
  0.00000000E+00  0.00000000E+00  0.00000000E+00
  0.00000000E+00  0.00000000E+00  0.00000000E+00
  0.00000000E+00  0.00000000E+00  0.00000000E+00
  0.00000000E+00  0.00000000E+00  0.00000000E+00
  0.00000000E+00  0.00000000E+00  0.00000000E+00
  0.00000000E+00  0.00000000E+00  0.00000000E+00
  0.00000000E+00  0.00000000E+00  0.00000000E+00
  0.00000000E+00  0.00000000E+00  0.00000000E+00
  0.00000000E+00  0.00000000E+00  0.00000000E+00
  0.00000000E+00  0.00000000E+00  0.00000000E+00
  0.00000000E+00  0.00000000E+00  0.00000000E+00
  0.00000000E+00  0.00000000E+00  0.00000000E+00
  0.00000000E+00  0.00000000E+00  0.00000000E+00
  0.00000000E+00  0.00000000E+00  0.00000000E+00
  0.00000000E+00  0.00000000E+00  0.00000000E+00
  0.00000000E+00  0.00000000E+00  0.00000000E+00
  0.00000000E+00  0.00000000E+00  0.00000000E+00
  0.00000000E+00  0.00000000E+00  0.00000000E+00
  0.00000000E+00  0.00000000E+00  0.00000000E+00
