Ga47 O72                                
    1.000000000000000     
     0.0000000000000000   12.2804734172212839    0.0000000000000000
     9.1427020537309431    0.0000000000000000    0.0000000000000000
     0.0000000000000000   -2.7682617730220320  -11.3006977184464645
   Ga   O 
    47    72
Direct
  0.6611188171106548  0.0000616602972343  0.1579189029929964
  0.6581686166310021  0.0002825878991217  0.6554677914298850
  0.6617115576496957  0.3333333333333357  0.1583441211419370
  0.6580554331407455  0.3333333333333357  0.6550732610293934
  0.6611188171106548  0.6666050063694300  0.1579189029929964
  0.6581686166310021  0.6663840787675426  0.6554677914298850
  0.8434163215791131  0.1671009867762976  0.3444480367067086
  0.8402845426496413  0.1671961796673571  0.8425603311651813
  0.8434163215791131  0.4995656798903667  0.3444480367067086
  0.8402845426496413  0.4994704869993072  0.8425603311651813
  0.8421833835980976  0.8333333333333357  0.3442529600884257
  0.8398355652832308  0.8333333333333357  0.8424280472723638
  0.5891064272703801  0.1703304254592410  0.3958135773720528
  0.5921017331393514  0.1664943072926306  0.8978833431616238
  0.5891064272703801  0.4963362412074233  0.3958135773720528
  0.5921017331393514  0.5001723593740337  0.8978833431616238
  0.5903615787979533  0.8333333333333357  0.3971220197087391
  0.5927878381342495  0.8333333333333357  0.8986459800788467
  0.9087818200736990  0.0002860546061001  0.1017145291462356
  0.9095200398438337  0.0001319216704587  0.6029714602164731
  0.9110248017115410  0.3333333333333357  0.1027013497176341
  0.9100208301472108  0.3333333333333357  0.6027174879574915
  0.9087818200736990  0.6663806120605642  0.1017145291462356
  0.9095200398438337  0.6665347449962056  0.6029714602164731
  0.1631879174664590  0.1696013433953780  0.1610964447664500
  0.1601604041959845  0.1670349733245828  0.6581630254817696
  0.1631879174664590  0.4970653232712863  0.1610964447664500
  0.1601604041959845  0.4996316933420815  0.6581630254817696
  0.1584195705294107  0.8333333333333357  0.1579096602999925
  0.1601044323126786  0.8333333333333357  0.6597267260383219
  0.3399405304094572  0.0039157433452530  0.3407892048841603
  0.3427144684389063  0.0001634306935614  0.8440305502630636
  0.3420703446806215  0.3333333333333357  0.8437165650861260
  0.3399405304094572  0.6627509233214113  0.3407892048841603
  0.3427144684389063  0.6665032359731029  0.8440305502630636
  0.0919392627805422  0.0005179612319921  0.3976116745552787
  0.0899796353868609  0.0001914863667665  0.8974023071181705
  0.0987336982976004  0.3333333333333357  0.3970646721008464
  0.0910433692312438  0.3333333333333357  0.8982340209944368
  0.0919392627805422  0.6661487054346651  0.3976116745552787
  0.0899796353868609  0.6664751802998978  0.8974023071181705
  0.4098161573371328  0.1657953279708551  0.1049742670080320
  0.4057210376714337  0.1663441201960296  0.5982540740943350
  0.4098161573371328  0.5008713386958092  0.1049742670080320
  0.4057210376714337  0.5003225464706347  0.5982540740943350
  0.4099837273574138  0.8333333333333357  0.1039561507850379
  0.4087242643176410  0.8333333333333357  0.6005522516404795
  0.9969334044205880  0.1658036366328446  0.1244240598426387
  0.9973449873938591  0.1664937278253333  0.6289211753571493
  0.9969334044205880  0.5008630300338197  0.1244240598426387
  0.9973449873938591  0.5001729388413310  0.6289211753571493
  0.9948697108898088  0.8333333333333357  0.1257725281077455
  0.9970668151900313  0.8333333333333357  0.6295093420376006
  0.5038287827941446  0.0009060427498397  0.3731757811817502
  0.5051524220867165  0.9996297448278568  0.8731852528074384
  0.5002045225216349  0.3333333333333357  0.3712253469323699
  0.5048804402914016  0.3333333333333357  0.8725219828086139
  0.5038287827941446  0.6657606239168246  0.3731757811817502
  0.5051524220867165  0.6670369218388075  0.8731852528074384
  0.6743243123700680  0.1663924598113198  0.2807782614721575
  0.6719880349821423  0.1676862621926674  0.7795024857576465
  0.6743243123700680  0.5002742068553445  0.2807782614721575
  0.6719880349821423  0.4989804044739969  0.7795024857576465
  0.6739102607302172  0.8333333333333357  0.2814529261211405
  0.6723881853991998  0.8333333333333357  0.7799015315081235
  0.8290333562805401  0.0004224750113764  0.2203786745298046
  0.8267474675763111  0.0003763136760853  0.7188834285114751
  0.8296569446396660  0.3333333333333357  0.2201931632369707
  0.8270113841906692  0.3333333333333357  0.7186846404178624
  0.8290333562805401  0.6662441916552808  0.2203786745298046
  0.8267474675763111  0.6662903529905790  0.7188834285114751
  0.8335031778589652  0.0002514100950179  0.4465026398095731
  0.8311702876288933  0.0003398807254698  0.9449611572120702
  0.8327060670930777  0.3333333333333357  0.4465435341059276
  0.8321541424208689  0.3333333333333357  0.9458931949529230
  0.8335031778589652  0.6664152565716464  0.4465026398095731
  0.8311702876288933  0.6663267859411945  0.9449611572120702
  0.6686172751512061  0.1672709550888882  0.0545922935985175
  0.6671531862333211  0.1666409513507361  0.5532489646354648
  0.6686172751512061  0.4993957115777761  0.0545922935985175
  0.6671531862333211  0.5000257153159282  0.5532489646354648
  0.6707452341793712  0.8333333333333357  0.0549354373000952
  0.6675390850732512  0.8333333333333357  0.5537623339689759
  0.4991708704773501  0.9992760408574810  0.1269222872017863
  0.4962191986216737  0.0007459197326796  0.6280352077813589
  0.4977779484732565  0.3333333333333357  0.1331430990838953
  0.4935622140857419  0.3333333333333357  0.6208322959819483
  0.4991708704773501  0.6673906258091833  0.1269222872017863
  0.4962191986216737  0.6659207469339847  0.6280352077813589
  0.0058099188386223  0.1681497131541008  0.3751633513767274
  0.0028033463521382  0.1670767331139018  0.8711417333994902
  0.0058099188386223  0.4985169535125635  0.3751633513767274
  0.0028033463521382  0.4995899335527625  0.8711417333994902
  0.0041456368379045  0.8333333333333357  0.3747487914126282
  0.0023475539650235  0.8333333333333357  0.8707470326294597
  0.1691218750873702  0.9967514775028690  0.2785582191937976
  0.1736588407182822  0.0001109997154174  0.7821024173905826
  0.1617982102821287  0.3333333333333357  0.2700992160345876
  0.1734398867912006  0.3333333333333357  0.7817994384726106
  0.1691218750873702  0.6699151891637953  0.2785582191937976
  0.1736588407182822  0.6665556669512469  0.7821024173905826
  0.3247707450381156  0.1475726423298198  0.2132769078057777
  0.3285613632979079  0.1669037247161569  0.7205735364043875
  0.3247707450381156  0.5190940243368445  0.2132769078057777
  0.3285613632979079  0.4997629419505074  0.7205735364043875
  0.3274605447857653  0.8333333333333357  0.2190653509628078
  0.3283678057963613  0.8333333333333357  0.7197284069063912
  0.3143837950797845  0.1482507788891780  0.4507610485962061
  0.3357481477867310  0.1670319087181582  0.9468588401551656
  0.3143837950797845  0.5184158877774863  0.4507610485962061
  0.3357481477867310  0.4996347579485061  0.9468588401551656
  0.3324890036463231  0.8333333333333357  0.4440114546558505
  0.3341082654921266  0.8333333333333357  0.9465580615272557
  0.1648212375435065  0.9995705278158624  0.0535854296003961
  0.1663850537483711  0.9990883719412409  0.5558534885813060
  0.1706724788721843  0.3333333333333357  0.0526657915882254
  0.1680579244612304  0.3333333333333357  0.5561526701757984
  0.1648212375435065  0.6670961388508019  0.0535854296003961
  0.1663850537483711  0.6675782947254234  0.5558534885813060
 
  0.00000000E+00  0.00000000E+00  0.00000000E+00
  0.00000000E+00  0.00000000E+00  0.00000000E+00
  0.00000000E+00  0.00000000E+00  0.00000000E+00
  0.00000000E+00  0.00000000E+00  0.00000000E+00
  0.00000000E+00  0.00000000E+00  0.00000000E+00
  0.00000000E+00  0.00000000E+00  0.00000000E+00
  0.00000000E+00  0.00000000E+00  0.00000000E+00
  0.00000000E+00  0.00000000E+00  0.00000000E+00
  0.00000000E+00  0.00000000E+00  0.00000000E+00
  0.00000000E+00  0.00000000E+00  0.00000000E+00
  0.00000000E+00  0.00000000E+00  0.00000000E+00
  0.00000000E+00  0.00000000E+00  0.00000000E+00
  0.00000000E+00  0.00000000E+00  0.00000000E+00
  0.00000000E+00  0.00000000E+00  0.00000000E+00
  0.00000000E+00  0.00000000E+00  0.00000000E+00
  0.00000000E+00  0.00000000E+00  0.00000000E+00
  0.00000000E+00  0.00000000E+00  0.00000000E+00
  0.00000000E+00  0.00000000E+00  0.00000000E+00
  0.00000000E+00  0.00000000E+00  0.00000000E+00
  0.00000000E+00  0.00000000E+00  0.00000000E+00
  0.00000000E+00  0.00000000E+00  0.00000000E+00
  0.00000000E+00  0.00000000E+00  0.00000000E+00
  0.00000000E+00  0.00000000E+00  0.00000000E+00
  0.00000000E+00  0.00000000E+00  0.00000000E+00
  0.00000000E+00  0.00000000E+00  0.00000000E+00
  0.00000000E+00  0.00000000E+00  0.00000000E+00
  0.00000000E+00  0.00000000E+00  0.00000000E+00
  0.00000000E+00  0.00000000E+00  0.00000000E+00
  0.00000000E+00  0.00000000E+00  0.00000000E+00
  0.00000000E+00  0.00000000E+00  0.00000000E+00
  0.00000000E+00  0.00000000E+00  0.00000000E+00
  0.00000000E+00  0.00000000E+00  0.00000000E+00
  0.00000000E+00  0.00000000E+00  0.00000000E+00
  0.00000000E+00  0.00000000E+00  0.00000000E+00
  0.00000000E+00  0.00000000E+00  0.00000000E+00
  0.00000000E+00  0.00000000E+00  0.00000000E+00
  0.00000000E+00  0.00000000E+00  0.00000000E+00
  0.00000000E+00  0.00000000E+00  0.00000000E+00
  0.00000000E+00  0.00000000E+00  0.00000000E+00
  0.00000000E+00  0.00000000E+00  0.00000000E+00
  0.00000000E+00  0.00000000E+00  0.00000000E+00
  0.00000000E+00  0.00000000E+00  0.00000000E+00
  0.00000000E+00  0.00000000E+00  0.00000000E+00
  0.00000000E+00  0.00000000E+00  0.00000000E+00
  0.00000000E+00  0.00000000E+00  0.00000000E+00
  0.00000000E+00  0.00000000E+00  0.00000000E+00
  0.00000000E+00  0.00000000E+00  0.00000000E+00
  0.00000000E+00  0.00000000E+00  0.00000000E+00
  0.00000000E+00  0.00000000E+00  0.00000000E+00
  0.00000000E+00  0.00000000E+00  0.00000000E+00
  0.00000000E+00  0.00000000E+00  0.00000000E+00
  0.00000000E+00  0.00000000E+00  0.00000000E+00
  0.00000000E+00  0.00000000E+00  0.00000000E+00
  0.00000000E+00  0.00000000E+00  0.00000000E+00
  0.00000000E+00  0.00000000E+00  0.00000000E+00
  0.00000000E+00  0.00000000E+00  0.00000000E+00
  0.00000000E+00  0.00000000E+00  0.00000000E+00
  0.00000000E+00  0.00000000E+00  0.00000000E+00
  0.00000000E+00  0.00000000E+00  0.00000000E+00
  0.00000000E+00  0.00000000E+00  0.00000000E+00
  0.00000000E+00  0.00000000E+00  0.00000000E+00
  0.00000000E+00  0.00000000E+00  0.00000000E+00
  0.00000000E+00  0.00000000E+00  0.00000000E+00
  0.00000000E+00  0.00000000E+00  0.00000000E+00
  0.00000000E+00  0.00000000E+00  0.00000000E+00
  0.00000000E+00  0.00000000E+00  0.00000000E+00
  0.00000000E+00  0.00000000E+00  0.00000000E+00
  0.00000000E+00  0.00000000E+00  0.00000000E+00
  0.00000000E+00  0.00000000E+00  0.00000000E+00
  0.00000000E+00  0.00000000E+00  0.00000000E+00
  0.00000000E+00  0.00000000E+00  0.00000000E+00
  0.00000000E+00  0.00000000E+00  0.00000000E+00
  0.00000000E+00  0.00000000E+00  0.00000000E+00
  0.00000000E+00  0.00000000E+00  0.00000000E+00
  0.00000000E+00  0.00000000E+00  0.00000000E+00
  0.00000000E+00  0.00000000E+00  0.00000000E+00
  0.00000000E+00  0.00000000E+00  0.00000000E+00
  0.00000000E+00  0.00000000E+00  0.00000000E+00
  0.00000000E+00  0.00000000E+00  0.00000000E+00
  0.00000000E+00  0.00000000E+00  0.00000000E+00
  0.00000000E+00  0.00000000E+00  0.00000000E+00
  0.00000000E+00  0.00000000E+00  0.00000000E+00
  0.00000000E+00  0.00000000E+00  0.00000000E+00
  0.00000000E+00  0.00000000E+00  0.00000000E+00
  0.00000000E+00  0.00000000E+00  0.00000000E+00
  0.00000000E+00  0.00000000E+00  0.00000000E+00
  0.00000000E+00  0.00000000E+00  0.00000000E+00
  0.00000000E+00  0.00000000E+00  0.00000000E+00
  0.00000000E+00  0.00000000E+00  0.00000000E+00
  0.00000000E+00  0.00000000E+00  0.00000000E+00
  0.00000000E+00  0.00000000E+00  0.00000000E+00
  0.00000000E+00  0.00000000E+00  0.00000000E+00
  0.00000000E+00  0.00000000E+00  0.00000000E+00
  0.00000000E+00  0.00000000E+00  0.00000000E+00
  0.00000000E+00  0.00000000E+00  0.00000000E+00
  0.00000000E+00  0.00000000E+00  0.00000000E+00
  0.00000000E+00  0.00000000E+00  0.00000000E+00
  0.00000000E+00  0.00000000E+00  0.00000000E+00
  0.00000000E+00  0.00000000E+00  0.00000000E+00
  0.00000000E+00  0.00000000E+00  0.00000000E+00
  0.00000000E+00  0.00000000E+00  0.00000000E+00
  0.00000000E+00  0.00000000E+00  0.00000000E+00
  0.00000000E+00  0.00000000E+00  0.00000000E+00
  0.00000000E+00  0.00000000E+00  0.00000000E+00
  0.00000000E+00  0.00000000E+00  0.00000000E+00
  0.00000000E+00  0.00000000E+00  0.00000000E+00
  0.00000000E+00  0.00000000E+00  0.00000000E+00
  0.00000000E+00  0.00000000E+00  0.00000000E+00
  0.00000000E+00  0.00000000E+00  0.00000000E+00
  0.00000000E+00  0.00000000E+00  0.00000000E+00
  0.00000000E+00  0.00000000E+00  0.00000000E+00
  0.00000000E+00  0.00000000E+00  0.00000000E+00
  0.00000000E+00  0.00000000E+00  0.00000000E+00
  0.00000000E+00  0.00000000E+00  0.00000000E+00
  0.00000000E+00  0.00000000E+00  0.00000000E+00
  0.00000000E+00  0.00000000E+00  0.00000000E+00
  0.00000000E+00  0.00000000E+00  0.00000000E+00
  0.00000000E+00  0.00000000E+00  0.00000000E+00
  0.00000000E+00  0.00000000E+00  0.00000000E+00
