 running    4 mpi-ranks, on    1 nodes
 distrk:  each k-point on    1 cores,    4 groups
 distr:  one band on    1 cores,    1 groups
 OpenACC runtime initialized ...    4 GPUs detected
 vasp.6.4.2 20Jul23 (build Nov 12 2023 22:16:35) complex                         
 POSCAR found type information on POSCAR GaO CuN 
 POSCAR found :  4 types and     120 ions
 scaLAPACK will be used selectively (only on CPU)
 LDA part: xc-table for Pade appr. of Perdew
 POSCAR, INCAR and KPOINTS ok, starting setup
 FFT: planning ... GRIDC
 FFT: planning ... GRID_SOFT
 FFT: planning ... GRID
 WAVECAR not read
 initial charge from wavefunction
 entering main loop
       N       E                     dE             d eps       ncg     rms          ort
DAV:   1    -0.183891524206E+05   -0.18389E+05   -0.54723E+05  5048   0.744E+03
DAV:   2    -0.623409476225E+05   -0.43952E+05   -0.42663E+05  5048   0.120E+03
DAV:   3    -0.668804855979E+05   -0.45395E+04   -0.40595E+04  5048   0.349E+02
DAV:   4    -0.674201234905E+05   -0.53964E+03   -0.45139E+03  5048   0.103E+02
DAV:   5    -0.373634566658E+05    0.30057E+05   -0.72203E+02  5048   0.535E+01
 gam= 0.000 g(H,U,f)=  0.700E+05 0.220E+05 0.219E+03 ort(H,U,f) = 0.000E+00 0.000E+00 0.000E+00
SDA:   6     0.197749843412E+05    0.57138E+05   -0.72203E+02  5048   0.923E+05 0.000E+00
 gam= 0.000 trial= 0.400  step= 0.283 mean= 0.400
 gam= 0.396 g(H,U,f)=  0.166E+05 0.144E+05 0.560E+04 ort(H,U,f) = 0.937E+04-0.190E+05-0.869E+04
CGA:   7     0.521259052343E+04   -0.14562E+05   -0.13041E+05  5048   0.366E+05-0.183E+05
 gam= 0.396 trial= 0.394  step= 0.190 mean= 0.394
 gam= 0.197 g(H,U,f)=  0.567E+04 0.152E+04 0.221E+02 ort(H,U,f) = 0.236E+04-0.571E+03-0.246E+02
CGA:   8     0.153979384294E+04   -0.36728E+04   -0.27842E+04  5048   0.721E+04 0.177E+04
 gam= 0.197 trial= 0.384  step= 0.215 mean= 0.384
 gam= 0.715 g(H,U,f)=  0.251E+04 0.241E+04 0.236E+03 ort(H,U,f) = 0.802E+03-0.211E+04-0.407E+03
CGA:   9     0.500228735003E+03   -0.10396E+04   -0.81404E+03  5048   0.515E+04-0.171E+04
 gam= 0.715 trial= 0.376  step= 0.218 mean= 0.376
 gam= 1.029 g(H,U,f)=  0.263E+04 0.261E+04 0.689E+02 ort(H,U,f) =-0.132E+03-0.472E+03-0.347E+02
CGA:  10     0.106195158906E+03   -0.39403E+03   -0.42862E+03  5048   0.531E+04-0.638E+03
 gam= 1.029 trial= 0.368  step= 0.188 mean= 0.368
 gam= 0.442 g(H,U,f)=  0.194E+04 0.396E+03 0.295E+01 ort(H,U,f) =-0.756E+03 0.379E+03 0.131E+01
CGA:  11    -0.276098684904E+03   -0.38229E+03   -0.43763E+03  5048   0.234E+04-0.376E+03
 gam= 0.442 trial= 0.359  step= 0.304 mean= 0.359
 gam= 0.373 g(H,U,f)=  0.777E+03 0.970E+02 0.287E+00 ort(H,U,f) =-0.162E+02 0.139E+03 0.674E-01
CGA:  12    -0.597581435189E+03   -0.32148E+03   -0.33125E+03  5048   0.874E+03 0.123E+03
 gam= 0.373 trial= 0.356  step= 0.361 mean= 0.356
 gam= 0.438 g(H,U,f)=  0.351E+03 0.278E+02 0.416E+01 ort(H,U,f) =-0.271E+02 0.526E+02 0.867E+01
CGA:  13    -0.763803443294E+03   -0.16622E+03   -0.16605E+03  5048   0.383E+03 0.341E+02
 gam= 0.438 trial= 0.356  step= 0.463 mean= 0.356
 gam= 0.536 g(H,U,f)=  0.191E+03 0.139E+02 0.916E-03 ort(H,U,f) =-0.785E+00 0.149E+02 0.698E-02
CGA:  14    -0.857546336252E+03   -0.93743E+02   -0.92044E+02  5048   0.205E+03 0.141E+02
 gam= 0.536 trial= 0.362  step= 0.462 mean= 0.362
 gam= 0.510 g(H,U,f)=  0.933E+02 0.112E+02 0.173E-01 ort(H,U,f) =-0.191E+02 0.126E+02-0.354E-01
CGA:  15    -0.906084548289E+03   -0.48538E+02   -0.49137E+02  5048   0.104E+03-0.648E+01
 gam= 0.510 trial= 0.367  step= 0.441 mean= 0.367
 gam= 0.508 g(H,U,f)=  0.489E+02 0.422E+01 0.789E-02 ort(H,U,f) =-0.741E+01 0.697E+01 0.125E-01
CGA:  16    -0.928392526002E+03   -0.22308E+02   -0.22323E+02  5048   0.531E+02-0.424E+00
 gam= 0.508 trial= 0.370  step= 0.425 mean= 0.370
 gam= 0.410 g(H,U,f)=  0.202E+02 0.157E+01 0.124E-01 ort(H,U,f) =-0.298E+01 0.294E+01 0.158E+00
CGA:  17    -0.939636516608E+03   -0.11244E+02   -0.11227E+02  5048   0.218E+02 0.124E+00
 gam= 0.410 trial= 0.373  step= 0.465 mean= 0.373
 gam= 0.477 g(H,U,f)=  0.943E+01 0.955E+00 0.147E-02 ort(H,U,f) =-0.124E+01 0.116E+01-0.375E-02
CGA:  18    -0.944718759124E+03   -0.50822E+01   -0.50826E+01  5048   0.104E+02-0.872E-01
 gam= 0.477 trial= 0.378  step= 0.544 mean= 0.378
 gam= 0.555 g(H,U,f)=  0.502E+01 0.723E+00 0.242E-01 ort(H,U,f) =-0.141E+01 0.908E+00 0.122E+00
CGA:  19    -0.947500179654E+03   -0.27814E+01   -0.28118E+01  5048   0.576E+01-0.378E+00
 gam= 0.555 trial= 0.386  step= 0.445 mean= 0.386
 gam= 0.578 g(H,U,f)=  0.279E+01 0.540E+00 0.148E-02 ort(H,U,f) =-0.953E-01-0.144E+00-0.815E-02
CGA:  20    -0.948723333390E+03   -0.12232E+01   -0.12351E+01  5048   0.333E+01-0.247E+00
 gam= 0.578 trial= 0.389  step= 0.398 mean= 0.389
 gam= 0.544 g(H,U,f)=  0.157E+01 0.238E+00 0.694E-03 ort(H,U,f) = 0.292E-01-0.193E-01-0.110E-02
CGA:  21    -0.949357661855E+03   -0.63433E+00   -0.63428E+00  5048   0.181E+01 0.880E-02
 gam= 0.544 trial= 0.389  step= 0.389 mean= 0.389
 gam= 0.571 g(H,U,f)=  0.915E+00 0.119E+00 0.462E-03 ort(H,U,f) = 0.212E-01-0.147E-01-0.718E-03
CGA:  22    -0.949710899999E+03   -0.35324E+00   -0.35324E+00  5048   0.103E+01 0.572E-02
 gam= 0.571 trial= 0.389  step= 0.416 mean= 0.389
 gam= 0.489 g(H,U,f)=  0.411E+00 0.945E-01 0.547E-03 ort(H,U,f) =-0.443E-01 0.448E-01-0.139E-03
CGA:  23    -0.949926614102E+03   -0.21571E+00   -0.21571E+00  5048   0.506E+00 0.357E-03
 gam= 0.489 trial= 0.391  step= 0.416 mean= 0.391
 gam= 0.574 g(H,U,f)=  0.241E+00 0.499E-01 0.128E-03 ort(H,U,f) =-0.491E-01 0.497E-01 0.115E-03
CGA:  24    -0.950031880936E+03   -0.10527E+00   -0.10525E+00  5048   0.291E+00 0.731E-03
 gam= 0.574 trial= 0.392  step= 0.472 mean= 0.392
 gam= 0.624 g(H,U,f)=  0.148E+00 0.335E-01 0.143E-03 ort(H,U,f) =-0.261E-01 0.265E-01 0.125E-03
CGA:  25    -0.950100643618E+03   -0.68763E-01   -0.68735E-01  5048   0.182E+00 0.556E-03
 gam= 0.624 trial= 0.396  step= 0.414 mean= 0.396
 gam= 0.571 g(H,U,f)=  0.922E-01 0.113E-01 0.335E-04 ort(H,U,f) =-0.973E-02 0.102E-01 0.119E-03
CGA:  26    -0.950138290153E+03   -0.37647E-01   -0.37637E-01  5048   0.104E+00 0.627E-03
 gam= 0.571 trial= 0.397  step= 0.412 mean= 0.397
 gam= 0.612 g(H,U,f)=  0.527E-01 0.107E-01 0.337E-04 ort(H,U,f) =-0.970E-03 0.105E-02 0.156E-04
CGA:  27    -0.950159732076E+03   -0.21442E-01   -0.21440E-01  5048   0.634E-01 0.940E-04
 gam= 0.612 trial= 0.398  step= 0.397 mean= 0.398
 gam= 0.533 g(H,U,f)=  0.301E-01 0.367E-02 0.117E-04 ort(H,U,f) =-0.408E-02 0.395E-02 0.106E-04
CGA:  28    -0.950172317675E+03   -0.12586E-01   -0.12586E-01  5048   0.338E-01-0.119E-03
 gam= 0.533 trial= 0.398  step= 0.405 mean= 0.398
 gam= 0.572 g(H,U,f)=  0.163E-01 0.299E-02 0.166E-05 ort(H,U,f) =-0.586E-03 0.488E-03-0.153E-05
CGA:  29    -0.950179137069E+03   -0.68194E-02   -0.68198E-02  5048   0.193E-01-0.998E-04
 gam= 0.572 trial= 0.398  step= 0.429 mean= 0.398
 gam= 0.510 g(H,U,f)=  0.875E-02 0.109E-02 0.268E-05 ort(H,U,f) =-0.145E-02 0.141E-02-0.437E-05
CGA:  30    -0.950183262758E+03   -0.41257E-02   -0.41264E-02  5048   0.984E-02-0.468E-04
 gam= 0.510 trial= 0.399  step= 0.456 mean= 0.399
 gam= 0.613 g(H,U,f)=  0.494E-02 0.109E-02 0.552E-05 ort(H,U,f) =-0.474E-03 0.469E-03 0.233E-06
CGA:  31    -0.950185503013E+03   -0.22403E-02   -0.22404E-02  5048   0.603E-02-0.481E-05
 gam= 0.613 trial= 0.402  step= 0.471 mean= 0.402
 gam= 0.612 g(H,U,f)=  0.305E-02 0.638E-03 0.317E-05 ort(H,U,f) =-0.830E-03 0.834E-03 0.344E-05
CGA:  32    -0.950186923673E+03   -0.14207E-02   -0.14204E-02  5048   0.369E-02 0.779E-05
 gam= 0.612 trial= 0.406  step= 0.454 mean= 0.406
 gam= 0.588 g(H,U,f)=  0.190E-02 0.268E-03 0.117E-05 ort(H,U,f) =-0.350E-03 0.354E-03 0.205E-05
CGA:  33    -0.950187763489E+03   -0.83982E-03   -0.83971E-03  5048   0.217E-02 0.583E-05
 gam= 0.588 trial= 0.408  step= 0.459 mean= 0.408
 gam= 0.664 g(H,U,f)=  0.122E-02 0.224E-03 0.522E-06 ort(H,U,f) =-0.104E-03 0.103E-03 0.143E-05
CGA:  34    -0.950188262001E+03   -0.49851E-03   -0.49851E-03  5048   0.144E-02 0.466E-06
 gam= 0.664 trial= 0.411  step= 0.424 mean= 0.411
 gam= 0.564 g(H,U,f)=  0.695E-03 0.118E-03 0.268E-06 ort(H,U,f) =-0.114E-03 0.112E-03 0.946E-06
CGA:  35    -0.950188567424E+03   -0.30542E-03   -0.30543E-03  5048   0.813E-03-0.122E-05
 gam= 0.564 trial= 0.411  step= 0.476 mean= 0.411
 gam= 0.630 g(H,U,f)=  0.425E-03 0.872E-04 0.149E-06 ort(H,U,f) =-0.791E-04 0.820E-04 0.347E-06
CGA:  36    -0.950188760835E+03   -0.19341E-03   -0.19331E-03  5048   0.512E-03 0.320E-05
 gam= 0.630 trial= 0.415  step= 0.455 mean= 0.415
 gam= 0.000 g(H,U,f)=  0.254E-03 0.503E-04 0.557E-07 ort(H,U,f) =-0.668E-04 0.746E-04-0.577E-07
SDA:  37    -0.950188877978E+03   -0.11714E-03   -0.11699E-03  5048   0.304E-03 0.779E-05
 gam= 0.000 trial= 0.417  step= 0.799 mean= 0.417
 gam= 0.416 g(H,U,f)=  0.849E-04 0.414E-04 0.383E-07 ort(H,U,f) =-0.135E-04 0.187E-04 0.457E-07
CGA:  38    -0.950189000456E+03   -0.12248E-03   -0.12146E-03  5048   0.126E-03 0.533E-05
 gam= 0.416 trial= 0.436  step= 0.598 mean= 0.436
 gam= 0.751 g(H,U,f)=  0.562E-04 0.387E-04 0.418E-07 ort(H,U,f) =-0.171E-04 0.181E-04 0.216E-07
CGA:  39    -0.950189039031E+03   -0.38575E-04   -0.38489E-04  5048   0.950E-04 0.103E-05
 gam= 0.751 trial= 0.444  step= 0.612 mean= 0.444
 gam= 0.523 g(H,U,f)=  0.355E-04 0.141E-04 0.676E-08 ort(H,U,f) =-0.251E-04 0.239E-04 0.267E-07
CGA:  40    -0.950189068233E+03   -0.29202E-04   -0.29299E-04  5048   0.496E-04-0.117E-05
 gam= 0.523 trial= 0.452  step= 0.928 mean= 0.452
 gam= 0.832 g(H,U,f)=  0.306E-04 0.107E-04 0.240E-08 ort(H,U,f) =-0.194E-04 0.183E-04 0.536E-09
CGA:  41    -0.950189090707E+03   -0.22474E-04   -0.22745E-04  5048   0.413E-04-0.113E-05
 gam= 0.832 trial= 0.476  step= 1.149 mean= 0.476
 gam= 1.056 g(H,U,f)=  0.330E-04 0.106E-04 0.176E-07 ort(H,U,f) =-0.172E-04 0.172E-04 0.217E-08
CGA:  42    -0.950189113891E+03   -0.23185E-04   -0.23193E-04  5048   0.436E-04-0.227E-07
 gam= 1.056 trial= 0.510  step= 1.089 mean= 0.510
 gam= 1.275 g(H,U,f)=  0.447E-04 0.109E-04 0.144E-07 ort(H,U,f) =-0.189E-04 0.204E-04 0.115E-07
CGA:  43    -0.950189138061E+03   -0.24170E-04   -0.23749E-04  5048   0.556E-04 0.146E-05
 gam= 1.275 trial= 0.539  step= 0.961 mean= 0.539
 gam= 1.005 g(H,U,f)=  0.464E-04 0.953E-05 0.154E-07 ort(H,U,f) =-0.213E-04 0.219E-04-0.317E-07
CGA:  44    -0.950189165822E+03   -0.27760E-04   -0.27638E-04  5048   0.559E-04 0.572E-06
 gam= 1.005 trial= 0.560  step= 0.824 mean= 0.560
 gam= 0.801 g(H,U,f)=  0.383E-04 0.645E-05 0.898E-09 ort(H,U,f) =-0.178E-04 0.174E-04 0.276E-09
CGA:  45    -0.950189189057E+03   -0.23236E-04   -0.23283E-04  5048   0.448E-04-0.365E-06
 gam= 0.801 trial= 0.573  step= 0.784 mean= 0.573
 gam= 0.721 g(H,U,f)=  0.265E-04 0.574E-05 0.163E-08 ort(H,U,f) =-0.118E-04 0.114E-04 0.349E-08
CGA:  46    -0.950189206443E+03   -0.17385E-04   -0.17434E-04  5048   0.323E-04-0.449E-06
 gam= 0.721 trial= 0.584  step= 0.733 mean= 0.584
 gam= 0.822 g(H,U,f)=  0.209E-04 0.562E-05 0.316E-08 ort(H,U,f) =-0.906E-05 0.910E-05-0.103E-08
CGA:  47    -0.950189218156E+03   -0.11713E-04   -0.11711E-04  5048   0.265E-04 0.352E-07
 gam= 0.822 trial= 0.591  step= 0.802 mean= 0.591
 gam= 1.010 g(H,U,f)=  0.212E-04 0.555E-05 0.963E-08 ort(H,U,f) =-0.100E-04 0.101E-04 0.241E-09
CGA:  48    -0.950189228823E+03   -0.10667E-04   -0.10659E-04  5048   0.268E-04 0.824E-07
 gam= 1.010 trial= 0.602  step= 0.843 mean= 0.602
 gam= 0.979 g(H,U,f)=  0.219E-04 0.432E-05 0.315E-08 ort(H,U,f) =-0.118E-04 0.116E-04 0.648E-08
CGA:  49    -0.950189240130E+03   -0.11308E-04   -0.11333E-04  5048   0.262E-04-0.204E-06
 gam= 0.979 trial= 0.614  step= 0.835 mean= 0.614
 gam= 1.006 g(H,U,f)=  0.227E-04 0.367E-05 0.257E-08 ort(H,U,f) =-0.110E-04 0.109E-04-0.602E-09
CGA:  50    -0.950189250991E+03   -0.10861E-04   -0.10874E-04  5048   0.264E-04-0.127E-06
 gam= 1.006 trial= 0.625  step= 0.712 mean= 0.625
 gam= 0.756 g(H,U,f)=  0.169E-04 0.302E-05 0.135E-09 ort(H,U,f) =-0.869E-05 0.870E-05 0.862E-09
CGA:  51    -0.950189260337E+03   -0.93460E-05   -0.93450E-05  5048   0.199E-04 0.997E-08
 gam= 0.756 trial= 0.629  step= 0.735 mean= 0.629
 final diagonalization
   1 F= -.95018926E+03 E0= -.95018697E+03  d E =-.457304E-02
 writing wavefunctions
Warning: ieee_invalid is signaling
Warning: ieee_divide_by_zero is signaling
Warning: ieee_underflow is signaling
Warning: ieee_inexact is signaling
FORTRAN STOP
Warning: ieee_invalid is signaling
Warning: ieee_divide_by_zero is signaling
Warning: ieee_underflow is signaling
Warning: ieee_inexact is signaling
FORTRAN STOP
Warning: ieee_invalid is signaling
Warning: ieee_divide_by_zero is signaling
Warning: ieee_underflow is signaling
Warning: ieee_inexact is signaling
FORTRAN STOP
Warning: ieee_invalid is signaling
Warning: ieee_divide_by_zero is signaling
Warning: ieee_underflow is signaling
Warning: ieee_inexact is signaling
FORTRAN STOP
