       N       E                     dE             d eps       ncg     rms          ort
DAV:   1    -0.183891524206E+05   -0.18389E+05   -0.54723E+05  5048   0.744E+03
DAV:   2    -0.623409476225E+05   -0.43952E+05   -0.42663E+05  5048   0.120E+03
DAV:   3    -0.668804855979E+05   -0.45395E+04   -0.40595E+04  5048   0.349E+02
DAV:   4    -0.674201234905E+05   -0.53964E+03   -0.45139E+03  5048   0.103E+02
DAV:   5    -0.373634566658E+05    0.30057E+05   -0.72203E+02  5048   0.535E+01
SDA:   6     0.197749843412E+05    0.57138E+05   -0.72203E+02  5048   0.923E+05 0.000E+00
CGA:   7     0.521259052343E+04   -0.14562E+05   -0.13041E+05  5048   0.366E+05-0.183E+05
CGA:   8     0.153979384294E+04   -0.36728E+04   -0.27842E+04  5048   0.721E+04 0.177E+04
CGA:   9     0.500228735003E+03   -0.10396E+04   -0.81404E+03  5048   0.515E+04-0.171E+04
CGA:  10     0.106195158906E+03   -0.39403E+03   -0.42862E+03  5048   0.531E+04-0.638E+03
CGA:  11    -0.276098684904E+03   -0.38229E+03   -0.43763E+03  5048   0.234E+04-0.376E+03
CGA:  12    -0.597581435189E+03   -0.32148E+03   -0.33125E+03  5048   0.874E+03 0.123E+03
CGA:  13    -0.763803443294E+03   -0.16622E+03   -0.16605E+03  5048   0.383E+03 0.341E+02
CGA:  14    -0.857546336252E+03   -0.93743E+02   -0.92044E+02  5048   0.205E+03 0.141E+02
CGA:  15    -0.906084548289E+03   -0.48538E+02   -0.49137E+02  5048   0.104E+03-0.648E+01
CGA:  16    -0.928392526002E+03   -0.22308E+02   -0.22323E+02  5048   0.531E+02-0.424E+00
CGA:  17    -0.939636516608E+03   -0.11244E+02   -0.11227E+02  5048   0.218E+02 0.124E+00
CGA:  18    -0.944718759124E+03   -0.50822E+01   -0.50826E+01  5048   0.104E+02-0.872E-01
CGA:  19    -0.947500179654E+03   -0.27814E+01   -0.28118E+01  5048   0.576E+01-0.378E+00
CGA:  20    -0.948723333390E+03   -0.12232E+01   -0.12351E+01  5048   0.333E+01-0.247E+00
CGA:  21    -0.949357661855E+03   -0.63433E+00   -0.63428E+00  5048   0.181E+01 0.880E-02
CGA:  22    -0.949710899999E+03   -0.35324E+00   -0.35324E+00  5048   0.103E+01 0.572E-02
CGA:  23    -0.949926614102E+03   -0.21571E+00   -0.21571E+00  5048   0.506E+00 0.357E-03
CGA:  24    -0.950031880936E+03   -0.10527E+00   -0.10525E+00  5048   0.291E+00 0.731E-03
CGA:  25    -0.950100643618E+03   -0.68763E-01   -0.68735E-01  5048   0.182E+00 0.556E-03
CGA:  26    -0.950138290153E+03   -0.37647E-01   -0.37637E-01  5048   0.104E+00 0.627E-03
CGA:  27    -0.950159732076E+03   -0.21442E-01   -0.21440E-01  5048   0.634E-01 0.940E-04
CGA:  28    -0.950172317675E+03   -0.12586E-01   -0.12586E-01  5048   0.338E-01-0.119E-03
CGA:  29    -0.950179137069E+03   -0.68194E-02   -0.68198E-02  5048   0.193E-01-0.998E-04
CGA:  30    -0.950183262758E+03   -0.41257E-02   -0.41264E-02  5048   0.984E-02-0.468E-04
CGA:  31    -0.950185503013E+03   -0.22403E-02   -0.22404E-02  5048   0.603E-02-0.481E-05
CGA:  32    -0.950186923673E+03   -0.14207E-02   -0.14204E-02  5048   0.369E-02 0.779E-05
CGA:  33    -0.950187763489E+03   -0.83982E-03   -0.83971E-03  5048   0.217E-02 0.583E-05
CGA:  34    -0.950188262001E+03   -0.49851E-03   -0.49851E-03  5048   0.144E-02 0.466E-06
CGA:  35    -0.950188567424E+03   -0.30542E-03   -0.30543E-03  5048   0.813E-03-0.122E-05
CGA:  36    -0.950188760835E+03   -0.19341E-03   -0.19331E-03  5048   0.512E-03 0.320E-05
SDA:  37    -0.950188877978E+03   -0.11714E-03   -0.11699E-03  5048   0.304E-03 0.779E-05
CGA:  38    -0.950189000456E+03   -0.12248E-03   -0.12146E-03  5048   0.126E-03 0.533E-05
CGA:  39    -0.950189039031E+03   -0.38575E-04   -0.38489E-04  5048   0.950E-04 0.103E-05
CGA:  40    -0.950189068233E+03   -0.29202E-04   -0.29299E-04  5048   0.496E-04-0.117E-05
CGA:  41    -0.950189090707E+03   -0.22474E-04   -0.22745E-04  5048   0.413E-04-0.113E-05
CGA:  42    -0.950189113891E+03   -0.23185E-04   -0.23193E-04  5048   0.436E-04-0.227E-07
CGA:  43    -0.950189138061E+03   -0.24170E-04   -0.23749E-04  5048   0.556E-04 0.146E-05
CGA:  44    -0.950189165822E+03   -0.27760E-04   -0.27638E-04  5048   0.559E-04 0.572E-06
CGA:  45    -0.950189189057E+03   -0.23236E-04   -0.23283E-04  5048   0.448E-04-0.365E-06
CGA:  46    -0.950189206443E+03   -0.17385E-04   -0.17434E-04  5048   0.323E-04-0.449E-06
CGA:  47    -0.950189218156E+03   -0.11713E-04   -0.11711E-04  5048   0.265E-04 0.352E-07
CGA:  48    -0.950189228823E+03   -0.10667E-04   -0.10659E-04  5048   0.268E-04 0.824E-07
CGA:  49    -0.950189240130E+03   -0.11308E-04   -0.11333E-04  5048   0.262E-04-0.204E-06
CGA:  50    -0.950189250991E+03   -0.10861E-04   -0.10874E-04  5048   0.264E-04-0.127E-06
CGA:  51    -0.950189260337E+03   -0.93460E-05   -0.93450E-05  5048   0.199E-04 0.997E-08
   1 F= -.95018926E+03 E0= -.95018697E+03  d E =-.457304E-02
