Ga8 O12                                 
    1.000000000000000     
     0.0000000000000000   12.2804737091000007    0.0000000000000000
     9.1427011490000005    0.0000000000000000    0.0000000000000000
     0.0000000000000000   -2.7682616411000001  -11.3006974810000003
   Ga   O    N    Fe
    47    71     1     1
Direct
  0.6592077864190884  0.0006544183378665  0.1577858941420089
  0.6584702107263851  0.0007386173621100  0.6555589657254544
  0.6594146113053014  0.3333334341469580  0.1583543516889989
  0.6590396302165189  0.3333331788659990  0.6537095348919522
  0.6592083545660685  0.6660119336402843  0.1577852155259762
  0.6584694165898242  0.6659300537791211  0.6555572559376088
  0.8407946582805508  0.1667852173320767  0.3443449376702432
  0.8407237261002791  0.1666947950627318  0.8430202302300742
  0.8407943298604792  0.4998814168144605  0.3443452106922891
  0.8407220718032633  0.4999725908372739  0.8430202081592881
  0.8418362619978268  0.8333340004868433  0.3433629913263232
  0.8408220568795741  0.8333319691689596  0.8429773837127144
  0.5839915602524499  0.1696259737491133  0.3956081132241493
  0.5918196815798353  0.1668245767953849  0.8977403098561254
  0.5839930885043714  0.4970391109916150  0.3956111898456953
  0.5918193692904268  0.4998417954710064  0.8977393220740808
  0.5921530428915531  0.8333342474121039  0.3981484974776279
  0.5919177926213806  0.8333332452647468  0.8982156957840104
  0.9089535773276936  0.0001420969861954  0.1023731065085656
  0.9095275690291587  0.9999668465104392  0.6029218851465572
  0.9086579972419244  0.3333320300411060  0.1026009301087925
  0.9099888624832460  0.3333335142124838  0.6027382756988757
  0.9089527282692913  0.6665251491320348  0.1023713742039334
  0.9095287654636905  0.6666996021193725  0.6029217346887776
  0.1595988408920093  0.1676944236905626  0.1582480931147572
  0.1600178888767658  0.1667279124484082  0.6570331278663772
  0.1595972343016641  0.4989731136887698  0.1582453915863056
  0.1600177731348964  0.4999391457311617  0.6570325522588121
  0.1591792572258228  0.8333343432959381  0.1570657779881159
  0.1598067626662996  0.8333329358712334  0.6571439361386311
  0.3407217343861717  0.0012862828410221  0.3439073194427138
  0.3419241620472562  0.0003731696885438  0.8436419548509164
  0.3419521764027067  0.3333324142767253  0.8433516845683542
  0.3407246156375905  0.6653823118838886  0.3439045107756797
  0.3419242666882667  0.6662922909346491  0.8436409875188673
  0.0912431421584046  0.0005592160226513  0.3977740953644329
  0.0915386142281278  0.0002338806113613  0.8982170041841542
  0.0941012890288562  0.3333330482992665  0.3971204150286809
  0.0914334987373522  0.3333331435165903  0.8979622456487562
  0.0912401121709294  0.6661078202420683  0.3977674165955278
  0.0915398756570838  0.6664322155595599  0.8982166721543265
  0.4086065016702065  0.1672130793706401  0.1042075553460364
  0.4076156472160761  0.1682610142145009  0.5982218950240465
  0.4086062664178840  0.4994532783949595  0.1042072593473762
  0.4076158333535744  0.4984057002914071  0.5982204636650437
  0.4089028112483533  0.8333339014434031  0.1031455295483141
  0.4086511269337549  0.8333338338868117  0.6016914186721678
  0.9962158590443053  0.1668267716929535  0.1265998524325127
  0.9972131506708237  0.1664849318778110  0.6283176537781401
  0.9962147625166722  0.4998395973826177  0.1265981705408095
  0.9972130523099949  0.5001811184811089  0.6283187980702110
  0.9961960614835661  0.8333330830052077  0.1265270029032095
  0.9972018269746385  0.8333338875647769  0.6283952836183886
  0.5028766219653065  0.9967907901965987  0.3730123810103692
  0.5044194992008642  0.9999916069101289  0.8728918927952947
  0.5043198855136097  0.3333332135009215  0.8731799609912443
  0.5028794058082937  0.6698755766940252  0.3730175365607593
  0.5044190104080215  0.6666746364235649  0.8728921599836568
  0.6727551798645450  0.1655547195253249  0.2813690929848320
  0.6728332231693628  0.1666548480740033  0.7800808559507431
  0.6727545405532283  0.5011103321324768  0.2813697362204053
  0.6728318325571720  0.5000112529804213  0.7800793232897618
  0.6736193185522765  0.8333333192321462  0.2809421229496607
  0.6723134865878180  0.8333330646921553  0.7800594316377598
  0.8282030045904420  0.0000264664894942  0.2199714571441262
  0.8278494338371516  0.9999304079437010  0.7198003344980393
  0.8277345508308471  0.3333337256378002  0.2201636261954789
  0.8277131638040487  0.3333337465539685  0.7192713160970285
  0.8282032850261771  0.6666402293412617  0.2199718354037969
  0.8278490337631865  0.6667381406667943  0.7197998022851166
  0.8338507268017992  0.9995183153972746  0.4463071525615661
  0.8319287853031909  0.9999097498575509  0.9456999161655588
  0.8331539160377517  0.3333333871192679  0.4465676446407656
  0.8320419640552288  0.3333332504686695  0.9456835168838538
  0.8338506494539786  0.6671492924174700  0.4463071057949932
  0.8319187683688725  0.6667525440342956  0.9457005014630795
  0.6684596055985281  0.1668407026116228  0.0545668261931667
  0.6679800374608007  0.1656170129993342  0.5527280644854855
  0.6684591917867948  0.4998259223843320  0.0545662535528493
  0.6679821334567038  0.5010503831054223  0.5527303130184933
  0.6680586272294065  0.8333334229103784  0.0550740299417996
  0.6690984641671349  0.8333347272685572  0.5548109378407204
  0.4963098687881455  0.0002243265083379  0.1273807936453437
  0.4954795956146754  0.0007574480435792  0.6263201054951963
  0.4968073305591432  0.3333308563720010  0.1261926829614310
  0.4967933377918072  0.3333334783929871  0.6289605326379686
  0.4963100995624146  0.6664427088877716  0.1273821763376333
  0.4954796815783666  0.6659095858361255  0.6263204914141554
  0.0042034528923338  0.1675752573659324  0.3732406218246211
  0.0036203458215098  0.1667146935278367  0.8727226643817048
  0.0042025458624764  0.4990898721039017  0.3732392595954366
  0.0036199150293328  0.4999524221903755  0.8727230282600118
  0.0042450560297524  0.8333349960224226  0.3733130664203799
  0.0039831307751186  0.8333321208087838  0.8732257059178892
  0.1712930022564336  0.9993731097889764  0.2798167613608911
  0.1732006498706369  0.0001581795454300  0.7810584377878698
  0.1729372499609170  0.3333338353912154  0.2787901782002464
  0.1732750799486098  0.3333334060759015  0.7810406433427630
  0.1712950375650877  0.6672965004818181  0.2798163647064129
  0.1732013515488546  0.6665090886689882  0.7810577086430328
  0.3270779785053861  0.1670669210537810  0.2212541340808230
  0.3282739843814610  0.1667238977065182  0.7189939059605379
  0.3270768926778445  0.4996010685958225  0.2212531021259920
  0.3282733420896520  0.4999424416401723  0.7189917935442125
  0.3267267382078956  0.8333326039567268  0.2193638860005720
  0.3279914343924659  0.8333323252167801  0.7199519552429905
  0.3284706138568652  0.1698691795668239  0.4425247199325000
  0.3332697631296426  0.1667556454697348  0.9463264683391373
  0.3284747866034081  0.4968009310875061  0.4425225414043723
  0.3332714742807426  0.4999104668996495  0.9463237413414873
  0.3297832825774663  0.8333324980897814  0.4458134239476692
  0.3329239141179130  0.8333327113093816  0.9459801794175533
  0.1683006367446893  0.0006203124189454  0.0546331265297226
  0.1680834119332886  0.9999868040209989  0.5545806931977850
  0.1686309996347930  0.3333333178226354  0.0539133096174567
  0.1676750604091524  0.3333331796589931  0.5548791449505615
  0.1683032172016468  0.6660480278089125  0.0546324311744755
  0.1680688288146328  0.6666761625133546  0.5545798584147548
  0.4921464228003813  0.3333332891810912  0.3704720233905121
  0.3429418466522662  0.3333338616721591  0.3382565275617040
 
  0.00000000E+00  0.00000000E+00  0.00000000E+00
  0.00000000E+00  0.00000000E+00  0.00000000E+00
  0.00000000E+00  0.00000000E+00  0.00000000E+00
  0.00000000E+00  0.00000000E+00  0.00000000E+00
  0.00000000E+00  0.00000000E+00  0.00000000E+00
  0.00000000E+00  0.00000000E+00  0.00000000E+00
  0.00000000E+00  0.00000000E+00  0.00000000E+00
  0.00000000E+00  0.00000000E+00  0.00000000E+00
  0.00000000E+00  0.00000000E+00  0.00000000E+00
  0.00000000E+00  0.00000000E+00  0.00000000E+00
  0.00000000E+00  0.00000000E+00  0.00000000E+00
  0.00000000E+00  0.00000000E+00  0.00000000E+00
  0.00000000E+00  0.00000000E+00  0.00000000E+00
  0.00000000E+00  0.00000000E+00  0.00000000E+00
  0.00000000E+00  0.00000000E+00  0.00000000E+00
  0.00000000E+00  0.00000000E+00  0.00000000E+00
  0.00000000E+00  0.00000000E+00  0.00000000E+00
  0.00000000E+00  0.00000000E+00  0.00000000E+00
  0.00000000E+00  0.00000000E+00  0.00000000E+00
  0.00000000E+00  0.00000000E+00  0.00000000E+00
  0.00000000E+00  0.00000000E+00  0.00000000E+00
  0.00000000E+00  0.00000000E+00  0.00000000E+00
  0.00000000E+00  0.00000000E+00  0.00000000E+00
  0.00000000E+00  0.00000000E+00  0.00000000E+00
  0.00000000E+00  0.00000000E+00  0.00000000E+00
  0.00000000E+00  0.00000000E+00  0.00000000E+00
  0.00000000E+00  0.00000000E+00  0.00000000E+00
  0.00000000E+00  0.00000000E+00  0.00000000E+00
  0.00000000E+00  0.00000000E+00  0.00000000E+00
  0.00000000E+00  0.00000000E+00  0.00000000E+00
  0.00000000E+00  0.00000000E+00  0.00000000E+00
  0.00000000E+00  0.00000000E+00  0.00000000E+00
  0.00000000E+00  0.00000000E+00  0.00000000E+00
  0.00000000E+00  0.00000000E+00  0.00000000E+00
  0.00000000E+00  0.00000000E+00  0.00000000E+00
  0.00000000E+00  0.00000000E+00  0.00000000E+00
  0.00000000E+00  0.00000000E+00  0.00000000E+00
  0.00000000E+00  0.00000000E+00  0.00000000E+00
  0.00000000E+00  0.00000000E+00  0.00000000E+00
  0.00000000E+00  0.00000000E+00  0.00000000E+00
  0.00000000E+00  0.00000000E+00  0.00000000E+00
  0.00000000E+00  0.00000000E+00  0.00000000E+00
  0.00000000E+00  0.00000000E+00  0.00000000E+00
  0.00000000E+00  0.00000000E+00  0.00000000E+00
  0.00000000E+00  0.00000000E+00  0.00000000E+00
  0.00000000E+00  0.00000000E+00  0.00000000E+00
  0.00000000E+00  0.00000000E+00  0.00000000E+00
  0.00000000E+00  0.00000000E+00  0.00000000E+00
  0.00000000E+00  0.00000000E+00  0.00000000E+00
  0.00000000E+00  0.00000000E+00  0.00000000E+00
  0.00000000E+00  0.00000000E+00  0.00000000E+00
  0.00000000E+00  0.00000000E+00  0.00000000E+00
  0.00000000E+00  0.00000000E+00  0.00000000E+00
  0.00000000E+00  0.00000000E+00  0.00000000E+00
  0.00000000E+00  0.00000000E+00  0.00000000E+00
  0.00000000E+00  0.00000000E+00  0.00000000E+00
  0.00000000E+00  0.00000000E+00  0.00000000E+00
  0.00000000E+00  0.00000000E+00  0.00000000E+00
  0.00000000E+00  0.00000000E+00  0.00000000E+00
  0.00000000E+00  0.00000000E+00  0.00000000E+00
  0.00000000E+00  0.00000000E+00  0.00000000E+00
  0.00000000E+00  0.00000000E+00  0.00000000E+00
  0.00000000E+00  0.00000000E+00  0.00000000E+00
  0.00000000E+00  0.00000000E+00  0.00000000E+00
  0.00000000E+00  0.00000000E+00  0.00000000E+00
  0.00000000E+00  0.00000000E+00  0.00000000E+00
  0.00000000E+00  0.00000000E+00  0.00000000E+00
  0.00000000E+00  0.00000000E+00  0.00000000E+00
  0.00000000E+00  0.00000000E+00  0.00000000E+00
  0.00000000E+00  0.00000000E+00  0.00000000E+00
  0.00000000E+00  0.00000000E+00  0.00000000E+00
  0.00000000E+00  0.00000000E+00  0.00000000E+00
  0.00000000E+00  0.00000000E+00  0.00000000E+00
  0.00000000E+00  0.00000000E+00  0.00000000E+00
  0.00000000E+00  0.00000000E+00  0.00000000E+00
  0.00000000E+00  0.00000000E+00  0.00000000E+00
  0.00000000E+00  0.00000000E+00  0.00000000E+00
  0.00000000E+00  0.00000000E+00  0.00000000E+00
  0.00000000E+00  0.00000000E+00  0.00000000E+00
  0.00000000E+00  0.00000000E+00  0.00000000E+00
  0.00000000E+00  0.00000000E+00  0.00000000E+00
  0.00000000E+00  0.00000000E+00  0.00000000E+00
  0.00000000E+00  0.00000000E+00  0.00000000E+00
  0.00000000E+00  0.00000000E+00  0.00000000E+00
  0.00000000E+00  0.00000000E+00  0.00000000E+00
  0.00000000E+00  0.00000000E+00  0.00000000E+00
  0.00000000E+00  0.00000000E+00  0.00000000E+00
  0.00000000E+00  0.00000000E+00  0.00000000E+00
  0.00000000E+00  0.00000000E+00  0.00000000E+00
  0.00000000E+00  0.00000000E+00  0.00000000E+00
  0.00000000E+00  0.00000000E+00  0.00000000E+00
  0.00000000E+00  0.00000000E+00  0.00000000E+00
  0.00000000E+00  0.00000000E+00  0.00000000E+00
  0.00000000E+00  0.00000000E+00  0.00000000E+00
  0.00000000E+00  0.00000000E+00  0.00000000E+00
  0.00000000E+00  0.00000000E+00  0.00000000E+00
  0.00000000E+00  0.00000000E+00  0.00000000E+00
  0.00000000E+00  0.00000000E+00  0.00000000E+00
  0.00000000E+00  0.00000000E+00  0.00000000E+00
  0.00000000E+00  0.00000000E+00  0.00000000E+00
  0.00000000E+00  0.00000000E+00  0.00000000E+00
  0.00000000E+00  0.00000000E+00  0.00000000E+00
  0.00000000E+00  0.00000000E+00  0.00000000E+00
  0.00000000E+00  0.00000000E+00  0.00000000E+00
  0.00000000E+00  0.00000000E+00  0.00000000E+00
  0.00000000E+00  0.00000000E+00  0.00000000E+00
  0.00000000E+00  0.00000000E+00  0.00000000E+00
  0.00000000E+00  0.00000000E+00  0.00000000E+00
  0.00000000E+00  0.00000000E+00  0.00000000E+00
  0.00000000E+00  0.00000000E+00  0.00000000E+00
  0.00000000E+00  0.00000000E+00  0.00000000E+00
  0.00000000E+00  0.00000000E+00  0.00000000E+00
  0.00000000E+00  0.00000000E+00  0.00000000E+00
  0.00000000E+00  0.00000000E+00  0.00000000E+00
  0.00000000E+00  0.00000000E+00  0.00000000E+00
  0.00000000E+00  0.00000000E+00  0.00000000E+00
  0.00000000E+00  0.00000000E+00  0.00000000E+00
  0.00000000E+00  0.00000000E+00  0.00000000E+00
  0.00000000E+00  0.00000000E+00  0.00000000E+00
  0.00000000E+00  0.00000000E+00  0.00000000E+00
