       N       E                     dE             d eps       ncg     rms          ort
SDA:   1    -0.948661183956E+03   -0.94866E+03    0.00000E+00  5040   0.261E+02 0.000E+00
CGA:   2    -0.953768160503E+03   -0.51070E+01   -0.51090E+01  5040   0.787E+01 0.254E+00
CGA:   3    -0.956632637479E+03   -0.28645E+01   -0.26383E+01  5040   0.385E+01 0.124E+01
CGA:   4    -0.957333237364E+03   -0.70060E+00   -0.70057E+00  5040   0.135E+01 0.116E+00
CGA:   5    -0.957745151347E+03   -0.41191E+00   -0.40660E+00  5040   0.596E+00 0.453E-01
CGA:   6    -0.957897526009E+03   -0.15237E+00   -0.15196E+00  5040   0.224E+00 0.703E-02
CGA:   7    -0.957946720585E+03   -0.49195E-01   -0.49182E-01  5040   0.874E-01 0.114E-02
CGA:   8    -0.957964692190E+03   -0.17972E-01   -0.17973E-01  5040   0.286E-01 0.204E-03
CGA:   9    -0.957971324406E+03   -0.66322E-02   -0.66325E-02  5040   0.155E-01-0.292E-04
CGA:  10    -0.957975144895E+03   -0.38205E-02   -0.38169E-02  5040   0.907E-02 0.907E-04
CGA:  11    -0.957977215497E+03   -0.20706E-02   -0.20695E-02  5040   0.504E-02 0.843E-04
CGA:  12    -0.957978540829E+03   -0.13253E-02   -0.13242E-02  5040   0.286E-02 0.250E-04
CGA:  13    -0.957979170544E+03   -0.62972E-03   -0.62973E-03  5040   0.152E-02-0.719E-05
CGA:  14    -0.957979498432E+03   -0.32789E-03   -0.32789E-03  5040   0.815E-03-0.284E-05
CGA:  15    -0.957979675771E+03   -0.17734E-03   -0.17734E-03  5040   0.465E-03 0.216E-05
CGA:  16    -0.957979772149E+03   -0.96378E-04   -0.96329E-04  5040   0.285E-03-0.481E-05
CGA:  17    -0.957979829590E+03   -0.57441E-04   -0.57286E-04  5040   0.169E-03-0.123E-04
CGA:  18    -0.957979862788E+03   -0.33198E-04   -0.33078E-04  5040   0.802E-04-0.110E-04
CGA:  19    -0.957979879223E+03   -0.16435E-04   -0.16457E-04  5040   0.427E-04-0.476E-05
CGA:  20    -0.957979886738E+03   -0.75148E-05   -0.74682E-05  5040   0.218E-04-0.161E-05
   1 F= -.95797989E+03 E0= -.95796670E+03  d E =-.263661E-01
