 vasp.6.4.2 20Jul23 (build Nov 12 2023 22:16:35) complex                         
 executed on              LinuxNV date 2025.05.13  16:06:13
 running    4 mpi-ranks, on    1 nodes
 distrk:  each k-point on    1 cores,    4 groups
 distr:  one band on NCORE=   1 cores,    1 groups
 OpenACC runtime initialized ...    4 GPUs detected


--------------------------------------------------------------------------------------------------------


 INCAR:
   PREC = Normal
   ENCUT = 450
   NELM = 500
   IBRION = -1
   ISPIN = 1
   NSW = 0
   ISIF = 2
   EDIFF = 1E-5
   EDIFFG = -5E-3
   ISTART = 1
   ICHARG = 1
   ISMEAR = 0
   SIGMA = 0.05
   LWAVE = .T.
   LCHARG = .T.
   LREAL = Auto
   LPLANE = .TRUE.
   NPAR = 1
   KPAR = 4
   NCORE = 1
   ALGO = All
   LHFCALC = .TRUE.
   HSE06 = .TRUE.
   HFSCREEN = 0.2
   TIME = 0.4
   AEXX = 0.32
   LMAXFOCK = 4
   PRECFOCK = Fast
   NELECT = 1051
   ICORELEVEL = 1
   ISYM = 0

 POTCAR:    PAW_PBE Ga_d 06Jul2010                
 POTCAR:    PAW_PBE O 08Apr2002                   
 POTCAR:    PAW_PBE N 08Apr2002                   
 POTCAR:    PAW_PBE Fe 06Sep2000                  
 POTCAR:    PAW_PBE Ga_d 06Jul2010                
   SHA256 =  a60ddf36e14f00ea098d9e3914b3745f1b7105e68786148f49ae384e44b4226c Ga_d/POTCAR           
   COPYR  = (c) Copyright 06Jul2010 Georg Kresse                                                    
   COPYR  = This file is part of the software VASP. Any use, copying, and all other rights are regul
   COPYR  = If you do not have a valid VASP license, you may not use, copy or distribute this file. 
   VRHFIN =Ga: s2p1                                                                                 
   LEXCH  = PE                                                                                      
   EATOM  =  2148.8298 eV,  157.9345 Ry                                                             
                                                                                                    
   TITEL  = PAW_PBE Ga_d 06Jul2010                                                                  
   LULTRA =        F    use ultrasoft PP ?                                                          
   IUNSCR =        1    unscreen: 0-lin 1-nonlin 2-no                                               
   RPACOR =    1.700    partial core radius                                                         
   POMASS =   69.723; ZVAL   =   13.000    mass and valenz                                          
   RCORE  =    2.300    outmost cutoff radius                                                       
   RWIGS  =    2.300; RWIGS  =    1.217    wigner-seitz radius (au A)                               
   ENMAX  =  282.691; ENMIN  =  212.018 eV                                                          
   ICORE  =        3    local potential                                                             
   LCOR   =        T    correct aug charges                                                         
   LPAW   =        T    paw PP                                                                      
   EAUG   =  490.690                                                                                
   DEXC   =    0.000                                                                                
   RMAX   =    2.341    core radius for proj-oper                                                   
   RAUG   =    1.300    factor for augmentation sphere                                              
   RDEP   =    2.413    radius for radial grids                                                     
   RDEPT  =    1.856    core radius for aug-charge                                                  
                                                                                                    
   Atomic configuration                                                                             
    9 entries                                                                                       
     n  l   j            E        occ.                                                              
     1  0  0.50    -10228.7831   2.0000                                                             
     2  0  0.50     -1262.1604   2.0000                                                             
     2  1  1.50     -1098.6333   6.0000                                                             
     3  0  0.50      -148.1110   2.0000                                                             
     3  1  1.50       -98.8436   6.0000                                                             
     3  2  2.50       -19.1549  10.0000                                                             
     4  0  0.50        -8.9483   2.0000                                                             
     4  1  0.50        -2.5791   1.0000                                                             
     4  3  2.50        -2.7416   0.0000                                                             
   Description                                                                                      
     l       E           TYP  RCUT    TYP  RCUT                                                     
     2    -19.1549037     23  2.300                                                                 
     2     -5.4423304     23  2.300                                                                 
     0     -8.9483111     23  2.300                                                                 
     0     68.0291300     23  2.300                                                                 
     1     -2.5790802     23  2.100                                                                 
     1     81.6349560     23  2.300                                                                 
     3      6.8029130     23  2.300                                                                 
  local pseudopotential read in
  partial core-charges read in
  partial kinetic energy density read in
  atomic valenz-charges read in
  non local Contribution for L=            2  read in
    real space projection operators read in
  non local Contribution for L=            2  read in
    real space projection operators read in
  non local Contribution for L=            0  read in
    real space projection operators read in
  non local Contribution for L=            0  read in
    real space projection operators read in
  non local Contribution for L=            1  read in
    real space projection operators read in
  non local Contribution for L=            1  read in
    real space projection operators read in
    PAW grid and wavefunctions read in
 
   number of l-projection  operators is LMAX  =            6
   number of lm-projection operators is LMMAX =           18
 
 POTCAR:    PAW_PBE O 08Apr2002                   
   SHA256 =  818f92134a0a090dccd8ba1447fa70422a3b330e708bb4f08108d8ae51209ddf O/POTCAR              
   COPYR  = (c) Copyright 08Apr2002 Georg Kresse                                                    
   COPYR  = This file is part of the software VASP. Any use, copying, and all other rights are regul
   COPYR  = If you do not have a valid VASP license, you may not use, copy or distribute this file. 
   VRHFIN =O: s2p4                                                                                  
   LEXCH  = PE                                                                                      
   EATOM  =   432.3788 eV,   31.7789 Ry                                                             
                                                                                                    
   TITEL  = PAW_PBE O 08Apr2002                                                                     
   LULTRA =        F    use ultrasoft PP ?                                                          
   IUNSCR =        1    unscreen: 0-lin 1-nonlin 2-no                                               
   RPACOR =    1.200    partial core radius                                                         
   POMASS =   16.000; ZVAL   =    6.000    mass and valenz                                          
   RCORE  =    1.520    outmost cutoff radius                                                       
   RWIGS  =    1.550; RWIGS  =    0.820    wigner-seitz radius (au A)                               
   ENMAX  =  400.000; ENMIN  =  300.000 eV                                                          
   ICORE  =        2    local potential                                                             
   LCOR   =        T    correct aug charges                                                         
   LPAW   =        T    paw PP                                                                      
   EAUG   =  605.392                                                                                
   DEXC   =    0.000                                                                                
   RMAX   =    1.553    core radius for proj-oper                                                   
   RAUG   =    1.300    factor for augmentation sphere                                              
   RDEP   =    1.550    radius for radial grids                                                     
   RDEPT  =    1.329    core radius for aug-charge                                                  
                                                                                                    
   Atomic configuration                                                                             
    4 entries                                                                                       
     n  l   j            E        occ.                                                              
     1  0  0.50      -514.6923   2.0000                                                             
     2  0  0.50       -23.9615   2.0000                                                             
     2  1  0.50        -9.0305   4.0000                                                             
     3  2  1.50        -9.5241   0.0000                                                             
   Description                                                                                      
     l       E           TYP  RCUT    TYP  RCUT                                                     
     0    -23.9615318     23  1.200                                                                 
     0     -9.5240782     23  1.200                                                                 
     1     -9.0304911     23  1.520                                                                 
     1      8.1634956     23  1.520                                                                 
     2     -9.5240782      7  1.500                                                                 
  local pseudopotential read in
  partial core-charges read in
  partial kinetic energy density read in
  kinetic energy density of atom read in
  atomic valenz-charges read in
  non local Contribution for L=            0  read in
    real space projection operators read in
  non local Contribution for L=            0  read in
    real space projection operators read in
  non local Contribution for L=            1  read in
    real space projection operators read in
  non local Contribution for L=            1  read in
    real space projection operators read in
    PAW grid and wavefunctions read in
 
   number of l-projection  operators is LMAX  =            4
   number of lm-projection operators is LMMAX =            8
 
 POTCAR:    PAW_PBE N 08Apr2002                   
   SHA256 =  e053789ff3a61a86a1b75d8a110fcc91f86041011e7b0817c7c99e4e8a6349d7 N/POTCAR              
   COPYR  = (c) Copyright 08Apr2002 Georg Kresse                                                    
   COPYR  = This file is part of the software VASP. Any use, copying, and all other rights are regul
   COPYR  = If you do not have a valid VASP license, you may not use, copy or distribute this file. 
   VRHFIN =N: s2p3                                                                                  
   LEXCH  = PE                                                                                      
   EATOM  =   264.5486 eV,   19.4438 Ry                                                             
                                                                                                    
   TITEL  = PAW_PBE N 08Apr2002                                                                     
   LULTRA =        F    use ultrasoft PP ?                                                          
   IUNSCR =        1    unscreen: 0-lin 1-nonlin 2-no                                               
   RPACOR =    1.200    partial core radius                                                         
   POMASS =   14.001; ZVAL   =    5.000    mass and valenz                                          
   RCORE  =    1.500    outmost cutoff radius                                                       
   RWIGS  =    1.400; RWIGS  =    0.741    wigner-seitz radius (au A)                               
   ENMAX  =  400.000; ENMIN  =  300.000 eV                                                          
   ICORE  =        2    local potential                                                             
   LCOR   =        T    correct aug charges                                                         
   LPAW   =        T    paw PP                                                                      
   EAUG   =  627.112                                                                                
   DEXC   =    0.000                                                                                
   RMAX   =    1.529    core radius for proj-oper                                                   
   RAUG   =    1.300    factor for augmentation sphere                                              
   RDEP   =    1.514    radius for radial grids                                                     
   RDEPT  =    1.338    core radius for aug-charge                                                  
                                                                                                    
   Atomic configuration                                                                             
    4 entries                                                                                       
     n  l   j            E        occ.                                                              
     1  0  0.50      -384.7179   2.0000                                                             
     2  0  0.50       -18.5828   2.0000                                                             
     2  1  0.50        -7.0898   3.0000                                                             
     3  2  1.50        -6.8029   0.0000                                                             
   Description                                                                                      
     l       E           TYP  RCUT    TYP  RCUT                                                     
     0    -18.5828119     23  1.200                                                                 
     0    -13.5018863     23  1.200                                                                 
     1     -7.0897853     23  1.500                                                                 
     1      9.5240782     23  1.500                                                                 
     2     -6.8029130      7  1.500                                                                 
  local pseudopotential read in
  partial core-charges read in
  partial kinetic energy density read in
  atomic valenz-charges read in
  non local Contribution for L=            0  read in
    real space projection operators read in
  non local Contribution for L=            0  read in
    real space projection operators read in
  non local Contribution for L=            1  read in
    real space projection operators read in
  non local Contribution for L=            1  read in
    real space projection operators read in
    PAW grid and wavefunctions read in
 
   number of l-projection  operators is LMAX  =            4
   number of lm-projection operators is LMMAX =            8
 
 POTCAR:    PAW_PBE Fe 06Sep2000                  
   SHA256 =  cd5a22d9368cc8b5cc476bea79732366149640da08ac9009b0e1b7fc627eea28 Fe/POTCAR             
   COPYR  = (c) Copyright 06Sep2000 Georg Kresse                                                    
   COPYR  = This file is part of the software VASP. Any use, copying, and all other rights are regul
   COPYR  = If you do not have a valid VASP license, you may not use, copy or distribute this file. 
   VRHFIN =Fe:  d7 s1                                                                               
   LEXCH  = PE                                                                                      
   EATOM  =   594.3153 eV,   43.6809 Ry                                                             
                                                                                                    
   TITEL  = PAW_PBE Fe 06Sep2000                                                                    
   LULTRA =        F    use ultrasoft PP ?                                                          
   IUNSCR =        1    unscreen: 0-lin 1-nonlin 2-no                                               
   RPACOR =    2.000    partial core radius                                                         
   POMASS =   55.847; ZVAL   =    8.000    mass and valenz                                          
   RCORE  =    2.300    outmost cutoff radius                                                       
   RWIGS  =    2.460; RWIGS  =    1.302    wigner-seitz radius (au A)                               
   ENMAX  =  267.882; ENMIN  =  200.911 eV                                                          
   RCLOC  =    1.701    cutoff for local pot                                                        
   LCOR   =        T    correct aug charges                                                         
   LPAW   =        T    paw PP                                                                      
   EAUG   =  511.368                                                                                
   DEXC   =    0.000                                                                                
   RMAX   =    2.356    core radius for proj-oper                                                   
   RAUG   =    1.300    factor for augmentation sphere                                              
   RDEP   =    2.442    radius for radial grids                                                     
   RDEPT  =    1.890    core radius for aug-charge                                                  
                                                                                                    
   Atomic configuration                                                                             
    9 entries                                                                                       
     n  l   j            E        occ.                                                              
     1  0  0.50     -6993.8440   2.0000                                                             
     2  0  0.50      -814.6047   2.0000                                                             
     2  1  1.50      -693.3689   6.0000                                                             
     3  0  0.50       -89.4732   2.0000                                                             
     3  1  1.50       -55.6373   6.0000                                                             
     3  2  2.50        -3.8151   7.0000                                                             
     4  0  0.50        -4.2551   1.0000                                                             
     4  1  1.50        -3.4015   0.0000                                                             
     4  3  2.50        -1.3606   0.0000                                                             
   Description                                                                                      
     l       E           TYP  RCUT    TYP  RCUT                                                     
     2     -3.8151135     23  2.300                                                                 
     2     -5.1756961     23  2.300                                                                 
     0     -4.2550963     23  2.300                                                                 
     0      7.2035603     23  2.300                                                                 
     1     -2.7211652     23  2.300                                                                 
     1     18.4316424     23  2.300                                                                 
  local pseudopotential read in
  partial core-charges read in
  partial kinetic energy density read in
  atomic valenz-charges read in
  non local Contribution for L=            2  read in
    real space projection operators read in
  non local Contribution for L=            2  read in
    real space projection operators read in
  non local Contribution for L=            0  read in
    real space projection operators read in
  non local Contribution for L=            0  read in
    real space projection operators read in
  non local Contribution for L=            1  read in
    real space projection operators read in
  non local Contribution for L=            1  read in
    real space projection operators read in
    PAW grid and wavefunctions read in
 
   number of l-projection  operators is LMAX  =            6
   number of lm-projection operators is LMMAX =           18
 
 Optimization of the real space projectors (new method)

 maximal supplied QI-value         = 16.25
 optimisation between [QCUT,QGAM] = [ 10.73, 21.61] = [ 32.22,130.83] Ry 
 Optimized for a Real-space Cutoff    1.42 Angstroem

   l    n(q)    QCUT    max X(q) W(low)/X(q) W(high)/X(q)  e(spline) 
   2      8    10.726     7.143    0.22E-03    0.16E-03    0.73E-07
   2      8    10.726     5.586    0.40E-03    0.26E-03    0.10E-06
   0      9    10.726    12.382    0.25E-04    0.21E-05    0.37E-07
   0      9    10.726     6.622    0.42E-04    0.48E-05    0.77E-07
   1      9    10.726     7.935    0.27E-03    0.13E-04    0.16E-06
   1      9    10.726     2.425    0.23E-03    0.15E-04    0.14E-06
 Optimization of the real space projectors (new method)

 maximal supplied QI-value         = 24.76
 optimisation between [QCUT,QGAM] = [ 10.64, 21.54] = [ 31.73,129.89] Ry 
 Optimized for a Real-space Cutoff    1.23 Angstroem

   l    n(q)    QCUT    max X(q) W(low)/X(q) W(high)/X(q)  e(spline) 
   0      8    10.645    20.381    0.38E-03    0.60E-03    0.15E-06
   0      8    10.645    15.268    0.40E-03    0.65E-03    0.17E-06
   1      7    10.645     5.964    0.30E-03    0.63E-03    0.18E-06
   1      7    10.645     5.382    0.24E-03    0.53E-03    0.16E-06
 Optimization of the real space projectors (new method)

 maximal supplied QI-value         = 25.13
 optimisation between [QCUT,QGAM] = [ 10.81, 21.61] = [ 32.71,130.83] Ry 
 Optimized for a Real-space Cutoff    1.23 Angstroem

   l    n(q)    QCUT    max X(q) W(low)/X(q) W(high)/X(q)  e(spline) 
   0      8    10.807    79.467    0.34E-03    0.68E-03    0.21E-06
   0      8    10.807    66.151    0.34E-03    0.67E-03    0.21E-06
   1      7    10.807    14.030    0.45E-03    0.13E-02    0.11E-05
   1      7    10.807     9.831    0.48E-03    0.13E-02    0.11E-05
 Optimization of the real space projectors (new method)

 maximal supplied QI-value         = 16.25
 optimisation between [QCUT,QGAM] = [ 10.73, 21.61] = [ 32.22,130.83] Ry 
 Optimized for a Real-space Cutoff    1.38 Angstroem

   l    n(q)    QCUT    max X(q) W(low)/X(q) W(high)/X(q)  e(spline) 
   2      8    10.726    80.901    0.27E-03    0.52E-03    0.20E-06
   2      8    10.726    75.754    0.27E-03    0.52E-03    0.20E-06
   0      9    10.726    58.752    0.33E-03    0.19E-03    0.52E-07
   0      9    10.726    30.679    0.30E-03    0.18E-03    0.49E-07
   1      8    10.726    17.977    0.22E-03    0.18E-03    0.17E-06
   1      8    10.726    13.559    0.18E-03    0.14E-03    0.14E-06
  PAW_PBE Ga_d 06Jul2010                :
 energy of atom  1       EATOM=-2148.8298
 kinetic energy error for atom=    0.0038 (will be added to EATOM!!)
  PAW_PBE O 08Apr2002                   :
 energy of atom  2       EATOM= -432.3788
 kinetic energy error for atom=    0.0389 (will be added to EATOM!!)
  PAW_PBE N 08Apr2002                   :
 energy of atom  3       EATOM= -264.5486
 kinetic energy error for atom=    0.0253 (will be added to EATOM!!)
  PAW_PBE Fe 06Sep2000                  :
 energy of atom  4       EATOM= -594.3153
 kinetic energy error for atom=    0.0034 (will be added to EATOM!!)
 
 
 POSCAR: Ga8 O12
  positions in direct lattice
  velocities in cartesian coordinates
 exchange correlation table for  LEXCH =        8
   RHO(1)=    0.500       N(1)  =     2000
   RHO(2)=  100.500       N(2)  =     4000
 


--------------------------------------------------------------------------------------------------------


 ion  position               nearest neighbor table
   1  0.659  0.001  0.158-  83 1.95  77 1.96  81 1.96  65 2.03  59 2.06  63 2.07
   2  0.658  0.001  0.656-  78 1.95  84 1.95  82 1.95  66 2.04  60 2.08  64 2.09
   3  0.659  0.333  0.158-  85 1.94  77 1.96  79 1.96  67 2.02  61 2.08  59 2.08
   4  0.659  0.333  0.654-  86 1.94  80 1.95  78 1.95  68 2.03  62 2.10  60 2.10
   5  0.659  0.666  0.158-  87 1.95  79 1.96  81 1.96  69 2.03  61 2.06  63 2.07
   6  0.658  0.666  0.656-  80 1.95  88 1.95  82 1.95  70 2.04  62 2.08  64 2.09
   7  0.841  0.167  0.344-  73 1.95  71 1.95  89 1.95  59 2.02  67 2.08  65 2.08
   8  0.841  0.167  0.843-  90 1.95  74 1.95  72 1.96  60 2.02  66 2.07  68 2.08
   9  0.841  0.500  0.344-  73 1.95  75 1.95  91 1.95  61 2.02  67 2.08  69 2.08
  10  0.841  0.500  0.843-  92 1.95  74 1.95  76 1.96  62 2.02  70 2.07  68 2.08
  11  0.842  0.833  0.343-  93 1.94  71 1.95  75 1.95  63 2.02  65 2.07  69 2.07
  12  0.841  0.833  0.843-  94 1.95  72 1.95  76 1.96  64 2.02  70 2.07  66 2.07
  13  0.584  0.170  0.396-  54 1.85 119 1.85  78 1.87  59 1.91
  14  0.592  0.167  0.898-  77 1.84  56 1.85  55 1.85  60 1.87
  15  0.584  0.497  0.396-  57 1.85 119 1.85  80 1.87  61 1.91
  16  0.592  0.500  0.898-  79 1.84  56 1.85  58 1.85  62 1.87
  17  0.592  0.833  0.398-  57 1.84  54 1.84  82 1.84  63 1.87
  18  0.592  0.833  0.898-  81 1.84  55 1.85  58 1.85  64 1.87
  19  0.909  0.000  0.102-  72 1.84  48 1.85  52 1.85  65 1.87
  20  0.910  1.000  0.603-  71 1.84  49 1.85  53 1.85  66 1.87
  21  0.909  0.333  0.103-  74 1.84  48 1.85  50 1.85  67 1.87
  22  0.910  0.333  0.603-  73 1.84  51 1.85  49 1.85  68 1.87
  23  0.909  0.667  0.102-  76 1.84  50 1.85  52 1.85  69 1.87
  24  0.910  0.667  0.603-  75 1.84  51 1.85  53 1.85  70 1.87
  25  0.160  0.168  0.158-  48 1.95 115 1.96 113 1.96 101 2.01  97 2.04  95 2.07
  26  0.160  0.167  0.657-  49 1.95 116 1.95 114 1.95 102 2.02  96 2.08  98 2.08
  27  0.160  0.499  0.158-  50 1.95 115 1.96 117 1.96 103 2.01  97 2.04  99 2.07
  28  0.160  0.500  0.657-  51 1.95 116 1.95 118 1.95 104 2.02 100 2.08  98 2.08
  29  0.159  0.833  0.157-  52 1.95 113 1.96 117 1.96 105 2.01  99 2.07  95 2.07
  30  0.160  0.833  0.657-  53 1.94 118 1.95 114 1.95 106 2.02 100 2.08  96 2.08
  31  0.341  0.001  0.344-  54 1.94 107 1.95 111 1.96  95 2.04 101 2.06 105 2.09
  32  0.342  0.000  0.844-  55 1.94 108 1.95 112 1.96  96 2.03 106 2.08 102 2.08
  33  0.342  0.333  0.843-  56 1.94 110 1.96 108 1.96  98 2.03 102 2.08 104 2.08
  34  0.341  0.665  0.344-  57 1.94 109 1.95 111 1.96  99 2.04 103 2.06 105 2.09
  35  0.342  0.666  0.844-  58 1.94 110 1.95 112 1.96 100 2.03 106 2.08 104 2.08
  36  0.091  0.001  0.398- 114 1.84  89 1.85  93 1.85  95 1.87
  37  0.092  0.000  0.898- 113 1.84  90 1.85  94 1.85  96 1.87
  38  0.094  0.333  0.397- 116 1.84  91 1.86  89 1.86  97 1.86
  39  0.091  0.333  0.898- 115 1.84  90 1.85  92 1.85  98 1.87
  40  0.091  0.666  0.398- 118 1.84  91 1.85  93 1.85  99 1.87
  41  0.092  0.666  0.898- 117 1.84  92 1.85  94 1.85 100 1.87
  42  0.409  0.167  0.104-  85 1.85 108 1.85  83 1.85 101 1.87
  43  0.408  0.168  0.598- 107 1.84  86 1.85  84 1.86 102 1.89
  44  0.409  0.499  0.104-  85 1.85 110 1.85  87 1.85 103 1.87
  45  0.408  0.498  0.598- 109 1.84  86 1.85  88 1.86 104 1.89
  46  0.409  0.833  0.103- 112 1.84  83 1.85  87 1.85 105 1.87
  47  0.409  0.833  0.602- 111 1.84  84 1.85  88 1.85 106 1.88
  48  0.996  0.167  0.127-  19 1.85  21 1.85  25 1.95
  49  0.997  0.166  0.628-  22 1.85  20 1.85  26 1.95
  50  0.996  0.500  0.127-  23 1.85  21 1.85  27 1.95
  51  0.997  0.500  0.628-  22 1.85  24 1.85  28 1.95
  52  0.996  0.833  0.127-  23 1.85  19 1.85  29 1.95
  53  0.997  0.833  0.628-  20 1.85  24 1.85  30 1.94
  54  0.503  0.997  0.373-  17 1.84  13 1.85  31 1.94
  55  0.504  1.000  0.873-  18 1.85  14 1.85  32 1.94
  56  0.504  0.333  0.873-  16 1.85  14 1.85  33 1.94
  57  0.503  0.670  0.373-  17 1.84  15 1.85  34 1.94
  58  0.504  0.667  0.873-  18 1.85  16 1.85  35 1.94
  59  0.673  0.166  0.281-  13 1.91   7 2.02   1 2.06   3 2.08
  60  0.673  0.167  0.780-  14 1.87   8 2.02   2 2.08   4 2.10
  61  0.673  0.501  0.281-  15 1.91   9 2.02   5 2.06   3 2.08
  62  0.673  0.500  0.780-  16 1.87  10 2.02   6 2.08   4 2.10
  63  0.674  0.833  0.281-  17 1.87  11 2.02   1 2.07   5 2.07
  64  0.672  0.833  0.780-  18 1.87  12 2.02   6 2.09   2 2.09
  65  0.828  0.000  0.220-  19 1.87   1 2.03  11 2.07   7 2.08
  66  0.828  1.000  0.720-  20 1.87   2 2.04  12 2.07   8 2.07
  67  0.828  0.333  0.220-  21 1.87   3 2.02   9 2.08   7 2.08
  68  0.828  0.333  0.719-  22 1.87   4 2.03   8 2.08  10 2.08
  69  0.828  0.667  0.220-  23 1.87   5 2.03  11 2.07   9 2.08
  70  0.828  0.667  0.720-  24 1.87   6 2.04  12 2.07  10 2.07
  71  0.834  1.000  0.446-  20 1.84   7 1.95  11 1.95
  72  0.832  1.000  0.946-  19 1.84  12 1.95   8 1.96
  73  0.833  0.333  0.447-  22 1.84   9 1.95   7 1.95
  74  0.832  0.333  0.946-  21 1.84   8 1.95  10 1.95
  75  0.834  0.667  0.446-  24 1.84   9 1.95  11 1.95
  76  0.832  0.667  0.946-  23 1.84  12 1.96  10 1.96
  77  0.668  0.167  0.055-  14 1.84   1 1.96   3 1.96
  78  0.668  0.166  0.553-  13 1.87   2 1.95   4 1.95
  79  0.668  0.500  0.055-  16 1.84   5 1.96   3 1.96
  80  0.668  0.501  0.553-  15 1.87   6 1.95   4 1.95
  81  0.668  0.833  0.055-  18 1.84   5 1.96   1 1.96
  82  0.669  0.833  0.555-  17 1.84   6 1.95   2 1.95
  83  0.496  0.000  0.127-  46 1.85  42 1.85   1 1.95
  84  0.495  0.001  0.626-  47 1.85  43 1.86   2 1.95
  85  0.497  0.333  0.126-  42 1.85  44 1.85   3 1.94
  86  0.497  0.333  0.629-  45 1.85  43 1.85   4 1.94
  87  0.496  0.666  0.127-  46 1.85  44 1.85   5 1.95
  88  0.495  0.666  0.626-  47 1.85  45 1.86   6 1.95
  89  0.004  0.168  0.373-  36 1.85  38 1.86   7 1.95
  90  0.004  0.167  0.873-  37 1.85  39 1.85   8 1.95
  91  0.004  0.499  0.373-  40 1.85  38 1.86   9 1.95
  92  0.004  0.500  0.873-  41 1.85  39 1.85  10 1.95
  93  0.004  0.833  0.373-  36 1.85  40 1.85  11 1.94
  94  0.004  0.833  0.873-  41 1.85  37 1.85  12 1.95
  95  0.171  0.999  0.280-  36 1.87  31 2.04  29 2.07  25 2.07
  96  0.173  0.000  0.781-  37 1.87  32 2.03  26 2.08  30 2.08
  97  0.173  0.333  0.279-  38 1.86 120 2.04  25 2.04  27 2.04
  98  0.173  0.333  0.781-  39 1.87  33 2.03  26 2.08  28 2.08
  99  0.171  0.667  0.280-  40 1.87  34 2.04  29 2.07  27 2.07
 100  0.173  0.667  0.781-  41 1.87  35 2.03  28 2.08  30 2.08
 101  0.327  0.167  0.221-  42 1.87  25 2.01 120 2.02  31 2.06
 102  0.328  0.167  0.719-  43 1.89  26 2.02  33 2.08  32 2.08
 103  0.327  0.500  0.221-  44 1.87  27 2.01 120 2.02  34 2.06
 104  0.328  0.500  0.719-  45 1.89  28 2.02  33 2.08  35 2.08
 105  0.327  0.833  0.219-  46 1.87  29 2.01  34 2.09  31 2.09
 106  0.328  0.833  0.720-  47 1.88  30 2.02  35 2.08  32 2.08
 107  0.328  0.170  0.443-  43 1.84  31 1.95 120 1.96
 108  0.333  0.167  0.946-  42 1.85  32 1.95  33 1.96
 109  0.328  0.497  0.443-  45 1.84  34 1.95 120 1.96
 110  0.333  0.500  0.946-  44 1.85  35 1.95  33 1.96
 111  0.330  0.833  0.446-  47 1.84  31 1.96  34 1.96
 112  0.333  0.833  0.946-  46 1.84  32 1.96  35 1.96
 113  0.168  0.001  0.055-  37 1.84  29 1.96  25 1.96
 114  0.168  1.000  0.555-  36 1.84  26 1.95  30 1.95
 115  0.169  0.333  0.054-  39 1.84  27 1.96  25 1.96
 116  0.168  0.333  0.555-  38 1.84  26 1.95  28 1.95
 117  0.168  0.666  0.055-  41 1.84  29 1.96  27 1.96
 118  0.168  0.667  0.555-  40 1.84  28 1.95  30 1.95
 119  0.492  0.333  0.370- 120 1.78  13 1.85  15 1.85
 120  0.343  0.333  0.338- 119 1.78 109 1.96 107 1.96 101 2.02 103 2.02  97 2.04
 

IMPORTANT INFORMATION: All symmetrisations will be switched off!
NOSYMM: (Re-)initialisation of all symmetry stuff for point group C_1.


----------------------------------------------------------------------------------------

                                     Primitive cell                                     

  volume of cell :    1268.8050

  direct lattice vectors                    reciprocal lattice vectors
     0.000000000 12.280473709  0.000000000     0.000000000  0.081430084 -0.019947422
     9.142701149  0.000000000  0.000000000     0.109376866 -0.000000000  0.000000000
     0.000000000 -2.768261641-11.300697481     0.000000000  0.000000000 -0.088490113

  length of vectors
    12.280473709  9.142701149 11.634819984     0.083837689  0.109376866  0.088490113

  position of ions in fractional coordinates (direct lattice)
     0.659207786  0.000654418  0.157785894
     0.658470211  0.000738617  0.655558966
     0.659414611  0.333333434  0.158354352
     0.659039630  0.333333179  0.653709535
     0.659208355  0.666011934  0.157785216
     0.658469417  0.665930054  0.655557256
     0.840794658  0.166785217  0.344344938
     0.840723726  0.166694795  0.843020230
     0.840794330  0.499881417  0.344345211
     0.840722072  0.499972591  0.843020208
     0.841836262  0.833334000  0.343362991
     0.840822057  0.833331969  0.842977384
     0.583991560  0.169625974  0.395608113
     0.591819682  0.166824577  0.897740310
     0.583993089  0.497039111  0.395611190
     0.591819369  0.499841795  0.897739322
     0.592153043  0.833334247  0.398148497
     0.591917793  0.833333245  0.898215696
     0.908953577  0.000142097  0.102373107
     0.909527569  0.999966847  0.602921885
     0.908657997  0.333332030  0.102600930
     0.909988862  0.333333514  0.602738276
     0.908952728  0.666525149  0.102371374
     0.909528765  0.666699602  0.602921735
     0.159598841  0.167694424  0.158248093
     0.160017889  0.166727912  0.657033128
     0.159597234  0.498973114  0.158245392
     0.160017773  0.499939146  0.657032552
     0.159179257  0.833334343  0.157065778
     0.159806763  0.833332936  0.657143936
     0.340721734  0.001286283  0.343907319
     0.341924162  0.000373170  0.843641955
     0.341952176  0.333332414  0.843351685
     0.340724616  0.665382312  0.343904511
     0.341924267  0.666292291  0.843640988
     0.091243142  0.000559216  0.397774095
     0.091538614  0.000233881  0.898217004
     0.094101289  0.333333048  0.397120415
     0.091433499  0.333333144  0.897962246
     0.091240112  0.666107820  0.397767417
     0.091539876  0.666432216  0.898216672
     0.408606502  0.167213079  0.104207555
     0.407615647  0.168261014  0.598221895
     0.408606266  0.499453278  0.104207259
     0.407615833  0.498405700  0.598220464
     0.408902811  0.833333901  0.103145530
     0.408651127  0.833333834  0.601691419
     0.996215859  0.166826772  0.126599852
     0.997213151  0.166484932  0.628317654
     0.996214763  0.499839597  0.126598171
     0.997213052  0.500181118  0.628318798
     0.996196061  0.833333083  0.126527003
     0.997201827  0.833333888  0.628395284
     0.502876622  0.996790790  0.373012381
     0.504419499  0.999991607  0.872891893
     0.504319886  0.333333214  0.873179961
     0.502879406  0.669875577  0.373017537
     0.504419010  0.666674636  0.872892160
     0.672755180  0.165554720  0.281369093
     0.672833223  0.166654848  0.780080856
     0.672754541  0.501110332  0.281369736
     0.672831833  0.500011253  0.780079323
     0.673619319  0.833333319  0.280942123
     0.672313487  0.833333065  0.780059432
     0.828203005  0.000026466  0.219971457
     0.827849434  0.999930408  0.719800334
     0.827734551  0.333333726  0.220163626
     0.827713164  0.333333747  0.719271316
     0.828203285  0.666640229  0.219971835
     0.827849034  0.666738141  0.719799802
     0.833850727  0.999518315  0.446307153
     0.831928785  0.999909750  0.945699916
     0.833153916  0.333333387  0.446567645
     0.832041964  0.333333250  0.945683517
     0.833850649  0.667149292  0.446307106
     0.831918768  0.666752544  0.945700501
     0.668459606  0.166840703  0.054566826
     0.667980037  0.165617013  0.552728064
     0.668459192  0.499825922  0.054566254
     0.667982133  0.501050383  0.552730313
     0.668058627  0.833333423  0.055074030
     0.669098464  0.833334727  0.554810938
     0.496309869  0.000224327  0.127380794
     0.495479596  0.000757448  0.626320105
     0.496807331  0.333330856  0.126192683
     0.496793338  0.333333478  0.628960533
     0.496310100  0.666442709  0.127382176
     0.495479682  0.665909586  0.626320491
     0.004203453  0.167575257  0.373240622
     0.003620346  0.166714694  0.872722664
     0.004202546  0.499089872  0.373239260
     0.003619915  0.499952422  0.872723028
     0.004245056  0.833334996  0.373313066
     0.003983131  0.833332121  0.873225706
     0.171293002  0.999373110  0.279816761
     0.173200650  0.000158180  0.781058438
     0.172937250  0.333333835  0.278790178
     0.173275080  0.333333406  0.781040643
     0.171295038  0.667296500  0.279816365
     0.173201352  0.666509089  0.781057709
     0.327077979  0.167066921  0.221254134
     0.328273984  0.166723898  0.718993906
     0.327076893  0.499601069  0.221253102
     0.328273342  0.499942442  0.718991794
     0.326726738  0.833332604  0.219363886
     0.327991434  0.833332325  0.719951955
     0.328470614  0.169869180  0.442524720
     0.333269763  0.166755645  0.946326468
     0.328474787  0.496800931  0.442522541
     0.333271474  0.499910467  0.946323741
     0.329783283  0.833332498  0.445813424
     0.332923914  0.833332711  0.945980179
     0.168300637  0.000620312  0.054633127
     0.168083412  0.999986804  0.554580693
     0.168631000  0.333333318  0.053913310
     0.167675060  0.333333180  0.554879145
     0.168303217  0.666048028  0.054632431
     0.168068829  0.666676163  0.554579858
     0.492146423  0.333333289  0.370472023
     0.342941847  0.333333862  0.338256528

  ion indices of the primitive-cell ions
   primitive index   ion index
                 1           1
                 2           2
                 3           3
                 4           4
                 5           5
                 6           6
                 7           7
                 8           8
                 9           9
                10          10
                11          11
                12          12
                13          13
                14          14
                15          15
                16          16
                17          17
                18          18
                19          19
                20          20
                21          21
                22          22
                23          23
                24          24
                25          25
                26          26
                27          27
                28          28
                29          29
                30          30
                31          31
                32          32
                33          33
                34          34
                35          35
                36          36
                37          37
                38          38
                39          39
                40          40
                41          41
                42          42
                43          43
                44          44
                45          45
                46          46
                47          47
                48          48
                49          49
                50          50
                51          51
                52          52
                53          53
                54          54
                55          55
                56          56
                57          57
                58          58
                59          59
                60          60
                61          61
                62          62
                63          63
                64          64
                65          65
                66          66
                67          67
                68          68
                69          69
                70          70
                71          71
                72          72
                73          73
                74          74
                75          75
                76          76
                77          77
                78          78
                79          79
                80          80
                81          81
                82          82
                83          83
                84          84
                85          85
                86          86
                87          87
                88          88
                89          89
                90          90
                91          91
                92          92
                93          93
                94          94
                95          95
                96          96
                97          97
                98          98
                99          99
               100         100
               101         101
               102         102
               103         103
               104         104
               105         105
               106         106
               107         107
               108         108
               109         109
               110         110
               111         111
               112         112
               113         113
               114         114
               115         115
               116         116
               117         117
               118         118
               119         119
               120         120

----------------------------------------------------------------------------------------

 
 
 KPOINTS: Automatic mesh                          

Automatic generation of k-mesh.
 Grid dimensions read from file:
 generate k-points for:    2    2    2

 Generating k-lattice:

  Cartesian coordinates                     Fractional coordinates (reciprocal lattice)
     0.000000000  0.040715042 -0.009973711     0.500000000  0.000000000 -0.000000000
     0.054688433 -0.000000000  0.000000000     0.000000000  0.500000000  0.000000000
     0.000000000  0.000000000 -0.044245057     0.000000000  0.000000000  0.500000000

  Length of vectors
     0.041918845  0.054688433  0.044245057

  Shift w.r.t. Gamma in fractional coordinates (k-lattice)
     0.000000000  0.000000000  0.000000000

 
 Subroutine IBZKPT returns following result:
 ===========================================
 
 Found      8 irreducible k-points:
 
 Following reciprocal coordinates:
            Coordinates               Weight
  0.000000  0.000000  0.000000      1.000000
  0.500000  0.000000  0.000000      1.000000
  0.000000  0.500000  0.000000      1.000000
  0.500000  0.500000  0.000000      1.000000
  0.000000  0.000000  0.500000      1.000000
  0.500000  0.000000  0.500000      1.000000
  0.000000  0.500000  0.500000      1.000000
  0.500000  0.500000  0.500000      1.000000
 
 Following cartesian coordinates:
            Coordinates               Weight
  0.000000  0.000000 -0.000000      1.000000
  0.000000  0.040715 -0.009974      1.000000
  0.054688  0.000000 -0.000000      1.000000
  0.054688  0.040715 -0.009974      1.000000
  0.000000  0.000000 -0.044245      1.000000
  0.000000  0.040715 -0.054219      1.000000
  0.054688  0.000000 -0.044245      1.000000
  0.054688  0.040715 -0.054219      1.000000
 
 
 Subroutine IBZKPT_HF returns following result:
 ==============================================
 
 Found      8 k-points in 1st BZ
 the following      8 k-points will be used (e.g. in the exchange kernel)
 Following reciprocal coordinates:   # in IRBZ
  0.000000  0.000000  0.000000    0.12500000   1 t-inv F
  0.500000  0.000000  0.000000    0.12500000   2 t-inv F
  0.000000  0.500000  0.000000    0.12500000   3 t-inv F
  0.500000  0.500000  0.000000    0.12500000   4 t-inv F
  0.000000  0.000000  0.500000    0.12500000   5 t-inv F
  0.500000  0.000000  0.500000    0.12500000   6 t-inv F
  0.000000  0.500000  0.500000    0.12500000   7 t-inv F
  0.500000  0.500000  0.500000    0.12500000   8 t-inv F


--------------------------------------------------------------------------------------------------------




 Dimension of arrays:
   k-points           NKPTS =      8   k-points in BZ     NKDIM =      8   number of bands    NBANDS=    630
   number of dos      NEDOS =    301   number of ions     NIONS =    120
   non local maximal  LDIM  =      6   non local SUM 2l+1 LMDIM =     18
   total plane-waves  NPLWV = 184320
   max r-space proj   IRMAX =   1800   max aug-charges    IRDMAX=   5704
   dimension x,y,z NGX =    64 NGY =   48 NGZ =   60
   dimension x,y,z NGXF=   128 NGYF=   96 NGZF=  120
   support grid    NGXF=   128 NGYF=   96 NGZF=  120
   ions per type =              47  71   1   1
   NGX,Y,Z   is equivalent  to a cutoff of   8.66,  8.73,  8.57 a.u.
   NGXF,Y,Z  is equivalent  to a cutoff of  17.33, 17.46, 17.15 a.u.

 SYSTEM =  unknown system                          
 POSCAR =  Ga8 O12                                 

 Startparameter for this run:
   NWRITE =      2    write-flag & timer
   PREC   = normal    normal or accurate (medium, high low for compatibility)
   ISTART =      1    job   : 0-new  1-cont  2-samecut
   ICHARG =      1    charge: 1-file 2-atom 10-const
   ISPIN  =      1    spin polarized calculation?
   LNONCOLLINEAR =      F non collinear calculations
   LSORBIT =      F    spin-orbit coupling
   INIWAV =      1    electr: 0-lowe 1-rand  2-diag
   LASPH  =      F    aspherical Exc in radial PAW
 Electronic Relaxation 1
   ENCUT  =  450.0 eV  33.07 Ry    5.75 a.u.  21.24 15.81 20.12*2*pi/ulx,y,z
   ENINI  =  450.0     initial cutoff
   ENAUG  =  627.1 eV  augmentation charge cutoff
   NELM   =    500;   NELMIN=  2; NELMDL=  0     # of ELM steps 
   EDIFF  = 0.1E-04   stopping-criterion for ELM
   LREAL  =      T    real-space projection
   NLSPLINE    = F    spline interpolate recip. space projectors
   LCOMPAT=      F    compatible to vasp.4.4
   GGA_COMPAT  = T    GGA compatible to vasp.4.4-vasp.4.6
   LMAXPAW     = -100 max onsite density
   LMAXMIX     =    2 max onsite mixed and CHGCAR
   VOSKOWN=      0    Vosko Wilk Nusair interpolation
   ROPT   =   -0.00050  -0.00050  -0.00050  -0.00050
 Ionic relaxation
   EDIFFG = -.5E-02   stopping-criterion for IOM
   NSW    =      0    number of steps for IOM
   NBLOCK =      1;   KBLOCK =      1    inner block; outer block 
   IBRION =     -1    ionic relax: 0-MD 1-quasi-New 2-CG
   NFREE  =      0    steps in history (QN), initial steepest desc. (CG)
   ISIF   =      2    stress and relaxation
   IWAVPR =     10    prediction:  0-non 1-charg 2-wave 3-comb
   ISYM   =      0    0-nonsym 1-usesym 2-fastsym
   LCORR  =      T    Harris-Foulkes like correction to forces

   POTIM  = 0.5000    time-step for ionic-motion
   TEIN   =    0.0    initial temperature
   TEBEG  =    0.0;   TEEND  =   0.0 temperature during run
   SMASS  =  -3.00    Nose mass-parameter (am)
   estimated Nose-frequenzy (Omega)   =  0.10E-29 period in steps = 0.13E+47 mass=  -0.345E-26a.u.
   SCALEE = 1.0000    scale energy and forces
   NPACO  =    256;   APACO  = 10.0  distance and # of slots for P.C.
   PSTRESS=    0.0 pullay stress

  Mass of Ions in am
   POMASS =  69.72 16.00 14.00 55.85
  Ionic Valenz
   ZVAL   =  13.00  6.00  5.00  8.00
  Atomic Wigner-Seitz radii
   RWIGS  =  -1.00 -1.00 -1.00 -1.00
  virtual crystal weights 
   VCA    =   1.00  1.00  1.00  1.00
   NELECT =    1051.0000    total number of electrons
   NUPDOWN=      -1.0000    fix difference up-down

 DOS related values:
   EMIN   =  10.00;   EMAX   =-10.00  energy-range for DOS
   EFERMI =   0.00;   METHOD = LEGACY      
   ISMEAR =     0;   SIGMA  =   0.05  broadening in eV -4-tet -1-fermi 0-gaus

 Electronic relaxation 2 (details)
   IALGO  =     58    algorithm
   LDIAG  =      T    sub-space diagonalisation (order eigenvalues)
   LSUBROT=      F    optimize rotation matrix (better conditioning)
   TURBO    =      0    0=normal 1=particle mesh
   IRESTART =      0    0=no restart 2=restart with 2 vectors
   NREBOOT  =      0    no. of reboots
   NMIN     =      0    reboot dimension
   EREF     =   0.00    reference energy to select bands
   IMIX   =      4    mixing-type and parameters
     AMIX     =   0.40;   BMIX     =  1.00
     AMIX_MAG =   1.60;   BMIX_MAG =  1.00
     AMIN     =   0.10
     WC   =   100.;   INIMIX=   1;  MIXPRE=   1;  MAXMIX= -45

 Intra band minimization:
   WEIMIN = 0.0000     energy-eigenvalue tresh-hold
   EBREAK =  0.40E-08  absolut break condition
   DEPER  =   0.30     relativ break condition  

   TIME   =   0.40     timestep for ELM

  volume/ion in A,a.u.               =      10.57        71.35
  Fermi-wavevector in a.u.,A,eV,Ry     =   1.537485  2.905425 32.162252  2.363859
  Thomas-Fermi vector in A             =   2.643987
 
 Write flags
   LWAVE        =      T    write WAVECAR
   LDOWNSAMPLE  =      F    k-point downsampling of WAVECAR
   LCHARG       =      T    write CHGCAR
   LVTOT        =      F    write LOCPOT, total local potential
   LVHAR        =      F    write LOCPOT, Hartree potential only
   LELF         =      F    write electronic localiz. function (ELF)
   LORBIT       =      0    0 simple, 1 ext, 2 COOP (PROOUT), +10 PAW based schemes


 Dipole corrections
   LMONO  =      F    monopole corrections only (constant potential shift)
   LDIPOL =      F    correct potential (dipole corrections)
   IDIPOL =      0    1-x, 2-y, 3-z, 4-all directions 
   EPSILON=  1.0000000 bulk dielectric constant

 Core level calculations are selected ICORELEVEL =  1
 Exchange correlation treatment:
   GGA     =    --    GGA type
   LEXCH   =     8    internal setting for exchange type
   LIBXC   =     F    Libxc                    
   VOSKOWN =     0    Vosko Wilk Nusair interpolation
   EXXOEP  =     0    0=HF, 1=EXX-LHF (local Hartree Fock) 2=EXX OEP
   LHFCALC =     T    Hartree Fock is set to
   LSYMGRAD=     F    symmetrize gradient (conserves proper symmetry)
   PRECFOCK=fast      Normal, Fast or Accurate (Low or Medium for compatibility)
   LRHFCALC=     F    long range Hartree Fock
   LRSCOR  =     F    long range correlation only (use DFT for short range part)
   LTHOMAS =     F    Thomas Fermi screening in HF
   LMODELHF=     F    short range full HF, long range fraction AEXX
   FOCKCORR=     1    mode to apply convergence corrections
   LFOCKACE=     T    use Adeptively-Compressed-Exchange operator
   ENCUT4O =  -1.0   cutoff for four orbital integrals eV
   LMAXFOCK=     4    L truncation for augmentation on plane wave grid
   LMAXFOCKAE=  -1    L truncation for all-electron charge restoration on plane wave grid
   NMAXFOCKAE=   1    number of basis functions for all-electron charge restoration
   LFOCKAEDFT=     F  apply the AE augmentation even for DFT
   NKREDX  =     1    reduce k-point grid by
   NKREDY  =     1    reduce k-point grid by
   NKREDZ  =     1    reduce k-point grid by
   SHIFTRED=     F    shift reduced grid of Gamma
   HFKIDENT=     F    idential grid for each k-point
   ODDONLY =     F    use only odd q-grid points
   EVENONLY=     F    use only even q-grid points
   HFALPHA =   -1.0000 decay constant for conv. correction
   MCALPHA =    0.0000 extent of test-charge in conv. correction in multipole expansion
   AEXX    =    0.3200 exact exchange contribution
   HFSCREEN=    0.2000 screening length (either q_TF or 0.3 A-1)
   HFSCREENC=   0.2000 screening length for correlation (either q_TF or 0.3 A-1)
   HFRCUT  =    0.0000 spherical cutoff for potential kernel
   ALDAX   =    0.6800 LDA exchange part
   AGGAX   =    0.6800 GGA exchange part
   ALDAC   =    1.0000 LDA correlation
   AGGAC   =    1.0000 GGA correlation
   ENCUTFOCK=  -1.0 apply spherical cutoff to Coloumb kernel
   NBANDSGWLOW=     1    first orbital included in HF term
   NBLOCK_FOCK=    64    blocking factor in FOCK_ACC

 Linear response parameters
   LEPSILON=     F    determine dielectric tensor
   LRPA    =     F    only Hartree local field effects (RPA)
   LNABLA  =     F    use nabla operator in PAW spheres
   LVEL    =     F    velocity operator in full k-point grid
   CSHIFT  =0.1000    complex shift for real part using Kramers Kronig
   OMEGAMAX=  -1.0    maximum frequency
   DEG_THRESHOLD= 0.2000000E-02 threshold for treating states as degnerate
   RTIME   =   -0.100 relaxation time in fs
  (WPLASMAI=    0.000 imaginary part of plasma frequency in eV, 0.658/RTIME)
   DFIELD  = 0.0000000 0.0000000 0.0000000 field for delta impulse in time
 
  Optional k-point grid parameters
   LKPOINTS_OPT  =     F    use optional k-point grid
   KPOINTS_OPT_MODE=     1    mode for optional k-point grid
 
 Orbital magnetization related:
   ORBITALMAG=     F  switch on orbital magnetization
   LCHIMAG   =     F  perturbation theory with respect to B field
   DQ        =  0.001000  dq finite difference perturbation B field
   LLRAUG    =     F  two centre corrections for induced B field
   LBONE     =     F  B-component reconstruction in AE one-centre
   LVGVCALC  =     T  calculate vGv susceptibility
   LVGVAPPL  =     F  apply vGv susceptibility instead of pGv for G=0

 Random number generation:
   RANDOM_GENERATOR = DEFAULT
   PCG_SEED         = not used


--------------------------------------------------------------------------------------------------------


 Static calculation
 charge density and potential will be updated during run
 non-spin polarized calculation
 Conjugate gradient for all bands (Freysoldt, et al. PRB 79, 241103 (2009))
 preconditioned conjugated gradient                                        
 perform sub-space diagonalisation
    before iterative eigenvector-optimisation
 modified Broyden-mixing scheme, WC =      100.0
 initial mixing is a Kerker type mixing with AMIX =  0.4000 and BMIX =      1.0000
 Hartree-type preconditioning will be used
 using additional bands           104
 real space projection scheme for non local part
 use partial core corrections
 no Harris-corrections to forces 
 use gradient corrections 
 use of overlap-Matrix (Vanderbilt PP)
 Gauss-broadening in eV      SIGMA  =   0.05


--------------------------------------------------------------------------------------------------------


  energy-cutoff  :      450.00
  volume of cell :     1268.81
      direct lattice vectors                 reciprocal lattice vectors
     0.000000000 12.280473709  0.000000000     0.000000000  0.081430084 -0.019947422
     9.142701149  0.000000000  0.000000000     0.109376866 -0.000000000  0.000000000
     0.000000000 -2.768261641-11.300697481     0.000000000  0.000000000 -0.088490113

  length of vectors
    12.280473709  9.142701149 11.634819984     0.083837689  0.109376866  0.088490113


 
 old parameters found on file WAVECAR:
  energy-cutoff  :      450.00
  volume of cell :     1268.81
      direct lattice vectors                 reciprocal lattice vectors
     0.000000000 12.280473709  0.000000000     0.000000000  0.081430084 -0.019947422
     9.142701149  0.000000000  0.000000000     0.109376866 -0.000000000  0.000000000
     0.000000000 -2.768261641-11.300697481     0.000000000  0.000000000 -0.088490113

  length of vectors

 
 k-points in units of 2pi/SCALE and weight: Automatic mesh                          
   0.00000000  0.00000000 -0.00000000       0.125
   0.00000000  0.04071504 -0.00997371       0.125
   0.05468843  0.00000000 -0.00000000       0.125
   0.05468843  0.04071504 -0.00997371       0.125
   0.00000000  0.00000000 -0.04424506       0.125
   0.00000000  0.04071504 -0.05421877       0.125
   0.05468843  0.00000000 -0.04424506       0.125
   0.05468843  0.04071504 -0.05421877       0.125
 
 k-points in reciprocal lattice and weights: Automatic mesh                          
   0.00000000  0.00000000  0.00000000       0.125
   0.50000000  0.00000000  0.00000000       0.125
   0.00000000  0.50000000  0.00000000       0.125
   0.50000000  0.50000000  0.00000000       0.125
   0.00000000  0.00000000  0.50000000       0.125
   0.50000000  0.00000000  0.50000000       0.125
   0.00000000  0.50000000  0.50000000       0.125
   0.50000000  0.50000000  0.50000000       0.125
 
 position of ions in fractional coordinates (direct lattice) 
   0.65920779  0.00065442  0.15778589
   0.65847021  0.00073862  0.65555897
   0.65941461  0.33333343  0.15835435
   0.65903963  0.33333318  0.65370953
   0.65920835  0.66601193  0.15778522
   0.65846942  0.66593005  0.65555726
   0.84079466  0.16678522  0.34434494
   0.84072373  0.16669480  0.84302023
   0.84079433  0.49988142  0.34434521
   0.84072207  0.49997259  0.84302021
   0.84183626  0.83333400  0.34336299
   0.84082206  0.83333197  0.84297738
   0.58399156  0.16962597  0.39560811
   0.59181968  0.16682458  0.89774031
   0.58399309  0.49703911  0.39561119
   0.59181937  0.49984180  0.89773932
   0.59215304  0.83333425  0.39814850
   0.59191779  0.83333325  0.89821570
   0.90895358  0.00014210  0.10237311
   0.90952757  0.99996685  0.60292189
   0.90865800  0.33333203  0.10260093
   0.90998886  0.33333351  0.60273828
   0.90895273  0.66652515  0.10237137
   0.90952877  0.66669960  0.60292173
   0.15959884  0.16769442  0.15824809
   0.16001789  0.16672791  0.65703313
   0.15959723  0.49897311  0.15824539
   0.16001777  0.49993915  0.65703255
   0.15917926  0.83333434  0.15706578
   0.15980676  0.83333294  0.65714394
   0.34072173  0.00128628  0.34390732
   0.34192416  0.00037317  0.84364195
   0.34195218  0.33333241  0.84335168
   0.34072462  0.66538231  0.34390451
   0.34192427  0.66629229  0.84364099
   0.09124314  0.00055922  0.39777410
   0.09153861  0.00023388  0.89821700
   0.09410129  0.33333305  0.39712042
   0.09143350  0.33333314  0.89796225
   0.09124011  0.66610782  0.39776742
   0.09153988  0.66643222  0.89821667
   0.40860650  0.16721308  0.10420756
   0.40761565  0.16826101  0.59822190
   0.40860627  0.49945328  0.10420726
   0.40761583  0.49840570  0.59822046
   0.40890281  0.83333390  0.10314553
   0.40865113  0.83333383  0.60169142
   0.99621586  0.16682677  0.12659985
   0.99721315  0.16648493  0.62831765
   0.99621476  0.49983960  0.12659817
   0.99721305  0.50018112  0.62831880
   0.99619606  0.83333308  0.12652700
   0.99720183  0.83333389  0.62839528
   0.50287662  0.99679079  0.37301238
   0.50441950  0.99999161  0.87289189
   0.50431989  0.33333321  0.87317996
   0.50287941  0.66987558  0.37301754
   0.50441901  0.66667464  0.87289216
   0.67275518  0.16555472  0.28136909
   0.67283322  0.16665485  0.78008086
   0.67275454  0.50111033  0.28136974
   0.67283183  0.50001125  0.78007932
   0.67361932  0.83333332  0.28094212
   0.67231349  0.83333306  0.78005943
   0.82820300  0.00002647  0.21997146
   0.82784943  0.99993041  0.71980033
   0.82773455  0.33333373  0.22016363
   0.82771316  0.33333375  0.71927132
   0.82820329  0.66664023  0.21997184
   0.82784903  0.66673814  0.71979980
   0.83385073  0.99951832  0.44630715
   0.83192879  0.99990975  0.94569992
   0.83315392  0.33333339  0.44656764
   0.83204196  0.33333325  0.94568352
   0.83385065  0.66714929  0.44630711
   0.83191877  0.66675254  0.94570050
   0.66845961  0.16684070  0.05456683
   0.66798004  0.16561701  0.55272806
   0.66845919  0.49982592  0.05456625
   0.66798213  0.50105038  0.55273031
   0.66805863  0.83333342  0.05507403
   0.66909846  0.83333473  0.55481094
   0.49630987  0.00022433  0.12738079
   0.49547960  0.00075745  0.62632011
   0.49680733  0.33333086  0.12619268
   0.49679334  0.33333348  0.62896053
   0.49631010  0.66644271  0.12738218
   0.49547968  0.66590959  0.62632049
   0.00420345  0.16757526  0.37324062
   0.00362035  0.16671469  0.87272266
   0.00420255  0.49908987  0.37323926
   0.00361992  0.49995242  0.87272303
   0.00424506  0.83333500  0.37331307
   0.00398313  0.83333212  0.87322571
   0.17129300  0.99937311  0.27981676
   0.17320065  0.00015818  0.78105844
   0.17293725  0.33333384  0.27879018
   0.17327508  0.33333341  0.78104064
   0.17129504  0.66729650  0.27981636
   0.17320135  0.66650909  0.78105771
   0.32707798  0.16706692  0.22125413
   0.32827398  0.16672390  0.71899391
   0.32707689  0.49960107  0.22125310
   0.32827334  0.49994244  0.71899179
   0.32672674  0.83333260  0.21936389
   0.32799143  0.83333233  0.71995196
   0.32847061  0.16986918  0.44252472
   0.33326976  0.16675565  0.94632647
   0.32847479  0.49680093  0.44252254
   0.33327147  0.49991047  0.94632374
   0.32978328  0.83333250  0.44581342
   0.33292391  0.83333271  0.94598018
   0.16830064  0.00062031  0.05463313
   0.16808341  0.99998680  0.55458069
   0.16863100  0.33333332  0.05391331
   0.16767506  0.33333318  0.55487914
   0.16830322  0.66604803  0.05463243
   0.16806883  0.66667616  0.55457986
   0.49214642  0.33333329  0.37047202
   0.34294185  0.33333386  0.33825653
 
 position of ions in cartesian coordinates  (Angst):
   0.00598315  7.65859125 -1.78309066
   0.00675296  6.27156737 -7.40827355
   3.04756797  7.65955752 -1.78951462
   3.04756564  6.28367982 -7.38737369
   6.08914807  7.65860011 -1.78308299
   6.08839947  6.27156235 -7.40825423
   1.52486740  9.37211981 -3.89133797
   1.52404069  7.99078505 -9.52671659
   4.57026640  9.37211502 -3.89134106
   4.57109998  7.99076479 -9.52671634
   7.61892372  9.38762948 -3.88024129
   7.61890515  7.99211121 -9.52623240
   1.55083959  6.07654624 -4.47064761
   1.52522725  4.78264598-10.14509166
   4.54428005  6.07655649 -4.47068238
   4.56990416  4.78264488-10.14508050
   7.61892598  6.16974066 -4.49935572
   7.61891682  4.78253483-10.15046385
   0.00129915 10.87898497 -1.15688751
   9.14239804  9.50038387 -6.81343783
   3.04755513 10.87472443 -1.15946207
   3.04756870  9.50655705 -6.81136291
   6.09384025 10.87897933 -1.15686793
   6.09543522  9.50039898 -6.81343613
   1.53318000  1.52187724 -1.78831383
   1.52434348  0.14625587 -7.42493261
   4.56196206  1.52186499 -1.78828330
   4.57079420  0.14625604 -7.42492611
   7.61892686  1.51999752 -1.77495284
   7.61891399  0.14335640 -7.42618482
   0.01176010  3.23219886 -3.88639258
   0.00341178  1.86356902 -9.53374251
   3.04755865  1.86471659 -9.53046226
   6.08339163  3.23224202 -3.88636084
   6.09171129  1.86357298 -9.53373158
   0.00511274  0.01936624 -4.49512472
   0.00213830 -1.36236213-10.15047864
   3.04756444  0.05627519 -4.48773767
   3.04756531 -1.36294776-10.14759969
   6.09002473  0.01934752 -4.49504924
   6.09299058 -1.36234572-10.15047488
   1.52877921  4.72940762 -1.17761806
   1.53836017  3.34967851 -6.76032466
   4.56635206  4.72940555 -1.17761471
   4.55677437  3.34968476 -6.76030849
   7.61892282  4.73598641 -1.16561643
   7.61892220  3.35279015 -6.79953270
   1.52524732 11.88354115 -1.43066663
   1.52212198 10.50690222 -7.10042773
   4.56988406 11.88353234 -1.43064763
   4.57300649 10.50689784 -7.10044066
   7.61891534 11.88349969 -1.42984338
   7.61892269 10.50654826 -7.10130500
   9.11336030  5.14296727 -4.21530007
   9.14262441  3.77811725 -9.86428721
   3.04756595  3.77609650 -9.86754259
   6.12447220  5.14298718 -4.21535834
   6.09520696  3.77811051 -9.86429023
   1.51361732  7.48284903 -3.17966700
   1.52367547  6.10324280 -8.81545776
   4.58150201  7.48283940 -3.17967427
   4.57145346  6.10322996 -8.81544044
   7.61891750  7.49464303 -3.17484194
   7.61891517  6.09691949 -8.81521565
   0.00024198  9.56178668 -2.48583089
   9.14206489  8.17378755 -8.13424583
   3.04757064  9.55550187 -2.48800254
   3.04757083  8.17357855 -8.12826755
   6.09489239  9.56178907 -2.48583517
   6.09578756  8.17378411 -8.13423981
   9.13829725  9.00458696 -5.04358211
   9.14187602  7.59853477-10.68706866
   3.04756754  8.99530868 -5.04652586
   3.04756629  7.59997006-10.68688334
   6.09954660  9.00458614 -5.04358159
   6.09591925  7.59841014-10.68707527
   1.52537468  8.05794536 -0.61664320
   1.51418686  6.67301539 -6.24621265
   4.56975903  8.05794186 -0.61663672
   4.58095391  6.67303490 -6.24623806
   7.61891844  8.05161708 -0.62237495
   7.61893037  6.68098426 -6.26975057
   0.00205095  5.74229693 -1.43949181
   0.00692512  4.35090622 -7.07785404
   3.04754440  5.75169500 -1.42606533
   3.04756838  4.35973021 -7.10769271
   6.09308652  5.74229594 -1.43950744
   6.08821234  4.35090621 -7.07785840
   1.53209050 -0.98160730 -4.21787935
   1.52422262 -2.37146511 -9.86237481
   4.56302955 -0.98161467 -4.21786396
   4.57091558 -2.37147141 -9.86237893
   7.61893283 -0.98129694 -4.21869803
   7.61890654 -2.36840249 -9.86805954
   9.13696968  1.32895320 -3.16212457
   0.00144619 -0.03518809 -8.82650512
   3.04757164  1.35198720 -3.15052346
   3.04756771 -0.03422479 -8.82630403
   6.10089248  1.32897930 -3.16212009
   6.09369341 -0.03517745 -8.82649688
   1.52744293  3.40418318 -2.50032604
   1.52430677  2.04099678 -8.12513262
   4.56770326  3.40417271 -2.50031437
   4.57082434  2.04099474 -8.12510875
   7.61891096  3.40510249 -2.47896491
   7.61890841  2.03487481 -8.13595925
   1.55306314  2.80875053 -5.00083799
   1.52459703  1.47303130-10.69414914
   4.54210244  2.80880780 -5.00081337
   4.57053200  1.47305986-10.69411832
   7.61890999  2.81576673 -5.03800264
   7.61891194  1.46974273-10.69023583
   0.00567133  1.91557276 -0.61739244
   9.14258050  0.52891946 -6.26714864
   3.04756691  1.92162241 -0.60925800
   3.04756564  0.52307852 -6.27052136
   6.08947807  1.91560637 -0.61738458
   6.09522092  0.52874268 -6.26713921
   3.04756665  5.01822771 -4.18659226
   3.04757188  3.27510576 -3.82253469
 


--------------------------------------------------------------------------------------------------------


 k-point   1 :   0.0000 0.0000 0.0000  plane waves:   27533
 k-point   2 :   0.5000 0.0000 0.0000  plane waves:   27522
 k-point   3 :   0.0000 0.5000 0.0000  plane waves:   27488
 k-point   4 :   0.5000 0.5000 0.0000  plane waves:   27488
 k-point   5 :   0.0000 0.0000 0.5000  plane waves:   27482
 k-point   6 :   0.5000 0.0000 0.5000  plane waves:   27476
 k-point   7 :   0.0000 0.5000 0.5000  plane waves:   27468
 k-point   8 :   0.5000 0.5000 0.5000  plane waves:   27564

 maximum and minimum number of plane-waves per node :     27564    27468

 maximum number of plane-waves:     27564
 maximum index in each direction: 
   IXMAX=   21   IYMAX=   15   IZMAX=   20
   IXMIN=  -21   IYMIN=  -16   IZMIN=  -20


 serial   3D FFT for wavefunctions
 parallel 3D FFT for charge:
    minimum data exchange during FFTs selected (reduces bandwidth)


 FFT grid for exact exchange (Hartree Fock) 
  NGX = 48; NGY = 36; NGZ = 48

 
 Radii for the augmentation spheres in the non-local exchange
 for species   1 augmentation radius   1.392 (default was   1.031)
       energy cutoff for augmentation   1800.0
 for species   2 augmentation radius   0.974 (default was   0.722)
       energy cutoff for augmentation   1800.0
 for species   3 augmentation radius   0.957 (default was   0.709)
       energy cutoff for augmentation   1800.0
 for species   4 augmentation radius   1.364 (default was   1.010)
       energy cutoff for augmentation   1800.0
 Maximum index for augmentation-charges in exchange           746
  SETUP_FOCK is finished

 total amount of memory used by VASP MPI-rank0  7247696. kBytes
=======================================================================

   base      :      30000. kBytes
   nonlr-proj:      32947. kBytes
   fftplans  :      51012. kBytes
   grid      :     114966. kBytes
   one-center:       1866. kBytes
   HF        :        259. kBytes
   wavefun   :    7016646. kBytes
 
     INWAV:  cpu time      3.3212: real time      3.8999
 Broyden mixing: mesh for mixing (old mesh)
   NGX = 43   NGY = 31   NGZ = 41
  (NGX  =128   NGY  = 96   NGZ  =120)
  gives a total of  54653 points

 initial charge density was supplied:
 number of electron    1050.9998560 magnetization 
 charge density for first step will be calculated from the start-wavefunctions


--------------------------------------------------------------------------------------------------------


 Maximum index for non-local projection operator          1721
 Maximum index for augmentation-charges          5356 (set IRDMAX)


--------------------------------------------------------------------------------------------------------


 initial charge from wavefunction
 First call to EWALD:  gamma=   0.164
 Maximum number of real-space cells 3x 3x 3
 Maximum number of reciprocal cells 3x 2x 3

    FEWALD:  cpu time      0.0742: real time      0.0742


--------------------------------------- Ionic step        1  -------------------------------------------




--------------------------------------- Iteration      1(   1)  ---------------------------------------


    POTLOK:  cpu time      1.5904: real time      1.5900
    SETDIJ:  cpu time      0.5260: real time      0.5259
    TRIAL :  cpu time    237.0711: real time    237.0422
    CORREC:  cpu time    239.7637: real time    239.7241
    CHARGE:  cpu time      0.2432: real time      0.2432
    --------------------------------------------
      LOOP:  cpu time    480.1473: real time    480.0794

 eigenvalue-minimisations  :     0
 total energy-change (2. order) :-0.9486612E+03  (-0.5109022E+01)
 number of electron    1050.9998546 magnetization 
 augmentation part      454.4728908 magnetization 

 Free energy of the ion-electron system (eV)
  ---------------------------------------------------
  alpha Z        PSCENC =      5490.26774318
  Ewald energy   TEWEN  =    -87885.79046293
  -Hartree energ DENC   =    -33333.34911712
  -exchange      EXHF   =      3841.67090661
  -V(xc)+E(xc)   XCENC  =      2878.25183987
  PAW double counting   =    119980.82090766  -135067.27807079
  entropy T*S    EENTRO =        -0.02500770
  eigenvalues    EBANDS =     -9026.90112144
  atomic energy  EATOM  =    132173.67027711
  ---------------------------------------------------
  free energy    TOTEN  =      -948.66118396 eV

  energy without entropy =     -948.63617626  energy(sigma->0) =     -948.64868011
  exchange ACFDT corr.  =        -0.46829199  see jH, gK, PRB 81, 115126


--------------------------------------------------------------------------------------------------------




--------------------------------------- Iteration      1(   2)  ---------------------------------------


    POTLOK:  cpu time      1.4723: real time      1.4722
    SETDIJ:  cpu time      0.5291: real time      0.5290
    TRIAL :  cpu time    237.3429: real time    237.3045
    CORREC:  cpu time    239.7592: real time    239.7202
    CHARGE:  cpu time      0.2498: real time      0.2497
    --------------------------------------------
      LOOP:  cpu time    479.3541: real time    479.2771

 eigenvalue-minimisations  :     0
 total energy-change (2. order) :-0.5106977E+01  (-0.2638286E+01)
 number of electron    1050.9998548 magnetization 
 augmentation part      454.9544718 magnetization 

 Free energy of the ion-electron system (eV)
  ---------------------------------------------------
  alpha Z        PSCENC =      5490.26774318
  Ewald energy   TEWEN  =    -87885.79046293
  -Hartree energ DENC   =    -33501.66761986
  -exchange      EXHF   =      3852.27379879
  -V(xc)+E(xc)   XCENC  =      2883.29584307
  PAW double counting   =    120479.24785720  -135812.49151661
  entropy T*S    EENTRO =        -0.02611185
  eigenvalues    EBANDS =     -8632.54907275
  atomic energy  EATOM  =    132173.67027711
  ---------------------------------------------------
  free energy    TOTEN  =      -953.76816050 eV

  energy without entropy =     -953.74204866  energy(sigma->0) =     -953.75510458
  exchange ACFDT corr.  =        -0.49745512  see jH, gK, PRB 81, 115126


--------------------------------------------------------------------------------------------------------




--------------------------------------- Iteration      1(   3)  ---------------------------------------


    POTLOK:  cpu time      1.4984: real time      1.4982
    SETDIJ:  cpu time      0.5402: real time      0.5401
    TRIAL :  cpu time    237.3154: real time    237.2826
    CORREC:  cpu time    239.7325: real time    239.6991
    CHARGE:  cpu time      0.2456: real time      0.2456
    --------------------------------------------
      LOOP:  cpu time    479.3324: real time    479.2662

 eigenvalue-minimisations  :     0
 total energy-change (2. order) :-0.2864477E+01  (-0.7005704E+00)
 number of electron    1050.9998550 magnetization 
 augmentation part      454.9133701 magnetization 

 Free energy of the ion-electron system (eV)
  ---------------------------------------------------
  alpha Z        PSCENC =      5490.26774318
  Ewald energy   TEWEN  =    -87885.79046293
  -Hartree energ DENC   =    -33453.34764784
  -exchange      EXHF   =      3859.46014444
  -V(xc)+E(xc)   XCENC  =      2883.62435089
  PAW double counting   =    120452.14067563  -135719.58585137
  entropy T*S    EENTRO =        -0.02588755
  eigenvalues    EBANDS =     -8757.04575474
  atomic energy  EATOM  =    132173.67027711
  ---------------------------------------------------
  free energy    TOTEN  =      -956.63263748 eV

  energy without entropy =     -956.60674993  energy(sigma->0) =     -956.61969371
  exchange ACFDT corr.  =        -0.55423468  see jH, gK, PRB 81, 115126


--------------------------------------------------------------------------------------------------------




--------------------------------------- Iteration      1(   4)  ---------------------------------------


    POTLOK:  cpu time      1.4936: real time      1.4937
    SETDIJ:  cpu time      0.5298: real time      0.5297
    TRIAL :  cpu time    237.7464: real time    237.7148
    CORREC:  cpu time    239.2672: real time    239.2269
    CHARGE:  cpu time      0.2552: real time      0.2551
    --------------------------------------------
      LOOP:  cpu time    479.2925: real time    479.2212

 eigenvalue-minimisations  :     0
 total energy-change (2. order) :-0.7005999E+00  (-0.4065993E+00)
 number of electron    1050.9998550 magnetization 
 augmentation part      455.4304066 magnetization 

 Free energy of the ion-electron system (eV)
  ---------------------------------------------------
  alpha Z        PSCENC =      5490.26774318
  Ewald energy   TEWEN  =    -87885.79046293
  -Hartree energ DENC   =    -33438.87740958
  -exchange      EXHF   =      3861.22739791
  -V(xc)+E(xc)   XCENC  =      2883.60945771
  PAW double counting   =    120423.28743216  -135663.63383459
  entropy T*S    EENTRO =        -0.02572353
  eigenvalues    EBANDS =     -8801.06795078
  atomic energy  EATOM  =    132173.67027711
  ---------------------------------------------------
  free energy    TOTEN  =      -957.33323736 eV

  energy without entropy =     -957.30751383  energy(sigma->0) =     -957.32037560
  exchange ACFDT corr.  =        -0.63736637  see jH, gK, PRB 81, 115126


--------------------------------------------------------------------------------------------------------




--------------------------------------- Iteration      1(   5)  ---------------------------------------


    POTLOK:  cpu time      1.4863: real time      1.4861
    SETDIJ:  cpu time      0.5302: real time      0.5301
    TRIAL :  cpu time    237.5561: real time    237.5135
    CORREC:  cpu time    239.5397: real time    239.4978
    CHARGE:  cpu time      0.2347: real time      0.2346
    --------------------------------------------
      LOOP:  cpu time    479.3473: real time    479.2625

 eigenvalue-minimisations  :     0
 total energy-change (2. order) :-0.4119140E+00  (-0.1519616E+00)
 number of electron    1050.9998551 magnetization 
 augmentation part      455.5920933 magnetization 

 Free energy of the ion-electron system (eV)
  ---------------------------------------------------
  alpha Z        PSCENC =      5490.26774318
  Ewald energy   TEWEN  =    -87885.79046293
  -Hartree energ DENC   =    -33466.80469463
  -exchange      EXHF   =      3863.31971925
  -V(xc)+E(xc)   XCENC  =      2884.61561382
  PAW double counting   =    120494.62278945  -135753.56726481
  entropy T*S    EENTRO =        -0.02598513
  eigenvalues    EBANDS =     -8758.05314824
  atomic energy  EATOM  =    132173.67027711
  ---------------------------------------------------
  free energy    TOTEN  =      -957.74515135 eV

  energy without entropy =     -957.71916622  energy(sigma->0) =     -957.73215878
  exchange ACFDT corr.  =        -0.52662078  see jH, gK, PRB 81, 115126


--------------------------------------------------------------------------------------------------------




--------------------------------------- Iteration      1(   6)  ---------------------------------------


    POTLOK:  cpu time      1.5459: real time      1.5456
    SETDIJ:  cpu time      0.5285: real time      0.5284
    TRIAL :  cpu time    237.3212: real time    237.2784
    CORREC:  cpu time    239.8320: real time    239.7950
    CHARGE:  cpu time      0.2493: real time      0.2492
    --------------------------------------------
      LOOP:  cpu time    479.4790: real time    479.3994

 eigenvalue-minimisations  :     0
 total energy-change (2. order) :-0.1523747E+00  (-0.4918207E-01)
 number of electron    1050.9998552 magnetization 
 augmentation part      455.6345505 magnetization 

 Free energy of the ion-electron system (eV)
  ---------------------------------------------------
  alpha Z        PSCENC =      5490.26774318
  Ewald energy   TEWEN  =    -87885.79046293
  -Hartree energ DENC   =    -33470.42534705
  -exchange      EXHF   =      3864.51473469
  -V(xc)+E(xc)   XCENC  =      2885.02267063
  PAW double counting   =    120565.29432333  -135826.04026045
  entropy T*S    EENTRO =        -0.02609863
  eigenvalues    EBANDS =     -8754.38521939
  atomic energy  EATOM  =    132173.67027711
  ---------------------------------------------------
  free energy    TOTEN  =      -957.89752601 eV

  energy without entropy =     -957.87142738  energy(sigma->0) =     -957.88447669
  exchange ACFDT corr.  =        -0.53444098  see jH, gK, PRB 81, 115126


--------------------------------------------------------------------------------------------------------




--------------------------------------- Iteration      1(   7)  ---------------------------------------


    POTLOK:  cpu time      1.4709: real time      1.4706
    SETDIJ:  cpu time      0.5308: real time      0.5307
    TRIAL :  cpu time    237.0444: real time    237.0078
    CORREC:  cpu time    239.6850: real time    239.6492
    CHARGE:  cpu time      0.2491: real time      0.2490
    --------------------------------------------
      LOOP:  cpu time    478.9824: real time    478.9100

 eigenvalue-minimisations  :     0
 total energy-change (2. order) :-0.4919458E-01  (-0.1797286E-01)
 number of electron    1050.9998552 magnetization 
 augmentation part      455.6748388 magnetization 

 Free energy of the ion-electron system (eV)
  ---------------------------------------------------
  alpha Z        PSCENC =      5490.26774318
  Ewald energy   TEWEN  =    -87885.79046293
  -Hartree energ DENC   =    -33473.14925318
  -exchange      EXHF   =      3864.90899607
  -V(xc)+E(xc)   XCENC  =      2885.20539202
  PAW double counting   =    120580.03540479  -135838.85496360
  entropy T*S    EENTRO =        -0.02615020
  eigenvalues    EBANDS =     -8754.21375542
  atomic energy  EATOM  =    132173.67027711
  ---------------------------------------------------
  free energy    TOTEN  =      -957.94672059 eV

  energy without entropy =     -957.92057039  energy(sigma->0) =     -957.93364549
  exchange ACFDT corr.  =        -0.53469287  see jH, gK, PRB 81, 115126


--------------------------------------------------------------------------------------------------------




--------------------------------------- Iteration      1(   8)  ---------------------------------------


    POTLOK:  cpu time      1.5062: real time      1.5060
    SETDIJ:  cpu time      0.5321: real time      0.5320
    TRIAL :  cpu time    236.9139: real time    236.8785
    CORREC:  cpu time    239.8405: real time    239.8028
    CHARGE:  cpu time      0.2465: real time      0.2465
    --------------------------------------------
      LOOP:  cpu time    479.0403: real time    478.9672

 eigenvalue-minimisations  :     0
 total energy-change (2. order) :-0.1797160E-01  (-0.6632519E-02)
 number of electron    1050.9998552 magnetization 
 augmentation part      455.6853828 magnetization 

 Free energy of the ion-electron system (eV)
  ---------------------------------------------------
  alpha Z        PSCENC =      5490.26774318
  Ewald energy   TEWEN  =    -87885.79046293
  -Hartree energ DENC   =    -33475.26202474
  -exchange      EXHF   =      3864.97586786
  -V(xc)+E(xc)   XCENC  =      2885.24295731
  PAW double counting   =    120583.18487126  -135843.22948312
  entropy T*S    EENTRO =        -0.02620566
  eigenvalues    EBANDS =     -8750.99828793
  atomic energy  EATOM  =    132173.67027711
  ---------------------------------------------------
  free energy    TOTEN  =      -957.96469219 eV

  energy without entropy =     -957.93848653  energy(sigma->0) =     -957.95158936
  exchange ACFDT corr.  =        -0.52996952  see jH, gK, PRB 81, 115126


--------------------------------------------------------------------------------------------------------




--------------------------------------- Iteration      1(   9)  ---------------------------------------


    POTLOK:  cpu time      1.5237: real time      1.5235
    SETDIJ:  cpu time      0.5283: real time      0.5283
    TRIAL :  cpu time    237.2489: real time    237.2112
    CORREC:  cpu time    239.5752: real time    239.5338
    CHARGE:  cpu time      0.2345: real time      0.2345
    --------------------------------------------
      LOOP:  cpu time    479.1110: real time    479.0389

 eigenvalue-minimisations  :     0
 total energy-change (2. order) :-0.6632216E-02  (-0.3816902E-02)
 number of electron    1050.9998552 magnetization 
 augmentation part      455.6937776 magnetization 

 Free energy of the ion-electron system (eV)
  ---------------------------------------------------
  alpha Z        PSCENC =      5490.26774318
  Ewald energy   TEWEN  =    -87885.79046293
  -Hartree energ DENC   =    -33473.71745445
  -exchange      EXHF   =      3864.97714441
  -V(xc)+E(xc)   XCENC  =      2885.18288564
  PAW double counting   =    120585.65002153  -135846.36137785
  entropy T*S    EENTRO =        -0.02627077
  eigenvalues    EBANDS =     -8751.82389540
  atomic energy  EATOM  =    132173.67027711
  ---------------------------------------------------
  free energy    TOTEN  =      -957.97132441 eV

  energy without entropy =     -957.94505364  energy(sigma->0) =     -957.95818902
  exchange ACFDT corr.  =        -0.52915357  see jH, gK, PRB 81, 115126


--------------------------------------------------------------------------------------------------------




--------------------------------------- Iteration      1(  10)  ---------------------------------------


    POTLOK:  cpu time      1.4349: real time      1.4347
    SETDIJ:  cpu time      0.5644: real time      0.5643
    TRIAL :  cpu time    237.4622: real time    237.4216
    CORREC:  cpu time    239.3949: real time    239.3573
    CHARGE:  cpu time      0.2514: real time      0.2514
    --------------------------------------------
      LOOP:  cpu time    479.1110: real time    479.0331

 eigenvalue-minimisations  :     0
 total energy-change (2. order) :-0.3820489E-02  (-0.2069484E-02)
 number of electron    1050.9998552 magnetization 
 augmentation part      455.6990758 magnetization 

 Free energy of the ion-electron system (eV)
  ---------------------------------------------------
  alpha Z        PSCENC =      5490.26774318
  Ewald energy   TEWEN  =    -87885.79046293
  -Hartree energ DENC   =    -33474.11842004
  -exchange      EXHF   =      3865.03173214
  -V(xc)+E(xc)   XCENC  =      2885.20575578
  PAW double counting   =    120579.57249343  -135840.46845317
  entropy T*S    EENTRO =        -0.02631527
  eigenvalues    EBANDS =     -8751.31953963
  atomic energy  EATOM  =    132173.67027711
  ---------------------------------------------------
  free energy    TOTEN  =      -957.97514490 eV

  energy without entropy =     -957.94882962  energy(sigma->0) =     -957.96198726
  exchange ACFDT corr.  =        -0.52952872  see jH, gK, PRB 81, 115126


--------------------------------------------------------------------------------------------------------




--------------------------------------- Iteration      1(  11)  ---------------------------------------


    POTLOK:  cpu time      1.4691: real time      1.4688
    SETDIJ:  cpu time      0.5292: real time      0.5291
    TRIAL :  cpu time    237.5290: real time    237.4903
    CORREC:  cpu time    239.4235: real time    239.3829
    CHARGE:  cpu time      0.2472: real time      0.2471
    --------------------------------------------
      LOOP:  cpu time    479.2010: real time    479.1216

 eigenvalue-minimisations  :     0
 total energy-change (2. order) :-0.2070602E-02  (-0.1324176E-02)
 number of electron    1050.9998552 magnetization 
 augmentation part      455.6992077 magnetization 

 Free energy of the ion-electron system (eV)
  ---------------------------------------------------
  alpha Z        PSCENC =      5490.26774318
  Ewald energy   TEWEN  =    -87885.79046293
  -Hartree energ DENC   =    -33474.63515715
  -exchange      EXHF   =      3865.06049797
  -V(xc)+E(xc)   XCENC  =      2885.22911170
  PAW double counting   =    120572.60343271  -135833.23860788
  entropy T*S    EENTRO =        -0.02634416
  eigenvalues    EBANDS =     -8751.11773495
  atomic energy  EATOM  =    132173.67027711
  ---------------------------------------------------
  free energy    TOTEN  =      -957.97721550 eV

  energy without entropy =     -957.95087134  energy(sigma->0) =     -957.96404342
  exchange ACFDT corr.  =        -0.52869896  see jH, gK, PRB 81, 115126


--------------------------------------------------------------------------------------------------------




--------------------------------------- Iteration      1(  12)  ---------------------------------------


    POTLOK:  cpu time      1.4950: real time      1.4949
    SETDIJ:  cpu time      0.5306: real time      0.5305
    TRIAL :  cpu time    237.2253: real time    237.1845
    CORREC:  cpu time    239.8674: real time    239.8237
    CHARGE:  cpu time      0.2534: real time      0.2533
    --------------------------------------------
      LOOP:  cpu time    479.3751: real time    479.2908

 eigenvalue-minimisations  :     0
 total energy-change (2. order) :-0.1325332E-02  (-0.6297334E-03)
 number of electron    1050.9998552 magnetization 
 augmentation part      455.6994453 magnetization 

 Free energy of the ion-electron system (eV)
  ---------------------------------------------------
  alpha Z        PSCENC =      5490.26774318
  Ewald energy   TEWEN  =    -87885.79046293
  -Hartree energ DENC   =    -33474.38365544
  -exchange      EXHF   =      3865.05102174
  -V(xc)+E(xc)   XCENC  =      2885.21695872
  PAW double counting   =    120568.86257604  -135829.49272788
  entropy T*S    EENTRO =        -0.02635967
  eigenvalues    EBANDS =     -8751.35392721
  atomic energy  EATOM  =    132173.67027711
  ---------------------------------------------------
  free energy    TOTEN  =      -957.97854083 eV

  energy without entropy =     -957.95218116  energy(sigma->0) =     -957.96536099
  exchange ACFDT corr.  =        -0.52747031  see jH, gK, PRB 81, 115126


--------------------------------------------------------------------------------------------------------




--------------------------------------- Iteration      1(  13)  ---------------------------------------


    POTLOK:  cpu time      1.4818: real time      1.4816
    SETDIJ:  cpu time      0.5290: real time      0.5289
    TRIAL :  cpu time    237.3494: real time    237.3147
    CORREC:  cpu time    239.8347: real time    239.7958
    CHARGE:  cpu time      0.2507: real time      0.2506
    --------------------------------------------
      LOOP:  cpu time    479.4458: real time    479.3722

 eigenvalue-minimisations  :     0
 total energy-change (2. order) :-0.6297155E-03  (-0.3278871E-03)
 number of electron    1050.9998551 magnetization 
 augmentation part      455.7006791 magnetization 

 Free energy of the ion-electron system (eV)
  ---------------------------------------------------
  alpha Z        PSCENC =      5490.26774318
  Ewald energy   TEWEN  =    -87885.79046293
  -Hartree energ DENC   =    -33474.07821329
  -exchange      EXHF   =      3865.03464043
  -V(xc)+E(xc)   XCENC  =      2885.20023810
  PAW double counting   =    120568.84355898  -135829.76634237
  entropy T*S    EENTRO =        -0.02636925
  eigenvalues    EBANDS =     -8751.33425010
  atomic energy  EATOM  =    132173.67027711
  ---------------------------------------------------
  free energy    TOTEN  =      -957.97917054 eV

  energy without entropy =     -957.95280129  energy(sigma->0) =     -957.96598592
  exchange ACFDT corr.  =        -0.52684977  see jH, gK, PRB 81, 115126


--------------------------------------------------------------------------------------------------------




--------------------------------------- Iteration      1(  14)  ---------------------------------------


    POTLOK:  cpu time      1.5263: real time      1.5261
    SETDIJ:  cpu time      0.5295: real time      0.5294
    TRIAL :  cpu time    237.0791: real time    237.0346
    CORREC:  cpu time    239.7910: real time    239.7536
    CHARGE:  cpu time      0.2536: real time      0.2535
    --------------------------------------------
      LOOP:  cpu time    479.1798: real time    479.1039

 eigenvalue-minimisations  :     0
 total energy-change (2. order) :-0.3278882E-03  (-0.1773359E-03)
 number of electron    1050.9998551 magnetization 
 augmentation part      455.6994158 magnetization 

 Free energy of the ion-electron system (eV)
  ---------------------------------------------------
  alpha Z        PSCENC =      5490.26774318
  Ewald energy   TEWEN  =    -87885.79046293
  -Hartree energ DENC   =    -33474.10776242
  -exchange      EXHF   =      3865.02878457
  -V(xc)+E(xc)   XCENC  =      2885.19831281
  PAW double counting   =    120569.51702998  -135830.54914047
  entropy T*S    EENTRO =        -0.02637347
  eigenvalues    EBANDS =     -8751.18791101
  atomic energy  EATOM  =    132173.67027711
  ---------------------------------------------------
  free energy    TOTEN  =      -957.97949843 eV

  energy without entropy =     -957.95312496  energy(sigma->0) =     -957.96631170
  exchange ACFDT corr.  =        -0.52636698  see jH, gK, PRB 81, 115126


--------------------------------------------------------------------------------------------------------




--------------------------------------- Iteration      1(  15)  ---------------------------------------


    POTLOK:  cpu time      1.4841: real time      1.4838
    SETDIJ:  cpu time      0.5294: real time      0.5292
    TRIAL :  cpu time    237.1174: real time    237.0736
    CORREC:  cpu time    239.6862: real time    239.6463
    CHARGE:  cpu time      0.2468: real time      0.2467
    --------------------------------------------
      LOOP:  cpu time    479.0660: real time    478.9821

 eigenvalue-minimisations  :     0
 total energy-change (2. order) :-0.1773386E-03  (-0.9632917E-04)
 number of electron    1050.9998551 magnetization 
 augmentation part      455.6971014 magnetization 

 Free energy of the ion-electron system (eV)
  ---------------------------------------------------
  alpha Z        PSCENC =      5490.26774318
  Ewald energy   TEWEN  =    -87885.79046293
  -Hartree energ DENC   =    -33474.13454252
  -exchange      EXHF   =      3865.02552947
  -V(xc)+E(xc)   XCENC  =      2885.19972150
  PAW double counting   =    120570.05299764  -135830.90776997
  entropy T*S    EENTRO =        -0.02637360
  eigenvalues    EBANDS =     -8751.33679578
  atomic energy  EATOM  =    132173.67027711
  ---------------------------------------------------
  free energy    TOTEN  =      -957.97967577 eV

  energy without entropy =     -957.95330217  energy(sigma->0) =     -957.96648897
  exchange ACFDT corr.  =        -0.52596000  see jH, gK, PRB 81, 115126


--------------------------------------------------------------------------------------------------------




--------------------------------------- Iteration      1(  16)  ---------------------------------------


    POTLOK:  cpu time      1.5169: real time      1.5166
    SETDIJ:  cpu time      0.5289: real time      0.5288
    TRIAL :  cpu time    237.4397: real time    237.3988
    CORREC:  cpu time    239.4598: real time    239.4218
    CHARGE:  cpu time      0.2550: real time      0.2549
    --------------------------------------------
      LOOP:  cpu time    479.2006: real time    479.1214

 eigenvalue-minimisations  :     0
 total energy-change (2. order) :-0.9637787E-04  (-0.5728599E-04)
 number of electron    1050.9998551 magnetization 
 augmentation part      455.6960791 magnetization 

 Free energy of the ion-electron system (eV)
  ---------------------------------------------------
  alpha Z        PSCENC =      5490.26774318
  Ewald energy   TEWEN  =    -87885.79046293
  -Hartree energ DENC   =    -33474.06158333
  -exchange      EXHF   =      3865.02066358
  -V(xc)+E(xc)   XCENC  =      2885.19737943
  PAW double counting   =    120570.89909558  -135831.62634466
  entropy T*S    EENTRO =        -0.02637204
  eigenvalues    EBANDS =     -8751.53016651
  atomic energy  EATOM  =    132173.67027711
  ---------------------------------------------------
  free energy    TOTEN  =      -957.97977215 eV

  energy without entropy =     -957.95340011  energy(sigma->0) =     -957.96658613
  exchange ACFDT corr.  =        -0.52565502  see jH, gK, PRB 81, 115126


--------------------------------------------------------------------------------------------------------




--------------------------------------- Iteration      1(  17)  ---------------------------------------


    POTLOK:  cpu time      1.4546: real time      1.4545
    SETDIJ:  cpu time      0.5297: real time      0.5296
    TRIAL :  cpu time    237.4535: real time    237.4098
    CORREC:  cpu time    239.4167: real time    239.3739
    CHARGE:  cpu time      0.2532: real time      0.2532
    --------------------------------------------
      LOOP:  cpu time    479.1081: real time    479.0215

 eigenvalue-minimisations  :     0
 total energy-change (2. order) :-0.5744127E-04  (-0.3307815E-04)
 number of electron    1050.9998551 magnetization 
 augmentation part      455.6957646 magnetization 

 Free energy of the ion-electron system (eV)
  ---------------------------------------------------
  alpha Z        PSCENC =      5490.26774318
  Ewald energy   TEWEN  =    -87885.79046293
  -Hartree energ DENC   =    -33473.99903748
  -exchange      EXHF   =      3865.01606371
  -V(xc)+E(xc)   XCENC  =      2885.19370966
  PAW double counting   =    120572.25764191  -135833.01391483
  entropy T*S    EENTRO =        -0.02637022
  eigenvalues    EBANDS =     -8751.55547788
  atomic energy  EATOM  =    132173.67027711
  ---------------------------------------------------
  free energy    TOTEN  =      -957.97982959 eV

  energy without entropy =     -957.95345937  energy(sigma->0) =     -957.96664448
  exchange ACFDT corr.  =        -0.52533223  see jH, gK, PRB 81, 115126


--------------------------------------------------------------------------------------------------------




--------------------------------------- Iteration      1(  18)  ---------------------------------------


    POTLOK:  cpu time      1.5036: real time      1.5033
    SETDIJ:  cpu time      0.5297: real time      0.5296
    TRIAL :  cpu time    237.2044: real time    237.1665
    CORREC:  cpu time    239.8785: real time    239.8349
    CHARGE:  cpu time      0.2473: real time      0.2473
    --------------------------------------------
      LOOP:  cpu time    479.3639: real time    479.2824

 eigenvalue-minimisations  :     0
 total energy-change (2. order) :-0.3319791E-04  (-0.1645727E-04)
 number of electron    1050.9998551 magnetization 
 augmentation part      455.6948366 magnetization 

 Free energy of the ion-electron system (eV)
  ---------------------------------------------------
  alpha Z        PSCENC =      5490.26774318
  Ewald energy   TEWEN  =    -87885.79046293
  -Hartree energ DENC   =    -33474.02811732
  -exchange      EXHF   =      3865.01524739
  -V(xc)+E(xc)   XCENC  =      2885.19331642
  PAW double counting   =    120573.29041276  -135834.10830181
  entropy T*S    EENTRO =        -0.02636862
  eigenvalues    EBANDS =     -8751.46360737
  atomic energy  EATOM  =    132173.67027711
  ---------------------------------------------------
  free energy    TOTEN  =      -957.97986279 eV

  energy without entropy =     -957.95349417  energy(sigma->0) =     -957.96667848
  exchange ACFDT corr.  =        -0.52505093  see jH, gK, PRB 81, 115126


--------------------------------------------------------------------------------------------------------




--------------------------------------- Iteration      1(  19)  ---------------------------------------


    POTLOK:  cpu time      1.4687: real time      1.4685
    SETDIJ:  cpu time      0.5294: real time      0.5293
    TRIAL :  cpu time    237.2828: real time    237.2397
    CORREC:  cpu time    239.6537: real time    239.6070
    CHARGE:  cpu time      0.2473: real time      0.2472
    --------------------------------------------
      LOOP:  cpu time    479.1821: real time    479.0992

 eigenvalue-minimisations  :     0
 total energy-change (2. order) :-0.1643509E-04  (-0.7468211E-05)
 number of electron    1050.9998551 magnetization 
 augmentation part      455.6941625 magnetization 

 Free energy of the ion-electron system (eV)
  ---------------------------------------------------
  alpha Z        PSCENC =      5490.26774318
  Ewald energy   TEWEN  =    -87885.79046293
  -Hartree energ DENC   =    -33474.05198681
  -exchange      EXHF   =      3865.01703213
  -V(xc)+E(xc)   XCENC  =      2885.19462688
  PAW double counting   =    120573.54804549  -135834.33205802
  entropy T*S    EENTRO =        -0.02636727
  eigenvalues    EBANDS =     -8751.47672764
  atomic energy  EATOM  =    132173.67027711
  ---------------------------------------------------
  free energy    TOTEN  =      -957.97987922 eV

  energy without entropy =     -957.95351195  energy(sigma->0) =     -957.96669559
  exchange ACFDT corr.  =        -0.52490423  see jH, gK, PRB 81, 115126


--------------------------------------------------------------------------------------------------------




--------------------------------------- Iteration      1(  20)  ---------------------------------------


    POTLOK:  cpu time      1.4855: real time      1.4852
    SETDIJ:  cpu time      0.5296: real time      0.5295
    TRIAL :  cpu time    237.0314: real time    236.9846
    CORREC:  cpu time    239.9179: real time    239.8733
    EDDIAG:  cpu time    235.2195: real time    235.1762
    CHARGE:  cpu time      0.2872: real time      0.2872
    --------------------------------------------
      LOOP:  cpu time    715.4706: real time    715.3398

 eigenvalue-minimisations  :     0
 total energy-change (2. order) :-0.7514842E-05  (-0.3892885E-05)
 number of electron    1050.9998551 magnetization 
 augmentation part      455.6941240 magnetization 

 Free energy of the ion-electron system (eV)
  ---------------------------------------------------
  alpha Z        PSCENC =      5490.26774318
  Ewald energy   TEWEN  =    -87885.79046293
  -Hartree energ DENC   =    -33474.05268574
  -exchange      EXHF   =      3865.01911767
  -V(xc)+E(xc)   XCENC  =      2885.19537098
  PAW double counting   =    120573.25337011  -135833.99675825
  entropy T*S    EENTRO =        -0.02636611
  eigenvalues    EBANDS =     -8751.52072882
  atomic energy  EATOM  =    132173.67027711
  ---------------------------------------------------
  free energy    TOTEN  =      -957.97988674 eV

  energy without entropy =     -957.95352063  energy(sigma->0) =     -957.96670368
  exchange ACFDT corr.  =        -0.52480547  see jH, gK, PRB 81, 115126


--------------------------------------------------------------------------------------------------------


  average scaling for gradient   0.8503


 the core state eigenenergies are
   1-  1s -10216.5646  2s  -1249.8345  2p  -1086.2872  3s   -136.9848  3p    -87.7728
     
   2-  1s -10216.5565  2s  -1249.8272  2p  -1086.2799  3s   -136.9745  3p    -87.7623
     
   3-  1s -10216.5462  2s  -1249.8148  2p  -1086.2677  3s   -136.9627  3p    -87.7506
     
   4-  1s -10216.5379  2s  -1249.8069  2p  -1086.2599  3s   -136.9480  3p    -87.7355
     
   5-  1s -10216.5646  2s  -1249.8345  2p  -1086.2872  3s   -136.9848  3p    -87.7728
     
   6-  1s -10216.5564  2s  -1249.8272  2p  -1086.2799  3s   -136.9745  3p    -87.7623
     
   7-  1s -10216.5611  2s  -1249.8311  2p  -1086.2838  3s   -136.9808  3p    -87.7687
     
   8-  1s -10216.6393  2s  -1249.9102  2p  -1086.3628  3s   -137.0623  3p    -87.8504
     
   9-  1s -10216.5611  2s  -1249.8310  2p  -1086.2838  3s   -136.9807  3p    -87.7687
     
  10-  1s -10216.6394  2s  -1249.9102  2p  -1086.3628  3s   -137.0624  3p    -87.8504
     
  11-  1s -10216.5744  2s  -1249.8471  2p  -1086.2994  3s   -137.0036  3p    -87.7919
     
  12-  1s -10216.6543  2s  -1249.9245  2p  -1086.3772  3s   -137.0755  3p    -87.8636
     
  13-  1s -10216.0339  2s  -1249.4345  2p  -1085.8754  3s   -136.4795  3p    -87.2630
     
  14-  1s -10216.6212  2s  -1249.9947  2p  -1086.4370  3s   -137.1057  3p    -87.8924
     
  15-  1s -10216.0339  2s  -1249.4345  2p  -1085.8754  3s   -136.4795  3p    -87.2630
     
  16-  1s -10216.6211  2s  -1249.9946  2p  -1086.4370  3s   -137.1057  3p    -87.8923
     
  17-  1s -10216.3965  2s  -1249.7775  2p  -1086.2188  3s   -136.9005  3p    -87.6878
     
  18-  1s -10216.6439  2s  -1250.0183  2p  -1086.4606  3s   -137.1299  3p    -87.9166
     
  19-  1s -10216.6340  2s  -1250.0095  2p  -1086.4516  3s   -137.1228  3p    -87.9096
     
  20-  1s -10216.6550  2s  -1250.0302  2p  -1086.4723  3s   -137.1437  3p    -87.9306
     
  21-  1s -10216.6311  2s  -1250.0053  2p  -1086.4476  3s   -137.1176  3p    -87.9043
     
  22-  1s -10216.6380  2s  -1250.0136  2p  -1086.4556  3s   -137.1276  3p    -87.9145
     
  23-  1s -10216.6340  2s  -1250.0095  2p  -1086.4516  3s   -137.1228  3p    -87.9097
     
  24-  1s -10216.6550  2s  -1250.0302  2p  -1086.4723  3s   -137.1437  3p    -87.9306
     
  25-  1s -10216.3806  2s  -1249.6522  2p  -1086.1046  3s   -136.8085  3p    -87.5968
     
  26-  1s -10216.5802  2s  -1249.8523  2p  -1086.3047  3s   -137.0055  3p    -87.7937
     
  27-  1s -10216.3806  2s  -1249.6522  2p  -1086.1046  3s   -136.8085  3p    -87.5968
     
  28-  1s -10216.5800  2s  -1249.8521  2p  -1086.3045  3s   -137.0054  3p    -87.7935
     
  29-  1s -10216.4953  2s  -1249.7669  2p  -1086.2193  3s   -136.9226  3p    -87.7109
     
  30-  1s -10216.6216  2s  -1249.8929  2p  -1086.3454  3s   -137.0447  3p    -87.8328
     
  31-  1s -10216.2888  2s  -1249.5609  2p  -1086.0135  3s   -136.7087  3p    -87.4966
     
  32-  1s -10216.6040  2s  -1249.8739  2p  -1086.3266  3s   -137.0235  3p    -87.8115
     
  33-  1s -10216.5792  2s  -1249.8487  2p  -1086.3014  3s   -136.9976  3p    -87.7855
     
  34-  1s -10216.2887  2s  -1249.5608  2p  -1086.0134  3s   -136.7086  3p    -87.4965
     
  35-  1s -10216.6039  2s  -1249.8738  2p  -1086.3265  3s   -137.0234  3p    -87.8114
     
  36-  1s -10216.5566  2s  -1249.9310  2p  -1086.3732  3s   -137.0443  3p    -87.8311
     
  37-  1s -10216.6549  2s  -1250.0292  2p  -1086.4715  3s   -137.1397  3p    -87.9263
     
  38-  1s -10216.4658  2s  -1249.8355  2p  -1086.2783  3s   -136.9445  3p    -87.7310
     
  39-  1s -10216.6200  2s  -1249.9958  2p  -1086.4379  3s   -137.1080  3p    -87.8947
     
  40-  1s -10216.5565  2s  -1249.9310  2p  -1086.3732  3s   -137.0443  3p    -87.8311
     
  41-  1s -10216.6549  2s  -1250.0292  2p  -1086.4715  3s   -137.1396  3p    -87.9263
     
  42-  1s -10216.4949  2s  -1249.8665  2p  -1086.3092  3s   -136.9724  3p    -87.7588
     
  43-  1s -10216.4192  2s  -1249.7897  2p  -1086.2327  3s   -136.8874  3p    -87.6734
     
  44-  1s -10216.4951  2s  -1249.8666  2p  -1086.3093  3s   -136.9725  3p    -87.7589
     
  45-  1s -10216.4191  2s  -1249.7896  2p  -1086.2326  3s   -136.8874  3p    -87.6734
     
  46-  1s -10216.5607  2s  -1249.9345  2p  -1086.3768  3s   -137.0457  3p    -87.8324
     
  47-  1s -10216.5459  2s  -1249.9195  2p  -1086.3619  3s   -137.0289  3p    -87.8155
     
  48-  1s   -500.5523
  49-  1s   -500.6089
  50-  1s   -500.5524
  51-  1s   -500.6088
  52-  1s   -500.5806
  53-  1s   -500.6225
  54-  1s   -500.2617
  55-  1s   -500.5881
  56-  1s   -500.5486
  57-  1s   -500.2616
  58-  1s   -500.5880
  59-  1s   -500.5675
  60-  1s   -500.7368
  61-  1s   -500.5675
  62-  1s   -500.7367
  63-  1s   -500.7193
  64-  1s   -500.7646
  65-  1s   -500.7493
  66-  1s   -500.7890
  67-  1s   -500.7481
  68-  1s   -500.7883
  69-  1s   -500.7493
  70-  1s   -500.7890
  71-  1s   -500.3128
  72-  1s   -500.3785
  73-  1s   -500.2872
  74-  1s   -500.3719
  75-  1s   -500.3128
  76-  1s   -500.3786
  77-  1s   -500.2997
  78-  1s   -500.1163
  79-  1s   -500.2997
  80-  1s   -500.1163
  81-  1s   -500.3364
  82-  1s   -500.2787
  83-  1s   -500.5089
  84-  1s   -500.4840
  85-  1s   -500.4637
  86-  1s   -500.3961
  87-  1s   -500.5089
  88-  1s   -500.4840
  89-  1s   -500.4878
  90-  1s   -500.6189
  91-  1s   -500.4878
  92-  1s   -500.6189
  93-  1s   -500.5505
  94-  1s   -500.6286
  95-  1s   -500.5925
  96-  1s   -500.7890
  97-  1s   -500.3409
  98-  1s   -500.7667
  99-  1s   -500.5925
 100-  1s   -500.7889
 101-  1s   -500.4171
 102-  1s   -500.6805
 103-  1s   -500.4171
 104-  1s   -500.6805
 105-  1s   -500.5955
 106-  1s   -500.7548
 107-  1s   -499.7972
 108-  1s   -500.2729
 109-  1s   -499.7971
 110-  1s   -500.2729
 111-  1s   -500.1627
 112-  1s   -500.3125
 113-  1s   -500.2711
 114-  1s   -500.3088
 115-  1s   -500.2056
 116-  1s   -500.2394
 117-  1s   -500.2711
 118-  1s   -500.3086
 119-  1s   -369.9505
 120-  1s  -6986.0814  2s   -807.2264  2p   -685.9621  3s    -80.9245  3p    -46.9712
     
 
 E-fermi :   5.9774     XC(G=0):  -8.8641     alpha+bet :-12.5105

 Fermi energy:         5.9773789860

 k-point     1 :       0.0000    0.0000    0.0000
  band No.  band energies     occupation 
      1     -18.7170      2.00000
      2     -18.4304      2.00000
      3     -18.3864      2.00000
      4     -18.2347      2.00000
      5     -18.1637      2.00000
      6     -18.0394      2.00000
      7     -18.0322      2.00000
      8     -17.9376      2.00000
      9     -17.8694      2.00000
     10     -17.8340      2.00000
     11     -17.8228      2.00000
     12     -17.8012      2.00000
     13     -17.7913      2.00000
     14     -17.7488      2.00000
     15     -17.7484      2.00000
     16     -17.6935      2.00000
     17     -17.6604      2.00000
     18     -17.6601      2.00000
     19     -17.6120      2.00000
     20     -17.5928      2.00000
     21     -17.5658      2.00000
     22     -17.5536      2.00000
     23     -17.5266      2.00000
     24     -17.5225      2.00000
     25     -17.4703      2.00000
     26     -17.4478      2.00000
     27     -17.4436      2.00000
     28     -17.4379      2.00000
     29     -17.4038      2.00000
     30     -17.3901      2.00000
     31     -17.3716      2.00000
     32     -17.3687      2.00000
     33     -17.3664      2.00000
     34     -17.3211      2.00000
     35     -17.3099      2.00000
     36     -17.2868      2.00000
     37     -17.2734      2.00000
     38     -17.2661      2.00000
     39     -17.2647      2.00000
     40     -17.2387      2.00000
     41     -17.2174      2.00000
     42     -17.1951      2.00000
     43     -17.1854      2.00000
     44     -17.1611      2.00000
     45     -17.1307      2.00000
     46     -17.1185      2.00000
     47     -17.1032      2.00000
     48     -17.0890      2.00000
     49     -17.0709      2.00000
     50     -17.0693      2.00000
     51     -17.0376      2.00000
     52     -17.0354      2.00000
     53     -17.0261      2.00000
     54     -16.9972      2.00000
     55     -16.9884      2.00000
     56     -16.9777      2.00000
     57     -16.9755      2.00000
     58     -16.9565      2.00000
     59     -16.9424      2.00000
     60     -16.9415      2.00000
     61     -16.9228      2.00000
     62     -16.9141      2.00000
     63     -16.8921      2.00000
     64     -16.8796      2.00000
     65     -16.8598      2.00000
     66     -16.7971      2.00000
     67     -16.7662      2.00000
     68     -16.7580      2.00000
     69     -16.7405      2.00000
     70     -16.3125      2.00000
     71     -16.2573      2.00000
     72     -13.1812      2.00000
     73     -13.1674      2.00000
     74     -13.1533      2.00000
     75     -13.1438      2.00000
     76     -13.1425      2.00000
     77     -13.1334      2.00000
     78     -13.1274      2.00000
     79     -13.1076      2.00000
     80     -13.0826      2.00000
     81     -13.0814      2.00000
     82     -13.0794      2.00000
     83     -13.0694      2.00000
     84     -13.0628      2.00000
     85     -13.0617      2.00000
     86     -13.0559      2.00000
     87     -13.0534      2.00000
     88     -13.0504      2.00000
     89     -13.0402      2.00000
     90     -13.0402      2.00000
     91     -13.0365      2.00000
     92     -13.0338      2.00000
     93     -13.0331      2.00000
     94     -13.0285      2.00000
     95     -13.0234      2.00000
     96     -13.0187      2.00000
     97     -13.0181      2.00000
     98     -13.0133      2.00000
     99     -13.0085      2.00000
    100     -13.0047      2.00000
    101     -13.0014      2.00000
    102     -13.0013      2.00000
    103     -12.9942      2.00000
    104     -12.9938      2.00000
    105     -12.9868      2.00000
    106     -12.9839      2.00000
    107     -12.9798      2.00000
    108     -12.9776      2.00000
    109     -12.9738      2.00000
    110     -12.9711      2.00000
    111     -12.9681      2.00000
    112     -12.9652      2.00000
    113     -12.9643      2.00000
    114     -12.9639      2.00000
    115     -12.9534      2.00000
    116     -12.9529      2.00000
    117     -12.9501      2.00000
    118     -12.9460      2.00000
    119     -12.9410      2.00000
    120     -12.9399      2.00000
    121     -12.9379      2.00000
    122     -12.9283      2.00000
    123     -12.9279      2.00000
    124     -12.9241      2.00000
    125     -12.9226      2.00000
    126     -12.9172      2.00000
    127     -12.9143      2.00000
    128     -12.9128      2.00000
    129     -12.9090      2.00000
    130     -12.9080      2.00000
    131     -12.9050      2.00000
    132     -12.8993      2.00000
    133     -12.8991      2.00000
    134     -12.8964      2.00000
    135     -12.8952      2.00000
    136     -12.8913      2.00000
    137     -12.8888      2.00000
    138     -12.8842      2.00000
    139     -12.8827      2.00000
    140     -12.8817      2.00000
    141     -12.8776      2.00000
    142     -12.8735      2.00000
    143     -12.8713      2.00000
    144     -12.8693      2.00000
    145     -12.8668      2.00000
    146     -12.8600      2.00000
    147     -12.8586      2.00000
    148     -12.8523      2.00000
    149     -12.8513      2.00000
    150     -12.8492      2.00000
    151     -12.8455      2.00000
    152     -12.8448      2.00000
    153     -12.8405      2.00000
    154     -12.8403      2.00000
    155     -12.8365      2.00000
    156     -12.8354      2.00000
    157     -12.8262      2.00000
    158     -12.8225      2.00000
    159     -12.8176      2.00000
    160     -12.8165      2.00000
    161     -12.8120      2.00000
    162     -12.8120      2.00000
    163     -12.8103      2.00000
    164     -12.8073      2.00000
    165     -12.8005      2.00000
    166     -12.7977      2.00000
    167     -12.7952      2.00000
    168     -12.7939      2.00000
    169     -12.7933      2.00000
    170     -12.7931      2.00000
    171     -12.7868      2.00000
    172     -12.7823      2.00000
    173     -12.7780      2.00000
    174     -12.7763      2.00000
    175     -12.7739      2.00000
    176     -12.7717      2.00000
    177     -12.7670      2.00000
    178     -12.7645      2.00000
    179     -12.7596      2.00000
    180     -12.7589      2.00000
    181     -12.7578      2.00000
    182     -12.7570      2.00000
    183     -12.7519      2.00000
    184     -12.7497      2.00000
    185     -12.7472      2.00000
    186     -12.7419      2.00000
    187     -12.7377      2.00000
    188     -12.7372      2.00000
    189     -12.7351      2.00000
    190     -12.7308      2.00000
    191     -12.7273      2.00000
    192     -12.7221      2.00000
    193     -12.7212      2.00000
    194     -12.7167      2.00000
    195     -12.7161      2.00000
    196     -12.7158      2.00000
    197     -12.7138      2.00000
    198     -12.7131      2.00000
    199     -12.7072      2.00000
    200     -12.7066      2.00000
    201     -12.7022      2.00000
    202     -12.6983      2.00000
    203     -12.6954      2.00000
    204     -12.6899      2.00000
    205     -12.6896      2.00000
    206     -12.6892      2.00000
    207     -12.6889      2.00000
    208     -12.6860      2.00000
    209     -12.6821      2.00000
    210     -12.6766      2.00000
    211     -12.6759      2.00000
    212     -12.6752      2.00000
    213     -12.6714      2.00000
    214     -12.6698      2.00000
    215     -12.6697      2.00000
    216     -12.6642      2.00000
    217     -12.6630      2.00000
    218     -12.6591      2.00000
    219     -12.6571      2.00000
    220     -12.6537      2.00000
    221     -12.6532      2.00000
    222     -12.6479      2.00000
    223     -12.6478      2.00000
    224     -12.6429      2.00000
    225     -12.6424      2.00000
    226     -12.6399      2.00000
    227     -12.6372      2.00000
    228     -12.6321      2.00000
    229     -12.6309      2.00000
    230     -12.6298      2.00000
    231     -12.6252      2.00000
    232     -12.6184      2.00000
    233     -12.6176      2.00000
    234     -12.6117      2.00000
    235     -12.6082      2.00000
    236     -12.6065      2.00000
    237     -12.6032      2.00000
    238     -12.6012      2.00000
    239     -12.5836      2.00000
    240     -12.5813      2.00000
    241     -12.5756      2.00000
    242     -12.5686      2.00000
    243     -12.5501      2.00000
    244     -12.5482      2.00000
    245     -12.5424      2.00000
    246     -12.5240      2.00000
    247     -12.5190      2.00000
    248     -12.5144      2.00000
    249     -12.5069      2.00000
    250     -12.4896      2.00000
    251     -12.4864      2.00000
    252     -12.4788      2.00000
    253     -12.4696      2.00000
    254     -12.4691      2.00000
    255     -12.4525      2.00000
    256     -12.4475      2.00000
    257     -12.4406      2.00000
    258     -12.4320      2.00000
    259     -12.4261      2.00000
    260     -12.4211      2.00000
    261     -12.4074      2.00000
    262     -12.3957      2.00000
    263     -12.3772      2.00000
    264     -12.3745      2.00000
    265     -12.3352      2.00000
    266     -12.3339      2.00000
    267     -12.3240      2.00000
    268     -12.3090      2.00000
    269     -12.2933      2.00000
    270     -12.2921      2.00000
    271     -12.2796      2.00000
    272     -12.2654      2.00000
    273     -12.2610      2.00000
    274     -12.2458      2.00000
    275     -12.2354      2.00000
    276     -12.2139      2.00000
    277     -12.2121      2.00000
    278     -12.2074      2.00000
    279     -12.2029      2.00000
    280     -12.1822      2.00000
    281     -12.1665      2.00000
    282     -12.1653      2.00000
    283     -12.1390      2.00000
    284     -12.0890      2.00000
    285     -12.0439      2.00000
    286     -12.0377      2.00000
    287     -12.0183      2.00000
    288     -11.9971      2.00000
    289     -11.9965      2.00000
    290     -11.9736      2.00000
    291     -11.9629      2.00000
    292     -11.9524      2.00000
    293     -11.9513      2.00000
    294     -11.9290      2.00000
    295     -11.9243      2.00000
    296     -11.8986      2.00000
    297     -11.8876      2.00000
    298     -11.8648      2.00000
    299     -11.8341      2.00000
    300     -11.8211      2.00000
    301     -11.7986      2.00000
    302     -11.7698      2.00000
    303     -11.7553      2.00000
    304     -11.7108      2.00000
    305     -11.6192      2.00000
    306     -11.5942      2.00000
    307     -10.0534      2.00000
    308      -5.2417      2.00000
    309      -5.1092      2.00000
    310      -4.8816      2.00000
    311      -4.8742      2.00000
    312      -4.5738      2.00000
    313      -4.5574      2.00000
    314      -4.4660      2.00000
    315      -4.4500      2.00000
    316      -4.4441      2.00000
    317      -4.4342      2.00000
    318      -4.3533      2.00000
    319      -4.2686      2.00000
    320      -4.2614      2.00000
    321      -4.2428      2.00000
    322      -4.2345      2.00000
    323      -4.2051      2.00000
    324      -4.1575      2.00000
    325      -4.1511      2.00000
    326      -4.0374      2.00000
    327      -4.0079      2.00000
    328      -3.9023      2.00000
    329      -3.8601      2.00000
    330      -3.8042      2.00000
    331      -3.7974      2.00000
    332      -3.7532      2.00000
    333      -3.7055      2.00000
    334      -3.6616      2.00000
    335      -3.5925      2.00000
    336      -3.5681      2.00000
    337      -3.5593      2.00000
    338      -3.5519      2.00000
    339      -3.4498      2.00000
    340      -3.4438      2.00000
    341      -3.3207      2.00000
    342      -3.2443      2.00000
    343      -3.2273      2.00000
    344      -3.2058      2.00000
    345      -3.1823      2.00000
    346      -3.1702      2.00000
    347      -3.1501      2.00000
    348      -3.0296      2.00000
    349      -2.9423      2.00000
    350      -2.9224      2.00000
    351      -2.7876      2.00000
    352      -2.6918      2.00000
    353      -2.6209      2.00000
    354      -2.5534      2.00000
    355      -2.5327      2.00000
    356      -2.4847      2.00000
    357      -2.4659      2.00000
    358      -2.4644      2.00000
    359      -2.3963      2.00000
    360      -2.3869      2.00000
    361      -2.3436      2.00000
    362      -2.3348      2.00000
    363      -2.2824      2.00000
    364      -2.2713      2.00000
    365      -2.2405      2.00000
    366      -2.2159      2.00000
    367      -2.0843      2.00000
    368      -2.0200      2.00000
    369      -1.9778      2.00000
    370      -1.9703      2.00000
    371      -1.8781      2.00000
    372      -1.8611      2.00000
    373      -1.8466      2.00000
    374      -1.7806      2.00000
    375      -1.7664      2.00000
    376      -1.7027      2.00000
    377      -1.6892      2.00000
    378      -1.6687      2.00000
    379      -1.6615      2.00000
    380      -1.6269      2.00000
    381      -1.5927      2.00000
    382      -1.5342      2.00000
    383      -1.4798      2.00000
    384      -1.4756      2.00000
    385      -1.3872      2.00000
    386      -1.3459      2.00000
    387      -1.3361      2.00000
    388      -1.2567      2.00000
    389      -1.2407      2.00000
    390      -1.1892      2.00000
    391      -1.1607      2.00000
    392      -1.1077      2.00000
    393      -1.1052      2.00000
    394      -1.0372      2.00000
    395      -1.0302      2.00000
    396      -0.9662      2.00000
    397      -0.9325      2.00000
    398      -0.9287      2.00000
    399      -0.8766      2.00000
    400      -0.8275      2.00000
    401      -0.8186      2.00000
    402      -0.6938      2.00000
    403      -0.6650      2.00000
    404      -0.6542      2.00000
    405      -0.6363      2.00000
    406      -0.6272      2.00000
    407      -0.6034      2.00000
    408      -0.5857      2.00000
    409      -0.5655      2.00000
    410      -0.5402      2.00000
    411      -0.5080      2.00000
    412      -0.4726      2.00000
    413      -0.4355      2.00000
    414      -0.4062      2.00000
    415      -0.3539      2.00000
    416      -0.3274      2.00000
    417      -0.2967      2.00000
    418      -0.2937      2.00000
    419      -0.2844      2.00000
    420      -0.2706      2.00000
    421      -0.2646      2.00000
    422      -0.2489      2.00000
    423      -0.2337      2.00000
    424      -0.2179      2.00000
    425      -0.1879      2.00000
    426      -0.1332      2.00000
    427      -0.1142      2.00000
    428      -0.0890      2.00000
    429      -0.0788      2.00000
    430      -0.0369      2.00000
    431      -0.0347      2.00000
    432      -0.0167      2.00000
    433       0.0055      2.00000
    434       0.0249      2.00000
    435       0.0442      2.00000
    436       0.0457      2.00000
    437       0.1014      2.00000
    438       0.1078      2.00000
    439       0.1489      2.00000
    440       0.2011      2.00000
    441       0.2905      2.00000
    442       0.2913      2.00000
    443       0.3133      2.00000
    444       0.3857      2.00000
    445       0.4027      2.00000
    446       0.4852      2.00000
    447       0.4856      2.00000
    448       0.5372      2.00000
    449       0.5579      2.00000
    450       0.5683      2.00000
    451       0.5854      2.00000
    452       0.5944      2.00000
    453       0.6000      2.00000
    454       0.6275      2.00000
    455       0.6611      2.00000
    456       0.6946      2.00000
    457       0.7272      2.00000
    458       0.7303      2.00000
    459       0.7438      2.00000
    460       0.7626      2.00000
    461       0.7678      2.00000
    462       0.8003      2.00000
    463       0.8097      2.00000
    464       0.8122      2.00000
    465       0.8428      2.00000
    466       0.8445      2.00000
    467       0.8794      2.00000
    468       0.8907      2.00000
    469       0.9104      2.00000
    470       0.9390      2.00000
    471       0.9678      2.00000
    472       1.0013      2.00000
    473       1.0147      2.00000
    474       1.0282      2.00000
    475       1.0368      2.00000
    476       1.0925      2.00000
    477       1.1392      2.00000
    478       1.1442      2.00000
    479       1.1631      2.00000
    480       1.1951      2.00000
    481       1.1975      2.00000
    482       1.2318      2.00000
    483       1.2535      2.00000
    484       1.2620      2.00000
    485       1.2752      2.00000
    486       1.2881      2.00000
    487       1.3099      2.00000
    488       1.3206      2.00000
    489       1.3296      2.00000
    490       1.3533      2.00000
    491       1.3577      2.00000
    492       1.3653      2.00000
    493       1.3842      2.00000
    494       1.4167      2.00000
    495       1.4287      2.00000
    496       1.4710      2.00000
    497       1.4878      2.00000
    498       1.4888      2.00000
    499       1.5004      2.00000
    500       1.5149      2.00000
    501       1.5262      2.00000
    502       1.5333      2.00000
    503       1.5563      2.00000
    504       1.5570      2.00000
    505       1.5886      2.00000
    506       1.6134      2.00000
    507       1.6143      2.00000
    508       1.6316      2.00000
    509       1.6666      2.00000
    510       1.6723      2.00000
    511       1.7119      2.00000
    512       1.7331      2.00000
    513       1.7655      2.00000
    514       1.7776      2.00000
    515       1.8003      2.00000
    516       1.8409      2.00000
    517       1.8424      2.00000
    518       1.9755      2.00000
    519       2.0311      2.00000
    520       2.0502      2.00000
    521       2.0801      2.00000
    522       2.2820      2.00000
    523       3.1692      2.00000
    524       3.3265      2.00000
    525       3.8632      2.00000
    526       5.9761      1.03262
    527       6.7511      0.00000
    528       8.9442      0.00000
    529       9.0670      0.00000
    530       9.2302      0.00000
    531       9.3231      0.00000
    532       9.7102      0.00000
    533       9.7740      0.00000
    534       9.8188      0.00000
    535       9.8942      0.00000
    536      10.2141      0.00000
    537      10.2291      0.00000
    538      10.2734      0.00000
    539      10.3328      0.00000
    540      10.3820      0.00000
    541      10.4080      0.00000
    542      10.5582      0.00000
    543      10.5655      0.00000
    544      10.7039      0.00000
    545      10.7275      0.00000
    546      10.7919      0.00000
    547      10.7932      0.00000
    548      10.8536      0.00000
    549      10.8824      0.00000
    550      10.9040      0.00000
    551      11.0035      0.00000
    552      11.0961      0.00000
    553      11.1107      0.00000
    554      11.1897      0.00000
    555      11.2034      0.00000
    556      11.3442      0.00000
    557      11.4153      0.00000
    558      11.4216      0.00000
    559      11.5101      0.00000
    560      11.5207      0.00000
    561      11.5605      0.00000
    562      11.7042      0.00000
    563      11.7453      0.00000
    564      11.9007      0.00000
    565      12.0047      0.00000
    566      12.0163      0.00000
    567      12.0504      0.00000
    568      12.0864      0.00000
    569      12.0979      0.00000
    570      12.1715      0.00000
    571      12.2841      0.00000
    572      12.3253      0.00000
    573      12.3358      0.00000
    574      12.3861      0.00000
    575      12.4123      0.00000
    576      12.4317      0.00000
    577      12.5495      0.00000
    578      12.8456      0.00000
    579      12.9934      0.00000
    580      13.0873      0.00000
    581      13.1013      0.00000
    582      13.1374      0.00000
    583      13.2555      0.00000
    584      13.2615      0.00000
    585      13.3572      0.00000
    586      13.3934      0.00000
    587      13.3992      0.00000
    588      13.5082      0.00000
    589      13.5135      0.00000
    590      13.6038      0.00000
    591      13.6696      0.00000
    592      13.6882      0.00000
    593      13.7185      0.00000
    594      13.8527      0.00000
    595      13.8625      0.00000
    596      13.8790      0.00000
    597      13.9102      0.00000
    598      13.9477      0.00000
    599      13.9704      0.00000
    600      14.0043      0.00000
    601      14.0720      0.00000
    602      14.1208      0.00000
    603      14.1357      0.00000
    604      14.1871      0.00000
    605      14.2098      0.00000
    606      14.2527      0.00000
    607      14.2834      0.00000
    608      14.3185      0.00000
    609      14.4159      0.00000
    610      14.4428      0.00000
    611      14.5566      0.00000
    612      14.6214      0.00000
    613      14.6476      0.00000
    614      14.6983      0.00000
    615      14.7141      0.00000
    616      14.7372      0.00000
    617      14.7814      0.00000
    618      14.7933      0.00000
    619      14.8783      0.00000
    620      14.8881      0.00000
    621      15.0440      0.00000
    622      15.0737      0.00000
    623      15.1140      0.00000
    624      15.2301      0.00000
    625      15.2396      0.00000
    626      15.5129      0.00000
    627      15.5706      0.00000
    628      15.6491      0.00000
    629      15.6739      0.00000
    630      15.8008      0.00000

 k-point     2 :       0.5000    0.0000    0.0000
  band No.  band energies     occupation 
      1     -18.6413      2.00000
      2     -18.5672      2.00000
      3     -18.4030      2.00000
      4     -18.2810      2.00000
      5     -17.9967      2.00000
      6     -17.9861      2.00000
      7     -17.9376      2.00000
      8     -17.9285      2.00000
      9     -17.9217      2.00000
     10     -17.9041      2.00000
     11     -17.8523      2.00000
     12     -17.8270      2.00000
     13     -17.8031      2.00000
     14     -17.7745      2.00000
     15     -17.7269      2.00000
     16     -17.6891      2.00000
     17     -17.6656      2.00000
     18     -17.6464      2.00000
     19     -17.6031      2.00000
     20     -17.5941      2.00000
     21     -17.5884      2.00000
     22     -17.5596      2.00000
     23     -17.5571      2.00000
     24     -17.5130      2.00000
     25     -17.5114      2.00000
     26     -17.4536      2.00000
     27     -17.4481      2.00000
     28     -17.4084      2.00000
     29     -17.4057      2.00000
     30     -17.3748      2.00000
     31     -17.3638      2.00000
     32     -17.3550      2.00000
     33     -17.3444      2.00000
     34     -17.3272      2.00000
     35     -17.3158      2.00000
     36     -17.2994      2.00000
     37     -17.2870      2.00000
     38     -17.2582      2.00000
     39     -17.2580      2.00000
     40     -17.2232      2.00000
     41     -17.2184      2.00000
     42     -17.2008      2.00000
     43     -17.1821      2.00000
     44     -17.1381      2.00000
     45     -17.1243      2.00000
     46     -17.1121      2.00000
     47     -17.1079      2.00000
     48     -17.0979      2.00000
     49     -17.0897      2.00000
     50     -17.0661      2.00000
     51     -17.0376      2.00000
     52     -17.0347      2.00000
     53     -17.0321      2.00000
     54     -16.9980      2.00000
     55     -16.9878      2.00000
     56     -16.9784      2.00000
     57     -16.9744      2.00000
     58     -16.9581      2.00000
     59     -16.9435      2.00000
     60     -16.9412      2.00000
     61     -16.9233      2.00000
     62     -16.9141      2.00000
     63     -16.8906      2.00000
     64     -16.8796      2.00000
     65     -16.8590      2.00000
     66     -16.7972      2.00000
     67     -16.7664      2.00000
     68     -16.7583      2.00000
     69     -16.7404      2.00000
     70     -16.3126      2.00000
     71     -16.2573      2.00000
     72     -13.1813      2.00000
     73     -13.1679      2.00000
     74     -13.1533      2.00000
     75     -13.1421      2.00000
     76     -13.1336      2.00000
     77     -13.1276      2.00000
     78     -13.1248      2.00000
     79     -13.1199      2.00000
     80     -13.0839      2.00000
     81     -13.0804      2.00000
     82     -13.0785      2.00000
     83     -13.0701      2.00000
     84     -13.0652      2.00000
     85     -13.0629      2.00000
     86     -13.0601      2.00000
     87     -13.0513      2.00000
     88     -13.0442      2.00000
     89     -13.0413      2.00000
     90     -13.0407      2.00000
     91     -13.0401      2.00000
     92     -13.0347      2.00000
     93     -13.0339      2.00000
     94     -13.0290      2.00000
     95     -13.0246      2.00000
     96     -13.0188      2.00000
     97     -13.0175      2.00000
     98     -13.0072      2.00000
     99     -13.0045      2.00000
    100     -13.0027      2.00000
    101     -12.9979      2.00000
    102     -12.9972      2.00000
    103     -12.9945      2.00000
    104     -12.9944      2.00000
    105     -12.9873      2.00000
    106     -12.9838      2.00000
    107     -12.9768      2.00000
    108     -12.9767      2.00000
    109     -12.9730      2.00000
    110     -12.9706      2.00000
    111     -12.9662      2.00000
    112     -12.9656      2.00000
    113     -12.9649      2.00000
    114     -12.9644      2.00000
    115     -12.9531      2.00000
    116     -12.9504      2.00000
    117     -12.9454      2.00000
    118     -12.9440      2.00000
    119     -12.9420      2.00000
    120     -12.9405      2.00000
    121     -12.9385      2.00000
    122     -12.9284      2.00000
    123     -12.9271      2.00000
    124     -12.9239      2.00000
    125     -12.9233      2.00000
    126     -12.9165      2.00000
    127     -12.9151      2.00000
    128     -12.9134      2.00000
    129     -12.9108      2.00000
    130     -12.9093      2.00000
    131     -12.9038      2.00000
    132     -12.8992      2.00000
    133     -12.8987      2.00000
    134     -12.8936      2.00000
    135     -12.8920      2.00000
    136     -12.8882      2.00000
    137     -12.8879      2.00000
    138     -12.8870      2.00000
    139     -12.8843      2.00000
    140     -12.8811      2.00000
    141     -12.8804      2.00000
    142     -12.8772      2.00000
    143     -12.8701      2.00000
    144     -12.8697      2.00000
    145     -12.8631      2.00000
    146     -12.8577      2.00000
    147     -12.8574      2.00000
    148     -12.8538      2.00000
    149     -12.8531      2.00000
    150     -12.8498      2.00000
    151     -12.8466      2.00000
    152     -12.8414      2.00000
    153     -12.8386      2.00000
    154     -12.8368      2.00000
    155     -12.8361      2.00000
    156     -12.8312      2.00000
    157     -12.8264      2.00000
    158     -12.8190      2.00000
    159     -12.8142      2.00000
    160     -12.8132      2.00000
    161     -12.8120      2.00000
    162     -12.8120      2.00000
    163     -12.8099      2.00000
    164     -12.8061      2.00000
    165     -12.8039      2.00000
    166     -12.8011      2.00000
    167     -12.7965      2.00000
    168     -12.7940      2.00000
    169     -12.7914      2.00000
    170     -12.7873      2.00000
    171     -12.7819      2.00000
    172     -12.7806      2.00000
    173     -12.7780      2.00000
    174     -12.7751      2.00000
    175     -12.7741      2.00000
    176     -12.7713      2.00000
    177     -12.7681      2.00000
    178     -12.7669      2.00000
    179     -12.7638      2.00000
    180     -12.7610      2.00000
    181     -12.7598      2.00000
    182     -12.7543      2.00000
    183     -12.7517      2.00000
    184     -12.7487      2.00000
    185     -12.7485      2.00000
    186     -12.7435      2.00000
    187     -12.7362      2.00000
    188     -12.7354      2.00000
    189     -12.7313      2.00000
    190     -12.7295      2.00000
    191     -12.7274      2.00000
    192     -12.7248      2.00000
    193     -12.7205      2.00000
    194     -12.7186      2.00000
    195     -12.7158      2.00000
    196     -12.7141      2.00000
    197     -12.7097      2.00000
    198     -12.7096      2.00000
    199     -12.7071      2.00000
    200     -12.7057      2.00000
    201     -12.7004      2.00000
    202     -12.6995      2.00000
    203     -12.6974      2.00000
    204     -12.6968      2.00000
    205     -12.6915      2.00000
    206     -12.6913      2.00000
    207     -12.6878      2.00000
    208     -12.6875      2.00000
    209     -12.6833      2.00000
    210     -12.6821      2.00000
    211     -12.6775      2.00000
    212     -12.6768      2.00000
    213     -12.6738      2.00000
    214     -12.6694      2.00000
    215     -12.6661      2.00000
    216     -12.6652      2.00000
    217     -12.6641      2.00000
    218     -12.6640      2.00000
    219     -12.6586      2.00000
    220     -12.6575      2.00000
    221     -12.6535      2.00000
    222     -12.6530      2.00000
    223     -12.6469      2.00000
    224     -12.6450      2.00000
    225     -12.6412      2.00000
    226     -12.6405      2.00000
    227     -12.6373      2.00000
    228     -12.6316      2.00000
    229     -12.6294      2.00000
    230     -12.6174      2.00000
    231     -12.6171      2.00000
    232     -12.6148      2.00000
    233     -12.6120      2.00000
    234     -12.6095      2.00000
    235     -12.6059      2.00000
    236     -12.6050      2.00000
    237     -12.6028      2.00000
    238     -12.6011      2.00000
    239     -12.5932      2.00000
    240     -12.5815      2.00000
    241     -12.5784      2.00000
    242     -12.5748      2.00000
    243     -12.5660      2.00000
    244     -12.5548      2.00000
    245     -12.5546      2.00000
    246     -12.5374      2.00000
    247     -12.5234      2.00000
    248     -12.5208      2.00000
    249     -12.5146      2.00000
    250     -12.5108      2.00000
    251     -12.4948      2.00000
    252     -12.4935      2.00000
    253     -12.4863      2.00000
    254     -12.4766      2.00000
    255     -12.4738      2.00000
    256     -12.4719      2.00000
    257     -12.4611      2.00000
    258     -12.4452      2.00000
    259     -12.4308      2.00000
    260     -12.4298      2.00000
    261     -12.4257      2.00000
    262     -12.4195      2.00000
    263     -12.4016      2.00000
    264     -12.3866      2.00000
    265     -12.3745      2.00000
    266     -12.3725      2.00000
    267     -12.3149      2.00000
    268     -12.3120      2.00000
    269     -12.2626      2.00000
    270     -12.2532      2.00000
    271     -12.2470      2.00000
    272     -12.2442      2.00000
    273     -12.2332      2.00000
    274     -12.2219      2.00000
    275     -12.2196      2.00000
    276     -12.2062      2.00000
    277     -12.1987      2.00000
    278     -12.1851      2.00000
    279     -12.1775      2.00000
    280     -12.1370      2.00000
    281     -12.1341      2.00000
    282     -12.1285      2.00000
    283     -12.0877      2.00000
    284     -12.0773      2.00000
    285     -12.0599      2.00000
    286     -12.0469      2.00000
    287     -12.0239      2.00000
    288     -12.0133      2.00000
    289     -11.9945      2.00000
    290     -11.9738      2.00000
    291     -11.9712      2.00000
    292     -11.9511      2.00000
    293     -11.9342      2.00000
    294     -11.9084      2.00000
    295     -11.8723      2.00000
    296     -11.8671      2.00000
    297     -11.8638      2.00000
    298     -11.8559      2.00000
    299     -11.8505      2.00000
    300     -11.8428      2.00000
    301     -11.8394      2.00000
    302     -11.7741      2.00000
    303     -11.7627      2.00000
    304     -11.7314      2.00000
    305     -11.6859      2.00000
    306     -11.6254      2.00000
    307     -10.0534      2.00000
    308      -5.2329      2.00000
    309      -5.0969      2.00000
    310      -4.7815      2.00000
    311      -4.7805      2.00000
    312      -4.6675      2.00000
    313      -4.6557      2.00000
    314      -4.3955      2.00000
    315      -4.3854      2.00000
    316      -4.3348      2.00000
    317      -4.3144      2.00000
    318      -4.3113      2.00000
    319      -4.2893      2.00000
    320      -4.2728      2.00000
    321      -4.2457      2.00000
    322      -4.1902      2.00000
    323      -4.1786      2.00000
    324      -4.1712      2.00000
    325      -4.1490      2.00000
    326      -4.1467      2.00000
    327      -4.1262      2.00000
    328      -4.0878      2.00000
    329      -4.0650      2.00000
    330      -4.0595      2.00000
    331      -4.0578      2.00000
    332      -3.9086      2.00000
    333      -3.7618      2.00000
    334      -3.6502      2.00000
    335      -3.5121      2.00000
    336      -3.4406      2.00000
    337      -3.4402      2.00000
    338      -3.4108      2.00000
    339      -3.2991      2.00000
    340      -3.2302      2.00000
    341      -3.2087      2.00000
    342      -3.2042      2.00000
    343      -3.1744      2.00000
    344      -3.1684      2.00000
    345      -3.1404      2.00000
    346      -3.1391      2.00000
    347      -3.1241      2.00000
    348      -3.0590      2.00000
    349      -3.0151      2.00000
    350      -2.8162      2.00000
    351      -2.8090      2.00000
    352      -2.7148      2.00000
    353      -2.7067      2.00000
    354      -2.6248      2.00000
    355      -2.6092      2.00000
    356      -2.5776      2.00000
    357      -2.5433      2.00000
    358      -2.5295      2.00000
    359      -2.5272      2.00000
    360      -2.4461      2.00000
    361      -2.2726      2.00000
    362      -2.2577      2.00000
    363      -2.2568      2.00000
    364      -2.1719      2.00000
    365      -2.1436      2.00000
    366      -2.1399      2.00000
    367      -2.0952      2.00000
    368      -2.0280      2.00000
    369      -2.0156      2.00000
    370      -1.8992      2.00000
    371      -1.8483      2.00000
    372      -1.8389      2.00000
    373      -1.8048      2.00000
    374      -1.7813      2.00000
    375      -1.7064      2.00000
    376      -1.6793      2.00000
    377      -1.6457      2.00000
    378      -1.6175      2.00000
    379      -1.6163      2.00000
    380      -1.4766      2.00000
    381      -1.4599      2.00000
    382      -1.4419      2.00000
    383      -1.4183      2.00000
    384      -1.4048      2.00000
    385      -1.3994      2.00000
    386      -1.3268      2.00000
    387      -1.3081      2.00000
    388      -1.2919      2.00000
    389      -1.2603      2.00000
    390      -1.1878      2.00000
    391      -1.1621      2.00000
    392      -1.1092      2.00000
    393      -1.0836      2.00000
    394      -1.0442      2.00000
    395      -1.0287      2.00000
    396      -1.0215      2.00000
    397      -1.0084      2.00000
    398      -0.9544      2.00000
    399      -0.9420      2.00000
    400      -0.8879      2.00000
    401      -0.8617      2.00000
    402      -0.8419      2.00000
    403      -0.8190      2.00000
    404      -0.7682      2.00000
    405      -0.7618      2.00000
    406      -0.7297      2.00000
    407      -0.7060      2.00000
    408      -0.6944      2.00000
    409      -0.6871      2.00000
    410      -0.6524      2.00000
    411      -0.6230      2.00000
    412      -0.6167      2.00000
    413      -0.5859      2.00000
    414      -0.5137      2.00000
    415      -0.4634      2.00000
    416      -0.3987      2.00000
    417      -0.3795      2.00000
    418      -0.2632      2.00000
    419      -0.2560      2.00000
    420      -0.2373      2.00000
    421      -0.2358      2.00000
    422      -0.2167      2.00000
    423      -0.1978      2.00000
    424      -0.1603      2.00000
    425      -0.1402      2.00000
    426      -0.1352      2.00000
    427      -0.1120      2.00000
    428      -0.0544      2.00000
    429      -0.0016      2.00000
    430       0.0013      2.00000
    431       0.0377      2.00000
    432       0.0476      2.00000
    433       0.0488      2.00000
    434       0.0570      2.00000
    435       0.0946      2.00000
    436       0.0968      2.00000
    437       0.1246      2.00000
    438       0.1255      2.00000
    439       0.1408      2.00000
    440       0.1881      2.00000
    441       0.2143      2.00000
    442       0.2411      2.00000
    443       0.2921      2.00000
    444       0.4171      2.00000
    445       0.5058      2.00000
    446       0.5325      2.00000
    447       0.5451      2.00000
    448       0.5696      2.00000
    449       0.5818      2.00000
    450       0.6052      2.00000
    451       0.6363      2.00000
    452       0.6419      2.00000
    453       0.6596      2.00000
    454       0.6959      2.00000
    455       0.6971      2.00000
    456       0.7347      2.00000
    457       0.7378      2.00000
    458       0.7689      2.00000
    459       0.7865      2.00000
    460       0.7942      2.00000
    461       0.8461      2.00000
    462       0.8499      2.00000
    463       0.8729      2.00000
    464       0.8780      2.00000
    465       0.8925      2.00000
    466       0.9310      2.00000
    467       0.9599      2.00000
    468       0.9637      2.00000
    469       0.9761      2.00000
    470       1.0135      2.00000
    471       1.0181      2.00000
    472       1.0340      2.00000
    473       1.0543      2.00000
    474       1.0975      2.00000
    475       1.1428      2.00000
    476       1.1439      2.00000
    477       1.1571      2.00000
    478       1.1723      2.00000
    479       1.1735      2.00000
    480       1.1840      2.00000
    481       1.1902      2.00000
    482       1.1922      2.00000
    483       1.2329      2.00000
    484       1.2442      2.00000
    485       1.2530      2.00000
    486       1.2804      2.00000
    487       1.2826      2.00000
    488       1.2973      2.00000
    489       1.3248      2.00000
    490       1.3323      2.00000
    491       1.3368      2.00000
    492       1.3551      2.00000
    493       1.3645      2.00000
    494       1.3714      2.00000
    495       1.3902      2.00000
    496       1.4047      2.00000
    497       1.4145      2.00000
    498       1.4422      2.00000
    499       1.4534      2.00000
    500       1.4607      2.00000
    501       1.4689      2.00000
    502       1.4878      2.00000
    503       1.4893      2.00000
    504       1.5207      2.00000
    505       1.5504      2.00000
    506       1.5556      2.00000
    507       1.5639      2.00000
    508       1.5838      2.00000
    509       1.6281      2.00000
    510       1.6430      2.00000
    511       1.6445      2.00000
    512       1.7413      2.00000
    513       1.7710      2.00000
    514       1.8066      2.00000
    515       1.8464      2.00000
    516       1.8487      2.00000
    517       1.8908      2.00000
    518       1.9518      2.00000
    519       1.9709      2.00000
    520       1.9887      2.00000
    521       2.0382      2.00000
    522       2.2559      2.00000
    523       3.1662      2.00000
    524       3.3248      2.00000
    525       3.8661      2.00000
    526       5.9754      1.04783
    527       7.4856      0.00000
    528       7.6229      0.00000
    529       9.2456      0.00000
    530       9.2882      0.00000
    531       9.6297      0.00000
    532       9.7451      0.00000
    533       9.7734      0.00000
    534       9.7986      0.00000
    535      10.0168      0.00000
    536      10.1941      0.00000
    537      10.2177      0.00000
    538      10.2324      0.00000
    539      10.3220      0.00000
    540      10.3303      0.00000
    541      10.5533      0.00000
    542      10.5586      0.00000
    543      10.6301      0.00000
    544      10.6380      0.00000
    545      10.7031      0.00000
    546      10.7769      0.00000
    547      10.8318      0.00000
    548      10.8623      0.00000
    549      10.8826      0.00000
    550      10.9673      0.00000
    551      10.9831      0.00000
    552      11.1175      0.00000
    553      11.1846      0.00000
    554      11.2013      0.00000
    555      11.2566      0.00000
    556      11.2622      0.00000
    557      11.3023      0.00000
    558      11.3717      0.00000
    559      11.3843      0.00000
    560      11.3950      0.00000
    561      11.5123      0.00000
    562      11.5152      0.00000
    563      11.6537      0.00000
    564      12.0401      0.00000
    565      12.0904      0.00000
    566      12.1473      0.00000
    567      12.2566      0.00000
    568      12.3194      0.00000
    569      12.3519      0.00000
    570      12.4049      0.00000
    571      12.4221      0.00000
    572      12.4477      0.00000
    573      12.4531      0.00000
    574      12.5127      0.00000
    575      12.5138      0.00000
    576      12.5489      0.00000
    577      12.5578      0.00000
    578      12.6946      0.00000
    579      12.7723      0.00000
    580      12.8029      0.00000
    581      12.8746      0.00000
    582      13.0306      0.00000
    583      13.1143      0.00000
    584      13.2747      0.00000
    585      13.3022      0.00000
    586      13.3308      0.00000
    587      13.3987      0.00000
    588      13.4818      0.00000
    589      13.4957      0.00000
    590      13.5770      0.00000
    591      13.6236      0.00000
    592      13.6559      0.00000
    593      13.6633      0.00000
    594      13.7432      0.00000
    595      13.7992      0.00000
    596      13.8257      0.00000
    597      13.9040      0.00000
    598      13.9070      0.00000
    599      13.9382      0.00000
    600      13.9554      0.00000
    601      14.0198      0.00000
    602      14.0324      0.00000
    603      14.0514      0.00000
    604      14.0985      0.00000
    605      14.1126      0.00000
    606      14.2166      0.00000
    607      14.2221      0.00000
    608      14.2977      0.00000
    609      14.3432      0.00000
    610      14.4213      0.00000
    611      14.4245      0.00000
    612      14.5435      0.00000
    613      14.5759      0.00000
    614      14.8138      0.00000
    615      14.8493      0.00000
    616      14.8683      0.00000
    617      14.8936      0.00000
    618      14.8940      0.00000
    619      14.9447      0.00000
    620      15.0526      0.00000
    621      15.0814      0.00000
    622      15.0888      0.00000
    623      15.1586      0.00000
    624      15.5571      0.00000
    625      15.5759      0.00000
    626      15.6335      0.00000
    627      15.6750      0.00000
    628      15.6816      0.00000
    629      15.7110      0.00000
    630      15.7775      0.00000

 k-point     3 :       0.0000    0.5000    0.0000
  band No.  band energies     occupation 
      1     -18.5402      2.00000
      2     -18.4931      2.00000
      3     -18.2820      2.00000
      4     -18.2257      2.00000
      5     -18.2188      2.00000
      6     -18.1899      2.00000
      7     -18.1155      2.00000
      8     -18.0482      2.00000
      9     -18.0352      2.00000
     10     -17.9568      2.00000
     11     -17.8454      2.00000
     12     -17.7805      2.00000
     13     -17.7773      2.00000
     14     -17.6920      2.00000
     15     -17.6791      2.00000
     16     -17.6319      2.00000
     17     -17.6118      2.00000
     18     -17.5847      2.00000
     19     -17.5517      2.00000
     20     -17.5359      2.00000
     21     -17.5320      2.00000
     22     -17.5183      2.00000
     23     -17.5088      2.00000
     24     -17.4945      2.00000
     25     -17.4839      2.00000
     26     -17.4754      2.00000
     27     -17.4725      2.00000
     28     -17.4201      2.00000
     29     -17.3980      2.00000
     30     -17.3866      2.00000
     31     -17.3684      2.00000
     32     -17.3528      2.00000
     33     -17.3306      2.00000
     34     -17.3253      2.00000
     35     -17.3183      2.00000
     36     -17.3056      2.00000
     37     -17.2884      2.00000
     38     -17.2810      2.00000
     39     -17.2529      2.00000
     40     -17.2370      2.00000
     41     -17.2106      2.00000
     42     -17.2057      2.00000
     43     -17.1922      2.00000
     44     -17.1720      2.00000
     45     -17.1695      2.00000
     46     -17.1267      2.00000
     47     -17.1154      2.00000
     48     -17.0818      2.00000
     49     -17.0739      2.00000
     50     -17.0525      2.00000
     51     -17.0358      2.00000
     52     -17.0199      2.00000
     53     -17.0152      2.00000
     54     -17.0114      2.00000
     55     -16.9922      2.00000
     56     -16.9895      2.00000
     57     -16.9578      2.00000
     58     -16.9550      2.00000
     59     -16.9517      2.00000
     60     -16.9320      2.00000
     61     -16.9303      2.00000
     62     -16.9036      2.00000
     63     -16.8866      2.00000
     64     -16.8771      2.00000
     65     -16.8750      2.00000
     66     -16.7901      2.00000
     67     -16.7714      2.00000
     68     -16.7517      2.00000
     69     -16.7472      2.00000
     70     -16.3210      2.00000
     71     -16.2474      2.00000
     72     -13.1759      2.00000
     73     -13.1593      2.00000
     74     -13.1513      2.00000
     75     -13.1328      2.00000
     76     -13.1311      2.00000
     77     -13.1213      2.00000
     78     -13.1149      2.00000
     79     -13.1093      2.00000
     80     -13.1074      2.00000
     81     -13.0988      2.00000
     82     -13.0925      2.00000
     83     -13.0822      2.00000
     84     -13.0749      2.00000
     85     -13.0660      2.00000
     86     -13.0644      2.00000
     87     -13.0526      2.00000
     88     -13.0522      2.00000
     89     -13.0492      2.00000
     90     -13.0471      2.00000
     91     -13.0384      2.00000
     92     -13.0333      2.00000
     93     -13.0323      2.00000
     94     -13.0266      2.00000
     95     -13.0241      2.00000
     96     -13.0214      2.00000
     97     -13.0206      2.00000
     98     -13.0192      2.00000
     99     -13.0116      2.00000
    100     -13.0030      2.00000
    101     -12.9996      2.00000
    102     -12.9977      2.00000
    103     -12.9950      2.00000
    104     -12.9884      2.00000
    105     -12.9878      2.00000
    106     -12.9835      2.00000
    107     -12.9805      2.00000
    108     -12.9785      2.00000
    109     -12.9771      2.00000
    110     -12.9706      2.00000
    111     -12.9697      2.00000
    112     -12.9677      2.00000
    113     -12.9570      2.00000
    114     -12.9535      2.00000
    115     -12.9529      2.00000
    116     -12.9525      2.00000
    117     -12.9507      2.00000
    118     -12.9480      2.00000
    119     -12.9474      2.00000
    120     -12.9387      2.00000
    121     -12.9372      2.00000
    122     -12.9316      2.00000
    123     -12.9281      2.00000
    124     -12.9275      2.00000
    125     -12.9249      2.00000
    126     -12.9231      2.00000
    127     -12.9218      2.00000
    128     -12.9210      2.00000
    129     -12.9156      2.00000
    130     -12.9148      2.00000
    131     -12.9025      2.00000
    132     -12.8976      2.00000
    133     -12.8943      2.00000
    134     -12.8941      2.00000
    135     -12.8913      2.00000
    136     -12.8870      2.00000
    137     -12.8843      2.00000
    138     -12.8810      2.00000
    139     -12.8776      2.00000
    140     -12.8752      2.00000
    141     -12.8714      2.00000
    142     -12.8713      2.00000
    143     -12.8685      2.00000
    144     -12.8664      2.00000
    145     -12.8568      2.00000
    146     -12.8561      2.00000
    147     -12.8547      2.00000
    148     -12.8511      2.00000
    149     -12.8493      2.00000
    150     -12.8481      2.00000
    151     -12.8454      2.00000
    152     -12.8448      2.00000
    153     -12.8442      2.00000
    154     -12.8400      2.00000
    155     -12.8396      2.00000
    156     -12.8384      2.00000
    157     -12.8367      2.00000
    158     -12.8362      2.00000
    159     -12.8300      2.00000
    160     -12.8268      2.00000
    161     -12.8253      2.00000
    162     -12.8248      2.00000
    163     -12.8226      2.00000
    164     -12.8159      2.00000
    165     -12.8159      2.00000
    166     -12.8145      2.00000
    167     -12.8062      2.00000
    168     -12.8044      2.00000
    169     -12.8042      2.00000
    170     -12.7996      2.00000
    171     -12.7983      2.00000
    172     -12.7916      2.00000
    173     -12.7888      2.00000
    174     -12.7853      2.00000
    175     -12.7814      2.00000
    176     -12.7812      2.00000
    177     -12.7745      2.00000
    178     -12.7664      2.00000
    179     -12.7598      2.00000
    180     -12.7557      2.00000
    181     -12.7542      2.00000
    182     -12.7530      2.00000
    183     -12.7493      2.00000
    184     -12.7487      2.00000
    185     -12.7462      2.00000
    186     -12.7400      2.00000
    187     -12.7361      2.00000
    188     -12.7336      2.00000
    189     -12.7332      2.00000
    190     -12.7321      2.00000
    191     -12.7254      2.00000
    192     -12.7228      2.00000
    193     -12.7201      2.00000
    194     -12.7195      2.00000
    195     -12.7146      2.00000
    196     -12.7121      2.00000
    197     -12.7117      2.00000
    198     -12.7085      2.00000
    199     -12.7072      2.00000
    200     -12.7049      2.00000
    201     -12.7017      2.00000
    202     -12.6958      2.00000
    203     -12.6947      2.00000
    204     -12.6941      2.00000
    205     -12.6861      2.00000
    206     -12.6858      2.00000
    207     -12.6856      2.00000
    208     -12.6796      2.00000
    209     -12.6786      2.00000
    210     -12.6769      2.00000
    211     -12.6760      2.00000
    212     -12.6760      2.00000
    213     -12.6674      2.00000
    214     -12.6651      2.00000
    215     -12.6641      2.00000
    216     -12.6637      2.00000
    217     -12.6602      2.00000
    218     -12.6539      2.00000
    219     -12.6536      2.00000
    220     -12.6521      2.00000
    221     -12.6478      2.00000
    222     -12.6458      2.00000
    223     -12.6441      2.00000
    224     -12.6345      2.00000
    225     -12.6303      2.00000
    226     -12.6289      2.00000
    227     -12.6271      2.00000
    228     -12.6266      2.00000
    229     -12.6261      2.00000
    230     -12.6247      2.00000
    231     -12.6215      2.00000
    232     -12.6174      2.00000
    233     -12.6125      2.00000
    234     -12.6067      2.00000
    235     -12.6028      2.00000
    236     -12.6020      2.00000
    237     -12.5995      2.00000
    238     -12.5901      2.00000
    239     -12.5878      2.00000
    240     -12.5865      2.00000
    241     -12.5706      2.00000
    242     -12.5577      2.00000
    243     -12.5371      2.00000
    244     -12.5216      2.00000
    245     -12.5146      2.00000
    246     -12.5014      2.00000
    247     -12.4913      2.00000
    248     -12.4834      2.00000
    249     -12.4807      2.00000
    250     -12.4727      2.00000
    251     -12.4672      2.00000
    252     -12.4580      2.00000
    253     -12.4564      2.00000
    254     -12.4545      2.00000
    255     -12.4485      2.00000
    256     -12.4326      2.00000
    257     -12.4281      2.00000
    258     -12.4154      2.00000
    259     -12.4104      2.00000
    260     -12.4077      2.00000
    261     -12.4007      2.00000
    262     -12.3856      2.00000
    263     -12.3837      2.00000
    264     -12.3823      2.00000
    265     -12.3808      2.00000
    266     -12.3464      2.00000
    267     -12.3363      2.00000
    268     -12.3229      2.00000
    269     -12.3088      2.00000
    270     -12.3042      2.00000
    271     -12.2855      2.00000
    272     -12.2711      2.00000
    273     -12.2675      2.00000
    274     -12.2548      2.00000
    275     -12.2426      2.00000
    276     -12.2361      2.00000
    277     -12.2199      2.00000
    278     -12.2147      2.00000
    279     -12.2081      2.00000
    280     -12.1930      2.00000
    281     -12.1734      2.00000
    282     -12.1595      2.00000
    283     -12.1368      2.00000
    284     -12.1198      2.00000
    285     -12.1088      2.00000
    286     -12.0842      2.00000
    287     -12.0764      2.00000
    288     -12.0647      2.00000
    289     -12.0539      2.00000
    290     -12.0390      2.00000
    291     -11.9738      2.00000
    292     -11.9474      2.00000
    293     -11.9309      2.00000
    294     -11.9204      2.00000
    295     -11.8957      2.00000
    296     -11.8850      2.00000
    297     -11.8447      2.00000
    298     -11.8146      2.00000
    299     -11.8033      2.00000
    300     -11.7971      2.00000
    301     -11.7595      2.00000
    302     -11.7369      2.00000
    303     -11.7225      2.00000
    304     -11.6465      2.00000
    305     -11.6353      2.00000
    306     -11.6130      2.00000
    307     -10.0482      2.00000
    308      -5.0774      2.00000
    309      -5.0462      2.00000
    310      -4.9629      2.00000
    311      -4.8848      2.00000
    312      -4.8819      2.00000
    313      -4.8549      2.00000
    314      -4.7874      2.00000
    315      -4.7190      2.00000
    316      -4.5698      2.00000
    317      -4.5444      2.00000
    318      -4.4762      2.00000
    319      -4.4298      2.00000
    320      -4.2935      2.00000
    321      -4.2561      2.00000
    322      -4.2482      2.00000
    323      -4.1925      2.00000
    324      -4.1741      2.00000
    325      -4.1133      2.00000
    326      -4.0406      2.00000
    327      -4.0088      2.00000
    328      -3.9948      2.00000
    329      -3.9607      2.00000
    330      -3.9376      2.00000
    331      -3.9009      2.00000
    332      -3.8063      2.00000
    333      -3.8022      2.00000
    334      -3.6252      2.00000
    335      -3.5746      2.00000
    336      -3.5534      2.00000
    337      -3.5423      2.00000
    338      -3.5405      2.00000
    339      -3.5098      2.00000
    340      -3.4627      2.00000
    341      -3.2987      2.00000
    342      -3.2913      2.00000
    343      -3.1121      2.00000
    344      -2.9913      2.00000
    345      -2.9902      2.00000
    346      -2.9771      2.00000
    347      -2.9029      2.00000
    348      -2.9008      2.00000
    349      -2.8341      2.00000
    350      -2.8120      2.00000
    351      -2.7611      2.00000
    352      -2.6962      2.00000
    353      -2.6680      2.00000
    354      -2.5930      2.00000
    355      -2.5064      2.00000
    356      -2.4456      2.00000
    357      -2.2919      2.00000
    358      -2.2463      2.00000
    359      -2.2124      2.00000
    360      -2.2014      2.00000
    361      -2.0877      2.00000
    362      -2.0380      2.00000
    363      -2.0148      2.00000
    364      -1.9666      2.00000
    365      -1.9254      2.00000
    366      -1.9009      2.00000
    367      -1.8650      2.00000
    368      -1.8390      2.00000
    369      -1.8159      2.00000
    370      -1.8078      2.00000
    371      -1.7905      2.00000
    372      -1.7889      2.00000
    373      -1.7656      2.00000
    374      -1.7340      2.00000
    375      -1.6850      2.00000
    376      -1.6732      2.00000
    377      -1.6427      2.00000
    378      -1.5754      2.00000
    379      -1.5719      2.00000
    380      -1.5356      2.00000
    381      -1.4531      2.00000
    382      -1.4332      2.00000
    383      -1.4330      2.00000
    384      -1.4200      2.00000
    385      -1.4068      2.00000
    386      -1.3957      2.00000
    387      -1.3472      2.00000
    388      -1.3351      2.00000
    389      -1.3206      2.00000
    390      -1.2866      2.00000
    391      -1.1852      2.00000
    392      -1.1283      2.00000
    393      -1.0575      2.00000
    394      -0.9831      2.00000
    395      -0.9738      2.00000
    396      -0.9679      2.00000
    397      -0.9604      2.00000
    398      -0.9441      2.00000
    399      -0.8976      2.00000
    400      -0.8858      2.00000
    401      -0.8407      2.00000
    402      -0.8398      2.00000
    403      -0.7791      2.00000
    404      -0.7532      2.00000
    405      -0.7526      2.00000
    406      -0.7441      2.00000
    407      -0.7238      2.00000
    408      -0.7052      2.00000
    409      -0.6731      2.00000
    410      -0.6045      2.00000
    411      -0.6014      2.00000
    412      -0.5355      2.00000
    413      -0.5062      2.00000
    414      -0.4853      2.00000
    415      -0.4810      2.00000
    416      -0.3984      2.00000
    417      -0.3861      2.00000
    418      -0.3709      2.00000
    419      -0.3066      2.00000
    420      -0.2939      2.00000
    421      -0.2733      2.00000
    422      -0.2562      2.00000
    423      -0.2204      2.00000
    424      -0.2075      2.00000
    425      -0.1811      2.00000
    426      -0.1356      2.00000
    427      -0.1053      2.00000
    428      -0.0920      2.00000
    429      -0.0847      2.00000
    430      -0.0527      2.00000
    431      -0.0272      2.00000
    432      -0.0240      2.00000
    433       0.0466      2.00000
    434       0.0688      2.00000
    435       0.1016      2.00000
    436       0.1068      2.00000
    437       0.1204      2.00000
    438       0.1850      2.00000
    439       0.2003      2.00000
    440       0.2119      2.00000
    441       0.2863      2.00000
    442       0.3077      2.00000
    443       0.3311      2.00000
    444       0.3431      2.00000
    445       0.3501      2.00000
    446       0.3801      2.00000
    447       0.4006      2.00000
    448       0.4132      2.00000
    449       0.4399      2.00000
    450       0.4413      2.00000
    451       0.4974      2.00000
    452       0.4993      2.00000
    453       0.5362      2.00000
    454       0.5431      2.00000
    455       0.5690      2.00000
    456       0.5729      2.00000
    457       0.6176      2.00000
    458       0.6642      2.00000
    459       0.7182      2.00000
    460       0.7381      2.00000
    461       0.7410      2.00000
    462       0.7810      2.00000
    463       0.8012      2.00000
    464       0.8126      2.00000
    465       0.8393      2.00000
    466       0.8477      2.00000
    467       0.9163      2.00000
    468       0.9191      2.00000
    469       0.9329      2.00000
    470       0.9926      2.00000
    471       1.0045      2.00000
    472       1.0318      2.00000
    473       1.0388      2.00000
    474       1.0772      2.00000
    475       1.0812      2.00000
    476       1.0943      2.00000
    477       1.0958      2.00000
    478       1.1225      2.00000
    479       1.1262      2.00000
    480       1.1506      2.00000
    481       1.1532      2.00000
    482       1.1947      2.00000
    483       1.2046      2.00000
    484       1.2214      2.00000
    485       1.2251      2.00000
    486       1.2354      2.00000
    487       1.2669      2.00000
    488       1.2784      2.00000
    489       1.3030      2.00000
    490       1.3112      2.00000
    491       1.3428      2.00000
    492       1.3490      2.00000
    493       1.3603      2.00000
    494       1.3736      2.00000
    495       1.3833      2.00000
    496       1.3899      2.00000
    497       1.3993      2.00000
    498       1.4207      2.00000
    499       1.4238      2.00000
    500       1.4513      2.00000
    501       1.4610      2.00000
    502       1.5026      2.00000
    503       1.5141      2.00000
    504       1.5346      2.00000
    505       1.5353      2.00000
    506       1.5407      2.00000
    507       1.5461      2.00000
    508       1.5783      2.00000
    509       1.6058      2.00000
    510       1.6157      2.00000
    511       1.6915      2.00000
    512       1.7071      2.00000
    513       1.7272      2.00000
    514       1.7377      2.00000
    515       1.8319      2.00000
    516       1.8526      2.00000
    517       1.9316      2.00000
    518       1.9693      2.00000
    519       2.0116      2.00000
    520       2.0257      2.00000
    521       2.1045      2.00000
    522       2.2282      2.00000
    523       3.1814      2.00000
    524       3.3457      2.00000
    525       3.8027      2.00000
    526       5.9944      0.63400
    527       7.9845      0.00000
    528       8.0609      0.00000
    529       9.3956      0.00000
    530       9.4347      0.00000
    531       9.4818      0.00000
    532       9.5289      0.00000
    533       9.6368      0.00000
    534       9.8408      0.00000
    535       9.8886      0.00000
    536       9.9974      0.00000
    537      10.0769      0.00000
    538      10.1494      0.00000
    539      10.2124      0.00000
    540      10.3402      0.00000
    541      10.4229      0.00000
    542      10.4580      0.00000
    543      10.5642      0.00000
    544      10.6297      0.00000
    545      10.7194      0.00000
    546      10.9180      0.00000
    547      11.1836      0.00000
    548      11.2606      0.00000
    549      11.3015      0.00000
    550      11.3795      0.00000
    551      11.4245      0.00000
    552      11.4505      0.00000
    553      11.4720      0.00000
    554      11.4994      0.00000
    555      11.5065      0.00000
    556      11.5440      0.00000
    557      11.5574      0.00000
    558      11.5637      0.00000
    559      11.6350      0.00000
    560      11.7316      0.00000
    561      11.7442      0.00000
    562      11.8100      0.00000
    563      11.8136      0.00000
    564      11.8419      0.00000
    565      11.9546      0.00000
    566      12.1112      0.00000
    567      12.1560      0.00000
    568      12.2065      0.00000
    569      12.2772      0.00000
    570      12.3639      0.00000
    571      12.4245      0.00000
    572      12.4618      0.00000
    573      12.4907      0.00000
    574      12.5424      0.00000
    575      12.5539      0.00000
    576      12.5897      0.00000
    577      12.7155      0.00000
    578      12.8078      0.00000
    579      12.8088      0.00000
    580      12.9030      0.00000
    581      12.9047      0.00000
    582      13.0095      0.00000
    583      13.0189      0.00000
    584      13.0525      0.00000
    585      13.0823      0.00000
    586      13.1071      0.00000
    587      13.1138      0.00000
    588      13.1266      0.00000
    589      13.1406      0.00000
    590      13.2014      0.00000
    591      13.2500      0.00000
    592      13.2561      0.00000
    593      13.3483      0.00000
    594      13.3682      0.00000
    595      13.3712      0.00000
    596      13.3906      0.00000
    597      13.4514      0.00000
    598      13.6886      0.00000
    599      13.7114      0.00000
    600      13.9462      0.00000
    601      14.0711      0.00000
    602      14.1265      0.00000
    603      14.2215      0.00000
    604      14.2513      0.00000
    605      14.2531      0.00000
    606      14.3482      0.00000
    607      14.4060      0.00000
    608      14.7152      0.00000
    609      14.7704      0.00000
    610      14.7988      0.00000
    611      14.8709      0.00000
    612      14.9022      0.00000
    613      14.9126      0.00000
    614      14.9623      0.00000
    615      15.0099      0.00000
    616      15.0711      0.00000
    617      15.0957      0.00000
    618      15.1123      0.00000
    619      15.1268      0.00000
    620      15.2666      0.00000
    621      15.2747      0.00000
    622      15.3396      0.00000
    623      15.3947      0.00000
    624      15.4176      0.00000
    625      15.4358      0.00000
    626      15.4910      0.00000
    627      15.6047      0.00000
    628      15.6127      0.00000
    629      15.6607      0.00000
    630      15.7246      0.00000

 k-point     4 :       0.5000    0.5000    0.0000
  band No.  band energies     occupation 
      1     -18.4646      2.00000
      2     -18.4305      2.00000
      3     -18.4051      2.00000
      4     -18.3477      2.00000
      5     -18.2486      2.00000
      6     -18.2011      2.00000
      7     -18.1718      2.00000
      8     -18.0276      2.00000
      9     -17.8351      2.00000
     10     -17.8040      2.00000
     11     -17.8000      2.00000
     12     -17.7746      2.00000
     13     -17.7630      2.00000
     14     -17.7167      2.00000
     15     -17.7011      2.00000
     16     -17.6781      2.00000
     17     -17.6167      2.00000
     18     -17.5945      2.00000
     19     -17.5819      2.00000
     20     -17.5768      2.00000
     21     -17.5558      2.00000
     22     -17.5442      2.00000
     23     -17.5320      2.00000
     24     -17.5134      2.00000
     25     -17.5076      2.00000
     26     -17.4921      2.00000
     27     -17.4813      2.00000
     28     -17.4798      2.00000
     29     -17.4036      2.00000
     30     -17.3816      2.00000
     31     -17.3766      2.00000
     32     -17.3372      2.00000
     33     -17.3219      2.00000
     34     -17.2895      2.00000
     35     -17.2893      2.00000
     36     -17.2773      2.00000
     37     -17.2658      2.00000
     38     -17.2649      2.00000
     39     -17.2425      2.00000
     40     -17.2216      2.00000
     41     -17.2204      2.00000
     42     -17.2119      2.00000
     43     -17.1912      2.00000
     44     -17.1667      2.00000
     45     -17.1590      2.00000
     46     -17.1277      2.00000
     47     -17.1022      2.00000
     48     -17.1018      2.00000
     49     -17.0742      2.00000
     50     -17.0706      2.00000
     51     -17.0351      2.00000
     52     -17.0242      2.00000
     53     -17.0124      2.00000
     54     -17.0114      2.00000
     55     -16.9929      2.00000
     56     -16.9885      2.00000
     57     -16.9613      2.00000
     58     -16.9522      2.00000
     59     -16.9520      2.00000
     60     -16.9337      2.00000
     61     -16.9304      2.00000
     62     -16.9015      2.00000
     63     -16.8865      2.00000
     64     -16.8776      2.00000
     65     -16.8757      2.00000
     66     -16.7911      2.00000
     67     -16.7712      2.00000
     68     -16.7513      2.00000
     69     -16.7475      2.00000
     70     -16.3212      2.00000
     71     -16.2474      2.00000
     72     -13.1764      2.00000
     73     -13.1577      2.00000
     74     -13.1502      2.00000
     75     -13.1289      2.00000
     76     -13.1264      2.00000
     77     -13.1255      2.00000
     78     -13.1244      2.00000
     79     -13.1095      2.00000
     80     -13.1062      2.00000
     81     -13.0928      2.00000
     82     -13.0892      2.00000
     83     -13.0883      2.00000
     84     -13.0778      2.00000
     85     -13.0644      2.00000
     86     -13.0642      2.00000
     87     -13.0590      2.00000
     88     -13.0510      2.00000
     89     -13.0505      2.00000
     90     -13.0502      2.00000
     91     -13.0399      2.00000
     92     -13.0350      2.00000
     93     -13.0291      2.00000
     94     -13.0277      2.00000
     95     -13.0227      2.00000
     96     -13.0208      2.00000
     97     -13.0171      2.00000
     98     -13.0130      2.00000
     99     -13.0116      2.00000
    100     -13.0051      2.00000
    101     -13.0027      2.00000
    102     -12.9940      2.00000
    103     -12.9929      2.00000
    104     -12.9907      2.00000
    105     -12.9871      2.00000
    106     -12.9849      2.00000
    107     -12.9778      2.00000
    108     -12.9774      2.00000
    109     -12.9759      2.00000
    110     -12.9698      2.00000
    111     -12.9674      2.00000
    112     -12.9644      2.00000
    113     -12.9606      2.00000
    114     -12.9580      2.00000
    115     -12.9522      2.00000
    116     -12.9505      2.00000
    117     -12.9463      2.00000
    118     -12.9454      2.00000
    119     -12.9442      2.00000
    120     -12.9391      2.00000
    121     -12.9373      2.00000
    122     -12.9358      2.00000
    123     -12.9271      2.00000
    124     -12.9265      2.00000
    125     -12.9242      2.00000
    126     -12.9200      2.00000
    127     -12.9180      2.00000
    128     -12.9101      2.00000
    129     -12.9067      2.00000
    130     -12.9044      2.00000
    131     -12.9033      2.00000
    132     -12.8987      2.00000
    133     -12.8902      2.00000
    134     -12.8902      2.00000
    135     -12.8846      2.00000
    136     -12.8837      2.00000
    137     -12.8816      2.00000
    138     -12.8760      2.00000
    139     -12.8756      2.00000
    140     -12.8754      2.00000
    141     -12.8694      2.00000
    142     -12.8660      2.00000
    143     -12.8650      2.00000
    144     -12.8618      2.00000
    145     -12.8599      2.00000
    146     -12.8572      2.00000
    147     -12.8568      2.00000
    148     -12.8548      2.00000
    149     -12.8509      2.00000
    150     -12.8505      2.00000
    151     -12.8483      2.00000
    152     -12.8475      2.00000
    153     -12.8448      2.00000
    154     -12.8433      2.00000
    155     -12.8401      2.00000
    156     -12.8385      2.00000
    157     -12.8348      2.00000
    158     -12.8332      2.00000
    159     -12.8325      2.00000
    160     -12.8300      2.00000
    161     -12.8267      2.00000
    162     -12.8189      2.00000
    163     -12.8155      2.00000
    164     -12.8148      2.00000
    165     -12.8109      2.00000
    166     -12.8097      2.00000
    167     -12.8067      2.00000
    168     -12.8032      2.00000
    169     -12.7966      2.00000
    170     -12.7946      2.00000
    171     -12.7929      2.00000
    172     -12.7885      2.00000
    173     -12.7862      2.00000
    174     -12.7855      2.00000
    175     -12.7845      2.00000
    176     -12.7781      2.00000
    177     -12.7734      2.00000
    178     -12.7731      2.00000
    179     -12.7626      2.00000
    180     -12.7566      2.00000
    181     -12.7547      2.00000
    182     -12.7527      2.00000
    183     -12.7485      2.00000
    184     -12.7472      2.00000
    185     -12.7392      2.00000
    186     -12.7391      2.00000
    187     -12.7373      2.00000
    188     -12.7330      2.00000
    189     -12.7330      2.00000
    190     -12.7300      2.00000
    191     -12.7267      2.00000
    192     -12.7249      2.00000
    193     -12.7205      2.00000
    194     -12.7189      2.00000
    195     -12.7185      2.00000
    196     -12.7133      2.00000
    197     -12.7107      2.00000
    198     -12.7101      2.00000
    199     -12.7053      2.00000
    200     -12.7037      2.00000
    201     -12.7004      2.00000
    202     -12.6984      2.00000
    203     -12.6975      2.00000
    204     -12.6942      2.00000
    205     -12.6933      2.00000
    206     -12.6864      2.00000
    207     -12.6864      2.00000
    208     -12.6846      2.00000
    209     -12.6824      2.00000
    210     -12.6789      2.00000
    211     -12.6773      2.00000
    212     -12.6741      2.00000
    213     -12.6731      2.00000
    214     -12.6702      2.00000
    215     -12.6699      2.00000
    216     -12.6651      2.00000
    217     -12.6632      2.00000
    218     -12.6585      2.00000
    219     -12.6528      2.00000
    220     -12.6528      2.00000
    221     -12.6496      2.00000
    222     -12.6451      2.00000
    223     -12.6445      2.00000
    224     -12.6357      2.00000
    225     -12.6351      2.00000
    226     -12.6335      2.00000
    227     -12.6290      2.00000
    228     -12.6287      2.00000
    229     -12.6270      2.00000
    230     -12.6223      2.00000
    231     -12.6215      2.00000
    232     -12.6195      2.00000
    233     -12.6122      2.00000
    234     -12.6110      2.00000
    235     -12.6071      2.00000
    236     -12.6038      2.00000
    237     -12.5980      2.00000
    238     -12.5954      2.00000
    239     -12.5917      2.00000
    240     -12.5891      2.00000
    241     -12.5873      2.00000
    242     -12.5853      2.00000
    243     -12.5730      2.00000
    244     -12.5618      2.00000
    245     -12.5443      2.00000
    246     -12.5339      2.00000
    247     -12.5309      2.00000
    248     -12.4977      2.00000
    249     -12.4950      2.00000
    250     -12.4915      2.00000
    251     -12.4899      2.00000
    252     -12.4741      2.00000
    253     -12.4566      2.00000
    254     -12.4456      2.00000
    255     -12.4451      2.00000
    256     -12.4267      2.00000
    257     -12.4133      2.00000
    258     -12.4119      2.00000
    259     -12.4070      2.00000
    260     -12.3984      2.00000
    261     -12.3913      2.00000
    262     -12.3884      2.00000
    263     -12.3834      2.00000
    264     -12.3739      2.00000
    265     -12.3704      2.00000
    266     -12.3492      2.00000
    267     -12.3469      2.00000
    268     -12.3249      2.00000
    269     -12.3157      2.00000
    270     -12.2921      2.00000
    271     -12.2709      2.00000
    272     -12.2570      2.00000
    273     -12.2451      2.00000
    274     -12.2404      2.00000
    275     -12.2259      2.00000
    276     -12.2217      2.00000
    277     -12.2187      2.00000
    278     -12.2070      2.00000
    279     -12.1950      2.00000
    280     -12.1777      2.00000
    281     -12.1633      2.00000
    282     -12.1365      2.00000
    283     -12.1219      2.00000
    284     -12.0836      2.00000
    285     -12.0757      2.00000
    286     -12.0683      2.00000
    287     -12.0593      2.00000
    288     -12.0444      2.00000
    289     -12.0409      2.00000
    290     -11.9876      2.00000
    291     -11.9699      2.00000
    292     -11.9255      2.00000
    293     -11.9252      2.00000
    294     -11.8997      2.00000
    295     -11.8916      2.00000
    296     -11.8737      2.00000
    297     -11.8699      2.00000
    298     -11.8472      2.00000
    299     -11.8396      2.00000
    300     -11.8014      2.00000
    301     -11.7768      2.00000
    302     -11.7484      2.00000
    303     -11.7372      2.00000
    304     -11.6772      2.00000
    305     -11.6547      2.00000
    306     -11.6391      2.00000
    307     -10.0481      2.00000
    308      -5.0695      2.00000
    309      -5.0457      2.00000
    310      -5.0405      2.00000
    311      -5.0251      2.00000
    312      -4.9573      2.00000
    313      -4.8443      2.00000
    314      -4.7383      2.00000
    315      -4.6200      2.00000
    316      -4.5119      2.00000
    317      -4.4593      2.00000
    318      -4.3235      2.00000
    319      -4.3029      2.00000
    320      -4.2579      2.00000
    321      -4.2224      2.00000
    322      -4.1965      2.00000
    323      -4.1915      2.00000
    324      -4.1326      2.00000
    325      -4.0823      2.00000
    326      -4.0742      2.00000
    327      -4.0438      2.00000
    328      -4.0038      2.00000
    329      -3.9816      2.00000
    330      -3.9542      2.00000
    331      -3.8902      2.00000
    332      -3.8627      2.00000
    333      -3.7970      2.00000
    334      -3.7500      2.00000
    335      -3.7044      2.00000
    336      -3.6873      2.00000
    337      -3.6664      2.00000
    338      -3.6486      2.00000
    339      -3.4185      2.00000
    340      -3.3687      2.00000
    341      -3.3385      2.00000
    342      -3.2787      2.00000
    343      -3.1327      2.00000
    344      -3.0127      2.00000
    345      -2.9997      2.00000
    346      -2.9882      2.00000
    347      -2.9673      2.00000
    348      -2.8880      2.00000
    349      -2.8545      2.00000
    350      -2.7935      2.00000
    351      -2.6603      2.00000
    352      -2.6548      2.00000
    353      -2.6484      2.00000
    354      -2.5963      2.00000
    355      -2.5784      2.00000
    356      -2.5604      2.00000
    357      -2.2959      2.00000
    358      -2.2909      2.00000
    359      -2.2061      2.00000
    360      -2.1999      2.00000
    361      -2.1400      2.00000
    362      -2.1324      2.00000
    363      -2.0823      2.00000
    364      -1.8932      2.00000
    365      -1.8517      2.00000
    366      -1.8396      2.00000
    367      -1.8344      2.00000
    368      -1.8286      2.00000
    369      -1.8073      2.00000
    370      -1.7741      2.00000
    371      -1.7651      2.00000
    372      -1.7226      2.00000
    373      -1.7048      2.00000
    374      -1.6574      2.00000
    375      -1.6480      2.00000
    376      -1.6424      2.00000
    377      -1.6415      2.00000
    378      -1.6219      2.00000
    379      -1.5479      2.00000
    380      -1.5108      2.00000
    381      -1.4464      2.00000
    382      -1.4115      2.00000
    383      -1.4086      2.00000
    384      -1.3742      2.00000
    385      -1.3414      2.00000
    386      -1.3155      2.00000
    387      -1.3095      2.00000
    388      -1.3047      2.00000
    389      -1.2564      2.00000
    390      -1.1821      2.00000
    391      -1.1380      2.00000
    392      -1.1170      2.00000
    393      -1.0845      2.00000
    394      -1.0338      2.00000
    395      -1.0189      2.00000
    396      -0.9961      2.00000
    397      -0.9706      2.00000
    398      -0.9469      2.00000
    399      -0.8927      2.00000
    400      -0.8828      2.00000
    401      -0.8426      2.00000
    402      -0.8364      2.00000
    403      -0.8179      2.00000
    404      -0.7738      2.00000
    405      -0.6890      2.00000
    406      -0.6808      2.00000
    407      -0.6514      2.00000
    408      -0.6479      2.00000
    409      -0.5999      2.00000
    410      -0.5828      2.00000
    411      -0.5796      2.00000
    412      -0.5784      2.00000
    413      -0.5619      2.00000
    414      -0.5526      2.00000
    415      -0.5308      2.00000
    416      -0.4828      2.00000
    417      -0.4777      2.00000
    418      -0.4458      2.00000
    419      -0.4358      2.00000
    420      -0.4064      2.00000
    421      -0.3817      2.00000
    422      -0.3577      2.00000
    423      -0.3244      2.00000
    424      -0.2329      2.00000
    425      -0.2152      2.00000
    426      -0.1485      2.00000
    427      -0.1302      2.00000
    428      -0.1004      2.00000
    429      -0.0866      2.00000
    430      -0.0703      2.00000
    431      -0.0576      2.00000
    432      -0.0228      2.00000
    433      -0.0165      2.00000
    434      -0.0137      2.00000
    435       0.0844      2.00000
    436       0.1147      2.00000
    437       0.1453      2.00000
    438       0.2298      2.00000
    439       0.2823      2.00000
    440       0.3160      2.00000
    441       0.3433      2.00000
    442       0.3624      2.00000
    443       0.3712      2.00000
    444       0.3819      2.00000
    445       0.3857      2.00000
    446       0.3920      2.00000
    447       0.4059      2.00000
    448       0.4387      2.00000
    449       0.4564      2.00000
    450       0.4818      2.00000
    451       0.5129      2.00000
    452       0.5255      2.00000
    453       0.5818      2.00000
    454       0.6696      2.00000
    455       0.6699      2.00000
    456       0.6934      2.00000
    457       0.7043      2.00000
    458       0.7129      2.00000
    459       0.7192      2.00000
    460       0.7501      2.00000
    461       0.7534      2.00000
    462       0.7550      2.00000
    463       0.7756      2.00000
    464       0.7803      2.00000
    465       0.8213      2.00000
    466       0.8395      2.00000
    467       0.8682      2.00000
    468       0.8808      2.00000
    469       0.9041      2.00000
    470       0.9142      2.00000
    471       0.9309      2.00000
    472       0.9429      2.00000
    473       1.0160      2.00000
    474       1.0432      2.00000
    475       1.0919      2.00000
    476       1.0997      2.00000
    477       1.1013      2.00000
    478       1.1017      2.00000
    479       1.1272      2.00000
    480       1.1311      2.00000
    481       1.1365      2.00000
    482       1.1620      2.00000
    483       1.1959      2.00000
    484       1.1964      2.00000
    485       1.2013      2.00000
    486       1.2230      2.00000
    487       1.2415      2.00000
    488       1.2514      2.00000
    489       1.2613      2.00000
    490       1.2857      2.00000
    491       1.2870      2.00000
    492       1.2879      2.00000
    493       1.3056      2.00000
    494       1.3221      2.00000
    495       1.3237      2.00000
    496       1.3518      2.00000
    497       1.3519      2.00000
    498       1.3758      2.00000
    499       1.3793      2.00000
    500       1.4090      2.00000
    501       1.4313      2.00000
    502       1.4659      2.00000
    503       1.4980      2.00000
    504       1.5278      2.00000
    505       1.5722      2.00000
    506       1.5784      2.00000
    507       1.6194      2.00000
    508       1.6378      2.00000
    509       1.6762      2.00000
    510       1.7277      2.00000
    511       1.7338      2.00000
    512       1.7444      2.00000
    513       1.8576      2.00000
    514       1.8816      2.00000
    515       1.8958      2.00000
    516       1.9191      2.00000
    517       1.9284      2.00000
    518       1.9354      2.00000
    519       1.9757      2.00000
    520       1.9928      2.00000
    521       2.0876      2.00000
    522       2.2476      2.00000
    523       3.1838      2.00000
    524       3.3464      2.00000
    525       3.8007      2.00000
    526       5.9939      0.64496
    527       8.3984      0.00000
    528       8.4275      0.00000
    529       8.4913      0.00000
    530       8.6127      0.00000
    531       9.4676      0.00000
    532       9.7185      0.00000
    533       9.8864      0.00000
    534       9.9135      0.00000
    535       9.9936      0.00000
    536      10.0449      0.00000
    537      10.0764      0.00000
    538      10.2132      0.00000
    539      10.3738      0.00000
    540      10.4089      0.00000
    541      10.4095      0.00000
    542      10.4647      0.00000
    543      10.5108      0.00000
    544      10.5773      0.00000
    545      10.6023      0.00000
    546      10.8871      0.00000
    547      11.0904      0.00000
    548      11.1752      0.00000
    549      11.4569      0.00000
    550      11.5055      0.00000
    551      11.5093      0.00000
    552      11.5298      0.00000
    553      11.5337      0.00000
    554      11.5341      0.00000
    555      11.5607      0.00000
    556      11.5737      0.00000
    557      11.5891      0.00000
    558      11.6116      0.00000
    559      11.6934      0.00000
    560      11.7834      0.00000
    561      11.7987      0.00000
    562      11.8584      0.00000
    563      11.9169      0.00000
    564      11.9621      0.00000
    565      12.0347      0.00000
    566      12.1110      0.00000
    567      12.1247      0.00000
    568      12.1721      0.00000
    569      12.2095      0.00000
    570      12.2244      0.00000
    571      12.2766      0.00000
    572      12.5078      0.00000
    573      12.5442      0.00000
    574      12.5954      0.00000
    575      12.6165      0.00000
    576      12.7330      0.00000
    577      12.7466      0.00000
    578      12.8659      0.00000
    579      12.8743      0.00000
    580      12.8933      0.00000
    581      12.9425      0.00000
    582      12.9483      0.00000
    583      12.9517      0.00000
    584      13.0057      0.00000
    585      13.0227      0.00000
    586      13.0389      0.00000
    587      13.0550      0.00000
    588      13.0721      0.00000
    589      13.1129      0.00000
    590      13.1443      0.00000
    591      13.1473      0.00000
    592      13.1711      0.00000
    593      13.2211      0.00000
    594      13.3280      0.00000
    595      13.4231      0.00000
    596      13.4402      0.00000
    597      13.5310      0.00000
    598      13.6847      0.00000
    599      13.7125      0.00000
    600      13.7427      0.00000
    601      13.8718      0.00000
    602      13.9802      0.00000
    603      14.0547      0.00000
    604      14.0764      0.00000
    605      14.1315      0.00000
    606      14.3215      0.00000
    607      14.3935      0.00000
    608      14.6768      0.00000
    609      14.7876      0.00000
    610      14.8606      0.00000
    611      14.9115      0.00000
    612      14.9475      0.00000
    613      14.9914      0.00000
    614      15.0442      0.00000
    615      15.0625      0.00000
    616      15.0843      0.00000
    617      15.1199      0.00000
    618      15.1796      0.00000
    619      15.1812      0.00000
    620      15.2189      0.00000
    621      15.2458      0.00000
    622      15.2708      0.00000
    623      15.3830      0.00000
    624      15.3842      0.00000
    625      15.4678      0.00000
    626      15.4762      0.00000
    627      15.6025      0.00000
    628      15.7532      0.00000
    629      15.7998      0.00000
    630      15.8342      0.00000

 k-point     5 :       0.0000    0.0000    0.5000
  band No.  band energies     occupation 
      1     -18.6536      2.00000
      2     -18.5481      2.00000
      3     -18.3886      2.00000
      4     -18.2540      2.00000
      5     -18.0679      2.00000
      6     -18.0064      2.00000
      7     -18.0006      2.00000
      8     -17.9815      2.00000
      9     -17.9076      2.00000
     10     -17.8937      2.00000
     11     -17.8076      2.00000
     12     -17.7961      2.00000
     13     -17.7756      2.00000
     14     -17.7320      2.00000
     15     -17.7310      2.00000
     16     -17.7094      2.00000
     17     -17.6467      2.00000
     18     -17.6353      2.00000
     19     -17.6309      2.00000
     20     -17.6071      2.00000
     21     -17.5736      2.00000
     22     -17.5734      2.00000
     23     -17.5201      2.00000
     24     -17.5028      2.00000
     25     -17.4994      2.00000
     26     -17.4457      2.00000
     27     -17.4442      2.00000
     28     -17.4139      2.00000
     29     -17.3980      2.00000
     30     -17.3963      2.00000
     31     -17.3678      2.00000
     32     -17.3672      2.00000
     33     -17.3363      2.00000
     34     -17.3225      2.00000
     35     -17.3220      2.00000
     36     -17.2933      2.00000
     37     -17.2755      2.00000
     38     -17.2562      2.00000
     39     -17.2539      2.00000
     40     -17.2309      2.00000
     41     -17.2227      2.00000
     42     -17.2026      2.00000
     43     -17.1847      2.00000
     44     -17.1390      2.00000
     45     -17.1139      2.00000
     46     -17.1009      2.00000
     47     -17.0913      2.00000
     48     -17.0905      2.00000
     49     -17.0755      2.00000
     50     -17.0632      2.00000
     51     -17.0622      2.00000
     52     -17.0484      2.00000
     53     -17.0327      2.00000
     54     -17.0249      2.00000
     55     -17.0174      2.00000
     56     -17.0012      2.00000
     57     -16.9782      2.00000
     58     -16.9536      2.00000
     59     -16.9416      2.00000
     60     -16.9372      2.00000
     61     -16.9238      2.00000
     62     -16.9162      2.00000
     63     -16.8835      2.00000
     64     -16.8829      2.00000
     65     -16.8519      2.00000
     66     -16.7943      2.00000
     67     -16.7665      2.00000
     68     -16.7536      2.00000
     69     -16.7317      2.00000
     70     -16.3113      2.00000
     71     -16.2575      2.00000
     72     -13.1807      2.00000
     73     -13.1654      2.00000
     74     -13.1531      2.00000
     75     -13.1425      2.00000
     76     -13.1380      2.00000
     77     -13.1341      2.00000
     78     -13.1274      2.00000
     79     -13.1181      2.00000
     80     -13.0826      2.00000
     81     -13.0796      2.00000
     82     -13.0678      2.00000
     83     -13.0636      2.00000
     84     -13.0619      2.00000
     85     -13.0609      2.00000
     86     -13.0555      2.00000
     87     -13.0488      2.00000
     88     -13.0479      2.00000
     89     -13.0415      2.00000
     90     -13.0398      2.00000
     91     -13.0338      2.00000
     92     -13.0309      2.00000
     93     -13.0296      2.00000
     94     -13.0215      2.00000
     95     -13.0207      2.00000
     96     -13.0134      2.00000
     97     -13.0101      2.00000
     98     -13.0097      2.00000
     99     -13.0064      2.00000
    100     -13.0020      2.00000
    101     -13.0019      2.00000
    102     -12.9994      2.00000
    103     -12.9923      2.00000
    104     -12.9881      2.00000
    105     -12.9863      2.00000
    106     -12.9853      2.00000
    107     -12.9797      2.00000
    108     -12.9788      2.00000
    109     -12.9774      2.00000
    110     -12.9718      2.00000
    111     -12.9681      2.00000
    112     -12.9645      2.00000
    113     -12.9637      2.00000
    114     -12.9617      2.00000
    115     -12.9585      2.00000
    116     -12.9558      2.00000
    117     -12.9557      2.00000
    118     -12.9508      2.00000
    119     -12.9463      2.00000
    120     -12.9372      2.00000
    121     -12.9372      2.00000
    122     -12.9351      2.00000
    123     -12.9274      2.00000
    124     -12.9236      2.00000
    125     -12.9192      2.00000
    126     -12.9173      2.00000
    127     -12.9159      2.00000
    128     -12.9145      2.00000
    129     -12.9090      2.00000
    130     -12.9068      2.00000
    131     -12.9057      2.00000
    132     -12.9043      2.00000
    133     -12.8995      2.00000
    134     -12.8983      2.00000
    135     -12.8947      2.00000
    136     -12.8932      2.00000
    137     -12.8923      2.00000
    138     -12.8903      2.00000
    139     -12.8869      2.00000
    140     -12.8820      2.00000
    141     -12.8812      2.00000
    142     -12.8799      2.00000
    143     -12.8783      2.00000
    144     -12.8725      2.00000
    145     -12.8680      2.00000
    146     -12.8617      2.00000
    147     -12.8565      2.00000
    148     -12.8555      2.00000
    149     -12.8518      2.00000
    150     -12.8503      2.00000
    151     -12.8495      2.00000
    152     -12.8451      2.00000
    153     -12.8406      2.00000
    154     -12.8396      2.00000
    155     -12.8366      2.00000
    156     -12.8351      2.00000
    157     -12.8314      2.00000
    158     -12.8278      2.00000
    159     -12.8220      2.00000
    160     -12.8179      2.00000
    161     -12.8176      2.00000
    162     -12.8129      2.00000
    163     -12.8076      2.00000
    164     -12.8055      2.00000
    165     -12.8004      2.00000
    166     -12.7990      2.00000
    167     -12.7968      2.00000
    168     -12.7967      2.00000
    169     -12.7907      2.00000
    170     -12.7896      2.00000
    171     -12.7884      2.00000
    172     -12.7856      2.00000
    173     -12.7855      2.00000
    174     -12.7794      2.00000
    175     -12.7740      2.00000
    176     -12.7735      2.00000
    177     -12.7724      2.00000
    178     -12.7632      2.00000
    179     -12.7616      2.00000
    180     -12.7610      2.00000
    181     -12.7585      2.00000
    182     -12.7546      2.00000
    183     -12.7528      2.00000
    184     -12.7505      2.00000
    185     -12.7504      2.00000
    186     -12.7451      2.00000
    187     -12.7392      2.00000
    188     -12.7376      2.00000
    189     -12.7314      2.00000
    190     -12.7313      2.00000
    191     -12.7270      2.00000
    192     -12.7222      2.00000
    193     -12.7214      2.00000
    194     -12.7213      2.00000
    195     -12.7191      2.00000
    196     -12.7164      2.00000
    197     -12.7129      2.00000
    198     -12.7086      2.00000
    199     -12.7083      2.00000
    200     -12.7077      2.00000
    201     -12.7049      2.00000
    202     -12.7015      2.00000
    203     -12.6969      2.00000
    204     -12.6963      2.00000
    205     -12.6956      2.00000
    206     -12.6903      2.00000
    207     -12.6875      2.00000
    208     -12.6854      2.00000
    209     -12.6830      2.00000
    210     -12.6803      2.00000
    211     -12.6770      2.00000
    212     -12.6763      2.00000
    213     -12.6751      2.00000
    214     -12.6705      2.00000
    215     -12.6685      2.00000
    216     -12.6653      2.00000
    217     -12.6650      2.00000
    218     -12.6610      2.00000
    219     -12.6601      2.00000
    220     -12.6573      2.00000
    221     -12.6561      2.00000
    222     -12.6544      2.00000
    223     -12.6507      2.00000
    224     -12.6483      2.00000
    225     -12.6452      2.00000
    226     -12.6419      2.00000
    227     -12.6417      2.00000
    228     -12.6400      2.00000
    229     -12.6364      2.00000
    230     -12.6348      2.00000
    231     -12.6318      2.00000
    232     -12.6201      2.00000
    233     -12.6190      2.00000
    234     -12.6136      2.00000
    235     -12.6080      2.00000
    236     -12.6066      2.00000
    237     -12.6023      2.00000
    238     -12.6001      2.00000
    239     -12.5967      2.00000
    240     -12.5817      2.00000
    241     -12.5756      2.00000
    242     -12.5651      2.00000
    243     -12.5561      2.00000
    244     -12.5428      2.00000
    245     -12.5391      2.00000
    246     -12.5213      2.00000
    247     -12.5182      2.00000
    248     -12.5024      2.00000
    249     -12.4880      2.00000
    250     -12.4829      2.00000
    251     -12.4746      2.00000
    252     -12.4735      2.00000
    253     -12.4669      2.00000
    254     -12.4397      2.00000
    255     -12.4358      2.00000
    256     -12.4309      2.00000
    257     -12.4201      2.00000
    258     -12.4190      2.00000
    259     -12.4129      2.00000
    260     -12.4093      2.00000
    261     -12.3903      2.00000
    262     -12.3798      2.00000
    263     -12.3685      2.00000
    264     -12.3681      2.00000
    265     -12.3429      2.00000
    266     -12.3395      2.00000
    267     -12.3195      2.00000
    268     -12.3056      2.00000
    269     -12.2970      2.00000
    270     -12.2742      2.00000
    271     -12.2619      2.00000
    272     -12.2587      2.00000
    273     -12.2571      2.00000
    274     -12.2447      2.00000
    275     -12.2058      2.00000
    276     -12.2054      2.00000
    277     -12.2001      2.00000
    278     -12.1949      2.00000
    279     -12.1810      2.00000
    280     -12.1677      2.00000
    281     -12.1537      2.00000
    282     -12.1482      2.00000
    283     -12.1236      2.00000
    284     -12.1134      2.00000
    285     -12.1040      2.00000
    286     -12.0894      2.00000
    287     -12.0697      2.00000
    288     -12.0420      2.00000
    289     -12.0246      2.00000
    290     -12.0227      2.00000
    291     -12.0026      2.00000
    292     -11.9447      2.00000
    293     -11.9249      2.00000
    294     -11.9174      2.00000
    295     -11.9060      2.00000
    296     -11.8882      2.00000
    297     -11.8799      2.00000
    298     -11.8670      2.00000
    299     -11.8447      2.00000
    300     -11.8392      2.00000
    301     -11.8007      2.00000
    302     -11.7569      2.00000
    303     -11.7314      2.00000
    304     -11.6920      2.00000
    305     -11.6187      2.00000
    306     -11.6068      2.00000
    307     -10.0523      2.00000
    308      -4.9394      2.00000
    309      -4.8709      2.00000
    310      -4.7435      2.00000
    311      -4.6948      2.00000
    312      -4.6906      2.00000
    313      -4.6429      2.00000
    314      -4.5917      2.00000
    315      -4.5422      2.00000
    316      -4.4522      2.00000
    317      -4.4448      2.00000
    318      -4.3579      2.00000
    319      -4.3308      2.00000
    320      -4.2313      2.00000
    321      -4.2295      2.00000
    322      -4.2158      2.00000
    323      -4.2044      2.00000
    324      -4.1353      2.00000
    325      -4.1122      2.00000
    326      -4.1086      2.00000
    327      -4.0231      2.00000
    328      -3.9966      2.00000
    329      -3.9744      2.00000
    330      -3.8744      2.00000
    331      -3.8710      2.00000
    332      -3.8036      2.00000
    333      -3.7996      2.00000
    334      -3.7872      2.00000
    335      -3.7811      2.00000
    336      -3.7547      2.00000
    337      -3.7072      2.00000
    338      -3.5887      2.00000
    339      -3.5532      2.00000
    340      -3.4338      2.00000
    341      -3.3928      2.00000
    342      -3.3242      2.00000
    343      -3.2379      2.00000
    344      -3.1817      2.00000
    345      -3.0893      2.00000
    346      -3.0230      2.00000
    347      -3.0227      2.00000
    348      -2.8941      2.00000
    349      -2.8559      2.00000
    350      -2.8392      2.00000
    351      -2.6978      2.00000
    352      -2.6964      2.00000
    353      -2.6573      2.00000
    354      -2.5765      2.00000
    355      -2.5486      2.00000
    356      -2.5272      2.00000
    357      -2.5055      2.00000
    358      -2.4173      2.00000
    359      -2.3171      2.00000
    360      -2.2735      2.00000
    361      -2.2487      2.00000
    362      -2.2408      2.00000
    363      -2.2358      2.00000
    364      -2.2339      2.00000
    365      -2.2058      2.00000
    366      -2.2019      2.00000
    367      -2.1921      2.00000
    368      -2.1705      2.00000
    369      -2.0936      2.00000
    370      -1.9844      2.00000
    371      -1.9757      2.00000
    372      -1.9623      2.00000
    373      -1.9437      2.00000
    374      -1.9081      2.00000
    375      -1.7680      2.00000
    376      -1.7363      2.00000
    377      -1.6688      2.00000
    378      -1.6137      2.00000
    379      -1.6074      2.00000
    380      -1.5083      2.00000
    381      -1.4844      2.00000
    382      -1.4240      2.00000
    383      -1.4013      2.00000
    384      -1.3486      2.00000
    385      -1.3357      2.00000
    386      -1.3310      2.00000
    387      -1.2893      2.00000
    388      -1.2623      2.00000
    389      -1.2196      2.00000
    390      -1.2071      2.00000
    391      -1.1702      2.00000
    392      -1.1366      2.00000
    393      -1.0863      2.00000
    394      -1.0384      2.00000
    395      -1.0273      2.00000
    396      -1.0098      2.00000
    397      -0.9558      2.00000
    398      -0.9049      2.00000
    399      -0.8916      2.00000
    400      -0.8741      2.00000
    401      -0.8570      2.00000
    402      -0.8010      2.00000
    403      -0.7955      2.00000
    404      -0.6942      2.00000
    405      -0.6863      2.00000
    406      -0.6162      2.00000
    407      -0.6145      2.00000
    408      -0.5971      2.00000
    409      -0.5827      2.00000
    410      -0.5269      2.00000
    411      -0.4828      2.00000
    412      -0.4406      2.00000
    413      -0.4138      2.00000
    414      -0.3736      2.00000
    415      -0.3483      2.00000
    416      -0.2731      2.00000
    417      -0.2620      2.00000
    418      -0.2309      2.00000
    419      -0.2239      2.00000
    420      -0.2063      2.00000
    421      -0.2050      2.00000
    422      -0.1576      2.00000
    423      -0.1400      2.00000
    424      -0.0897      2.00000
    425      -0.0814      2.00000
    426      -0.0622      2.00000
    427      -0.0495      2.00000
    428      -0.0314      2.00000
    429      -0.0250      2.00000
    430       0.0093      2.00000
    431       0.0271      2.00000
    432       0.0347      2.00000
    433       0.0500      2.00000
    434       0.0680      2.00000
    435       0.1072      2.00000
    436       0.1120      2.00000
    437       0.1328      2.00000
    438       0.1763      2.00000
    439       0.2109      2.00000
    440       0.2179      2.00000
    441       0.2419      2.00000
    442       0.2604      2.00000
    443       0.3391      2.00000
    444       0.3623      2.00000
    445       0.3898      2.00000
    446       0.4048      2.00000
    447       0.4418      2.00000
    448       0.4652      2.00000
    449       0.4867      2.00000
    450       0.5018      2.00000
    451       0.5298      2.00000
    452       0.5906      2.00000
    453       0.6003      2.00000
    454       0.6122      2.00000
    455       0.6253      2.00000
    456       0.6429      2.00000
    457       0.6593      2.00000
    458       0.6683      2.00000
    459       0.7059      2.00000
    460       0.7266      2.00000
    461       0.8394      2.00000
    462       0.8470      2.00000
    463       0.8526      2.00000
    464       0.8934      2.00000
    465       0.9138      2.00000
    466       0.9157      2.00000
    467       0.9284      2.00000
    468       0.9373      2.00000
    469       0.9502      2.00000
    470       0.9732      2.00000
    471       0.9803      2.00000
    472       0.9974      2.00000
    473       1.0327      2.00000
    474       1.0532      2.00000
    475       1.0611      2.00000
    476       1.0823      2.00000
    477       1.1132      2.00000
    478       1.1232      2.00000
    479       1.1284      2.00000
    480       1.1450      2.00000
    481       1.1621      2.00000
    482       1.1793      2.00000
    483       1.1871      2.00000
    484       1.2041      2.00000
    485       1.2632      2.00000
    486       1.3111      2.00000
    487       1.3465      2.00000
    488       1.3592      2.00000
    489       1.3642      2.00000
    490       1.3825      2.00000
    491       1.3930      2.00000
    492       1.3998      2.00000
    493       1.4121      2.00000
    494       1.4206      2.00000
    495       1.4284      2.00000
    496       1.4329      2.00000
    497       1.4484      2.00000
    498       1.4575      2.00000
    499       1.4678      2.00000
    500       1.4819      2.00000
    501       1.5054      2.00000
    502       1.5066      2.00000
    503       1.5320      2.00000
    504       1.5351      2.00000
    505       1.5539      2.00000
    506       1.5608      2.00000
    507       1.5839      2.00000
    508       1.5927      2.00000
    509       1.6306      2.00000
    510       1.6364      2.00000
    511       1.6514      2.00000
    512       1.6539      2.00000
    513       1.6962      2.00000
    514       1.7417      2.00000
    515       1.7495      2.00000
    516       1.7799      2.00000
    517       1.8094      2.00000
    518       1.8507      2.00000
    519       1.9151      2.00000
    520       1.9451      2.00000
    521       2.0682      2.00000
    522       2.2897      2.00000
    523       3.1422      2.00000
    524       3.3337      2.00000
    525       3.8663      2.00000
    526       5.9565      1.44943
    527       7.5750      0.00000
    528       7.7384      0.00000
    529       9.0531      0.00000
    530       9.1470      0.00000
    531       9.5515      0.00000
    532       9.6904      0.00000
    533       9.8002      0.00000
    534      10.1184      0.00000
    535      10.3839      0.00000
    536      10.4789      0.00000
    537      10.5164      0.00000
    538      10.5328      0.00000
    539      10.5667      0.00000
    540      10.6005      0.00000
    541      10.6398      0.00000
    542      10.6988      0.00000
    543      10.7574      0.00000
    544      10.7628      0.00000
    545      10.7811      0.00000
    546      10.7923      0.00000
    547      10.8064      0.00000
    548      10.8556      0.00000
    549      10.8659      0.00000
    550      10.8755      0.00000
    551      10.9619      0.00000
    552      10.9992      0.00000
    553      11.0276      0.00000
    554      11.0718      0.00000
    555      11.0905      0.00000
    556      11.1694      0.00000
    557      11.2385      0.00000
    558      11.2518      0.00000
    559      11.3128      0.00000
    560      11.3661      0.00000
    561      11.4019      0.00000
    562      11.4061      0.00000
    563      11.5925      0.00000
    564      11.7808      0.00000
    565      11.8106      0.00000
    566      12.0777      0.00000
    567      12.1084      0.00000
    568      12.1804      0.00000
    569      12.1874      0.00000
    570      12.2034      0.00000
    571      12.2275      0.00000
    572      12.2704      0.00000
    573      12.2780      0.00000
    574      12.3283      0.00000
    575      12.3365      0.00000
    576      12.4267      0.00000
    577      12.5249      0.00000
    578      12.5458      0.00000
    579      12.5602      0.00000
    580      13.0350      0.00000
    581      13.0697      0.00000
    582      13.1860      0.00000
    583      13.2044      0.00000
    584      13.3167      0.00000
    585      13.3350      0.00000
    586      13.3592      0.00000
    587      13.3713      0.00000
    588      13.5319      0.00000
    589      13.6317      0.00000
    590      13.6324      0.00000
    591      13.6996      0.00000
    592      13.8469      0.00000
    593      13.9140      0.00000
    594      13.9162      0.00000
    595      13.9170      0.00000
    596      13.9323      0.00000
    597      13.9486      0.00000
    598      13.9671      0.00000
    599      13.9884      0.00000
    600      13.9994      0.00000
    601      14.1075      0.00000
    602      14.1088      0.00000
    603      14.1314      0.00000
    604      14.2414      0.00000
    605      14.2755      0.00000
    606      14.3218      0.00000
    607      14.3354      0.00000
    608      14.4129      0.00000
    609      14.4578      0.00000
    610      14.4826      0.00000
    611      14.5272      0.00000
    612      14.5396      0.00000
    613      14.5960      0.00000
    614      14.6066      0.00000
    615      14.6406      0.00000
    616      14.6529      0.00000
    617      14.6755      0.00000
    618      14.7851      0.00000
    619      14.8315      0.00000
    620      15.0981      0.00000
    621      15.1440      0.00000
    622      15.1467      0.00000
    623      15.1708      0.00000
    624      15.1743      0.00000
    625      15.2228      0.00000
    626      15.2747      0.00000
    627      15.3169      0.00000
    628      15.5770      0.00000
    629      15.5969      0.00000
    630      15.6507      0.00000

 k-point     6 :       0.5000    0.0000    0.5000
  band No.  band energies     occupation 
      1     -18.5889      2.00000
      2     -18.5670      2.00000
      3     -18.4553      2.00000
      4     -18.3306      2.00000
      5     -17.9724      2.00000
      6     -17.9662      2.00000
      7     -17.9588      2.00000
      8     -17.9369      2.00000
      9     -17.9222      2.00000
     10     -17.9089      2.00000
     11     -17.8629      2.00000
     12     -17.8374      2.00000
     13     -17.7546      2.00000
     14     -17.7376      2.00000
     15     -17.7205      2.00000
     16     -17.7084      2.00000
     17     -17.6811      2.00000
     18     -17.6348      2.00000
     19     -17.6161      2.00000
     20     -17.5961      2.00000
     21     -17.5957      2.00000
     22     -17.5486      2.00000
     23     -17.5311      2.00000
     24     -17.4738      2.00000
     25     -17.4713      2.00000
     26     -17.4618      2.00000
     27     -17.4430      2.00000
     28     -17.4377      2.00000
     29     -17.3996      2.00000
     30     -17.3801      2.00000
     31     -17.3776      2.00000
     32     -17.3644      2.00000
     33     -17.3591      2.00000
     34     -17.3521      2.00000
     35     -17.3275      2.00000
     36     -17.3113      2.00000
     37     -17.2635      2.00000
     38     -17.2541      2.00000
     39     -17.2520      2.00000
     40     -17.2320      2.00000
     41     -17.2173      2.00000
     42     -17.1926      2.00000
     43     -17.1817      2.00000
     44     -17.1411      2.00000
     45     -17.1064      2.00000
     46     -17.0999      2.00000
     47     -17.0917      2.00000
     48     -17.0896      2.00000
     49     -17.0710      2.00000
     50     -17.0688      2.00000
     51     -17.0633      2.00000
     52     -17.0445      2.00000
     53     -17.0322      2.00000
     54     -17.0275      2.00000
     55     -17.0177      2.00000
     56     -17.0023      2.00000
     57     -16.9778      2.00000
     58     -16.9535      2.00000
     59     -16.9409      2.00000
     60     -16.9379      2.00000
     61     -16.9237      2.00000
     62     -16.9166      2.00000
     63     -16.8826      2.00000
     64     -16.8826      2.00000
     65     -16.8509      2.00000
     66     -16.7936      2.00000
     67     -16.7663      2.00000
     68     -16.7565      2.00000
     69     -16.7298      2.00000
     70     -16.3113      2.00000
     71     -16.2575      2.00000
     72     -13.1815      2.00000
     73     -13.1652      2.00000
     74     -13.1531      2.00000
     75     -13.1420      2.00000
     76     -13.1379      2.00000
     77     -13.1343      2.00000
     78     -13.1277      2.00000
     79     -13.1081      2.00000
     80     -13.0841      2.00000
     81     -13.0806      2.00000
     82     -13.0682      2.00000
     83     -13.0657      2.00000
     84     -13.0640      2.00000
     85     -13.0598      2.00000
     86     -13.0538      2.00000
     87     -13.0482      2.00000
     88     -13.0424      2.00000
     89     -13.0402      2.00000
     90     -13.0375      2.00000
     91     -13.0346      2.00000
     92     -13.0306      2.00000
     93     -13.0286      2.00000
     94     -13.0228      2.00000
     95     -13.0209      2.00000
     96     -13.0150      2.00000
     97     -13.0141      2.00000
     98     -13.0106      2.00000
     99     -13.0045      2.00000
    100     -13.0014      2.00000
    101     -13.0005      2.00000
    102     -12.9991      2.00000
    103     -12.9919      2.00000
    104     -12.9903      2.00000
    105     -12.9851      2.00000
    106     -12.9832      2.00000
    107     -12.9796      2.00000
    108     -12.9790      2.00000
    109     -12.9782      2.00000
    110     -12.9709      2.00000
    111     -12.9696      2.00000
    112     -12.9663      2.00000
    113     -12.9640      2.00000
    114     -12.9626      2.00000
    115     -12.9548      2.00000
    116     -12.9531      2.00000
    117     -12.9528      2.00000
    118     -12.9448      2.00000
    119     -12.9440      2.00000
    120     -12.9370      2.00000
    121     -12.9323      2.00000
    122     -12.9292      2.00000
    123     -12.9284      2.00000
    124     -12.9240      2.00000
    125     -12.9186      2.00000
    126     -12.9167      2.00000
    127     -12.9158      2.00000
    128     -12.9123      2.00000
    129     -12.9114      2.00000
    130     -12.9095      2.00000
    131     -12.9037      2.00000
    132     -12.9013      2.00000
    133     -12.8986      2.00000
    134     -12.8984      2.00000
    135     -12.8953      2.00000
    136     -12.8951      2.00000
    137     -12.8918      2.00000
    138     -12.8892      2.00000
    139     -12.8848      2.00000
    140     -12.8838      2.00000
    141     -12.8823      2.00000
    142     -12.8798      2.00000
    143     -12.8774      2.00000
    144     -12.8714      2.00000
    145     -12.8668      2.00000
    146     -12.8617      2.00000
    147     -12.8615      2.00000
    148     -12.8559      2.00000
    149     -12.8530      2.00000
    150     -12.8504      2.00000
    151     -12.8491      2.00000
    152     -12.8479      2.00000
    153     -12.8423      2.00000
    154     -12.8384      2.00000
    155     -12.8350      2.00000
    156     -12.8287      2.00000
    157     -12.8241      2.00000
    158     -12.8203      2.00000
    159     -12.8202      2.00000
    160     -12.8169      2.00000
    161     -12.8166      2.00000
    162     -12.8123      2.00000
    163     -12.8116      2.00000
    164     -12.8054      2.00000
    165     -12.8020      2.00000
    166     -12.8002      2.00000
    167     -12.8002      2.00000
    168     -12.7928      2.00000
    169     -12.7926      2.00000
    170     -12.7893      2.00000
    171     -12.7873      2.00000
    172     -12.7856      2.00000
    173     -12.7815      2.00000
    174     -12.7748      2.00000
    175     -12.7738      2.00000
    176     -12.7699      2.00000
    177     -12.7672      2.00000
    178     -12.7652      2.00000
    179     -12.7625      2.00000
    180     -12.7608      2.00000
    181     -12.7602      2.00000
    182     -12.7578      2.00000
    183     -12.7544      2.00000
    184     -12.7520      2.00000
    185     -12.7517      2.00000
    186     -12.7469      2.00000
    187     -12.7429      2.00000
    188     -12.7373      2.00000
    189     -12.7307      2.00000
    190     -12.7289      2.00000
    191     -12.7268      2.00000
    192     -12.7252      2.00000
    193     -12.7228      2.00000
    194     -12.7210      2.00000
    195     -12.7207      2.00000
    196     -12.7174      2.00000
    197     -12.7164      2.00000
    198     -12.7091      2.00000
    199     -12.7061      2.00000
    200     -12.7051      2.00000
    201     -12.7027      2.00000
    202     -12.7020      2.00000
    203     -12.6962      2.00000
    204     -12.6930      2.00000
    205     -12.6920      2.00000
    206     -12.6898      2.00000
    207     -12.6869      2.00000
    208     -12.6861      2.00000
    209     -12.6853      2.00000
    210     -12.6825      2.00000
    211     -12.6791      2.00000
    212     -12.6779      2.00000
    213     -12.6733      2.00000
    214     -12.6721      2.00000
    215     -12.6721      2.00000
    216     -12.6707      2.00000
    217     -12.6655      2.00000
    218     -12.6626      2.00000
    219     -12.6602      2.00000
    220     -12.6601      2.00000
    221     -12.6590      2.00000
    222     -12.6541      2.00000
    223     -12.6534      2.00000
    224     -12.6528      2.00000
    225     -12.6503      2.00000
    226     -12.6462      2.00000
    227     -12.6410      2.00000
    228     -12.6392      2.00000
    229     -12.6350      2.00000
    230     -12.6323      2.00000
    231     -12.6228      2.00000
    232     -12.6205      2.00000
    233     -12.6150      2.00000
    234     -12.6138      2.00000
    235     -12.6110      2.00000
    236     -12.6073      2.00000
    237     -12.6065      2.00000
    238     -12.6020      2.00000
    239     -12.5983      2.00000
    240     -12.5918      2.00000
    241     -12.5761      2.00000
    242     -12.5757      2.00000
    243     -12.5583      2.00000
    244     -12.5536      2.00000
    245     -12.5357      2.00000
    246     -12.5296      2.00000
    247     -12.5175      2.00000
    248     -12.5162      2.00000
    249     -12.5057      2.00000
    250     -12.4949      2.00000
    251     -12.4897      2.00000
    252     -12.4857      2.00000
    253     -12.4849      2.00000
    254     -12.4646      2.00000
    255     -12.4618      2.00000
    256     -12.4350      2.00000
    257     -12.4329      2.00000
    258     -12.4234      2.00000
    259     -12.4114      2.00000
    260     -12.4085      2.00000
    261     -12.3961      2.00000
    262     -12.3848      2.00000
    263     -12.3785      2.00000
    264     -12.3662      2.00000
    265     -12.3599      2.00000
    266     -12.3484      2.00000
    267     -12.3261      2.00000
    268     -12.3162      2.00000
    269     -12.2955      2.00000
    270     -12.2708      2.00000
    271     -12.2496      2.00000
    272     -12.2445      2.00000
    273     -12.2416      2.00000
    274     -12.2329      2.00000
    275     -12.2238      2.00000
    276     -12.2161      2.00000
    277     -12.2036      2.00000
    278     -12.1954      2.00000
    279     -12.1829      2.00000
    280     -12.1691      2.00000
    281     -12.1463      2.00000
    282     -12.0926      2.00000
    283     -12.0721      2.00000
    284     -12.0598      2.00000
    285     -12.0372      2.00000
    286     -12.0213      2.00000
    287     -12.0160      2.00000
    288     -12.0034      2.00000
    289     -11.9977      2.00000
    290     -11.9790      2.00000
    291     -11.9754      2.00000
    292     -11.9621      2.00000
    293     -11.9564      2.00000
    294     -11.9347      2.00000
    295     -11.9266      2.00000
    296     -11.9229      2.00000
    297     -11.8756      2.00000
    298     -11.8664      2.00000
    299     -11.8537      2.00000
    300     -11.8484      2.00000
    301     -11.8264      2.00000
    302     -11.7623      2.00000
    303     -11.7544      2.00000
    304     -11.7176      2.00000
    305     -11.6689      2.00000
    306     -11.6245      2.00000
    307     -10.0522      2.00000
    308      -5.0301      2.00000
    309      -4.9651      2.00000
    310      -4.5891      2.00000
    311      -4.5735      2.00000
    312      -4.5711      2.00000
    313      -4.5361      2.00000
    314      -4.5304      2.00000
    315      -4.5077      2.00000
    316      -4.4629      2.00000
    317      -4.4613      2.00000
    318      -4.3494      2.00000
    319      -4.3491      2.00000
    320      -4.2989      2.00000
    321      -4.2981      2.00000
    322      -4.2644      2.00000
    323      -4.2425      2.00000
    324      -4.1242      2.00000
    325      -4.1215      2.00000
    326      -4.0815      2.00000
    327      -4.0414      2.00000
    328      -4.0132      2.00000
    329      -4.0082      2.00000
    330      -3.9871      2.00000
    331      -3.9530      2.00000
    332      -3.9454      2.00000
    333      -3.8408      2.00000
    334      -3.8178      2.00000
    335      -3.8098      2.00000
    336      -3.7918      2.00000
    337      -3.7048      2.00000
    338      -3.5331      2.00000
    339      -3.5239      2.00000
    340      -3.2978      2.00000
    341      -3.2805      2.00000
    342      -3.1564      2.00000
    343      -3.1422      2.00000
    344      -3.1106      2.00000
    345      -3.1060      2.00000
    346      -3.1002      2.00000
    347      -3.0718      2.00000
    348      -3.0621      2.00000
    349      -3.0122      2.00000
    350      -2.9237      2.00000
    351      -2.7877      2.00000
    352      -2.7704      2.00000
    353      -2.7593      2.00000
    354      -2.6069      2.00000
    355      -2.5904      2.00000
    356      -2.5011      2.00000
    357      -2.4904      2.00000
    358      -2.3777      2.00000
    359      -2.3062      2.00000
    360      -2.2961      2.00000
    361      -2.2909      2.00000
    362      -2.2107      2.00000
    363      -2.1931      2.00000
    364      -2.1087      2.00000
    365      -2.0785      2.00000
    366      -2.0600      2.00000
    367      -2.0530      2.00000
    368      -2.0138      2.00000
    369      -1.9509      2.00000
    370      -1.8180      2.00000
    371      -1.7933      2.00000
    372      -1.7910      2.00000
    373      -1.7699      2.00000
    374      -1.7686      2.00000
    375      -1.7523      2.00000
    376      -1.7173      2.00000
    377      -1.6993      2.00000
    378      -1.6557      2.00000
    379      -1.6407      2.00000
    380      -1.6088      2.00000
    381      -1.5495      2.00000
    382      -1.5489      2.00000
    383      -1.5069      2.00000
    384      -1.5020      2.00000
    385      -1.4274      2.00000
    386      -1.3995      2.00000
    387      -1.3776      2.00000
    388      -1.3509      2.00000
    389      -1.2993      2.00000
    390      -1.2902      2.00000
    391      -1.2522      2.00000
    392      -1.2177      2.00000
    393      -1.1700      2.00000
    394      -1.1015      2.00000
    395      -1.0856      2.00000
    396      -1.0152      2.00000
    397      -0.9392      2.00000
    398      -0.9320      2.00000
    399      -0.9179      2.00000
    400      -0.9072      2.00000
    401      -0.8984      2.00000
    402      -0.8970      2.00000
    403      -0.8547      2.00000
    404      -0.8194      2.00000
    405      -0.7452      2.00000
    406      -0.6692      2.00000
    407      -0.5947      2.00000
    408      -0.5175      2.00000
    409      -0.5090      2.00000
    410      -0.4447      2.00000
    411      -0.4141      2.00000
    412      -0.3671      2.00000
    413      -0.3577      2.00000
    414      -0.3044      2.00000
    415      -0.2789      2.00000
    416      -0.2657      2.00000
    417      -0.2451      2.00000
    418      -0.2282      2.00000
    419      -0.1923      2.00000
    420      -0.1792      2.00000
    421      -0.1722      2.00000
    422      -0.1423      2.00000
    423      -0.1257      2.00000
    424      -0.1150      2.00000
    425      -0.1058      2.00000
    426      -0.0966      2.00000
    427      -0.0638      2.00000
    428      -0.0561      2.00000
    429      -0.0109      2.00000
    430       0.0258      2.00000
    431       0.0727      2.00000
    432       0.0906      2.00000
    433       0.1106      2.00000
    434       0.1284      2.00000
    435       0.1655      2.00000
    436       0.1692      2.00000
    437       0.2041      2.00000
    438       0.2136      2.00000
    439       0.2477      2.00000
    440       0.2538      2.00000
    441       0.2726      2.00000
    442       0.2851      2.00000
    443       0.3289      2.00000
    444       0.3513      2.00000
    445       0.3993      2.00000
    446       0.4159      2.00000
    447       0.4809      2.00000
    448       0.4965      2.00000
    449       0.5182      2.00000
    450       0.5216      2.00000
    451       0.5247      2.00000
    452       0.5712      2.00000
    453       0.6093      2.00000
    454       0.6212      2.00000
    455       0.6232      2.00000
    456       0.6468      2.00000
    457       0.6570      2.00000
    458       0.6758      2.00000
    459       0.7019      2.00000
    460       0.7154      2.00000
    461       0.7682      2.00000
    462       0.7857      2.00000
    463       0.7975      2.00000
    464       0.8147      2.00000
    465       0.8281      2.00000
    466       0.8356      2.00000
    467       0.9040      2.00000
    468       0.9407      2.00000
    469       0.9415      2.00000
    470       0.9641      2.00000
    471       0.9872      2.00000
    472       0.9951      2.00000
    473       1.0259      2.00000
    474       1.0501      2.00000
    475       1.0532      2.00000
    476       1.0855      2.00000
    477       1.0950      2.00000
    478       1.1157      2.00000
    479       1.1225      2.00000
    480       1.1725      2.00000
    481       1.1909      2.00000
    482       1.2049      2.00000
    483       1.2200      2.00000
    484       1.2474      2.00000
    485       1.2490      2.00000
    486       1.2542      2.00000
    487       1.2874      2.00000
    488       1.3036      2.00000
    489       1.3149      2.00000
    490       1.3438      2.00000
    491       1.3493      2.00000
    492       1.3634      2.00000
    493       1.3714      2.00000
    494       1.3887      2.00000
    495       1.3978      2.00000
    496       1.4130      2.00000
    497       1.4144      2.00000
    498       1.4210      2.00000
    499       1.4496      2.00000
    500       1.4535      2.00000
    501       1.4974      2.00000
    502       1.5480      2.00000
    503       1.5525      2.00000
    504       1.5527      2.00000
    505       1.5631      2.00000
    506       1.5773      2.00000
    507       1.5831      2.00000
    508       1.5878      2.00000
    509       1.6294      2.00000
    510       1.6598      2.00000
    511       1.6797      2.00000
    512       1.7190      2.00000
    513       1.7204      2.00000
    514       1.7417      2.00000
    515       1.7471      2.00000
    516       1.8076      2.00000
    517       1.8421      2.00000
    518       1.9244      2.00000
    519       1.9394      2.00000
    520       1.9597      2.00000
    521       2.0953      2.00000
    522       2.2774      2.00000
    523       3.1491      2.00000
    524       3.3335      2.00000
    525       3.8695      2.00000
    526       5.9588      1.40373
    527       7.8941      0.00000
    528       7.9645      0.00000
    529       8.4700      0.00000
    530       8.5656      0.00000
    531       9.6858      0.00000
    532       9.7182      0.00000
    533      10.1902      0.00000
    534      10.2230      0.00000
    535      10.3245      0.00000
    536      10.5278      0.00000
    537      10.5350      0.00000
    538      10.5501      0.00000
    539      10.5624      0.00000
    540      10.5755      0.00000
    541      10.6109      0.00000
    542      10.6232      0.00000
    543      10.6437      0.00000
    544      10.6834      0.00000
    545      10.6860      0.00000
    546      10.7125      0.00000
    547      10.7311      0.00000
    548      10.8523      0.00000
    549      10.8962      0.00000
    550      10.9034      0.00000
    551      10.9301      0.00000
    552      10.9626      0.00000
    553      11.0732      0.00000
    554      11.1351      0.00000
    555      11.1503      0.00000
    556      11.1876      0.00000
    557      11.2376      0.00000
    558      11.3625      0.00000
    559      11.4204      0.00000
    560      11.5569      0.00000
    561      11.5910      0.00000
    562      11.6293      0.00000
    563      11.6649      0.00000
    564      11.6766      0.00000
    565      11.7237      0.00000
    566      11.8849      0.00000
    567      11.9473      0.00000
    568      12.0298      0.00000
    569      12.0413      0.00000
    570      12.2833      0.00000
    571      12.4360      0.00000
    572      12.5083      0.00000
    573      12.5279      0.00000
    574      12.5370      0.00000
    575      12.5379      0.00000
    576      12.5488      0.00000
    577      12.6468      0.00000
    578      12.6629      0.00000
    579      12.7116      0.00000
    580      12.8361      0.00000
    581      12.9136      0.00000
    582      13.0726      0.00000
    583      13.1525      0.00000
    584      13.1861      0.00000
    585      13.2438      0.00000
    586      13.3359      0.00000
    587      13.3746      0.00000
    588      13.4974      0.00000
    589      13.5000      0.00000
    590      13.5302      0.00000
    591      13.5336      0.00000
    592      13.6153      0.00000
    593      13.6500      0.00000
    594      13.7040      0.00000
    595      13.7353      0.00000
    596      13.8208      0.00000
    597      13.8269      0.00000
    598      13.8848      0.00000
    599      13.9449      0.00000
    600      13.9667      0.00000
    601      14.0258      0.00000
    602      14.0421      0.00000
    603      14.2001      0.00000
    604      14.2572      0.00000
    605      14.3154      0.00000
    606      14.3389      0.00000
    607      14.3531      0.00000
    608      14.3676      0.00000
    609      14.3686      0.00000
    610      14.4479      0.00000
    611      14.4724      0.00000
    612      14.5043      0.00000
    613      14.5525      0.00000
    614      14.6231      0.00000
    615      14.7853      0.00000
    616      14.8733      0.00000
    617      14.8887      0.00000
    618      14.9063      0.00000
    619      14.9129      0.00000
    620      15.0532      0.00000
    621      15.1426      0.00000
    622      15.1646      0.00000
    623      15.1792      0.00000
    624      15.4522      0.00000
    625      15.4821      0.00000
    626      15.5159      0.00000
    627      15.5400      0.00000
    628      15.6816      0.00000
    629      15.7195      0.00000
    630      15.7607      0.00000

 k-point     7 :       0.0000    0.5000    0.5000
  band No.  band energies     occupation 
      1     -18.4735      2.00000
      2     -18.4482      2.00000
      3     -18.3986      2.00000
      4     -18.3133      2.00000
      5     -18.2285      2.00000
      6     -18.1912      2.00000
      7     -18.1352      2.00000
      8     -18.0287      2.00000
      9     -17.9553      2.00000
     10     -17.8986      2.00000
     11     -17.8923      2.00000
     12     -17.7880      2.00000
     13     -17.6951      2.00000
     14     -17.6683      2.00000
     15     -17.6644      2.00000
     16     -17.6518      2.00000
     17     -17.6076      2.00000
     18     -17.5938      2.00000
     19     -17.5877      2.00000
     20     -17.5761      2.00000
     21     -17.5432      2.00000
     22     -17.5367      2.00000
     23     -17.5100      2.00000
     24     -17.5019      2.00000
     25     -17.4876      2.00000
     26     -17.4650      2.00000
     27     -17.4629      2.00000
     28     -17.4390      2.00000
     29     -17.4017      2.00000
     30     -17.3808      2.00000
     31     -17.3803      2.00000
     32     -17.3463      2.00000
     33     -17.3373      2.00000
     34     -17.3275      2.00000
     35     -17.3008      2.00000
     36     -17.2828      2.00000
     37     -17.2689      2.00000
     38     -17.2565      2.00000
     39     -17.2408      2.00000
     40     -17.2261      2.00000
     41     -17.2081      2.00000
     42     -17.1949      2.00000
     43     -17.1825      2.00000
     44     -17.1707      2.00000
     45     -17.1574      2.00000
     46     -17.1314      2.00000
     47     -17.1041      2.00000
     48     -17.0858      2.00000
     49     -17.0684      2.00000
     50     -17.0669      2.00000
     51     -17.0667      2.00000
     52     -17.0405      2.00000
     53     -17.0306      2.00000
     54     -17.0294      2.00000
     55     -16.9938      2.00000
     56     -16.9866      2.00000
     57     -16.9866      2.00000
     58     -16.9656      2.00000
     59     -16.9416      2.00000
     60     -16.9321      2.00000
     61     -16.9220      2.00000
     62     -16.9084      2.00000
     63     -16.9001      2.00000
     64     -16.8699      2.00000
     65     -16.8610      2.00000
     66     -16.7859      2.00000
     67     -16.7663      2.00000
     68     -16.7497      2.00000
     69     -16.7405      2.00000
     70     -16.3202      2.00000
     71     -16.2472      2.00000
     72     -13.1756      2.00000
     73     -13.1568      2.00000
     74     -13.1492      2.00000
     75     -13.1361      2.00000
     76     -13.1336      2.00000
     77     -13.1238      2.00000
     78     -13.1180      2.00000
     79     -13.1096      2.00000
     80     -13.1088      2.00000
     81     -13.0956      2.00000
     82     -13.0911      2.00000
     83     -13.0781      2.00000
     84     -13.0716      2.00000
     85     -13.0649      2.00000
     86     -13.0599      2.00000
     87     -13.0580      2.00000
     88     -13.0526      2.00000
     89     -13.0495      2.00000
     90     -13.0472      2.00000
     91     -13.0371      2.00000
     92     -13.0364      2.00000
     93     -13.0326      2.00000
     94     -13.0280      2.00000
     95     -13.0243      2.00000
     96     -13.0186      2.00000
     97     -13.0124      2.00000
     98     -13.0093      2.00000
     99     -13.0075      2.00000
    100     -13.0042      2.00000
    101     -12.9972      2.00000
    102     -12.9948      2.00000
    103     -12.9935      2.00000
    104     -12.9904      2.00000
    105     -12.9865      2.00000
    106     -12.9827      2.00000
    107     -12.9811      2.00000
    108     -12.9799      2.00000
    109     -12.9733      2.00000
    110     -12.9681      2.00000
    111     -12.9658      2.00000
    112     -12.9646      2.00000
    113     -12.9633      2.00000
    114     -12.9622      2.00000
    115     -12.9594      2.00000
    116     -12.9550      2.00000
    117     -12.9549      2.00000
    118     -12.9475      2.00000
    119     -12.9451      2.00000
    120     -12.9438      2.00000
    121     -12.9436      2.00000
    122     -12.9374      2.00000
    123     -12.9312      2.00000
    124     -12.9293      2.00000
    125     -12.9277      2.00000
    126     -12.9194      2.00000
    127     -12.9182      2.00000
    128     -12.9172      2.00000
    129     -12.9127      2.00000
    130     -12.9115      2.00000
    131     -12.8992      2.00000
    132     -12.8989      2.00000
    133     -12.8952      2.00000
    134     -12.8942      2.00000
    135     -12.8901      2.00000
    136     -12.8860      2.00000
    137     -12.8810      2.00000
    138     -12.8802      2.00000
    139     -12.8789      2.00000
    140     -12.8752      2.00000
    141     -12.8712      2.00000
    142     -12.8710      2.00000
    143     -12.8677      2.00000
    144     -12.8664      2.00000
    145     -12.8646      2.00000
    146     -12.8575      2.00000
    147     -12.8544      2.00000
    148     -12.8509      2.00000
    149     -12.8496      2.00000
    150     -12.8480      2.00000
    151     -12.8479      2.00000
    152     -12.8466      2.00000
    153     -12.8423      2.00000
    154     -12.8401      2.00000
    155     -12.8400      2.00000
    156     -12.8381      2.00000
    157     -12.8364      2.00000
    158     -12.8355      2.00000
    159     -12.8328      2.00000
    160     -12.8308      2.00000
    161     -12.8265      2.00000
    162     -12.8250      2.00000
    163     -12.8232      2.00000
    164     -12.8201      2.00000
    165     -12.8157      2.00000
    166     -12.8098      2.00000
    167     -12.8086      2.00000
    168     -12.8071      2.00000
    169     -12.8034      2.00000
    170     -12.8003      2.00000
    171     -12.7978      2.00000
    172     -12.7916      2.00000
    173     -12.7880      2.00000
    174     -12.7835      2.00000
    175     -12.7758      2.00000
    176     -12.7752      2.00000
    177     -12.7671      2.00000
    178     -12.7638      2.00000
    179     -12.7604      2.00000
    180     -12.7571      2.00000
    181     -12.7566      2.00000
    182     -12.7514      2.00000
    183     -12.7494      2.00000
    184     -12.7474      2.00000
    185     -12.7434      2.00000
    186     -12.7399      2.00000
    187     -12.7354      2.00000
    188     -12.7337      2.00000
    189     -12.7309      2.00000
    190     -12.7271      2.00000
    191     -12.7238      2.00000
    192     -12.7238      2.00000
    193     -12.7225      2.00000
    194     -12.7191      2.00000
    195     -12.7158      2.00000
    196     -12.7135      2.00000
    197     -12.7110      2.00000
    198     -12.7109      2.00000
    199     -12.7064      2.00000
    200     -12.7048      2.00000
    201     -12.7042      2.00000
    202     -12.6972      2.00000
    203     -12.6945      2.00000
    204     -12.6931      2.00000
    205     -12.6917      2.00000
    206     -12.6878      2.00000
    207     -12.6830      2.00000
    208     -12.6809      2.00000
    209     -12.6773      2.00000
    210     -12.6768      2.00000
    211     -12.6735      2.00000
    212     -12.6727      2.00000
    213     -12.6669      2.00000
    214     -12.6617      2.00000
    215     -12.6609      2.00000
    216     -12.6592      2.00000
    217     -12.6584      2.00000
    218     -12.6533      2.00000
    219     -12.6510      2.00000
    220     -12.6488      2.00000
    221     -12.6468      2.00000
    222     -12.6444      2.00000
    223     -12.6412      2.00000
    224     -12.6336      2.00000
    225     -12.6313      2.00000
    226     -12.6303      2.00000
    227     -12.6296      2.00000
    228     -12.6272      2.00000
    229     -12.6266      2.00000
    230     -12.6211      2.00000
    231     -12.6169      2.00000
    232     -12.6145      2.00000
    233     -12.6084      2.00000
    234     -12.6077      2.00000
    235     -12.6002      2.00000
    236     -12.5989      2.00000
    237     -12.5960      2.00000
    238     -12.5896      2.00000
    239     -12.5884      2.00000
    240     -12.5868      2.00000
    241     -12.5772      2.00000
    242     -12.5741      2.00000
    243     -12.5542      2.00000
    244     -12.5513      2.00000
    245     -12.5301      2.00000
    246     -12.5240      2.00000
    247     -12.5048      2.00000
    248     -12.4990      2.00000
    249     -12.4952      2.00000
    250     -12.4936      2.00000
    251     -12.4723      2.00000
    252     -12.4632      2.00000
    253     -12.4550      2.00000
    254     -12.4524      2.00000
    255     -12.4449      2.00000
    256     -12.4294      2.00000
    257     -12.4219      2.00000
    258     -12.4146      2.00000
    259     -12.4142      2.00000
    260     -12.4071      2.00000
    261     -12.3958      2.00000
    262     -12.3865      2.00000
    263     -12.3835      2.00000
    264     -12.3760      2.00000
    265     -12.3755      2.00000
    266     -12.3578      2.00000
    267     -12.3536      2.00000
    268     -12.3370      2.00000
    269     -12.3366      2.00000
    270     -12.3073      2.00000
    271     -12.2982      2.00000
    272     -12.2778      2.00000
    273     -12.2581      2.00000
    274     -12.2447      2.00000
    275     -12.2277      2.00000
    276     -12.2192      2.00000
    277     -12.2177      2.00000
    278     -12.2029      2.00000
    279     -12.1742      2.00000
    280     -12.1708      2.00000
    281     -12.1588      2.00000
    282     -12.1351      2.00000
    283     -12.1087      2.00000
    284     -12.0978      2.00000
    285     -12.0955      2.00000
    286     -12.0771      2.00000
    287     -12.0600      2.00000
    288     -12.0530      2.00000
    289     -12.0369      2.00000
    290     -12.0186      2.00000
    291     -11.9771      2.00000
    292     -11.9406      2.00000
    293     -11.9400      2.00000
    294     -11.9122      2.00000
    295     -11.8739      2.00000
    296     -11.8669      2.00000
    297     -11.8578      2.00000
    298     -11.8502      2.00000
    299     -11.8096      2.00000
    300     -11.8007      2.00000
    301     -11.7678      2.00000
    302     -11.7675      2.00000
    303     -11.7220      2.00000
    304     -11.7026      2.00000
    305     -11.6457      2.00000
    306     -11.6126      2.00000
    307     -10.0478      2.00000
    308      -4.8058      2.00000
    309      -4.7888      2.00000
    310      -4.7842      2.00000
    311      -4.7790      2.00000
    312      -4.7551      2.00000
    313      -4.7360      2.00000
    314      -4.7296      2.00000
    315      -4.6789      2.00000
    316      -4.5821      2.00000
    317      -4.5534      2.00000
    318      -4.5483      2.00000
    319      -4.5128      2.00000
    320      -4.4954      2.00000
    321      -4.4591      2.00000
    322      -4.3951      2.00000
    323      -4.3379      2.00000
    324      -4.3083      2.00000
    325      -4.3044      2.00000
    326      -4.1582      2.00000
    327      -4.0759      2.00000
    328      -4.0170      2.00000
    329      -3.9805      2.00000
    330      -3.9101      2.00000
    331      -3.8492      2.00000
    332      -3.7928      2.00000
    333      -3.7588      2.00000
    334      -3.7210      2.00000
    335      -3.7108      2.00000
    336      -3.6838      2.00000
    337      -3.6533      2.00000
    338      -3.6040      2.00000
    339      -3.4916      2.00000
    340      -3.4725      2.00000
    341      -3.3691      2.00000
    342      -3.3419      2.00000
    343      -3.1622      2.00000
    344      -2.9659      2.00000
    345      -2.9572      2.00000
    346      -2.9400      2.00000
    347      -2.9180      2.00000
    348      -2.8768      2.00000
    349      -2.8642      2.00000
    350      -2.7566      2.00000
    351      -2.4964      2.00000
    352      -2.4787      2.00000
    353      -2.4526      2.00000
    354      -2.4437      2.00000
    355      -2.4355      2.00000
    356      -2.3723      2.00000
    357      -2.3646      2.00000
    358      -2.3127      2.00000
    359      -2.2878      2.00000
    360      -2.2590      2.00000
    361      -2.2317      2.00000
    362      -2.1741      2.00000
    363      -2.0925      2.00000
    364      -1.9674      2.00000
    365      -1.9315      2.00000
    366      -1.8708      2.00000
    367      -1.8497      2.00000
    368      -1.8485      2.00000
    369      -1.8348      2.00000
    370      -1.8254      2.00000
    371      -1.8069      2.00000
    372      -1.7873      2.00000
    373      -1.7810      2.00000
    374      -1.7692      2.00000
    375      -1.7538      2.00000
    376      -1.7252      2.00000
    377      -1.6410      2.00000
    378      -1.6244      2.00000
    379      -1.5915      2.00000
    380      -1.5093      2.00000
    381      -1.4998      2.00000
    382      -1.4976      2.00000
    383      -1.3944      2.00000
    384      -1.3446      2.00000
    385      -1.3196      2.00000
    386      -1.3116      2.00000
    387      -1.2986      2.00000
    388      -1.2951      2.00000
    389      -1.2586      2.00000
    390      -1.2151      2.00000
    391      -1.1452      2.00000
    392      -1.1448      2.00000
    393      -1.1342      2.00000
    394      -1.0599      2.00000
    395      -1.0166      2.00000
    396      -0.9577      2.00000
    397      -0.9300      2.00000
    398      -0.9175      2.00000
    399      -0.9098      2.00000
    400      -0.9043      2.00000
    401      -0.8511      2.00000
    402      -0.8430      2.00000
    403      -0.7417      2.00000
    404      -0.6705      2.00000
    405      -0.6540      2.00000
    406      -0.6460      2.00000
    407      -0.6437      2.00000
    408      -0.6302      2.00000
    409      -0.6288      2.00000
    410      -0.6240      2.00000
    411      -0.6108      2.00000
    412      -0.5945      2.00000
    413      -0.5694      2.00000
    414      -0.5206      2.00000
    415      -0.5054      2.00000
    416      -0.4806      2.00000
    417      -0.4472      2.00000
    418      -0.4444      2.00000
    419      -0.4017      2.00000
    420      -0.3881      2.00000
    421      -0.1789      2.00000
    422      -0.1565      2.00000
    423      -0.1554      2.00000
    424      -0.0794      2.00000
    425      -0.0602      2.00000
    426      -0.0398      2.00000
    427       0.0347      2.00000
    428       0.0449      2.00000
    429       0.0660      2.00000
    430       0.0987      2.00000
    431       0.1276      2.00000
    432       0.1397      2.00000
    433       0.1542      2.00000
    434       0.1832      2.00000
    435       0.1982      2.00000
    436       0.2252      2.00000
    437       0.2387      2.00000
    438       0.2573      2.00000
    439       0.2748      2.00000
    440       0.2989      2.00000
    441       0.3009      2.00000
    442       0.3176      2.00000
    443       0.3259      2.00000
    444       0.3368      2.00000
    445       0.3924      2.00000
    446       0.4052      2.00000
    447       0.4333      2.00000
    448       0.4337      2.00000
    449       0.4532      2.00000
    450       0.4584      2.00000
    451       0.4659      2.00000
    452       0.5141      2.00000
    453       0.5388      2.00000
    454       0.5680      2.00000
    455       0.5884      2.00000
    456       0.5918      2.00000
    457       0.5981      2.00000
    458       0.6206      2.00000
    459       0.6499      2.00000
    460       0.6515      2.00000
    461       0.6760      2.00000
    462       0.6893      2.00000
    463       0.7063      2.00000
    464       0.7238      2.00000
    465       0.7501      2.00000
    466       0.7610      2.00000
    467       0.7857      2.00000
    468       0.8062      2.00000
    469       0.8116      2.00000
    470       0.8454      2.00000
    471       0.8513      2.00000
    472       0.8837      2.00000
    473       0.9401      2.00000
    474       0.9828      2.00000
    475       1.0375      2.00000
    476       1.0610      2.00000
    477       1.0620      2.00000
    478       1.0874      2.00000
    479       1.1066      2.00000
    480       1.1142      2.00000
    481       1.1329      2.00000
    482       1.1436      2.00000
    483       1.1534      2.00000
    484       1.1773      2.00000
    485       1.1819      2.00000
    486       1.2358      2.00000
    487       1.2365      2.00000
    488       1.2440      2.00000
    489       1.2663      2.00000
    490       1.3075      2.00000
    491       1.3309      2.00000
    492       1.3344      2.00000
    493       1.3600      2.00000
    494       1.3646      2.00000
    495       1.3861      2.00000
    496       1.4259      2.00000
    497       1.4306      2.00000
    498       1.4419      2.00000
    499       1.4553      2.00000
    500       1.4783      2.00000
    501       1.4830      2.00000
    502       1.5181      2.00000
    503       1.5321      2.00000
    504       1.5406      2.00000
    505       1.5664      2.00000
    506       1.5844      2.00000
    507       1.6022      2.00000
    508       1.6264      2.00000
    509       1.6388      2.00000
    510       1.6553      2.00000
    511       1.6777      2.00000
    512       1.6845      2.00000
    513       1.7164      2.00000
    514       1.7246      2.00000
    515       1.7282      2.00000
    516       1.7406      2.00000
    517       1.8369      2.00000
    518       1.9500      2.00000
    519       1.9703      2.00000
    520       1.9748      2.00000
    521       2.1011      2.00000
    522       2.2597      2.00000
    523       3.1607      2.00000
    524       3.3548      2.00000
    525       3.8063      2.00000
    526       5.9830      0.87815
    527       8.5167      0.00000
    528       8.6149      0.00000
    529       8.6930      0.00000
    530       8.8122      0.00000
    531       9.5303      0.00000
    532       9.6417      0.00000
    533       9.7231      0.00000
    534       9.7940      0.00000
    535       9.8796      0.00000
    536       9.8874      0.00000
    537      10.3226      0.00000
    538      10.3438      0.00000
    539      10.3849      0.00000
    540      10.5338      0.00000
    541      10.5548      0.00000
    542      10.5676      0.00000
    543      10.6112      0.00000
    544      10.7748      0.00000
    545      10.8025      0.00000
    546      10.8363      0.00000
    547      10.8601      0.00000
    548      11.0945      0.00000
    549      11.1948      0.00000
    550      11.2275      0.00000
    551      11.2689      0.00000
    552      11.5596      0.00000
    553      11.5824      0.00000
    554      11.6210      0.00000
    555      11.6415      0.00000
    556      11.6751      0.00000
    557      11.6854      0.00000
    558      11.7356      0.00000
    559      11.7555      0.00000
    560      11.7892      0.00000
    561      11.8179      0.00000
    562      11.8433      0.00000
    563      11.8624      0.00000
    564      11.8907      0.00000
    565      11.9533      0.00000
    566      11.9774      0.00000
    567      12.0309      0.00000
    568      12.1982      0.00000
    569      12.2539      0.00000
    570      12.2973      0.00000
    571      12.3384      0.00000
    572      12.3452      0.00000
    573      12.3972      0.00000
    574      12.4091      0.00000
    575      12.4452      0.00000
    576      12.4489      0.00000
    577      12.4689      0.00000
    578      12.5741      0.00000
    579      12.5820      0.00000
    580      12.6296      0.00000
    581      12.6353      0.00000
    582      12.6865      0.00000
    583      12.8003      0.00000
    584      12.9910      0.00000
    585      13.0050      0.00000
    586      13.0916      0.00000
    587      13.0942      0.00000
    588      13.2839      0.00000
    589      13.3113      0.00000
    590      13.3635      0.00000
    591      13.4057      0.00000
    592      13.4603      0.00000
    593      13.4912      0.00000
    594      13.5308      0.00000
    595      13.5538      0.00000
    596      13.5686      0.00000
    597      13.6229      0.00000
    598      13.7398      0.00000
    599      13.7530      0.00000
    600      14.2022      0.00000
    601      14.3309      0.00000
    602      14.3683      0.00000
    603      14.3788      0.00000
    604      14.4733      0.00000
    605      14.4793      0.00000
    606      14.4976      0.00000
    607      14.5438      0.00000
    608      14.5762      0.00000
    609      14.5830      0.00000
    610      14.5898      0.00000
    611      14.6023      0.00000
    612      14.6258      0.00000
    613      14.6622      0.00000
    614      14.6725      0.00000
    615      14.7584      0.00000
    616      14.8228      0.00000
    617      14.8589      0.00000
    618      14.8827      0.00000
    619      15.1332      0.00000
    620      15.1813      0.00000
    621      15.2441      0.00000
    622      15.2946      0.00000
    623      15.3414      0.00000
    624      15.3862      0.00000
    625      15.4072      0.00000
    626      15.5684      0.00000
    627      15.6635      0.00000
    628      15.6772      0.00000
    629      15.7126      0.00000
    630      15.8034      0.00000

 k-point     8 :       0.5000    0.5000    0.5000
  band No.  band energies     occupation 
      1     -18.4169      2.00000
      2     -18.3949      2.00000
      3     -18.3867      2.00000
      4     -18.3587      2.00000
      5     -18.3024      2.00000
      6     -18.2416      2.00000
      7     -18.2220      2.00000
      8     -18.0665      2.00000
      9     -17.8635      2.00000
     10     -17.8258      2.00000
     11     -17.8186      2.00000
     12     -17.7430      2.00000
     13     -17.6633      2.00000
     14     -17.6565      2.00000
     15     -17.6359      2.00000
     16     -17.6349      2.00000
     17     -17.6186      2.00000
     18     -17.6056      2.00000
     19     -17.6032      2.00000
     20     -17.5931      2.00000
     21     -17.5737      2.00000
     22     -17.5504      2.00000
     23     -17.5430      2.00000
     24     -17.5178      2.00000
     25     -17.5016      2.00000
     26     -17.4946      2.00000
     27     -17.4735      2.00000
     28     -17.4663      2.00000
     29     -17.4345      2.00000
     30     -17.3804      2.00000
     31     -17.3723      2.00000
     32     -17.3577      2.00000
     33     -17.3242      2.00000
     34     -17.3043      2.00000
     35     -17.2839      2.00000
     36     -17.2729      2.00000
     37     -17.2722      2.00000
     38     -17.2590      2.00000
     39     -17.2518      2.00000
     40     -17.2243      2.00000
     41     -17.2236      2.00000
     42     -17.1837      2.00000
     43     -17.1789      2.00000
     44     -17.1688      2.00000
     45     -17.1610      2.00000
     46     -17.1258      2.00000
     47     -17.0962      2.00000
     48     -17.0911      2.00000
     49     -17.0732      2.00000
     50     -17.0674      2.00000
     51     -17.0517      2.00000
     52     -17.0395      2.00000
     53     -17.0376      2.00000
     54     -17.0238      2.00000
     55     -16.9989      2.00000
     56     -16.9875      2.00000
     57     -16.9839      2.00000
     58     -16.9699      2.00000
     59     -16.9373      2.00000
     60     -16.9324      2.00000
     61     -16.9262      2.00000
     62     -16.9066      2.00000
     63     -16.8978      2.00000
     64     -16.8700      2.00000
     65     -16.8618      2.00000
     66     -16.7846      2.00000
     67     -16.7667      2.00000
     68     -16.7505      2.00000
     69     -16.7397      2.00000
     70     -16.3202      2.00000
     71     -16.2473      2.00000
     72     -13.1760      2.00000
     73     -13.1547      2.00000
     74     -13.1483      2.00000
     75     -13.1330      2.00000
     76     -13.1316      2.00000
     77     -13.1270      2.00000
     78     -13.1243      2.00000
     79     -13.1104      2.00000
     80     -13.1087      2.00000
     81     -13.0922      2.00000
     82     -13.0881      2.00000
     83     -13.0824      2.00000
     84     -13.0762      2.00000
     85     -13.0631      2.00000
     86     -13.0589      2.00000
     87     -13.0565      2.00000
     88     -13.0503      2.00000
     89     -13.0499      2.00000
     90     -13.0469      2.00000
     91     -13.0388      2.00000
     92     -13.0381      2.00000
     93     -13.0302      2.00000
     94     -13.0290      2.00000
     95     -13.0240      2.00000
     96     -13.0223      2.00000
     97     -13.0118      2.00000
     98     -13.0102      2.00000
     99     -13.0066      2.00000
    100     -13.0050      2.00000
    101     -13.0015      2.00000
    102     -12.9955      2.00000
    103     -12.9908      2.00000
    104     -12.9904      2.00000
    105     -12.9847      2.00000
    106     -12.9828      2.00000
    107     -12.9802      2.00000
    108     -12.9771      2.00000
    109     -12.9734      2.00000
    110     -12.9715      2.00000
    111     -12.9662      2.00000
    112     -12.9654      2.00000
    113     -12.9640      2.00000
    114     -12.9624      2.00000
    115     -12.9574      2.00000
    116     -12.9549      2.00000
    117     -12.9501      2.00000
    118     -12.9499      2.00000
    119     -12.9475      2.00000
    120     -12.9412      2.00000
    121     -12.9363      2.00000
    122     -12.9319      2.00000
    123     -12.9287      2.00000
    124     -12.9235      2.00000
    125     -12.9205      2.00000
    126     -12.9159      2.00000
    127     -12.9146      2.00000
    128     -12.9136      2.00000
    129     -12.9040      2.00000
    130     -12.9013      2.00000
    131     -12.8988      2.00000
    132     -12.8962      2.00000
    133     -12.8950      2.00000
    134     -12.8898      2.00000
    135     -12.8879      2.00000
    136     -12.8842      2.00000
    137     -12.8803      2.00000
    138     -12.8768      2.00000
    139     -12.8761      2.00000
    140     -12.8734      2.00000
    141     -12.8706      2.00000
    142     -12.8674      2.00000
    143     -12.8667      2.00000
    144     -12.8649      2.00000
    145     -12.8618      2.00000
    146     -12.8607      2.00000
    147     -12.8578      2.00000
    148     -12.8561      2.00000
    149     -12.8517      2.00000
    150     -12.8511      2.00000
    151     -12.8503      2.00000
    152     -12.8492      2.00000
    153     -12.8474      2.00000
    154     -12.8419      2.00000
    155     -12.8409      2.00000
    156     -12.8359      2.00000
    157     -12.8353      2.00000
    158     -12.8328      2.00000
    159     -12.8316      2.00000
    160     -12.8258      2.00000
    161     -12.8243      2.00000
    162     -12.8238      2.00000
    163     -12.8151      2.00000
    164     -12.8141      2.00000
    165     -12.8128      2.00000
    166     -12.8124      2.00000
    167     -12.8086      2.00000
    168     -12.7982      2.00000
    169     -12.7942      2.00000
    170     -12.7916      2.00000
    171     -12.7880      2.00000
    172     -12.7877      2.00000
    173     -12.7853      2.00000
    174     -12.7832      2.00000
    175     -12.7805      2.00000
    176     -12.7797      2.00000
    177     -12.7758      2.00000
    178     -12.7698      2.00000
    179     -12.7619      2.00000
    180     -12.7610      2.00000
    181     -12.7591      2.00000
    182     -12.7520      2.00000
    183     -12.7499      2.00000
    184     -12.7425      2.00000
    185     -12.7405      2.00000
    186     -12.7348      2.00000
    187     -12.7329      2.00000
    188     -12.7303      2.00000
    189     -12.7291      2.00000
    190     -12.7261      2.00000
    191     -12.7259      2.00000
    192     -12.7247      2.00000
    193     -12.7237      2.00000
    194     -12.7210      2.00000
    195     -12.7162      2.00000
    196     -12.7134      2.00000
    197     -12.7087      2.00000
    198     -12.7082      2.00000
    199     -12.7082      2.00000
    200     -12.7033      2.00000
    201     -12.7029      2.00000
    202     -12.6993      2.00000
    203     -12.6962      2.00000
    204     -12.6950      2.00000
    205     -12.6921      2.00000
    206     -12.6889      2.00000
    207     -12.6877      2.00000
    208     -12.6839      2.00000
    209     -12.6777      2.00000
    210     -12.6762      2.00000
    211     -12.6742      2.00000
    212     -12.6721      2.00000
    213     -12.6704      2.00000
    214     -12.6682      2.00000
    215     -12.6661      2.00000
    216     -12.6624      2.00000
    217     -12.6619      2.00000
    218     -12.6552      2.00000
    219     -12.6539      2.00000
    220     -12.6511      2.00000
    221     -12.6478      2.00000
    222     -12.6461      2.00000
    223     -12.6429      2.00000
    224     -12.6421      2.00000
    225     -12.6348      2.00000
    226     -12.6337      2.00000
    227     -12.6285      2.00000
    228     -12.6269      2.00000
    229     -12.6238      2.00000
    230     -12.6228      2.00000
    231     -12.6218      2.00000
    232     -12.6172      2.00000
    233     -12.6167      2.00000
    234     -12.6139      2.00000
    235     -12.6085      2.00000
    236     -12.6020      2.00000
    237     -12.5992      2.00000
    238     -12.5925      2.00000
    239     -12.5886      2.00000
    240     -12.5848      2.00000
    241     -12.5823      2.00000
    242     -12.5778      2.00000
    243     -12.5747      2.00000
    244     -12.5643      2.00000
    245     -12.5532      2.00000
    246     -12.5521      2.00000
    247     -12.5452      2.00000
    248     -12.5214      2.00000
    249     -12.5211      2.00000
    250     -12.4925      2.00000
    251     -12.4916      2.00000
    252     -12.4914      2.00000
    253     -12.4794      2.00000
    254     -12.4751      2.00000
    255     -12.4575      2.00000
    256     -12.4476      2.00000
    257     -12.4406      2.00000
    258     -12.4304      2.00000
    259     -12.4283      2.00000
    260     -12.4113      2.00000
    261     -12.4098      2.00000
    262     -12.3891      2.00000
    263     -12.3819      2.00000
    264     -12.3778      2.00000
    265     -12.3772      2.00000
    266     -12.3570      2.00000
    267     -12.3236      2.00000
    268     -12.2962      2.00000
    269     -12.2913      2.00000
    270     -12.2740      2.00000
    271     -12.2603      2.00000
    272     -12.2451      2.00000
    273     -12.2323      2.00000
    274     -12.2265      2.00000
    275     -12.2180      2.00000
    276     -12.2132      2.00000
    277     -12.2001      2.00000
    278     -12.1983      2.00000
    279     -12.1810      2.00000
    280     -12.1651      2.00000
    281     -12.1528      2.00000
    282     -12.1360      2.00000
    283     -12.1056      2.00000
    284     -12.0851      2.00000
    285     -12.0624      2.00000
    286     -12.0575      2.00000
    287     -12.0340      2.00000
    288     -12.0051      2.00000
    289     -11.9800      2.00000
    290     -11.9710      2.00000
    291     -11.9671      2.00000
    292     -11.9401      2.00000
    293     -11.9355      2.00000
    294     -11.9124      2.00000
    295     -11.8809      2.00000
    296     -11.8676      2.00000
    297     -11.8546      2.00000
    298     -11.8513      2.00000
    299     -11.8331      2.00000
    300     -11.7977      2.00000
    301     -11.7944      2.00000
    302     -11.7937      2.00000
    303     -11.7769      2.00000
    304     -11.7145      2.00000
    305     -11.6678      2.00000
    306     -11.6585      2.00000
    307     -10.0476      2.00000
    308      -4.8924      2.00000
    309      -4.8889      2.00000
    310      -4.8537      2.00000
    311      -4.8222      2.00000
    312      -4.8162      2.00000
    313      -4.7877      2.00000
    314      -4.7796      2.00000
    315      -4.7195      2.00000
    316      -4.5102      2.00000
    317      -4.5004      2.00000
    318      -4.4616      2.00000
    319      -4.4579      2.00000
    320      -4.4409      2.00000
    321      -4.4326      2.00000
    322      -4.2642      2.00000
    323      -4.2440      2.00000
    324      -4.2040      2.00000
    325      -4.1535      2.00000
    326      -4.0602      2.00000
    327      -4.0149      2.00000
    328      -3.8739      2.00000
    329      -3.8438      2.00000
    330      -3.8283      2.00000
    331      -3.8228      2.00000
    332      -3.7868      2.00000
    333      -3.7810      2.00000
    334      -3.7784      2.00000
    335      -3.7755      2.00000
    336      -3.7403      2.00000
    337      -3.6566      2.00000
    338      -3.6314      2.00000
    339      -3.5176      2.00000
    340      -3.4975      2.00000
    341      -3.4914      2.00000
    342      -3.4469      2.00000
    343      -3.3334      2.00000
    344      -3.2613      2.00000
    345      -3.2017      2.00000
    346      -3.1761      2.00000
    347      -2.9926      2.00000
    348      -2.9668      2.00000
    349      -2.8693      2.00000
    350      -2.8033      2.00000
    351      -2.6080      2.00000
    352      -2.6039      2.00000
    353      -2.5507      2.00000
    354      -2.4299      2.00000
    355      -2.4227      2.00000
    356      -2.3582      2.00000
    357      -2.3318      2.00000
    358      -2.2581      2.00000
    359      -2.2305      2.00000
    360      -2.0309      2.00000
    361      -2.0177      2.00000
    362      -1.9747      2.00000
    363      -1.9637      2.00000
    364      -1.9083      2.00000
    365      -1.8828      2.00000
    366      -1.8814      2.00000
    367      -1.8627      2.00000
    368      -1.8605      2.00000
    369      -1.8518      2.00000
    370      -1.8333      2.00000
    371      -1.7475      2.00000
    372      -1.6974      2.00000
    373      -1.6803      2.00000
    374      -1.6522      2.00000
    375      -1.6471      2.00000
    376      -1.6374      2.00000
    377      -1.5917      2.00000
    378      -1.5504      2.00000
    379      -1.5352      2.00000
    380      -1.5267      2.00000
    381      -1.5049      2.00000
    382      -1.4469      2.00000
    383      -1.4282      2.00000
    384      -1.4183      2.00000
    385      -1.3793      2.00000
    386      -1.3117      2.00000
    387      -1.3061      2.00000
    388      -1.2998      2.00000
    389      -1.2652      2.00000
    390      -1.2449      2.00000
    391      -1.1141      2.00000
    392      -1.0764      2.00000
    393      -1.0700      2.00000
    394      -1.0272      2.00000
    395      -0.9289      2.00000
    396      -0.8961      2.00000
    397      -0.8773      2.00000
    398      -0.8536      2.00000
    399      -0.8406      2.00000
    400      -0.8366      2.00000
    401      -0.8240      2.00000
    402      -0.8117      2.00000
    403      -0.7814      2.00000
    404      -0.7737      2.00000
    405      -0.7341      2.00000
    406      -0.7302      2.00000
    407      -0.7137      2.00000
    408      -0.6907      2.00000
    409      -0.6529      2.00000
    410      -0.6409      2.00000
    411      -0.6170      2.00000
    412      -0.6037      2.00000
    413      -0.5713      2.00000
    414      -0.5250      2.00000
    415      -0.4823      2.00000
    416      -0.4646      2.00000
    417      -0.4277      2.00000
    418      -0.4251      2.00000
    419      -0.3470      2.00000
    420      -0.3221      2.00000
    421      -0.2930      2.00000
    422      -0.2666      2.00000
    423      -0.2330      2.00000
    424      -0.2271      2.00000
    425      -0.1979      2.00000
    426      -0.1287      2.00000
    427      -0.1019      2.00000
    428      -0.0967      2.00000
    429      -0.0281      2.00000
    430      -0.0104      2.00000
    431       0.0150      2.00000
    432       0.0240      2.00000
    433       0.0307      2.00000
    434       0.0641      2.00000
    435       0.0708      2.00000
    436       0.0819      2.00000
    437       0.0931      2.00000
    438       0.1783      2.00000
    439       0.2106      2.00000
    440       0.2192      2.00000
    441       0.2540      2.00000
    442       0.3515      2.00000
    443       0.3663      2.00000
    444       0.3940      2.00000
    445       0.4383      2.00000
    446       0.4464      2.00000
    447       0.4594      2.00000
    448       0.4696      2.00000
    449       0.4759      2.00000
    450       0.4997      2.00000
    451       0.5249      2.00000
    452       0.5268      2.00000
    453       0.5597      2.00000
    454       0.6095      2.00000
    455       0.6286      2.00000
    456       0.6448      2.00000
    457       0.6473      2.00000
    458       0.6543      2.00000
    459       0.6976      2.00000
    460       0.7280      2.00000
    461       0.7607      2.00000
    462       0.7681      2.00000
    463       0.8098      2.00000
    464       0.8187      2.00000
    465       0.8263      2.00000
    466       0.8348      2.00000
    467       0.8956      2.00000
    468       0.9014      2.00000
    469       0.9165      2.00000
    470       0.9748      2.00000
    471       0.9862      2.00000
    472       0.9937      2.00000
    473       1.0265      2.00000
    474       1.0384      2.00000
    475       1.0609      2.00000
    476       1.0714      2.00000
    477       1.0767      2.00000
    478       1.0801      2.00000
    479       1.1341      2.00000
    480       1.1356      2.00000
    481       1.1384      2.00000
    482       1.1451      2.00000
    483       1.1520      2.00000
    484       1.1622      2.00000
    485       1.1844      2.00000
    486       1.1945      2.00000
    487       1.2244      2.00000
    488       1.2471      2.00000
    489       1.2476      2.00000
    490       1.2519      2.00000
    491       1.2599      2.00000
    492       1.3130      2.00000
    493       1.3306      2.00000
    494       1.3375      2.00000
    495       1.3513      2.00000
    496       1.3709      2.00000
    497       1.3854      2.00000
    498       1.4147      2.00000
    499       1.4484      2.00000
    500       1.4519      2.00000
    501       1.4695      2.00000
    502       1.4717      2.00000
    503       1.4981      2.00000
    504       1.5107      2.00000
    505       1.5411      2.00000
    506       1.5512      2.00000
    507       1.5534      2.00000
    508       1.5689      2.00000
    509       1.5999      2.00000
    510       1.6133      2.00000
    511       1.6197      2.00000
    512       1.6434      2.00000
    513       1.7573      2.00000
    514       1.7852      2.00000
    515       1.8438      2.00000
    516       1.8522      2.00000
    517       1.8713      2.00000
    518       1.8808      2.00000
    519       1.9301      2.00000
    520       1.9670      2.00000
    521       2.1286      2.00000
    522       2.2457      2.00000
    523       3.1626      2.00000
    524       3.3548      2.00000
    525       3.8062      2.00000
    526       5.9816      0.90928
    527       8.7394      0.00000
    528       8.8422      0.00000
    529       8.8495      0.00000
    530       8.9103      0.00000
    531       9.1594      0.00000
    532       9.2615      0.00000
    533       9.2699      0.00000
    534       9.4653      0.00000
    535       9.8043      0.00000
    536       9.8353      0.00000
    537      10.4736      0.00000
    538      10.4937      0.00000
    539      10.5440      0.00000
    540      10.6470      0.00000
    541      10.6796      0.00000
    542      10.6910      0.00000
    543      10.6997      0.00000
    544      10.7993      0.00000
    545      10.8429      0.00000
    546      10.8684      0.00000
    547      10.9048      0.00000
    548      11.0697      0.00000
    549      11.0996      0.00000
    550      11.1018      0.00000
    551      11.2368      0.00000
    552      11.4349      0.00000
    553      11.6659      0.00000
    554      11.6809      0.00000
    555      11.7230      0.00000
    556      11.7480      0.00000
    557      11.7862      0.00000
    558      11.8187      0.00000
    559      11.8346      0.00000
    560      11.8548      0.00000
    561      11.8812      0.00000
    562      11.9337      0.00000
    563      11.9637      0.00000
    564      12.0408      0.00000
    565      12.1383      0.00000
    566      12.2048      0.00000
    567      12.2066      0.00000
    568      12.2188      0.00000
    569      12.2378      0.00000
    570      12.2752      0.00000
    571      12.3089      0.00000
    572      12.3293      0.00000
    573      12.3313      0.00000
    574      12.3777      0.00000
    575      12.3952      0.00000
    576      12.4244      0.00000
    577      12.4295      0.00000
    578      12.4459      0.00000
    579      12.4557      0.00000
    580      12.4631      0.00000
    581      12.4749      0.00000
    582      12.5852      0.00000
    583      12.8220      0.00000
    584      13.0490      0.00000
    585      13.1222      0.00000
    586      13.1897      0.00000
    587      13.2102      0.00000
    588      13.2383      0.00000
    589      13.2472      0.00000
    590      13.2888      0.00000
    591      13.3142      0.00000
    592      13.3291      0.00000
    593      13.3816      0.00000
    594      13.4085      0.00000
    595      13.4714      0.00000
    596      13.7004      0.00000
    597      13.7355      0.00000
    598      13.8309      0.00000
    599      13.8711      0.00000
    600      13.9586      0.00000
    601      13.9881      0.00000
    602      14.0084      0.00000
    603      14.1329      0.00000
    604      14.1989      0.00000
    605      14.3600      0.00000
    606      14.4134      0.00000
    607      14.4207      0.00000
    608      14.4250      0.00000
    609      14.4348      0.00000
    610      14.4958      0.00000
    611      14.4997      0.00000
    612      14.6922      0.00000
    613      14.7064      0.00000
    614      14.7092      0.00000
    615      14.8041      0.00000
    616      15.0246      0.00000
    617      15.0546      0.00000
    618      15.0617      0.00000
    619      15.1828      0.00000
    620      15.2152      0.00000
    621      15.2799      0.00000
    622      15.3319      0.00000
    623      15.4014      0.00000
    624      15.5102      0.00000
    625      15.5648      0.00000
    626      15.5716      0.00000
    627      15.6298      0.00000
    628      15.6329      0.00000
    629      15.6424      0.00000
    630      15.8407      0.00000


--------------------------------------------------------------------------------------------------------


 soft charge-density along one line, spin component            1
         0         1         2         3         4         5         6         7         8         9
 total charge-density along one line
 
 pseudopotential strength for first ion, spin component:            1
 -8.909  -0.002   0.000  -0.005   0.000  -1.286   0.001  -0.000
 -0.002  -8.936  -0.003  -0.000   0.003   0.001  -1.269   0.003
  0.000  -0.003  -8.941  -0.001  -0.005  -0.000   0.003  -1.267
 -0.005  -0.000  -0.001  -8.931  -0.002   0.005   0.000   0.001
  0.000   0.003  -0.005  -0.002  -8.913  -0.000   0.001   0.006
 -1.286   0.001  -0.000   0.005  -0.000   5.892  -0.001   0.000
  0.001  -1.269   0.003   0.000   0.001  -0.001   5.882  -0.003
 -0.000   0.003  -1.267   0.001   0.006   0.000  -0.003   5.882
  0.005   0.000   0.001  -1.265   0.001  -0.005  -0.000  -0.000
 -0.000   0.001   0.006   0.001  -1.278   0.000  -0.003  -0.006
 -0.000  -0.000  -0.001  -0.000   0.001   0.000  -0.000   0.002
  0.000  -0.000   0.003   0.001  -0.001  -0.000   0.000  -0.001
 -0.001  -0.004   0.001   0.000   0.001   0.000   0.001  -0.000
  0.000   0.001  -0.005  -0.000   0.001  -0.000  -0.000   0.002
  0.001   0.000   0.000  -0.002  -0.001  -0.001  -0.000  -0.000
  0.001   0.004  -0.002  -0.000  -0.005   0.001   0.002   0.001
 -0.000  -0.002   0.007  -0.000  -0.003   0.000   0.002   0.001
 -0.004  -0.000  -0.001  -0.002   0.000   0.003   0.000   0.000
 total augmentation occupancy for first ion, spin component:            1
  1.992   0.000  -0.000   0.000   0.000  -0.005   0.000  -0.000   0.006  -0.000   0.000  -0.000  -0.000   0.000   0.004   0.000
  0.000   1.991   0.000   0.000   0.002   0.000  -0.003   0.004   0.000   0.012  -0.001  -0.001   0.001   0.004   0.000   0.001
 -0.000   0.000   1.992  -0.000   0.001  -0.000   0.004  -0.004  -0.000   0.009   0.000  -0.001   0.004  -0.000   0.000   0.001
  0.000   0.000  -0.000   1.995  -0.000   0.006   0.000  -0.000   0.021  -0.000   0.000  -0.000   0.000   0.001   0.011   0.000
  0.000   0.002   0.001  -0.000   1.995  -0.000   0.012   0.009  -0.000   0.018   0.001   0.000   0.007   0.005   0.000   0.001
 -0.005   0.000  -0.000   0.006  -0.000   0.052   0.000  -0.000   0.036  -0.000  -0.000   0.000  -0.000   0.002   0.039  -0.000
  0.000  -0.003   0.004   0.000   0.012   0.000   0.068   0.021  -0.000   0.059  -0.012  -0.001   0.002   0.031   0.002   0.000
 -0.000   0.004  -0.004  -0.000   0.009  -0.000   0.021   0.057  -0.001   0.052  -0.022  -0.002   0.030  -0.010   0.003   0.001
  0.006   0.000  -0.000   0.021  -0.000   0.036  -0.000  -0.001   0.195  -0.001  -0.003  -0.000   0.002   0.007   0.072   0.000
 -0.000   0.012   0.009  -0.000   0.018  -0.000   0.059   0.052  -0.001   0.171   0.011   0.001   0.056   0.039   0.002   0.002
  0.000  -0.001   0.000   0.000   0.001  -0.000  -0.012  -0.022  -0.003   0.011   0.997   0.054  -0.002   0.053   0.006  -0.000
 -0.000  -0.001  -0.001  -0.000   0.000   0.000  -0.001  -0.002  -0.000   0.001   0.054   0.004  -0.000   0.002   0.000  -0.000
 -0.000   0.001   0.004   0.000   0.007  -0.000   0.002   0.030   0.002   0.056  -0.002  -0.000   0.818  -0.018  -0.000   0.027
  0.000   0.004  -0.000   0.001   0.005   0.002   0.031  -0.010   0.007   0.039   0.053   0.002  -0.018   0.761  -0.005  -0.001
  0.004   0.000   0.000   0.011   0.000   0.039   0.002   0.003   0.072   0.002   0.006   0.000  -0.000  -0.005   0.849  -0.000
  0.000   0.001   0.001   0.000   0.001  -0.000   0.000   0.001   0.000   0.002  -0.000  -0.000   0.027  -0.001  -0.000   0.001
  0.000   0.001   0.000   0.000   0.001   0.000   0.001  -0.000   0.000   0.001   0.002   0.000  -0.001   0.024  -0.000  -0.000
  0.001   0.000   0.000   0.002   0.000   0.001   0.000   0.000   0.002   0.000   0.000   0.000  -0.000  -0.000   0.028   0.000


------------------------ aborting loop because EDIFF is reached ----------------------------------------


    FORLOC:  cpu time      0.0140: real time      0.0140
    FORHF :  cpu time    600.0898: real time    599.9817
    FORNL :  cpu time      1.0218: real time      1.0216
    STRESS:  cpu time      3.1241: real time      3.1234
    FORCOR:  cpu time      1.4398: real time      1.4396
    OFIELD:  cpu time      0.0021: real time      0.0021

  FORCE on cell =-STRESS in cart. coord.  units (eV):
  Direction    XX          YY          ZZ          XY          YZ          ZX
  --------------------------------------------------------------------------------------
  Alpha Z  5490.26774  5490.26774  5490.26774
  Ewald  -24897.20250-31968.58198-31020.79723     0.00728 -1676.85726    -0.00902
  Hartree 13890.35684  9472.96721 10110.74697     0.00158 -1134.81120    -0.00399
  E(xc)   -4072.77419 -4075.95724 -4074.84784     0.00002    -0.40652     0.00000
  Local   -5813.68632  5519.36652  3907.45085    -0.00852  2778.38064     0.01290
  n-local  5871.05235  5810.09087  5829.94099    -0.00004    -8.05245    -0.00060
  augment  5435.42077  5457.17707  5464.61044    -0.00009     5.72479    -0.00004
  Kinetic 12420.84904 12620.49667 12614.53744    -0.00044    36.70186     0.00031
  Fock    -8354.82218 -8354.26412 -8350.66005     0.00002     0.25525    -0.00000
  -------------------------------------------------------------------------------------
  Total     -30.53846   -28.43726   -28.75068    -0.00020     0.93510    -0.00045
  in kB     -38.56229   -35.90901   -36.30478    -0.00025     1.18079    -0.00056
  external pressure =      -36.93 kB  Pullay stress =        0.00 kB


 VOLUME and BASIS-vectors are now :
 -----------------------------------------------------------------------------
  energy-cutoff  :      450.00
  volume of cell :     1268.81
      direct lattice vectors                 reciprocal lattice vectors
     0.000000000 12.280473709  0.000000000     0.000000000  0.081430084 -0.019947422
     9.142701149  0.000000000  0.000000000     0.109376866 -0.000000000  0.000000000
     0.000000000 -2.768261641-11.300697481     0.000000000  0.000000000 -0.088490113

  length of vectors
    12.280473709  9.142701149 11.634819984     0.083837689  0.109376866  0.088490113


 FORCES acting on ions:
    Electron-Ion                     Ewald-Force                    Non-Local-Force
 -----------------------------------------------------------------------------------------------
   -.435E+01 0.584E+02 -.769E+02   0.499E+01 -.583E+02 0.805E+02   -.555E+00 -.260E-01 -.352E+01
   -.603E+01 0.567E+02 -.948E+02   0.683E+01 -.564E+02 0.100E+03   -.690E+00 -.238E+00 -.517E+01
   -.530E-02 0.684E+02 -.621E+02   0.539E-02 -.685E+02 0.658E+02   -.745E-04 0.400E-01 -.354E+01
   0.797E-02 0.563E+02 -.113E+03   -.748E-02 -.563E+02 0.119E+03   -.410E-03 0.233E-02 -.551E+01
   0.435E+01 0.584E+02 -.769E+02   -.500E+01 -.583E+02 0.805E+02   0.555E+00 -.261E-01 -.352E+01
   0.603E+01 0.567E+02 -.948E+02   -.683E+01 -.564E+02 0.100E+03   0.690E+00 -.237E+00 -.517E+01
   -.763E+01 -.271E+02 0.871E+02   0.778E+01 0.259E+02 -.916E+02   -.123E+00 0.937E+00 0.428E+01
   -.361E+01 -.385E+02 0.800E+02   0.361E+01 0.377E+02 -.841E+02   0.518E-03 0.693E+00 0.391E+01
   0.763E+01 -.270E+02 0.871E+02   -.778E+01 0.259E+02 -.916E+02   0.123E+00 0.936E+00 0.428E+01
   0.361E+01 -.386E+02 0.800E+02   -.362E+01 0.377E+02 -.841E+02   -.535E-03 0.694E+00 0.391E+01
   0.451E-02 -.326E+02 0.819E+02   -.451E-02 0.321E+02 -.863E+02   -.437E-04 0.269E+00 0.421E+01
   0.404E-02 -.385E+02 0.808E+02   -.352E-02 0.378E+02 -.850E+02   -.558E-03 0.564E+00 0.392E+01
   -.633E+02 -.591E+00 0.141E+02   0.714E+02 -.878E+01 -.138E+02   -.745E+01 0.864E+01 -.353E+00
   -.237E+01 -.380E+02 0.244E+02   0.254E+01 0.358E+02 -.261E+02   -.129E+00 0.195E+01 0.160E+01
   0.633E+02 -.595E+00 0.141E+02   -.714E+02 -.878E+01 -.137E+02   0.745E+01 0.864E+01 -.353E+00
   0.238E+01 -.380E+02 0.244E+02   -.254E+01 0.358E+02 -.261E+02   0.129E+00 0.195E+01 0.160E+01
   -.176E-02 -.472E+02 0.298E+02   0.119E-02 0.428E+02 -.309E+02   0.500E-03 0.383E+01 0.111E+01
   -.286E-02 -.405E+02 0.273E+02   0.273E-02 0.383E+02 -.288E+02   -.141E-04 0.196E+01 0.151E+01
   -.434E+01 0.447E+02 -.248E+02   0.446E+01 -.424E+02 0.262E+02   -.951E-01 -.201E+01 -.133E+01
   -.515E+01 0.534E+02 -.366E+02   0.519E+01 -.513E+02 0.385E+02   -.311E-01 -.183E+01 -.179E+01
   -.302E-02 0.426E+02 -.199E+02   0.318E-02 -.400E+02 0.212E+02   0.190E-04 -.220E+01 -.134E+01
   0.411E-02 0.530E+02 -.404E+02   -.362E-02 -.511E+02 0.424E+02   -.469E-03 -.167E+01 -.190E+01
   0.434E+01 0.447E+02 -.248E+02   -.446E+01 -.424E+02 0.262E+02   0.955E-01 -.201E+01 -.133E+01
   0.514E+01 0.534E+02 -.366E+02   -.519E+01 -.513E+02 0.385E+02   0.313E-01 -.183E+01 -.179E+01
   -.223E+02 0.811E+01 -.489E+02   0.236E+02 -.607E+01 0.510E+02   -.108E+01 -.156E+01 -.224E+01
   -.388E+01 0.288E+02 -.914E+02   0.416E+01 -.277E+02 0.962E+02   -.237E+00 -.852E+00 -.447E+01
   0.223E+02 0.812E+01 -.489E+02   -.236E+02 -.608E+01 0.510E+02   0.108E+01 -.156E+01 -.224E+01
   0.389E+01 0.288E+02 -.914E+02   -.418E+01 -.277E+02 0.962E+02   0.236E+00 -.852E+00 -.447E+01
   0.302E-02 0.303E+02 -.795E+02   -.303E-02 -.292E+02 0.828E+02   -.428E-04 -.916E+00 -.321E+01
   -.633E-02 0.335E+02 -.853E+02   0.560E-02 -.328E+02 0.900E+02   0.602E-03 -.562E+00 -.440E+01
   -.498E+02 -.491E+02 0.880E+02   0.528E+02 0.490E+02 -.929E+02   -.241E+01 0.192E-01 0.463E+01
   -.507E+01 -.488E+02 0.830E+02   0.531E+01 0.484E+02 -.875E+02   -.189E+00 0.249E+00 0.430E+01
   -.113E-02 -.486E+02 0.824E+02   0.125E-02 0.483E+02 -.869E+02   -.130E-03 0.143E+00 0.423E+01
   0.498E+02 -.491E+02 0.880E+02   -.528E+02 0.490E+02 -.929E+02   0.241E+01 0.191E-01 0.463E+01
   0.507E+01 -.488E+02 0.830E+02   -.531E+01 0.484E+02 -.875E+02   0.189E+00 0.249E+00 0.430E+01
   -.139E+02 -.618E+02 0.296E+02   0.142E+02 0.601E+02 -.306E+02   -.187E+00 0.163E+01 0.101E+01
   -.269E+01 -.536E+02 0.364E+02   0.273E+01 0.518E+02 -.386E+02   -.310E-01 0.165E+01 0.210E+01
   -.850E-02 -.979E+02 0.241E+02   0.848E-02 0.969E+02 -.244E+02   0.117E-04 0.101E+01 0.428E+00
   -.423E-02 -.534E+02 0.397E+02   0.408E-02 0.518E+02 -.423E+02   0.211E-03 0.141E+01 0.239E+01
   0.139E+02 -.618E+02 0.296E+02   -.142E+02 0.601E+02 -.306E+02   0.187E+00 0.163E+01 0.101E+01
   0.269E+01 -.536E+02 0.364E+02   -.274E+01 0.518E+02 -.386E+02   0.305E-01 0.165E+01 0.210E+01
   -.202E+02 0.622E+02 0.885E+01   0.204E+02 -.609E+02 -.864E+01   -.141E+00 -.130E+01 -.461E+00
   -.236E+02 0.398E+02 -.780E+02   0.241E+02 -.381E+02 0.825E+02   -.379E+00 -.156E+01 -.382E+01
   0.202E+02 0.622E+02 0.885E+01   -.204E+02 -.609E+02 -.864E+01   0.140E+00 -.129E+01 -.460E+00
   0.236E+02 0.398E+02 -.780E+02   -.241E+02 -.381E+02 0.825E+02   0.379E+00 -.156E+01 -.382E+01
   0.370E-02 0.468E+02 -.180E+02   -.386E-02 -.450E+02 0.191E+02   0.329E-04 -.166E+01 -.115E+01
   0.631E-02 0.358E+02 -.364E+02   -.660E-02 -.337E+02 0.388E+02   0.171E-03 -.186E+01 -.220E+01
   -.312E+01 -.268E+02 0.179E+02   0.318E+01 0.348E+02 -.216E+02   -.678E-01 -.694E+01 0.318E+01
   -.135E+01 -.186E+02 0.122E+02   0.131E+01 0.260E+02 -.161E+02   0.258E-01 -.644E+01 0.339E+01
   0.312E+01 -.268E+02 0.179E+02   -.318E+01 0.348E+02 -.216E+02   0.683E-01 -.694E+01 0.318E+01
   0.135E+01 -.185E+02 0.122E+02   -.131E+01 0.260E+02 -.161E+02   -.260E-01 -.644E+01 0.339E+01
   0.321E-02 -.219E+02 0.151E+02   -.302E-02 0.295E+02 -.188E+02   -.229E-03 -.664E+01 0.318E+01
   -.372E-02 -.180E+02 0.142E+02   0.356E-02 0.252E+02 -.181E+02   0.204E-03 -.629E+01 0.336E+01
   -.144E+02 0.202E+02 -.137E+02   0.150E+02 -.270E+02 0.173E+02   -.508E+00 0.597E+01 -.310E+01
   -.204E+01 0.187E+02 -.175E+02   0.209E+01 -.259E+02 0.214E+02   -.590E-01 0.625E+01 -.336E+01
   0.888E-03 0.193E+02 -.169E+02   -.833E-03 -.266E+02 0.207E+02   -.113E-03 0.634E+01 -.322E+01
   0.145E+02 0.202E+02 -.137E+02   -.150E+02 -.270E+02 0.173E+02   0.509E+00 0.597E+01 -.310E+01
   0.204E+01 0.187E+02 -.175E+02   -.209E+01 -.259E+02 0.214E+02   0.590E-01 0.625E+01 -.336E+01
   -.686E+01 0.851E+02 0.595E+02   0.696E+01 -.848E+02 -.572E+02   -.143E+00 -.212E+00 -.198E+01
   -.533E+01 0.731E+02 0.272E+02   0.584E+01 -.715E+02 -.220E+02   -.447E+00 -.139E+01 -.456E+01
   0.685E+01 0.851E+02 0.595E+02   -.696E+01 -.848E+02 -.572E+02   0.143E+00 -.211E+00 -.198E+01
   0.533E+01 0.731E+02 0.272E+02   -.584E+01 -.715E+02 -.220E+02   0.446E+00 -.139E+01 -.456E+01
   0.493E-02 0.730E+02 0.405E+02   -.529E-02 -.713E+02 -.360E+02   0.337E-03 -.148E+01 -.394E+01
   -.331E-02 0.712E+02 0.292E+02   0.320E-02 -.693E+02 -.240E+02   0.171E-03 -.158E+01 -.454E+01
   -.433E+01 -.623E+02 -.352E+02   0.459E+01 0.601E+02 0.305E+02   -.239E+00 0.191E+01 0.415E+01
   -.153E+01 -.589E+02 -.424E+02   0.157E+01 0.564E+02 0.381E+02   -.432E-01 0.219E+01 0.375E+01
   -.166E-02 -.637E+02 -.320E+02   0.195E-02 0.619E+02 0.271E+02   -.308E-03 0.161E+01 0.426E+01
   -.125E-03 -.579E+02 -.432E+02   0.300E-03 0.555E+02 0.386E+02   -.199E-03 0.203E+01 0.389E+01
   0.433E+01 -.623E+02 -.352E+02   -.459E+01 0.601E+02 0.305E+02   0.239E+00 0.191E+01 0.415E+01
   0.153E+01 -.589E+02 -.424E+02   -.157E+01 0.564E+02 0.381E+02   0.435E-01 0.219E+01 0.375E+01
   -.424E+01 0.128E+03 0.602E+02   0.418E+01 -.140E+03 -.565E+02   0.418E-01 0.108E+02 -.317E+01
   -.750E+00 0.122E+03 0.633E+02   0.782E+00 -.135E+03 -.599E+02   -.312E-01 0.108E+02 -.296E+01
   0.143E-02 0.133E+03 0.587E+02   -.155E-02 -.146E+03 -.552E+02   0.728E-04 0.111E+02 -.306E+01
   0.672E-03 0.121E+03 0.636E+02   -.389E-03 -.134E+03 -.602E+02   -.296E-03 0.107E+02 -.289E+01
   0.424E+01 0.128E+03 0.602E+02   -.418E+01 -.140E+03 -.565E+02   -.420E-01 0.108E+02 -.317E+01
   0.742E+00 0.122E+03 0.633E+02   -.773E+00 -.135E+03 -.599E+02   0.311E-01 0.108E+02 -.296E+01
   -.270E+01 -.114E+03 -.591E+02   0.295E+01 0.126E+03 0.554E+02   -.223E+00 -.106E+02 0.324E+01
   -.554E+01 -.115E+03 -.884E+02   0.544E+01 0.128E+03 0.878E+02   0.197E-01 -.109E+02 0.417E+00
   0.271E+01 -.114E+03 -.591E+02   -.295E+01 0.126E+03 0.554E+02   0.223E+00 -.106E+02 0.324E+01
   0.554E+01 -.115E+03 -.884E+02   -.544E+01 0.128E+03 0.878E+02   -.196E-01 -.109E+02 0.418E+00
   -.296E-02 -.114E+03 -.596E+02   0.303E-02 0.127E+03 0.557E+02   -.326E-04 -.105E+02 0.340E+01
   -.316E-02 -.117E+03 -.676E+02   0.339E-02 0.130E+03 0.642E+02   -.209E-03 -.109E+02 0.289E+01
   -.587E+01 -.135E+02 0.182E+02   0.613E+01 0.207E+02 -.217E+02   -.255E+00 -.614E+01 0.303E+01
   -.904E+01 -.143E+02 0.105E+02   0.974E+01 0.211E+02 -.144E+02   -.640E+00 -.584E+01 0.332E+01
   -.121E-01 -.675E+01 0.275E+02   0.128E-01 0.140E+02 -.306E+02   -.159E-03 -.622E+01 0.278E+01
   0.126E-02 -.129E+02 0.288E+01   -.124E-02 0.198E+02 -.808E+01   -.659E-04 -.591E+01 0.438E+01
   0.587E+01 -.135E+02 0.182E+02   -.613E+01 0.207E+02 -.217E+02   0.255E+00 -.614E+01 0.303E+01
   0.904E+01 -.143E+02 0.105E+02   -.974E+01 0.211E+02 -.144E+02   0.640E+00 -.584E+01 0.332E+01
   -.954E+01 0.141E+02 -.148E+02   0.104E+02 -.215E+02 0.185E+02   -.754E+00 0.637E+01 -.317E+01
   -.113E+01 0.161E+02 -.121E+02   0.116E+01 -.234E+02 0.159E+02   -.338E-01 0.628E+01 -.324E+01
   0.955E+01 0.141E+02 -.148E+02   -.104E+02 -.215E+02 0.185E+02   0.755E+00 0.637E+01 -.317E+01
   0.112E+01 0.161E+02 -.121E+02   -.116E+01 -.234E+02 0.159E+02   0.340E-01 0.628E+01 -.324E+01
   -.156E-02 0.128E+02 -.136E+02   0.191E-02 -.198E+02 0.172E+02   -.371E-03 0.597E+01 -.309E+01
   0.168E-02 0.165E+02 -.126E+02   -.151E-02 -.239E+02 0.162E+02   -.127E-03 0.633E+01 -.314E+01
   -.115E+02 0.519E+02 0.405E+02   0.116E+02 -.493E+02 -.360E+02   -.179E+00 -.232E+01 -.388E+01
   -.124E+01 0.615E+02 0.396E+02   0.125E+01 -.594E+02 -.350E+02   -.187E-01 -.181E+01 -.399E+01
   -.898E-02 -.169E+02 0.745E+02   0.946E-02 0.223E+02 -.718E+02   -.367E-03 -.495E+01 -.231E+01
   -.189E-02 0.605E+02 0.396E+02   0.214E-02 -.584E+02 -.350E+02   -.218E-03 -.185E+01 -.398E+01
   0.115E+02 0.519E+02 0.405E+02   -.116E+02 -.493E+02 -.360E+02   0.179E+00 -.232E+01 -.388E+01
   0.124E+01 0.615E+02 0.396E+02   -.125E+01 -.594E+02 -.350E+02   0.187E-01 -.181E+01 -.399E+01
   -.549E+02 -.653E+02 0.134E+02   0.559E+02 0.634E+02 -.194E+02   -.114E+01 0.174E+01 0.547E+01
   -.130E+01 -.790E+02 -.446E+02   0.121E+01 0.783E+02 0.405E+02   0.604E-01 0.618E+00 0.352E+01
   0.549E+02 -.653E+02 0.134E+02   -.559E+02 0.633E+02 -.194E+02   0.114E+01 0.174E+01 0.547E+01
   0.130E+01 -.790E+02 -.446E+02   -.121E+01 0.783E+02 0.405E+02   -.600E-01 0.618E+00 0.352E+01
   -.623E-02 -.689E+02 -.271E+02   0.685E-02 0.670E+02 0.215E+02   -.411E-03 0.163E+01 0.485E+01
   0.177E-02 -.726E+02 -.388E+02   -.171E-02 0.710E+02 0.341E+02   -.321E-04 0.134E+01 0.397E+01
   -.787E+02 0.999E+02 0.121E+02   0.825E+02 -.113E+03 -.624E+01   -.364E+01 0.113E+02 -.542E+01
   -.275E+01 0.117E+03 0.714E+02   0.290E+01 -.129E+03 -.684E+02   -.142E+00 0.105E+02 -.250E+01
   0.787E+02 0.999E+02 0.121E+02   -.824E+02 -.113E+03 -.624E+01   0.364E+01 0.113E+02 -.542E+01
   0.275E+01 0.117E+03 0.714E+02   -.290E+01 -.129E+03 -.684E+02   0.142E+00 0.105E+02 -.250E+01
   0.854E-02 0.118E+03 0.552E+02   -.922E-02 -.130E+03 -.510E+02   0.665E-03 0.111E+02 -.361E+01
   0.225E-02 0.118E+03 0.662E+02   -.272E-02 -.131E+03 -.628E+02   0.454E-03 0.106E+02 -.292E+01
   -.672E+01 -.126E+03 -.538E+02   0.711E+01 0.139E+03 0.496E+02   -.371E+00 -.109E+02 0.371E+01
   -.407E+01 -.126E+03 -.678E+02   0.410E+01 0.139E+03 0.647E+02   -.481E-01 -.109E+02 0.266E+01
   0.147E-02 -.132E+03 -.436E+02   -.192E-02 0.145E+03 0.393E+02   0.405E-03 -.111E+02 0.382E+01
   -.333E-02 -.131E+03 -.772E+02   0.352E-02 0.143E+03 0.742E+02   -.197E-03 -.106E+02 0.251E+01
   0.671E+01 -.126E+03 -.538E+02   -.711E+01 0.139E+03 0.496E+02   0.370E+00 -.109E+02 0.371E+01
   0.407E+01 -.126E+03 -.679E+02   -.409E+01 0.139E+03 0.647E+02   0.480E-01 -.109E+02 0.266E+01
   -.112E-02 0.563E+02 -.138E+02   0.117E-02 -.631E+02 0.157E+02   -.679E-04 0.710E+01 -.203E+01
   -.252E-02 -.257E+02 0.583E+02   0.265E-02 0.277E+02 -.608E+02   -.136E-04 -.334E+01 0.278E+01
 -----------------------------------------------------------------------------------------------
   0.451E-02 -.852E+01 0.371E+01   0.123E-12 0.284E-13 0.166E-11   -.344E-02 0.834E+01 -.375E+01
 
 
 POSITION                                       TOTAL-FORCE (eV/Angst)
 -----------------------------------------------------------------------------------
      0.00598      7.65859     -1.78309         0.042688      0.005410     -0.050990
      0.00675      6.27157     -7.40827         0.052990      0.015174      0.104959
      3.04757      7.65956     -1.78951         0.000007     -0.058784     -0.059667
      3.04757      6.28368     -7.38737         0.000036     -0.050754      0.170787
      6.08915      7.65860     -1.78308        -0.042721      0.005348     -0.051007
      6.08840      6.27156     -7.40825        -0.053070      0.015180      0.104835
      1.52487      9.37212     -3.89134         0.013493     -0.103849     -0.008963
      1.52404      7.99079     -9.52672         0.006238     -0.084896      0.011815
      4.57027      9.37212     -3.89134        -0.013449     -0.103875     -0.008890
      4.57110      7.99076     -9.52672        -0.006392     -0.084856      0.011851
      7.61892      9.38763     -3.88024        -0.000060     -0.073596     -0.011508
      7.61891      7.99211     -9.52623        -0.000040     -0.075593      0.010067
      1.55084      6.07655     -4.47065         0.205324     -0.183146      0.034913
      1.52523      4.78265    -10.14509         0.020218     -0.054631      0.024610
      4.54428      6.07656     -4.47068        -0.205179     -0.183128      0.035211
      4.56990      4.78264    -10.14508        -0.020130     -0.054590      0.024567
      7.61893      6.16974     -4.49936        -0.000056     -0.157880      0.040871
      7.61892      4.78253    -10.15046        -0.000118     -0.049556      0.025219
      0.00130     10.87898     -1.15689         0.014124      0.054879     -0.042642
      9.14240      9.50038     -6.81344         0.008143      0.022330      0.005329
      3.04756     10.87472     -1.15946         0.000179      0.070227     -0.057848
      3.04757      9.50656     -6.81136        -0.000025      0.013094      0.018151
      6.09384     10.87898     -1.15687        -0.014319      0.054670     -0.042677
      6.09544      9.50040     -6.81344        -0.008111      0.022322      0.005337
      1.53318      1.52188     -1.78831         0.120975      0.281948     -0.202654
      1.52434      0.14626     -7.42493         0.027153      0.142926      0.064393
      4.56196      1.52186     -1.78828        -0.120935      0.282107     -0.202779
      4.57079      0.14626     -7.42493        -0.027348      0.142773      0.064380
      7.61893      1.52000     -1.77495        -0.000077      0.128598     -0.082099
      7.61891      0.14336     -7.42618        -0.000058      0.107366      0.053619
      0.01176      3.23220     -3.88639         0.330580     -0.077211     -0.076869
      0.00341      1.86357     -9.53374         0.037091     -0.057151     -0.007257
      3.04756      1.86472     -9.53046        -0.000002     -0.046041     -0.009854
      6.08339      3.23224     -3.88636        -0.330637     -0.077337     -0.076956
      6.09171      1.86357     -9.53373        -0.037001     -0.057089     -0.007164
      0.00511      0.01937     -4.49512         0.034314      0.071438      0.038322
      0.00214     -1.36236    -10.15048         0.006182      0.000339     -0.037356
      3.04756      0.05628     -4.48774         0.000002      0.179100      0.120435
      3.04757     -1.36295    -10.14760         0.000062      0.018062     -0.056423
      6.09002      0.01935     -4.49505        -0.034347      0.071408      0.037656
      6.09299     -1.36235    -10.15047        -0.006228      0.000383     -0.037306
      1.52878      4.72941     -1.17762         0.044353     -0.115212     -0.230171
      1.53836      3.34968     -6.76032         0.051867     -0.020162      0.325267
      4.56635      4.72941     -1.17761        -0.044596     -0.114968     -0.230007
      4.55677      3.34968     -6.76031        -0.051776     -0.020103      0.325279
      7.61892      4.73599     -1.16562        -0.000123      0.003900     -0.091217
      7.61892      3.35279     -6.79953        -0.000100      0.041348      0.074869
      1.52525     11.88354     -1.43067        -0.023831     -0.254717      0.149699
      1.52212     10.50690     -7.10043        -0.007711     -0.201281      0.114931
      4.56988     11.88353     -1.43065         0.023928     -0.254608      0.149638
      4.57301     10.50690     -7.10044         0.007618     -0.201441      0.114926
      7.61892     11.88350     -1.42984        -0.000092     -0.229970      0.134933
      7.61892     10.50655     -7.10130         0.000082     -0.199155      0.114114
      9.11336      5.14297     -4.21530        -0.086541      0.229917     -0.119904
      9.14262      3.77812     -9.86429        -0.015329      0.195249     -0.130225
      3.04757      3.77610     -9.86754        -0.000090      0.205461     -0.129045
      6.12447      5.14299     -4.21536         0.086552      0.229881     -0.119605
      6.09521      3.77811     -9.86429         0.015416      0.195409     -0.130242
      1.51362      7.48285     -3.17967        -0.056902      0.123523      0.012426
      1.52368      6.10324     -8.81546        -0.025662     -0.001917     -0.172352
      4.58150      7.48284     -3.17967         0.056970      0.123640      0.012468
      4.57145      6.10323     -8.81544         0.025616     -0.001835     -0.172449
      7.61892      7.49464     -3.17484         0.000033      0.010903     -0.099296
      7.61892      6.09692     -8.81522         0.000090     -0.014508     -0.161779
      0.00024      9.56179     -2.48583        -0.023152      0.057455      0.138721
      9.14206      8.17379     -8.13425        -0.010716      0.070526      0.087691
      3.04757      9.55550     -2.48800        -0.000091      0.041550      0.143030
      3.04757      8.17358     -8.12827        -0.000068      0.063547      0.094582
      6.09489      9.56179     -2.48584         0.023176      0.057468      0.138791
      6.09579      8.17378     -8.13424         0.010623      0.070597      0.087556
      9.13830      9.00459     -5.04358        -0.010130      0.408104     -0.097926
      9.14188      7.59853    -10.68707        -0.005811      0.399954     -0.066005
      3.04757      8.99531     -5.04653        -0.000033      0.428057     -0.097104
      3.04757      7.59997    -10.68688        -0.000080      0.398688     -0.066755
      6.09955      9.00459     -5.04358         0.010067      0.408152     -0.097984
      6.09592      7.59841    -10.68708         0.006297      0.400814     -0.065927
      1.52537      8.05795     -0.61664        -0.020448     -0.365386      0.106389
      1.51419      6.67302     -6.24621        -0.063522     -0.354043     -0.120070
      4.56976      8.05794     -0.61664         0.020346     -0.365488      0.106276
      4.58095      6.67303     -6.24624         0.063429     -0.354106     -0.119781
      7.61892      8.05162     -0.62237         0.000032     -0.372169      0.106745
      7.61893      6.68098     -6.26975        -0.000019     -0.386190      0.035517
      0.00205      5.74230     -1.43949        -0.047493     -0.118018      0.135906
      0.00693      4.35091     -7.07785        -0.066896     -0.114463      0.066289
      3.04754      5.75169     -1.42607         0.000558     -0.107216      0.187535
      3.04757      4.35973     -7.10769        -0.000064     -0.124324      0.042348
      6.09309      5.74230     -1.43951         0.047361     -0.118095      0.135972
      6.08821      4.35091     -7.07786         0.066965     -0.114474      0.066310
      1.53209     -0.98161     -4.21788        -0.056994      0.121063     -0.122134
      1.52422     -2.37147     -9.86237        -0.009779      0.155527     -0.101098
      4.56303     -0.98161     -4.21786         0.057067      0.121099     -0.122023
      4.57092     -2.37147     -9.86238         0.009778      0.155522     -0.101144
      7.61893     -0.98130     -4.21870        -0.000099      0.130083     -0.110684
      7.61891     -2.36840     -9.86806         0.000020      0.154684     -0.094398
      9.13697      1.32895     -3.16212        -0.061253     -0.126960     -0.090575
      0.00145     -0.03519     -8.82651        -0.009248     -0.061577     -0.124362
      3.04757      1.35199     -3.15052         0.000044     -0.511122      0.003671
      3.04757     -0.03422     -8.82630        -0.000021     -0.070631     -0.126112
      6.10089      1.32898     -3.16212         0.061015     -0.127323     -0.090417
      6.09369     -0.03518     -8.82650         0.009170     -0.061689     -0.124563
      1.52744      3.40418     -2.50033        -0.367946      0.101742      0.582586
      1.52431      2.04100     -8.12513        -0.010838     -0.035589      0.036820
      4.56770      3.40417     -2.50031         0.367747      0.102015      0.582708
      4.57082      2.04099     -8.12511         0.010857     -0.035565      0.036848
      7.61891      3.40510     -2.47896         0.000125      0.036861      0.167102
      7.61891      2.03487     -8.13596         0.000021      0.009969      0.089739
      1.55306      2.80875     -5.00084        -0.627446      0.360857     -0.609957
      1.52460      1.47303    -10.69415        -0.018507      0.400912     -0.006066
      4.54210      2.80881     -5.00081         0.627742      0.361632     -0.609254
      4.57053      1.47306    -10.69412         0.018420      0.400777     -0.006665
      7.61891      2.81577     -5.03800         0.000118      0.419780     -0.100736
      7.61891      1.46974    -10.69024         0.000065      0.396989     -0.049788
      0.00567      1.91557     -0.61739        -0.047533     -0.446131      0.175022
      9.14258      0.52892     -6.26715        -0.031485     -0.455830      0.024586
      3.04757      1.92162     -0.60926         0.000032     -0.454815      0.215607
      3.04757      0.52308     -6.27052        -0.000057     -0.454820     -0.003773
      6.08948      1.91561     -0.61738         0.047382     -0.446364      0.175034
      6.09522      0.52874     -6.26714         0.031953     -0.454708      0.024996
      3.04757      5.01823     -4.18659        -0.000023      1.156972     -0.358838
      3.04757      3.27511     -3.82253         0.000070     -0.554773      0.271093
 -----------------------------------------------------------------------------------
    total drift:                                0.000549      0.104628     -0.065585


--------------------------------------------------------------------------------------------------------



  FREE ENERGIE OF THE ION-ELECTRON SYSTEM (eV)
  ---------------------------------------------------
  free  energy   TOTEN  =      -957.97988674 eV

  energy  without entropy=     -957.95352063  energy(sigma->0) =     -957.96670368
 


--------------------------------------------------------------------------------------------------------


    POTLOK:  cpu time      2.0194: real time      2.0274


--------------------------------------------------------------------------------------------------------


 writing wavefunctions
     LOOP+:  cpu time  10433.5578: real time  10434.1564
    4ORBIT:  cpu time      0.0000: real time      0.0000

 total amount of memory used by VASP MPI-rank0  7491132. kBytes
=======================================================================

   base      :      30000. kBytes
   nonlr-proj:      47113. kBytes
   fftplans  :      51012. kBytes
   grid      :     114966. kBytes
   one-center:       1866. kBytes
   HF        :        259. kBytes
   wavefun   :    7016646. kBytes
   fock_wrk  :     229270. kBytes
 
  
  
 General timing and accounting informations for this job:
 ========================================================
  
                  Total CPU time used (sec):    10463.894
                            User time (sec):    10454.033
                          System time (sec):        9.860
                         Elapsed time (sec):    10468.271
  
                   Maximum memory used (kb):    12876480.
                   Average memory used (kb):          N/A
  
                          Minor page faults:      5218192
                          Major page faults:            3
                 Voluntary context switches:       237700
