       N       E                     dE             d eps       ncg     rms          rms(c)
DAV:   1    -0.470721307953E+00   -0.47072E+00   -0.12283E+03    96   0.408E+02
DAV:   2    -0.270126166101E+01   -0.22305E+01   -0.22118E+01   108   0.280E+01
DAV:   3    -0.271671482068E+01   -0.15453E-01   -0.15334E-01   174   0.318E+00
DAV:   4    -0.271671679960E+01   -0.19789E-05   -0.19788E-05   144   0.343E-02
DAV:   5    -0.271671680502E+01   -0.54180E-08   -0.56258E-08   150   0.102E-03    0.997E-01
RMM:   6    -0.270845895320E+01    0.82579E-02   -0.49040E-04    96   0.272E-01    0.637E-01
RMM:   7    -0.269919538257E+01    0.92636E-02   -0.23283E-03    96   0.513E-01    0.351E-02
RMM:   8    -0.269921343296E+01   -0.18050E-04   -0.93484E-05    87   0.968E-02    0.798E-03
RMM:   9    -0.269921325892E+01    0.17404E-06   -0.66633E-06    58   0.214E-02
   1 F= -.26992133E+01 E0= -.26886347E+01  d E =-.269921E+01
