 vasp.6.4.2 20Jul23 (build Nov 12 2023 22:16:35) complex                         
 executed on              LinuxNV date 2025.05.31  20:22:51
 running    4 mpi-ranks, on    1 nodes
 distrk:  each k-point on    1 cores,    4 groups
 distr:  one band on NCORE=   1 cores,    1 groups
 OpenACC runtime initialized ...    4 GPUs detected


--------------------------------------------------------------------------------------------------------


 INCAR:
   PREC = Normal
   ENCUT = 450
   IBRION = 2
   ISPIN = 1
   NSW = 300
   ISIF = 2
   EDIFF = 1E-5
   EDIFFG = -5E-3
   ALGO = Fast
   ISTART = 0
   ICHARG = 2
   ISMEAR = 0
   SIGMA = 0.05
   LWAVE = .F.
   LCHARG = .F.
   LREAL = Auto
   LPLANE = .TRUE.
   NPAR = 4
   KPAR = 4
   NCORE = 1
   ISYM = 0

 POTCAR:    PAW_PBE Mg 13Apr2007                  
 POTCAR:    PAW_PBE Mg 13Apr2007                  
   SHA256 =  a90315392b5cf46bd986ff2010bfd53a40dec98e36f8d1f6277412e9d0e81a9f Mg/POTCAR             
   COPYR  = (c) Copyright 13Apr2007 Georg Kresse                                                    
   COPYR  = This file is part of the software VASP. Any use, copying, and all other rights are regul
   COPYR  = If you do not have a valid VASP license, you may not use, copy or distribute this file. 
   VRHFIN =Mg: s2p0                                                                                 
   LEXCH  = PE                                                                                      
   EATOM  =    23.0369 eV,    1.6932 Ry                                                             
                                                                                                    
   TITEL  = PAW_PBE Mg 13Apr2007                                                                    
   LULTRA =        F    use ultrasoft PP ?                                                          
   IUNSCR =        1    unscreen: 0-lin 1-nonlin 2-no                                               
   RPACOR =    1.500    partial core radius                                                         
   POMASS =   24.305; ZVAL   =    2.000    mass and valenz                                          
   RCORE  =    2.000    outmost cutoff radius                                                       
   RWIGS  =    2.880; RWIGS  =    1.524    wigner-seitz radius (au A)                               
   ENMAX  =  200.000; ENMIN  =  100.000 eV                                                          
   RCLOC  =    1.506    cutoff for local pot                                                        
   LCOR   =        T    correct aug charges                                                         
   LPAW   =        T    paw PP                                                                      
   EAUG   =  454.734                                                                                
   DEXC   =    0.000                                                                                
   RMAX   =    2.045    core radius for proj-oper                                                   
   RAUG   =    1.300    factor for augmentation sphere                                              
   RDEP   =    2.025    radius for radial grids                                                     
   RDEPT  =    1.942    core radius for aug-charge                                                  
                                                                                                    
   Atomic configuration                                                                             
    6 entries                                                                                       
     n  l   j            E        occ.                                                              
     1  0  0.50     -1259.6230   2.0000                                                             
     2  0  0.50       -79.8442   2.0000                                                             
     2  1  1.50       -46.6121   6.0000                                                             
     3  0  0.50        -4.7055   2.0000                                                             
     3  1  0.50        -1.3660   0.0000                                                             
     3  2  1.50        -1.3606   0.0000                                                             
   Description                                                                                      
     l       E           TYP  RCUT    TYP  RCUT                                                     
     0     -4.7054661     23  2.000                                                                 
     0     27.2116520     23  2.000                                                                 
     1      1.3605826     23  2.000                                                                 
     1     27.2116520     23  2.000                                                                 
     2     -1.3605826     23  2.000                                                                 
  local pseudopotential read in
  partial core-charges read in
  partial kinetic energy density read in
  atomic valenz-charges read in
  non local Contribution for L=            0  read in
    real space projection operators read in
  non local Contribution for L=            0  read in
    real space projection operators read in
  non local Contribution for L=            1  read in
    real space projection operators read in
  non local Contribution for L=            1  read in
    real space projection operators read in
  non local Contribution for L=            2  read in
    real space projection operators read in
    PAW grid and wavefunctions read in
 
   number of l-projection  operators is LMAX  =            5
   number of lm-projection operators is LMMAX =           13
 
 -----------------------------------------------------------------------------
|                                                                             |
|               ----> ADVICE to this user running VASP <----                  |
|                                                                             |
|     You have a (more or less) 'small supercell' and for smaller cells       |
|     it is recommended to use the reciprocal-space projection scheme!        |
|     The real-space optimization is not efficient for small cells and it     |
|     is also less accurate ...                                               |
|     Therefore, set LREAL=.FALSE. in the INCAR file.                         |
|                                                                             |
 -----------------------------------------------------------------------------

 Optimization of the real space projectors (new method)

 maximal supplied QI-value         = 18.90
 optimisation between [QCUT,QGAM] = [ 10.77, 21.73] = [ 32.49,132.25] Ry 
 Optimized for a Real-space Cutoff    1.26 Angstroem

   l    n(q)    QCUT    max X(q) W(low)/X(q) W(high)/X(q)  e(spline) 
   0      8    10.771    28.265    0.12E-03    0.25E-03    0.47E-07
   0      8    10.771    10.429    0.91E-04    0.19E-03    0.38E-07
   1      8    10.771    13.073    0.49E-03    0.23E-04    0.81E-07
   1      8    10.771     9.625    0.41E-03    0.20E-04    0.67E-07
   2      7    10.771     4.652    0.11E-03    0.20E-03    0.42E-07
  PAW_PBE Mg 13Apr2007                  :
 energy of atom  1       EATOM=  -23.0369
 kinetic energy error for atom=    0.0001 (will be added to EATOM!!)
 
 
 POSCAR: Mg2
  positions in direct lattice
  No initial velocities read in
 exchange correlation table for  LEXCH =        8
   RHO(1)=    0.500       N(1)  =     2000
   RHO(2)=  100.500       N(2)  =     4000
 


--------------------------------------------------------------------------------------------------------


 ion  position               nearest neighbor table
   1  0.000  0.000  0.000-   2 3.07   2 3.07   2 3.07   2 3.07   2 3.07   2 3.07   2 3.07   2 3.07

   2  0.500  0.500  0.500-   1 3.07   1 3.07   1 3.07   1 3.07   1 3.07   1 3.07   1 3.07   1 3.07

 

IMPORTANT INFORMATION: All symmetrisations will be switched off!
NOSYMM: (Re-)initialisation of all symmetry stuff for point group C_1.


----------------------------------------------------------------------------------------

                                     Primitive cell                                     

  volume of cell :      44.5701

  direct lattice vectors                    reciprocal lattice vectors
     3.545528993  0.000000000  0.000000000     0.282045360  0.000000000 -0.000000000
    -0.000000000  3.545528993  0.000000000     0.000000000  0.282045360  0.000000000
     0.000000000  0.000000000  3.545528993    -0.000000000 -0.000000000  0.282045360

  length of vectors
     3.545528993  3.545528993  3.545528993     0.282045360  0.282045360  0.282045360

  position of ions in fractional coordinates (direct lattice)
     0.000000000  0.000000000  0.000000000
     0.500000000  0.500000000  0.500000000

  ion indices of the primitive-cell ions
   primitive index   ion index
                 1           1
                 2           2

----------------------------------------------------------------------------------------

 
 
 KPOINTS: Automatic mesh                          

Automatic generation of k-mesh.
 Grid dimensions read from file:
 generate k-points for:    2    2    2

 Generating k-lattice:

  Cartesian coordinates                     Fractional coordinates (reciprocal lattice)
     0.141022680  0.000000000 -0.000000000     0.500000000  0.000000000  0.000000000
     0.000000000  0.141022680  0.000000000     0.000000000  0.500000000  0.000000000
    -0.000000000 -0.000000000  0.141022680    -0.000000000 -0.000000000  0.500000000

  Length of vectors
     0.141022680  0.141022680  0.141022680

  Shift w.r.t. Gamma in fractional coordinates (k-lattice)
     0.000000000  0.000000000  0.000000000

 
 Subroutine IBZKPT returns following result:
 ===========================================
 
 Found      8 irreducible k-points:
 
 Following reciprocal coordinates:
            Coordinates               Weight
  0.000000  0.000000  0.000000      1.000000
  0.500000  0.000000  0.000000      1.000000
  0.000000  0.500000  0.000000      1.000000
  0.000000  0.000000  0.500000      1.000000
  0.500000  0.500000  0.000000      1.000000
  0.000000  0.500000  0.500000      1.000000
  0.500000  0.000000  0.500000      1.000000
  0.500000  0.500000  0.500000      1.000000
 
 Following cartesian coordinates:
            Coordinates               Weight
  0.000000  0.000000  0.000000      1.000000
  0.141023  0.000000  0.000000      1.000000
  0.000000  0.141023  0.000000      1.000000
  0.000000  0.000000  0.141023      1.000000
  0.141023  0.141023  0.000000      1.000000
  0.000000  0.141023  0.141023      1.000000
  0.141023  0.000000  0.141023      1.000000
  0.141023  0.141023  0.141023      1.000000
 


--------------------------------------------------------------------------------------------------------




 Dimension of arrays:
   k-points           NKPTS =      8   k-points in BZ     NKDIM =      8   number of bands    NBANDS=      6
   number of dos      NEDOS =    301   number of ions     NIONS =      2
   non local maximal  LDIM  =      5   non local SUM 2l+1 LMDIM =     13
   total plane-waves  NPLWV =   5832
   max r-space proj   IRMAX =   1156   max aug-charges    IRDMAX=   5757
   dimension x,y,z NGX =    18 NGY =   18 NGZ =   18
   dimension x,y,z NGXF=    36 NGYF=   36 NGZF=   36
   support grid    NGXF=    36 NGYF=   36 NGZF=   36
   ions per type =               2
   NGX,Y,Z   is equivalent  to a cutoff of   8.44,  8.44,  8.44 a.u.
   NGXF,Y,Z  is equivalent  to a cutoff of  16.88, 16.88, 16.88 a.u.

 SYSTEM =  unknown system                          
 POSCAR =  Mg2                                     

 Startparameter for this run:
   NWRITE =      2    write-flag & timer
   PREC   = normal    normal or accurate (medium, high low for compatibility)
   ISTART =      0    job   : 0-new  1-cont  2-samecut
   ICHARG =      2    charge: 1-file 2-atom 10-const
   ISPIN  =      1    spin polarized calculation?
   LNONCOLLINEAR =      F non collinear calculations
   LSORBIT =      F    spin-orbit coupling
   INIWAV =      1    electr: 0-lowe 1-rand  2-diag
   LASPH  =      F    aspherical Exc in radial PAW
 Electronic Relaxation 1
   ENCUT  =  450.0 eV  33.07 Ry    5.75 a.u.   6.13  6.13  6.13*2*pi/ulx,y,z
   ENINI  =  450.0     initial cutoff
   ENAUG  =  454.7 eV  augmentation charge cutoff
   NELM   =     60;   NELMIN=  2; NELMDL= -5     # of ELM steps 
   EDIFF  = 0.1E-04   stopping-criterion for ELM
   LREAL  =      T    real-space projection
   NLSPLINE    = F    spline interpolate recip. space projectors
   LCOMPAT=      F    compatible to vasp.4.4
   GGA_COMPAT  = T    GGA compatible to vasp.4.4-vasp.4.6
   LMAXPAW     = -100 max onsite density
   LMAXMIX     =    2 max onsite mixed and CHGCAR
   VOSKOWN=      0    Vosko Wilk Nusair interpolation
   ROPT   =   -0.00050
 Ionic relaxation
   EDIFFG = -.5E-02   stopping-criterion for IOM
   NSW    =    300    number of steps for IOM
   NBLOCK =      1;   KBLOCK =    300    inner block; outer block 
   IBRION =      2    ionic relax: 0-MD 1-quasi-New 2-CG
   NFREE  =      1    steps in history (QN), initial steepest desc. (CG)
   ISIF   =      2    stress and relaxation
   IWAVPR =     11    prediction:  0-non 1-charg 2-wave 3-comb
   ISYM   =      0    0-nonsym 1-usesym 2-fastsym
   LCORR  =      T    Harris-Foulkes like correction to forces

   POTIM  = 0.5000    time-step for ionic-motion
   TEIN   =    0.0    initial temperature
   TEBEG  =    0.0;   TEEND  =   0.0 temperature during run
   SMASS  =  -3.00    Nose mass-parameter (am)
   estimated Nose-frequenzy (Omega)   =  0.10E-29 period in steps = 0.13E+47 mass=  -0.287E-27a.u.
   SCALEE = 1.0000    scale energy and forces
   NPACO  =    256;   APACO  = 10.0  distance and # of slots for P.C.
   PSTRESS=    0.0 pullay stress

  Mass of Ions in am
   POMASS =  24.30
  Ionic Valenz
   ZVAL   =   2.00
  Atomic Wigner-Seitz radii
   RWIGS  =  -1.00
  virtual crystal weights 
   VCA    =   1.00
   NELECT =       4.0000    total number of electrons
   NUPDOWN=      -1.0000    fix difference up-down

 DOS related values:
   EMIN   =  10.00;   EMAX   =-10.00  energy-range for DOS
   EFERMI =   0.00;   METHOD = LEGACY      
   ISMEAR =     0;   SIGMA  =   0.05  broadening in eV -4-tet -1-fermi 0-gaus

 Electronic relaxation 2 (details)
   IALGO  =     68    algorithm
   LDIAG  =      T    sub-space diagonalisation (order eigenvalues)
   LSUBROT=      F    optimize rotation matrix (better conditioning)
   TURBO    =      0    0=normal 1=particle mesh
   IRESTART =      0    0=no restart 2=restart with 2 vectors
   NREBOOT  =      0    no. of reboots
   NMIN     =      0    reboot dimension
   EREF     =   0.00    reference energy to select bands
   IMIX   =      4    mixing-type and parameters
     AMIX     =   0.40;   BMIX     =  1.00
     AMIX_MAG =   1.60;   BMIX_MAG =  1.00
     AMIN     =   0.10
     WC   =   100.;   INIMIX=   1;  MIXPRE=   1;  MAXMIX= -45

 Intra band minimization:
   WEIMIN = 0.0010     energy-eigenvalue tresh-hold
   EBREAK =  0.42E-06  absolut break condition
   DEPER  =   0.30     relativ break condition  

   TIME   =   0.40     timestep for ELM

  volume/ion in A,a.u.               =      22.29       150.39
  Fermi-wavevector in a.u.,A,eV,Ry     =   0.732960  1.385094  7.309469  0.537231
  Thomas-Fermi vector in A             =   1.825552
 
 Write flags
   LWAVE        =      F    write WAVECAR
   LDOWNSAMPLE  =      F    k-point downsampling of WAVECAR
   LCHARG       =      F    write CHGCAR
   LVTOT        =      F    write LOCPOT, total local potential
   LVHAR        =      F    write LOCPOT, Hartree potential only
   LELF         =      F    write electronic localiz. function (ELF)
   LORBIT       =      0    0 simple, 1 ext, 2 COOP (PROOUT), +10 PAW based schemes


 Dipole corrections
   LMONO  =      F    monopole corrections only (constant potential shift)
   LDIPOL =      F    correct potential (dipole corrections)
   IDIPOL =      0    1-x, 2-y, 3-z, 4-all directions 
   EPSILON=  1.0000000 bulk dielectric constant

 Exchange correlation treatment:
   GGA     =    --    GGA type
   LEXCH   =     8    internal setting for exchange type
   LIBXC   =     F    Libxc                    
   VOSKOWN =     0    Vosko Wilk Nusair interpolation
   LHFCALC =     F    Hartree Fock is set to
   LHFONE  =     F    Hartree Fock one center treatment
   AEXX    =    0.0000 exact exchange contribution

 Linear response parameters
   LEPSILON=     F    determine dielectric tensor
   LRPA    =     F    only Hartree local field effects (RPA)
   LNABLA  =     F    use nabla operator in PAW spheres
   LVEL    =     F    velocity operator in full k-point grid
   CSHIFT  =0.1000    complex shift for real part using Kramers Kronig
   OMEGAMAX=  -1.0    maximum frequency
   DEG_THRESHOLD= 0.2000000E-02 threshold for treating states as degnerate
   RTIME   =   -0.100 relaxation time in fs
  (WPLASMAI=    0.000 imaginary part of plasma frequency in eV, 0.658/RTIME)
   DFIELD  = 0.0000000 0.0000000 0.0000000 field for delta impulse in time
 
  Optional k-point grid parameters
   LKPOINTS_OPT  =     F    use optional k-point grid
   KPOINTS_OPT_MODE=     1    mode for optional k-point grid
 
 Orbital magnetization related:
   ORBITALMAG=     F  switch on orbital magnetization
   LCHIMAG   =     F  perturbation theory with respect to B field
   DQ        =  0.001000  dq finite difference perturbation B field
   LLRAUG    =     F  two centre corrections for induced B field
   LBONE     =     F  B-component reconstruction in AE one-centre
   LVGVCALC  =     T  calculate vGv susceptibility
   LVGVAPPL  =     F  apply vGv susceptibility instead of pGv for G=0

 Random number generation:
   RANDOM_GENERATOR = DEFAULT
   PCG_SEED         = not used


--------------------------------------------------------------------------------------------------------


 conjugate gradient relaxation of ions
 charge density and potential will be updated during run
 non-spin polarized calculation
 RMM-DIIS sequential band-by-band and
  variant of blocked Davidson during initial phase
 perform sub-space diagonalisation
    before iterative eigenvector-optimisation
 modified Broyden-mixing scheme, WC =      100.0
 initial mixing is a Kerker type mixing with AMIX =  0.4000 and BMIX =      1.0000
 Hartree-type preconditioning will be used
 using additional bands             4
 real space projection scheme for non local part
 use partial core corrections
 calculate Harris-corrections to forces 
   (improved forces if not selfconsistent)
 use gradient corrections 
 use of overlap-Matrix (Vanderbilt PP)
 Gauss-broadening in eV      SIGMA  =   0.05


--------------------------------------------------------------------------------------------------------


  energy-cutoff  :      450.00
  volume of cell :       44.57
      direct lattice vectors                 reciprocal lattice vectors
     3.545528993  0.000000000  0.000000000     0.282045360  0.000000000 -0.000000000
    -0.000000000  3.545528993  0.000000000     0.000000000  0.282045360  0.000000000
     0.000000000  0.000000000  3.545528993    -0.000000000 -0.000000000  0.282045360

  length of vectors
     3.545528993  3.545528993  3.545528993     0.282045360  0.282045360  0.282045360


 
 k-points in units of 2pi/SCALE and weight: Automatic mesh                          
   0.00000000  0.00000000  0.00000000       0.125
   0.14102268  0.00000000  0.00000000       0.125
   0.00000000  0.14102268  0.00000000       0.125
   0.00000000  0.00000000  0.14102268       0.125
   0.14102268  0.14102268  0.00000000       0.125
   0.00000000  0.14102268  0.14102268       0.125
   0.14102268  0.00000000  0.14102268       0.125
   0.14102268  0.14102268  0.14102268       0.125
 
 k-points in reciprocal lattice and weights: Automatic mesh                          
   0.00000000  0.00000000  0.00000000       0.125
   0.50000000  0.00000000  0.00000000       0.125
   0.00000000  0.50000000  0.00000000       0.125
   0.00000000  0.00000000  0.50000000       0.125
   0.50000000  0.50000000  0.00000000       0.125
   0.00000000  0.50000000  0.50000000       0.125
   0.50000000  0.00000000  0.50000000       0.125
   0.50000000  0.50000000  0.50000000       0.125
 
 position of ions in fractional coordinates (direct lattice) 
   0.00000000  0.00000000  0.00000000
   0.50000000  0.50000000  0.50000000
 
 position of ions in cartesian coordinates  (Angst):
   0.00000000  0.00000000  0.00000000
   1.77276450  1.77276450  1.77276450
 


--------------------------------------------------------------------------------------------------------


 k-point   1 :   0.0000 0.0000 0.0000  plane waves:     949
 k-point   2 :   0.5000 0.0000 0.0000  plane waves:     972
 k-point   3 :   0.0000 0.5000 0.0000  plane waves:     972
 k-point   4 :   0.0000 0.0000 0.5000  plane waves:     972
 k-point   5 :   0.5000 0.5000 0.0000  plane waves:     992
 k-point   6 :   0.0000 0.5000 0.5000  plane waves:     992
 k-point   7 :   0.5000 0.0000 0.5000  plane waves:     992
 k-point   8 :   0.5000 0.5000 0.5000  plane waves:     968

 maximum and minimum number of plane-waves per node :       992      949

 maximum number of plane-waves:       992
 maximum index in each direction: 
   IXMAX=    6   IYMAX=    6   IZMAX=    6
   IXMIN=   -6   IYMIN=   -6   IZMIN=   -6


 serial   3D FFT for wavefunctions
 parallel 3D FFT for charge:
    minimum data exchange during FFTs selected (reduces bandwidth)


 total amount of memory used by VASP MPI-rank0    35308. kBytes
=======================================================================

   base      :      30000. kBytes
   nonlr-proj:        275. kBytes
   fftplans  :       1676. kBytes
   grid      :       2560. kBytes
   one-center:         16. kBytes
   wavefun   :        781. kBytes
 
     INWAV:  cpu time      0.0000: real time      0.0001
 Broyden mixing: mesh for mixing (old mesh)
   NGX = 13   NGY = 13   NGZ = 13
  (NGX  = 36   NGY  = 36   NGZ  = 36)
  gives a total of   2197 points

 initial charge density was supplied:
 charge density of overlapping atoms calculated
 number of electron       4.0000000 magnetization 
 keeping initial charge density in first step


--------------------------------------------------------------------------------------------------------


 Maximum index for non-local projection operator          1045
 Maximum index for augmentation-charges          5449 (set IRDMAX)


--------------------------------------------------------------------------------------------------------


 First call to EWALD:  gamma=   0.500
 Maximum number of real-space cells 3x 3x 3
 Maximum number of reciprocal cells 3x 3x 3

    FEWALD:  cpu time      0.0009: real time      0.0009


--------------------------------------- Ionic step        1  -------------------------------------------




--------------------------------------- Iteration      1(   1)  ---------------------------------------


    POTLOK:  cpu time      0.0215: real time      0.0215
    SETDIJ:  cpu time      0.0027: real time      0.0027
     EDDAV:  cpu time      0.0454: real time      0.0454
       DOS:  cpu time      0.0002: real time      0.0002
    --------------------------------------------
      LOOP:  cpu time      0.0699: real time      0.0699

 eigenvalue-minimisations  :    96
 total energy-change (2. order) :-0.4707213E+00  (-0.1228345E+03)
 number of electron       4.0000000 magnetization 
 augmentation part        4.0000000 magnetization 

 Free energy of the ion-electron system (eV)
  ---------------------------------------------------
  alpha Z        PSCENC =         4.03909888
  Ewald energy   TEWEN  =       -59.12143154
  -Hartree energ DENC   =        -0.04451054
  -exchange      EXHF   =         0.00000000
  -V(xc)+E(xc)   XCENC  =       -97.82299755
  PAW double counting   =       130.61339054      -26.88791747
  entropy T*S    EENTRO =        -0.00000000
  eigenvalues    EBANDS =         2.67999643
  atomic energy  EATOM  =        46.07364995
  Solvation  Ediel_sol  =         0.00000000
  ---------------------------------------------------
  free energy    TOTEN  =        -0.47072131 eV

  energy without entropy =       -0.47072131  energy(sigma->0) =       -0.47072131


--------------------------------------------------------------------------------------------------------




--------------------------------------- Iteration      1(   2)  ---------------------------------------


     EDDAV:  cpu time      0.0237: real time      0.0244
       DOS:  cpu time      0.0004: real time      0.0004
    --------------------------------------------
      LOOP:  cpu time      0.0241: real time      0.0249

 eigenvalue-minimisations  :   108
 total energy-change (2. order) :-0.2230540E+01  (-0.2211770E+01)
 number of electron       4.0000000 magnetization 
 augmentation part        4.0000000 magnetization 

 Free energy of the ion-electron system (eV)
  ---------------------------------------------------
  alpha Z        PSCENC =         4.03909888
  Ewald energy   TEWEN  =       -59.12143154
  -Hartree energ DENC   =        -0.04451054
  -exchange      EXHF   =         0.00000000
  -V(xc)+E(xc)   XCENC  =       -97.82299755
  PAW double counting   =       130.61339054      -26.88791747
  entropy T*S    EENTRO =        -0.02103822
  eigenvalues    EBANDS =         0.47049430
  atomic energy  EATOM  =        46.07364995
  Solvation  Ediel_sol  =         0.00000000
  ---------------------------------------------------
  free energy    TOTEN  =        -2.70126166 eV

  energy without entropy =       -2.68022345  energy(sigma->0) =       -2.69074255


--------------------------------------------------------------------------------------------------------




--------------------------------------- Iteration      1(   3)  ---------------------------------------


     EDDAV:  cpu time      0.0304: real time      0.0309
       DOS:  cpu time      0.0004: real time      0.0004
    --------------------------------------------
      LOOP:  cpu time      0.0308: real time      0.0313

 eigenvalue-minimisations  :   174
 total energy-change (2. order) :-0.1545316E-01  (-0.1533428E-01)
 number of electron       4.0000000 magnetization 
 augmentation part        4.0000000 magnetization 

 Free energy of the ion-electron system (eV)
  ---------------------------------------------------
  alpha Z        PSCENC =         4.03909888
  Ewald energy   TEWEN  =       -59.12143154
  -Hartree energ DENC   =        -0.04451054
  -exchange      EXHF   =         0.00000000
  -V(xc)+E(xc)   XCENC  =       -97.82299755
  PAW double counting   =       130.61339054      -26.88791747
  entropy T*S    EENTRO =        -0.02115711
  eigenvalues    EBANDS =         0.45516003
  atomic energy  EATOM  =        46.07364995
  Solvation  Ediel_sol  =         0.00000000
  ---------------------------------------------------
  free energy    TOTEN  =        -2.71671482 eV

  energy without entropy =       -2.69555771  energy(sigma->0) =       -2.70613627


--------------------------------------------------------------------------------------------------------




--------------------------------------- Iteration      1(   4)  ---------------------------------------


     EDDAV:  cpu time      0.0293: real time      0.0297
       DOS:  cpu time      0.0004: real time      0.0004
    --------------------------------------------
      LOOP:  cpu time      0.0297: real time      0.0301

 eigenvalue-minimisations  :   144
 total energy-change (2. order) :-0.1978923E-05  (-0.1978803E-05)
 number of electron       4.0000000 magnetization 
 augmentation part        4.0000000 magnetization 

 Free energy of the ion-electron system (eV)
  ---------------------------------------------------
  alpha Z        PSCENC =         4.03909888
  Ewald energy   TEWEN  =       -59.12143154
  -Hartree energ DENC   =        -0.04451054
  -exchange      EXHF   =         0.00000000
  -V(xc)+E(xc)   XCENC  =       -97.82299755
  PAW double counting   =       130.61339054      -26.88791747
  entropy T*S    EENTRO =        -0.02115711
  eigenvalues    EBANDS =         0.45515805
  atomic energy  EATOM  =        46.07364995
  Solvation  Ediel_sol  =         0.00000000
  ---------------------------------------------------
  free energy    TOTEN  =        -2.71671680 eV

  energy without entropy =       -2.69555969  energy(sigma->0) =       -2.70613824


--------------------------------------------------------------------------------------------------------




--------------------------------------- Iteration      1(   5)  ---------------------------------------


     EDDAV:  cpu time      0.0258: real time      0.0262
       DOS:  cpu time      0.0004: real time      0.0004
    CHARGE:  cpu time      0.0054: real time      0.0055
    MIXING:  cpu time      0.0011: real time      0.0011
    --------------------------------------------
      LOOP:  cpu time      0.0328: real time      0.0332

 eigenvalue-minimisations  :   150
 total energy-change (2. order) :-0.5417961E-08  (-0.5625753E-08)
 number of electron       4.0000000 magnetization 
 augmentation part        0.0153489 magnetization 

 Broyden mixing:
  rms(total) = 0.99726E-01    rms(broyden)= 0.99726E-01
  rms(prec ) = 0.28370E+00
  weight for this iteration     100.00

 Free energy of the ion-electron system (eV)
  ---------------------------------------------------
  alpha Z        PSCENC =         4.03909888
  Ewald energy   TEWEN  =       -59.12143154
  -Hartree energ DENC   =        -0.04451054
  -exchange      EXHF   =         0.00000000
  -V(xc)+E(xc)   XCENC  =       -97.82299755
  PAW double counting   =       130.61339054      -26.88791747
  entropy T*S    EENTRO =        -0.02115711
  eigenvalues    EBANDS =         0.45515805
  atomic energy  EATOM  =        46.07364995
  Solvation  Ediel_sol  =         0.00000000
  ---------------------------------------------------
  free energy    TOTEN  =        -2.71671681 eV

  energy without entropy =       -2.69555970  energy(sigma->0) =       -2.70613825


--------------------------------------------------------------------------------------------------------




--------------------------------------- Iteration      1(   6)  ---------------------------------------


    POTLOK:  cpu time      0.0037: real time      0.0042
    SETDIJ:  cpu time      0.0036: real time      0.0036
    EDDIAG:  cpu time      0.0032: real time      0.0032
  RMM-DIIS:  cpu time      0.0208: real time      0.0208
    ORTHCH:  cpu time      0.0009: real time      0.0009
       DOS:  cpu time      0.0005: real time      0.0005
    CHARGE:  cpu time      0.0052: real time      0.0052
    MIXING:  cpu time      0.0011: real time      0.0011
    --------------------------------------------
      LOOP:  cpu time      0.0390: real time      0.0394

 eigenvalue-minimisations  :    96
 total energy-change (2. order) : 0.8257852E-02  (-0.4904009E-04)
 number of electron       4.0000000 magnetization 
 augmentation part        0.0151991 magnetization 

 Broyden mixing:
  rms(total) = 0.63724E-01    rms(broyden)= 0.63724E-01
  rms(prec ) = 0.18354E+00
  weight for this iteration     100.00

 eigenvalues of (default mixing * dielectric matrix)
  average eigenvalue GAMMA=   2.7527
  2.7527

 Free energy of the ion-electron system (eV)
  ---------------------------------------------------
  alpha Z        PSCENC =         4.03909888
  Ewald energy   TEWEN  =       -59.12143154
  -Hartree energ DENC   =        -0.04344990
  -exchange      EXHF   =         0.00000000
  -V(xc)+E(xc)   XCENC  =       -97.74772540
  PAW double counting   =       125.04418118      -21.32377114
  entropy T*S    EENTRO =        -0.02115711
  eigenvalues    EBANDS =         0.39214612
  atomic energy  EATOM  =        46.07364995
  Solvation  Ediel_sol  =         0.00000000
  ---------------------------------------------------
  free energy    TOTEN  =        -2.70845895 eV

  energy without entropy =       -2.68730184  energy(sigma->0) =       -2.69788040


--------------------------------------------------------------------------------------------------------




--------------------------------------- Iteration      1(   7)  ---------------------------------------


    POTLOK:  cpu time      0.0033: real time      0.0036
    SETDIJ:  cpu time      0.0040: real time      0.0040
    EDDIAG:  cpu time      0.0031: real time      0.0031
  RMM-DIIS:  cpu time      0.0207: real time      0.0207
    ORTHCH:  cpu time      0.0009: real time      0.0009
       DOS:  cpu time      0.0005: real time      0.0005
    CHARGE:  cpu time      0.0052: real time      0.0052
    MIXING:  cpu time      0.0012: real time      0.0012
    --------------------------------------------
      LOOP:  cpu time      0.0388: real time      0.0391

 eigenvalue-minimisations  :    96
 total energy-change (2. order) : 0.9263571E-02  (-0.2328288E-03)
 number of electron       4.0000000 magnetization 
 augmentation part        0.0149161 magnetization 

 Broyden mixing:
  rms(total) = 0.35073E-02    rms(broyden)= 0.35073E-02
  rms(prec ) = 0.54977E-02
  weight for this iteration     100.00

 eigenvalues of (default mixing * dielectric matrix)
  average eigenvalue GAMMA=   2.5991
  2.5991  2.5991

 Free energy of the ion-electron system (eV)
  ---------------------------------------------------
  alpha Z        PSCENC =         4.03909888
  Ewald energy   TEWEN  =       -59.12143154
  -Hartree energ DENC   =        -0.10976735
  -exchange      EXHF   =         0.00000000
  -V(xc)+E(xc)   XCENC  =       -97.58026517
  PAW double counting   =       117.08363899      -13.37293701
  entropy T*S    EENTRO =        -0.02115711
  eigenvalues    EBANDS =         0.30997497
  atomic energy  EATOM  =        46.07364995
  Solvation  Ediel_sol  =         0.00000000
  ---------------------------------------------------
  free energy    TOTEN  =        -2.69919538 eV

  energy without entropy =       -2.67803827  energy(sigma->0) =       -2.68861683


--------------------------------------------------------------------------------------------------------




--------------------------------------- Iteration      1(   8)  ---------------------------------------


    POTLOK:  cpu time      0.0031: real time      0.0036
    SETDIJ:  cpu time      0.0040: real time      0.0040
    EDDIAG:  cpu time      0.0031: real time      0.0031
  RMM-DIIS:  cpu time      0.0201: real time      0.0201
    ORTHCH:  cpu time      0.0009: real time      0.0009
       DOS:  cpu time      0.0004: real time      0.0004
    CHARGE:  cpu time      0.0049: real time      0.0049
    MIXING:  cpu time      0.0012: real time      0.0012
    --------------------------------------------
      LOOP:  cpu time      0.0377: real time      0.0382

 eigenvalue-minimisations  :    87
 total energy-change (2. order) :-0.1805038E-04  (-0.9348446E-05)
 number of electron       4.0000000 magnetization 
 augmentation part        0.0149976 magnetization 

 Broyden mixing:
  rms(total) = 0.79837E-03    rms(broyden)= 0.79837E-03
  rms(prec ) = 0.18905E-02
  weight for this iteration     100.00

 eigenvalues of (default mixing * dielectric matrix)
  average eigenvalue GAMMA=   2.0935
  2.7096  2.7096  0.8613

 Free energy of the ion-electron system (eV)
  ---------------------------------------------------
  alpha Z        PSCENC =         4.03909888
  Ewald energy   TEWEN  =       -59.12143154
  -Hartree energ DENC   =        -0.10983260
  -exchange      EXHF   =         0.00000000
  -V(xc)+E(xc)   XCENC  =       -97.58078817
  PAW double counting   =       117.74445618      -14.03356458
  entropy T*S    EENTRO =        -0.02115711
  eigenvalues    EBANDS =         0.31035556
  atomic energy  EATOM  =        46.07364995
  Solvation  Ediel_sol  =         0.00000000
  ---------------------------------------------------
  free energy    TOTEN  =        -2.69921343 eV

  energy without entropy =       -2.67805632  energy(sigma->0) =       -2.68863488


--------------------------------------------------------------------------------------------------------




--------------------------------------- Iteration      1(   9)  ---------------------------------------


    POTLOK:  cpu time      0.0032: real time      0.0036
    SETDIJ:  cpu time      0.0035: real time      0.0035
    EDDIAG:  cpu time      0.0027: real time      0.0027
  RMM-DIIS:  cpu time      0.0128: real time      0.0128
    ORTHCH:  cpu time      0.0009: real time      0.0009
       DOS:  cpu time      0.0004: real time      0.0004
    --------------------------------------------
      LOOP:  cpu time      0.0236: real time      0.0240

 eigenvalue-minimisations  :    58
 total energy-change (2. order) : 0.1740396E-06  (-0.6663315E-06)
 number of electron       4.0000000 magnetization 
 augmentation part        0.0149976 magnetization 

 Free energy of the ion-electron system (eV)
  ---------------------------------------------------
  alpha Z        PSCENC =         4.03909888
  Ewald energy   TEWEN  =       -59.12143154
  -Hartree energ DENC   =        -0.11112816
  -exchange      EXHF   =         0.00000000
  -V(xc)+E(xc)   XCENC  =       -97.57884221
  PAW double counting   =       117.90569521      -14.19486609
  entropy T*S    EENTRO =        -0.02115711
  eigenvalues    EBANDS =         0.30976781
  atomic energy  EATOM  =        46.07364995
  Solvation  Ediel_sol  =         0.00000000
  ---------------------------------------------------
  free energy    TOTEN  =        -2.69921326 eV

  energy without entropy =       -2.67805615  energy(sigma->0) =       -2.68863470


--------------------------------------------------------------------------------------------------------




 average (electrostatic) potential at core
  the test charge radii are     1.0714
  (the norm of the test charge is              1.0000)
       1 -39.0657       2 -39.0657
 
 
 
 E-fermi :   1.8999     XC(G=0):  -8.5882     alpha+bet : -7.6726

 Fermi energy:         1.8999492310

 k-point     1 :       0.0000    0.0000    0.0000
  band No.  band energies     occupation 
      1      -4.2669      2.00000
      2       6.7514      0.00000
      3       6.7514      0.00000
      4       6.7514      0.00000
      5       6.8201      0.00000
      6       6.8201      0.00000

 k-point     2 :       0.5000    0.0000    0.0000
  band No.  band energies     occupation 
      1      -1.3101      2.00000
      2      -1.3101      2.00000
      3       9.3230      0.00000
      4       9.3230      0.00000
      5       9.3230      0.00000
      6       9.3238      0.00000

 k-point     3 :       0.0000    0.5000    0.0000
  band No.  band energies     occupation 
      1      -1.3101      2.00000
      2      -1.3101      2.00000
      3       9.3230      0.00000
      4       9.3230      0.00000
      5       9.3230      0.00000
      6       9.3230      0.00000

 k-point     4 :       0.0000    0.0000    0.5000
  band No.  band energies     occupation 
      1      -1.3101      2.00000
      2      -1.3101      2.00000
      3       9.3230      0.00000
      4       9.3230      0.00000
      5       9.3230      0.00000
      6       9.3230      0.00000

 k-point     5 :       0.5000    0.5000    0.0000
  band No.  band energies     occupation 
      1       1.2778      2.00000
      2       1.2778      2.00000
      3       1.8999      1.00000
      4       1.8999      1.00000
      5      11.5416      0.00000
      6      11.5418      0.00000

 k-point     6 :       0.0000    0.5000    0.5000
  band No.  band energies     occupation 
      1       1.2778      2.00000
      2       1.2778      2.00000
      3       1.8999      1.00000
      4       1.8999      1.00000
      5      11.5416      0.00000
      6      11.5418      0.00000

 k-point     7 :       0.5000    0.0000    0.5000
  band No.  band energies     occupation 
      1       1.2778      2.00000
      2       1.2778      2.00000
      3       1.8999      1.00000
      4       1.8999      1.00000
      5      11.5416      0.00000
      6      11.5419      0.00000

 k-point     8 :       0.5000    0.5000    0.5000
  band No.  band energies     occupation 
      1       4.0087      0.00000
      2       4.0087      0.00000
      3       4.0087      0.00000
      4       4.0087      0.00000
      5       4.0087      0.00000
      6       4.0087      0.00000


--------------------------------------------------------------------------------------------------------


 soft charge-density along one line, spin component            1
         0         1         2         3         4         5         6         7         8         9
 total charge-density along one line
 
 pseudopotential strength for first ion, spin component:            1
  2.997   9.599  -0.000   0.000  -0.000  -0.000   0.000  -0.000
  9.599  30.553  -0.000   0.000  -0.000  -0.000   0.000  -0.000
 -0.000  -0.000   7.079   0.000   0.000  10.454   0.000   0.000
  0.000   0.000   0.000   7.079  -0.000   0.000  10.454  -0.000
 -0.000  -0.000   0.000  -0.000   7.079   0.000  -0.000  10.454
 -0.000  -0.000  10.454   0.000   0.000  14.577   0.000   0.000
  0.000   0.000   0.000  10.454  -0.000   0.000  14.577  -0.000
 -0.000  -0.000   0.000  -0.000  10.454   0.000  -0.000  14.577
  0.000   0.000  -0.000   0.000  -0.000  -0.000   0.000  -0.000
  0.000   0.000   0.000  -0.000   0.000   0.000  -0.000   0.000
  0.000   0.000   0.000   0.000   0.000   0.000   0.000   0.000
 -0.000  -0.000   0.000  -0.000   0.000   0.000  -0.000   0.000
  0.000   0.000   0.000  -0.000  -0.000   0.000  -0.000  -0.000
 total augmentation occupancy for first ion, spin component:            1
  1.194  -0.019  -0.000   0.000  -0.000   0.000   0.000  -0.000   0.000   0.000  -0.000   0.000  -0.000
 -0.019   0.001   0.000  -0.000   0.000  -0.000  -0.000   0.000  -0.000  -0.000   0.000   0.000  -0.000
 -0.000   0.000   0.086   0.000  -0.000  -0.006  -0.000   0.000  -0.000   0.000   0.000  -0.000  -0.000
  0.000  -0.000   0.000   0.086   0.000  -0.000  -0.006  -0.000   0.000  -0.000  -0.000  -0.000   0.000
 -0.000   0.000  -0.000   0.000   0.086   0.000  -0.000  -0.006  -0.000   0.000  -0.000   0.000   0.000
  0.000  -0.000  -0.006  -0.000   0.000   0.000   0.000  -0.000   0.000  -0.000  -0.000   0.000   0.000
  0.000  -0.000  -0.000  -0.006  -0.000   0.000   0.000   0.000  -0.000   0.000   0.000   0.000  -0.000
 -0.000   0.000   0.000  -0.000  -0.006  -0.000   0.000   0.000   0.000  -0.000   0.000  -0.000   0.000
  0.000  -0.000  -0.000   0.000  -0.000   0.000  -0.000   0.000   0.004  -0.000   0.000  -0.000   0.000
  0.000  -0.000   0.000  -0.000   0.000  -0.000   0.000  -0.000  -0.000   0.004  -0.000  -0.000   0.000
 -0.000   0.000   0.000  -0.000  -0.000  -0.000   0.000   0.000   0.000  -0.000   0.004   0.000   0.000
  0.000   0.000  -0.000  -0.000   0.000   0.000   0.000  -0.000  -0.000  -0.000   0.000   0.004   0.000
 -0.000  -0.000  -0.000   0.000   0.000   0.000  -0.000   0.000   0.000   0.000   0.000   0.000   0.004


------------------------ aborting loop because EDIFF is reached ----------------------------------------


    CHARGE:  cpu time      0.0069: real time      0.0069
    FORLOC:  cpu time      0.0002: real time      0.0002
    FORNL :  cpu time      0.0211: real time      0.0211
    STRESS:  cpu time      0.0655: real time      0.0654
    FORCOR:  cpu time      0.0029: real time      0.0029
    FORHAR:  cpu time      0.0008: real time      0.0008
    MIXING:  cpu time      0.0014: real time      0.0014
    OFIELD:  cpu time      0.0000: real time      0.0000

  FORCE on cell =-STRESS in cart. coord.  units (eV):
  Direction    XX          YY          ZZ          XY          YZ          ZX
  --------------------------------------------------------------------------------------
  Alpha Z     4.03910     4.03910     4.03910
  Ewald     -19.70714   -19.70714   -19.70714    -0.00000     0.00000     0.00000
  Hartree     0.03702     0.03702     0.03702    -0.00000    -0.00000     0.00000
  E(xc)      -9.76039    -9.76039    -9.76039    -0.00000    -0.00000     0.00000
  Local      -0.35985    -0.35985    -0.35985    -0.00000    -0.00000     0.00000
  n-local    13.27071    13.27071    13.27071     0.00000     0.00000    -0.00000
  augment     0.14142     0.14142     0.14142    -0.00000    -0.00000     0.00000
  Kinetic    12.72917    12.72917    12.72917    -0.00000    -0.00000     0.00000
  Fock        0.00000     0.00000     0.00000     0.00000     0.00000     0.00000
  -------------------------------------------------------------------------------------
  Total       0.39003     0.39003     0.39003    -0.00000    -0.00000     0.00000
  in kB      14.02051    14.02051    14.02051    -0.00003    -0.00002     0.00004
  external pressure =       14.02 kB  Pullay stress =        0.00 kB


 VOLUME and BASIS-vectors are now :
 -----------------------------------------------------------------------------
  energy-cutoff  :      450.00
  volume of cell :       44.57
      direct lattice vectors                 reciprocal lattice vectors
     3.545528993  0.000000000  0.000000000     0.282045360  0.000000000 -0.000000000
    -0.000000000  3.545528993  0.000000000     0.000000000  0.282045360  0.000000000
     0.000000000  0.000000000  3.545528993    -0.000000000 -0.000000000  0.282045360

  length of vectors
     3.545528993  3.545528993  3.545528993     0.282045360  0.282045360  0.282045360


 FORCES acting on ions
    electron-ion (+dipol)            ewald-force                    non-local-force                 convergence-correction
 -----------------------------------------------------------------------------------------------
   -.207E-06 -.161E-06 0.362E-06   -.136E-15 -.184E-15 -.695E-16   0.131E-06 0.101E-06 -.236E-06   0.464E-07 0.359E-07 -.824E-07
   0.214E-06 0.159E-06 -.363E-06   0.112E-15 0.196E-15 0.454E-16   -.142E-06 -.997E-07 0.238E-06   -.445E-07 -.362E-07 0.835E-07
 -----------------------------------------------------------------------------------------------
   0.636E-08 -.138E-08 -.110E-08   -.232E-16 0.127E-16 -.241E-16   -.114E-07 0.166E-08 0.154E-08   0.198E-08 -.305E-09 0.108E-08
 
 
 POSITION                                       TOTAL-FORCE (eV/Angst)
 -----------------------------------------------------------------------------------
      0.00000      0.00000      0.00000        -0.000000     -0.000000      0.000000
      1.77276      1.77276      1.77276         0.000000      0.000000     -0.000000
 -----------------------------------------------------------------------------------
    total drift:                               -0.000000     -0.000000      0.000000


--------------------------------------------------------------------------------------------------------



  FREE ENERGIE OF THE ION-ELECTRON SYSTEM (eV)
  ---------------------------------------------------
  free  energy   TOTEN  =        -2.69921326 eV

  energy  without entropy=       -2.67805615  energy(sigma->0) =       -2.68863470
 


--------------------------------------------------------------------------------------------------------


    POTLOK:  cpu time      0.0078: real time      0.0078


--------------------------------------------------------------------------------------------------------




--------------------------------------------------------------------------------------------------------


  
 reached required accuracy - stopping structural energy minimisation
     LOOP+:  cpu time      0.4426: real time      0.4513
    4ORBIT:  cpu time      0.0000: real time      0.0000

 total amount of memory used by VASP MPI-rank0    35308. kBytes
=======================================================================

   base      :      30000. kBytes
   nonlr-proj:        275. kBytes
   fftplans  :       1676. kBytes
   grid      :       2560. kBytes
   one-center:         16. kBytes
   wavefun   :        781. kBytes
 
  
  
 General timing and accounting informations for this job:
 ========================================================
  
                  Total CPU time used (sec):        3.933
                            User time (sec):        2.258
                          System time (sec):        1.675
                         Elapsed time (sec):        5.529
  
                   Maximum memory used (kb):     3438208.
                   Average memory used (kb):          N/A
  
                          Minor page faults:        57304
                          Major page faults:            3
                 Voluntary context switches:         3688
