Ga8 O12                                 
    1.000000000000000     
     0.0000000000000000   12.2804737091000007    0.0000000000000000
     9.1427011490000005    0.0000000000000000    0.0000000000000000
     0.0000000000000000   -2.7682616411000001  -11.3006974810000003
   Ga   O    N    Fe
    47    71     1     1
Direct
  0.6579221032102041  0.9993390620452658  0.1565495073157734
  0.6569197966656972  0.9978853569939403  0.6572237220476751
  0.6589855679998067  0.3344133584264100  0.1556845428321125
  0.6583476289130914  0.3351862968733528  0.6577242101490128
  0.6594404806215834  0.6669640152898708  0.1570570916832139
  0.6590466615739885  0.6668500555297072  0.6556767533302121
  0.8412770840005095  0.1664362296840523  0.3430688835355724
  0.8405686093895355  0.1665638815871304  0.8428308212206588
  0.8409357186479980  0.5002793329530135  0.3433819343671374
  0.8408018647283129  0.5002678553238908  0.8436679107050651
  0.8408092696576972  0.8336165552318420  0.3436735238421349
  0.8406110042382906  0.8333462064444745  0.8435165184087978
  0.5905495861555821  0.1669005313740826  0.8974816700509649
  0.5919429268019343  0.4972591565399540  0.3974548864351988
  0.5908856560945281  0.5005606979535671  0.8976723260920210
  0.5910765154607205  0.8392547344607380  0.3974815194308121
  0.5909511857984953  0.8332822396615640  0.8980219496930815
  0.9085473724872202  0.9999216351703453  0.1023536708548107
  0.9089515215440116  0.0000653536512161  0.6023069007293032
  0.9088848584025939  0.3331279748229505  0.1022053899590887
  0.9087847907401851  0.3332680334766636  0.6018400279397440
  0.9091882601794765  0.6666094029793470  0.1025236841338710
  0.9085944492857223  0.6666818479091958  0.6025836978342696
  0.1588788930537106  0.1656111351921936  0.1560215205683591
  0.1594131771401379  0.1665802340344911  0.6563686657068146
  0.1597779436966746  0.4995497881296913  0.1573379960569881
  0.1588234109054909  0.5000324219063259  0.6565733269250629
  0.1596467249083418  0.8334216289416005  0.1576924457885625
  0.1587855675879695  0.8331729829295256  0.6566201456969338
  0.3439006656236714  0.0017951970968682  0.3437283732571998
  0.3407339620604688  0.0004317478194267  0.8437071775045908
  0.3416084197589626  0.3291516829885310  0.3443936563261474
  0.3406008909284211  0.3330269717425125  0.8435602783591563
  0.3431638611570449  0.6659955851378783  0.3431723509127238
  0.3403699039374430  0.6667208971714658  0.8431220890759050
  0.0920727566914081  0.9999805984335595  0.3973927061471301
  0.0908163270888522  0.9998379415158141  0.8973738369463575
  0.0918338636757738  0.3330623925704828  0.3975364047105572
  0.0910093537911152  0.3332424074998528  0.8976447427150021
  0.0908597154495894  0.6666354249981268  0.3972609403353928
  0.0909786256827800  0.6667154313874377  0.8980763248849186
  0.4098100482312290  0.1666013702622635  0.1037236852209205
  0.4083595282945467  0.1660057146795566  0.6012236774562894
  0.4085171821628748  0.5007044804287517  0.1018068936171233
  0.4085075962806570  0.5001497115995832  0.6026580249846916
  0.4084332456768678  0.8327725916666608  0.1016298421200474
  0.4083415322935551  0.8324329959477836  0.6026103786298336
  0.9964152976935665  0.1664590727525734  0.1272162172931743
  0.9965614402134548  0.1668053493957373  0.6269458674411510
  0.9966497353599379  0.4996700339716256  0.1276334000577179
  0.9961435303435238  0.4998685629586390  0.6269881093000507
  0.9964515536242260  0.8334714321092420  0.1272804379716419
  0.9962232856509488  0.8333441579675736  0.6273386387406035
  0.5087328125035100  0.0117180952512754  0.3751974141247914
  0.5034104675744047  0.9999336163508161  0.8731481695442227
  0.5033373895539341  0.3338216521546400  0.8726719500039266
  0.5064497402233386  0.6678604627212223  0.3731524899543075
  0.5031044792568764  0.6669102349339937  0.8728509398959261
  0.6689453568703954  0.1640592215109677  0.2787866418619274
  0.6718107624496028  0.1670879250429351  0.7799345907430393
  0.6738353819638263  0.5010106965012824  0.2796444539476610
  0.6726714407508751  0.5001684006185556  0.7808396812204776
  0.6729706828959365  0.8335990887280786  0.2804974654438510
  0.6725191507662629  0.8330884770120406  0.7808519345175426
  0.8269344820325202  0.0013675939772000  0.2196449907473692
  0.8259066893326263  0.0014091853006946  0.7181946069914318
  0.8270222338938709  0.3319615313232660  0.2194696207989395
  0.8263704202196820  0.3322612373804716  0.7182992448733430
  0.8279318984097301  0.6671780728842904  0.2196800100897391
  0.8272507367059774  0.6669374573640923  0.7197902715176028
  0.8314221917975573  0.0008497227812470  0.4458573751471846
  0.8318043945951814  0.0001832001322413  0.9455798821452746
  0.8301846783890667  0.3324682325867130  0.4454128821546419
  0.8320494289502136  0.3331821439073579  0.9455366003478289
  0.8323201605231532  0.6667228884989171  0.4460230976476183
  0.8321526447748155  0.6667087849820490  0.9460767052487142
  0.6675743385563422  0.1670032685467575  0.0540307355543987
  0.6603170566533976  0.1652250365231964  0.5528191243422640
  0.6685600983065001  0.5005625945729903  0.0537551392716082
  0.6691088889119499  0.5004858294875376  0.5548520350071229
  0.6684965928694453  0.8333911810756192  0.0542278259326281
  0.6679539807302532  0.8336601588072199  0.5542443266679058
  0.4959360579278069  0.9989896110785992  0.1261584134300335
  0.4953168412693358  0.9991393117059388  0.6291030921501672
  0.4966026331076634  0.3344156144675239  0.1275642423322125
  0.4959357989740383  0.3332557713902489  0.6267656980955252
  0.4967419857842756  0.6667189442159938  0.1264424032466351
  0.4966671388086894  0.6662965286699531  0.6280370088687377
  0.0038681188267731  0.1666038239062928  0.3729893649407146
  0.0031402834981833  0.1666136651959178  0.8724606684131331
  0.0033722757251979  0.4994328234720555  0.3728620962718665
  0.0031784428890518  0.4999161116437421  0.8725608596537597
  0.0033911936439779  0.8336606829806144  0.3728728190566954
  0.0029581042518743  0.8332821796495580  0.8721746580400804
  0.1730723541244004  0.9986179163673228  0.2802732474052689
  0.1725832025796237  0.0003024352537011  0.7805706431591730
  0.1733741819046628  0.3333047334712589  0.2805548195212211
  0.1724766191594966  0.3332101502829588  0.7805414579351506
  0.1736903534620851  0.6663494249148414  0.2812117096651789
  0.1719268792603330  0.6665021917748462  0.7803540224436674
  0.3255257755179741  0.1641240913909670  0.2179169228397555
  0.3275113934214673  0.1668993338435385  0.7195978612377303
  0.3284238383477600  0.4998303419326717  0.2197747655541065
  0.3270111633515640  0.5001056708460041  0.7195075932979762
  0.3289788452418705  0.8335634705587935  0.2202214059588599
  0.3267879631730750  0.8329028421423814  0.7195038640551559
  0.3258727188892436  0.1639179573680707  0.4468259119144875
  0.3329600988841293  0.1669527826766739  0.9466711345522683
  0.3342094917974947  0.4991955713088174  0.4455254518187530
  0.3315290079815796  0.5000916952291590  0.9455241965735794
  0.3354457270224174  0.8336570903087406  0.4450613713542140
  0.3312144763153029  0.8331553270013075  0.9453872561099814
  0.1674162392247212  0.9989994247313589  0.0536782966409532
  0.1675391092292386  0.9993124010065131  0.5543552228777457
  0.1676758583655982  0.3332325621839445  0.0541511213527315
  0.1679430301720330  0.3337395490514510  0.5542602376757912
  0.1680079829745011  0.6666272315396000  0.0546832788421057
  0.1680301547668606  0.6666106554542779  0.5538150778898796
  0.5071223158819720  0.3188573722079653  0.3733917369537778
  0.5977028122220744  0.1794669602004078  0.3989605647859946
 
  0.00000000E+00  0.00000000E+00  0.00000000E+00
  0.00000000E+00  0.00000000E+00  0.00000000E+00
  0.00000000E+00  0.00000000E+00  0.00000000E+00
  0.00000000E+00  0.00000000E+00  0.00000000E+00
  0.00000000E+00  0.00000000E+00  0.00000000E+00
  0.00000000E+00  0.00000000E+00  0.00000000E+00
  0.00000000E+00  0.00000000E+00  0.00000000E+00
  0.00000000E+00  0.00000000E+00  0.00000000E+00
  0.00000000E+00  0.00000000E+00  0.00000000E+00
  0.00000000E+00  0.00000000E+00  0.00000000E+00
  0.00000000E+00  0.00000000E+00  0.00000000E+00
  0.00000000E+00  0.00000000E+00  0.00000000E+00
  0.00000000E+00  0.00000000E+00  0.00000000E+00
  0.00000000E+00  0.00000000E+00  0.00000000E+00
  0.00000000E+00  0.00000000E+00  0.00000000E+00
  0.00000000E+00  0.00000000E+00  0.00000000E+00
  0.00000000E+00  0.00000000E+00  0.00000000E+00
  0.00000000E+00  0.00000000E+00  0.00000000E+00
  0.00000000E+00  0.00000000E+00  0.00000000E+00
  0.00000000E+00  0.00000000E+00  0.00000000E+00
  0.00000000E+00  0.00000000E+00  0.00000000E+00
  0.00000000E+00  0.00000000E+00  0.00000000E+00
  0.00000000E+00  0.00000000E+00  0.00000000E+00
  0.00000000E+00  0.00000000E+00  0.00000000E+00
  0.00000000E+00  0.00000000E+00  0.00000000E+00
  0.00000000E+00  0.00000000E+00  0.00000000E+00
  0.00000000E+00  0.00000000E+00  0.00000000E+00
  0.00000000E+00  0.00000000E+00  0.00000000E+00
  0.00000000E+00  0.00000000E+00  0.00000000E+00
  0.00000000E+00  0.00000000E+00  0.00000000E+00
  0.00000000E+00  0.00000000E+00  0.00000000E+00
  0.00000000E+00  0.00000000E+00  0.00000000E+00
  0.00000000E+00  0.00000000E+00  0.00000000E+00
  0.00000000E+00  0.00000000E+00  0.00000000E+00
  0.00000000E+00  0.00000000E+00  0.00000000E+00
  0.00000000E+00  0.00000000E+00  0.00000000E+00
  0.00000000E+00  0.00000000E+00  0.00000000E+00
  0.00000000E+00  0.00000000E+00  0.00000000E+00
  0.00000000E+00  0.00000000E+00  0.00000000E+00
  0.00000000E+00  0.00000000E+00  0.00000000E+00
  0.00000000E+00  0.00000000E+00  0.00000000E+00
  0.00000000E+00  0.00000000E+00  0.00000000E+00
  0.00000000E+00  0.00000000E+00  0.00000000E+00
  0.00000000E+00  0.00000000E+00  0.00000000E+00
  0.00000000E+00  0.00000000E+00  0.00000000E+00
  0.00000000E+00  0.00000000E+00  0.00000000E+00
  0.00000000E+00  0.00000000E+00  0.00000000E+00
  0.00000000E+00  0.00000000E+00  0.00000000E+00
  0.00000000E+00  0.00000000E+00  0.00000000E+00
  0.00000000E+00  0.00000000E+00  0.00000000E+00
  0.00000000E+00  0.00000000E+00  0.00000000E+00
  0.00000000E+00  0.00000000E+00  0.00000000E+00
  0.00000000E+00  0.00000000E+00  0.00000000E+00
  0.00000000E+00  0.00000000E+00  0.00000000E+00
  0.00000000E+00  0.00000000E+00  0.00000000E+00
  0.00000000E+00  0.00000000E+00  0.00000000E+00
  0.00000000E+00  0.00000000E+00  0.00000000E+00
  0.00000000E+00  0.00000000E+00  0.00000000E+00
  0.00000000E+00  0.00000000E+00  0.00000000E+00
  0.00000000E+00  0.00000000E+00  0.00000000E+00
  0.00000000E+00  0.00000000E+00  0.00000000E+00
  0.00000000E+00  0.00000000E+00  0.00000000E+00
  0.00000000E+00  0.00000000E+00  0.00000000E+00
  0.00000000E+00  0.00000000E+00  0.00000000E+00
  0.00000000E+00  0.00000000E+00  0.00000000E+00
  0.00000000E+00  0.00000000E+00  0.00000000E+00
  0.00000000E+00  0.00000000E+00  0.00000000E+00
  0.00000000E+00  0.00000000E+00  0.00000000E+00
  0.00000000E+00  0.00000000E+00  0.00000000E+00
  0.00000000E+00  0.00000000E+00  0.00000000E+00
  0.00000000E+00  0.00000000E+00  0.00000000E+00
  0.00000000E+00  0.00000000E+00  0.00000000E+00
  0.00000000E+00  0.00000000E+00  0.00000000E+00
  0.00000000E+00  0.00000000E+00  0.00000000E+00
  0.00000000E+00  0.00000000E+00  0.00000000E+00
  0.00000000E+00  0.00000000E+00  0.00000000E+00
  0.00000000E+00  0.00000000E+00  0.00000000E+00
  0.00000000E+00  0.00000000E+00  0.00000000E+00
  0.00000000E+00  0.00000000E+00  0.00000000E+00
  0.00000000E+00  0.00000000E+00  0.00000000E+00
  0.00000000E+00  0.00000000E+00  0.00000000E+00
  0.00000000E+00  0.00000000E+00  0.00000000E+00
  0.00000000E+00  0.00000000E+00  0.00000000E+00
  0.00000000E+00  0.00000000E+00  0.00000000E+00
  0.00000000E+00  0.00000000E+00  0.00000000E+00
  0.00000000E+00  0.00000000E+00  0.00000000E+00
  0.00000000E+00  0.00000000E+00  0.00000000E+00
  0.00000000E+00  0.00000000E+00  0.00000000E+00
  0.00000000E+00  0.00000000E+00  0.00000000E+00
  0.00000000E+00  0.00000000E+00  0.00000000E+00
  0.00000000E+00  0.00000000E+00  0.00000000E+00
  0.00000000E+00  0.00000000E+00  0.00000000E+00
  0.00000000E+00  0.00000000E+00  0.00000000E+00
  0.00000000E+00  0.00000000E+00  0.00000000E+00
  0.00000000E+00  0.00000000E+00  0.00000000E+00
  0.00000000E+00  0.00000000E+00  0.00000000E+00
  0.00000000E+00  0.00000000E+00  0.00000000E+00
  0.00000000E+00  0.00000000E+00  0.00000000E+00
  0.00000000E+00  0.00000000E+00  0.00000000E+00
  0.00000000E+00  0.00000000E+00  0.00000000E+00
  0.00000000E+00  0.00000000E+00  0.00000000E+00
  0.00000000E+00  0.00000000E+00  0.00000000E+00
  0.00000000E+00  0.00000000E+00  0.00000000E+00
  0.00000000E+00  0.00000000E+00  0.00000000E+00
  0.00000000E+00  0.00000000E+00  0.00000000E+00
  0.00000000E+00  0.00000000E+00  0.00000000E+00
  0.00000000E+00  0.00000000E+00  0.00000000E+00
  0.00000000E+00  0.00000000E+00  0.00000000E+00
  0.00000000E+00  0.00000000E+00  0.00000000E+00
  0.00000000E+00  0.00000000E+00  0.00000000E+00
  0.00000000E+00  0.00000000E+00  0.00000000E+00
  0.00000000E+00  0.00000000E+00  0.00000000E+00
  0.00000000E+00  0.00000000E+00  0.00000000E+00
  0.00000000E+00  0.00000000E+00  0.00000000E+00
  0.00000000E+00  0.00000000E+00  0.00000000E+00
  0.00000000E+00  0.00000000E+00  0.00000000E+00
  0.00000000E+00  0.00000000E+00  0.00000000E+00
  0.00000000E+00  0.00000000E+00  0.00000000E+00
  0.00000000E+00  0.00000000E+00  0.00000000E+00
  0.00000000E+00  0.00000000E+00  0.00000000E+00
