Ga48 O72                                
    1.000000000000000     
     0.0000000000000000   12.2804734172212839    0.0000000000000000
     9.1427020537309431    0.0000000000000000    0.0000000000000000
     0.0000000000000000   -2.7682617730220320  -11.3006977184464645
   Ga   O    P 
    48    71     1
Direct
  0.6605080018451051 -0.0000000000000000  0.1555157922403626
  0.6587448745702781 -0.0000000000000000  0.6574619309608700
  0.6601602982294743  0.3349422521019491  0.1551103744903133
  0.6602775318842539  0.3337028220266706  0.6567640477233710
  0.6601602982294743  0.6650577478980515  0.1551103744903133
  0.6602775318842539  0.6662971779733289  0.6567640477233710
  0.8347855276653701  0.1691674416769966  0.3437689910916180
  0.8397273975609901  0.1666318686510265  0.8446580719486257
  0.8406533910320858  0.5000000000000000  0.3436936318752840
  0.8396117353270837  0.5000000000000000  0.8412997624941081
  0.8347855276653701  0.8308325583230030  0.3437689910916180
  0.8397273975609901  0.8333681313489731  0.8446580719486257
  0.5915367368511488  0.1687926593185864  0.3982979000933294
  0.5914707802900750  0.1667918591798800  0.8979438432973985
  0.5957068406438522  0.5000000000000000  0.3981261868701720
  0.5929601644922134  0.5000000000000000  0.8970533944592527
  0.5915367368511488  0.8312073406814134  0.3982979000933294
  0.5914707802900750  0.8332081408201198  0.8979438432973985
  0.9099985606115962 -0.0000000000000000  0.1033433928726912
  0.9069353910537071 -0.0000000000000000  0.6042468903268211
  0.9045511216091228  0.3347171825485972  0.0998915529013906
  0.9074875539657267  0.3334946096428928  0.6004614182348086
  0.9045511216091228  0.6652828174514025  0.0998915529013906
  0.9074875539657267  0.6665053903571073  0.6004614182348086
  0.1607183273268890  0.1707674642901485  0.1476493333756083
  0.1589382854159406  0.1683946795862439  0.6600984016812520
  0.1573439767966960  0.5000000000000000  0.1596093098165890
  0.1589529528607339  0.5000000000000000  0.6539156877981656
  0.1607183273268890  0.8292325357098513  0.1476493333756083
  0.1589382854159406  0.8316053204137561  0.6600984016812520
  0.3503433094944039 -0.0000000000000000  0.3537678450264705
  0.3410257753656600 -0.0000000000000000  0.8455849743353772
  0.3429201521787464  0.3342914916844362  0.3408293213997728
  0.3421720486055300  0.3340995086622655  0.8432359606810648
  0.3429201521787464  0.6657085083155639  0.3408293213997728
  0.3421720486055300  0.6659004913377344  0.8432359606810648
  0.0683928431837427 -0.0000000000000000  0.4160953275943915
  0.0884576080817754 -0.0000000000000000  0.8943393416730521
  0.0910041944523675  0.3328556578788622  0.3957566140044272
  0.0888478181095690  0.3337804240561535  0.8955248230139623
  0.0910041944523675  0.6671443421211380  0.3957566140044272
  0.0888478181095690  0.6662195759438465  0.8955248230139623
  0.4131404015504445  0.1684846164788660  0.1018707914592946
  0.4125889809005616  0.1693529758200164  0.6072780799410599
  0.4098243573496548  0.5000000000000000  0.1020234594030556
  0.4105152047882254  0.5000000000000000  0.6013893753039933
  0.4131404015504445  0.8315153835211340  0.1018707914592946
  0.4125889809005616  0.8306470241799835  0.6072780799410599
  0.9910106874498127  0.1707421279116607  0.1175455967722229
  0.9948552185718142  0.1668087237438895  0.6289097485943511
  0.9932463630245898  0.5000000000000000  0.1253464404771964
  0.9956655151227225  0.5000000000000000  0.6259558515321640
  0.9910106874498127  0.8292578720883396  0.1175455967722229
  0.9948552185718142  0.8331912762561106  0.6289097485943511
  0.5073918256371824 -0.0000000000000000  0.3716087260807416
  0.5042128721309926 -0.0000000000000000  0.8727890508210187
  0.5072591001812511  0.3359249479945373  0.3722559140163292
  0.5049205003706326  0.3340181848584596  0.8732323911165045
  0.5072591001812511  0.6640750520054624  0.3722559140163292
  0.5049205003706326  0.6659818151415406  0.8732323911165045
  0.6708749090975953  0.1662920120504104  0.2791919595799446
  0.6721542355008582  0.1664923427088602  0.7804102741741262
  0.6730401562593651  0.5000000000000000  0.2781127036825011
  0.6730639386097685  0.5000000000000000  0.7795403907243371
  0.6708749090975953  0.8337079879495898  0.2791919595799446
  0.6721542355008582  0.8335076572911402  0.7804102741741262
  0.8278227233171380 -0.0000000000000000  0.2210070948019783
  0.8262301207036699 -0.0000000000000000  0.7205992644260977
  0.8263520367392252  0.3340652813751278  0.2198457527976627
  0.8273981209339368  0.3327196704910197  0.7189086107394260
  0.8263520367392252  0.6659347186248725  0.2198457527976627
  0.8273981209339368  0.6672803295089802  0.7189086107394260
  0.8303696279471265 -0.0000000000000000  0.4472048131801784
  0.8304004838058875 -0.0000000000000000  0.9458019054418729
  0.8236253503699583  0.3361763294899802  0.4465632359323793
  0.8281996028620164  0.3350640244805813  0.9430648405256397
  0.8236253503699583  0.6638236705100196  0.4465632359323793
  0.8281996028620164  0.6649359755194189  0.9430648405256397
  0.6699159206419620  0.1669214491194609  0.0538556980472157
  0.6676891812823256  0.1661075809445581  0.5548231269190641
  0.6727880980523637  0.5000000000000000  0.0524200670054925
  0.6691629121008985  0.5000000000000000  0.5553005961186465
  0.6699159206419620  0.8330785508805389  0.0538556980472157
  0.6676891812823256  0.8338924190554414  0.5548231269190641
  0.4988005847466516 -0.0000000000000000  0.1246399093768707
  0.4972068279582236 -0.0000000000000000  0.6296775549924110
  0.5000384192019494  0.3360168381062028  0.1230154814481224
  0.4996971195696692  0.3356953304474314  0.6328257590207137
  0.5000384192019494  0.6639831618937966  0.1230154814481224
  0.4996971195696692  0.6643046695525685  0.6328257590207137
 -0.0066716289000028  0.1763452353734447  0.3834083422959972
  0.0016731407090222  0.1672846253459244  0.8703279438646550
  0.0022232600734555  0.5000000000000000  0.3746230515181829
  0.0016311991010501  0.5000000000000000  0.8703992501803487
 -0.0066716289000028  0.8236547646265554  0.3834083422959972
  0.0016731407090222  0.8327153746540757  0.8703279438646550
  0.1737664621573486 -0.0000000000000000  0.7822812547643777
  0.1733692656324893  0.3421792094636267  0.2817186544151600
  0.1723648097621428  0.3341388812541878  0.7803580958759850
  0.1733692656324893  0.6578207905363731  0.2817186544151600
  0.1723648097621428  0.6658611187458117  0.7803580958759850
  0.3343921032448448  0.1798046190103582  0.2166871474799669
  0.3280725847926059  0.1674335417022195  0.7209305507862316
  0.3287409703846539  0.5000000000000000  0.2176207413682720
  0.3273344805338692  0.5000000000000000  0.7181589236261298
  0.3343921032448448  0.8201953809896417  0.2166871474799669
  0.3280725847926059  0.8325664582977805  0.7209305507862316
  0.3446568378965789  0.1746932445000174  0.4507507086308247
  0.3354279214135761  0.1685182794868052  0.9455484593116010
  0.3363767901590135  0.5000000000000000  0.4454085082304201
  0.3327072732569532  0.5000000000000000  0.9450138585612843
  0.3446568378965789  0.8253067554999824  0.4507507086308247
  0.3354279214135761  0.8314817205131945  0.9455484593116010
  0.1754724111891434 -0.0000000000000000  0.0434236282595795
  0.1638526571117964 -0.0000000000000000  0.5628508595876146
  0.1661363699478604  0.3375195311920675  0.0514181833989840
  0.1671615386838735  0.3320892650487348  0.5537689985799636
  0.1661363699478604  0.6624804688079327  0.0514181833989840
  0.1671615386838735  0.6679107349512654  0.5537689985799636
  0.1667164540148199 -0.0000000000000000  0.2857392528708924
 
  0.00000000E+00  0.00000000E+00  0.00000000E+00
  0.00000000E+00  0.00000000E+00  0.00000000E+00
  0.00000000E+00  0.00000000E+00  0.00000000E+00
  0.00000000E+00  0.00000000E+00  0.00000000E+00
  0.00000000E+00  0.00000000E+00  0.00000000E+00
  0.00000000E+00  0.00000000E+00  0.00000000E+00
  0.00000000E+00  0.00000000E+00  0.00000000E+00
  0.00000000E+00  0.00000000E+00  0.00000000E+00
  0.00000000E+00  0.00000000E+00  0.00000000E+00
  0.00000000E+00  0.00000000E+00  0.00000000E+00
  0.00000000E+00  0.00000000E+00  0.00000000E+00
  0.00000000E+00  0.00000000E+00  0.00000000E+00
  0.00000000E+00  0.00000000E+00  0.00000000E+00
  0.00000000E+00  0.00000000E+00  0.00000000E+00
  0.00000000E+00  0.00000000E+00  0.00000000E+00
  0.00000000E+00  0.00000000E+00  0.00000000E+00
  0.00000000E+00  0.00000000E+00  0.00000000E+00
  0.00000000E+00  0.00000000E+00  0.00000000E+00
  0.00000000E+00  0.00000000E+00  0.00000000E+00
  0.00000000E+00  0.00000000E+00  0.00000000E+00
  0.00000000E+00  0.00000000E+00  0.00000000E+00
  0.00000000E+00  0.00000000E+00  0.00000000E+00
  0.00000000E+00  0.00000000E+00  0.00000000E+00
  0.00000000E+00  0.00000000E+00  0.00000000E+00
  0.00000000E+00  0.00000000E+00  0.00000000E+00
  0.00000000E+00  0.00000000E+00  0.00000000E+00
  0.00000000E+00  0.00000000E+00  0.00000000E+00
  0.00000000E+00  0.00000000E+00  0.00000000E+00
  0.00000000E+00  0.00000000E+00  0.00000000E+00
  0.00000000E+00  0.00000000E+00  0.00000000E+00
  0.00000000E+00  0.00000000E+00  0.00000000E+00
  0.00000000E+00  0.00000000E+00  0.00000000E+00
  0.00000000E+00  0.00000000E+00  0.00000000E+00
  0.00000000E+00  0.00000000E+00  0.00000000E+00
  0.00000000E+00  0.00000000E+00  0.00000000E+00
  0.00000000E+00  0.00000000E+00  0.00000000E+00
  0.00000000E+00  0.00000000E+00  0.00000000E+00
  0.00000000E+00  0.00000000E+00  0.00000000E+00
  0.00000000E+00  0.00000000E+00  0.00000000E+00
  0.00000000E+00  0.00000000E+00  0.00000000E+00
  0.00000000E+00  0.00000000E+00  0.00000000E+00
  0.00000000E+00  0.00000000E+00  0.00000000E+00
  0.00000000E+00  0.00000000E+00  0.00000000E+00
  0.00000000E+00  0.00000000E+00  0.00000000E+00
  0.00000000E+00  0.00000000E+00  0.00000000E+00
  0.00000000E+00  0.00000000E+00  0.00000000E+00
  0.00000000E+00  0.00000000E+00  0.00000000E+00
  0.00000000E+00  0.00000000E+00  0.00000000E+00
  0.00000000E+00  0.00000000E+00  0.00000000E+00
  0.00000000E+00  0.00000000E+00  0.00000000E+00
  0.00000000E+00  0.00000000E+00  0.00000000E+00
  0.00000000E+00  0.00000000E+00  0.00000000E+00
  0.00000000E+00  0.00000000E+00  0.00000000E+00
  0.00000000E+00  0.00000000E+00  0.00000000E+00
  0.00000000E+00  0.00000000E+00  0.00000000E+00
  0.00000000E+00  0.00000000E+00  0.00000000E+00
  0.00000000E+00  0.00000000E+00  0.00000000E+00
  0.00000000E+00  0.00000000E+00  0.00000000E+00
  0.00000000E+00  0.00000000E+00  0.00000000E+00
  0.00000000E+00  0.00000000E+00  0.00000000E+00
  0.00000000E+00  0.00000000E+00  0.00000000E+00
  0.00000000E+00  0.00000000E+00  0.00000000E+00
  0.00000000E+00  0.00000000E+00  0.00000000E+00
  0.00000000E+00  0.00000000E+00  0.00000000E+00
  0.00000000E+00  0.00000000E+00  0.00000000E+00
  0.00000000E+00  0.00000000E+00  0.00000000E+00
  0.00000000E+00  0.00000000E+00  0.00000000E+00
  0.00000000E+00  0.00000000E+00  0.00000000E+00
  0.00000000E+00  0.00000000E+00  0.00000000E+00
  0.00000000E+00  0.00000000E+00  0.00000000E+00
  0.00000000E+00  0.00000000E+00  0.00000000E+00
  0.00000000E+00  0.00000000E+00  0.00000000E+00
  0.00000000E+00  0.00000000E+00  0.00000000E+00
  0.00000000E+00  0.00000000E+00  0.00000000E+00
  0.00000000E+00  0.00000000E+00  0.00000000E+00
  0.00000000E+00  0.00000000E+00  0.00000000E+00
  0.00000000E+00  0.00000000E+00  0.00000000E+00
  0.00000000E+00  0.00000000E+00  0.00000000E+00
  0.00000000E+00  0.00000000E+00  0.00000000E+00
  0.00000000E+00  0.00000000E+00  0.00000000E+00
  0.00000000E+00  0.00000000E+00  0.00000000E+00
  0.00000000E+00  0.00000000E+00  0.00000000E+00
  0.00000000E+00  0.00000000E+00  0.00000000E+00
  0.00000000E+00  0.00000000E+00  0.00000000E+00
  0.00000000E+00  0.00000000E+00  0.00000000E+00
  0.00000000E+00  0.00000000E+00  0.00000000E+00
  0.00000000E+00  0.00000000E+00  0.00000000E+00
  0.00000000E+00  0.00000000E+00  0.00000000E+00
  0.00000000E+00  0.00000000E+00  0.00000000E+00
  0.00000000E+00  0.00000000E+00  0.00000000E+00
  0.00000000E+00  0.00000000E+00  0.00000000E+00
  0.00000000E+00  0.00000000E+00  0.00000000E+00
  0.00000000E+00  0.00000000E+00  0.00000000E+00
  0.00000000E+00  0.00000000E+00  0.00000000E+00
  0.00000000E+00  0.00000000E+00  0.00000000E+00
  0.00000000E+00  0.00000000E+00  0.00000000E+00
  0.00000000E+00  0.00000000E+00  0.00000000E+00
  0.00000000E+00  0.00000000E+00  0.00000000E+00
  0.00000000E+00  0.00000000E+00  0.00000000E+00
  0.00000000E+00  0.00000000E+00  0.00000000E+00
  0.00000000E+00  0.00000000E+00  0.00000000E+00
  0.00000000E+00  0.00000000E+00  0.00000000E+00
  0.00000000E+00  0.00000000E+00  0.00000000E+00
  0.00000000E+00  0.00000000E+00  0.00000000E+00
  0.00000000E+00  0.00000000E+00  0.00000000E+00
  0.00000000E+00  0.00000000E+00  0.00000000E+00
  0.00000000E+00  0.00000000E+00  0.00000000E+00
  0.00000000E+00  0.00000000E+00  0.00000000E+00
  0.00000000E+00  0.00000000E+00  0.00000000E+00
  0.00000000E+00  0.00000000E+00  0.00000000E+00
  0.00000000E+00  0.00000000E+00  0.00000000E+00
  0.00000000E+00  0.00000000E+00  0.00000000E+00
  0.00000000E+00  0.00000000E+00  0.00000000E+00
  0.00000000E+00  0.00000000E+00  0.00000000E+00
  0.00000000E+00  0.00000000E+00  0.00000000E+00
  0.00000000E+00  0.00000000E+00  0.00000000E+00
  0.00000000E+00  0.00000000E+00  0.00000000E+00
  0.00000000E+00  0.00000000E+00  0.00000000E+00
  0.00000000E+00  0.00000000E+00  0.00000000E+00
  0.00000000E+00  0.00000000E+00  0.00000000E+00
