       N       E                     dE             d eps       ncg     rms          ort
SDA:   1    -0.946839779058E+03   -0.94684E+03    0.00000E+00  5064   0.259E+02 0.000E+00
CGA:   2    -0.951814841218E+03   -0.49751E+01   -0.49772E+01  5064   0.724E+01 0.156E+00
CGA:   3    -0.954745292066E+03   -0.29305E+01   -0.28567E+01  5064   0.173E+01 0.369E+00
CGA:   4    -0.955206194622E+03   -0.46090E+00   -0.45943E+00  5064   0.107E+01 0.246E-01
CGA:   5    -0.955496512828E+03   -0.29032E+00   -0.28876E+00  5064   0.283E+00 0.200E-01
CGA:   6    -0.955571105929E+03   -0.74593E-01   -0.74484E-01  5064   0.132E+00 0.167E-02
CGA:   7    -0.955597850394E+03   -0.26744E-01   -0.26754E-01  5064   0.269E-01 0.414E-03
CGA:   8    -0.955603425556E+03   -0.55752E-02   -0.55762E-02  5064   0.128E-01 0.107E-03
CGA:   9    -0.955605880084E+03   -0.24545E-02   -0.24560E-02  5064   0.421E-02 0.565E-04
CGA:  10    -0.955606839537E+03   -0.95945E-03   -0.95884E-03  5064   0.212E-02 0.472E-04
CGA:  11    -0.955607330098E+03   -0.49056E-03   -0.48989E-03  5064   0.897E-03 0.491E-04
CGA:  12    -0.955607512486E+03   -0.18239E-03   -0.18286E-03  5064   0.341E-03 0.293E-04
CGA:  13    -0.955607580323E+03   -0.67838E-04   -0.68145E-04  5064   0.129E-03 0.148E-04
CGA:  14    -0.955607606900E+03   -0.26577E-04   -0.26687E-04  5064   0.474E-04 0.717E-05
CGA:  15    -0.955607617398E+03   -0.10498E-04   -0.10508E-04  5064   0.217E-04 0.369E-05
CGA:  16    -0.955607621609E+03   -0.42109E-05   -0.42760E-05  5064   0.830E-05 0.222E-05
   1 F= -.95560762E+03 E0= -.95559445E+03  d E =-.263461E-01
