 running    4 mpi-ranks, on    1 nodes
 distrk:  each k-point on    1 cores,    4 groups
 distr:  one band on    1 cores,    1 groups
 OpenACC runtime initialized ...    4 GPUs detected
 vasp.6.4.2 20Jul23 (build Nov 12 2023 22:16:35) complex                         
 POSCAR found type information on POSCAR GaO CuN 
 POSCAR found :  4 types and     120 ions
 scaLAPACK will be used selectively (only on CPU)
 LDA part: xc-table for Pade appr. of Perdew
 POSCAR, INCAR and KPOINTS ok, starting setup
 FFT: planning ... GRIDC
 FFT: planning ... GRID_SOFT
 FFT: planning ... GRID
 WAVECAR not read
 entering main loop
       N       E                     dE             d eps       ncg     rms          rms(c)
DAV:   1     0.219631526708E+05    0.21963E+05   -0.32064E+05 10112   0.282E+03
DAV:   2     0.489194360862E+04   -0.17071E+05   -0.16078E+05 10112   0.818E+02
DAV:   3    -0.120784882587E+03   -0.50127E+04   -0.47083E+04 12680   0.322E+02
DAV:   4    -0.775326364576E+03   -0.65454E+03   -0.63737E+03 12456   0.123E+02
DAV:   5    -0.824652762068E+03   -0.49326E+02   -0.48783E+02 14664   0.368E+01BRMIX: very serious problems
 the old and the new charge density differ
 old charge density:  1053.00000 new 1053.99974
BRMIX: very serious problems
 the old and the new charge density differ
 old charge density:  1053.00000 new 1053.99974
BRMIX: very serious problems
 the old and the new charge density differ
 old charge density:  1053.00000 new 1053.99974
BRMIX: very serious problems
 the old and the new charge density differ
 old charge density:  1053.00000 new 1053.99974
    0.707E+01
RMM:   6    -0.745131288464E+03    0.79521E+02   -0.63067E+02 14133   0.330E+01    0.343E+01
RMM:   7    -0.704249523661E+03    0.40882E+02   -0.16591E+02 13850   0.198E+01    0.175E+01
RMM:   8    -0.705787832433E+03   -0.15383E+01   -0.50354E+01 12621   0.932E+00    0.118E+01
RMM:   9    -0.707873181978E+03   -0.20853E+01   -0.11444E+01 13451   0.559E+00    0.127E+01
RMM:  10    -0.706046831517E+03    0.18264E+01   -0.69602E+00 12856   0.360E+00    0.837E+00
RMM:  11    -0.705949572120E+03    0.97259E-01   -0.14747E+00 14307   0.216E+00    0.403E+00
RMM:  12    -0.705609678345E+03    0.33989E+00   -0.11005E+00 13743   0.119E+00    0.240E+00
RMM:  13    -0.705592925447E+03    0.16753E-01   -0.28007E-01 15419   0.529E-01    0.162E+00
RMM:  14    -0.705636466195E+03   -0.43541E-01   -0.25285E-01 13548   0.586E-01    0.362E+00
RMM:  15    -0.705646014915E+03   -0.95487E-02   -0.15037E-01 13199   0.426E-01    0.173E+00
RMM:  16    -0.705597382727E+03    0.48632E-01   -0.50583E-02 14584   0.293E-01    0.788E-01
RMM:  17    -0.705589782316E+03    0.76004E-02   -0.13436E-02 14130   0.140E-01    0.694E-01
RMM:  18    -0.705589591710E+03    0.19061E-03   -0.98132E-03 13011   0.105E-01    0.605E-01
RMM:  19    -0.705587771813E+03    0.18199E-02   -0.56942E-03 13033   0.956E-02    0.353E-01
RMM:  20    -0.705587491781E+03    0.28003E-03   -0.26903E-03 11459   0.515E-02    0.217E-01
RMM:  21    -0.705587253157E+03    0.23862E-03   -0.11593E-03 10611   0.357E-02    0.134E-01
RMM:  22    -0.705587219204E+03    0.33952E-04   -0.77443E-04  9344   0.229E-02    0.111E-01
RMM:  23    -0.705587201764E+03    0.17441E-04   -0.34361E-04  9287   0.173E-02    0.919E-02
RMM:  24    -0.705587190903E+03    0.10861E-04   -0.22040E-04  8261   0.124E-02    0.534E-02
RMM:  25    -0.705587176706E+03    0.14197E-04   -0.11011E-04  7852   0.885E-03    0.343E-02
RMM:  26    -0.705587180745E+03   -0.40395E-05   -0.70946E-05  6695   0.596E-03
   1 F= -.70558718E+03 E0= -.70557657E+03  d E =-.705587E+03
 curvature:   0.00 expect dE= 0.000E+00 dE for cont linesearch  0.000E+00
 trial: gam= 0.00000 g(F)=  0.133E+01 g(S)=  0.000E+00 ort = 0.000E+00 (trialstep = 0.100E+01)
 search vector abs. value=  0.133E+01
 bond charge predicted
       N       E                     dE             d eps       ncg     rms          rms(c)
DAV:   1    -0.704299752607E+03    0.12874E+01   -0.30080E+02 11448   0.244E+01    0.293E+00
RMM:   2    -0.705603338754E+03   -0.13036E+01   -0.13977E+01 14101   0.771E+00    0.313E+00
RMM:   3    -0.705951909180E+03   -0.34857E+00   -0.32279E+00 15107   0.311E+00    0.254E+00
RMM:   4    -0.705848327400E+03    0.10358E+00   -0.44704E-01 14786   0.124E+00    0.151E+00
RMM:   5    -0.705824071703E+03    0.24256E-01   -0.10616E-01 15414   0.507E-01    0.137E+00
RMM:   6    -0.705793773280E+03    0.30298E-01   -0.79095E-02 12885   0.454E-01    0.210E+00
RMM:   7    -0.705780648329E+03    0.13125E-01   -0.11457E-01 13319   0.417E-01    0.222E+00
RMM:   8    -0.705773518420E+03    0.71299E-02   -0.31997E-02 14574   0.318E-01    0.113E+00
RMM:   9    -0.705758993103E+03    0.14525E-01   -0.87271E-03 13109   0.154E-01    0.611E-01
RMM:  10    -0.705762065487E+03   -0.30724E-02   -0.72168E-03 13304   0.129E-01    0.105E+00
RMM:  11    -0.705756253902E+03    0.58116E-02   -0.26622E-03 13591   0.903E-02    0.148E-01
RMM:  12    -0.705755237487E+03    0.10164E-02   -0.13234E-03 12787   0.607E-02    0.430E-01
RMM:  13    -0.705754503683E+03    0.73380E-03   -0.57879E-04 10475   0.325E-02    0.800E-02
RMM:  14    -0.705754687068E+03   -0.18338E-03   -0.30116E-04  9221   0.240E-02    0.284E-01
RMM:  15    -0.705754414193E+03    0.27288E-03   -0.14291E-04  8633   0.146E-02    0.952E-02
RMM:  16    -0.705754412088E+03    0.21054E-05   -0.91644E-05  8306   0.130E-02
   2 F= -.70575441E+03 E0= -.70574580E+03  d E =-.167231E+00
 trial-energy change:   -0.167231  1 .order   -0.153232   -1.329478    1.023015
 step:   0.5739(harm=  0.5651)  dis= 0.03678  next Energy=  -705.971299 (dE=-0.384E+00)
 bond charge predicted
       N       E                     dE             d eps       ncg     rms          rms(c)
DAV:   1    -0.705723715917E+03    0.30698E-01   -0.54198E+01 11312   0.108E+01    0.134E+00
RMM:   2    -0.705970714010E+03   -0.24700E+00   -0.24043E+00 14147   0.326E+00    0.151E+00
RMM:   3    -0.706000792608E+03   -0.30079E-01   -0.55234E-01 14938   0.135E+00    0.165E+00
RMM:   4    -0.705996505167E+03    0.42874E-02   -0.79839E-02 14789   0.523E-01    0.101E+00
RMM:   5    -0.705984365636E+03    0.12140E-01   -0.21202E-02 15231   0.224E-01    0.909E-01
RMM:   6    -0.705975416646E+03    0.89490E-02   -0.15746E-02 13270   0.158E-01    0.477E-01
RMM:   7    -0.705974448614E+03    0.96803E-03   -0.10703E-02 13485   0.137E-01    0.742E-01
RMM:   8    -0.705973275769E+03    0.11728E-02   -0.35267E-03 14566   0.888E-02    0.498E-01
RMM:   9    -0.705972236974E+03    0.10388E-02   -0.11225E-03 11603   0.569E-02    0.332E-01
RMM:  10    -0.705971705327E+03    0.53165E-03   -0.12252E-03 13170   0.460E-02    0.285E-01
RMM:  11    -0.705971336488E+03    0.36884E-03   -0.40943E-04 11246   0.363E-02    0.132E-01
RMM:  12    -0.705971292171E+03    0.44317E-04   -0.24220E-04 10002   0.221E-02    0.184E-01
RMM:  13    -0.705971156618E+03    0.13555E-03   -0.10253E-04  8727   0.159E-02    0.370E-02
RMM:  14    -0.705971137681E+03    0.18937E-04   -0.53647E-05  7713   0.993E-03    0.993E-02
RMM:  15    -0.705971101817E+03    0.35864E-04   -0.25160E-05  6780   0.684E-03    0.147E-02
RMM:  16    -0.705971097044E+03    0.47737E-05   -0.12894E-05  6163   0.527E-03
   3 F= -.70597110E+03 E0= -.70596120E+03  d E =-.383916E+00
 curvature:  -0.28 expect dE=-0.725E-01 dE for cont linesearch -0.304E-08
 trial: gam= 0.19310 g(F)=  0.257E+00 g(S)=  0.000E+00 ort = 0.120E-03 (trialstep = 0.915E+00)
 search vector abs. value=  0.306E+00
 bond charge predicted
       N       E                     dE             d eps       ncg     rms          rms(c)
DAV:   1    -0.705863377135E+03    0.10772E+00   -0.61047E+01 10872   0.105E+01    0.154E+00
RMM:   2    -0.706090078023E+03   -0.22670E+00   -0.22135E+00 13604   0.288E+00    0.244E+00
RMM:   3    -0.706143608060E+03   -0.53530E-01   -0.46248E-01 15091   0.118E+00    0.134E+00
RMM:   4    -0.706109061443E+03    0.34547E-01   -0.63555E-02 14442   0.475E-01    0.563E-01
RMM:   5    -0.706106844944E+03    0.22165E-02   -0.18423E-02 15309   0.184E-01    0.555E-01
RMM:   6    -0.706104824277E+03    0.20207E-02   -0.12114E-02 12955   0.155E-01    0.644E-01
RMM:   7    -0.706104544176E+03    0.28010E-03   -0.51016E-03 13547   0.890E-02    0.429E-01
RMM:   8    -0.706103597181E+03    0.94700E-03   -0.16553E-03 11756   0.777E-02    0.317E-01
RMM:   9    -0.706103177187E+03    0.41999E-03   -0.63917E-04 11099   0.352E-02    0.199E-01
RMM:  10    -0.706103055307E+03    0.12188E-03   -0.33187E-04  9697   0.280E-02    0.186E-01
RMM:  11    -0.706102884029E+03    0.17128E-03   -0.18950E-04  9390   0.199E-02    0.779E-02
RMM:  12    -0.706102844886E+03    0.39143E-04   -0.10022E-04  8391   0.142E-02    0.786E-02
RMM:  13    -0.706102812298E+03    0.32588E-04   -0.48951E-05  7487   0.905E-03    0.270E-02
RMM:  14    -0.706102808702E+03    0.35967E-05   -0.26641E-05  6770   0.669E-03
   4 F= -.70610281E+03 E0= -.70609515E+03  d E =-.131712E+00
 trial-energy change:   -0.131712  1 .order   -0.130405   -0.234967   -0.025843
 step:   1.0233(harm=  1.0278)  dis= 0.03589  next Energy=  -706.104343 (dE=-0.133E+00)
 bond charge predicted
       N       E                     dE             d eps       ncg     rms          rms(c)
DAV:   1    -0.706101249562E+03    0.15627E-02   -0.85944E-01 11720   0.125E+00    0.196E-01
RMM:   2    -0.706104766554E+03   -0.35170E-02   -0.29959E-02 13497   0.337E-01    0.366E-01
RMM:   3    -0.706105091078E+03   -0.32452E-03   -0.64187E-03 14464   0.147E-01    0.231E-01
RMM:   4    -0.706104640685E+03    0.45039E-03   -0.11188E-03 13394   0.584E-02    0.965E-02
RMM:   5    -0.706104589024E+03    0.51662E-04   -0.32907E-04 11230   0.266E-02    0.125E-01
RMM:   6    -0.706104528961E+03    0.60063E-04   -0.11656E-04  8712   0.171E-02    0.730E-02
RMM:   7    -0.706104496750E+03    0.32211E-04   -0.93024E-05  9292   0.131E-02    0.713E-02
RMM:   8    -0.706104486979E+03    0.97708E-05   -0.25604E-05  6711   0.924E-03
   5 F= -.70610449E+03 E0= -.70609738E+03  d E =-.133390E+00
 curvature:  -0.61 expect dE=-0.812E-01 dE for cont linesearch -0.110E-04
 trial: gam= 0.49948 g(F)=  0.133E+00 g(S)=  0.000E+00 ort = 0.235E-02 (trialstep = 0.936E+00)
 search vector abs. value=  0.211E+00
 bond charge predicted
       N       E                     dE             d eps       ncg     rms          rms(c)
DAV:   1    -0.706003767062E+03    0.10073E+00   -0.44164E+01 10712   0.929E+00    0.129E+00
RMM:   2    -0.706167218974E+03   -0.16345E+00   -0.16311E+00 13684   0.251E+00    0.178E+00
RMM:   3    -0.706202356769E+03   -0.35138E-01   -0.32126E-01 14939   0.103E+00    0.132E+00
RMM:   4    -0.706190604155E+03    0.11753E-01   -0.43972E-02 15629   0.363E-01    0.842E-01
RMM:   5    -0.706185528883E+03    0.50753E-02   -0.10969E-02 14883   0.168E-01    0.625E-01
RMM:   6    -0.706182080758E+03    0.34481E-02   -0.51721E-03 13787   0.106E-01    0.460E-01
RMM:   7    -0.706180471770E+03    0.16090E-02   -0.85237E-03 13033   0.125E-01    0.214E-01
RMM:   8    -0.706179999070E+03    0.47270E-03   -0.11897E-03 13165   0.629E-02    0.165E-01
RMM:   9    -0.706179839858E+03    0.15921E-03   -0.61900E-04 10670   0.261E-02    0.484E-02
RMM:  10    -0.706179839653E+03    0.20533E-06   -0.16688E-04  9297   0.183E-02    0.750E-02
RMM:  11    -0.706179823417E+03    0.16236E-04   -0.11136E-04  8680   0.117E-02    0.307E-02
RMM:  12    -0.706179819761E+03    0.36558E-05   -0.42425E-05  7550   0.938E-03
   6 F= -.70617982E+03 E0= -.70617477E+03  d E =-.753328E-01
 trial-energy change:   -0.075333  1 .order   -0.074973   -0.125327   -0.024618
 step:   1.1595(harm=  1.1654)  dis= 0.02746  next Energy=  -706.182756 (dE=-0.783E-01)
 bond charge predicted
       N       E                     dE             d eps       ncg     rms          rms(c)
DAV:   1    -0.706173517392E+03    0.63060E-02   -0.25081E+00 11416   0.221E+00    0.317E-01
RMM:   2    -0.706183039163E+03   -0.95218E-02   -0.90114E-02 13678   0.586E-01    0.468E-01
RMM:   3    -0.706184489779E+03   -0.14506E-02   -0.17204E-02 15034   0.238E-01    0.385E-01
RMM:   4    -0.706184077207E+03    0.41257E-03   -0.24574E-03 15323   0.863E-02    0.283E-01
RMM:   5    -0.706183578185E+03    0.49902E-03   -0.67638E-04 12003   0.470E-02    0.157E-01
RMM:   6    -0.706183373055E+03    0.20513E-03   -0.52361E-04 11717   0.327E-02    0.158E-01
RMM:   7    -0.706183229737E+03    0.14332E-03   -0.29695E-04 10889   0.263E-02    0.269E-02
RMM:   8    -0.706183218086E+03    0.11650E-04   -0.65706E-05  8154   0.141E-02    0.725E-02
RMM:   9    -0.706183195418E+03    0.22668E-04   -0.34614E-05  7191   0.768E-03    0.944E-03
RMM:  10    -0.706183194963E+03    0.45578E-06   -0.14449E-05  6257   0.639E-03
   7 F= -.70618319E+03 E0= -.70617868E+03  d E =-.787080E-01
 curvature:  -0.92 expect dE=-0.710E-01 dE for cont linesearch -0.130E-04
 trial: gam= 0.54913 g(F)=  0.772E-01 g(S)=  0.000E+00 ort = 0.173E-02 (trialstep = 0.981E+00)
 search vector abs. value=  0.143E+00
 bond charge predicted
       N       E                     dE             d eps       ncg     rms          rms(c)
DAV:   1    -0.706096561496E+03    0.86634E-01   -0.33501E+01 10496   0.804E+00    0.101E+00
RMM:   2    -0.706206143353E+03   -0.10958E+00   -0.11656E+00 13427   0.214E+00    0.436E-01
RMM:   3    -0.706230148113E+03   -0.24005E-01   -0.24039E-01 14758   0.916E-01    0.634E-01
RMM:   4    -0.706228838489E+03    0.13096E-02   -0.38420E-02 15163   0.351E-01    0.343E-01
RMM:   5    -0.706229082640E+03   -0.24415E-03   -0.98470E-03 15525   0.124E-01    0.341E-01
RMM:   6    -0.706227695142E+03    0.13875E-02   -0.30145E-03 13401   0.758E-02    0.212E-01
RMM:   7    -0.706227503295E+03    0.19185E-03   -0.44817E-03 12843   0.832E-02    0.158E-01
RMM:   8    -0.706227270327E+03    0.23297E-03   -0.60748E-04 12046   0.486E-02    0.899E-02
RMM:   9    -0.706227210463E+03    0.59864E-04   -0.37020E-04 10887   0.233E-02    0.555E-02
RMM:  10    -0.706227195703E+03    0.14760E-04   -0.12589E-04  9096   0.161E-02    0.257E-02
RMM:  11    -0.706227195629E+03    0.74841E-07   -0.67314E-05  7964   0.102E-02
   8 F= -.70622720E+03 E0= -.70622450E+03  d E =-.440007E-01
 trial-energy change:   -0.044001  1 .order   -0.043086   -0.076628   -0.009543
 step:   1.1088(harm=  1.1206)  dis= 0.02280  next Energy=  -706.227819 (dE=-0.446E-01)
 bond charge predicted
       N       E                     dE             d eps       ncg     rms          rms(c)
DAV:   1    -0.706225823556E+03    0.13721E-02   -0.57042E-01 11648   0.105E+00    0.128E-01
RMM:   2    -0.706227656505E+03   -0.18329E-02   -0.19309E-02 13370   0.276E-01    0.692E-02
RMM:   3    -0.706228055596E+03   -0.39909E-03   -0.40191E-03 14806   0.118E-01    0.101E-01
RMM:   4    -0.706228034162E+03    0.21434E-04   -0.60169E-04 13474   0.424E-02    0.617E-02
RMM:   5    -0.706228031834E+03    0.23278E-05   -0.17557E-04 10427   0.210E-02    0.530E-02
RMM:   6    -0.706227996259E+03    0.35576E-04   -0.87818E-05  9304   0.143E-02    0.276E-02
RMM:   7    -0.706227993481E+03    0.27780E-05   -0.75073E-05  9043   0.119E-02
   9 F= -.70622799E+03 E0= -.70622553E+03  d E =-.447985E-01
 curvature:  -1.02 expect dE=-0.434E-01 dE for cont linesearch -0.504E-04
 trial: gam= 0.54876 g(F)=  0.427E-01 g(S)=  0.000E+00 ort = 0.266E-02 (trialstep = 0.101E+01)
 search vector abs. value=  0.886E-01
 bond charge predicted
       N       E                     dE             d eps       ncg     rms          rms(c)
DAV:   1    -0.706172985279E+03    0.55011E-01   -0.21539E+01 10592   0.653E+00    0.836E-01
RMM:   2    -0.706243145340E+03   -0.70160E-01   -0.70937E-01 13381   0.171E+00    0.798E-01
RMM:   3    -0.706261411123E+03   -0.18266E-01   -0.16132E-01 15181   0.705E-01    0.989E-01
RMM:   4    -0.706257770370E+03    0.36408E-02   -0.18195E-02 15449   0.252E-01    0.444E-01
RMM:   5    -0.706255990076E+03    0.17803E-02   -0.47852E-03 14773   0.118E-01    0.366E-01
RMM:   6    -0.706254702613E+03    0.12875E-02   -0.42988E-03 12963   0.867E-02    0.219E-01
RMM:   7    -0.706254569860E+03    0.13275E-03   -0.11660E-03 12850   0.552E-02    0.170E-01
RMM:   8    -0.706254348742E+03    0.22112E-03   -0.35973E-04 10693   0.320E-02    0.465E-02
RMM:   9    -0.706254341146E+03    0.75965E-05   -0.19673E-04  9220   0.164E-02    0.806E-02
RMM:  10    -0.706254313687E+03    0.27459E-04   -0.97442E-05  8498   0.126E-02    0.190E-02
RMM:  11    -0.706254311243E+03    0.24442E-05   -0.46266E-05  7353   0.910E-03
  10 F= -.70625431E+03 E0= -.70625289E+03  d E =-.263178E-01
 trial-energy change:   -0.026318  1 .order   -0.026264   -0.044422   -0.008106
 step:   1.2313(harm=  1.2313)  dis= 0.01182  next Energy=  -706.255162 (dE=-0.272E-01)
 bond charge predicted
       N       E                     dE             d eps       ncg     rms          rms(c)
DAV:   1    -0.706251344916E+03    0.29688E-02   -0.10741E+00 11312   0.146E+00    0.184E-01
RMM:   2    -0.706254853038E+03   -0.35081E-02   -0.35462E-02 13411   0.379E-01    0.173E-01
RMM:   3    -0.706255703805E+03   -0.85077E-03   -0.75060E-03 15136   0.153E-01    0.221E-01
RMM:   4    -0.706255529506E+03    0.17430E-03   -0.88317E-04 15000   0.551E-02    0.101E-01
RMM:   5    -0.706255456665E+03    0.72842E-04   -0.24263E-04 10889   0.282E-02    0.930E-02
RMM:   6    -0.706255374979E+03    0.81686E-04   -0.26010E-04 10968   0.224E-02    0.176E-02
RMM:   7    -0.706255370635E+03    0.43433E-05   -0.50351E-05  7596   0.130E-02
  11 F= -.70625537E+03 E0= -.70625414E+03  d E =-.273772E-01
 curvature:  -1.24 expect dE=-0.369E-01 dE for cont linesearch -0.100E-04
 trial: gam= 0.66672 g(F)=  0.298E-01 g(S)=  0.000E+00 ort = 0.847E-03 (trialstep = 0.105E+01)
 search vector abs. value=  0.704E-01
 bond charge predicted
       N       E                     dE             d eps       ncg     rms          rms(c)
DAV:   1    -0.706203720272E+03    0.51655E-01   -0.18731E+01 10680   0.615E+00    0.881E-01
RMM:   2    -0.706271349488E+03   -0.67629E-01   -0.61574E-01 13296   0.161E+00    0.127E+00
RMM:   3    -0.706280331034E+03   -0.89815E-02   -0.14574E-01 15264   0.688E-01    0.864E-01
RMM:   4    -0.706276482178E+03    0.38489E-02   -0.17392E-02 15349   0.244E-01    0.444E-01
RMM:   5    -0.706274688175E+03    0.17940E-02   -0.44193E-03 15093   0.107E-01    0.346E-01
RMM:   6    -0.706273417919E+03    0.12703E-02   -0.33985E-03 12911   0.779E-02    0.729E-02
RMM:   7    -0.706273495219E+03   -0.77300E-04   -0.88662E-04 12193   0.508E-02    0.185E-01
RMM:   8    -0.706273333183E+03    0.16204E-03   -0.33824E-04  9997   0.299E-02    0.731E-02
RMM:   9    -0.706273308634E+03    0.24550E-04   -0.16544E-04  9075   0.154E-02    0.767E-02
RMM:  10    -0.706273289305E+03    0.19329E-04   -0.93040E-05  8457   0.109E-02    0.119E-02
RMM:  11    -0.706273295303E+03   -0.59978E-05   -0.40860E-05  7321   0.898E-03
  12 F= -.70627330E+03 E0= -.70627256E+03  d E =-.179247E-01
 trial-energy change:   -0.017925  1 .order   -0.017725   -0.031979   -0.003471
 step:   1.1738(harm=  1.1796)  dis= 0.01280  next Energy=  -706.273497 (dE=-0.181E-01)
 bond charge predicted
       N       E                     dE             d eps       ncg     rms          rms(c)
DAV:   1    -0.706272650729E+03    0.63858E-03   -0.25364E-01 11824   0.714E-01    0.107E-01
RMM:   2    -0.706273591368E+03   -0.94064E-03   -0.83080E-03 13299   0.185E-01    0.167E-01
RMM:   3    -0.706273689677E+03   -0.98310E-04   -0.18741E-03 15046   0.790E-02    0.115E-01
RMM:   4    -0.706273621647E+03    0.68030E-04   -0.23724E-04 12320   0.295E-02    0.590E-02
RMM:   5    -0.706273600653E+03    0.20995E-04   -0.74536E-05  8630   0.172E-02    0.567E-02
RMM:   6    -0.706273578609E+03    0.22044E-04   -0.46045E-05  7371   0.118E-02    0.187E-02
RMM:   7    -0.706273575077E+03    0.35325E-05   -0.21792E-05  6477   0.879E-03
  13 F= -.70627358E+03 E0= -.70627288E+03  d E =-.182044E-01
 curvature:  -1.36 expect dE=-0.196E-01 dE for cont linesearch -0.376E-04
 trial: gam= 0.45545 g(F)=  0.144E-01 g(S)=  0.000E+00 ort = 0.139E-02 (trialstep = 0.108E+01)
 search vector abs. value=  0.303E-01
 bond charge predicted
       N       E                     dE             d eps       ncg     rms          rms(c)
DAV:   1    -0.706251432441E+03    0.22146E-01   -0.82408E+00 10792   0.417E+00    0.706E-01
RMM:   2    -0.706288644401E+03   -0.37212E-01   -0.28855E-01 13514   0.111E+00    0.130E+00
RMM:   3    -0.706287583526E+03    0.10609E-02   -0.65262E-02 15157   0.473E-01    0.667E-01
RMM:   4    -0.706284661944E+03    0.29216E-02   -0.86357E-03 15090   0.178E-01    0.384E-01
RMM:   5    -0.706283198440E+03    0.14635E-02   -0.22710E-03 14812   0.793E-02    0.209E-01
RMM:   6    -0.706282546477E+03    0.65196E-03   -0.15228E-03 12923   0.531E-02    0.747E-02
RMM:   7    -0.706282564866E+03   -0.18389E-04   -0.47892E-04 12386   0.340E-02    0.112E-01
RMM:   8    -0.706282497515E+03    0.67351E-04   -0.17273E-04  9223   0.220E-02    0.287E-02
RMM:   9    -0.706282490870E+03    0.66451E-05   -0.81743E-05  8117   0.113E-02
  14 F= -.70628249E+03 E0= -.70628195E+03  d E =-.891579E-02
 trial-energy change:   -0.008916  1 .order   -0.008965   -0.016167   -0.001763
 step:   1.2108(harm=  1.2077)  dis= 0.00846  next Energy=  -706.282601 (dE=-0.903E-02)
 bond charge predicted
       N       E                     dE             d eps       ncg     rms          rms(c)
DAV:   1    -0.706282130326E+03    0.36719E-03   -0.13041E-01 11784   0.526E-01    0.821E-02
RMM:   2    -0.706282675655E+03   -0.54533E-03   -0.47007E-03 13549   0.141E-01    0.134E-01
RMM:   3    -0.706282713753E+03   -0.38098E-04   -0.10184E-03 14652   0.599E-02    0.876E-02
RMM:   4    -0.706282669621E+03    0.44132E-04   -0.15026E-04 11209   0.238E-02    0.414E-02
RMM:   5    -0.706282657403E+03    0.12218E-04   -0.46054E-05  7389   0.138E-02    0.394E-02
RMM:   6    -0.706282645804E+03    0.11599E-04   -0.26924E-05  6543   0.893E-03    0.125E-02
RMM:   7    -0.706282644249E+03    0.15554E-05   -0.13061E-05  6056   0.757E-03
  15 F= -.70628264E+03 E0= -.70628212E+03  d E =-.906917E-02
 curvature:  -1.22 expect dE=-0.956E-02 dE for cont linesearch -0.273E-04
 trial: gam= 0.52376 g(F)=  0.787E-02 g(S)=  0.000E+00 ort = 0.824E-03 (trialstep = 0.110E+01)
 search vector abs. value=  0.170E-01
 bond charge predicted
       N       E                     dE             d eps       ncg     rms          rms(c)
DAV:   1    -0.706270983373E+03    0.11662E-01   -0.48225E+00 11216   0.321E+00    0.607E-01
RMM:   2    -0.706294756132E+03   -0.23773E-01   -0.16672E-01 13363   0.845E-01    0.116E+00
RMM:   3    -0.706292040395E+03    0.27157E-02   -0.38413E-02 14987   0.373E-01    0.568E-01
RMM:   4    -0.706289821105E+03    0.22193E-02   -0.57971E-03 14858   0.146E-01    0.320E-01
RMM:   5    -0.706288748197E+03    0.10729E-02   -0.15428E-03 14546   0.650E-02    0.163E-01
RMM:   6    -0.706288377220E+03    0.37098E-03   -0.91222E-04 12776   0.414E-02    0.801E-02
RMM:   7    -0.706288374981E+03    0.22383E-05   -0.28292E-04 10995   0.271E-02    0.878E-02
RMM:   8    -0.706288329266E+03    0.45716E-04   -0.11347E-04  8796   0.164E-02    0.185E-02
RMM:   9    -0.706288325359E+03    0.39070E-05   -0.51203E-05  7647   0.881E-03
  16 F= -.70628833E+03 E0= -.70628789E+03  d E =-.568111E-02
 trial-energy change:   -0.005681  1 .order   -0.005741   -0.009153   -0.002329
 step:   1.5089(harm=  1.4795)  dis= 0.00831  next Energy=  -706.288751 (dE=-0.611E-02)
 bond charge predicted
       N       E                     dE             d eps       ncg     rms          rms(c)
DAV:   1    -0.706286440193E+03    0.18891E-02   -0.65467E-01 11840   0.118E+00    0.217E-01
RMM:   2    -0.706289546687E+03   -0.31065E-02   -0.22632E-02 13354   0.310E-01    0.406E-01
RMM:   3    -0.706289307836E+03    0.23885E-03   -0.51227E-03 14886   0.137E-01    0.215E-01
RMM:   4    -0.706289000453E+03    0.30738E-03   -0.80225E-04 14116   0.542E-02    0.113E-01
RMM:   5    -0.706288878697E+03    0.12176E-03   -0.21576E-04 10813   0.259E-02    0.722E-02
RMM:   6    -0.706288826429E+03    0.52268E-04   -0.15159E-04 10522   0.177E-02    0.316E-02
RMM:   7    -0.706288820083E+03    0.63455E-05   -0.39296E-05  7179   0.117E-02
  17 F= -.70628882E+03 E0= -.70628840E+03  d E =-.617583E-02
 curvature:  -1.51 expect dE=-0.817E-02 dE for cont linesearch -0.102E-04
 trial: gam= 0.70292 g(F)=  0.542E-02 g(S)=  0.000E+00 ort = 0.339E-03 (trialstep = 0.118E+01)
 search vector abs. value=  0.143E-01
 bond charge predicted
       N       E                     dE             d eps       ncg     rms          rms(c)
DAV:   1    -0.706275940464E+03    0.12886E-01   -0.46319E+00 11424   0.318E+00    0.604E-01
RMM:   2    -0.706298962872E+03   -0.23022E-01   -0.16020E-01 13280   0.837E-01    0.114E+00
RMM:   3    -0.706295804276E+03    0.31586E-02   -0.38292E-02 14746   0.380E-01    0.529E-01
RMM:   4    -0.706293767034E+03    0.20372E-02   -0.60531E-03 15026   0.144E-01    0.298E-01
RMM:   5    -0.706292837717E+03    0.92932E-03   -0.14336E-03 14518   0.630E-02    0.159E-01
RMM:   6    -0.706292487296E+03    0.35042E-03   -0.88919E-04 12821   0.405E-02    0.697E-02
RMM:   7    -0.706292471108E+03    0.16188E-04   -0.27853E-04 10640   0.284E-02    0.744E-02
RMM:   8    -0.706292440432E+03    0.30676E-04   -0.12312E-04  9045   0.158E-02    0.230E-02
RMM:   9    -0.706292436504E+03    0.39278E-05   -0.52892E-05  7637   0.918E-03
  18 F= -.70629244E+03 E0= -.70629214E+03  d E =-.361642E-02
 trial-energy change:   -0.003616  1 .order   -0.003612   -0.006696   -0.000528
 step:   1.2856(harm=  1.2856)  dis= 0.00811  next Energy=  -706.292455 (dE=-0.363E-02)
 bond charge predicted
       N       E                     dE             d eps       ncg     rms          rms(c)
DAV:   1    -0.706292349581E+03    0.90851E-04   -0.34302E-02 12488   0.274E-01    0.476E-02
RMM:   2    -0.706292505904E+03   -0.15632E-03   -0.12407E-03 13307   0.738E-02    0.822E-02
RMM:   3    -0.706292501306E+03    0.45977E-05   -0.28344E-04 12265   0.342E-02    0.467E-02
RMM:   4    -0.706292487782E+03    0.13524E-04   -0.62956E-05  8073   0.173E-02    0.206E-02
RMM:   5    -0.706292484537E+03    0.32448E-05   -0.15971E-05  6119   0.856E-03
  19 F= -.70629248E+03 E0= -.70629219E+03  d E =-.366445E-02
 curvature:  -1.63 expect dE=-0.737E-02 dE for cont linesearch -0.582E-05
 trial: gam= 0.80713 g(F)=  0.453E-02 g(S)=  0.000E+00 ort = 0.226E-03 (trialstep = 0.120E+01)
 search vector abs. value=  0.142E-01
 bond charge predicted
       N       E                     dE             d eps       ncg     rms          rms(c)
DAV:   1    -0.706279548031E+03    0.12940E-01   -0.47416E+00 11416   0.322E+00    0.607E-01
RMM:   2    -0.706302604817E+03   -0.23057E-01   -0.16007E-01 13224   0.845E-01    0.112E+00
RMM:   3    -0.706299066359E+03    0.35385E-02   -0.39362E-02 14506   0.394E-01    0.491E-01
RMM:   4    -0.706297301398E+03    0.17650E-02   -0.66035E-03 15198   0.146E-01    0.274E-01
RMM:   5    -0.706296543121E+03    0.75828E-03   -0.14321E-03 14637   0.615E-02    0.159E-01
RMM:   6    -0.706296256008E+03    0.28711E-03   -0.79364E-04 12620   0.388E-02    0.647E-02
RMM:   7    -0.706296225308E+03    0.30700E-04   -0.30190E-04 10111   0.304E-02    0.698E-02
RMM:   8    -0.706296206234E+03    0.19074E-04   -0.13261E-04  8886   0.141E-02    0.297E-02
RMM:   9    -0.706296200519E+03    0.57149E-05   -0.50648E-05  7456   0.928E-03
  20 F= -.70629620E+03 E0= -.70629601E+03  d E =-.371598E-02
 trial-energy change:   -0.003716  1 .order   -0.003550   -0.005677   -0.001423
 step:   1.5159(harm=  1.6075)  dis= 0.00894  next Energy=  -706.296387 (dE=-0.390E-02)
 bond charge predicted
       N       E                     dE             d eps       ncg     rms          rms(c)
DAV:   1    -0.706295381314E+03    0.82492E-03   -0.31830E-01 12016   0.835E-01    0.151E-01
RMM:   2    -0.706296866894E+03   -0.14856E-02   -0.10818E-02 13243   0.218E-01    0.273E-01
RMM:   3    -0.706296709433E+03    0.15746E-03   -0.25871E-03 14458   0.101E-01    0.131E-01
RMM:   4    -0.706296585249E+03    0.12418E-03   -0.44171E-04 12933   0.382E-02    0.665E-02
RMM:   5    -0.706296546052E+03    0.39197E-04   -0.10925E-04  9471   0.208E-02    0.501E-02
RMM:   6    -0.706296525426E+03    0.20626E-04   -0.63202E-05  7983   0.120E-02    0.180E-02
RMM:   7    -0.706296522038E+03    0.33880E-05   -0.24747E-05  6489   0.959E-03
  21 F= -.70629652E+03 E0= -.70629635E+03  d E =-.403750E-02
 curvature:  -2.30 expect dE=-0.800E-02 dE for cont linesearch -0.138E-03
 ZBRENT: increasing intervall
 opt :   2.1387  next Energy=  -706.296935 (dE=-0.445E-02)
 bond charge predicted
       N       E                     dE             d eps       ncg     rms          rms(c)
DAV:   1    -0.706291898652E+03    0.46268E-02   -0.12669E+00 11392   0.167E+00    0.313E-01
RMM:   2    -0.706297945970E+03   -0.60473E-02   -0.42928E-02 13221   0.438E-01    0.562E-01
RMM:   3    -0.706297136684E+03    0.80929E-03   -0.10565E-02 14512   0.204E-01    0.257E-01
RMM:   4    -0.706296653242E+03    0.48344E-03   -0.17679E-03 14931   0.759E-02    0.134E-01
RMM:   5    -0.706296476302E+03    0.17694E-03   -0.39317E-04 12081   0.325E-02    0.880E-02
RMM:   6    -0.706296400201E+03    0.76101E-04   -0.21007E-04 10543   0.216E-02    0.328E-02
RMM:   7    -0.706296392059E+03    0.81422E-05   -0.87227E-05  8281   0.163E-02
  22 F= -.70629639E+03 E0= -.70629625E+03  d E =-.390752E-02
 curvature:  -6.90 expect dE=-0.490E-01 dE for cont linesearch -0.207E-03
 trial: gam= 1.81334 g(F)=  0.711E-02 g(S)=  0.000E+00 ort =-0.653E-03 (trialstep = 0.384E+00)
 search vector abs. value=  0.515E-01
 bond charge predicted
       N       E                     dE             d eps       ncg     rms          rms(c)
DAV:   1    -0.706291933927E+03    0.44663E-02   -0.17697E+00 11640   0.195E+00    0.366E-01
RMM:   2    -0.706299742015E+03   -0.78081E-02   -0.57329E-02 12983   0.498E-01    0.612E-01
RMM:   3    -0.706298904922E+03    0.83709E-03   -0.14216E-02 14798   0.230E-01    0.292E-01
RMM:   4    -0.706298280668E+03    0.62425E-03   -0.22588E-03 14852   0.879E-02    0.143E-01
RMM:   5    -0.706298070570E+03    0.21010E-03   -0.56748E-04 12365   0.380E-02    0.929E-02
RMM:   6    -0.706297978573E+03    0.91997E-04   -0.32274E-04 11019   0.256E-02    0.221E-02
RMM:   7    -0.706297982219E+03   -0.36465E-05   -0.93187E-05  8332   0.146E-02
  23 F= -.70629798E+03 E0= -.70629789E+03  d E =-.159016E-02
 trial-energy change:   -0.001590  1 .order   -0.001782   -0.002275   -0.001288
 step:   0.8851(harm=  0.8851)  dis= 0.01035  next Energy=  -706.299013 (dE=-0.262E-02)
 bond charge predicted
       N       E                     dE             d eps       ncg     rms          rms(c)
DAV:   1    -0.706288485579E+03    0.94930E-02   -0.30112E+00 11504   0.255E+00    0.458E-01
RMM:   2    -0.706300972597E+03   -0.12487E-01   -0.96908E-02 12953   0.650E-01    0.716E-01
RMM:   3    -0.706300104710E+03    0.86789E-03   -0.24234E-02 14798   0.300E-01    0.344E-01
RMM:   4    -0.706299251931E+03    0.85278E-03   -0.38112E-03 15036   0.113E-01    0.162E-01
RMM:   5    -0.706298974872E+03    0.27706E-03   -0.93561E-04 13640   0.483E-02    0.109E-01
RMM:   6    -0.706298841387E+03    0.13349E-03   -0.55650E-04 12145   0.324E-02    0.177E-02
RMM:   7    -0.706298852663E+03   -0.11277E-04   -0.15084E-04  9384   0.172E-02    0.440E-02
RMM:   8    -0.706298846406E+03    0.62576E-05   -0.61627E-05  7705   0.983E-03
  24 F= -.70629885E+03 E0= -.70629880E+03  d E =-.245435E-02
 curvature:  -3.85 expect dE=-0.169E-01 dE for cont linesearch -0.819E-07
 trial: gam= 0.06477 g(F)=  0.440E-02 g(S)=  0.000E+00 ort =-0.331E-04 (trialstep = 0.484E+00)
 search vector abs. value=  0.461E-02
 bond charge predicted
       N       E                     dE             d eps       ncg     rms          rms(c)
DAV:   1    -0.706299408587E+03   -0.55592E-03   -0.24560E-01 11200   0.750E-01    0.751E-02
RMM:   2    -0.706300318680E+03   -0.91009E-03   -0.95895E-03 13819   0.211E-01    0.324E-02
RMM:   3    -0.706300504976E+03   -0.18630E-03   -0.20446E-03 14652   0.876E-02    0.414E-02
RMM:   4    -0.706300512579E+03   -0.76024E-05   -0.30650E-04 12831   0.328E-02    0.274E-02
RMM:   5    -0.706300509511E+03    0.30681E-05   -0.73502E-05  9012   0.166E-02
  25 F= -.70630051E+03 E0= -.70630046E+03  d E =-.166310E-02
 trial-energy change:   -0.001663  1 .order   -0.001605   -0.002129   -0.001081
 step:   0.8060(harm=  0.9844)  dis= 0.00171  next Energy=  -706.300886 (dE=-0.204E-02)
 bond charge predicted
       N       E                     dE             d eps       ncg     rms          rms(c)
DAV:   1    -0.706300574065E+03   -0.61486E-04   -0.10682E-01 11232   0.496E-01    0.543E-02
RMM:   2    -0.706300962229E+03   -0.38816E-03   -0.40975E-03 13826   0.142E-01    0.367E-02
RMM:   3    -0.706301058478E+03   -0.96248E-04   -0.94465E-04 13890   0.618E-02    0.521E-02
RMM:   4    -0.706301050570E+03    0.79081E-05   -0.17377E-04 11499   0.250E-02    0.194E-02
RMM:   5    -0.706301046994E+03    0.35761E-05   -0.42378E-05  7291   0.136E-02
  26 F= -.70630105E+03 E0= -.70630100E+03  d E =-.220059E-02
 curvature:  -0.45 expect dE=-0.631E-03 dE for cont linesearch -0.786E-04
 ZBRENT: increasing intervall
 opt :   1.4492  next Energy=  -706.300765 (dE=-0.192E-02)
 bond charge predicted
       N       E                     dE             d eps       ncg     rms          rms(c)
DAV:   1    -0.706298898283E+03    0.21523E-02   -0.43223E-01 10768   0.996E-01    0.988E-02
RMM:   2    -0.706300487753E+03   -0.15895E-02   -0.16831E-02 13832   0.281E-01    0.377E-02
RMM:   3    -0.706300808051E+03   -0.32030E-03   -0.35522E-03 15084   0.111E-01    0.432E-02
RMM:   4    -0.706300831560E+03   -0.23510E-04   -0.44448E-04 14527   0.403E-02    0.377E-02
RMM:   5    -0.706300814130E+03    0.17430E-04   -0.12297E-04 10595   0.180E-02    0.233E-02
RMM:   6    -0.706300810051E+03    0.40799E-05   -0.54728E-05  8754   0.121E-02
  27 F= -.70630081E+03 E0= -.70630077E+03  d E =-.196364E-02
 curvature:   1.62 expect dE= 0.759E-02 dE for cont linesearch  0.106E-02
 ZBRENT: bracketing found
 ZBRENT: interpolating
 opt :   1.0252  next Energy=  -706.301145 (dE=-0.230E-02)
 bond charge predicted
       N       E                     dE             d eps       ncg     rms          rms(c)
DAV:   1    -0.706300338610E+03    0.47552E-03   -0.18826E-01 10616   0.658E-01    0.612E-02
RMM:   2    -0.706301034724E+03   -0.69611E-03   -0.73352E-03 13816   0.187E-01    0.314E-02
RMM:   3    -0.706301182673E+03   -0.14795E-03   -0.15453E-03 15014   0.738E-02    0.490E-02
RMM:   4    -0.706301180860E+03    0.18135E-05   -0.19450E-04 12238   0.266E-02    0.278E-02
RMM:   5    -0.706301169586E+03    0.11274E-04   -0.57678E-05  8397   0.157E-02    0.189E-02
RMM:   6    -0.706301165511E+03    0.40749E-05   -0.36817E-05  7033   0.115E-02
  28 F= -.70630117E+03 E0= -.70630112E+03  d E =-.231911E-02
 curvature:  -0.15 expect dE=-0.303E-03 dE for cont linesearch -0.948E-07
 trial: gam= 0.47566 g(F)=  0.201E-02 g(S)=  0.000E+00 ort =-0.539E-04 (trialstep = 0.593E+00)
 search vector abs. value=  0.300E-02
 bond charge predicted
       N       E                     dE             d eps       ncg     rms          rms(c)
DAV:   1    -0.706301083620E+03    0.85966E-04   -0.24328E-01 10760   0.740E-01    0.741E-02
RMM:   2    -0.706301914633E+03   -0.83101E-03   -0.87811E-03 13596   0.200E-01    0.256E-02
RMM:   3    -0.706302082369E+03   -0.16774E-03   -0.18287E-03 15180   0.770E-02    0.326E-02
RMM:   4    -0.706302093530E+03   -0.11162E-04   -0.21193E-04 12312   0.285E-02    0.275E-02
RMM:   5    -0.706302083882E+03    0.96490E-05   -0.63541E-05  9223   0.162E-02
  29 F= -.70630208E+03 E0= -.70630204E+03  d E =-.918370E-03
 trial-energy change:   -0.000918  1 .order   -0.000882   -0.001176   -0.000587
 step:   1.1833(harm=  1.1833)  dis= 0.00219  next Energy=  -706.302340 (dE=-0.117E-02)
 bond charge predicted
       N       E                     dE             d eps       ncg     rms          rms(c)
DAV:   1    -0.706301459874E+03    0.63366E-03   -0.23998E-01 11120   0.735E-01    0.803E-02
RMM:   2    -0.706302269867E+03   -0.80999E-03   -0.86143E-03 13619   0.199E-01    0.280E-02
RMM:   3    -0.706302438600E+03   -0.16873E-03   -0.17852E-03 15251   0.750E-02    0.392E-02
RMM:   4    -0.706302448379E+03   -0.97795E-05   -0.21207E-04 12567   0.268E-02    0.266E-02
RMM:   5    -0.706302440009E+03    0.83700E-05   -0.61272E-05  8820   0.174E-02
  30 F= -.70630244E+03 E0= -.70630240E+03  d E =-.127450E-02
 curvature:  -0.89 expect dE=-0.124E-02 dE for cont linesearch -0.165E-05
 trial: gam= 0.63578 g(F)=  0.138E-02 g(S)=  0.000E+00 ort = 0.745E-04 (trialstep = 0.711E+00)
 search vector abs. value=  0.269E-02
 bond charge predicted
       N       E                     dE             d eps       ncg     rms          rms(c)
DAV:   1    -0.706301904338E+03    0.54404E-03   -0.32629E-01 10648   0.830E-01    0.984E-02
RMM:   2    -0.706302955373E+03   -0.10510E-02   -0.11062E-02 13311   0.219E-01    0.415E-02
RMM:   3    -0.706303199765E+03   -0.24439E-03   -0.24023E-03 15238   0.880E-02    0.638E-02
RMM:   4    -0.706303195600E+03    0.41646E-05   -0.26427E-04 12866   0.300E-02    0.337E-02
RMM:   5    -0.706303186194E+03    0.94064E-05   -0.74553E-05  8991   0.190E-02
  31 F= -.70630319E+03 E0= -.70630315E+03  d E =-.746185E-03
 trial-energy change:   -0.000746  1 .order   -0.000713   -0.001016   -0.000411
 step:   1.1937(harm=  1.1937)  dis= 0.00246  next Energy=  -706.303293 (dE=-0.853E-03)
 bond charge predicted
       N       E                     dE             d eps       ncg     rms          rms(c)
DAV:   1    -0.706302771066E+03    0.42453E-03   -0.14905E-01 11056   0.562E-01    0.718E-02
RMM:   2    -0.706303246366E+03   -0.47530E-03   -0.50325E-03 13336   0.149E-01    0.323E-02
RMM:   3    -0.706303360588E+03   -0.11422E-03   -0.11023E-03 14940   0.598E-02    0.478E-02
RMM:   4    -0.706303355992E+03    0.45966E-05   -0.13440E-04 11553   0.217E-02    0.227E-02
RMM:   5    -0.706303352144E+03    0.38475E-05   -0.36791E-05  7170   0.142E-02
  32 F= -.70630335E+03 E0= -.70630332E+03  d E =-.912135E-03
 curvature:  -1.12 expect dE=-0.750E-03 dE for cont linesearch -0.341E-07
 trial: gam= 0.51098 g(F)=  0.668E-03 g(S)=  0.000E+00 ort = 0.904E-05 (trialstep = 0.807E+00)
 search vector abs. value=  0.138E-02
 bond charge predicted
       N       E                     dE             d eps       ncg     rms          rms(c)
DAV:   1    -0.706302934557E+03    0.42143E-03   -0.21059E-01 10848   0.679E-01    0.838E-02
RMM:   2    -0.706303636437E+03   -0.70188E-03   -0.71211E-03 13346   0.180E-01    0.680E-02
RMM:   3    -0.706303793301E+03   -0.15686E-03   -0.16500E-03 15148   0.733E-02    0.675E-02
RMM:   4    -0.706303773300E+03    0.20001E-04   -0.19443E-04 12366   0.270E-02    0.279E-02
RMM:   5    -0.706303766374E+03    0.69260E-05   -0.56626E-05  8023   0.165E-02
  33 F= -.70630377E+03 E0= -.70630374E+03  d E =-.414230E-03
 trial-energy change:   -0.000414  1 .order   -0.000370   -0.000543   -0.000197
 step:   1.0383(harm=  1.2673)  dis= 0.00148  next Energy=  -706.303796 (dE=-0.443E-03)
 bond charge predicted
       N       E                     dE             d eps       ncg     rms          rms(c)
DAV:   1    -0.706303746894E+03    0.26406E-04   -0.16760E-02 11832   0.196E-01    0.290E-02
RMM:   2    -0.706303805347E+03   -0.58453E-04   -0.60888E-04 13236   0.558E-02    0.223E-02
RMM:   3    -0.706303818026E+03   -0.12679E-04   -0.14593E-04 11875   0.227E-02    0.217E-02
RMM:   4    -0.706303815920E+03    0.21052E-05   -0.21024E-05  6191   0.123E-02
  34 F= -.70630382E+03 E0= -.70630379E+03  d E =-.463776E-03
 curvature:  -0.98 expect dE=-0.307E-03 dE for cont linesearch -0.209E-05
 trial: gam= 0.30342 g(F)=  0.314E-03 g(S)=  0.000E+00 ort = 0.543E-04 (trialstep = 0.853E+00)
 search vector abs. value=  0.474E-03
 bond charge predicted
       N       E                     dE             d eps       ncg     rms          rms(c)
DAV:   1    -0.706303704454E+03    0.11357E-03   -0.78011E-02 11008   0.424E-01    0.444E-02
RMM:   2    -0.706303979975E+03   -0.27552E-03   -0.28341E-03 13595   0.118E-01    0.382E-02
RMM:   3    -0.706304045272E+03   -0.65297E-04   -0.69131E-04 13671   0.536E-02    0.411E-02
RMM:   4    -0.706304041922E+03    0.33509E-05   -0.12387E-04 10830   0.211E-02    0.163E-02
RMM:   5    -0.706304038983E+03    0.29385E-05   -0.26047E-05  6542   0.121E-02
  35 F= -.70630404E+03 E0= -.70630401E+03  d E =-.223063E-03
 trial-energy change:   -0.000223  1 .order   -0.000191   -0.000282   -0.000100
 step:   1.3249(harm=  1.3249)  dis= 0.00099  next Energy=  -706.304035 (dE=-0.219E-03)
 bond charge predicted
       N       E                     dE             d eps       ncg     rms          rms(c)
DAV:   1    -0.706303970302E+03    0.71619E-04   -0.23561E-02 11416   0.234E-01    0.265E-02
RMM:   2    -0.706304053575E+03   -0.83272E-04   -0.86694E-04 13561   0.670E-02    0.249E-02
RMM:   3    -0.706304071390E+03   -0.17816E-04   -0.21799E-04 11153   0.318E-02    0.229E-02
RMM:   4    -0.706304071482E+03   -0.91524E-07   -0.55645E-05  7910   0.159E-02
  36 F= -.70630407E+03 E0= -.70630404E+03  d E =-.255561E-03
 curvature:  -0.95 expect dE=-0.278E-03 dE for cont linesearch -0.894E-05
 ZBRENT: interpolating
 opt :   1.1541  next Energy=  -706.304077 (dE=-0.261E-03)
 bond charge predicted
       N       E                     dE             d eps       ncg     rms          rms(c)
DAV:   1    -0.706304050637E+03    0.20753E-04   -0.30186E-03 10888   0.849E-02    0.129E-02
RMM:   2    -0.706304063021E+03   -0.12384E-04   -0.13063E-04 11018   0.251E-02    0.986E-03
RMM:   3    -0.706304064293E+03   -0.12727E-05   -0.29469E-05  6777   0.116E-02
  37 F= -.70630406E+03 E0= -.70630404E+03  d E =-.248373E-03
 curvature:  -0.61 expect dE=-0.163E-03 dE for cont linesearch -0.267E-04
 ZBRENT: interpolating
 opt :   1.2710  next Energy=  -706.304073 (dE=-0.257E-03)
 bond charge predicted
       N       E                     dE             d eps       ncg     rms          rms(c)
DAV:   1    -0.706304062685E+03    0.33557E-06   -0.13753E-03 11488   0.566E-02    0.728E-03
RMM:   2    -0.706304068869E+03   -0.61842E-05   -0.61661E-05  9617   0.164E-02
  38 F= -.70630407E+03 E0= -.70630404E+03  d E =-.252949E-03
 curvature:  -0.04 expect dE=-0.118E-04 dE for cont linesearch -0.555E-06
 ZBRENT: bisectioning
 opt :   1.2126  next Energy=  -706.304074 (dE=-0.258E-03)
 bond charge predicted
       N       E                     dE             d eps       ncg     rms          rms(c)
DAV:   1    -0.706304066464E+03   -0.37784E-05   -0.33607E-04 11232   0.298E-02    0.602E-03
RMM:   2    -0.706304068625E+03   -0.21611E-05   -0.11837E-05  5798   0.817E-03
  39 F= -.70630407E+03 E0= -.70630404E+03  d E =-.252704E-03
 curvature:  -0.38 expect dE=-0.103E-03 dE for cont linesearch -0.740E-05
 ZBRENT: interpolating
 opt :   1.2445  next Energy=  -706.304070 (dE=-0.254E-03)
 bond charge predicted
       N       E                     dE             d eps       ncg     rms          rms(c)
DAV:   1    -0.706304067928E+03   -0.14646E-05   -0.11054E-04 11992   0.201E-02    0.285E-03
RMM:   2    -0.706304068655E+03   -0.72695E-06   -0.56368E-06  5411   0.567E-03
  40 F= -.70630407E+03 E0= -.70630404E+03  d E =-.252735E-03
 curvature:  -0.05 expect dE=-0.146E-04 dE for cont linesearch -0.504E-10
 trial: gam= 1.08377 g(F)=  0.270E-03 g(S)=  0.000E+00 ort = 0.664E-06 (trialstep = 0.533E+00)
 search vector abs. value=  0.828E-03
 bond charge predicted
       N       E                     dE             d eps       ncg     rms          rms(c)
DAV:   1    -0.706303998975E+03    0.68953E-04   -0.54389E-02 11224   0.348E-01    0.429E-02
RMM:   2    -0.706304177044E+03   -0.17807E-03   -0.17432E-03 13059   0.885E-02    0.452E-02
RMM:   3    -0.706304209588E+03   -0.32543E-04   -0.42697E-04 14245   0.379E-02    0.339E-02
RMM:   4    -0.706304203139E+03    0.64482E-05   -0.54963E-05  8137   0.160E-02
  41 F= -.70630420E+03 E0= -.70630418E+03  d E =-.134484E-03
 trial-energy change:   -0.000134  1 .order   -0.000099   -0.000144   -0.000053
 step:   0.8475(harm=  0.8475)  dis= 0.00079  next Energy=  -706.304183 (dE=-0.115E-03)
 bond charge predicted
       N       E                     dE             d eps       ncg     rms          rms(c)
DAV:   1    -0.706304187780E+03    0.21808E-04   -0.19005E-02 11592   0.206E-01    0.312E-02
RMM:   2    -0.706304261916E+03   -0.74136E-04   -0.63265E-04 12966   0.553E-02    0.525E-02
RMM:   3    -0.706304257229E+03    0.46867E-05   -0.16773E-04 10888   0.272E-02    0.216E-02
RMM:   4    -0.706304254984E+03    0.22452E-05   -0.42646E-05  7291   0.147E-02
  42 F= -.70630425E+03 E0= -.70630423E+03  d E =-.186329E-03
 curvature:  -1.30 expect dE=-0.206E-03 dE for cont linesearch -0.629E-05
 ZBRENT: increasing intervall
 opt :   1.4757  next Energy=  -706.304272 (dE=-0.203E-03)
 bond charge predicted
       N       E                     dE             d eps       ncg     rms          rms(c)
DAV:   1    -0.706304040417E+03    0.21681E-03   -0.75527E-02 11248   0.409E-01    0.566E-02
RMM:   2    -0.706304296953E+03   -0.25654E-03   -0.23494E-03 12962   0.105E-01    0.764E-02
RMM:   3    -0.706304322863E+03   -0.25910E-04   -0.62227E-04 14607   0.470E-02    0.420E-02
RMM:   4    -0.706304312347E+03    0.10516E-04   -0.86313E-05  9672   0.188E-02    0.210E-02
RMM:   5    -0.706304308060E+03    0.42868E-05   -0.22892E-05  6389   0.112E-02
  43 F= -.70630431E+03 E0= -.70630428E+03  d E =-.239405E-03
 curvature:  -3.43 expect dE=-0.933E-03 dE for cont linesearch -0.102E-06
 trial: gam= 0.69104 g(F)=  0.272E-03 g(S)=  0.000E+00 ort = 0.496E-05 (trialstep = 0.722E+00)
 search vector abs. value=  0.674E-03
 bond charge predicted
       N       E                     dE             d eps       ncg     rms          rms(c)
DAV:   1    -0.706304163144E+03    0.14920E-03   -0.81516E-02 11296   0.422E-01    0.627E-02
RMM:   2    -0.706304459291E+03   -0.29615E-03   -0.26966E-03 13131   0.110E-01    0.809E-02
RMM:   3    -0.706304481499E+03   -0.22208E-04   -0.63616E-04 14736   0.479E-02    0.463E-02
RMM:   4    -0.706304468360E+03    0.13139E-04   -0.96712E-05  9876   0.195E-02    0.207E-02
RMM:   5    -0.706304464084E+03    0.42755E-05   -0.24842E-05  6557   0.110E-02
  44 F= -.70630446E+03 E0= -.70630444E+03  d E =-.156024E-03
 trial-energy change:   -0.000156  1 .order   -0.000141   -0.000199   -0.000083
 step:   1.2359(harm=  1.2359)  dis= 0.00117  next Energy=  -706.304478 (dE=-0.170E-03)
 bond charge predicted
       N       E                     dE             d eps       ncg     rms          rms(c)
DAV:   1    -0.706304357259E+03    0.11110E-03   -0.41192E-02 11584   0.301E-01    0.449E-02
RMM:   2    -0.706304504438E+03   -0.14718E-03   -0.13520E-03 13206   0.776E-02    0.556E-02
RMM:   3    -0.706304515977E+03   -0.11539E-04   -0.31059E-04 12937   0.334E-02    0.333E-02
RMM:   4    -0.706304509385E+03    0.65924E-05   -0.53411E-05  8009   0.175E-02
  45 F= -.70630451E+03 E0= -.70630449E+03  d E =-.201324E-03
 curvature:  -1.51 expect dE=-0.287E-03 dE for cont linesearch -0.110E-04
 ZBRENT: interpolating
 opt :   1.0411  next Energy=  -706.304516 (dE=-0.208E-03)
 bond charge predicted
       N       E                     dE             d eps       ncg     rms          rms(c)
DAV:   1    -0.706304470944E+03    0.45033E-04   -0.58706E-03 11152   0.115E-01    0.160E-02
RMM:   2    -0.706304491470E+03   -0.20526E-04   -0.21928E-04 12211   0.316E-02    0.766E-03
RMM:   3    -0.706304495508E+03   -0.40381E-05   -0.54453E-05  8047   0.152E-02
  46 F= -.70630450E+03 E0= -.70630447E+03  d E =-.187448E-03
 curvature:  -0.94 expect dE=-0.190E-03 dE for cont linesearch -0.544E-04
 ZBRENT: interpolating
 opt :   1.1850  next Energy=  -706.304511 (dE=-0.203E-03)
 bond charge predicted
       N       E                     dE             d eps       ncg     rms          rms(c)
DAV:   1    -0.706304491954E+03   -0.48408E-06   -0.31195E-03 11328   0.845E-02    0.121E-02
RMM:   2    -0.706304502898E+03   -0.10943E-04   -0.11087E-04 10450   0.220E-02    0.909E-03
RMM:   3    -0.706304504821E+03   -0.19227E-05   -0.27805E-05  6573   0.109E-02
  47 F= -.70630450E+03 E0= -.70630448E+03  d E =-.196760E-03
 curvature:  -0.03 expect dE=-0.527E-05 dE for cont linesearch -0.563E-07
 ZBRENT: interpolating
 opt :   1.1413  next Energy=  -706.304506 (dE=-0.198E-03)
 bond charge predicted
       N       E                     dE             d eps       ncg     rms          rms(c)
DAV:   1    -0.706304501332E+03    0.15653E-05   -0.29053E-04 11912   0.272E-02    0.704E-03
RMM:   2    -0.706304503797E+03   -0.24645E-05   -0.14193E-05  5916   0.957E-03
  48 F= -.70630450E+03 E0= -.70630448E+03  d E =-.195736E-03
 curvature:  -0.48 expect dE=-0.936E-04 dE for cont linesearch -0.125E-04
 ZBRENT: interpolating
 opt :   1.1758  next Energy=  -706.304505 (dE=-0.197E-03)
 bond charge predicted
       N       E                     dE             d eps       ncg     rms          rms(c)
DAV:   1    -0.706304503779E+03   -0.24463E-05   -0.18397E-04 11608   0.247E-02    0.237E-03
RMM:   2    -0.706304504439E+03   -0.66047E-06   -0.73364E-06  5466   0.605E-03
  49 F= -.70630450E+03 E0= -.70630448E+03  d E =-.196379E-03
 curvature:  -0.01 expect dE=-0.107E-05 dE for cont linesearch -0.172E-08
 trial: gam= 0.59510 g(F)=  0.172E-03 g(S)=  0.000E+00 ort = 0.137E-04 (trialstep = 0.813E+00)
 search vector abs. value=  0.427E-03
 bond charge predicted
       N       E                     dE             d eps       ncg     rms          rms(c)
DAV:   1    -0.706304375990E+03    0.12779E-03   -0.63668E-02 11280   0.381E-01    0.438E-02
RMM:   2    -0.706304591100E+03   -0.21511E-03   -0.21512E-03 13309   0.999E-02    0.406E-02
RMM:   3    -0.706304634646E+03   -0.43546E-04   -0.50637E-04 14618   0.410E-02    0.357E-02
RMM:   4    -0.706304627798E+03    0.68479E-05   -0.62740E-05  8963   0.173E-02
  50 F= -.70630463E+03 E0= -.70630460E+03  d E =-.123359E-03
 trial-energy change:   -0.000123  1 .order   -0.000087   -0.000146   -0.000027
 step:   0.9970(harm=  0.9970)  dis= 0.00063  next Energy=  -706.304594 (dE=-0.896E-04)
 bond charge predicted
       N       E                     dE             d eps       ncg     rms          rms(c)
DAV:   1    -0.706304627155E+03    0.74904E-05   -0.33556E-03 12184   0.900E-02    0.192E-02
RMM:   2    -0.706304646250E+03   -0.19094E-04   -0.14601E-04 11632   0.281E-02    0.354E-02
RMM:   3    -0.706304639161E+03    0.70888E-05   -0.40312E-05  7028   0.139E-02
  51 F= -.70630464E+03 E0= -.70630462E+03  d E =-.134722E-03
 curvature:  -1.18 expect dE=-0.100E-03 dE for cont linesearch -0.116E-05
 ZBRENT: increasing intervall
 opt :   1.3658  next Energy=  -706.304642 (dE=-0.138E-03)
 bond charge predicted
       N       E                     dE             d eps       ncg     rms          rms(c)
DAV:   1    -0.706304599208E+03    0.47041E-04   -0.13110E-02 11584   0.176E-01    0.167E-02
RMM:   2    -0.706304644426E+03   -0.45217E-04   -0.48702E-04 13106   0.519E-02    0.742E-03
RMM:   3    -0.706304655461E+03   -0.11035E-04   -0.12651E-04 10803   0.218E-02    0.975E-03
RMM:   4    -0.706304655944E+03   -0.48331E-06   -0.18090E-05  5986   0.114E-02
  52 F= -.70630466E+03 E0= -.70630463E+03  d E =-.151505E-03
 curvature:  -2.87 expect dE=-0.440E-03 dE for cont linesearch -0.765E-05
 ZBRENT: bracketing found
 ZBRENT: interpolating
 opt :   1.1361  next Energy=  -706.304641 (dE=-0.136E-03)
 bond charge predicted
       N       E                     dE             d eps       ncg     rms          rms(c)
DAV:   1    -0.706304622794E+03    0.32667E-04   -0.49872E-03 11192   0.110E-01    0.121E-02
RMM:   2    -0.706304642944E+03   -0.20151E-04   -0.20913E-04 13276   0.324E-02    0.459E-03
RMM:   3    -0.706304646061E+03   -0.31170E-05   -0.37024E-05  7124   0.128E-02
  53 F= -.70630465E+03 E0= -.70630462E+03  d E =-.141622E-03
 curvature:  -0.53 expect dE=-0.787E-04 dE for cont linesearch -0.195E-04
 ZBRENT: interpolating
 opt :   1.3170  next Energy=  -706.304657 (dE=-0.152E-03)
 bond charge predicted
       N       E                     dE             d eps       ncg     rms          rms(c)
DAV:   1    -0.706304641179E+03    0.17650E-05   -0.30470E-03 11328   0.840E-02    0.122E-02
RMM:   2    -0.706304654468E+03   -0.13289E-04   -0.12533E-04 11992   0.235E-02    0.149E-02
RMM:   3    -0.706304654285E+03    0.18312E-06   -0.23731E-05  6214   0.113E-02
  54 F= -.70630465E+03 E0= -.70630463E+03  d E =-.149846E-03
 curvature:  -0.02 expect dE=-0.336E-05 dE for cont linesearch -0.127E-06
 ZBRENT: bisectioning
 opt :   1.2265  next Energy=  -706.304660 (dE=-0.156E-03)
 bond charge predicted
       N       E                     dE             d eps       ncg     rms          rms(c)
DAV:   1    -0.706304647560E+03    0.69080E-05   -0.73193E-04 10712   0.432E-02    0.800E-03
RMM:   2    -0.706304652188E+03   -0.46283E-05   -0.38533E-05  6878   0.160E-02
  55 F= -.70630465E+03 E0= -.70630463E+03  d E =-.147749E-03
 curvature:  -1.01 expect dE=-0.181E-03 dE for cont linesearch -0.496E-04
 ZBRENT: interpolating
 opt :   1.2940  next Energy=  -706.304655 (dE=-0.150E-03)
 bond charge predicted
       N       E                     dE             d eps       ncg     rms          rms(c)
DAV:   1    -0.706304652092E+03   -0.45325E-05   -0.40351E-04 11440   0.335E-02    0.372E-03
RMM:   2    -0.706304653732E+03   -0.16399E-05   -0.15661E-05  5864   0.917E-03
  56 F= -.70630465E+03 E0= -.70630463E+03  d E =-.149293E-03
 curvature:  -0.01 expect dE=-0.161E-05 dE for cont linesearch -0.113E-07
 trial: gam= 0.91501 g(F)=  0.140E-03 g(S)=  0.000E+00 ort =-0.205E-04 (trialstep = 0.843E+00)
 search vector abs. value=  0.460E-03
 bond charge predicted
       N       E                     dE             d eps       ncg     rms          rms(c)
DAV:   1    -0.706304485963E+03    0.16613E-03   -0.72989E-02 11448   0.410E-01    0.493E-02
RMM:   2    -0.706304730909E+03   -0.24495E-03   -0.23841E-03 13224   0.107E-01    0.520E-02
RMM:   3    -0.706304777613E+03   -0.46704E-04   -0.59776E-04 14763   0.445E-02    0.380E-02
RMM:   4    -0.706304770084E+03    0.75291E-05   -0.72480E-05  9435   0.181E-02
  57 F= -.70630477E+03 E0= -.70630475E+03  d E =-.116351E-03
 trial-energy change:   -0.000116  1 .order   -0.000057   -0.000102   -0.000012
 step:   0.8653(harm=  0.9541)  dis= 0.00057  next Energy=  -706.304770 (dE=-0.117E-03)
 bond charge predicted
       N       E                     dE             d eps       ncg     rms          rms(c)
DAV:   1    -0.706304769494E+03    0.81194E-05   -0.10979E-04 12120   0.255E-02    0.145E-02
RMM:   2    -0.706304773276E+03   -0.37827E-05   -0.15980E-05  6144   0.989E-03
  58 F= -.70630477E+03 E0= -.70630475E+03  d E =-.119544E-03
 curvature:  -0.65 expect dE=-0.427E-04 dE for cont linesearch -0.672E-05
 ZBRENT: increasing intervall
 opt :   0.9093  next Energy=  -706.304779 (dE=-0.125E-03)
 bond charge predicted
       N       E                     dE             d eps       ncg     rms          rms(c)
DAV:   1    -0.706304771397E+03   -0.19031E-05   -0.27155E-04 13064   0.352E-02    0.945E-03
RMM:   2    -0.706304774440E+03   -0.30432E-05   -0.12208E-05  5909   0.797E-03
  59 F= -.70630477E+03 E0= -.70630475E+03  d E =-.120708E-03
 curvature:  -0.53 expect dE=-0.309E-04 dE for cont linesearch -0.305E-05
 ZBRENT: increasing intervall
 opt :   0.9974  next Energy=  -706.304777 (dE=-0.124E-03)
 bond charge predicted
       N       E                     dE             d eps       ncg     rms          rms(c)
DAV:   1    -0.706304775232E+03   -0.38357E-05   -0.85772E-04 12264   0.476E-02    0.807E-03
RMM:   2    -0.706304779272E+03   -0.40394E-05   -0.28127E-05  6616   0.126E-02
  60 F= -.70630478E+03 E0= -.70630476E+03  d E =-.125539E-03
 curvature:  -0.52 expect dE=-0.288E-04 dE for cont linesearch -0.415E-06
 ZBRENT: increasing intervall
 opt :   1.1736  next Energy=  -706.304777 (dE=-0.123E-03)
 bond charge predicted
       N       E                     dE             d eps       ncg     rms          rms(c)
DAV:   1    -0.706304775495E+03   -0.26269E-06   -0.32696E-03 11832   0.885E-02    0.125E-02
RMM:   2    -0.706304790162E+03   -0.14667E-04   -0.12661E-04 11642   0.257E-02    0.222E-02
RMM:   3    -0.706304789043E+03    0.11191E-05   -0.35384E-05  7118   0.124E-02
  61 F= -.70630479E+03 E0= -.70630477E+03  d E =-.135311E-03
 curvature:   2.92 expect dE= 0.193E-03 dE for cont linesearch  0.570E-06
 trial: gam= 0.40996 g(F)=  0.663E-04 g(S)=  0.000E+00 ort =-0.949E-05 (trialstep = 0.909E+00)
 search vector abs. value=  0.136E-03
 bond charge predicted
       N       E                     dE             d eps       ncg     rms          rms(c)
DAV:   1    -0.706304743185E+03    0.46977E-04   -0.25520E-02 11256   0.241E-01    0.295E-02
RMM:   2    -0.706304835492E+03   -0.92307E-04   -0.91285E-04 13292   0.663E-02    0.300E-02
RMM:   3    -0.706304852141E+03   -0.16649E-04   -0.22340E-04 12408   0.278E-02    0.229E-02
RMM:   4    -0.706304849630E+03    0.25109E-05   -0.35586E-05  7166   0.154E-02
  62 F= -.70630485E+03 E0= -.70630483E+03  d E =-.605873E-04
 trial-energy change:   -0.000061  1 .order   -0.000032   -0.000057   -0.000006
 step:   1.0221(harm=  1.0221)  dis= 0.00043  next Energy=  -706.304821 (dE=-0.319E-04)
 reached required accuracy - stopping structural energy minimisation
Warning: ieee_invalid is signaling
Warning: ieee_divide_by_zero is signaling
Warning: ieee_underflow is signaling
Warning: ieee_inexact is signaling
FORTRAN STOP
Warning: ieee_invalid is signaling
Warning: ieee_divide_by_zero is signaling
Warning: ieee_underflow is signaling
Warning: ieee_inexact is signaling
FORTRAN STOP
Warning: ieee_invalid is signaling
Warning: ieee_divide_by_zero is signaling
Warning: ieee_underflow is signaling
Warning: ieee_inexact is signaling
FORTRAN STOP
Warning: ieee_invalid is signaling
Warning: ieee_divide_by_zero is signaling
Warning: ieee_underflow is signaling
Warning: ieee_inexact is signaling
FORTRAN STOP
