P16
1.0
   0.0000000000000000    9.6559357881997183    0.0000000000000000
   8.5849473287335414    0.0000000000000000    0.0000000000000000
   0.0000000000000000   -0.0237225833780770   -5.5806204931400440
P
16
direct
   0.6567541299999990    0.5000000000000000    0.7489777000000000 P0+
   0.3432458700000000    0.5000000000000000    0.2510223000000000 P0+
   0.7850231799999990    0.5000000000000000    0.4280157099999990 P0+
   0.2149768200000000    0.5000000000000000    0.5719842900000001 P0+
   0.8525869249999991    0.3729257850000000    0.7465143700000001 P0+
   0.1474130750000000    0.3729257850000000    0.2534856299999990 P0+
   0.1474130750000000    0.6270742149999990    0.2534856299999990 P0+
   0.8525869249999991    0.6270742149999990    0.7465143700000001 P0+
   0.1567541299999990    0.0000000000000000    0.7489777000000000 P0+
   0.8432458700000001    0.0000000000000000    0.2510223000000000 P0+
   0.2850231799999990    0.0000000000000000    0.4280157099999990 P0+
   0.7149768200000001    0.0000000000000000    0.5719842900000001 P0+
   0.3525869249999991    0.8729257850000001    0.7465143700000001 P0+
   0.6474130750000000    0.8729257850000001    0.2534856299999990 P0+
   0.6474130750000000    0.1270742149999990    0.2534856299999990 P0+
   0.3525869249999991    0.1270742149999990    0.7465143700000001 P0+
