Ga8 O12                                 
    1.000000000000000     
     0.0000000000000000   12.2804737091000007    0.0000000000000000
     9.1427011490000005    0.0000000000000000    0.0000000000000000
     0.0000000000000000   -2.7682616411000001  -11.3006974810000003
   Ga   O    Cu   N 
    47    71     1     1
Direct
  0.6604425093863497  0.0008121686137201  0.1567548049077345
  0.6596249776739000  0.9998778146929865  0.6580189567966030
  0.6583428885665015  0.3349998881169967  0.1553170072032444
  0.6596390745812215  0.3336781135474283  0.6575875883490880
  0.6583005436828913  0.6669894376611438  0.1578083812720905
  0.6599185361298296  0.6665219940340279  0.6568417419579831
  0.8417153887183773  0.1667308187175678  0.8441374582173822
  0.8408332198965027  0.4993313017823837  0.3421986359041327
  0.8419683411068135  0.5006447683603383  0.8424180898758067
  0.8403039787979552  0.8350316714945905  0.3419199568494449
  0.8419404583361469  0.8344954505131383  0.8449990004869079
  0.5925409921934062  0.1667251132336034  0.4004534415237657
  0.5900159345004354  0.1676844370149553  0.8969094177825383
  0.5910780110242584  0.4994976097488717  0.3973917904627200
  0.5910997946064782  0.5008502749384220  0.8970833299984378
  0.5904034186237155  0.8324437967279437  0.3980951199319804
  0.5914559363706786  0.8339158306368475  0.8977779439005502
  0.9090079464453780  0.0045703367254504  0.1068680126520931
  0.9088632539530721  0.0005475283822065  0.6026407732374111
  0.9103251416802607  0.3348059650473232  0.1009967994568868
  0.9080080513598503  0.3314081272887677  0.5997050443622740
  0.9093287702698802  0.6688069585065506  0.1021726975938222
  0.9087049370920113  0.6663869750919744  0.6014925754822116
  0.1603951403003236  0.1673491993010998  0.1563333997967220
  0.1592160978365627  0.1658428348079681  0.6563319278011122
  0.1593249150980398  0.5004185671875447  0.1569122146529267
  0.1585304857638619  0.4989946227747879  0.6562130659912029
  0.1590830342288001  0.8341092953379743  0.1567302656722944
  0.1588586485028642  0.8328097823560228  0.6562811650316007
  0.3413709557512661  0.0001097976992241  0.3438307910969414
  0.3408982338235305  0.9999384303148986  0.8434021968558127
  0.3409970721021551  0.3330751448529696  0.3441028719540427
  0.3407998282744202  0.3335632435489089  0.8430553326288077
  0.3407345444684964  0.6664700764076485  0.3438476195609823
  0.3408244693075630  0.6669077612933307  0.8432681169883622
  0.0902436816643331  0.9971393925748444  0.3971575883648910
  0.0913927119533042  0.0003067523508022  0.8980334195564481
  0.0887438749378049  0.3305649471869287  0.3965383661213551
  0.0917364829200196  0.3335753004747488  0.8976020788581565
  0.0914611530751088  0.6643185079086820  0.3980143291563039
  0.0916341619420535  0.6669739092433886  0.8979083869162778
  0.4095716162530394  0.1665608177245375  0.1025336010654456
  0.4094922118790620  0.1665738230534686  0.6026763885423136
  0.4077719062764302  0.5000902064329438  0.1021636334954223
  0.4092205007013163  0.5000088896893189  0.6025957082757145
  0.4093863393940680  0.8339149400528356  0.1028845423420748
  0.4093802793790289  0.8331407110808016  0.6027898254569095
  0.9987557428233416  0.1697080185608257  0.1257267062013554
  0.9966203998120946  0.1660835894458259  0.6268281605224857
  0.9969798999596691  0.5018030155466775  0.1268562679385283
  0.9954068107921756  0.4987013699445200  0.6255229192705301
  0.9966238225353905  0.8355592547613426  0.1269571035458767
  0.9960394180028658  0.8334333469972677  0.6268888222659044
  0.5043545148130875  0.0005767694249741  0.3735037021052108
  0.5035429557021232  0.0000664253077645  0.8726045401011149
  0.5038814218839960  0.3325917451405189  0.3733557086637660
  0.5030557657907480  0.3347465662536280  0.8716138127575093
  0.5029373493873521  0.6655402744919527  0.3738322974633732
  0.5036371837172453  0.6674655401428424  0.8725255409180548
  0.6721701009218819  0.1706525561329570  0.2813808759557688
  0.6729971523956237  0.1669895830019712  0.7812906649287683
  0.6722633158443330  0.4993033369509305  0.2800391641809838
  0.6730079245327545  0.5003568478748761  0.7802783570187373
  0.6692958817285160  0.8278022828265961  0.2804530516240433
  0.6733564312468800  0.8336748642715506  0.7811572533529727
  0.8280643129704899  0.0001527246479966  0.7206225783246225
  0.8266661480427402  0.3351932261887640  0.2165690941979150
  0.8280727846781417  0.3331547935270294  0.7187424576013655
  0.8273650068485168  0.6652798635588724  0.2186366637021422
  0.8279823580848884  0.6669790434203193  0.7194213117332851
  0.8246367541004318  0.9986524967709727  0.4480649891341173
  0.8345142223590756  0.0011913186861250  0.9476430742573569
  0.8309738522618915  0.3295978493135721  0.4422582579185530
  0.8325470987883321  0.3344854413823271  0.9449388528198739
  0.8321334528278044  0.6661825686117737  0.4447742456006836
  0.8328675640486551  0.6668045136011216  0.9454851853502220
  0.6649141478505740  0.1691880729542561  0.0532720484532234
  0.6684228284477314  0.1667429113488197  0.5563162006802784
  0.6673599970337420  0.5014295520507801  0.0537617890824293
  0.6688184499288994  0.4996033272336859  0.5539260733312616
  0.6687340094433125  0.8329213230428891  0.0543757715901521
  0.6680643797987429  0.8334520136820487  0.5546926145208033
  0.4976708227250413  0.0003404996307950  0.1280974055988864
  0.4968378685000019  0.9997969221315444  0.6277401506301885
  0.4959182147933419  0.3339954345947120  0.1276638577459508
  0.4967931375623422  0.3334264668153395  0.6272322776023529
  0.4954431361243437  0.6662724205235975  0.1265290153465983
  0.4970487660333021  0.6665154912421656  0.6276862015552211
  0.0009086636857845  0.1629268707200922  0.3725566506305924
  0.0043542659638263  0.1671451493047016  0.8722793292096114
  0.0032395879794294  0.4983565403875829  0.3717926627554817
  0.0044114648605529  0.5002281865423441  0.8723972485306888
  0.0043568923053172  0.8302821577132846  0.3756466469690878
  0.0043157455085350  0.8334967932914310  0.8726538637346479
  0.1725473176177488  0.0002554342548322  0.2806942193487458
  0.1726545924348741  0.9998519320656101  0.7803457907952662
  0.1722580869491779  0.3325550574454113  0.2809008677669880
  0.1726486962045186  0.3331392559289057  0.7798613695225995
  0.1727567821845426  0.6665966119918352  0.2806851204761642
  0.1723549847016130  0.6664672298916372  0.7801210873074567
  0.3280702972324576  0.1666476662691991  0.2199035058981096
  0.3275846960931688  0.1665290259174341  0.7194156235512636
  0.3272864535027722  0.4996183583128939  0.2201474899335949
  0.3271661722148949  0.4997934206454246  0.7191839919703895
  0.3277833351331054  0.8338228916461219  0.2200652729630761
  0.3273915600621322  0.8331573225514006  0.7194846428219464
  0.3324403152863908  0.1664598111674493  0.4462343786329939
  0.3326789345004642  0.1668411524638316  0.9458756934181380
  0.3319000116727224  0.4996606265514458  0.4462331349152890
  0.3315943088446289  0.5002002902333800  0.9453897744375439
  0.3324935843444621  0.8333914386554895  0.4462271037551346
  0.3324369165175298  0.8336116777059814  0.9461049368513770
  0.1692378997261486  0.0003865433511692  0.0542954019710038
  0.1679183073910764  0.9995009155298362  0.5537760193569738
  0.1692967690312486  0.3344947197755133  0.0540863283579469
  0.1665454000832440  0.3319088249192887  0.5530388481338093
  0.1684492097095358  0.6673055662779248  0.0545440186383672
  0.1682681386091502  0.6654012859279277  0.5545821906697341
  0.8379313645744944  0.1628459907381838  0.3366302532461489
  0.8250133891026508  0.0011942552530115  0.2247860634501393
 
  0.00000000E+00  0.00000000E+00  0.00000000E+00
  0.00000000E+00  0.00000000E+00  0.00000000E+00
  0.00000000E+00  0.00000000E+00  0.00000000E+00
  0.00000000E+00  0.00000000E+00  0.00000000E+00
  0.00000000E+00  0.00000000E+00  0.00000000E+00
  0.00000000E+00  0.00000000E+00  0.00000000E+00
  0.00000000E+00  0.00000000E+00  0.00000000E+00
  0.00000000E+00  0.00000000E+00  0.00000000E+00
  0.00000000E+00  0.00000000E+00  0.00000000E+00
  0.00000000E+00  0.00000000E+00  0.00000000E+00
  0.00000000E+00  0.00000000E+00  0.00000000E+00
  0.00000000E+00  0.00000000E+00  0.00000000E+00
  0.00000000E+00  0.00000000E+00  0.00000000E+00
  0.00000000E+00  0.00000000E+00  0.00000000E+00
  0.00000000E+00  0.00000000E+00  0.00000000E+00
  0.00000000E+00  0.00000000E+00  0.00000000E+00
  0.00000000E+00  0.00000000E+00  0.00000000E+00
  0.00000000E+00  0.00000000E+00  0.00000000E+00
  0.00000000E+00  0.00000000E+00  0.00000000E+00
  0.00000000E+00  0.00000000E+00  0.00000000E+00
  0.00000000E+00  0.00000000E+00  0.00000000E+00
  0.00000000E+00  0.00000000E+00  0.00000000E+00
  0.00000000E+00  0.00000000E+00  0.00000000E+00
  0.00000000E+00  0.00000000E+00  0.00000000E+00
  0.00000000E+00  0.00000000E+00  0.00000000E+00
  0.00000000E+00  0.00000000E+00  0.00000000E+00
  0.00000000E+00  0.00000000E+00  0.00000000E+00
  0.00000000E+00  0.00000000E+00  0.00000000E+00
  0.00000000E+00  0.00000000E+00  0.00000000E+00
  0.00000000E+00  0.00000000E+00  0.00000000E+00
  0.00000000E+00  0.00000000E+00  0.00000000E+00
  0.00000000E+00  0.00000000E+00  0.00000000E+00
  0.00000000E+00  0.00000000E+00  0.00000000E+00
  0.00000000E+00  0.00000000E+00  0.00000000E+00
  0.00000000E+00  0.00000000E+00  0.00000000E+00
  0.00000000E+00  0.00000000E+00  0.00000000E+00
  0.00000000E+00  0.00000000E+00  0.00000000E+00
  0.00000000E+00  0.00000000E+00  0.00000000E+00
  0.00000000E+00  0.00000000E+00  0.00000000E+00
  0.00000000E+00  0.00000000E+00  0.00000000E+00
  0.00000000E+00  0.00000000E+00  0.00000000E+00
  0.00000000E+00  0.00000000E+00  0.00000000E+00
  0.00000000E+00  0.00000000E+00  0.00000000E+00
  0.00000000E+00  0.00000000E+00  0.00000000E+00
  0.00000000E+00  0.00000000E+00  0.00000000E+00
  0.00000000E+00  0.00000000E+00  0.00000000E+00
  0.00000000E+00  0.00000000E+00  0.00000000E+00
  0.00000000E+00  0.00000000E+00  0.00000000E+00
  0.00000000E+00  0.00000000E+00  0.00000000E+00
  0.00000000E+00  0.00000000E+00  0.00000000E+00
  0.00000000E+00  0.00000000E+00  0.00000000E+00
  0.00000000E+00  0.00000000E+00  0.00000000E+00
  0.00000000E+00  0.00000000E+00  0.00000000E+00
  0.00000000E+00  0.00000000E+00  0.00000000E+00
  0.00000000E+00  0.00000000E+00  0.00000000E+00
  0.00000000E+00  0.00000000E+00  0.00000000E+00
  0.00000000E+00  0.00000000E+00  0.00000000E+00
  0.00000000E+00  0.00000000E+00  0.00000000E+00
  0.00000000E+00  0.00000000E+00  0.00000000E+00
  0.00000000E+00  0.00000000E+00  0.00000000E+00
  0.00000000E+00  0.00000000E+00  0.00000000E+00
  0.00000000E+00  0.00000000E+00  0.00000000E+00
  0.00000000E+00  0.00000000E+00  0.00000000E+00
  0.00000000E+00  0.00000000E+00  0.00000000E+00
  0.00000000E+00  0.00000000E+00  0.00000000E+00
  0.00000000E+00  0.00000000E+00  0.00000000E+00
  0.00000000E+00  0.00000000E+00  0.00000000E+00
  0.00000000E+00  0.00000000E+00  0.00000000E+00
  0.00000000E+00  0.00000000E+00  0.00000000E+00
  0.00000000E+00  0.00000000E+00  0.00000000E+00
  0.00000000E+00  0.00000000E+00  0.00000000E+00
  0.00000000E+00  0.00000000E+00  0.00000000E+00
  0.00000000E+00  0.00000000E+00  0.00000000E+00
  0.00000000E+00  0.00000000E+00  0.00000000E+00
  0.00000000E+00  0.00000000E+00  0.00000000E+00
  0.00000000E+00  0.00000000E+00  0.00000000E+00
  0.00000000E+00  0.00000000E+00  0.00000000E+00
  0.00000000E+00  0.00000000E+00  0.00000000E+00
  0.00000000E+00  0.00000000E+00  0.00000000E+00
  0.00000000E+00  0.00000000E+00  0.00000000E+00
  0.00000000E+00  0.00000000E+00  0.00000000E+00
  0.00000000E+00  0.00000000E+00  0.00000000E+00
  0.00000000E+00  0.00000000E+00  0.00000000E+00
  0.00000000E+00  0.00000000E+00  0.00000000E+00
  0.00000000E+00  0.00000000E+00  0.00000000E+00
  0.00000000E+00  0.00000000E+00  0.00000000E+00
  0.00000000E+00  0.00000000E+00  0.00000000E+00
  0.00000000E+00  0.00000000E+00  0.00000000E+00
  0.00000000E+00  0.00000000E+00  0.00000000E+00
  0.00000000E+00  0.00000000E+00  0.00000000E+00
  0.00000000E+00  0.00000000E+00  0.00000000E+00
  0.00000000E+00  0.00000000E+00  0.00000000E+00
  0.00000000E+00  0.00000000E+00  0.00000000E+00
  0.00000000E+00  0.00000000E+00  0.00000000E+00
  0.00000000E+00  0.00000000E+00  0.00000000E+00
  0.00000000E+00  0.00000000E+00  0.00000000E+00
  0.00000000E+00  0.00000000E+00  0.00000000E+00
  0.00000000E+00  0.00000000E+00  0.00000000E+00
  0.00000000E+00  0.00000000E+00  0.00000000E+00
  0.00000000E+00  0.00000000E+00  0.00000000E+00
  0.00000000E+00  0.00000000E+00  0.00000000E+00
  0.00000000E+00  0.00000000E+00  0.00000000E+00
  0.00000000E+00  0.00000000E+00  0.00000000E+00
  0.00000000E+00  0.00000000E+00  0.00000000E+00
  0.00000000E+00  0.00000000E+00  0.00000000E+00
  0.00000000E+00  0.00000000E+00  0.00000000E+00
  0.00000000E+00  0.00000000E+00  0.00000000E+00
  0.00000000E+00  0.00000000E+00  0.00000000E+00
  0.00000000E+00  0.00000000E+00  0.00000000E+00
  0.00000000E+00  0.00000000E+00  0.00000000E+00
  0.00000000E+00  0.00000000E+00  0.00000000E+00
  0.00000000E+00  0.00000000E+00  0.00000000E+00
  0.00000000E+00  0.00000000E+00  0.00000000E+00
  0.00000000E+00  0.00000000E+00  0.00000000E+00
  0.00000000E+00  0.00000000E+00  0.00000000E+00
  0.00000000E+00  0.00000000E+00  0.00000000E+00
  0.00000000E+00  0.00000000E+00  0.00000000E+00
  0.00000000E+00  0.00000000E+00  0.00000000E+00
  0.00000000E+00  0.00000000E+00  0.00000000E+00
  0.00000000E+00  0.00000000E+00  0.00000000E+00
