       N       E                     dE             d eps       ncg     rms          ort
DAV:   1    -0.184413803892E+05   -0.18441E+05   -0.54763E+05  5048   0.744E+03
DAV:   2    -0.622893040014E+05   -0.43848E+05   -0.42555E+05  5048   0.120E+03
DAV:   3    -0.668051309087E+05   -0.45158E+04   -0.40370E+04  5048   0.349E+02
DAV:   4    -0.673307646592E+05   -0.52563E+03   -0.44332E+03  5048   0.103E+02
DAV:   5    -0.372697868423E+05    0.30061E+05   -0.70932E+02  5048   0.533E+01
SDA:   6     0.180653333963E+05    0.55335E+05   -0.70932E+02  5048   0.101E+06 0.000E+00
CGA:   7     0.430132513257E+04   -0.13764E+05   -0.13522E+05  5048   0.311E+05-0.135E+05
CGA:   8     0.122882291482E+04   -0.30725E+04   -0.30213E+04  5048   0.631E+04 0.229E+04
CGA:   9     0.409953418000E+03   -0.81887E+03   -0.66215E+03  5048   0.801E+04-0.975E+03
CGA:  10     0.237968276578E+03   -0.17199E+03   -0.47570E+03  5048   0.917E+04-0.134E+04
CGA:  11    -0.980591014256E+02   -0.33603E+03   -0.54435E+03  5048   0.398E+04-0.105E+04
CGA:  12    -0.457802972814E+03   -0.35974E+03   -0.42033E+03  5048   0.154E+04 0.202E+03
CGA:  13    -0.713569453680E+03   -0.25577E+03   -0.25774E+03  5048   0.482E+03 0.579E+02
CGA:  14    -0.826119254068E+03   -0.11255E+03   -0.11122E+03  5048   0.285E+03 0.187E+02
CGA:  15    -0.887855732611E+03   -0.61736E+02   -0.61606E+02  5048   0.132E+03 0.239E+01
CGA:  16    -0.917400225757E+03   -0.29544E+02   -0.29657E+02  5048   0.640E+02-0.262E+01
CGA:  17    -0.932651147975E+03   -0.15251E+02   -0.19790E+02  5048   0.493E+02-0.257E+02
CGA:  18    -0.937166799102E+03   -0.45157E+01   -0.45238E+01  5048   0.290E+02 0.123E+00
CGA:  19    -0.942438025166E+03   -0.52712E+01   -0.52712E+01  5048   0.151E+02-0.135E+00
CGA:  20    -0.945540435494E+03   -0.31024E+01   -0.31449E+01  5048   0.103E+02-0.111E+01
CGA:  21    -0.947554303579E+03   -0.20139E+01   -0.20091E+01  5048   0.769E+01 0.155E+00
CGA:  22    -0.948726151302E+03   -0.11718E+01   -0.11279E+01  5048   0.434E+01-0.166E+00
CGA:  23    -0.949314398389E+03   -0.58825E+00   -0.58124E+00  5048   0.376E+01-0.681E-02
CGA:  24    -0.949792788663E+03   -0.47839E+00   -0.47906E+00  5048   0.268E+01 0.160E-01
CGA:  25    -0.950096333851E+03   -0.30355E+00   -0.30515E+00  5048   0.151E+01 0.452E-02
CGA:  26    -0.950297070513E+03   -0.20074E+00   -0.20179E+00  5048   0.104E+01 0.674E-02
CGA:  27    -0.950459252539E+03   -0.16218E+00   -0.16237E+00  5048   0.769E+00 0.542E-02
CGA:  28    -0.950584060080E+03   -0.12481E+00   -0.12488E+00  5048   0.591E+00 0.372E-02
CGA:  29    -0.950671286531E+03   -0.87226E-01   -0.87328E-01  5048   0.409E+00 0.186E-02
CGA:  30    -0.950727869578E+03   -0.56583E-01   -0.56593E-01  5048   0.305E+00 0.414E-03
CGA:  31    -0.950770244796E+03   -0.42375E-01   -0.42367E-01  5048   0.232E+00 0.167E-03
CGA:  32    -0.950799242221E+03   -0.28997E-01   -0.29006E-01  5048   0.139E+00 0.116E-03
CGA:  33    -0.950818142228E+03   -0.18900E-01   -0.18900E-01  5048   0.933E-01-0.312E-04
CGA:  34    -0.950832583658E+03   -0.14441E-01   -0.14442E-01  5048   0.646E-01-0.331E-04
CGA:  35    -0.950842711285E+03   -0.10128E-01   -0.10127E-01  5048   0.419E-01-0.518E-04
CGA:  36    -0.950849765523E+03   -0.70542E-02   -0.70551E-02  5048   0.286E-01-0.109E-03
SDA:  37    -0.950854655141E+03   -0.48896E-02   -0.48905E-02  5048   0.226E-01-0.641E-04
CGA:  38    -0.950862987981E+03   -0.83328E-02   -0.83207E-02  5048   0.535E-02 0.620E-04
CGA:  39    -0.950865654676E+03   -0.26667E-02   -0.26565E-02  5048   0.211E-02 0.294E-04
CGA:  40    -0.950866339589E+03   -0.68491E-03   -0.68158E-03  5048   0.105E-02 0.249E-04
CGA:  41    -0.950866634779E+03   -0.29519E-03   -0.29398E-03  5048   0.251E-03 0.153E-04
CGA:  42    -0.950866769325E+03   -0.13455E-03   -0.13205E-03  5048   0.942E-04 0.786E-05
CGA:  43    -0.950866804407E+03   -0.35082E-04   -0.34568E-04  5048   0.390E-04 0.370E-05
CGA:  44    -0.950866822263E+03   -0.17855E-04   -0.17471E-04  5048   0.197E-04 0.186E-05
CGA:  45    -0.950866830252E+03   -0.79891E-05   -0.79331E-05  5048   0.107E-04 0.378E-06
   1 F= -.95086683E+03 E0= -.95085383E+03  d E =-.260086E-01
