Ga8 O12                                 
    1.000000000000000     
     0.0000000000000000   12.2804737091000007    0.0000000000000000
     9.1427011490000005    0.0000000000000000    0.0000000000000000
     0.0000000000000000   -2.7682616411000001  -11.3006974810000003
   Ga   O    Cu   N 
    47    71     1     1
Direct
  0.6604425093863522  0.0008121686137190  0.1567548049077348
  0.6596249776739022 -0.0001221853070130  0.6580189567966017
  0.6583428885665015  0.3349998881169959  0.1553170072032471
  0.6596390745812241  0.3336781135474297  0.6575875883490848
  0.6583005436828884  0.6669894376611474  0.1578083812720890
  0.6599185361298286  0.6665219940340249  0.6568417419579821
  0.8417153887183781  0.1667308187175669  0.8441374582173805
  0.8408332198965000  0.4993313017823857  0.3421986359041341
  0.8419683411068160  0.5006447683603363  0.8424180898758062
  0.8403039787979536  0.8350316714945885  0.3419199568494463
  0.8419404583361498  0.8344954505131363  0.8449990004869090
  0.5925409921934061  0.1667251132336058  0.4004534415237654
  0.5900159345004331  0.1676844370149539  0.8969094177825395
  0.5910780110242588  0.4994976097488682  0.3973917904627176
  0.5910997946064807  0.5008502749384218  0.8970833299984382
  0.5904034186237153  0.8324437967279423  0.3980951199319822
  0.5914559363706799  0.8339158306368495  0.8977779439005519
  0.9090079464453759  0.0045703367254537  0.1068680126520924
  0.9088632539530745  0.0005475283822099  0.6026407732374125
  0.9103251416802630  0.3348059650473237  0.1009967994568852
  0.9080080513598522  0.3314081272887688  0.5997050443622720
  0.9093287702698789  0.6688069585065480  0.1021726975938194
  0.9087049370920104  0.6663869750919758  0.6014925754822138
  0.1603951403003218  0.1673491993010970  0.1563333997967227
  0.1592160978365658  0.1658428348079708  0.6563319278011088
  0.1593249150980378  0.5004185671875446  0.1569122146529264
  0.1585304857638598  0.4989946227747910  0.6562130659912013
  0.1590830342288020  0.8341092953379776  0.1567302656722922
  0.1588586485028630  0.8328097823560251  0.6562811650316026
  0.3413709557512669  0.0001097976992245  0.3438307910969430
  0.3408982338235320 -0.0000615696851034  0.8434021968558111
  0.3409970721021571  0.3330751448529705  0.3441028719540454
  0.3407998282744234  0.3335632435489076  0.8430553326288084
  0.3407345444684947  0.6664700764076477  0.3438476195609855
  0.3408244693075628  0.6669077612933276  0.8432681169883605
  0.0902436816643316 -0.0028606074251527  0.3971575883648932
  0.0913927119533021  0.0003067523508021  0.8980334195564488
  0.0887438749378046  0.3305649471869281  0.3965383661213519
  0.0917364829200203  0.3335753004747504  0.8976020788581600
  0.0914611530751110  0.6643185079086839  0.3980143291563012
  0.0916341619420529  0.6669739092433870  0.8979083869162785
  0.4095716162530400  0.1665608177245346  0.1025336010654429
  0.4094922118790614  0.1665738230534676  0.6026763885423128
  0.4077719062764316  0.5000902064329444  0.1021636334954195
  0.4092205007013173  0.5000088896893161  0.6025957082757132
  0.4093863393940673  0.8339149400528321  0.1028845423420740
  0.4093802793790272  0.8331407110808017  0.6027898254569061
  0.9987557428233432  0.1697080185608276  0.1257267062013536
  0.9966203998120978  0.1660835894458291  0.6268281605224830
  0.9969798999596678  0.5018030155466769  0.1268562679385276
  0.9954068107921769  0.4987013699445210  0.6255229192705267
  0.9966238225353876  0.8355592547613425  0.1269571035458784
  0.9960394180028663  0.8334333469972681  0.6268888222659049
  0.5043545148130889  0.0005767694249734  0.3735037021052102
  0.5035429557021244  0.0000664253077673  0.8726045401011141
  0.5038814218839964  0.3325917451405194  0.3733557086637670
  0.5030557657907482  0.3347465662536278  0.8716138127575114
  0.5029373493873526  0.6655402744919529  0.3738322974633699
  0.5036371837172469  0.6674655401428454  0.8725255409180577
  0.6721701009218825  0.1706525561329548  0.2813808759557665
  0.6729971523956251  0.1669895830019708  0.7812906649287671
  0.6722633158443342  0.4993033369509278  0.2800391641809832
  0.6730079245327534  0.5003568478748733  0.7802783570187390
  0.6692958817285147  0.8278022828265956  0.2804530516240401
  0.6733564312468776  0.8336748642715507  0.7811572533529761
  0.8280643129704901  0.0001527246479969  0.7206225783246251
  0.8266661480427370  0.3351932261887622  0.2165690941979117
  0.8280727846781384  0.3331547935270280  0.7187424576013656
  0.8273650068485147  0.6652798635588753  0.2186366637021402
  0.8279823580848913  0.6669790434203215  0.7194213117332819
  0.8246367541004316 -0.0013475032290272  0.4480649891341181
  0.8345142223590724  0.0011913186861251  0.9476430742573578
  0.8309738522618906  0.3295978493135693  0.4422582579185534
  0.8325470987883321  0.3344854413823283  0.9449388528198736
  0.8321334528278027  0.6661825686117741  0.4447742456006840
  0.8328675640486580  0.6668045136011219  0.9454851853502243
  0.6649141478505746  0.1691880729542532  0.0532720484532239
  0.6684228284477349  0.1667429113488185  0.5563162006802781
  0.6673599970337430  0.5014295520507787  0.0537617890824298
  0.6688184499288959  0.4996033272336873  0.5539260733312639
  0.6687340094433147  0.8329213230428903  0.0543757715901493
  0.6680643797987400  0.8334520136820452  0.5546926145208038
  0.4976708227250384  0.0003404996307964  0.1280974055988871
  0.4968378685000028 -0.0002030778684582  0.6277401506301888
  0.4959182147933400  0.3339954345947110  0.1276638577459522
  0.4967931375623429  0.3334264668153367  0.6272322776023536
  0.4954431361243461  0.6662724205235961  0.1265290153466002
  0.4970487660333003  0.6665154912421652  0.6276862015552201
  0.0009086636857823  0.1629268707200953  0.3725566506305958
  0.0043542659638283  0.1671451493047034  0.8722793292096085
  0.0032395879794262  0.4983565403875802  0.3717926627554796
  0.0044114648605555  0.5002281865423426  0.8723972485306900
  0.0043568923053165  0.8302821577132826  0.3756466469690907
  0.0043157455085359  0.8334967932914319  0.8726538637346480
  0.1725473176177517  0.0002554342548333  0.2806942193487491
  0.1726545924348774 -0.0001480679343892  0.7803457907952673
  0.1722580869491757  0.3325550574454115  0.2809008677669911
  0.1726486962045173  0.3331392559289039  0.7798613695226011
  0.1727567821845425  0.6665966119918367  0.2806851204761660
  0.1723549847016105  0.6664672298916349  0.7801210873074559
  0.3280702972324542  0.1666476662691974  0.2199035058981125
  0.3275846960931706  0.1665290259174363  0.7194156235512603
  0.3272864535027730  0.4996183583128904  0.2201474899335928
  0.3271661722148935  0.4997934206454215  0.7191839919703915
  0.3277833351331034  0.8338228916461210  0.2200652729630778
  0.3273915600621295  0.8331573225514006  0.7194846428219481
  0.3324403152863891  0.1664598111674468  0.4462343786329912
  0.3326789345004671  0.1668411524638317  0.9458756934181395
  0.3319000116727218  0.4996606265514462  0.4462331349152861
  0.3315943088446324  0.5002002902333821  0.9453897744375463
  0.3324935843444612  0.8333914386554926  0.4462271037551347
  0.3324369165175330  0.8336116777059839  0.9461049368513793
  0.1692378997261478  0.0003865433511704  0.0542954019710030
  0.1679183073910775 -0.0004990844701671  0.5537760193569720
  0.1692967690312502  0.3344947197755133  0.0540863283579454
  0.1665454000832471  0.3319088249192896  0.5530388481338123
  0.1684492097095344  0.6673055662779215  0.0545440186383657
  0.1682681386091525  0.6654012859279265  0.5545821906697354
  0.8379313645744950  0.1628459907381836  0.3366302532461490
  0.8250133891026535  0.0011942552530092  0.2247860634501367
 
  0.00000000E+00  0.00000000E+00  0.00000000E+00
  0.00000000E+00  0.00000000E+00  0.00000000E+00
  0.00000000E+00  0.00000000E+00  0.00000000E+00
  0.00000000E+00  0.00000000E+00  0.00000000E+00
  0.00000000E+00  0.00000000E+00  0.00000000E+00
  0.00000000E+00  0.00000000E+00  0.00000000E+00
  0.00000000E+00  0.00000000E+00  0.00000000E+00
  0.00000000E+00  0.00000000E+00  0.00000000E+00
  0.00000000E+00  0.00000000E+00  0.00000000E+00
  0.00000000E+00  0.00000000E+00  0.00000000E+00
  0.00000000E+00  0.00000000E+00  0.00000000E+00
  0.00000000E+00  0.00000000E+00  0.00000000E+00
  0.00000000E+00  0.00000000E+00  0.00000000E+00
  0.00000000E+00  0.00000000E+00  0.00000000E+00
  0.00000000E+00  0.00000000E+00  0.00000000E+00
  0.00000000E+00  0.00000000E+00  0.00000000E+00
  0.00000000E+00  0.00000000E+00  0.00000000E+00
  0.00000000E+00  0.00000000E+00  0.00000000E+00
  0.00000000E+00  0.00000000E+00  0.00000000E+00
  0.00000000E+00  0.00000000E+00  0.00000000E+00
  0.00000000E+00  0.00000000E+00  0.00000000E+00
  0.00000000E+00  0.00000000E+00  0.00000000E+00
  0.00000000E+00  0.00000000E+00  0.00000000E+00
  0.00000000E+00  0.00000000E+00  0.00000000E+00
  0.00000000E+00  0.00000000E+00  0.00000000E+00
  0.00000000E+00  0.00000000E+00  0.00000000E+00
  0.00000000E+00  0.00000000E+00  0.00000000E+00
  0.00000000E+00  0.00000000E+00  0.00000000E+00
  0.00000000E+00  0.00000000E+00  0.00000000E+00
  0.00000000E+00  0.00000000E+00  0.00000000E+00
  0.00000000E+00  0.00000000E+00  0.00000000E+00
  0.00000000E+00  0.00000000E+00  0.00000000E+00
  0.00000000E+00  0.00000000E+00  0.00000000E+00
  0.00000000E+00  0.00000000E+00  0.00000000E+00
  0.00000000E+00  0.00000000E+00  0.00000000E+00
  0.00000000E+00  0.00000000E+00  0.00000000E+00
  0.00000000E+00  0.00000000E+00  0.00000000E+00
  0.00000000E+00  0.00000000E+00  0.00000000E+00
  0.00000000E+00  0.00000000E+00  0.00000000E+00
  0.00000000E+00  0.00000000E+00  0.00000000E+00
  0.00000000E+00  0.00000000E+00  0.00000000E+00
  0.00000000E+00  0.00000000E+00  0.00000000E+00
  0.00000000E+00  0.00000000E+00  0.00000000E+00
  0.00000000E+00  0.00000000E+00  0.00000000E+00
  0.00000000E+00  0.00000000E+00  0.00000000E+00
  0.00000000E+00  0.00000000E+00  0.00000000E+00
  0.00000000E+00  0.00000000E+00  0.00000000E+00
  0.00000000E+00  0.00000000E+00  0.00000000E+00
  0.00000000E+00  0.00000000E+00  0.00000000E+00
  0.00000000E+00  0.00000000E+00  0.00000000E+00
  0.00000000E+00  0.00000000E+00  0.00000000E+00
  0.00000000E+00  0.00000000E+00  0.00000000E+00
  0.00000000E+00  0.00000000E+00  0.00000000E+00
  0.00000000E+00  0.00000000E+00  0.00000000E+00
  0.00000000E+00  0.00000000E+00  0.00000000E+00
  0.00000000E+00  0.00000000E+00  0.00000000E+00
  0.00000000E+00  0.00000000E+00  0.00000000E+00
  0.00000000E+00  0.00000000E+00  0.00000000E+00
  0.00000000E+00  0.00000000E+00  0.00000000E+00
  0.00000000E+00  0.00000000E+00  0.00000000E+00
  0.00000000E+00  0.00000000E+00  0.00000000E+00
  0.00000000E+00  0.00000000E+00  0.00000000E+00
  0.00000000E+00  0.00000000E+00  0.00000000E+00
  0.00000000E+00  0.00000000E+00  0.00000000E+00
  0.00000000E+00  0.00000000E+00  0.00000000E+00
  0.00000000E+00  0.00000000E+00  0.00000000E+00
  0.00000000E+00  0.00000000E+00  0.00000000E+00
  0.00000000E+00  0.00000000E+00  0.00000000E+00
  0.00000000E+00  0.00000000E+00  0.00000000E+00
  0.00000000E+00  0.00000000E+00  0.00000000E+00
  0.00000000E+00  0.00000000E+00  0.00000000E+00
  0.00000000E+00  0.00000000E+00  0.00000000E+00
  0.00000000E+00  0.00000000E+00  0.00000000E+00
  0.00000000E+00  0.00000000E+00  0.00000000E+00
  0.00000000E+00  0.00000000E+00  0.00000000E+00
  0.00000000E+00  0.00000000E+00  0.00000000E+00
  0.00000000E+00  0.00000000E+00  0.00000000E+00
  0.00000000E+00  0.00000000E+00  0.00000000E+00
  0.00000000E+00  0.00000000E+00  0.00000000E+00
  0.00000000E+00  0.00000000E+00  0.00000000E+00
  0.00000000E+00  0.00000000E+00  0.00000000E+00
  0.00000000E+00  0.00000000E+00  0.00000000E+00
  0.00000000E+00  0.00000000E+00  0.00000000E+00
  0.00000000E+00  0.00000000E+00  0.00000000E+00
  0.00000000E+00  0.00000000E+00  0.00000000E+00
  0.00000000E+00  0.00000000E+00  0.00000000E+00
  0.00000000E+00  0.00000000E+00  0.00000000E+00
  0.00000000E+00  0.00000000E+00  0.00000000E+00
  0.00000000E+00  0.00000000E+00  0.00000000E+00
  0.00000000E+00  0.00000000E+00  0.00000000E+00
  0.00000000E+00  0.00000000E+00  0.00000000E+00
  0.00000000E+00  0.00000000E+00  0.00000000E+00
  0.00000000E+00  0.00000000E+00  0.00000000E+00
  0.00000000E+00  0.00000000E+00  0.00000000E+00
  0.00000000E+00  0.00000000E+00  0.00000000E+00
  0.00000000E+00  0.00000000E+00  0.00000000E+00
  0.00000000E+00  0.00000000E+00  0.00000000E+00
  0.00000000E+00  0.00000000E+00  0.00000000E+00
  0.00000000E+00  0.00000000E+00  0.00000000E+00
  0.00000000E+00  0.00000000E+00  0.00000000E+00
  0.00000000E+00  0.00000000E+00  0.00000000E+00
  0.00000000E+00  0.00000000E+00  0.00000000E+00
  0.00000000E+00  0.00000000E+00  0.00000000E+00
  0.00000000E+00  0.00000000E+00  0.00000000E+00
  0.00000000E+00  0.00000000E+00  0.00000000E+00
  0.00000000E+00  0.00000000E+00  0.00000000E+00
  0.00000000E+00  0.00000000E+00  0.00000000E+00
  0.00000000E+00  0.00000000E+00  0.00000000E+00
  0.00000000E+00  0.00000000E+00  0.00000000E+00
  0.00000000E+00  0.00000000E+00  0.00000000E+00
  0.00000000E+00  0.00000000E+00  0.00000000E+00
  0.00000000E+00  0.00000000E+00  0.00000000E+00
  0.00000000E+00  0.00000000E+00  0.00000000E+00
  0.00000000E+00  0.00000000E+00  0.00000000E+00
  0.00000000E+00  0.00000000E+00  0.00000000E+00
  0.00000000E+00  0.00000000E+00  0.00000000E+00
  0.00000000E+00  0.00000000E+00  0.00000000E+00
  0.00000000E+00  0.00000000E+00  0.00000000E+00
  0.00000000E+00  0.00000000E+00  0.00000000E+00
  0.00000000E+00  0.00000000E+00  0.00000000E+00
