 running    4 mpi-ranks, on    1 nodes
 distrk:  each k-point on    1 cores,    4 groups
 distr:  one band on    1 cores,    1 groups
 OpenACC runtime initialized ...    4 GPUs detected
 vasp.6.4.2 20Jul23 (build Nov 12 2023 22:16:35) complex                         
 POSCAR found type information on POSCAR GaO N Fe
 POSCAR found :  4 types and     120 ions
 scaLAPACK will be used selectively (only on CPU)
 LDA part: xc-table for Pade appr. of Perdew
 POSCAR, INCAR and KPOINTS ok, starting setup
 FFT: planning ... GRIDC
 FFT: planning ... GRID_SOFT
 FFT: planning ... GRID
 WAVECAR not read
 entering main loop
       N       E                     dE             d eps       ncg     rms          rms(c)
DAV:   1     0.218513260038E+05    0.21851E+05   -0.32053E+05 10080   0.281E+03
DAV:   2     0.485953701838E+04   -0.16992E+05   -0.16016E+05 10080   0.816E+02
DAV:   3    -0.140780887573E+03   -0.50003E+04   -0.46979E+04 12792   0.321E+02
DAV:   4    -0.784556526222E+03   -0.64378E+03   -0.62773E+03 12392   0.122E+02
DAV:   5    -0.832594099705E+03   -0.48038E+02   -0.47526E+02 14648   0.361E+01BRMIX: very serious problems
 the old and the new charge density differ
 old charge density:  1050.00000 new 1050.99974
BRMIX: very serious problems
 the old and the new charge density differ
 old charge density:  1050.00000 new 1050.99974
BRMIX: very serious problems
 the old and the new charge density differ
 old charge density:  1050.00000 new 1050.99974
BRMIX: very serious problems
 the old and the new charge density differ
 old charge density:  1050.00000 new 1050.99974
    0.758E+01
RMM:   6    -0.850477076502E+03   -0.17883E+02   -0.84671E+02 13740   0.337E+01    0.230E+02
RMM:   7    -0.808970503449E+03    0.41507E+02   -0.87543E+01 15471   0.116E+01    0.147E+02
RMM:   8    -0.717773658584E+03    0.91197E+02   -0.50026E+01 12896   0.649E+00    0.437E+01
RMM:   9    -0.717639772362E+03    0.13389E+00   -0.72812E+00 12880   0.364E+00    0.242E+01
RMM:  10    -0.714332893753E+03    0.33069E+01   -0.82851E+00 12868   0.336E+00    0.195E+01
RMM:  11    -0.713757545580E+03    0.57535E+00   -0.22881E+00 13639   0.194E+00    0.143E+01
RMM:  12    -0.712461619494E+03    0.12959E+01   -0.10130E+00 14184   0.137E+00    0.563E+00
RMM:  13    -0.712248039218E+03    0.21358E+00   -0.30776E-01 14990   0.632E-01    0.471E+00
RMM:  14    -0.712097027627E+03    0.15101E+00   -0.10192E-01 14049   0.312E-01    0.374E+00
RMM:  15    -0.711832682355E+03    0.26435E+00   -0.42187E-01 13642   0.599E-01    0.117E+00
RMM:  16    -0.711829332889E+03    0.33495E-02   -0.10117E-01 14387   0.325E-01    0.792E-01
RMM:  17    -0.711822933242E+03    0.63996E-02   -0.21289E-02 14286   0.172E-01    0.503E-01
RMM:  18    -0.711822871235E+03    0.62007E-04   -0.85614E-03 13790   0.828E-02    0.432E-01
RMM:  19    -0.711823092281E+03   -0.22105E-03   -0.27906E-03 13153   0.510E-02    0.290E-01
RMM:  20    -0.711823393792E+03   -0.30151E-03   -0.87052E-04 12057   0.327E-02    0.207E-01
RMM:  21    -0.711823396544E+03   -0.27525E-05   -0.34597E-04 10379   0.187E-02    0.175E-01
RMM:  22    -0.711823302150E+03    0.94394E-04   -0.19200E-04  9308   0.136E-02    0.137E-01
RMM:  23    -0.711823284327E+03    0.17824E-04   -0.10406E-04  8508   0.104E-02    0.122E-01
RMM:  24    -0.711823290525E+03   -0.61978E-05   -0.85392E-05  8322   0.925E-03
   1 F= -.71182329E+03 E0= -.71181027E+03  d E =-.711823E+03
 curvature:   0.00 expect dE= 0.000E+00 dE for cont linesearch  0.000E+00
 trial: gam= 0.00000 g(F)=  0.116E+01 g(S)=  0.000E+00 ort = 0.000E+00 (trialstep = 0.100E+01)
 search vector abs. value=  0.116E+01
 bond charge predicted
       N       E                     dE             d eps       ncg     rms          rms(c)
DAV:   1    -0.711080051212E+03    0.74323E+00   -0.23436E+02 11008   0.186E+01    0.446E+00
RMM:   2    -0.711847582750E+03   -0.76753E+00   -0.84147E+00 13430   0.578E+00    0.378E+00
RMM:   3    -0.712069289667E+03   -0.22171E+00   -0.23266E+00 15055   0.238E+00    0.257E+00
RMM:   4    -0.712123789918E+03   -0.54500E-01   -0.41539E-01 14976   0.923E-01    0.309E+00
RMM:   5    -0.712050263633E+03    0.73526E-01   -0.11986E-01 14460   0.454E-01    0.144E+00
RMM:   6    -0.712047713485E+03    0.25501E-02   -0.16812E-01 12821   0.404E-01    0.815E-01
RMM:   7    -0.712044079939E+03    0.36335E-02   -0.16880E-02 15080   0.193E-01    0.526E-01
RMM:   8    -0.712042389693E+03    0.16902E-02   -0.13187E-02 13111   0.110E-01    0.147E-01
RMM:   9    -0.712042379344E+03    0.10349E-04   -0.21810E-03 14737   0.596E-02    0.564E-02
RMM:  10    -0.712042439458E+03   -0.60114E-04   -0.10767E-03 11531   0.291E-02    0.331E-02
RMM:  11    -0.712042466578E+03   -0.27120E-04   -0.35591E-04  9995   0.204E-02    0.198E-02
RMM:  12    -0.712042485219E+03   -0.18641E-04   -0.23242E-04  8577   0.108E-02    0.159E-02
RMM:  13    -0.712042486135E+03   -0.91593E-06   -0.52285E-05  7211   0.793E-03
   2 F= -.71204249E+03 E0= -.71203068E+03  d E =-.219196E+00
 trial-energy change:   -0.219196  1 .order   -0.101256   -1.160647    0.958136
 step:   0.6260(harm=  0.5478)  dis= 0.08047  next Energy=  -712.215494 (dE=-0.392E+00)
 bond charge predicted
       N       E                     dE             d eps       ncg     rms          rms(c)
DAV:   1    -0.712086904395E+03   -0.44419E-01   -0.32651E+01 11096   0.728E+00    0.155E+00
RMM:   2    -0.712187934140E+03   -0.10103E+00   -0.11373E+00 13523   0.216E+00    0.173E+00
RMM:   3    -0.712214908230E+03   -0.26974E-01   -0.30580E-01 15084   0.875E-01    0.119E+00
RMM:   4    -0.712232687490E+03   -0.17779E-01   -0.70715E-02 14700   0.356E-01    0.166E+00
RMM:   5    -0.712212831061E+03    0.19856E-01   -0.29597E-02 14121   0.197E-01    0.456E-01
RMM:   6    -0.712212443505E+03    0.38756E-03   -0.11781E-02 13252   0.105E-01    0.144E-01
RMM:   7    -0.712212370703E+03    0.72802E-04   -0.19647E-03 13883   0.519E-02    0.110E-01
RMM:   8    -0.712212335330E+03    0.35373E-04   -0.80542E-04 10731   0.250E-02    0.632E-02
RMM:   9    -0.712212284130E+03    0.51200E-04   -0.52634E-04 11465   0.239E-02    0.181E-02
RMM:  10    -0.712212294803E+03   -0.10672E-04   -0.14731E-04  8602   0.126E-02    0.823E-03
RMM:  11    -0.712212298647E+03   -0.38447E-05   -0.51354E-05  7121   0.773E-03
   3 F= -.71221230E+03 E0= -.71220020E+03  d E =-.389008E+00
 curvature:  -0.27 expect dE=-0.376E-01 dE for cont linesearch -0.129E-04
 trial: gam= 0.11534 g(F)=  0.141E+00 g(S)=  0.000E+00 ort = 0.750E-02 (trialstep = 0.925E+00)
 search vector abs. value=  0.159E+00
 bond charge predicted
       N       E                     dE             d eps       ncg     rms          rms(c)
DAV:   1    -0.712166825679E+03    0.45469E-01   -0.30730E+01 10960   0.780E+00    0.103E+00
RMM:   2    -0.712274344926E+03   -0.10752E+00   -0.11029E+00 13530   0.214E+00    0.116E+00
RMM:   3    -0.712295168527E+03   -0.20824E-01   -0.25663E-01 14905   0.872E-01    0.636E-01
RMM:   4    -0.712295569402E+03   -0.40088E-03   -0.34885E-02 15089   0.301E-01    0.559E-01
RMM:   5    -0.712292839451E+03    0.27300E-02   -0.86708E-03 14745   0.134E-01    0.231E-01
RMM:   6    -0.712292900913E+03   -0.61462E-04   -0.60754E-03 12604   0.891E-02    0.120E-01
RMM:   7    -0.712292764826E+03    0.13609E-03   -0.91285E-04 14311   0.428E-02    0.669E-02
RMM:   8    -0.712292753133E+03    0.11693E-04   -0.34066E-04 11043   0.203E-02    0.208E-02
RMM:   9    -0.712292757061E+03   -0.39284E-05   -0.73702E-05  8734   0.117E-02
   4 F= -.71229276E+03 E0= -.71228084E+03  d E =-.804584E-01
 trial-energy change:   -0.080458  1 .order   -0.079805   -0.131600   -0.028009
 step:   1.1640(harm=  1.1754)  dis= 0.02202  next Energy=  -712.296383 (dE=-0.841E-01)
 bond charge predicted
       N       E                     dE             d eps       ncg     rms          rms(c)
DAV:   1    -0.712288779539E+03    0.39736E-02   -0.20523E+00 11552   0.201E+00    0.264E-01
RMM:   2    -0.712295789964E+03   -0.70104E-02   -0.71730E-02 13500   0.542E-01    0.304E-01
RMM:   3    -0.712297044795E+03   -0.12548E-02   -0.16074E-02 14905   0.219E-01    0.166E-01
RMM:   4    -0.712297061556E+03   -0.16761E-04   -0.21550E-03 14580   0.751E-02    0.145E-01
RMM:   5    -0.712296879538E+03    0.18202E-03   -0.59608E-04 12698   0.356E-02    0.545E-02
RMM:   6    -0.712296891620E+03   -0.12082E-04   -0.37291E-04 11021   0.229E-02    0.282E-02
RMM:   7    -0.712296884281E+03    0.73389E-05   -0.63302E-05  9027   0.120E-02
   5 F= -.71229688E+03 E0= -.71228502E+03  d E =-.845856E-01
 curvature:  -0.65 expect dE=-0.633E-01 dE for cont linesearch -0.144E-04
 trial: gam= 0.63344 g(F)=  0.968E-01 g(S)=  0.000E+00 ort = 0.187E-02 (trialstep = 0.948E+00)
 search vector abs. value=  0.163E+00
 bond charge predicted
       N       E                     dE             d eps       ncg     rms          rms(c)
DAV:   1    -0.712205432899E+03    0.91459E-01   -0.32512E+01 10816   0.798E+00    0.110E+00
RMM:   2    -0.712308851376E+03   -0.10342E+00   -0.10713E+00 13259   0.218E+00    0.598E-01
RMM:   3    -0.712335326423E+03   -0.26475E-01   -0.26872E-01 14955   0.889E-01    0.429E-01
RMM:   4    -0.712338125745E+03   -0.27993E-02   -0.33235E-02 15108   0.298E-01    0.459E-01
RMM:   5    -0.712336917262E+03    0.12085E-02   -0.88270E-03 15157   0.128E-01    0.252E-01
RMM:   6    -0.712336332434E+03    0.58483E-03   -0.52457E-03 12799   0.880E-02    0.855E-02
RMM:   7    -0.712336330423E+03    0.20111E-05   -0.10241E-03 14552   0.444E-02    0.521E-02
RMM:   8    -0.712336320197E+03    0.10226E-04   -0.37205E-04 10417   0.194E-02    0.304E-02
RMM:   9    -0.712336326395E+03   -0.61978E-05   -0.15545E-04  9505   0.136E-02    0.213E-02
RMM:  10    -0.712336328256E+03   -0.18620E-05   -0.60133E-05  7358   0.887E-03
   6 F= -.71233633E+03 E0= -.71232412E+03  d E =-.394440E-01
 trial-energy change:   -0.039444  1 .order   -0.038237   -0.092856    0.016383
 step:   0.8131(harm=  0.8055)  dis= 0.01605  next Energy=  -712.337487 (dE=-0.406E-01)
 bond charge predicted
       N       E                     dE             d eps       ncg     rms          rms(c)
DAV:   1    -0.712334821019E+03    0.15054E-02   -0.65384E-01 10960   0.113E+00    0.156E-01
RMM:   2    -0.712336866796E+03   -0.20458E-02   -0.21089E-02 13242   0.304E-01    0.855E-02
RMM:   3    -0.712337389456E+03   -0.52266E-03   -0.52257E-03 14908   0.124E-01    0.672E-02
RMM:   4    -0.712337437983E+03   -0.48527E-04   -0.63184E-04 13859   0.424E-02    0.653E-02
RMM:   5    -0.712337413110E+03    0.24873E-04   -0.17207E-04 10527   0.207E-02    0.371E-02
RMM:   6    -0.712337400724E+03    0.12386E-04   -0.10144E-04  9772   0.136E-02    0.184E-02
RMM:   7    -0.712337399053E+03    0.16707E-05   -0.23212E-05  6642   0.836E-03
   7 F= -.71233740E+03 E0= -.71232524E+03  d E =-.405148E-01
 curvature:  -0.67 expect dE=-0.254E-01 dE for cont linesearch -0.239E-05
 trial: gam= 0.40740 g(F)=  0.381E-01 g(S)=  0.000E+00 ort = 0.763E-03 (trialstep = 0.921E+00)
 search vector abs. value=  0.658E-01
 bond charge predicted
       N       E                     dE             d eps       ncg     rms          rms(c)
DAV:   1    -0.712308242920E+03    0.29158E-01   -0.12744E+01 10752   0.517E+00    0.634E-01
RMM:   2    -0.712351084032E+03   -0.42841E-01   -0.43127E-01 13237   0.138E+00    0.762E-01
RMM:   3    -0.712358202995E+03   -0.71190E-02   -0.10957E-01 14895   0.584E-01    0.361E-01
RMM:   4    -0.712357951506E+03    0.25149E-03   -0.13533E-02 15066   0.196E-01    0.246E-01
RMM:   5    -0.712357185946E+03    0.76556E-03   -0.35895E-03 14811   0.878E-02    0.764E-02
RMM:   6    -0.712357222135E+03   -0.36189E-04   -0.14794E-03 13317   0.468E-02    0.451E-02
RMM:   7    -0.712357226247E+03   -0.41120E-05   -0.29696E-04 11595   0.237E-02    0.334E-02
RMM:   8    -0.712357223858E+03    0.23896E-05   -0.13049E-04  9155   0.132E-02    0.175E-02
RMM:   9    -0.712357225563E+03   -0.17050E-05   -0.45224E-05  7491   0.903E-03
   8 F= -.71235723E+03 E0= -.71234516E+03  d E =-.198265E-01
 trial-energy change:   -0.019827  1 .order   -0.019587   -0.035380   -0.003794
 step:   1.0260(harm=  1.0313)  dis= 0.00889  next Energy=  -712.357443 (dE=-0.200E-01)
 bond charge predicted
       N       E                     dE             d eps       ncg     rms          rms(c)
DAV:   1    -0.712356914351E+03    0.30951E-03   -0.16766E-01 11880   0.593E-01    0.705E-02
RMM:   2    -0.712357472030E+03   -0.55768E-03   -0.56052E-03 13155   0.157E-01    0.891E-02
RMM:   3    -0.712357564288E+03   -0.92258E-04   -0.14730E-03 14705   0.676E-02    0.392E-02
RMM:   4    -0.712357562652E+03    0.16355E-05   -0.18651E-04 11493   0.234E-02    0.274E-02
RMM:   5    -0.712357553973E+03    0.86795E-05   -0.62584E-05  8615   0.144E-02
   9 F= -.71235755E+03 E0= -.71234550E+03  d E =-.201549E-01
 curvature:  -0.88 expect dE=-0.197E-01 dE for cont linesearch -0.182E-04
 trial: gam= 0.54415 g(F)=  0.223E-01 g(S)=  0.000E+00 ort = 0.117E-02 (trialstep = 0.942E+00)
 search vector abs. value=  0.431E-01
 bond charge predicted
       N       E                     dE             d eps       ncg     rms          rms(c)
DAV:   1    -0.712336734035E+03    0.20829E-01   -0.93200E+00 10656   0.434E+00    0.527E-01
RMM:   2    -0.712364558559E+03   -0.27825E-01   -0.29507E-01 12834   0.110E+00    0.211E-01
RMM:   3    -0.712371726467E+03   -0.71679E-02   -0.73440E-02 15256   0.452E-01    0.224E-01
RMM:   4    -0.712372185366E+03   -0.45890E-03   -0.79599E-03 15154   0.152E-01    0.189E-01
RMM:   5    -0.712371813719E+03    0.37165E-03   -0.16025E-03 15078   0.611E-02    0.823E-02
RMM:   6    -0.712371752803E+03    0.60916E-04   -0.12045E-03 12467   0.417E-02    0.491E-02
RMM:   7    -0.712371759592E+03   -0.67884E-05   -0.21218E-04 10975   0.209E-02    0.334E-02
RMM:   8    -0.712371749262E+03    0.10330E-04   -0.88118E-05  8428   0.116E-02    0.173E-02
RMM:   9    -0.712371749864E+03   -0.60238E-06   -0.46721E-05  7824   0.888E-03
  10 F= -.71237175E+03 E0= -.71235971E+03  d E =-.141959E-01
 trial-energy change:   -0.014196  1 .order   -0.013814   -0.021624   -0.006004
 step:   1.2449(harm=  1.3037)  dis= 0.00873  next Energy=  -712.372729 (dE=-0.152E-01)
 bond charge predicted
       N       E                     dE             d eps       ncg     rms          rms(c)
DAV:   1    -0.712369582361E+03    0.21669E-02   -0.96742E-01 11176   0.140E+00    0.168E-01
RMM:   2    -0.712372444719E+03   -0.28624E-02   -0.30318E-02 12809   0.352E-01    0.702E-02
RMM:   3    -0.712373194612E+03   -0.74989E-03   -0.75571E-03 15179   0.145E-01    0.834E-02
RMM:   4    -0.712373221090E+03   -0.26478E-04   -0.84080E-04 14438   0.493E-02    0.597E-02
RMM:   5    -0.712373184981E+03    0.36109E-04   -0.18696E-04 11270   0.216E-02    0.278E-02
RMM:   6    -0.712373179525E+03    0.54562E-05   -0.14534E-04 10332   0.161E-02    0.203E-02
RMM:   7    -0.712373179996E+03   -0.47124E-06   -0.30580E-05  7127   0.911E-03
  11 F= -.71237318E+03 E0= -.71236114E+03  d E =-.156260E-01
 curvature:  -1.19 expect dE=-0.167E-01 dE for cont linesearch -0.124E-03
 trial: gam= 0.58116 g(F)=  0.140E-01 g(S)=  0.000E+00 ort = 0.212E-02 (trialstep = 0.100E+01)
 search vector abs. value=  0.310E-01
 bond charge predicted
       N       E                     dE             d eps       ncg     rms          rms(c)
DAV:   1    -0.712351986711E+03    0.21193E-01   -0.77385E+00 10528   0.392E+00    0.479E-01
RMM:   2    -0.712375592289E+03   -0.23606E-01   -0.24988E-01 12860   0.100E+00    0.233E-01
RMM:   3    -0.712382233325E+03   -0.66410E-02   -0.62737E-02 15137   0.422E-01    0.350E-01
RMM:   4    -0.712381594332E+03    0.63899E-03   -0.72299E-03 14915   0.146E-01    0.164E-01
RMM:   5    -0.712381182114E+03    0.41222E-03   -0.17353E-03 14762   0.589E-02    0.526E-02
RMM:   6    -0.712381147408E+03    0.34706E-04   -0.75992E-04 12461   0.335E-02    0.394E-02
RMM:   7    -0.712381155235E+03   -0.78271E-05   -0.18290E-04 10301   0.192E-02    0.323E-02
RMM:   8    -0.712381147293E+03    0.79422E-05   -0.78302E-05  8410   0.109E-02
  12 F= -.71238115E+03 E0= -.71236906E+03  d E =-.796730E-02
 trial-energy change:   -0.007967  1 .order   -0.007602   -0.015267    0.000063
 step:   0.9987(harm=  0.9982)  dis= 0.00632  next Energy=  -712.381147 (dE=-0.797E-02)
 bond charge predicted
       N       E                     dE             d eps       ncg     rms          rms(c)
DAV:   1    -0.712381144963E+03    0.10272E-04   -0.93176E-05  9784   0.182E-02    0.131E-02
RMM:   2    -0.712381144910E+03    0.53486E-07   -0.13451E-05  5922   0.790E-03
  13 F= -.71238114E+03 E0= -.71236906E+03  d E =-.796491E-02
 curvature:  -1.00 expect dE=-0.779E-02 dE for cont linesearch -0.308E-04
 trial: gam= 0.61891 g(F)=  0.779E-02 g(S)=  0.000E+00 ort = 0.978E-03 (trialstep = 0.100E+01)
 search vector abs. value=  0.209E-01
 bond charge predicted
       N       E                     dE             d eps       ncg     rms          rms(c)
DAV:   1    -0.712366166048E+03    0.14979E-01   -0.51974E+00 10420   0.321E+00    0.380E-01
RMM:   2    -0.712381648241E+03   -0.15482E-01   -0.16350E-01 12808   0.807E-01    0.165E-01
RMM:   3    -0.712385910236E+03   -0.42620E-02   -0.40385E-02 15279   0.335E-01    0.274E-01
RMM:   4    -0.712385496524E+03    0.41371E-03   -0.45063E-03 15003   0.115E-01    0.119E-01
RMM:   5    -0.712385288423E+03    0.20810E-03   -0.10049E-03 14472   0.460E-02    0.634E-02
RMM:   6    -0.712385238597E+03    0.49827E-04   -0.88877E-04 12361   0.364E-02    0.480E-02
RMM:   7    -0.712385220034E+03    0.18563E-04   -0.13680E-04  9887   0.179E-02    0.285E-02
RMM:   8    -0.712385214792E+03    0.52421E-05   -0.71270E-05  8164   0.100E-02
  14 F= -.71238521E+03 E0= -.71237317E+03  d E =-.406988E-02
 trial-energy change:   -0.004070  1 .order   -0.003906   -0.008407    0.000596
 step:   0.9415(harm=  0.9353)  dis= 0.00577  next Energy=  -712.385233 (dE=-0.409E-02)
 bond charge predicted
       N       E                     dE             d eps       ncg     rms          rms(c)
DAV:   1    -0.712385144131E+03    0.75903E-04   -0.18230E-02 10744   0.190E-01    0.252E-02
RMM:   2    -0.712385198741E+03   -0.54610E-04   -0.57431E-04 12726   0.485E-02    0.135E-02
RMM:   3    -0.712385211721E+03   -0.12980E-04   -0.13508E-04 11792   0.200E-02    0.147E-02
RMM:   4    -0.712385210866E+03    0.85498E-06   -0.17231E-05  6352   0.951E-03
  15 F= -.71238521E+03 E0= -.71237317E+03  d E =-.406596E-02
 curvature:  -1.15 expect dE=-0.391E-02 dE for cont linesearch -0.225E-04
 trial: gam= 0.38924 g(F)=  0.339E-02 g(S)=  0.000E+00 ort = 0.638E-03 (trialstep = 0.990E+00)
 search vector abs. value=  0.705E-02
 bond charge predicted
       N       E                     dE             d eps       ncg     rms          rms(c)
DAV:   1    -0.712380765095E+03    0.44466E-02   -0.16438E+00 10552   0.184E+00    0.223E-01
RMM:   2    -0.712385869428E+03   -0.51043E-02   -0.53363E-02 13048   0.473E-01    0.831E-02
RMM:   3    -0.712387073430E+03   -0.12040E-02   -0.12482E-02 15227   0.189E-01    0.709E-02
RMM:   4    -0.712387155955E+03   -0.82525E-04   -0.13058E-03 14988   0.616E-02    0.588E-02
RMM:   5    -0.712387146555E+03    0.93997E-05   -0.33284E-04 12826   0.277E-02    0.450E-02
RMM:   6    -0.712387136665E+03    0.98903E-05   -0.15864E-04 10195   0.178E-02    0.226E-02
RMM:   7    -0.712387134293E+03    0.23720E-05   -0.44470E-05  7785   0.102E-02
  16 F= -.71238713E+03 E0= -.71237508E+03  d E =-.192343E-02
 trial-energy change:   -0.001923  1 .order   -0.001886   -0.003602   -0.000170
 step:   1.0385(harm=  1.0385)  dis= 0.00403  next Energy=  -712.387101 (dE=-0.189E-02)
 bond charge predicted
       N       E                     dE             d eps       ncg     rms          rms(c)
DAV:   1    -0.712387127599E+03    0.90659E-05   -0.42392E-03 11584   0.943E-02    0.125E-02
RMM:   2    -0.712387144925E+03   -0.17326E-04   -0.17840E-04 11960   0.263E-02    0.807E-03
RMM:   3    -0.712387148313E+03   -0.33886E-05   -0.44148E-05  7594   0.120E-02
  17 F= -.71238715E+03 E0= -.71237509E+03  d E =-.193745E-02
 curvature:  -1.01 expect dE=-0.178E-02 dE for cont linesearch -0.231E-06
 trial: gam= 0.52648 g(F)=  0.177E-02 g(S)=  0.000E+00 ort =-0.402E-04 (trialstep = 0.999E+00)
 search vector abs. value=  0.368E-02
 bond charge predicted
       N       E                     dE             d eps       ncg     rms          rms(c)
DAV:   1    -0.712384640099E+03    0.25048E-02   -0.86063E-01 10520   0.136E+00    0.154E-01
RMM:   2    -0.712387457198E+03   -0.28171E-02   -0.29368E-02 13281   0.356E-01    0.117E-01
RMM:   3    -0.712388155854E+03   -0.69866E-03   -0.70219E-03 15177   0.146E-01    0.119E-01
RMM:   4    -0.712388068130E+03    0.87724E-04   -0.85803E-04 14601   0.508E-02    0.561E-02
RMM:   5    -0.712388018734E+03    0.49396E-04   -0.22328E-04 11744   0.223E-02    0.179E-02
RMM:   6    -0.712388017027E+03    0.17077E-05   -0.10032E-04  9750   0.142E-02    0.120E-02
RMM:   7    -0.712388016971E+03    0.55246E-07   -0.27958E-05  7027   0.907E-03
  18 F= -.71238802E+03 E0= -.71237598E+03  d E =-.868658E-03
 trial-energy change:   -0.000869  1 .order   -0.000756   -0.001747    0.000235
 step:   0.9090(harm=  0.8809)  dis= 0.00271  next Energy=  -712.388028 (dE=-0.879E-03)
 bond charge predicted
       N       E                     dE             d eps       ncg     rms          rms(c)
DAV:   1    -0.712387994408E+03    0.22619E-04   -0.68486E-03 10920   0.122E-01    0.139E-02
RMM:   2    -0.712388017397E+03   -0.22989E-04   -0.24218E-04 12903   0.332E-02    0.989E-03
RMM:   3    -0.712388022090E+03   -0.46931E-05   -0.57400E-05  8480   0.142E-02
  19 F= -.71238802E+03 E0= -.71237598E+03  d E =-.873777E-03
 curvature:  -0.88 expect dE=-0.836E-03 dE for cont linesearch -0.133E-04
 ZBRENT: interpolating
 opt :   0.9543  next Energy=  -712.388022 (dE=-0.874E-03)
 bond charge predicted
       N       E                     dE             d eps       ncg     rms          rms(c)
DAV:   1    -0.712388013342E+03    0.40550E-05   -0.17073E-03 11538   0.616E-02    0.111E-02
RMM:   2    -0.712388021353E+03   -0.80109E-05   -0.75953E-05  9059   0.185E-02
  20 F= -.71238802E+03 E0= -.71237598E+03  d E =-.873040E-03
 curvature:  -0.35 expect dE=-0.380E-03 dE for cont linesearch -0.161E-04
 ZBRENT: interpolating
 opt :   0.9255  next Energy=  -712.388024 (dE=-0.876E-03)
 bond charge predicted
       N       E                     dE             d eps       ncg     rms          rms(c)
DAV:   1    -0.712388019227E+03   -0.58846E-05   -0.65018E-04 10592   0.378E-02    0.661E-03
RMM:   2    -0.712388022648E+03   -0.34209E-05   -0.26237E-05  6240   0.118E-02
  21 F= -.71238802E+03 E0= -.71237598E+03  d E =-.874334E-03
 curvature:  -0.04 expect dE=-0.416E-04 dE for cont linesearch -0.661E-06
 ZBRENT: bisectioning
 opt :   0.9399  next Energy=  -712.388026 (dE=-0.878E-03)
 bond charge predicted
       N       E                     dE             d eps       ncg     rms          rms(c)
DAV:   1    -0.712388020607E+03   -0.13801E-05   -0.15816E-04 10596   0.202E-02    0.341E-03
RMM:   2    -0.712388021795E+03   -0.11877E-05   -0.10853E-05  5612   0.803E-03
  22 F= -.71238802E+03 E0= -.71237598E+03  d E =-.873481E-03
 curvature:  -0.22 expect dE=-0.223E-03 dE for cont linesearch -0.214E-05
 trial: gam= 0.66865 g(F)=  0.100E-02 g(S)=  0.000E+00 ort =-0.188E-03 (trialstep = 0.987E+00)
 search vector abs. value=  0.239E-02
 bond charge predicted
       N       E                     dE             d eps       ncg     rms          rms(c)
DAV:   1    -0.712386421131E+03    0.15995E-02   -0.54274E-01 10856   0.110E+00    0.116E-01
RMM:   2    -0.712388125146E+03   -0.17040E-02   -0.17910E-02 13112   0.282E-01    0.411E-02
RMM:   3    -0.712388519120E+03   -0.39397E-03   -0.41693E-03 15246   0.112E-01    0.370E-02
RMM:   4    -0.712388550000E+03   -0.30880E-04   -0.47968E-04 14644   0.380E-02    0.326E-02
RMM:   5    -0.712388546040E+03    0.39600E-05   -0.11042E-04 10037   0.178E-02    0.253E-02
RMM:   6    -0.712388540089E+03    0.59510E-05   -0.80230E-05  9441   0.127E-02
  23 F= -.71238854E+03 E0= -.71237650E+03  d E =-.518294E-03
 trial-energy change:   -0.000518  1 .order   -0.000455   -0.000863   -0.000047
 step:   1.0259(harm=  1.0444)  dis= 0.00226  next Energy=  -712.388541 (dE=-0.519E-03)
 bond charge predicted
       N       E                     dE             d eps       ncg     rms          rms(c)
DAV:   1    -0.712388534869E+03    0.11171E-04   -0.86334E-04 11102   0.447E-02    0.111E-02
RMM:   2    -0.712388538573E+03   -0.37043E-05   -0.48245E-05  8558   0.137E-02
  24 F= -.71238854E+03 E0= -.71237650E+03  d E =-.516778E-03
 curvature:  -1.28 expect dE=-0.795E-03 dE for cont linesearch -0.194E-04
 ZBRENT: interpolating
 opt :   0.9952  next Energy=  -712.388540 (dE=-0.518E-03)
 bond charge predicted
       N       E                     dE             d eps       ncg     rms          rms(c)
DAV:   1    -0.712388535381E+03   -0.51234E-06   -0.47238E-04 11026   0.343E-02    0.418E-03
RMM:   2    -0.712388537689E+03   -0.23078E-05   -0.25747E-05  6192   0.131E-02
  25 F= -.71238854E+03 E0= -.71237650E+03  d E =-.515894E-03
 curvature:  -0.01 expect dE=-0.728E-05 dE for cont linesearch -0.231E-06
 ZBRENT: interpolating
 opt :   1.0114  next Energy=  -712.388540 (dE=-0.518E-03)
 bond charge predicted
       N       E                     dE             d eps       ncg     rms          rms(c)
DAV:   1    -0.712388537650E+03   -0.22685E-05   -0.12420E-04 10756   0.179E-02    0.383E-03
RMM:   2    -0.712388539007E+03   -0.13576E-05   -0.11139E-05  5559   0.770E-03
  26 F= -.71238854E+03 E0= -.71237650E+03  d E =-.517213E-03
 curvature:  -0.07 expect dE=-0.442E-04 dE for cont linesearch -0.281E-06
 trial: gam= 0.53460 g(F)=  0.612E-03 g(S)=  0.000E+00 ort =-0.966E-04 (trialstep = 0.992E+00)
 search vector abs. value=  0.119E-02
 bond charge predicted
       N       E                     dE             d eps       ncg     rms          rms(c)
DAV:   1    -0.712387851899E+03    0.68575E-03   -0.27221E-01 10868   0.771E-01    0.835E-02
RMM:   2    -0.712388675094E+03   -0.82320E-03   -0.86745E-03 12903   0.198E-01    0.339E-02
RMM:   3    -0.712388893673E+03   -0.21858E-03   -0.22205E-03 15106   0.816E-02    0.456E-02
RMM:   4    -0.712388900515E+03   -0.68421E-05   -0.27213E-04 12808   0.287E-02    0.294E-02
RMM:   5    -0.712388891029E+03    0.94857E-05   -0.70775E-05  9352   0.161E-02
  27 F= -.71238889E+03 E0= -.71237684E+03  d E =-.352022E-03
 trial-energy change:   -0.000352  1 .order   -0.000300   -0.000556   -0.000045
 step:   1.0455(harm=  1.0796)  dis= 0.00148  next Energy=  -712.388892 (dE=-0.353E-03)
 bond charge predicted
       N       E                     dE             d eps       ncg     rms          rms(c)
DAV:   1    -0.712388890022E+03    0.10493E-04   -0.68921E-04 14010   0.512E-02    0.121E-02
RMM:   2    -0.712388893166E+03   -0.31438E-05   -0.44277E-05  9018   0.134E-02
  28 F= -.71238889E+03 E0= -.71237684E+03  d E =-.354159E-03
 curvature:  -0.97 expect dE=-0.435E-03 dE for cont linesearch -0.177E-05
 trial: gam= 0.72869 g(F)=  0.446E-03 g(S)=  0.000E+00 ort =-0.465E-04 (trialstep = 0.100E+01)
 search vector abs. value=  0.101E-02
 bond charge predicted
       N       E                     dE             d eps       ncg     rms          rms(c)
DAV:   1    -0.712388324438E+03    0.56558E-03   -0.22610E-01 10968   0.716E-01    0.776E-02
RMM:   2    -0.712389047167E+03   -0.72273E-03   -0.72693E-03 12953   0.190E-01    0.809E-02
RMM:   3    -0.712389214247E+03   -0.16708E-03   -0.20918E-03 14697   0.830E-02    0.489E-02
RMM:   4    -0.712389210941E+03    0.33056E-05   -0.26162E-04 12731   0.291E-02    0.235E-02
RMM:   5    -0.712389204424E+03    0.65172E-05   -0.73232E-05  9418   0.159E-02
  29 F= -.71238920E+03 E0= -.71237717E+03  d E =-.311258E-03
 trial-energy change:   -0.000311  1 .order   -0.000251   -0.000414   -0.000088
 step:   1.1230(harm=  1.2730)  dis= 0.00156  next Energy=  -712.389210 (dE=-0.317E-03)
 bond charge predicted
       N       E                     dE             d eps       ncg     rms          rms(c)
DAV:   1    -0.712389204650E+03    0.62909E-05   -0.31632E-03 12042   0.868E-02    0.124E-02
RMM:   2    -0.712389216831E+03   -0.12180E-04   -0.13134E-04 12472   0.268E-02    0.653E-03
RMM:   3    -0.712389219888E+03   -0.30571E-05   -0.36157E-05  7245   0.116E-02
  30 F= -.71238922E+03 E0= -.71237718E+03  d E =-.326722E-03
 curvature:  -1.08 expect dE=-0.277E-03 dE for cont linesearch -0.162E-07
 trial: gam= 0.60571 g(F)=  0.257E-03 g(S)=  0.000E+00 ort = 0.389E-05 (trialstep = 0.103E+01)
 search vector abs. value=  0.632E-03
 bond charge predicted
       N       E                     dE             d eps       ncg     rms          rms(c)
DAV:   1    -0.712388851430E+03    0.36540E-03   -0.14863E-01 10952   0.581E-01    0.603E-02
RMM:   2    -0.712389312599E+03   -0.46117E-03   -0.47822E-03 12973   0.154E-01    0.378E-02
RMM:   3    -0.712389453166E+03   -0.14057E-03   -0.13344E-03 14848   0.654E-02    0.437E-02
RMM:   4    -0.712389450758E+03    0.24080E-05   -0.18245E-04 11795   0.242E-02    0.235E-02
RMM:   5    -0.712389446628E+03    0.41305E-05   -0.43413E-05  7853   0.133E-02
  31 F= -.71238945E+03 E0= -.71237740E+03  d E =-.226740E-03
 trial-energy change:   -0.000227  1 .order   -0.000171   -0.000266   -0.000076
 step:   1.1644(harm=  1.4389)  dis= 0.00115  next Energy=  -712.389452 (dE=-0.232E-03)
 bond charge predicted
       N       E                     dE             d eps       ncg     rms          rms(c)
DAV:   1    -0.712389450327E+03    0.43117E-06   -0.24882E-03 12210   0.808E-02    0.134E-02
RMM:   2    -0.712389460331E+03   -0.10004E-04   -0.11112E-04 12011   0.251E-02    0.707E-03
RMM:   3    -0.712389462665E+03   -0.23331E-05   -0.27734E-05  6543   0.106E-02
  32 F= -.71238946E+03 E0= -.71237742E+03  d E =-.242777E-03
 curvature:  -0.98 expect dE=-0.182E-03 dE for cont linesearch -0.260E-06
 trial: gam= 0.84261 g(F)=  0.186E-03 g(S)=  0.000E+00 ort = 0.130E-04 (trialstep = 0.102E+01)
 search vector abs. value=  0.657E-03
 bond charge predicted
       N       E                     dE             d eps       ncg     rms          rms(c)
DAV:   1    -0.712389069687E+03    0.39064E-03   -0.15327E-01 10992   0.589E-01    0.597E-02
RMM:   2    -0.712389527849E+03   -0.45816E-03   -0.47905E-03 12826   0.152E-01    0.214E-02
RMM:   3    -0.712389652263E+03   -0.12441E-03   -0.13025E-03 15077   0.630E-02    0.189E-02
RMM:   4    -0.712389664090E+03   -0.11827E-04   -0.15853E-04 11744   0.218E-02    0.160E-02
RMM:   5    -0.712389660706E+03    0.33835E-05   -0.41620E-05  8051   0.132E-02
  33 F= -.71238966E+03 E0= -.71237762E+03  d E =-.198042E-03
 trial-energy change:   -0.000198  1 .order   -0.000151   -0.000200   -0.000101
 step:   1.2458(harm=  2.0630)  dis= 0.00130  next Energy=  -712.389673 (dE=-0.210E-03)
 bond charge predicted
       N       E                     dE             d eps       ncg     rms          rms(c)
DAV:   1    -0.712389652154E+03    0.11936E-04   -0.77358E-03 11792   0.133E-01    0.191E-02
RMM:   2    -0.712389678142E+03   -0.25989E-04   -0.26763E-04 12603   0.370E-02    0.155E-02
RMM:   3    -0.712389684856E+03   -0.67139E-05   -0.84123E-05 10384   0.166E-02
  34 F= -.71238968E+03 E0= -.71237764E+03  d E =-.222192E-03
 curvature:  -1.35 expect dE=-0.204E-03 dE for cont linesearch -0.774E-06
 trial: gam= 0.99243 g(F)=  0.152E-03 g(S)=  0.000E+00 ort =-0.194E-04 (trialstep = 0.917E+00)
 search vector abs. value=  0.760E-03
 bond charge predicted
       N       E                     dE             d eps       ncg     rms          rms(c)
DAV:   1    -0.712389324928E+03    0.35321E-03   -0.14315E-01 11112   0.572E-01    0.562E-02
RMM:   2    -0.712389735069E+03   -0.41014E-03   -0.42793E-03 12846   0.142E-01    0.219E-02
RMM:   3    -0.712389851184E+03   -0.11612E-03   -0.11612E-03 14873   0.604E-02    0.291E-02
RMM:   4    -0.712389859215E+03   -0.80306E-05   -0.15345E-04 11739   0.222E-02    0.192E-02
RMM:   5    -0.712389857224E+03    0.19909E-05   -0.34886E-05  7568   0.118E-02
  35 F= -.71238986E+03 E0= -.71237781E+03  d E =-.172367E-03
 trial-energy change:   -0.000172  1 .order   -0.000103   -0.000121   -0.000085
 step:   3.0491(harm=  3.0491)  dis= 0.00308  next Energy=  -712.389887 (dE=-0.202E-03)
 bond charge predicted
       N       E                     dE             d eps       ncg     rms          rms(c)
DAV:   1    -0.712387093814E+03    0.27654E-02   -0.76571E-01 11160   0.132E+00    0.133E-01
RMM:   2    -0.712389248896E+03   -0.21551E-02   -0.22466E-02 12781   0.331E-01    0.467E-02
RMM:   3    -0.712389884092E+03   -0.63520E-03   -0.64031E-03 15136   0.140E-01    0.489E-02
RMM:   4    -0.712389950915E+03   -0.66823E-04   -0.77655E-04 14957   0.478E-02    0.423E-02
RMM:   5    -0.712389941031E+03    0.98841E-05   -0.14123E-04 11233   0.201E-02    0.279E-02
RMM:   6    -0.712389935488E+03    0.55433E-05   -0.13362E-04 10833   0.159E-02    0.218E-02
RMM:   7    -0.712389934243E+03    0.12448E-05   -0.23350E-05  6770   0.859E-03
  36 F= -.71238993E+03 E0= -.71237789E+03  d E =-.249387E-03
 curvature:  -8.76 expect dE=-0.634E-02 dE for cont linesearch -0.121E-03
 ZBRENT: interpolating
 opt :   1.9284  next Energy=  -712.389904 (dE=-0.219E-03)
 bond charge predicted
       N       E                     dE             d eps       ncg     rms          rms(c)
DAV:   1    -0.712389169392E+03    0.76610E-03   -0.21132E-01 11064   0.695E-01    0.642E-02
RMM:   2    -0.712389768318E+03   -0.59893E-03   -0.62437E-03 12820   0.174E-01    0.242E-02
RMM:   3    -0.712389930291E+03   -0.16197E-03   -0.16868E-03 15054   0.719E-02    0.247E-02
RMM:   4    -0.712389948118E+03   -0.17827E-04   -0.20645E-04 12448   0.244E-02    0.224E-02
RMM:   5    -0.712389943008E+03    0.51104E-05   -0.44698E-05  8321   0.142E-02
  37 F= -.71238994E+03 E0= -.71237790E+03  d E =-.258151E-03
 curvature:  -3.38 expect dE=-0.916E-03 dE for cont linesearch -0.337E-04
 ZBRENT: bisectioning
 opt :   2.4888  next Energy=  -712.389991 (dE=-0.306E-03)
 bond charge predicted
       N       E                     dE             d eps       ncg     rms          rms(c)
DAV:   1    -0.712389751981E+03    0.19614E-03   -0.54076E-02 11040   0.353E-01    0.319E-02
RMM:   2    -0.712389922374E+03   -0.17039E-03   -0.17184E-03 12736   0.893E-02    0.345E-02
RMM:   3    -0.712389957564E+03   -0.35190E-04   -0.45621E-04 14228   0.389E-02    0.239E-02
RMM:   4    -0.712389955412E+03    0.21520E-05   -0.51396E-05  8093   0.142E-02
  38 F= -.71238996E+03 E0= -.71237791E+03  d E =-.270556E-03
 curvature:  -4.81 expect dE=-0.204E-02 dE for cont linesearch -0.431E-04
 ZBRENT: interpolating
 opt :   2.2161  next Energy=  -712.389967 (dE=-0.282E-03)
 bond charge predicted
       N       E                     dE             d eps       ncg     rms          rms(c)
DAV:   1    -0.712389900067E+03    0.57497E-04   -0.12735E-02 11304   0.172E-01    0.182E-02
RMM:   2    -0.712389943875E+03   -0.43808E-04   -0.45021E-04 12963   0.442E-02    0.876E-03
RMM:   3    -0.712389952610E+03   -0.87344E-05   -0.98251E-05 11792   0.180E-02
  39 F= -.71238995E+03 E0= -.71237791E+03  d E =-.267753E-03
 curvature:  -1.26 expect dE=-0.442E-03 dE for cont linesearch -0.300E-04
 ZBRENT: interpolating
 opt :   2.3852  next Energy=  -712.389960 (dE=-0.275E-03)
 bond charge predicted
       N       E                     dE             d eps       ncg     rms          rms(c)
DAV:   1    -0.712389934921E+03    0.89538E-05   -0.46891E-03 11418   0.104E-01    0.141E-02
RMM:   2    -0.712389951020E+03   -0.16098E-04   -0.16880E-04 12033   0.273E-02    0.919E-03
RMM:   3    -0.712389954191E+03   -0.31715E-05   -0.39404E-05  7724   0.122E-02
  40 F= -.71238995E+03 E0= -.71237791E+03  d E =-.269335E-03
 curvature:  -0.18 expect dE=-0.743E-04 dE for cont linesearch -0.261E-05
 ZBRENT: bisectioning
 opt :   2.3007  next Energy=  -712.389964 (dE=-0.279E-03)
 bond charge predicted
       N       E                     dE             d eps       ncg     rms          rms(c)
DAV:   1    -0.712389948490E+03    0.25295E-05   -0.11380E-03 11016   0.520E-02    0.868E-03
RMM:   2    -0.712389953631E+03   -0.51405E-05   -0.49746E-05  8190   0.152E-02
  41 F= -.71238995E+03 E0= -.71237791E+03  d E =-.268774E-03
 curvature:  -0.66 expect dE=-0.262E-03 dE for cont linesearch -0.177E-04
 ZBRENT: interpolating
 opt :   2.3493  next Energy=  -712.389956 (dE=-0.271E-03)
 bond charge predicted
       N       E                     dE             d eps       ncg     rms          rms(c)
DAV:   1    -0.712389952623E+03   -0.41324E-05   -0.36013E-04 10674   0.292E-02    0.588E-03
RMM:   2    -0.712389955149E+03   -0.25260E-05   -0.16627E-05  5786   0.951E-03
  42 F= -.71238996E+03 E0= -.71237791E+03  d E =-.270292E-03
 curvature:  -0.07 expect dE=-0.282E-04 dE for cont linesearch -0.610E-06
 ZBRENT: bisectioning
 opt :   2.3250  next Energy=  -712.389957 (dE=-0.272E-03)
 bond charge predicted
       N       E                     dE             d eps       ncg     rms          rms(c)
DAV:   1    -0.712389953142E+03   -0.51947E-06   -0.87982E-05 10672   0.161E-02    0.279E-03
RMM:   2    -0.712389953824E+03   -0.68240E-06   -0.67849E-06  5257   0.659E-03
  43 F= -.71238995E+03 E0= -.71237791E+03  d E =-.268968E-03
 curvature:  -0.20 expect dE=-0.774E-04 dE for cont linesearch -0.135E-05
 ZBRENT: interpolating
 opt :   2.3363  next Energy=  -712.389954 (dE=-0.269E-03)
 bond charge predicted
       N       E                     dE             d eps       ncg     rms          rms(c)
DAV:   1    -0.712389953597E+03   -0.45541E-06   -0.14568E-05  6176   0.726E-03    0.192E-03
RMM:   2    -0.712389953976E+03   -0.37861E-06   -0.31780E-06  5139   0.462E-03
  44 F= -.71238995E+03 E0= -.71237791E+03  d E =-.269120E-03
 curvature:  -0.06 expect dE=-0.236E-04 dE for cont linesearch -0.480E-06
 ZBRENT: interpolating
 opt :   2.3304  next Energy=  -712.389954 (dE=-0.269E-03)
 bond charge predicted
       N       E                     dE             d eps       ncg     rms          rms(c)
DAV:   1    -0.712389953852E+03   -0.25459E-06   -0.22803E-06  5400   0.331E-03    0.141E-03
RMM:   2    -0.712389953912E+03   -0.59605E-07   -0.72583E-07  4715   0.201E-03
  45 F= -.71238995E+03 E0= -.71237791E+03  d E =-.269055E-03
 curvature:  -0.02 expect dE=-0.916E-05 dE for cont linesearch -0.107E-06
 ZBRENT: bisectioning
 opt :   2.3334  next Energy=  -712.389954 (dE=-0.269E-03)
 bond charge predicted
       N       E                     dE             d eps       ncg     rms          rms(c)
DAV:   1    -0.712389953968E+03   -0.11628E-06   -0.36903E-07  5320   0.135E-03    0.149E-03
RMM:   2    -0.712389953975E+03   -0.66357E-08   -0.57216E-08  1722   0.828E-04
  46 F= -.71238995E+03 E0= -.71237791E+03  d E =-.269119E-03
 curvature:  -0.04 expect dE=-0.136E-04 dE for cont linesearch -0.197E-07
 trial: gam= 3.04388 g(F)=  0.373E-03 g(S)=  0.000E+00 ort =-0.202E-04 (trialstep = 0.125E+00)
 search vector abs. value=  0.729E-02
 bond charge predicted
       N       E                     dE             d eps       ncg     rms          rms(c)
DAV:   1    -0.712389906598E+03    0.47370E-04   -0.25614E-02 11072   0.241E-01    0.240E-02
RMM:   2    -0.712389976919E+03   -0.70321E-04   -0.72986E-04 12412   0.590E-02    0.843E-03
RMM:   3    -0.712389996227E+03   -0.19308E-04   -0.20863E-04 12831   0.255E-02    0.731E-03
RMM:   4    -0.712389998174E+03   -0.19466E-05   -0.27433E-05  6962   0.119E-02
  47 F= -.71239000E+03 E0= -.71237795E+03  d E =-.441988E-04
 trial-energy change:   -0.000044  1 .order   -0.000026   -0.000039   -0.000013
 step:   0.1856(harm=  0.1856)  dis= 0.00062  next Energy=  -712.389983 (dE=-0.289E-04)
 bond charge predicted
       N       E                     dE             d eps       ncg     rms          rms(c)
DAV:   1    -0.712389998218E+03   -0.19910E-05   -0.60397E-03 11672   0.117E-01    0.116E-02
RMM:   2    -0.712390015884E+03   -0.17666E-04   -0.18361E-04 11964   0.306E-02    0.941E-03
RMM:   3    -0.712390020359E+03   -0.44752E-05   -0.56042E-05  9262   0.139E-02
  48 F= -.71239002E+03 E0= -.71237797E+03  d E =-.663843E-04
 curvature:  -2.17 expect dE=-0.766E-03 dE for cont linesearch -0.945E-06
 trial: gam=-0.00279 g(F)=  0.353E-03 g(S)=  0.000E+00 ort = 0.563E-04 (trialstep = 0.137E+00)
 search vector abs. value=  0.352E-03
 bond charge predicted
       N       E                     dE             d eps       ncg     rms          rms(c)
DAV:   1    -0.712390054755E+03   -0.38871E-04   -0.14895E-03 10960   0.595E-02    0.891E-03
RMM:   2    -0.712390062455E+03   -0.77005E-05   -0.83511E-05 11379   0.183E-02
  49 F= -.71239006E+03 E0= -.71237802E+03  d E =-.420962E-04
 trial-energy change:   -0.000042  1 .order   -0.000037   -0.000048   -0.000025
 step:   0.2846(harm=  0.2846)  dis= 0.00024  next Energy=  -712.390071 (dE=-0.502E-04)
 bond charge predicted
       N       E                     dE             d eps       ncg     rms          rms(c)
DAV:   1    -0.712390086170E+03   -0.31415E-04   -0.18267E-03 11480   0.667E-02    0.883E-03
RMM:   2    -0.712390097222E+03   -0.11052E-04   -0.10813E-04 12649   0.230E-02    0.158E-02
RMM:   3    -0.712390095705E+03    0.15164E-05   -0.24103E-05  6138   0.106E-02
  50 F= -.71239010E+03 E0= -.71237805E+03  d E =-.753462E-04
 curvature:  -0.14 expect dE=-0.111E-04 dE for cont linesearch -0.749E-05
 ZBRENT: increasing intervall
 opt :   0.5795  next Energy=  -712.390122 (dE=-0.102E-03)
 bond charge predicted
       N       E                     dE             d eps       ncg     rms          rms(c)
DAV:   1    -0.712390088185E+03    0.90373E-05   -0.69282E-03 10824   0.128E-01    0.136E-02
RMM:   2    -0.712390119066E+03   -0.30881E-04   -0.33834E-04 13676   0.417E-02    0.130E-02
RMM:   3    -0.712390124697E+03   -0.56310E-05   -0.86629E-05 10122   0.163E-02
  51 F= -.71239012E+03 E0= -.71237808E+03  d E =-.104338E-03
 curvature:  -0.50 expect dE=-0.372E-04 dE for cont linesearch -0.456E-05
 ZBRENT: bracketing found
 ZBRENT: interpolating
 opt :   0.4930  next Energy=  -712.390127 (dE=-0.107E-03)
 bond charge predicted
       N       E                     dE             d eps       ncg     rms          rms(c)
DAV:   1    -0.712390117385E+03    0.16808E-05   -0.56791E-04 13648   0.430E-02    0.923E-03
RMM:   2    -0.712390120321E+03   -0.29356E-05   -0.36033E-05  7604   0.122E-02
  52 F= -.71239012E+03 E0= -.71237808E+03  d E =-.999615E-04
 curvature:  -0.27 expect dE=-0.247E-04 dE for cont linesearch -0.107E-04
 ZBRENT: interpolating
 opt :   0.5515  next Energy=  -712.390125 (dE=-0.105E-03)
 bond charge predicted
       N       E                     dE             d eps       ncg     rms          rms(c)
DAV:   1    -0.712390120895E+03   -0.35098E-05   -0.24479E-04 11496   0.255E-02    0.678E-03
RMM:   2    -0.712390124159E+03   -0.32641E-05   -0.19227E-05  5946   0.989E-03
  53 F= -.71239012E+03 E0= -.71237808E+03  d E =-.103800E-03
 curvature:  -0.02 expect dE=-0.118E-05 dE for cont linesearch -0.379E-07
 ZBRENT: interpolating
 opt :   0.5321  next Energy=  -712.390124 (dE=-0.104E-03)
 bond charge predicted
       N       E                     dE             d eps       ncg     rms          rms(c)
DAV:   1    -0.712390120731E+03    0.16440E-06   -0.31524E-05  7408   0.123E-02    0.247E-03
RMM:   2    -0.712390121280E+03   -0.54941E-06   -0.63942E-06  5276   0.622E-03
  54 F= -.71239012E+03 E0= -.71237808E+03  d E =-.100921E-03
 curvature:  -0.16 expect dE=-0.134E-04 dE for cont linesearch -0.463E-05
 ZBRENT: interpolating
 opt :   0.5476  next Energy=  -712.390124 (dE=-0.104E-03)
 bond charge predicted
       N       E                     dE             d eps       ncg     rms          rms(c)
DAV:   1    -0.712390121390E+03   -0.65943E-06   -0.76682E-06  5720   0.606E-03    0.184E-03
RMM:   2    -0.712390121644E+03   -0.25385E-06   -0.28077E-06  5152   0.414E-03
  55 F= -.71239012E+03 E0= -.71237808E+03  d E =-.101285E-03
 curvature:  -0.00 expect dE=-0.109E-06 dE for cont linesearch -0.108E-07
 ZBRENT: bisectioning
 opt :   0.5399  next Energy=  -712.390122 (dE=-0.102E-03)
 bond charge predicted
       N       E                     dE             d eps       ncg     rms          rms(c)
DAV:   1    -0.712390121541E+03   -0.15103E-06   -0.14233E-06  5424   0.309E-03    0.128E-03
RMM:   2    -0.712390121583E+03   -0.42084E-07   -0.60662E-07  4423   0.173E-03
  56 F= -.71239012E+03 E0= -.71237808E+03  d E =-.101224E-03
 curvature:  -0.08 expect dE=-0.544E-05 dE for cont linesearch -0.536E-06
 ZBRENT: interpolating
 opt :   0.5437  next Energy=  -712.390122 (dE=-0.101E-03)
 bond charge predicted
       N       E                     dE             d eps       ncg     rms          rms(c)
DAV:   1    -0.712390121657E+03   -0.11594E-06   -0.33666E-07  5368   0.169E-03    0.806E-04
RMM:   2    -0.712390121662E+03   -0.49840E-08   -0.11058E-07  2306   0.944E-04
  57 F= -.71239012E+03 E0= -.71237808E+03  d E =-.101303E-03
 curvature:  -0.01 expect dE=-0.837E-06 dE for cont linesearch -0.318E-09
 trial: gam= 0.17261 g(F)=  0.589E-04 g(S)=  0.000E+00 ort =-0.281E-05 (trialstep = 0.219E+00)
 search vector abs. value=  0.684E-04
 bond charge predicted
       N       E                     dE             d eps       ncg     rms          rms(c)
DAV:   1    -0.712390130897E+03   -0.92403E-05   -0.75311E-04 10536   0.410E-02    0.433E-03
RMM:   2    -0.712390133397E+03   -0.24997E-05   -0.26098E-05  6465   0.112E-02
  58 F= -.71239013E+03 E0= -.71237809E+03  d E =-.117351E-04
 trial-energy change:   -0.000012  1 .order   -0.000010   -0.000013   -0.000007
 step:   0.4612(harm=  0.4612)  dis= 0.00018  next Energy=  -712.390135 (dE=-0.135E-04)
 reached required accuracy - stopping structural energy minimisation
Warning: ieee_invalid is signaling
Warning: ieee_divide_by_zero is signaling
Warning: ieee_underflow is signaling
Warning: ieee_inexact is signaling
FORTRAN STOP
Warning: ieee_invalid is signaling
Warning: ieee_divide_by_zero is signaling
Warning: ieee_underflow is signaling
Warning: ieee_inexact is signaling
FORTRAN STOP
Warning: ieee_invalid is signaling
Warning: ieee_divide_by_zero is signaling
Warning: ieee_underflow is signaling
Warning: ieee_inexact is signaling
FORTRAN STOP
Warning: ieee_invalid is signaling
Warning: ieee_divide_by_zero is signaling
Warning: ieee_underflow is signaling
Warning: ieee_inexact is signaling
FORTRAN STOP
