 running    4 mpi-ranks, on    1 nodes
 distrk:  each k-point on    1 cores,    4 groups
 distr:  one band on    1 cores,    1 groups
 OpenACC runtime initialized ...    4 GPUs detected
 vasp.6.4.2 20Jul23 (build Nov 12 2023 22:16:35) complex                         
 POSCAR found type information on POSCAR GaO N Fe
 POSCAR found :  4 types and     120 ions
 scaLAPACK will be used selectively (only on CPU)
 LDA part: xc-table for Pade appr. of Perdew
 POSCAR, INCAR and KPOINTS ok, starting setup
 FFT: planning ... GRIDC
 FFT: planning ... GRID_SOFT
 FFT: planning ... GRID
 WAVECAR not read
 entering main loop
       N       E                     dE             d eps       ncg     rms          rms(c)
DAV:   1     0.218422647988E+05    0.21842E+05   -0.32061E+05 10080   0.281E+03
DAV:   2     0.486122153874E+04   -0.16981E+05   -0.16007E+05 10080   0.817E+02
DAV:   3    -0.136940971827E+03   -0.49982E+04   -0.46911E+04 12768   0.321E+02
DAV:   4    -0.785112279236E+03   -0.64817E+03   -0.63226E+03 12440   0.123E+02
DAV:   5    -0.832616919923E+03   -0.47505E+02   -0.47002E+02 14624   0.358E+01BRMIX: very serious problems
 the old and the new charge density differ
BRMIX: very serious problems
 the old and the new charge density differ
 old charge density:  1050.00000 new 1050.99974
BRMIX: very serious problems
 the old and the new charge density differ
 old charge density:  1050.00000 new 1050.99974
 old charge density:  1050.00000 new 1050.99974
BRMIX: very serious problems
 the old and the new charge density differ
 old charge density:  1050.00000 new 1050.99974
    0.758E+01
RMM:   6    -0.850406064262E+03   -0.17789E+02   -0.84469E+02 13691   0.336E+01    0.230E+02
RMM:   7    -0.809034895024E+03    0.41371E+02   -0.88214E+01 15455   0.117E+01    0.147E+02
RMM:   8    -0.717554503690E+03    0.91480E+02   -0.49836E+01 12931   0.649E+00    0.436E+01
RMM:   9    -0.717740622978E+03   -0.18612E+00   -0.71890E+00 12843   0.364E+00    0.243E+01
RMM:  10    -0.714349945898E+03    0.33907E+01   -0.84139E+00 12888   0.338E+00    0.195E+01
RMM:  11    -0.713775564738E+03    0.57438E+00   -0.24007E+00 13617   0.196E+00    0.143E+01
RMM:  12    -0.712468080975E+03    0.13075E+01   -0.10160E+00 14189   0.138E+00    0.570E+00
RMM:  13    -0.712248474636E+03    0.21961E+00   -0.31813E-01 14981   0.644E-01    0.475E+00
RMM:  14    -0.712096069153E+03    0.15241E+00   -0.10450E-01 14059   0.319E-01    0.375E+00
RMM:  15    -0.711832741217E+03    0.26333E+00   -0.42841E-01 13630   0.604E-01    0.118E+00
RMM:  16    -0.711829920372E+03    0.28208E-02   -0.10288E-01 14446   0.328E-01    0.804E-01
RMM:  17    -0.711822868331E+03    0.70520E-02   -0.21464E-02 14134   0.173E-01    0.497E-01
RMM:  18    -0.711822904193E+03   -0.35861E-04   -0.87546E-03 13876   0.836E-02    0.433E-01
RMM:  19    -0.711823095943E+03   -0.19175E-03   -0.27245E-03 13102   0.503E-02    0.291E-01
RMM:  20    -0.711823420640E+03   -0.32470E-03   -0.86328E-04 11979   0.325E-02    0.194E-01
RMM:  21    -0.711823244839E+03    0.17580E-03   -0.40367E-04 10580   0.204E-02    0.106E-01
RMM:  22    -0.711823200268E+03    0.44572E-04   -0.21006E-04  9274   0.130E-02    0.654E-02
RMM:  23    -0.711823169658E+03    0.30610E-04   -0.10805E-04  8645   0.101E-02    0.367E-02
RMM:  24    -0.711823155321E+03    0.14337E-04   -0.64711E-05  8129   0.772E-03    0.160E-02
RMM:  25    -0.711823152601E+03    0.27191E-05   -0.30802E-05  6960   0.618E-03
   1 F= -.71182315E+03 E0= -.71181015E+03  d E =-.711823E+03
 curvature:   0.00 expect dE= 0.000E+00 dE for cont linesearch  0.000E+00
 trial: gam= 0.00000 g(F)=  0.116E+01 g(S)=  0.000E+00 ort = 0.000E+00 (trialstep = 0.100E+01)
 search vector abs. value=  0.116E+01
 bond charge predicted
       N       E                     dE             d eps       ncg     rms          rms(c)
DAV:   1    -0.711075148760E+03    0.74801E+00   -0.23504E+02 10960   0.186E+01    0.447E+00
RMM:   2    -0.711846484360E+03   -0.77134E+00   -0.84690E+00 13428   0.579E+00    0.379E+00
RMM:   3    -0.712067032334E+03   -0.22055E+00   -0.23224E+00 15047   0.238E+00    0.255E+00
RMM:   4    -0.712120048696E+03   -0.53016E-01   -0.40742E-01 14971   0.920E-01    0.306E+00
RMM:   5    -0.712048333487E+03    0.71715E-01   -0.11977E-01 14443   0.455E-01    0.144E+00
RMM:   6    -0.712045495358E+03    0.28381E-02   -0.16625E-01 12817   0.403E-01    0.805E-01
RMM:   7    -0.712041860881E+03    0.36345E-02   -0.16853E-02 14957   0.193E-01    0.513E-01
RMM:   8    -0.712040324284E+03    0.15366E-02   -0.13144E-02 13085   0.112E-01    0.149E-01
RMM:   9    -0.712040301263E+03    0.23021E-04   -0.21663E-03 14834   0.604E-02    0.571E-02
RMM:  10    -0.712040371284E+03   -0.70021E-04   -0.11175E-03 11550   0.293E-02    0.321E-02
RMM:  11    -0.712040397431E+03   -0.26147E-04   -0.35123E-04  9944   0.203E-02    0.179E-02
RMM:  12    -0.712040417941E+03   -0.20511E-04   -0.23868E-04  8614   0.107E-02    0.156E-02
RMM:  13    -0.712040419389E+03   -0.14473E-05   -0.61054E-05  7420   0.841E-03
   2 F= -.71204042E+03 E0= -.71202861E+03  d E =-.217267E+00
 trial-energy change:   -0.217267  1 .order   -0.099888   -1.164040    0.964263
 step:   0.6245(harm=  0.5469)  dis= 0.08035  next Energy=  -712.215233 (dE=-0.392E+00)
 bond charge predicted
       N       E                     dE             d eps       ncg     rms          rms(c)
DAV:   1    -0.712085461652E+03   -0.45044E-01   -0.33003E+01 11160   0.732E+00    0.156E+00
RMM:   2    -0.712187662141E+03   -0.10220E+00   -0.11489E+00 13530   0.217E+00    0.173E+00
RMM:   3    -0.712214268394E+03   -0.26606E-01   -0.30946E-01 15076   0.879E-01    0.117E+00
RMM:   4    -0.712225034306E+03   -0.10766E-01   -0.61069E-02 14809   0.344E-01    0.132E+00
RMM:   5    -0.712212404346E+03    0.12630E-01   -0.25734E-02 14028   0.188E-01    0.479E-01
RMM:   6    -0.712212088894E+03    0.31545E-03   -0.10612E-02 13158   0.102E-01    0.133E-01
RMM:   7    -0.712211934209E+03    0.15469E-03   -0.18463E-03 14077   0.512E-02    0.931E-02
RMM:   8    -0.712211893882E+03    0.40327E-04   -0.98089E-04 11686   0.304E-02    0.370E-02
RMM:   9    -0.712211909498E+03   -0.15616E-04   -0.31543E-04  9947   0.188E-02    0.125E-02
RMM:  10    -0.712211923356E+03   -0.13858E-04   -0.16301E-04  8032   0.104E-02    0.755E-03
RMM:  11    -0.712211926351E+03   -0.29943E-05   -0.41422E-05  6745   0.738E-03
   3 F= -.71221193E+03 E0= -.71219982E+03  d E =-.388774E+00
 curvature:  -0.27 expect dE=-0.377E-01 dE for cont linesearch -0.140E-04
 trial: gam= 0.11524 g(F)=  0.142E+00 g(S)=  0.000E+00 ort = 0.783E-02 (trialstep = 0.925E+00)
 search vector abs. value=  0.159E+00
 bond charge predicted
       N       E                     dE             d eps       ncg     rms          rms(c)
DAV:   1    -0.712166037493E+03    0.45886E-01   -0.30863E+01 10984   0.781E+00    0.103E+00
RMM:   2    -0.712274199815E+03   -0.10816E+00   -0.11081E+00 13527   0.215E+00    0.118E+00
RMM:   3    -0.712294797728E+03   -0.20598E-01   -0.25776E-01 14904   0.874E-01    0.634E-01
RMM:   4    -0.712295248458E+03   -0.45073E-03   -0.34859E-02 15090   0.301E-01    0.564E-01
RMM:   5    -0.712292487117E+03    0.27613E-02   -0.88367E-03 14721   0.135E-01    0.232E-01
RMM:   6    -0.712292568003E+03   -0.80887E-04   -0.60793E-03 12639   0.890E-02    0.121E-01
RMM:   7    -0.712292423852E+03    0.14415E-03   -0.92235E-04 14275   0.428E-02    0.667E-02
RMM:   8    -0.712292413935E+03    0.99172E-05   -0.34824E-04 11109   0.206E-02    0.166E-02
RMM:   9    -0.712292417783E+03   -0.38488E-05   -0.73891E-05  8876   0.120E-02
   4 F= -.71229242E+03 E0= -.71228050E+03  d E =-.804914E-01
 trial-energy change:   -0.080491  1 .order   -0.079872   -0.132148   -0.027596
 step:   1.1586(harm=  1.1690)  dis= 0.02183  next Energy=  -712.295914 (dE=-0.840E-01)
 bond charge predicted
       N       E                     dE             d eps       ncg     rms          rms(c)
DAV:   1    -0.712288571323E+03    0.38426E-02   -0.19769E+00 11552   0.197E+00    0.258E-01
RMM:   2    -0.712295338977E+03   -0.67677E-02   -0.69165E-02 13487   0.532E-01    0.302E-01
RMM:   3    -0.712296525458E+03   -0.11865E-02   -0.15563E-02 14915   0.215E-01    0.162E-01
RMM:   4    -0.712296546740E+03   -0.21282E-04   -0.20774E-03 14582   0.735E-02    0.143E-01
RMM:   5    -0.712296367312E+03    0.17943E-03   -0.57699E-04 12637   0.351E-02    0.544E-02
RMM:   6    -0.712296379971E+03   -0.12659E-04   -0.36997E-04 10991   0.227E-02    0.287E-02
RMM:   7    -0.712296371955E+03    0.80158E-05   -0.62247E-05  9027   0.120E-02
   5 F= -.71229637E+03 E0= -.71228451E+03  d E =-.844456E-01
 curvature:  -0.65 expect dE=-0.638E-01 dE for cont linesearch -0.107E-04
 trial: gam= 0.64040 g(F)=  0.982E-01 g(S)=  0.000E+00 ort = 0.162E-02 (trialstep = 0.935E+00)
 search vector abs. value=  0.166E+00
 bond charge predicted
       N       E                     dE             d eps       ncg     rms          rms(c)
DAV:   1    -0.712206947122E+03    0.89433E-01   -0.32155E+01 10808   0.792E+00    0.110E+00
RMM:   2    -0.712309033068E+03   -0.10209E+00   -0.10572E+00 13252   0.216E+00    0.594E-01
RMM:   3    -0.712335115222E+03   -0.26082E-01   -0.26524E-01 14947   0.882E-01    0.417E-01
RMM:   4    -0.712337575035E+03   -0.24598E-02   -0.32177E-02 15124   0.294E-01    0.411E-01
RMM:   5    -0.712336967640E+03    0.60739E-03   -0.87955E-03 15123   0.127E-01    0.275E-01
RMM:   6    -0.712336253837E+03    0.71380E-03   -0.49538E-03 12875   0.866E-02    0.840E-02
RMM:   7    -0.712336258190E+03   -0.43531E-05   -0.10222E-03 14419   0.438E-02    0.506E-02
RMM:   8    -0.712336245882E+03    0.12307E-04   -0.39030E-04 10544   0.204E-02    0.228E-02
RMM:   9    -0.712336252869E+03   -0.69862E-05   -0.15472E-04  9309   0.136E-02    0.120E-02
RMM:  10    -0.712336255910E+03   -0.30410E-05   -0.64182E-05  7559   0.905E-03
   6 F= -.71233626E+03 E0= -.71232406E+03  d E =-.398840E-01
 trial-energy change:   -0.039884  1 .order   -0.038751   -0.092716    0.015215
 step:   0.8097(harm=  0.8029)  dis= 0.01623  next Energy=  -712.337270 (dE=-0.409E-01)
 bond charge predicted
       N       E                     dE             d eps       ncg     rms          rms(c)
DAV:   1    -0.712334946608E+03    0.13063E-02   -0.57372E-01 10936   0.106E+00    0.146E-01
RMM:   2    -0.712336736351E+03   -0.17897E-02   -0.18476E-02 13226   0.284E-01    0.775E-02
RMM:   3    -0.712337179789E+03   -0.44344E-03   -0.45070E-03 14878   0.116E-01    0.511E-02
RMM:   4    -0.712337212361E+03   -0.32572E-04   -0.52610E-04 13767   0.389E-02    0.442E-02
RMM:   5    -0.712337214542E+03   -0.21812E-05   -0.15960E-04 10000   0.195E-02    0.393E-02
RMM:   6    -0.712337199889E+03    0.14653E-04   -0.76604E-05  8990   0.121E-02    0.912E-03
RMM:   7    -0.712337199258E+03    0.63115E-06   -0.17364E-05  6379   0.761E-03
   7 F= -.71233720E+03 E0= -.71232504E+03  d E =-.408273E-01
 curvature:  -0.67 expect dE=-0.257E-01 dE for cont linesearch -0.227E-05
 trial: gam= 0.40274 g(F)=  0.384E-01 g(S)=  0.000E+00 ort = 0.750E-03 (trialstep = 0.910E+00)
 search vector abs. value=  0.659E-01
 bond charge predicted
       N       E                     dE             d eps       ncg     rms          rms(c)
DAV:   1    -0.712309141210E+03    0.28059E-01   -0.12443E+01 10720   0.511E+00    0.628E-01
RMM:   2    -0.712351069948E+03   -0.41929E-01   -0.42168E-01 13252   0.136E+00    0.759E-01
RMM:   3    -0.712357969310E+03   -0.68994E-02   -0.10750E-01 14898   0.578E-01    0.356E-01
RMM:   4    -0.712357739986E+03    0.22932E-03   -0.13257E-02 15052   0.194E-01    0.243E-01
RMM:   5    -0.712356990882E+03    0.74910E-03   -0.35268E-03 14823   0.871E-02    0.740E-02
RMM:   6    -0.712357026705E+03   -0.35823E-04   -0.14542E-03 13285   0.466E-02    0.418E-02
RMM:   7    -0.712357021491E+03    0.52145E-05   -0.30675E-04 11681   0.241E-02    0.212E-02
RMM:   8    -0.712357026533E+03   -0.50425E-05   -0.12145E-04  9091   0.132E-02    0.783E-03
RMM:   9    -0.712357030054E+03   -0.35209E-05   -0.46795E-05  7420   0.880E-03
   8 F= -.71235703E+03 E0= -.71234496E+03  d E =-.198308E-01
 trial-energy change:   -0.019831  1 .order   -0.019653   -0.035204   -0.004103
 step:   1.0252(harm=  1.0297)  dis= 0.00888  next Energy=  -712.357291 (dE=-0.201E-01)
 bond charge predicted
       N       E                     dE             d eps       ncg     rms          rms(c)
DAV:   1    -0.712356628184E+03    0.39835E-03   -0.20142E-01 11800   0.650E-01    0.779E-02
RMM:   2    -0.712357297891E+03   -0.66971E-03   -0.67501E-03 13223   0.172E-01    0.937E-02
RMM:   3    -0.712357414161E+03   -0.11627E-03   -0.17565E-03 14750   0.733E-02    0.442E-02
RMM:   4    -0.712357410261E+03    0.38998E-05   -0.21900E-04 11760   0.253E-02    0.285E-02
RMM:   5    -0.712357400226E+03    0.10034E-04   -0.76575E-05  9194   0.156E-02    0.106E-02
RMM:   6    -0.712357401038E+03   -0.81208E-06   -0.30407E-05  7307   0.830E-03
   9 F= -.71235740E+03 E0= -.71234535E+03  d E =-.202018E-01
 curvature:  -0.87 expect dE=-0.198E-01 dE for cont linesearch -0.205E-04
 trial: gam= 0.55121 g(F)=  0.227E-01 g(S)=  0.000E+00 ort = 0.124E-02 (trialstep = 0.933E+00)
 search vector abs. value=  0.441E-01
 bond charge predicted
       N       E                     dE             d eps       ncg     rms          rms(c)
DAV:   1    -0.712336547284E+03    0.20853E-01   -0.93491E+00 10672   0.434E+00    0.527E-01
RMM:   2    -0.712364407880E+03   -0.27861E-01   -0.29533E-01 12825   0.110E+00    0.210E-01
RMM:   3    -0.712371579017E+03   -0.71711E-02   -0.73597E-02 15255   0.452E-01    0.219E-01
RMM:   4    -0.712372067123E+03   -0.48811E-03   -0.79464E-03 15166   0.152E-01    0.191E-01
RMM:   5    -0.712371690963E+03    0.37616E-03   -0.15967E-03 15068   0.611E-02    0.824E-02
RMM:   6    -0.712371627379E+03    0.63584E-04   -0.12007E-03 12463   0.416E-02    0.485E-02
RMM:   7    -0.712371636063E+03   -0.86841E-05   -0.21306E-04 11017   0.208E-02    0.336E-02
RMM:   8    -0.712371623039E+03    0.13024E-04   -0.12384E-04  9580   0.138E-02    0.874E-03
RMM:   9    -0.712371624367E+03   -0.13278E-05   -0.33600E-05  7629   0.823E-03
  10 F= -.71237162E+03 E0= -.71235958E+03  d E =-.142233E-01
 trial-energy change:   -0.014223  1 .order   -0.014096   -0.021788   -0.006404
 step:   1.2961(harm=  1.3211)  dis= 0.00915  next Energy=  -712.372879 (dE=-0.155E-01)
 bond charge predicted
       N       E                     dE             d eps       ncg     rms          rms(c)
DAV:   1    -0.712367896775E+03    0.37263E-02   -0.14200E+00 11088   0.169E+00    0.203E-01
RMM:   2    -0.712372090892E+03   -0.41941E-02   -0.44449E-02 12796   0.427E-01    0.814E-02
RMM:   3    -0.712373175994E+03   -0.10851E-02   -0.11158E-02 15220   0.176E-01    0.868E-02
RMM:   4    -0.712373246804E+03   -0.70810E-04   -0.12090E-03 14796   0.590E-02    0.738E-02
RMM:   5    -0.712373191373E+03    0.55431E-04   -0.25510E-04 12299   0.247E-02    0.327E-02
RMM:   6    -0.712373182027E+03    0.93453E-05   -0.19665E-04 10580   0.181E-02    0.194E-02
RMM:   7    -0.712373182192E+03   -0.16476E-06   -0.39990E-05  7572   0.997E-03
  11 F= -.71237318E+03 E0= -.71236114E+03  d E =-.157812E-01
 curvature:  -1.24 expect dE=-0.192E-01 dE for cont linesearch -0.314E-04
 trial: gam= 0.67638 g(F)=  0.155E-01 g(S)=  0.000E+00 ort = 0.106E-02 (trialstep = 0.101E+01)
 search vector abs. value=  0.370E-01
 bond charge predicted
       N       E                     dE             d eps       ncg     rms          rms(c)
DAV:   1    -0.712346628581E+03    0.26553E-01   -0.93047E+00 10528   0.430E+00    0.521E-01
RMM:   2    -0.712374579918E+03   -0.27951E-01   -0.29602E-01 12792   0.109E+00    0.237E-01
RMM:   3    -0.712382487881E+03   -0.79080E-02   -0.75660E-02 15174   0.462E-01    0.357E-01
RMM:   4    -0.712381965799E+03    0.52208E-03   -0.84982E-03 14956   0.158E-01    0.180E-01
RMM:   5    -0.712381493623E+03    0.47218E-03   -0.20112E-03 14869   0.638E-02    0.597E-02
RMM:   6    -0.712381448140E+03    0.45482E-04   -0.93549E-04 12543   0.370E-02    0.433E-02
RMM:   7    -0.712381456957E+03   -0.88168E-05   -0.21940E-04 10704   0.208E-02    0.341E-02
RMM:   8    -0.712381445106E+03    0.11851E-04   -0.14334E-04 10040   0.145E-02    0.113E-02
RMM:   9    -0.712381445384E+03   -0.27740E-06   -0.40411E-05  8120   0.868E-03
  12 F= -.71238145E+03 E0= -.71236936E+03  d E =-.826319E-02
 trial-energy change:   -0.008263  1 .order   -0.008018   -0.016256    0.000220
 step:   0.9931(harm=  0.9920)  dis= 0.00690  next Energy=  -712.381447 (dE=-0.826E-02)
 bond charge predicted
       N       E                     dE             d eps       ncg     rms          rms(c)
DAV:   1    -0.712381437854E+03    0.72525E-05   -0.13805E-03 11224   0.525E-02    0.789E-03
RMM:   2    -0.712381443334E+03   -0.54797E-05   -0.56670E-05  8405   0.145E-02
  13 F= -.71238144E+03 E0= -.71236936E+03  d E =-.826114E-02
 curvature:  -1.13 expect dE=-0.935E-02 dE for cont linesearch -0.366E-04
 trial: gam= 0.56574 g(F)=  0.828E-02 g(S)=  0.000E+00 ort = 0.110E-02 (trialstep = 0.100E+01)
 search vector abs. value=  0.214E-01
 bond charge predicted
       N       E                     dE             d eps       ncg     rms          rms(c)
DAV:   1    -0.712365743425E+03    0.15694E-01   -0.53416E+00 10448   0.325E+00    0.391E-01
RMM:   2    -0.712381849474E+03   -0.16106E-01   -0.16962E-01 12840   0.819E-01    0.194E-01
RMM:   3    -0.712386304429E+03   -0.44550E-02   -0.41495E-02 15264   0.341E-01    0.313E-01
RMM:   4    -0.712385611230E+03    0.69320E-03   -0.47872E-03 14943   0.119E-01    0.118E-01
RMM:   5    -0.712385344757E+03    0.26647E-03   -0.11792E-03 14404   0.487E-02    0.505E-02
RMM:   6    -0.712385330553E+03    0.14204E-04   -0.66796E-04 12326   0.324E-02    0.398E-02
RMM:   7    -0.712385319550E+03    0.11003E-04   -0.13585E-04  9677   0.175E-02    0.230E-02
RMM:   8    -0.712385317370E+03    0.21799E-05   -0.83715E-05  8675   0.111E-02
  14 F= -.71238532E+03 E0= -.71237328E+03  d E =-.387404E-02
 trial-energy change:   -0.003874  1 .order   -0.003839   -0.008926    0.001249
 step:   0.8799(harm=  0.8799)  dis= 0.00547  next Energy=  -712.385359 (dE=-0.392E-02)
 bond charge predicted
       N       E                     dE             d eps       ncg     rms          rms(c)
DAV:   1    -0.712385040006E+03    0.27954E-03   -0.80100E-02 10544   0.398E-01    0.489E-02
RMM:   2    -0.712385283756E+03   -0.24375E-03   -0.25816E-03 12876   0.100E-01    0.172E-02
RMM:   3    -0.712385339517E+03   -0.55762E-04   -0.57093E-04 14661   0.405E-02    0.238E-02
RMM:   4    -0.712385339826E+03   -0.30890E-06   -0.67357E-05  8732   0.147E-02
  15 F= -.71238534E+03 E0= -.71237329E+03  d E =-.389649E-02
 curvature:  -1.06 expect dE=-0.347E-02 dE for cont linesearch -0.401E-04
 ZBRENT: interpolating
 opt :   0.9316  next Energy=  -712.385363 (dE=-0.392E-02)
 bond charge predicted
       N       E                     dE             d eps       ncg     rms          rms(c)
DAV:   1    -0.712385285242E+03    0.54275E-04   -0.14253E-02 11520   0.169E-01    0.226E-02
RMM:   2    -0.712385334071E+03   -0.48828E-04   -0.51045E-04 12822   0.447E-02    0.555E-03
RMM:   3    -0.712385344723E+03   -0.10652E-04   -0.11346E-04 11385   0.183E-02    0.625E-03
RMM:   4    -0.712385345115E+03   -0.39197E-06   -0.14704E-05  6162   0.901E-03
  16 F= -.71238535E+03 E0= -.71237330E+03  d E =-.390178E-02
 curvature:  -0.61 expect dE=-0.220E-02 dE for cont linesearch -0.328E-05
 trial: gam= 0.44103 g(F)=  0.358E-02 g(S)=  0.000E+00 ort =-0.338E-03 (trialstep = 0.989E+00)
 search vector abs. value=  0.744E-02
 bond charge predicted
       N       E                     dE             d eps       ncg     rms          rms(c)
DAV:   1    -0.712380595873E+03    0.47488E-02   -0.17418E+00 10504   0.189E+00    0.227E-01
RMM:   2    -0.712385891662E+03   -0.52958E-02   -0.55467E-02 12926   0.482E-01    0.854E-02
RMM:   3    -0.712387179548E+03   -0.12879E-02   -0.13407E-02 15230   0.195E-01    0.746E-02
RMM:   4    -0.712387287418E+03   -0.10787E-03   -0.14231E-03 14934   0.642E-02    0.729E-02
RMM:   5    -0.712387243817E+03    0.43601E-04   -0.34563E-04 12872   0.286E-02    0.359E-02
RMM:   6    -0.712387244056E+03   -0.23912E-06   -0.18934E-04 10483   0.181E-02    0.208E-02
RMM:   7    -0.712387241110E+03    0.29459E-05   -0.43015E-05  8082   0.102E-02
  17 F= -.71238724E+03 E0= -.71237519E+03  d E =-.189600E-02
 trial-energy change:   -0.001896  1 .order   -0.001733   -0.003394   -0.000073
 step:   1.0054(harm=  1.0105)  dis= 0.00424  next Energy=  -712.387242 (dE=-0.190E-02)
 bond charge predicted
       N       E                     dE             d eps       ncg     rms          rms(c)
DAV:   1    -0.712387241850E+03    0.22061E-05   -0.59254E-04 10698   0.360E-02    0.511E-03
RMM:   2    -0.712387245187E+03   -0.33365E-05   -0.35002E-05  7227   0.119E-02
  18 F= -.71238725E+03 E0= -.71237519E+03  d E =-.190007E-02
 curvature:  -1.04 expect dE=-0.169E-02 dE for cont linesearch -0.351E-07
 trial: gam= 0.38581 g(F)=  0.163E-02 g(S)=  0.000E+00 ort = 0.159E-04 (trialstep = 0.992E+00)
 search vector abs. value=  0.275E-02
 bond charge predicted
       N       E                     dE             d eps       ncg     rms          rms(c)
DAV:   1    -0.712385514186E+03    0.17277E-02   -0.61689E-01 10656   0.117E+00    0.128E-01
RMM:   2    -0.712387611234E+03   -0.20970E-02   -0.21916E-02 13444   0.316E-01    0.101E-01
RMM:   3    -0.712388134213E+03   -0.52298E-03   -0.52918E-03 15152   0.129E-01    0.985E-02
RMM:   4    -0.712388081483E+03    0.52730E-04   -0.67253E-04 14544   0.452E-02    0.506E-02
RMM:   5    -0.712388042069E+03    0.39414E-04   -0.16785E-04 11330   0.200E-02    0.184E-02
RMM:   6    -0.712388038409E+03    0.36604E-05   -0.93659E-05  9642   0.135E-02
  19 F= -.71238804E+03 E0= -.71237600E+03  d E =-.793222E-03
 trial-energy change:   -0.000793  1 .order   -0.000750   -0.001625    0.000124
 step:   0.9300(harm=  0.9215)  dis= 0.00234  next Energy=  -712.388042 (dE=-0.797E-03)
 bond charge predicted
       N       E                     dE             d eps       ncg     rms          rms(c)
DAV:   1    -0.712388032799E+03    0.92702E-05   -0.23502E-03 11018   0.730E-02    0.819E-03
RMM:   2    -0.712388041263E+03   -0.84637E-05   -0.96007E-05 11378   0.220E-02
  20 F= -.71238804E+03 E0= -.71237600E+03  d E =-.796076E-03
 curvature:  -0.76 expect dE=-0.734E-03 dE for cont linesearch -0.147E-04
 ZBRENT: interpolating
 opt :   0.9702  next Energy=  -712.388040 (dE=-0.795E-03)
 bond charge predicted
       N       E                     dE             d eps       ncg     rms          rms(c)
DAV:   1    -0.712388036133E+03   -0.33342E-05   -0.96274E-04 11456   0.461E-02    0.103E-02
RMM:   2    -0.712388042460E+03   -0.63273E-05   -0.44030E-05  7144   0.144E-02
  21 F= -.71238804E+03 E0= -.71237600E+03  d E =-.797274E-03
 curvature:  -0.07 expect dE=-0.764E-04 dE for cont linesearch -0.307E-05
 ZBRENT: interpolating
 opt :   0.9461  next Energy=  -712.388043 (dE=-0.798E-03)
 bond charge predicted
       N       E                     dE             d eps       ncg     rms          rms(c)
DAV:   1    -0.712388039310E+03   -0.31771E-05   -0.32995E-04 10900   0.288E-02    0.485E-03
RMM:   2    -0.712388041068E+03   -0.17577E-05   -0.17530E-05  5946   0.994E-03
  22 F= -.71238804E+03 E0= -.71237600E+03  d E =-.795881E-03
 curvature:  -0.04 expect dE=-0.418E-04 dE for cont linesearch -0.282E-06
 trial: gam= 0.63134 g(F)=  0.975E-03 g(S)=  0.000E+00 ort = 0.135E-03 (trialstep = 0.983E+00)
 search vector abs. value=  0.224E-02
 bond charge predicted
       N       E                     dE             d eps       ncg     rms          rms(c)
DAV:   1    -0.712386578569E+03    0.14607E-02   -0.49317E-01 10912   0.105E+00    0.109E-01
RMM:   2    -0.712388143830E+03   -0.15653E-02   -0.16413E-02 13162   0.275E-01    0.395E-02
RMM:   3    -0.712388517333E+03   -0.37350E-03   -0.39301E-03 15216   0.109E-01    0.351E-02
RMM:   4    -0.712388550081E+03   -0.32748E-04   -0.46302E-04 14622   0.377E-02    0.328E-02
RMM:   5    -0.712388545865E+03    0.42160E-05   -0.10374E-04  9981   0.176E-02    0.233E-02
RMM:   6    -0.712388540293E+03    0.55718E-05   -0.78053E-05  9451   0.125E-02
  23 F= -.71238854E+03 E0= -.71237650E+03  d E =-.499225E-03
 trial-energy change:   -0.000499  1 .order   -0.000551   -0.001042   -0.000060
 step:   1.0736(harm=  1.0424)  dis= 0.00232  next Energy=  -712.388543 (dE=-0.502E-03)
 bond charge predicted
       N       E                     dE             d eps       ncg     rms          rms(c)
DAV:   1    -0.712388520177E+03    0.25688E-04   -0.42836E-03 12012   0.987E-02    0.161E-02
RMM:   2    -0.712388536476E+03   -0.16299E-04   -0.17973E-04 12809   0.275E-02    0.560E-03
RMM:   3    -0.712388539604E+03   -0.31281E-05   -0.44399E-05  8109   0.120E-02
  24 F= -.71238854E+03 E0= -.71237650E+03  d E =-.498536E-03
 curvature:  -0.80 expect dE=-0.508E-03 dE for cont linesearch -0.939E-05
 ZBRENT: interpolating
 opt :   1.0075  next Energy=  -712.388541 (dE=-0.500E-03)
 bond charge predicted
       N       E                     dE             d eps       ncg     rms          rms(c)
DAV:   1    -0.712388529935E+03    0.65408E-05   -0.21611E-03 11250   0.701E-02    0.892E-03
RMM:   2    -0.712388538931E+03   -0.89966E-05   -0.89231E-05 10277   0.192E-02
  25 F= -.71238854E+03 E0= -.71237650E+03  d E =-.497864E-03
 curvature:  -0.06 expect dE=-0.395E-04 dE for cont linesearch -0.293E-05
 ZBRENT: interpolating
 opt :   1.0514  next Energy=  -712.388541 (dE=-0.500E-03)
 bond charge predicted
       N       E                     dE             d eps       ncg     rms          rms(c)
DAV:   1    -0.712388537052E+03   -0.71166E-05   -0.90718E-04 10572   0.452E-02    0.738E-03
RMM:   2    -0.712388541406E+03   -0.43543E-05   -0.33419E-05  6532   0.130E-02
  26 F= -.71238854E+03 E0= -.71237650E+03  d E =-.500338E-03
 curvature:  -0.04 expect dE=-0.245E-04 dE for cont linesearch -0.716E-06
 ZBRENT: bisectioning
 opt :   1.0295  next Energy=  -712.388546 (dE=-0.505E-03)
 bond charge predicted
       N       E                     dE             d eps       ncg     rms          rms(c)
DAV:   1    -0.712388538835E+03   -0.17838E-05   -0.22029E-04 10706   0.236E-02    0.432E-03
RMM:   2    -0.712388540166E+03   -0.13302E-05   -0.12545E-05  5661   0.854E-03
  27 F= -.71238854E+03 E0= -.71237650E+03  d E =-.499098E-03
 curvature:  -0.27 expect dE=-0.161E-03 dE for cont linesearch -0.326E-05
 ZBRENT: interpolating
 opt :   1.0393  next Energy=  -712.388541 (dE=-0.500E-03)
 bond charge predicted
       N       E                     dE             d eps       ncg     rms          rms(c)
DAV:   1    -0.712388539845E+03   -0.10101E-05   -0.37893E-05  8522   0.113E-02    0.274E-03
RMM:   2    -0.712388540674E+03   -0.82872E-06   -0.61498E-06  5260   0.641E-03
  28 F= -.71238854E+03 E0= -.71237650E+03  d E =-.499606E-03
 curvature:  -0.07 expect dE=-0.409E-04 dE for cont linesearch -0.424E-06
 trial: gam= 0.54609 g(F)=  0.613E-03 g(S)=  0.000E+00 ort =-0.119E-03 (trialstep = 0.994E+00)
 search vector abs. value=  0.115E-02
 bond charge predicted
       N       E                     dE             d eps       ncg     rms          rms(c)
DAV:   1    -0.712387885699E+03    0.65415E-03   -0.26229E-01 10884   0.759E-01    0.812E-02
RMM:   2    -0.712388678366E+03   -0.79267E-03   -0.83314E-03 12898   0.195E-01    0.357E-02
RMM:   3    -0.712388894450E+03   -0.21608E-03   -0.21629E-03 15094   0.808E-02    0.481E-02
RMM:   4    -0.712388897991E+03   -0.35417E-05   -0.27343E-04 12793   0.287E-02    0.291E-02
RMM:   5    -0.712388888489E+03    0.95021E-05   -0.71315E-05  9383   0.161E-02
  29 F= -.71238889E+03 E0= -.71237684E+03  d E =-.347815E-03
 trial-energy change:   -0.000348  1 .order   -0.000297   -0.000544   -0.000050
 step:   1.0543(harm=  1.0937)  dis= 0.00145  next Energy=  -712.388890 (dE=-0.349E-03)
 bond charge predicted
       N       E                     dE             d eps       ncg     rms          rms(c)
DAV:   1    -0.712388891461E+03    0.65303E-05   -0.86249E-04 13488   0.528E-02    0.122E-02
RMM:   2    -0.712388895027E+03   -0.35658E-05   -0.46998E-05  9061   0.139E-02
  30 F= -.71238890E+03 E0= -.71237685E+03  d E =-.354353E-03
 curvature:  -0.97 expect dE=-0.446E-03 dE for cont linesearch -0.222E-05
 trial: gam= 0.73514 g(F)=  0.460E-03 g(S)=  0.000E+00 ort =-0.513E-04 (trialstep = 0.101E+01)
 search vector abs. value=  0.101E-02
 bond charge predicted
       N       E                     dE             d eps       ncg     rms          rms(c)
DAV:   1    -0.712388321749E+03    0.56971E-03   -0.22542E-01 10928   0.717E-01    0.774E-02
RMM:   2    -0.712389053408E+03   -0.73166E-03   -0.73422E-03 13034   0.191E-01    0.806E-02
RMM:   3    -0.712389221965E+03   -0.16856E-03   -0.20931E-03 14743   0.830E-02    0.494E-02
RMM:   4    -0.712389219354E+03    0.26108E-05   -0.26404E-04 12697   0.293E-02    0.238E-02
RMM:   5    -0.712389213449E+03    0.59051E-05   -0.72381E-05  9260   0.160E-02
  31 F= -.71238921E+03 E0= -.71237718E+03  d E =-.318422E-03
 trial-energy change:   -0.000318  1 .order   -0.000254   -0.000425   -0.000083
 step:   1.1144(harm=  1.2500)  dis= 0.00149  next Energy=  -712.389218 (dE=-0.323E-03)
 bond charge predicted
       N       E                     dE             d eps       ncg     rms          rms(c)
DAV:   1    -0.712389214983E+03    0.43712E-05   -0.25297E-03 12096   0.783E-02    0.115E-02
RMM:   2    -0.712389225158E+03   -0.10174E-04   -0.11012E-04 12169   0.248E-02    0.557E-03
RMM:   3    -0.712389227461E+03   -0.23035E-05   -0.29208E-05  6761   0.107E-02
  32 F= -.71238923E+03 E0= -.71237719E+03  d E =-.332434E-03
 curvature:  -1.03 expect dE=-0.267E-03 dE for cont linesearch -0.141E-06
 trial: gam= 0.61011 g(F)=  0.259E-03 g(S)=  0.000E+00 ort = 0.117E-04 (trialstep = 0.103E+01)
 search vector abs. value=  0.648E-03
 bond charge predicted
       N       E                     dE             d eps       ncg     rms          rms(c)
DAV:   1    -0.712388848403E+03    0.37675E-03   -0.15334E-01 10944   0.590E-01    0.615E-02
RMM:   2    -0.712389327882E+03   -0.47948E-03   -0.49464E-03 12981   0.157E-01    0.438E-02
RMM:   3    -0.712389474354E+03   -0.14647E-03   -0.13946E-03 14814   0.670E-02    0.486E-02
RMM:   4    -0.712389465687E+03    0.86675E-05   -0.18319E-04 11867   0.244E-02    0.225E-02
RMM:   5    -0.712389461487E+03    0.41991E-05   -0.45494E-05  8024   0.134E-02
  33 F= -.71238946E+03 E0= -.71237742E+03  d E =-.234026E-03
 trial-energy change:   -0.000234  1 .order   -0.000182   -0.000274   -0.000090
 step:   1.1954(harm=  1.5271)  dis= 0.00123  next Energy=  -712.389469 (dE=-0.242E-03)
 bond charge predicted
       N       E                     dE             d eps       ncg     rms          rms(c)
DAV:   1    -0.712389465498E+03    0.18827E-06   -0.38874E-03 11872   0.968E-02    0.142E-02
RMM:   2    -0.712389479065E+03   -0.13567E-04   -0.14796E-04 12549   0.291E-02    0.663E-03
RMM:   3    -0.712389482458E+03   -0.33926E-05   -0.39883E-05  7826   0.122E-02
  34 F= -.71238948E+03 E0= -.71237744E+03  d E =-.254996E-03
 curvature:  -1.04 expect dE=-0.185E-03 dE for cont linesearch -0.369E-06
 trial: gam= 0.77845 g(F)=  0.178E-03 g(S)=  0.000E+00 ort = 0.152E-04 (trialstep = 0.106E+01)
 search vector abs. value=  0.595E-03
 bond charge predicted
       N       E                     dE             d eps       ncg     rms          rms(c)
DAV:   1    -0.712389086266E+03    0.39280E-03   -0.15162E-01 10952   0.585E-01    0.591E-02
RMM:   2    -0.712389548761E+03   -0.46249E-03   -0.48396E-03 12958   0.152E-01    0.217E-02
RMM:   3    -0.712389668386E+03   -0.11962E-03   -0.12519E-03 15015   0.619E-02    0.228E-02
RMM:   4    -0.712389681030E+03   -0.12644E-04   -0.16512E-04 11912   0.221E-02    0.203E-02
RMM:   5    -0.712389676783E+03    0.42467E-05   -0.36645E-05  7657   0.132E-02
  35 F= -.71238968E+03 E0= -.71237763E+03  d E =-.194326E-03
 trial-energy change:   -0.000194  1 .order   -0.000137   -0.000202   -0.000072
 step:   1.2069(harm=  1.6484)  dis= 0.00121  next Energy=  -712.389682 (dE=-0.199E-03)
 bond charge predicted
       N       E                     dE             d eps       ncg     rms          rms(c)
DAV:   1    -0.712389671536E+03    0.94943E-05   -0.26177E-03 12240   0.828E-02    0.139E-02
RMM:   2    -0.712389681513E+03   -0.99774E-05   -0.11530E-04 11967   0.258E-02    0.732E-03
RMM:   3    -0.712389684303E+03   -0.27898E-05   -0.30150E-05  6705   0.112E-02
  36 F= -.71238968E+03 E0= -.71237764E+03  d E =-.201845E-03
 curvature:  -1.12 expect dE=-0.166E-03 dE for cont linesearch -0.453E-07
 trial: gam= 1.04632 g(F)=  0.148E-03 g(S)=  0.000E+00 ort =-0.490E-05 (trialstep = 0.822E+00)
 search vector abs. value=  0.789E-03
 bond charge predicted
       N       E                     dE             d eps       ncg     rms          rms(c)
DAV:   1    -0.712389387986E+03    0.29353E-03   -0.11989E-01 11068   0.522E-01    0.527E-02
RMM:   2    -0.712389732187E+03   -0.34420E-03   -0.35829E-03 12627   0.134E-01    0.249E-02
RMM:   3    -0.712389850444E+03   -0.11826E-03   -0.10978E-03 14798   0.588E-02    0.408E-02
RMM:   4    -0.712389845981E+03    0.44636E-05   -0.14178E-04 11426   0.219E-02    0.172E-02
RMM:   5    -0.712389844561E+03    0.14196E-05   -0.33360E-05  7309   0.115E-02
  37 F= -.71238984E+03 E0= -.71237780E+03  d E =-.160258E-03
 trial-energy change:   -0.000160  1 .order   -0.000101   -0.000117   -0.000085
 step:   3.0073(harm=  3.0073)  dis= 0.00321  next Energy=  -712.389899 (dE=-0.215E-03)
 bond charge predicted
       N       E                     dE             d eps       ncg     rms          rms(c)
DAV:   1    -0.712386890135E+03    0.29558E-02   -0.84080E-01 11136   0.138E+00    0.141E-01
RMM:   2    -0.712389221905E+03   -0.23318E-02   -0.24304E-02 12664   0.343E-01    0.499E-02
RMM:   3    -0.712389923492E+03   -0.70159E-03   -0.70322E-03 15165   0.146E-01    0.540E-02
RMM:   4    -0.712389991480E+03   -0.67987E-04   -0.83941E-04 14993   0.499E-02    0.453E-02
RMM:   5    -0.712389979792E+03    0.11688E-04   -0.15725E-04 11455   0.205E-02    0.280E-02
RMM:   6    -0.712389971630E+03    0.81613E-05   -0.12364E-04 10636   0.156E-02    0.153E-02
RMM:   7    -0.712389970295E+03    0.13353E-05   -0.22516E-05  6858   0.843E-03
  38 F= -.71238997E+03 E0= -.71237793E+03  d E =-.285992E-03
 curvature:  -8.30 expect dE=-0.441E-02 dE for cont linesearch -0.539E-04
 ZBRENT: interpolating
 opt :   2.1159  next Energy=  -712.390002 (dE=-0.318E-03)
 bond charge predicted
       N       E                     dE             d eps       ncg     rms          rms(c)
DAV:   1    -0.712389455539E+03    0.51609E-03   -0.13929E-01 11032   0.562E-01    0.566E-02
RMM:   2    -0.712389848222E+03   -0.39268E-03   -0.40934E-03 12762   0.140E-01    0.207E-02
RMM:   3    -0.712389961317E+03   -0.11310E-03   -0.11289E-03 15015   0.590E-02    0.265E-02
RMM:   4    -0.712389969736E+03   -0.84186E-05   -0.14337E-04 11457   0.208E-02    0.181E-02
RMM:   5    -0.712389966699E+03    0.30369E-05   -0.29576E-05  7181   0.117E-02
  39 F= -.71238997E+03 E0= -.71237792E+03  d E =-.282396E-03
 curvature:  -4.91 expect dE=-0.134E-02 dE for cont linesearch -0.506E-04
 ZBRENT: interpolating
 opt :   2.6129  next Energy=  -712.389984 (dE=-0.300E-03)
 bond charge predicted
       N       E                     dE             d eps       ncg     rms          rms(c)
DAV:   1    -0.712389812121E+03    0.15762E-03   -0.44333E-02 11016   0.318E-01    0.287E-02
RMM:   2    -0.712389946468E+03   -0.13435E-03   -0.13973E-03 12798   0.793E-02    0.134E-02
RMM:   3    -0.712389981256E+03   -0.34788E-04   -0.35316E-04 14226   0.333E-02    0.216E-02
RMM:   4    -0.712389980134E+03    0.11218E-05   -0.42017E-05  7389   0.133E-02
  40 F= -.71238998E+03 E0= -.71237794E+03  d E =-.295832E-03
 curvature:  -1.37 expect dE=-0.523E-03 dE for cont linesearch -0.957E-05
 ZBRENT: bisectioning
 opt :   2.3644  next Energy=  -712.389999 (dE=-0.314E-03)
 bond charge predicted
       N       E                     dE             d eps       ncg     rms          rms(c)
DAV:   1    -0.712389933156E+03    0.48100E-04   -0.10858E-02 11336   0.157E-01    0.188E-02
RMM:   2    -0.712389968047E+03   -0.34892E-04   -0.36323E-04 12727   0.389E-02    0.442E-03
RMM:   3    -0.712389974893E+03   -0.68460E-05   -0.81243E-05 11164   0.161E-02
  41 F= -.71238997E+03 E0= -.71237793E+03  d E =-.290591E-03
 curvature:  -2.67 expect dE=-0.912E-03 dE for cont linesearch -0.709E-04
 ZBRENT: interpolating
 opt :   2.5286  next Energy=  -712.389983 (dE=-0.299E-03)
 bond charge predicted
       N       E                     dE             d eps       ncg     rms          rms(c)
DAV:   1    -0.712389961209E+03    0.68382E-05   -0.46097E-03 11408   0.103E-01    0.127E-02
RMM:   2    -0.712389976753E+03   -0.15543E-04   -0.16268E-04 11955   0.265E-02    0.404E-03
RMM:   3    -0.712389979695E+03   -0.29425E-05   -0.37797E-05  7748   0.118E-02
  42 F= -.71238998E+03 E0= -.71237794E+03  d E =-.295392E-03
 curvature:  -0.12 expect dE=-0.431E-04 dE for cont linesearch -0.109E-05
 ZBRENT: bisectioning
 opt :   2.4465  next Energy=  -712.389987 (dE=-0.303E-03)
 bond charge predicted
       N       E                     dE             d eps       ncg     rms          rms(c)
DAV:   1    -0.712389973418E+03    0.33345E-05   -0.11221E-03 10880   0.510E-02    0.734E-03
RMM:   2    -0.712389977557E+03   -0.41390E-05   -0.43827E-05  8211   0.137E-02
  43 F= -.71238998E+03 E0= -.71237793E+03  d E =-.293254E-03
 curvature:  -0.81 expect dE=-0.294E-03 dE for cont linesearch -0.248E-04
 ZBRENT: interpolating
 opt :   2.4996  next Energy=  -712.389981 (dE=-0.297E-03)
 bond charge predicted
       N       E                     dE             d eps       ncg     rms          rms(c)
DAV:   1    -0.712389978134E+03   -0.47159E-05   -0.44761E-04 10528   0.317E-02    0.606E-03
RMM:   2    -0.712389980914E+03   -0.27801E-05   -0.18238E-05  5850   0.929E-03
  44 F= -.71238998E+03 E0= -.71237794E+03  d E =-.296611E-03
 curvature:  -0.04 expect dE=-0.143E-04 dE for cont linesearch -0.211E-06
 ZBRENT: bisectioning
 opt :   2.4730  next Energy=  -712.389982 (dE=-0.298E-03)
 bond charge predicted
       N       E                     dE             d eps       ncg     rms          rms(c)
DAV:   1    -0.712389978328E+03   -0.19424E-06   -0.11261E-04 11080   0.179E-02    0.321E-03
RMM:   2    -0.712389979001E+03   -0.67281E-06   -0.68043E-06  5328   0.632E-03
  45 F= -.71238998E+03 E0= -.71237793E+03  d E =-.294698E-03
 curvature:  -0.28 expect dE=-0.972E-04 dE for cont linesearch -0.246E-05
 ZBRENT: interpolating
 opt :   2.4880  next Energy=  -712.389981 (dE=-0.297E-03)
 bond charge predicted
       N       E                     dE             d eps       ncg     rms          rms(c)
DAV:   1    -0.712389979040E+03   -0.71169E-06   -0.31012E-05  7584   0.967E-03    0.249E-03
RMM:   2    -0.712389979692E+03   -0.65172E-06   -0.44155E-06  5205   0.550E-03
  46 F= -.71238998E+03 E0= -.71237794E+03  d E =-.295389E-03
 curvature:  -0.04 expect dE=-0.145E-04 dE for cont linesearch -0.107E-06
 ZBRENT: bisectioning
 opt :   2.4805  next Energy=  -712.389980 (dE=-0.296E-03)
 bond charge predicted
       N       E                     dE             d eps       ncg     rms          rms(c)
DAV:   1    -0.712389979059E+03   -0.19500E-07   -0.58586E-06  5416   0.521E-03    0.851E-04
RMM:   2    -0.712389979203E+03   -0.14385E-06   -0.17014E-06  4968   0.312E-03
  47 F= -.71238998E+03 E0= -.71237793E+03  d E =-.294901E-03
 curvature:  -0.11 expect dE=-0.403E-04 dE for cont linesearch -0.138E-05
 ZBRENT: interpolating
 opt :   2.4857  next Energy=  -712.389980 (dE=-0.295E-03)
 bond charge predicted
       N       E                     dE             d eps       ncg     rms          rms(c)
DAV:   1    -0.712389979343E+03   -0.28412E-06   -0.12971E-06  5336   0.243E-03    0.126E-03
RMM:   2    -0.712389979375E+03   -0.31680E-07   -0.44810E-07  4636   0.169E-03
  48 F= -.71238998E+03 E0= -.71237794E+03  d E =-.295072E-03
 curvature:  -0.00 expect dE=-0.151E-05 dE for cont linesearch -0.262E-08
 trial: gam= 2.79302 g(F)=  0.348E-03 g(S)=  0.000E+00 ort =-0.218E-04 (trialstep = 0.143E+00)
 search vector abs. value=  0.638E-02
 bond charge predicted
       N       E                     dE             d eps       ncg     rms          rms(c)
DAV:   1    -0.712389924833E+03    0.54511E-04   -0.29245E-02 11056   0.257E-01    0.259E-02
RMM:   2    -0.712390004828E+03   -0.79996E-04   -0.82758E-04 12393   0.630E-02    0.113E-02
RMM:   3    -0.712390030341E+03   -0.25512E-04   -0.24856E-04 12841   0.278E-02    0.182E-02
RMM:   4    -0.712390029209E+03    0.11314E-05   -0.32866E-05  7162   0.132E-02
  49 F= -.71239003E+03 E0= -.71237798E+03  d E =-.498343E-04
 trial-energy change:   -0.000050  1 .order   -0.000025   -0.000041   -0.000009
 step:   0.1850(harm=  0.1850)  dis= 0.00062  next Energy=  -712.390006 (dE=-0.265E-04)
 bond charge predicted
       N       E                     dE             d eps       ncg     rms          rms(c)
DAV:   1    -0.712390029940E+03    0.40090E-06   -0.26012E-03 11824   0.768E-02    0.825E-03
RMM:   2    -0.712390037591E+03   -0.76509E-05   -0.84536E-05 10017   0.200E-02
  50 F= -.71239004E+03 E0= -.71237799E+03  d E =-.582156E-04
 curvature:  -2.06 expect dE=-0.599E-03 dE for cont linesearch -0.171E-06
 trial: gam=-0.05481 g(F)=  0.291E-03 g(S)=  0.000E+00 ort = 0.230E-04 (trialstep = 0.151E+00)
 search vector abs. value=  0.308E-03
 bond charge predicted
       N       E                     dE             d eps       ncg     rms          rms(c)
DAV:   1    -0.712390072649E+03   -0.42709E-04   -0.16136E-03 10632   0.612E-02    0.118E-02
RMM:   2    -0.712390084233E+03   -0.11584E-04   -0.95824E-05 10849   0.196E-02    0.197E-02
RMM:   3    -0.712390080214E+03    0.40187E-05   -0.16663E-05  6022   0.954E-03
  51 F= -.71239008E+03 E0= -.71237803E+03  d E =-.426236E-04
 trial-energy change:   -0.000043  1 .order   -0.000034   -0.000044   -0.000024
 step:   0.3276(harm=  0.3276)  dis= 0.00026  next Energy=  -712.390085 (dE=-0.475E-04)
 bond charge predicted
       N       E                     dE             d eps       ncg     rms          rms(c)
DAV:   1    -0.712390098320E+03   -0.14087E-04   -0.22506E-03 11144   0.729E-02    0.755E-03
RMM:   2    -0.712390107654E+03   -0.93332E-05   -0.10616E-04 12147   0.229E-02    0.459E-03
RMM:   3    -0.712390108410E+03   -0.75664E-06   -0.21895E-05  6237   0.973E-03
  52 F= -.71239011E+03 E0= -.71237806E+03  d E =-.708194E-04
 curvature:  -0.17 expect dE=-0.122E-04 dE for cont linesearch -0.376E-05
 ZBRENT: increasing intervall
 opt :   0.6804  next Energy=  -712.390111 (dE=-0.733E-04)
 bond charge predicted
       N       E                     dE             d eps       ncg     rms          rms(c)
DAV:   1    -0.712390080561E+03    0.27092E-04   -0.87982E-03 10784   0.143E-01    0.153E-02
RMM:   2    -0.712390118664E+03   -0.38103E-04   -0.41058E-04 13675   0.451E-02    0.138E-02
RMM:   3    -0.712390126452E+03   -0.77875E-05   -0.10288E-04 10638   0.180E-02    0.129E-02
RMM:   4    -0.712390124468E+03    0.19836E-05   -0.13983E-05  5990   0.949E-03
  53 F= -.71239012E+03 E0= -.71237808E+03  d E =-.868774E-04
 curvature:  -0.11 expect dE=-0.114E-04 dE for cont linesearch -0.210E-05
 ZBRENT: bracketing found
 ZBRENT: interpolating
 opt :   0.5111  next Energy=  -712.390131 (dE=-0.932E-04)
 bond charge predicted
       N       E                     dE             d eps       ncg     rms          rms(c)
DAV:   1    -0.712390113542E+03    0.12910E-04   -0.20299E-03 12400   0.831E-02    0.760E-03
RMM:   2    -0.712390124679E+03   -0.11137E-04   -0.11945E-04 12727   0.225E-02    0.319E-03
RMM:   3    -0.712390125200E+03   -0.52043E-06   -0.17325E-05  6038   0.915E-03
  54 F= -.71239013E+03 E0= -.71237808E+03  d E =-.876088E-04
 curvature:  -0.35 expect dE=-0.245E-04 dE for cont linesearch -0.481E-05
 ZBRENT: interpolating
 opt :   0.5898  next Energy=  -712.390128 (dE=-0.902E-04)
 bond charge predicted
       N       E                     dE             d eps       ncg     rms          rms(c)
DAV:   1    -0.712390123971E+03    0.70774E-06   -0.41586E-04 10608   0.314E-02    0.534E-03
RMM:   2    -0.712390126283E+03   -0.23111E-05   -0.22663E-05  6193   0.102E-02
  55 F= -.71239013E+03 E0= -.71237808E+03  d E =-.886917E-04
 curvature:  -0.19 expect dE=-0.142E-04 dE for cont linesearch -0.217E-05
 ZBRENT: interpolating
 opt :   0.5521  next Energy=  -712.390127 (dE=-0.898E-04)
 bond charge predicted
       N       E                     dE             d eps       ncg     rms          rms(c)
DAV:   1    -0.712390125878E+03   -0.19067E-05   -0.91438E-05 11864   0.156E-02    0.272E-03
RMM:   2    -0.712390126657E+03   -0.77933E-06   -0.51138E-06  5268   0.437E-03
  56 F= -.71239013E+03 E0= -.71237808E+03  d E =-.890666E-04
 curvature:  -0.10 expect dE=-0.619E-05 dE for cont linesearch -0.344E-06
 ZBRENT: interpolating
 opt :   0.5655  next Energy=  -712.390127 (dE=-0.893E-04)
 bond charge predicted
       N       E                     dE             d eps       ncg     rms          rms(c)
DAV:   1    -0.712390125989E+03   -0.11057E-06   -0.10275E-05  5720   0.717E-03    0.205E-03
RMM:   2    -0.712390126238E+03   -0.24899E-06   -0.27143E-06  5033   0.400E-03
  57 F= -.71239013E+03 E0= -.71237808E+03  d E =-.886469E-04
 curvature:  -0.06 expect dE=-0.417E-05 dE for cont linesearch -0.399E-06
 ZBRENT: interpolating
 opt :   0.5578  next Energy=  -712.390127 (dE=-0.892E-04)
 bond charge predicted
       N       E                     dE             d eps       ncg     rms          rms(c)
DAV:   1    -0.712390126253E+03   -0.26405E-06   -0.12567E-06  5368   0.317E-03    0.158E-03
RMM:   2    -0.712390126404E+03   -0.15086E-06   -0.77631E-07  4413   0.184E-03
  58 F= -.71239013E+03 E0= -.71237808E+03  d E =-.888128E-04
 curvature:  -0.01 expect dE=-0.983E-06 dE for cont linesearch -0.682E-07
 ZBRENT: bisectioning
 opt :   0.5617  next Energy=  -712.390127 (dE=-0.890E-04)
 bond charge predicted
       N       E                     dE             d eps       ncg     rms          rms(c)
DAV:   1    -0.712390126326E+03   -0.72840E-07   -0.79969E-07  5320   0.234E-03    0.344E-04
RMM:   2    -0.712390126339E+03   -0.13264E-07   -0.12336E-07  2033   0.815E-04
  59 F= -.71239013E+03 E0= -.71237808E+03  d E =-.887480E-04
 curvature:  -0.03 expect dE=-0.199E-05 dE for cont linesearch -0.421E-08
 trial: gam= 0.17440 g(F)=  0.610E-04 g(S)=  0.000E+00 ort =-0.630E-05 (trialstep = 0.233E+00)
 search vector abs. value=  0.682E-04
 bond charge predicted
       N       E                     dE             d eps       ncg     rms          rms(c)
DAV:   1    -0.712390136033E+03   -0.97071E-05   -0.85544E-04 10512   0.439E-02    0.450E-03
RMM:   2    -0.712390139203E+03   -0.31705E-05   -0.32778E-05  7228   0.119E-02
  60 F= -.71239014E+03 E0= -.71237809E+03  d E =-.128644E-04
 trial-energy change:   -0.000013  1 .order   -0.000011   -0.000014   -0.000007
 step:   0.4801(harm=  0.4801)  dis= 0.00014  next Energy=  -712.390141 (dE=-0.144E-04)
 bond charge predicted
       N       E                     dE             d eps       ncg     rms          rms(c)
DAV:   1    -0.712390146555E+03   -0.10522E-04   -0.99853E-04 11288   0.488E-02    0.637E-03
RMM:   2    -0.712390152134E+03   -0.55795E-05   -0.50332E-05  9097   0.151E-02
  61 F= -.71239015E+03 E0= -.71237811E+03  d E =-.257952E-04
 curvature:  -0.27 expect dE=-0.486E-05 dE for cont linesearch -0.131E-05
 ZBRENT: increasing intervall
 opt :   0.9736  next Energy=  -712.390155 (dE=-0.284E-04)
 bond charge predicted
       N       E                     dE             d eps       ncg     rms          rms(c)
DAV:   1    -0.712390146684E+03   -0.12902E-06   -0.38951E-03 11112   0.954E-02    0.998E-03
RMM:   2    -0.712390163431E+03   -0.16748E-04   -0.17480E-04 12603   0.286E-02    0.130E-02
RMM:   3    -0.712390164972E+03   -0.15405E-05   -0.37146E-05  7551   0.122E-02
  62 F= -.71239016E+03 E0= -.71237812E+03  d E =-.386330E-04
 curvature:  -0.55 expect dE=-0.161E-04 dE for cont linesearch -0.197E-06
 trial: gam= 0.47656 g(F)=  0.293E-04 g(S)=  0.000E+00 ort =-0.495E-05 (trialstep = 0.381E+00)
 search vector abs. value=  0.400E-04
 bond charge predicted
       N       E                     dE             d eps       ncg     rms          rms(c)
DAV:   1    -0.712390172177E+03   -0.87457E-05   -0.14161E-03 10880   0.566E-02    0.906E-03
RMM:   2    -0.712390178457E+03   -0.62798E-05   -0.69150E-05  9219   0.183E-02
  63 F= -.71239018E+03 E0= -.71237813E+03  d E =-.134850E-04
 trial-energy change:   -0.000013  1 .order   -0.000006   -0.000010   -0.000002
 step:   0.4666(harm=  0.4666)  dis= 0.00014  next Energy=  -712.390171 (dE=-0.628E-05)
 reached required accuracy - stopping structural energy minimisation
Warning: ieee_invalid is signaling
Warning: ieee_divide_by_zero is signaling
Warning: ieee_underflow is signaling
Warning: ieee_inexact is signaling
FORTRAN STOP
Warning: ieee_invalid is signaling
Warning: ieee_divide_by_zero is signaling
Warning: ieee_underflow is signaling
Warning: ieee_inexact is signaling
FORTRAN STOP
Warning: ieee_invalid is signaling
Warning: ieee_divide_by_zero is signaling
Warning: ieee_underflow is signaling
Warning: ieee_inexact is signaling
FORTRAN STOP
Warning: ieee_invalid is signaling
Warning: ieee_divide_by_zero is signaling
Warning: ieee_underflow is signaling
Warning: ieee_inexact is signaling
FORTRAN STOP
