Ga48 O72                                
    1.000000000000000     
     0.0000000000000000   12.2804734172212839    0.0000000000000000
     9.1427020537309431    0.0000000000000000    0.0000000000000000
     0.0000000000000000   -2.7682617730220320  -11.3006977184464645
   Ga   O    P 
    47    71     1
Direct
  0.6716477880378235  0.0000000000000000  0.1695779894945844
  0.6560061443509468  0.0000000000000000  0.6492256571940160
  0.6725402252156130  0.3300768144839239  0.1640609514639664
  0.6492827894872875  0.3297477632927439  0.6538293362445913
  0.6725402252156130  0.6699231855160761  0.1640609514639664
  0.6492827894872875  0.6702522367072561  0.6538293362445913
  0.8586328692197895  0.1614596336252205  0.3596214490681433
  0.8373801056863215  0.1698982464042658  0.8423954350843630
  0.8505313522480051  0.5000000000000000  0.3374520050949528
  0.8150293042170915  0.5000000000000000  0.8444313941554498
  0.8586328692197895  0.8385403663747795  0.3596214490681433
  0.8373801056863215  0.8301017535957342  0.8423954350843630
  0.5879365529726783  0.1303729302264216  0.3937871310233874
  0.5979268494811762  0.1673277817623102  0.9035891222527468
  0.5884584913358282  0.5000000000000000  0.3917827181986056
  0.5930488252663793  0.5000000000000000  0.9070158683671679
  0.5879365529726783  0.8696270697735784  0.3937871310233874
  0.5979268494811762  0.8326722182376898  0.9035891222527468
  0.9177743100602314  0.0000000000000000  0.1079701258093166
  0.9387648251406233  0.0000000000000000  0.6339730875918761
  0.9108864979044071  0.3478390083861740  0.0849049752224076
  0.8972710439393339  0.3719587911746274  0.5980505774665446
  0.9108864979044071  0.6521609916138260  0.0849049752224076
  0.8972710439393339  0.6280412088253726  0.5980505774665446
  0.1567780902851155  0.1614906278141817  0.1324952513863664
  0.1502595524239325  0.1741200117883466  0.6528683229469792
  0.1571208073120758  0.5000000000000000  0.1601534594524949
  0.1747319129854432  0.5000000000000000  0.6551055722899193
  0.1567780902851155  0.8385093721858183  0.1324952513863664
  0.1502595524239325  0.8258799882116534  0.6528683229469792
  0.2966959203032502  0.0000000000000000  0.3637730377458084
  0.3453741544682032  0.0000000000000000  0.8482268648471987
  0.3462701077564105  0.3324851945697489  0.3316244784498252
  0.3449716628186081  0.3269412735187558  0.8488273951968921
  0.3462701077564105  0.6675148054302511  0.3316244784498252
  0.3449716628186081  0.6730587264812442  0.8488273951968921
  0.0592901453715555  0.0000000000000000  0.8519182327333752
  0.0959442412895939  0.3267228704630938  0.3974111141973680
  0.0864233953263351  0.3721636228961600  0.8871337409103290
  0.0959442412895939  0.6732771295369062  0.3974111141973680
  0.0864233953263351  0.6278363771038400  0.8871337409103290
  0.4201988647310202  0.1666903437357519  0.1115791658799878
  0.3927878483809906  0.1576913548235339  0.5986419205976148
  0.4190261415203196  0.5000000000000000  0.1022089524437533
  0.4081769556421477  0.5000000000000000  0.5974277978065103
  0.4201988647310202  0.8333096562642481  0.1115791658799878
  0.3927878483809906  0.8423086451764661  0.5986419205976148
  0.9937679872397212  0.1750037288299140  0.1146262181971238
  0.9884108954579105  0.2021856989691742  0.6147252548881710
  0.0035732713828480  0.5000000000000000  0.1705095905325749
  0.0318377314629288  0.5000000000000000  0.6694678171858754
  0.9937679872397212  0.8249962711700789  0.1146262181971238
  0.9884108954579105  0.7978143010308258  0.6147252548881710
  0.4466070649673881  0.0000000000000000  0.3549391417775496
  0.5108026083380750  0.0000000000000000  0.8856926468130197
  0.5112108149154224  0.3211237232655151  0.3662711709423334
  0.5087157354502736  0.3331280597482547  0.8845020864452451
  0.5112108149154224  0.6788762767344849  0.3662711709423334
  0.5087157354502736  0.6668719402517453  0.8845020864452451
  0.6844837331065108  0.1691512064111151  0.2806227902962846
  0.6628306516543958  0.1603766918936884  0.7761317476617151
  0.6749747020987442  0.5000000000000000  0.2799283314010736
  0.6537898886443898  0.5000000000000000  0.7743758557577749
  0.6844837331065108  0.8308487935888849  0.2806227902962846
  0.6628306516543958  0.8396233081063116  0.7761317476617151
  0.8375156440975999  0.0000000000000000  0.2254499509017336
  0.8176394581688058  0.0000000000000000  0.7192316388945557
  0.8342291515358582  0.3416118381085909  0.2108248533338539
  0.8154328211735589  0.3350755145793158  0.7270523886411198
  0.8342291515358582  0.6583881618914091  0.2108248533338539
  0.8154328211735589  0.6649244854206842  0.7270523886411198
  0.8507714590045694  0.0000000000000000  0.4653010163603639
  0.8372067913779944  0.0000000000000000  0.9472770242504751
  0.8265129783544154  0.3335551727065038  0.4342939998006869
  0.7929774120567856  0.3156040994126315  0.9460728983358493
  0.8265129783544154  0.6664448272934962  0.4342939998006869
  0.7929774120567856  0.6843959005873756  0.9460728983358493
  0.6702903372971463  0.1597986128991451  0.0599864577828981
  0.6647341077413245  0.1728420714800265  0.5547247560274613
  0.6707885321653464  0.5000000000000000  0.0600776476980371
  0.6496579875980757  0.5000000000000000  0.5527578777896167
  0.6702903372971463  0.8402013871008549  0.0599864577828981
  0.6647341077413245  0.8271579285199735  0.5547247560274613
  0.5068371906803790  0.0000000000000000  0.1381615643610274
  0.4937172447993134  0.0000000000000000  0.6168468500490221
  0.5077749418100836  0.3335116927885480  0.1279583302003644
  0.4880826719197415  0.3266471771837303  0.6256141388919829
  0.5077749418100836  0.6664883072114520  0.1279583302003644
  0.4880826719197415  0.6733528228162697  0.6256141388919829
  0.0080214972244903  0.1706956834062794  0.3636350875393219
  0.9965817798701551  0.2028753412651056  0.8732815560657130
  0.0121196686610077  0.5000000000000000  0.4011060711102914
  0.9464132105236516  0.5000000000000000  0.9601404991128817
  0.0080214972244903  0.8293043165937206  0.3636350875393219
  0.9965817798701551  0.7971246587348944  0.8732815560657130
  0.1656753762898049  0.0000000000000000  0.2438214668026717
  0.1868980461230549  0.0000000000000000  0.7847614892624364
  0.1778139461344708  0.3394936694792179  0.2810923045110698
  0.1849391656369974  0.3133205049947492  0.7842754144386817
  0.1778139461344708  0.6605063305207821  0.2810923045110698
  0.1849391656369974  0.6866794950052508  0.7842754144386817
  0.3197673989172998  0.1878986420632671  0.2016096442995519
  0.3523653640886408  0.1693831909951555  0.7404405586273910
  0.3337466346675413  0.5000000000000000  0.2141206389735117
  0.3367092020982980  0.5000000000000000  0.7254072998502252
  0.3197673989172998  0.8121013579367329  0.2016096442995519
  0.3523653640886408  0.8306168090048445  0.7404405586273910
  0.3269635381871652  0.1909918836969737  0.4413389478329535
  0.3431819895622468  0.1639584620816379  0.9567953173503625
  0.3493659622665959  0.5000000000000000  0.4374796449885494
  0.3380700163122157  0.5000000000000000  0.9469213894988044
  0.3269635381871652  0.8090081163030263  0.4413389478329535
  0.3431819895622468  0.8360415379183692  0.9567953173503625
  0.1449904436021114  0.0000000000000000  0.0182614162228560
  0.1611463844309640  0.3404464794986737  0.0498392801635532
  0.1853806618604850  0.3407956601893503  0.5530822960598343
  0.1611463844309640  0.6595535205013263  0.0498392801635532
  0.1853806618604850  0.6592043398106497  0.5530822960598343
  0.1959270613198925  0.0000000000000000  0.5310916357299433
 
  0.00000000E+00  0.00000000E+00  0.00000000E+00
  0.00000000E+00  0.00000000E+00  0.00000000E+00
  0.00000000E+00  0.00000000E+00  0.00000000E+00
  0.00000000E+00  0.00000000E+00  0.00000000E+00
  0.00000000E+00  0.00000000E+00  0.00000000E+00
  0.00000000E+00  0.00000000E+00  0.00000000E+00
  0.00000000E+00  0.00000000E+00  0.00000000E+00
  0.00000000E+00  0.00000000E+00  0.00000000E+00
  0.00000000E+00  0.00000000E+00  0.00000000E+00
  0.00000000E+00  0.00000000E+00  0.00000000E+00
  0.00000000E+00  0.00000000E+00  0.00000000E+00
  0.00000000E+00  0.00000000E+00  0.00000000E+00
  0.00000000E+00  0.00000000E+00  0.00000000E+00
  0.00000000E+00  0.00000000E+00  0.00000000E+00
  0.00000000E+00  0.00000000E+00  0.00000000E+00
  0.00000000E+00  0.00000000E+00  0.00000000E+00
  0.00000000E+00  0.00000000E+00  0.00000000E+00
  0.00000000E+00  0.00000000E+00  0.00000000E+00
  0.00000000E+00  0.00000000E+00  0.00000000E+00
  0.00000000E+00  0.00000000E+00  0.00000000E+00
  0.00000000E+00  0.00000000E+00  0.00000000E+00
  0.00000000E+00  0.00000000E+00  0.00000000E+00
  0.00000000E+00  0.00000000E+00  0.00000000E+00
  0.00000000E+00  0.00000000E+00  0.00000000E+00
  0.00000000E+00  0.00000000E+00  0.00000000E+00
  0.00000000E+00  0.00000000E+00  0.00000000E+00
  0.00000000E+00  0.00000000E+00  0.00000000E+00
  0.00000000E+00  0.00000000E+00  0.00000000E+00
  0.00000000E+00  0.00000000E+00  0.00000000E+00
  0.00000000E+00  0.00000000E+00  0.00000000E+00
  0.00000000E+00  0.00000000E+00  0.00000000E+00
  0.00000000E+00  0.00000000E+00  0.00000000E+00
  0.00000000E+00  0.00000000E+00  0.00000000E+00
  0.00000000E+00  0.00000000E+00  0.00000000E+00
  0.00000000E+00  0.00000000E+00  0.00000000E+00
  0.00000000E+00  0.00000000E+00  0.00000000E+00
  0.00000000E+00  0.00000000E+00  0.00000000E+00
  0.00000000E+00  0.00000000E+00  0.00000000E+00
  0.00000000E+00  0.00000000E+00  0.00000000E+00
  0.00000000E+00  0.00000000E+00  0.00000000E+00
  0.00000000E+00  0.00000000E+00  0.00000000E+00
  0.00000000E+00  0.00000000E+00  0.00000000E+00
  0.00000000E+00  0.00000000E+00  0.00000000E+00
  0.00000000E+00  0.00000000E+00  0.00000000E+00
  0.00000000E+00  0.00000000E+00  0.00000000E+00
  0.00000000E+00  0.00000000E+00  0.00000000E+00
  0.00000000E+00  0.00000000E+00  0.00000000E+00
  0.00000000E+00  0.00000000E+00  0.00000000E+00
  0.00000000E+00  0.00000000E+00  0.00000000E+00
  0.00000000E+00  0.00000000E+00  0.00000000E+00
  0.00000000E+00  0.00000000E+00  0.00000000E+00
  0.00000000E+00  0.00000000E+00  0.00000000E+00
  0.00000000E+00  0.00000000E+00  0.00000000E+00
  0.00000000E+00  0.00000000E+00  0.00000000E+00
  0.00000000E+00  0.00000000E+00  0.00000000E+00
  0.00000000E+00  0.00000000E+00  0.00000000E+00
  0.00000000E+00  0.00000000E+00  0.00000000E+00
  0.00000000E+00  0.00000000E+00  0.00000000E+00
  0.00000000E+00  0.00000000E+00  0.00000000E+00
  0.00000000E+00  0.00000000E+00  0.00000000E+00
  0.00000000E+00  0.00000000E+00  0.00000000E+00
  0.00000000E+00  0.00000000E+00  0.00000000E+00
  0.00000000E+00  0.00000000E+00  0.00000000E+00
  0.00000000E+00  0.00000000E+00  0.00000000E+00
  0.00000000E+00  0.00000000E+00  0.00000000E+00
  0.00000000E+00  0.00000000E+00  0.00000000E+00
  0.00000000E+00  0.00000000E+00  0.00000000E+00
  0.00000000E+00  0.00000000E+00  0.00000000E+00
  0.00000000E+00  0.00000000E+00  0.00000000E+00
  0.00000000E+00  0.00000000E+00  0.00000000E+00
  0.00000000E+00  0.00000000E+00  0.00000000E+00
  0.00000000E+00  0.00000000E+00  0.00000000E+00
  0.00000000E+00  0.00000000E+00  0.00000000E+00
  0.00000000E+00  0.00000000E+00  0.00000000E+00
  0.00000000E+00  0.00000000E+00  0.00000000E+00
  0.00000000E+00  0.00000000E+00  0.00000000E+00
  0.00000000E+00  0.00000000E+00  0.00000000E+00
  0.00000000E+00  0.00000000E+00  0.00000000E+00
  0.00000000E+00  0.00000000E+00  0.00000000E+00
  0.00000000E+00  0.00000000E+00  0.00000000E+00
  0.00000000E+00  0.00000000E+00  0.00000000E+00
  0.00000000E+00  0.00000000E+00  0.00000000E+00
  0.00000000E+00  0.00000000E+00  0.00000000E+00
  0.00000000E+00  0.00000000E+00  0.00000000E+00
  0.00000000E+00  0.00000000E+00  0.00000000E+00
  0.00000000E+00  0.00000000E+00  0.00000000E+00
  0.00000000E+00  0.00000000E+00  0.00000000E+00
  0.00000000E+00  0.00000000E+00  0.00000000E+00
  0.00000000E+00  0.00000000E+00  0.00000000E+00
  0.00000000E+00  0.00000000E+00  0.00000000E+00
  0.00000000E+00  0.00000000E+00  0.00000000E+00
  0.00000000E+00  0.00000000E+00  0.00000000E+00
  0.00000000E+00  0.00000000E+00  0.00000000E+00
  0.00000000E+00  0.00000000E+00  0.00000000E+00
  0.00000000E+00  0.00000000E+00  0.00000000E+00
  0.00000000E+00  0.00000000E+00  0.00000000E+00
  0.00000000E+00  0.00000000E+00  0.00000000E+00
  0.00000000E+00  0.00000000E+00  0.00000000E+00
  0.00000000E+00  0.00000000E+00  0.00000000E+00
  0.00000000E+00  0.00000000E+00  0.00000000E+00
  0.00000000E+00  0.00000000E+00  0.00000000E+00
  0.00000000E+00  0.00000000E+00  0.00000000E+00
  0.00000000E+00  0.00000000E+00  0.00000000E+00
  0.00000000E+00  0.00000000E+00  0.00000000E+00
  0.00000000E+00  0.00000000E+00  0.00000000E+00
  0.00000000E+00  0.00000000E+00  0.00000000E+00
  0.00000000E+00  0.00000000E+00  0.00000000E+00
  0.00000000E+00  0.00000000E+00  0.00000000E+00
  0.00000000E+00  0.00000000E+00  0.00000000E+00
  0.00000000E+00  0.00000000E+00  0.00000000E+00
  0.00000000E+00  0.00000000E+00  0.00000000E+00
  0.00000000E+00  0.00000000E+00  0.00000000E+00
  0.00000000E+00  0.00000000E+00  0.00000000E+00
  0.00000000E+00  0.00000000E+00  0.00000000E+00
  0.00000000E+00  0.00000000E+00  0.00000000E+00
  0.00000000E+00  0.00000000E+00  0.00000000E+00
  0.00000000E+00  0.00000000E+00  0.00000000E+00
  0.00000000E+00  0.00000000E+00  0.00000000E+00
  0.00000000E+00  0.00000000E+00  0.00000000E+00
