Ga48 O72                                
    1.000000000000000     
     0.0000000000000000   12.2804734172212839    0.0000000000000000
     9.1427020537309431    0.0000000000000000    0.0000000000000000
     0.0000000000000000   -2.7682617730220320  -11.3006977184464645
   Ga   O    P 
    47    71     1
Direct
  0.6716477880378261  0.0000000000000000  0.1695779894945816
  0.6560061443509450  0.0000000000000000  0.6492256571940160
  0.6725402252156145  0.3300768144839271  0.1640609514639673
  0.6492827894872865  0.3297477632927459  0.6538293362445907
  0.6725402252156146  0.6699231855160729  0.1640609514639673
  0.6492827894872865  0.6702522367072543  0.6538293362445907
  0.8586328692197912  0.1614596336252205  0.3596214490681446
  0.8373801056863208  0.1698982464042677  0.8423954350843627
  0.8505313522480066  0.5000000000000000  0.3374520050949531
  0.8150293042170909  0.5000000000000000  0.8444313941554501
  0.8586328692197912  0.8385403663747791  0.3596214490681446
  0.8373801056863208  0.8301017535957322  0.8423954350843627
  0.5879365529726771  0.1303729302264238  0.3937871310233876
  0.5979268494811758  0.1673277817623070  0.9035891222527469
  0.5884584913358272  0.5000000000000000  0.3917827181986029
  0.5930488252663820  0.5000000000000000  0.9070158683671682
  0.5879365529726771  0.8696270697735762  0.3937871310233876
  0.5979268494811758  0.8326722182376930  0.9035891222527469
  0.9177743100602331  0.0000000000000000  0.1079701258093202
  0.9387648251406233  0.0000000000000000  0.6339730875918739
  0.9108864979044057  0.3478390083861747  0.0849049752224102
  0.8972710439393365  0.3719587911746286  0.5980505774665413
  0.9108864979044057  0.6521609916138251  0.0849049752224102
  0.8972710439393365  0.6280412088253711  0.5980505774665413
  0.1567780902851180  0.1614906278141789  0.1324952513863654
  0.1502595524239315  0.1741200117883496  0.6528683229469785
  0.1571208073120750  0.5000000000000000  0.1601534594524952
  0.1747319129854400  0.5000000000000000  0.6551055722899173
  0.1567780902851180  0.8385093721858210  0.1324952513863654
  0.1502595524239315  0.8258799882116507  0.6528683229469785
  0.2966959203032514  0.0000000000000000  0.3637730377458095
  0.3453741544682029  0.0000000000000000  0.8482268648471963
  0.3462701077564080  0.3324851945697470  0.3316244784498280
  0.3449716628186069  0.3269412735187530  0.8488273951968914
  0.3462701077564080  0.6675148054302530  0.3316244784498280
  0.3449716628186069  0.6730587264812473  0.8488273951968914
  0.0592901453715532  0.0000000000000000  0.8519182327333784
  0.0959442412895960  0.3267228704630906  0.3974111141973671
  0.0864233953263347  0.3721636228961605  0.8871337409103290
  0.0959442412895960  0.6732771295369097  0.3974111141973671
  0.0864233953263347  0.6278363771038390  0.8871337409103290
  0.4201988647310189  0.1666903437357500  0.1115791658799845
  0.3927878483809935  0.1576913548235338  0.5986419205976180
  0.4190261415203221  0.5000000000000000  0.1022089524437558
  0.4081769556421513  0.5000000000000000  0.5974277978065138
  0.4201988647310189  0.8333096562642495  0.1115791658799845
  0.3927878483809935  0.8423086451764658  0.5986419205976180
  0.9937679872397190  0.1750037288299173  0.1146262181971223
  0.9884108954579101  0.2021856989691745  0.6147252548881716
  0.0035732713828461  0.5000000000000000  0.1705095905325741
  0.0318377314629309  0.5000000000000000  0.6694678171858732
  0.9937679872397190  0.8249962711700820  0.1146262181971223
  0.9884108954579101  0.7978143010308261  0.6147252548881716
  0.4466070649673859  0.0000000000000000  0.3549391417775502
  0.5108026083380783  0.0000000000000000  0.8856926468130231
  0.5112108149154257  0.3211237232655175  0.3662711709423366
  0.5087157354502746  0.3331280597482545  0.8845020864452485
  0.5112108149154257  0.6788762767344830  0.3662711709423366
  0.5087157354502746  0.6668719402517451  0.8845020864452485
  0.6844837331065101  0.1691512064111126  0.2806227902962850
  0.6628306516543956  0.1603766918936882  0.7761317476617181
  0.6749747020987459  0.5000000000000000  0.2799283314010750
  0.6537898886443874  0.5000000000000000  0.7743758557577770
  0.6844837331065102  0.8308487935888872  0.2806227902962850
  0.6628306516543956  0.8396233081063109  0.7761317476617181
  0.8375156440975995  0.0000000000000000  0.2254499509017343
  0.8176394581688033  0.0000000000000000  0.7192316388945562
  0.8342291515358565  0.3416118381085902  0.2108248533338551
  0.8154328211735618  0.3350755145793163  0.7270523886411185
  0.8342291515358565  0.6583881618914100  0.2108248533338551
  0.8154328211735618  0.6649244854206836  0.7270523886411185
  0.8507714590045721  0.0000000000000000  0.4653010163603665
  0.8372067913779943  0.0000000000000000  0.9472770242504742
  0.8265129783544141  0.3335551727065060  0.4342939998006856
  0.7929774120567838  0.3156040994126282  0.9460728983358468
  0.8265129783544141  0.6664448272934933  0.4342939998006856
  0.7929774120567838  0.6843959005873723  0.9460728983358468
  0.6702903372971452  0.1597986128991462  0.0599864577828982
  0.6647341077413232  0.1728420714800271  0.5547247560274640
  0.6707885321653453  0.5000000000000000  0.0600776476980364
  0.6496579875980748  0.5000000000000000  0.5527578777896169
  0.6702903372971452  0.8402013871008531  0.0599864577828982
  0.6647341077413232  0.8271579285199734  0.5547247560274640
  0.5068371906803807  0.0000000000000000  0.1381615643610239
  0.4937172447993167  0.0000000000000000  0.6168468500490206
  0.5077749418100852  0.3335116927885474  0.1279583302003635
  0.4880826719197400  0.3266471771837280  0.6256141388919815
  0.5077749418100852  0.6664883072114530  0.1279583302003635
  0.4880826719197400  0.6733528228162718  0.6256141388919815
  0.0080214972244891  0.1706956834062793  0.3636350875393254
 -0.0034182201298472  0.2028753412651027  0.8732815560657122
  0.0121196686610043  0.5000000000000000  0.4011060711102932
 -0.0535867894763487  0.5000000000000000  0.9601404991128825
  0.0080214972244891  0.8293043165937216  0.3636350875393254
 -0.0034182201298472  0.7971246587348970  0.8732815560657122
  0.1656753762898070  0.0000000000000000  0.2438214668026741
  0.1868980461230545  0.0000000000000000  0.7847614892624382
  0.1778139461344740  0.3394936694792195  0.2810923045110702
  0.1849391656369976  0.3133205049947504  0.7842754144386830
  0.1778139461344740  0.6605063305207811  0.2810923045110702
  0.1849391656369976  0.6866794950052496  0.7842754144386830
  0.3197673989172983  0.1878986420632692  0.2016096442995499
  0.3523653640886373  0.1693831909951566  0.7404405586273892
  0.3337466346675428  0.5000000000000000  0.2141206389735087
  0.3367092020982986  0.5000000000000000  0.7254072998502228
  0.3197673989172983  0.8121013579367308  0.2016096442995499
  0.3523653640886373  0.8306168090048438  0.7404405586273892
  0.3269635381871662  0.1909918836969715  0.4413389478329565
  0.3431819895622474  0.1639584620816346  0.9567953173503643
  0.3493659622665936  0.5000000000000000  0.4374796449885527
  0.3380700163122135  0.5000000000000000  0.9469213894988063
  0.3269635381871662  0.8090081163030275  0.4413389478329565
  0.3431819895622474  0.8360415379183658  0.9567953173503643
  0.1449904436021117  0.0000000000000000  0.0182614162228562
  0.1611463844309642  0.3404464794986752  0.0498392801635497
  0.1853806618604866  0.3407956601893473  0.5530822960598349
  0.1611463844309642  0.6595535205013244  0.0498392801635497
  0.1853806618604866  0.6592043398106522  0.5530822960598349
  0.1959270613198931  0.0000000000000000  0.5310916357299438
 
  0.00000000E+00  0.00000000E+00  0.00000000E+00
  0.00000000E+00  0.00000000E+00  0.00000000E+00
  0.00000000E+00  0.00000000E+00  0.00000000E+00
  0.00000000E+00  0.00000000E+00  0.00000000E+00
  0.00000000E+00  0.00000000E+00  0.00000000E+00
  0.00000000E+00  0.00000000E+00  0.00000000E+00
  0.00000000E+00  0.00000000E+00  0.00000000E+00
  0.00000000E+00  0.00000000E+00  0.00000000E+00
  0.00000000E+00  0.00000000E+00  0.00000000E+00
  0.00000000E+00  0.00000000E+00  0.00000000E+00
  0.00000000E+00  0.00000000E+00  0.00000000E+00
  0.00000000E+00  0.00000000E+00  0.00000000E+00
  0.00000000E+00  0.00000000E+00  0.00000000E+00
  0.00000000E+00  0.00000000E+00  0.00000000E+00
  0.00000000E+00  0.00000000E+00  0.00000000E+00
  0.00000000E+00  0.00000000E+00  0.00000000E+00
  0.00000000E+00  0.00000000E+00  0.00000000E+00
  0.00000000E+00  0.00000000E+00  0.00000000E+00
  0.00000000E+00  0.00000000E+00  0.00000000E+00
  0.00000000E+00  0.00000000E+00  0.00000000E+00
  0.00000000E+00  0.00000000E+00  0.00000000E+00
  0.00000000E+00  0.00000000E+00  0.00000000E+00
  0.00000000E+00  0.00000000E+00  0.00000000E+00
  0.00000000E+00  0.00000000E+00  0.00000000E+00
  0.00000000E+00  0.00000000E+00  0.00000000E+00
  0.00000000E+00  0.00000000E+00  0.00000000E+00
  0.00000000E+00  0.00000000E+00  0.00000000E+00
  0.00000000E+00  0.00000000E+00  0.00000000E+00
  0.00000000E+00  0.00000000E+00  0.00000000E+00
  0.00000000E+00  0.00000000E+00  0.00000000E+00
  0.00000000E+00  0.00000000E+00  0.00000000E+00
  0.00000000E+00  0.00000000E+00  0.00000000E+00
  0.00000000E+00  0.00000000E+00  0.00000000E+00
  0.00000000E+00  0.00000000E+00  0.00000000E+00
  0.00000000E+00  0.00000000E+00  0.00000000E+00
  0.00000000E+00  0.00000000E+00  0.00000000E+00
  0.00000000E+00  0.00000000E+00  0.00000000E+00
  0.00000000E+00  0.00000000E+00  0.00000000E+00
  0.00000000E+00  0.00000000E+00  0.00000000E+00
  0.00000000E+00  0.00000000E+00  0.00000000E+00
  0.00000000E+00  0.00000000E+00  0.00000000E+00
  0.00000000E+00  0.00000000E+00  0.00000000E+00
  0.00000000E+00  0.00000000E+00  0.00000000E+00
  0.00000000E+00  0.00000000E+00  0.00000000E+00
  0.00000000E+00  0.00000000E+00  0.00000000E+00
  0.00000000E+00  0.00000000E+00  0.00000000E+00
  0.00000000E+00  0.00000000E+00  0.00000000E+00
  0.00000000E+00  0.00000000E+00  0.00000000E+00
  0.00000000E+00  0.00000000E+00  0.00000000E+00
  0.00000000E+00  0.00000000E+00  0.00000000E+00
  0.00000000E+00  0.00000000E+00  0.00000000E+00
  0.00000000E+00  0.00000000E+00  0.00000000E+00
  0.00000000E+00  0.00000000E+00  0.00000000E+00
  0.00000000E+00  0.00000000E+00  0.00000000E+00
  0.00000000E+00  0.00000000E+00  0.00000000E+00
  0.00000000E+00  0.00000000E+00  0.00000000E+00
  0.00000000E+00  0.00000000E+00  0.00000000E+00
  0.00000000E+00  0.00000000E+00  0.00000000E+00
  0.00000000E+00  0.00000000E+00  0.00000000E+00
  0.00000000E+00  0.00000000E+00  0.00000000E+00
  0.00000000E+00  0.00000000E+00  0.00000000E+00
  0.00000000E+00  0.00000000E+00  0.00000000E+00
  0.00000000E+00  0.00000000E+00  0.00000000E+00
  0.00000000E+00  0.00000000E+00  0.00000000E+00
  0.00000000E+00  0.00000000E+00  0.00000000E+00
  0.00000000E+00  0.00000000E+00  0.00000000E+00
  0.00000000E+00  0.00000000E+00  0.00000000E+00
  0.00000000E+00  0.00000000E+00  0.00000000E+00
  0.00000000E+00  0.00000000E+00  0.00000000E+00
  0.00000000E+00  0.00000000E+00  0.00000000E+00
  0.00000000E+00  0.00000000E+00  0.00000000E+00
  0.00000000E+00  0.00000000E+00  0.00000000E+00
  0.00000000E+00  0.00000000E+00  0.00000000E+00
  0.00000000E+00  0.00000000E+00  0.00000000E+00
  0.00000000E+00  0.00000000E+00  0.00000000E+00
  0.00000000E+00  0.00000000E+00  0.00000000E+00
  0.00000000E+00  0.00000000E+00  0.00000000E+00
  0.00000000E+00  0.00000000E+00  0.00000000E+00
  0.00000000E+00  0.00000000E+00  0.00000000E+00
  0.00000000E+00  0.00000000E+00  0.00000000E+00
  0.00000000E+00  0.00000000E+00  0.00000000E+00
  0.00000000E+00  0.00000000E+00  0.00000000E+00
  0.00000000E+00  0.00000000E+00  0.00000000E+00
  0.00000000E+00  0.00000000E+00  0.00000000E+00
  0.00000000E+00  0.00000000E+00  0.00000000E+00
  0.00000000E+00  0.00000000E+00  0.00000000E+00
  0.00000000E+00  0.00000000E+00  0.00000000E+00
  0.00000000E+00  0.00000000E+00  0.00000000E+00
  0.00000000E+00  0.00000000E+00  0.00000000E+00
  0.00000000E+00  0.00000000E+00  0.00000000E+00
  0.00000000E+00  0.00000000E+00  0.00000000E+00
  0.00000000E+00  0.00000000E+00  0.00000000E+00
  0.00000000E+00  0.00000000E+00  0.00000000E+00
  0.00000000E+00  0.00000000E+00  0.00000000E+00
  0.00000000E+00  0.00000000E+00  0.00000000E+00
  0.00000000E+00  0.00000000E+00  0.00000000E+00
  0.00000000E+00  0.00000000E+00  0.00000000E+00
  0.00000000E+00  0.00000000E+00  0.00000000E+00
  0.00000000E+00  0.00000000E+00  0.00000000E+00
  0.00000000E+00  0.00000000E+00  0.00000000E+00
  0.00000000E+00  0.00000000E+00  0.00000000E+00
  0.00000000E+00  0.00000000E+00  0.00000000E+00
  0.00000000E+00  0.00000000E+00  0.00000000E+00
  0.00000000E+00  0.00000000E+00  0.00000000E+00
  0.00000000E+00  0.00000000E+00  0.00000000E+00
  0.00000000E+00  0.00000000E+00  0.00000000E+00
  0.00000000E+00  0.00000000E+00  0.00000000E+00
  0.00000000E+00  0.00000000E+00  0.00000000E+00
  0.00000000E+00  0.00000000E+00  0.00000000E+00
  0.00000000E+00  0.00000000E+00  0.00000000E+00
  0.00000000E+00  0.00000000E+00  0.00000000E+00
  0.00000000E+00  0.00000000E+00  0.00000000E+00
  0.00000000E+00  0.00000000E+00  0.00000000E+00
  0.00000000E+00  0.00000000E+00  0.00000000E+00
  0.00000000E+00  0.00000000E+00  0.00000000E+00
  0.00000000E+00  0.00000000E+00  0.00000000E+00
  0.00000000E+00  0.00000000E+00  0.00000000E+00
  0.00000000E+00  0.00000000E+00  0.00000000E+00
  0.00000000E+00  0.00000000E+00  0.00000000E+00
