Ga8
1.0
   4.4320466607116726    0.0000000000000000    0.0000000000000003
  -0.0000000000000005    7.5979836802912653    0.0000000000000005
   0.0000000000000000    0.0000000000000000    4.5555035300000002
Ga
8
direct
   0.0000000000000000    0.3443042800000000    0.4154013900000000 Ga0+
   0.0000000000000000    0.1556957199999990    0.9154013900000000 Ga0+
   0.0000000000000000    0.6556957200000000    0.5845986100000000 Ga0+
   0.0000000000000000    0.8443042800000000    0.0845986100000000 Ga0+
   0.5000000000000000    0.8443042800000000    0.4154013900000000 Ga0+
   0.5000000000000000    0.6556957200000000    0.9154013900000000 Ga0+
   0.5000000000000000    0.1556957199999990    0.5845986100000000 Ga0+
   0.5000000000000000    0.3443042800000000    0.0845986100000000 Ga0+
