Ga8 O12                                 
    1.000000000000000     
     0.0000000000000000   12.2804737091000007    0.0000000000000000
     9.1427011490000005    0.0000000000000000    0.0000000000000000
     0.0000000000000000   -2.7682616411000001  -11.3006974810000003
   Ga   O    Cu   N 
    47    71     1     1
Direct
  0.6597525014451397 -0.0010982954631052  0.1575529502493201
  0.6583620683588963 -0.0003979055981756  0.6548654628413391
  0.6621563540429487  0.3334984295232871  0.1593381209043199
  0.6600471799916500  0.3332911436628674  0.6567559252221705
  0.6595567466056388  0.6660876279948045  0.1589909430073059
  0.6575845591362444  0.6680673475107473  0.6552709113918602
  0.8429878190463956  0.1657413967249382  0.3436893615147482
  0.8404271270481900  0.1666151066947572  0.8428259248340215
  0.8418319146717815  0.5000387716457456  0.3444425249977659
  0.8403397359233798  0.5004383148328546  0.8428315826907408
  0.8415351924480983  0.8329522001316852  0.3439562082408607
  0.8398702635825663  0.8335907257987366  0.8426633260189262
  0.5921459196599160  0.1645972583685936  0.3959252908882386
  0.5917151707829398  0.1661497662846498  0.8978182979690736
  0.5909553494353371  0.5000213320945435  0.8975812261885870
  0.5882940411670968  0.8256624633578588  0.3964680704287215
  0.5917062026759498  0.8329809155230931  0.8982251882704279
  0.9084534957610644 -0.0001257064425596  0.1017558596593124
  0.9095905293804559 -0.0003401532856130  0.6027564066328622
  0.9092263077676539  0.3333843117342178  0.1014265260311275
  0.9098679164084518  0.3331789989189428  0.6026715288058554
  0.9085349726684392  0.6674974370957452  0.1018218141617186
  0.9097057711373576  0.6666437660589944  0.6030247288362055
  0.1578919560738829  0.1666292766361698  0.1557780608312729
  0.1593884702985612  0.1666915005866996  0.6573022602915075
  0.1575303075583618  0.5017888182731176  0.1549953267300619
  0.1596373528171926  0.5001587557644575  0.6570839212708468
  0.1588445832092847  0.8342556908751441  0.1562832149653229
  0.1598738116094625  0.8335227542714085  0.6572211354182793
  0.3415548274939713  0.0005723858623037  0.3425399025884200
  0.3419763447176588 -0.0003321100035050  0.8439619121972021
  0.3356026558363386  0.3372688593962089  0.3423824987670889
  0.3413625883224387  0.3336888422414693  0.8435208683168189
  0.3409466690048660  0.6684390005487530  0.3438730298219901
  0.3418964901057497  0.6665073381682169  0.8445253700776247
  0.0924433798892408 -0.0005065120034317  0.3980548862345776
  0.0903719517811728  0.0003169088459849  0.8970370835263342
  0.0906969688805675  0.3335936174404303  0.3982953737682520
  0.0902643622975970  0.3336803537314519  0.8971719428880105
  0.0919457262745093  0.6670926672170415  0.3978363906366878
  0.0900714590738498  0.6674073436738875  0.8967712741803195
  0.4085772682698713  0.1650278243661984  0.1035468541548103
  0.4085786897522202  0.1671045302408176  0.6020961885983526
  0.4093231384350690  0.5011291581228662  0.1057710747762639
  0.4074886957226726  0.5017576283290516  0.6002882293936687
  0.4094478162514642  0.8332103275814603  0.1032453543190329
  0.4079179952420194  0.8343820555229119  0.6013935402369160
  0.9958554266116083  0.1663563161131651  0.1258309426858732
  0.9970384554808858  0.1663093356115194  0.6286204211407584
  0.9957224240867879  0.5006419191748444  0.1261327685748374
  0.9971699348668681  0.4998735316106301  0.6287075631784789
  0.9961842417965050  0.8338296005204537  0.1259294551380185
  0.9973729281988767  0.8333519793330001  0.6289614857754035
  0.5042535842786483 -0.0023153081670280  0.3728046532311320
  0.5043332465557980 -0.0003072705521100  0.8727600268849740
  0.5040483753122827  0.3328609180530008  0.8727393608537545
  0.4987226315084566  0.6648247570184029  0.3725005087733340
  0.5040618013665409  0.6667213641363203  0.8724750561144654
  0.6752147831738782  0.1646541661649949  0.2806982206929436
  0.6717050027395176  0.1673371676286095  0.7793405750550938
  0.6767676811045071  0.5001148636286395  0.2792760179285056
  0.6717530316893862  0.4996849646949377  0.7798714285751214
  0.6730159557986775  0.8324784963525467  0.2813383185080254
  0.6718715164815267  0.8334551596110381  0.7797539423826717
  0.8280731493180811 -0.0008756361936915  0.2194752222830487
  0.8266714010533035  0.0002803158244457  0.7188356159969095
  0.8298682477219173  0.3314853146260517  0.2196582208340862
  0.8278479888448462  0.3329834868442609  0.7195259812306248
  0.8286146736026597  0.6674495863502040  0.2196282387817550
  0.8270946428930651  0.6666320126537039  0.7193351903439397
  0.8336713604090717 -0.0001906832702627  0.4462291905176164
  0.8306509563531863  0.0003677418848124  0.9452272355956658
  0.8348872543705518  0.3323767792011574  0.4460376206465139
  0.8311833161225588  0.3335005800398359  0.9451759740430966
  0.8346675176867401  0.6669361288234565  0.4464919303696822
  0.8309672342892482  0.6668409734786525  0.9453032194954233
  0.6660208833919171  0.1674087893501910  0.0549717775402023
  0.6675391137408608  0.1669922184440083  0.5532565391339838
  0.6663605958360490  0.4987322755025190  0.0544177163574560
  0.6720645680876898  0.5013083482361225  0.5561672729658030
  0.6682076528962981  0.8325267413201204  0.0547986039362548
  0.6673252140081901  0.8333048115427266  0.5531713353176019
  0.4970221229251406 -0.0001899095709919  0.1279491268948601
  0.4959518670289826  0.0007366129740020  0.6269638698615303
  0.4969971713898181  0.3324120206723320  0.1420810816811602
  0.4960496565371095  0.3347551737574399  0.6192496332368468
  0.4968329672930926  0.6668852956166942  0.1271566196485150
  0.4952808012517145  0.6675242306952995  0.6271157043812168
  0.0049172192692133  0.1659808563698681  0.3730936832396579
  0.0028977533806065  0.1669288685364224  0.8721612222137483
  0.0043269350052293  0.5005361011840227  0.3728774476046486
  0.0029152792933370  0.5004353291378257  0.8723813260929638
  0.0044472142024381  0.8336372954834936  0.3731346523178803
  0.0025329608947875  0.8339789470759141  0.8718559831082187
  0.1722289026919616  0.0012315377261888  0.2797972169861133
  0.1736303871342081  0.0007412136251904  0.7814674855246402
  0.1704558929238444  0.3333478075401568  0.2794631209653730
  0.1733535689063062  0.3335191179385540  0.7814445421737378
  0.1718132938209702  0.6684734909556576  0.2795259337674030
  0.1737113656546060  0.6661053585439184  0.7816054286133238
  0.3257582879026711  0.1658238898973048  0.2186425843116469
  0.3283746230250331  0.1674637539339818  0.7200114718667378
  0.3233701404345241  0.5022582972999109  0.2176929875511537
  0.3284009016981850  0.4996227389719803  0.7200260747166954
  0.3263559594336747  0.8356107755259344  0.2184370372093581
  0.3278634345064385  0.8335900331697069  0.7200821439991869
  0.3320426738671785  0.1678718919261415  0.4452941403399638
  0.3348064610472719  0.1674933629404650  0.9467160704636326
  0.3250676656672820  0.5020053550305386  0.4459442284866769
  0.3358256126095004  0.4987775422796996  0.9478892828707953
  0.3285561860949205  0.8363412124771916  0.4458280742648901
  0.3331747121287407  0.8334156814059767  0.9463694314469129
  0.1674302818792288  0.0006003143550968  0.0532077924160356
  0.1685595257823538  0.0004946690241812  0.5550429017592378
  0.1668031740985169  0.3336879477099528  0.0536096083387457
  0.1678347512167695  0.3330919759782395  0.5548807563295600
  0.1670101597377151  0.6679842960410207  0.0529326846242957
  0.1677609516469616  0.6669020729274352  0.5550024809135481
  0.5944638181895422  0.4838345454126828  0.4000185170219194
  0.5000878796895284  0.3362962809825662  0.3639661480989440
 
  0.00000000E+00  0.00000000E+00  0.00000000E+00
  0.00000000E+00  0.00000000E+00  0.00000000E+00
  0.00000000E+00  0.00000000E+00  0.00000000E+00
  0.00000000E+00  0.00000000E+00  0.00000000E+00
  0.00000000E+00  0.00000000E+00  0.00000000E+00
  0.00000000E+00  0.00000000E+00  0.00000000E+00
  0.00000000E+00  0.00000000E+00  0.00000000E+00
  0.00000000E+00  0.00000000E+00  0.00000000E+00
  0.00000000E+00  0.00000000E+00  0.00000000E+00
  0.00000000E+00  0.00000000E+00  0.00000000E+00
  0.00000000E+00  0.00000000E+00  0.00000000E+00
  0.00000000E+00  0.00000000E+00  0.00000000E+00
  0.00000000E+00  0.00000000E+00  0.00000000E+00
  0.00000000E+00  0.00000000E+00  0.00000000E+00
  0.00000000E+00  0.00000000E+00  0.00000000E+00
  0.00000000E+00  0.00000000E+00  0.00000000E+00
  0.00000000E+00  0.00000000E+00  0.00000000E+00
  0.00000000E+00  0.00000000E+00  0.00000000E+00
  0.00000000E+00  0.00000000E+00  0.00000000E+00
  0.00000000E+00  0.00000000E+00  0.00000000E+00
  0.00000000E+00  0.00000000E+00  0.00000000E+00
  0.00000000E+00  0.00000000E+00  0.00000000E+00
  0.00000000E+00  0.00000000E+00  0.00000000E+00
  0.00000000E+00  0.00000000E+00  0.00000000E+00
  0.00000000E+00  0.00000000E+00  0.00000000E+00
  0.00000000E+00  0.00000000E+00  0.00000000E+00
  0.00000000E+00  0.00000000E+00  0.00000000E+00
  0.00000000E+00  0.00000000E+00  0.00000000E+00
  0.00000000E+00  0.00000000E+00  0.00000000E+00
  0.00000000E+00  0.00000000E+00  0.00000000E+00
  0.00000000E+00  0.00000000E+00  0.00000000E+00
  0.00000000E+00  0.00000000E+00  0.00000000E+00
  0.00000000E+00  0.00000000E+00  0.00000000E+00
  0.00000000E+00  0.00000000E+00  0.00000000E+00
  0.00000000E+00  0.00000000E+00  0.00000000E+00
  0.00000000E+00  0.00000000E+00  0.00000000E+00
  0.00000000E+00  0.00000000E+00  0.00000000E+00
  0.00000000E+00  0.00000000E+00  0.00000000E+00
  0.00000000E+00  0.00000000E+00  0.00000000E+00
  0.00000000E+00  0.00000000E+00  0.00000000E+00
  0.00000000E+00  0.00000000E+00  0.00000000E+00
  0.00000000E+00  0.00000000E+00  0.00000000E+00
  0.00000000E+00  0.00000000E+00  0.00000000E+00
  0.00000000E+00  0.00000000E+00  0.00000000E+00
  0.00000000E+00  0.00000000E+00  0.00000000E+00
  0.00000000E+00  0.00000000E+00  0.00000000E+00
  0.00000000E+00  0.00000000E+00  0.00000000E+00
  0.00000000E+00  0.00000000E+00  0.00000000E+00
  0.00000000E+00  0.00000000E+00  0.00000000E+00
  0.00000000E+00  0.00000000E+00  0.00000000E+00
  0.00000000E+00  0.00000000E+00  0.00000000E+00
  0.00000000E+00  0.00000000E+00  0.00000000E+00
  0.00000000E+00  0.00000000E+00  0.00000000E+00
  0.00000000E+00  0.00000000E+00  0.00000000E+00
  0.00000000E+00  0.00000000E+00  0.00000000E+00
  0.00000000E+00  0.00000000E+00  0.00000000E+00
  0.00000000E+00  0.00000000E+00  0.00000000E+00
  0.00000000E+00  0.00000000E+00  0.00000000E+00
  0.00000000E+00  0.00000000E+00  0.00000000E+00
  0.00000000E+00  0.00000000E+00  0.00000000E+00
  0.00000000E+00  0.00000000E+00  0.00000000E+00
  0.00000000E+00  0.00000000E+00  0.00000000E+00
  0.00000000E+00  0.00000000E+00  0.00000000E+00
  0.00000000E+00  0.00000000E+00  0.00000000E+00
  0.00000000E+00  0.00000000E+00  0.00000000E+00
  0.00000000E+00  0.00000000E+00  0.00000000E+00
  0.00000000E+00  0.00000000E+00  0.00000000E+00
  0.00000000E+00  0.00000000E+00  0.00000000E+00
  0.00000000E+00  0.00000000E+00  0.00000000E+00
  0.00000000E+00  0.00000000E+00  0.00000000E+00
  0.00000000E+00  0.00000000E+00  0.00000000E+00
  0.00000000E+00  0.00000000E+00  0.00000000E+00
  0.00000000E+00  0.00000000E+00  0.00000000E+00
  0.00000000E+00  0.00000000E+00  0.00000000E+00
  0.00000000E+00  0.00000000E+00  0.00000000E+00
  0.00000000E+00  0.00000000E+00  0.00000000E+00
  0.00000000E+00  0.00000000E+00  0.00000000E+00
  0.00000000E+00  0.00000000E+00  0.00000000E+00
  0.00000000E+00  0.00000000E+00  0.00000000E+00
  0.00000000E+00  0.00000000E+00  0.00000000E+00
  0.00000000E+00  0.00000000E+00  0.00000000E+00
  0.00000000E+00  0.00000000E+00  0.00000000E+00
  0.00000000E+00  0.00000000E+00  0.00000000E+00
  0.00000000E+00  0.00000000E+00  0.00000000E+00
  0.00000000E+00  0.00000000E+00  0.00000000E+00
  0.00000000E+00  0.00000000E+00  0.00000000E+00
  0.00000000E+00  0.00000000E+00  0.00000000E+00
  0.00000000E+00  0.00000000E+00  0.00000000E+00
  0.00000000E+00  0.00000000E+00  0.00000000E+00
  0.00000000E+00  0.00000000E+00  0.00000000E+00
  0.00000000E+00  0.00000000E+00  0.00000000E+00
  0.00000000E+00  0.00000000E+00  0.00000000E+00
  0.00000000E+00  0.00000000E+00  0.00000000E+00
  0.00000000E+00  0.00000000E+00  0.00000000E+00
  0.00000000E+00  0.00000000E+00  0.00000000E+00
  0.00000000E+00  0.00000000E+00  0.00000000E+00
  0.00000000E+00  0.00000000E+00  0.00000000E+00
  0.00000000E+00  0.00000000E+00  0.00000000E+00
  0.00000000E+00  0.00000000E+00  0.00000000E+00
  0.00000000E+00  0.00000000E+00  0.00000000E+00
  0.00000000E+00  0.00000000E+00  0.00000000E+00
  0.00000000E+00  0.00000000E+00  0.00000000E+00
  0.00000000E+00  0.00000000E+00  0.00000000E+00
  0.00000000E+00  0.00000000E+00  0.00000000E+00
  0.00000000E+00  0.00000000E+00  0.00000000E+00
  0.00000000E+00  0.00000000E+00  0.00000000E+00
  0.00000000E+00  0.00000000E+00  0.00000000E+00
  0.00000000E+00  0.00000000E+00  0.00000000E+00
  0.00000000E+00  0.00000000E+00  0.00000000E+00
  0.00000000E+00  0.00000000E+00  0.00000000E+00
  0.00000000E+00  0.00000000E+00  0.00000000E+00
  0.00000000E+00  0.00000000E+00  0.00000000E+00
  0.00000000E+00  0.00000000E+00  0.00000000E+00
  0.00000000E+00  0.00000000E+00  0.00000000E+00
  0.00000000E+00  0.00000000E+00  0.00000000E+00
  0.00000000E+00  0.00000000E+00  0.00000000E+00
  0.00000000E+00  0.00000000E+00  0.00000000E+00
  0.00000000E+00  0.00000000E+00  0.00000000E+00
  0.00000000E+00  0.00000000E+00  0.00000000E+00
  0.00000000E+00  0.00000000E+00  0.00000000E+00
