Ga48 O72                                
    1.000000000000000     
     0.0000000000000000   12.2804734172212839    0.0000000000000000
     9.1427020537309431    0.0000000000000000    0.0000000000000000
     0.0000000000000000   -2.7682617730220320  -11.3006977184464645
   Ga   O    P 
    47    71     1
Direct
  0.6467755548860505  0.0047765470987285  0.1548594308631730
  0.6654508971002320  0.0049581221833651  0.6626134517565748
  0.6464816299961537  0.3337637653482523  0.1560878178210285
  0.6648951315884918  0.3276183402585213  0.6596836557903148
  0.6443981949835768  0.6718445127112330  0.1579555161477032
  0.6651675300810299  0.6642419124431334  0.6616315965977320
  0.8307978803280208  0.1710217865530401  0.3412992442191051
  0.8562405122687058  0.1609034623596688  0.8575547944690128
  0.8309351275889368  0.4990447118058925  0.3406272984754844
  0.8488117808161357  0.4948737666146047  0.8408677696894523
  0.8287780150080507  0.8346030305571599  0.3447569672852323
  0.8427734178848320  0.8273609850675708  0.8490800566665201
  0.5739653228202005  0.1671004469288501  0.3935140627835561
  0.5835260680609629  0.1711755283682355  0.8966717206899125
  0.5948165237616893  0.5068972904923373  0.4056966190177327
  0.6000065484293984  0.5045170883548282  0.8979206368472928
  0.5873102405055112  0.8337084230163675  0.4031018421162209
  0.5941901233090412  0.8373001067716561  0.8981095323196840
  0.9053389041278895 -0.0101682743583492  0.1101487652360781
  0.9005566934168995 -0.0324952878124733  0.6020400025714147
  0.9095136205214026  0.3605291245442509  0.1022226832474965
  0.9130645043148768  0.3343267617715918  0.6018525528247072
  0.8925461288159107  0.6223925399796212  0.1052252460936630
  0.8990231546119122  0.7041860893401130  0.5976215302789807
  0.1492327093603216  0.1623678546235693  0.6678233247830258
  0.1779544534975520  0.4768277314912695  0.1574850159197496
  0.1478137287985623  0.5026013099325024  0.6557855936807575
  0.1337153763818840  0.8281592016948538  0.1299773581637201
  0.1762822415134217  0.8327958448551853  0.6471010241428163
  0.3305613396878364  0.0040955350257345  0.3329106485703252
  0.3401625974835416  0.0070651614353155  0.8487720041970382
  0.3408899162017743  0.3323782497126296  0.3505149695109135
  0.3404806173737846  0.3410267402380971  0.8339480169910289
  0.3340051209439867  0.6708012490225884  0.3402840255899119
  0.3470431856085504  0.6668980325488973  0.8330727373226706
  0.0851404098448572  0.0014122340097772  0.3977846764040832
  0.1179868732845070 -0.0185473945572526  0.9452613812261268
  0.0868100075371878  0.3301626245126941  0.3950298513891072
  0.1048563568499427  0.3301903791690648  0.9322995425824513
  0.0853911342486407  0.6663521853458535  0.3894824626395287
  0.0910022036657974  0.6644354918366807  0.8921721438675084
  0.3677358514333861  0.1836628772379178  0.0944489123505830
  0.4100023775143467  0.1659852647962739  0.6056370437091620
  0.4017576784539506  0.5053579713111785  0.0967054983129313
  0.4132845826196233  0.4988841962416984  0.6009346473435628
  0.3891833016007658  0.8607688353962599  0.0956003783889646
  0.4163972346723286  0.8338209520734550  0.5948275002055285
  0.9551863518925040  0.1725104935892913  0.1331761515396759
  0.9868386076037646  0.1538252911060375  0.6314187388155903
  0.0492862880557902  0.4029447563502585  0.0634299732873020
  0.9851580177587342  0.5167396764039415  0.6116867073386677
  0.9712787222108442  0.8018806832149725  0.1248880892274437
  0.0298640398786127  0.8337173646850993  0.6384031653332815
  0.4969230362344952 -0.0065341423726613  0.3910899071371167
  0.5031251951196689 -0.0017880911669212  0.8616761132580870
  0.5065048727055192  0.3460691896185192  0.3961371939413084
  0.5079480796295797  0.3458795390041590  0.8598342082628669
  0.5015478936725267  0.6671825773376686  0.3849938438264927
  0.5103046387258595  0.6685029470713147  0.8632542302386548
  0.6586231187573157  0.1693871964484502  0.2795592220382880
  0.6714012131835010  0.1677913846348828  0.7827678155889978
  0.6573812732439750  0.5023306328217039  0.2766405452780751
  0.6744278751663432  0.4956144303131380  0.7774802041468235
  0.6584956980009584  0.8370061381267888  0.2801347423573556
  0.6753971347702818  0.8327104684539417  0.7807161772024878
  0.8145186762502385 -0.0065981778329445  0.2208357868934893
  0.8293461281438569  0.0102958412186388  0.7330292823553047
  0.8123672584000587  0.3348308960501009  0.2257252515595982
  0.8322319983932083  0.3273688775171652  0.7203506887789842
  0.8103003652413728  0.6724750226557522  0.2219738370537916
  0.8269981283298961  0.6555422930901372  0.7246069272765810
  0.8188402424609189  0.0084159562300244  0.4394186167163470
  0.8289994825273519 -0.0092995676637621  0.9511412943330148
  0.8223318845872122  0.3364968537190708  0.4490004296692898
  0.8276745661570621  0.3334249153125569  0.9404530882283897
  0.8146682536900390  0.6598493933802336  0.4385278403670431
  0.8220295840044778  0.6582382039647429  0.9425241919395112
  0.6632747177113804  0.1709377843137104  0.0527998395910682
  0.6646812670757418  0.1647015567288109  0.5511267250998473
  0.6617365558730803  0.5041691902889343  0.0570739758652127
  0.6744551536618165  0.4990452927771442  0.5598005291504475
  0.6630310081926222  0.8355586577143964  0.0559423382253374
  0.6627654791964941  0.8339058876462935  0.5596606889539470
  0.4916272803128124  0.0123226254476339  0.1244504140702058
  0.5010670167893688  0.0015650094743739  0.6302067623071206
  0.4881873435569205  0.3390336497225416  0.1234322248265609
  0.5005763869219354  0.3319428376170777  0.6282916306268383
  0.4844209530036042  0.6793740195055802  0.1206163524444167
  0.5022461742595586  0.6649964223399787  0.6280641647173473
 -0.0082878568486540  0.1706024555129572  0.3893183019770550
  0.0219192360314228  0.1556376534923418  0.8980052955808911
 -0.0053541191682294  0.4987046622272471  0.3596677631652025
  0.0087775723814220  0.4928898731435095  0.8525681423404352
 -0.0073044554312176  0.8303848608959985  0.3825055465031249
 -0.0044767665175897  0.8209993237668075  0.8590275934488214
  0.1800308268421101  0.0073656522481448  0.7952930320105315
  0.1800493041800726  0.3531235293976450  0.2938806126578160
  0.1714929978485207  0.3335739930134213  0.7881737431629978
  0.1644721504368735  0.6585824746006455  0.2705097644177127
  0.1803671162537699  0.6600417002475986  0.7802657190312654
  0.3775742317422087  0.1794795257616373  0.2559235869545164
  0.3232797794910842  0.1712383089362134  0.7142171003367491
  0.3385574370605052  0.5071232880614518  0.2295280047499502
  0.3262769518570228  0.4993947895476670  0.7111242780885881
  0.3380387083357059  0.8232337145455311  0.2291015035051951
  0.3339789515366404  0.8321819614594583  0.7119755508074986
  0.3287136698581362  0.1711163522376487  0.4548654361091163
  0.3748060025449269  0.1818146246355190  0.9346516846314865
  0.3324797400852457  0.5053637450219722  0.4485367743388581
  0.3473402228418185  0.5088207404775291  0.9354258155994875
  0.3241046831819621  0.8328315139554022  0.4465488840974607
  0.3458517655056468  0.8259278571586732  0.9336859398976413
  0.2731074840641600  0.0206348071575003  0.0528433722005145
  0.1703271428089405  0.0094640735114654  0.5546934234843474
  0.2452934508059662  0.3368844788541940  0.0543115415070782
  0.1522731839992357  0.3319958270957627  0.5575594340223728
  0.1756667749244473  0.6489688611006383  0.0495216589813602
  0.1716259574365732  0.6585246683121919  0.5447763351788221
  0.1490587907574201  0.0400807317453461  0.2387875302453291
 
  0.00000000E+00  0.00000000E+00  0.00000000E+00
  0.00000000E+00  0.00000000E+00  0.00000000E+00
  0.00000000E+00  0.00000000E+00  0.00000000E+00
  0.00000000E+00  0.00000000E+00  0.00000000E+00
  0.00000000E+00  0.00000000E+00  0.00000000E+00
  0.00000000E+00  0.00000000E+00  0.00000000E+00
  0.00000000E+00  0.00000000E+00  0.00000000E+00
  0.00000000E+00  0.00000000E+00  0.00000000E+00
  0.00000000E+00  0.00000000E+00  0.00000000E+00
  0.00000000E+00  0.00000000E+00  0.00000000E+00
  0.00000000E+00  0.00000000E+00  0.00000000E+00
  0.00000000E+00  0.00000000E+00  0.00000000E+00
  0.00000000E+00  0.00000000E+00  0.00000000E+00
  0.00000000E+00  0.00000000E+00  0.00000000E+00
  0.00000000E+00  0.00000000E+00  0.00000000E+00
  0.00000000E+00  0.00000000E+00  0.00000000E+00
  0.00000000E+00  0.00000000E+00  0.00000000E+00
  0.00000000E+00  0.00000000E+00  0.00000000E+00
  0.00000000E+00  0.00000000E+00  0.00000000E+00
  0.00000000E+00  0.00000000E+00  0.00000000E+00
  0.00000000E+00  0.00000000E+00  0.00000000E+00
  0.00000000E+00  0.00000000E+00  0.00000000E+00
  0.00000000E+00  0.00000000E+00  0.00000000E+00
  0.00000000E+00  0.00000000E+00  0.00000000E+00
  0.00000000E+00  0.00000000E+00  0.00000000E+00
  0.00000000E+00  0.00000000E+00  0.00000000E+00
  0.00000000E+00  0.00000000E+00  0.00000000E+00
  0.00000000E+00  0.00000000E+00  0.00000000E+00
  0.00000000E+00  0.00000000E+00  0.00000000E+00
  0.00000000E+00  0.00000000E+00  0.00000000E+00
  0.00000000E+00  0.00000000E+00  0.00000000E+00
  0.00000000E+00  0.00000000E+00  0.00000000E+00
  0.00000000E+00  0.00000000E+00  0.00000000E+00
  0.00000000E+00  0.00000000E+00  0.00000000E+00
  0.00000000E+00  0.00000000E+00  0.00000000E+00
  0.00000000E+00  0.00000000E+00  0.00000000E+00
  0.00000000E+00  0.00000000E+00  0.00000000E+00
  0.00000000E+00  0.00000000E+00  0.00000000E+00
  0.00000000E+00  0.00000000E+00  0.00000000E+00
  0.00000000E+00  0.00000000E+00  0.00000000E+00
  0.00000000E+00  0.00000000E+00  0.00000000E+00
  0.00000000E+00  0.00000000E+00  0.00000000E+00
  0.00000000E+00  0.00000000E+00  0.00000000E+00
  0.00000000E+00  0.00000000E+00  0.00000000E+00
  0.00000000E+00  0.00000000E+00  0.00000000E+00
  0.00000000E+00  0.00000000E+00  0.00000000E+00
  0.00000000E+00  0.00000000E+00  0.00000000E+00
  0.00000000E+00  0.00000000E+00  0.00000000E+00
  0.00000000E+00  0.00000000E+00  0.00000000E+00
  0.00000000E+00  0.00000000E+00  0.00000000E+00
  0.00000000E+00  0.00000000E+00  0.00000000E+00
  0.00000000E+00  0.00000000E+00  0.00000000E+00
  0.00000000E+00  0.00000000E+00  0.00000000E+00
  0.00000000E+00  0.00000000E+00  0.00000000E+00
  0.00000000E+00  0.00000000E+00  0.00000000E+00
  0.00000000E+00  0.00000000E+00  0.00000000E+00
  0.00000000E+00  0.00000000E+00  0.00000000E+00
  0.00000000E+00  0.00000000E+00  0.00000000E+00
  0.00000000E+00  0.00000000E+00  0.00000000E+00
  0.00000000E+00  0.00000000E+00  0.00000000E+00
  0.00000000E+00  0.00000000E+00  0.00000000E+00
  0.00000000E+00  0.00000000E+00  0.00000000E+00
  0.00000000E+00  0.00000000E+00  0.00000000E+00
  0.00000000E+00  0.00000000E+00  0.00000000E+00
  0.00000000E+00  0.00000000E+00  0.00000000E+00
  0.00000000E+00  0.00000000E+00  0.00000000E+00
  0.00000000E+00  0.00000000E+00  0.00000000E+00
  0.00000000E+00  0.00000000E+00  0.00000000E+00
  0.00000000E+00  0.00000000E+00  0.00000000E+00
  0.00000000E+00  0.00000000E+00  0.00000000E+00
  0.00000000E+00  0.00000000E+00  0.00000000E+00
  0.00000000E+00  0.00000000E+00  0.00000000E+00
  0.00000000E+00  0.00000000E+00  0.00000000E+00
  0.00000000E+00  0.00000000E+00  0.00000000E+00
  0.00000000E+00  0.00000000E+00  0.00000000E+00
  0.00000000E+00  0.00000000E+00  0.00000000E+00
  0.00000000E+00  0.00000000E+00  0.00000000E+00
  0.00000000E+00  0.00000000E+00  0.00000000E+00
  0.00000000E+00  0.00000000E+00  0.00000000E+00
  0.00000000E+00  0.00000000E+00  0.00000000E+00
  0.00000000E+00  0.00000000E+00  0.00000000E+00
  0.00000000E+00  0.00000000E+00  0.00000000E+00
  0.00000000E+00  0.00000000E+00  0.00000000E+00
  0.00000000E+00  0.00000000E+00  0.00000000E+00
  0.00000000E+00  0.00000000E+00  0.00000000E+00
  0.00000000E+00  0.00000000E+00  0.00000000E+00
  0.00000000E+00  0.00000000E+00  0.00000000E+00
  0.00000000E+00  0.00000000E+00  0.00000000E+00
  0.00000000E+00  0.00000000E+00  0.00000000E+00
  0.00000000E+00  0.00000000E+00  0.00000000E+00
  0.00000000E+00  0.00000000E+00  0.00000000E+00
  0.00000000E+00  0.00000000E+00  0.00000000E+00
  0.00000000E+00  0.00000000E+00  0.00000000E+00
  0.00000000E+00  0.00000000E+00  0.00000000E+00
  0.00000000E+00  0.00000000E+00  0.00000000E+00
  0.00000000E+00  0.00000000E+00  0.00000000E+00
  0.00000000E+00  0.00000000E+00  0.00000000E+00
  0.00000000E+00  0.00000000E+00  0.00000000E+00
  0.00000000E+00  0.00000000E+00  0.00000000E+00
  0.00000000E+00  0.00000000E+00  0.00000000E+00
  0.00000000E+00  0.00000000E+00  0.00000000E+00
  0.00000000E+00  0.00000000E+00  0.00000000E+00
  0.00000000E+00  0.00000000E+00  0.00000000E+00
  0.00000000E+00  0.00000000E+00  0.00000000E+00
  0.00000000E+00  0.00000000E+00  0.00000000E+00
  0.00000000E+00  0.00000000E+00  0.00000000E+00
  0.00000000E+00  0.00000000E+00  0.00000000E+00
  0.00000000E+00  0.00000000E+00  0.00000000E+00
  0.00000000E+00  0.00000000E+00  0.00000000E+00
  0.00000000E+00  0.00000000E+00  0.00000000E+00
  0.00000000E+00  0.00000000E+00  0.00000000E+00
  0.00000000E+00  0.00000000E+00  0.00000000E+00
  0.00000000E+00  0.00000000E+00  0.00000000E+00
  0.00000000E+00  0.00000000E+00  0.00000000E+00
  0.00000000E+00  0.00000000E+00  0.00000000E+00
  0.00000000E+00  0.00000000E+00  0.00000000E+00
  0.00000000E+00  0.00000000E+00  0.00000000E+00
  0.00000000E+00  0.00000000E+00  0.00000000E+00
  0.00000000E+00  0.00000000E+00  0.00000000E+00
