Ga48 O72                                
    1.000000000000000     
     0.0000000000000000   12.2804734172212839    0.0000000000000000
     9.1427020537309431    0.0000000000000000    0.0000000000000000
     0.0000000000000000   -2.7682617730220320  -11.3006977184464645
   Ga   O    P 
    47    71     1
Direct
  0.6595703142106119 -0.0006605599025251  0.1587382432705568
  0.6592488466345681 -0.0020221124158223  0.6565315682704598
  0.6580581702620044  0.3312714253397093  0.1598348592757205
  0.6589058592826853  0.3311481839476425  0.6572205319312641
  0.6599686494167484  0.6668605855956490  0.1589761042502291
  0.6589469640839307  0.6646265234401854  0.6578565429096939
  0.8462347333363281  0.1624603745710781  0.3456989626958306
  0.8402015895258379  0.1644978751909381  0.8421931195696487
  0.8418423716732039  0.4994175669885314  0.3451157945420327
  0.8408255245286268  0.4996350938284874  0.8428342180351911
  0.8455146249654106  0.8337203514763607  0.3460013887066957
  0.8403678136134520  0.8324667072835192  0.8436370225252121
  0.5904835867772941  0.1626213615937926  0.3978835301669130
  0.5914410249099477  0.1647435876646177  0.8994151471153021
  0.5939324770558260  0.5008907677657669  0.4002021422131962
  0.5925670067182810  0.4978245723311320  0.8998109016633481
  0.5890302190866594  0.8339667826124127  0.3976366069499491
  0.5905120906520762  0.8314682675612090  0.8991676589246116
  0.9099149125495729  0.0059693731734004  0.1036578419354381
  0.9111195606060134 -0.0024141146546202  0.6024146078272707
  0.8988110317487460  0.3480835072813728  0.0994948356684394
  0.9096598351784703  0.3310952933551144  0.6040227848772795
  0.9086312769824394  0.6759465663208446  0.1032798362255993
  0.9094640085348734  0.6650295181225340  0.6037163071149145
  0.1597680809726062  0.1606611174521282  0.6540879738226123
  0.1565725808405119  0.5074172155106437  0.1612626118356434
  0.1592805502596899  0.4978980737562088  0.6585050601063145
  0.1611953864858548  0.8334816004585792  0.1496325726324661
  0.1601445739267155  0.8328347743417780  0.6527876664189038
  0.3309740275099065  0.0017673466867663  0.3449750666229263
  0.3401283118518702 -0.0022562290429356  0.8455214738098700
  0.3472072544737654  0.3312234868621654  0.3438498708740645
  0.3413231306838680  0.3301737959624204  0.8450163151552835
  0.3408571971867075  0.6654979757423325  0.3455339306787105
  0.3408310228768012  0.6637544381132452  0.8443327972245640
  0.1178581783797348 -0.0082953435020882  0.3806687730907538
  0.0918456796260164 -0.0083830776133456  0.8967867817626187
  0.0858975109069560  0.3265021302105621  0.4017432916798773
  0.0905430815533539  0.3235541192391984  0.8980931067951858
  0.0894757939433495  0.6672238918538196  0.3987165997448074
  0.0906450714278121  0.6606524991043595  0.8956769850734306
  0.4067676860536234  0.1644578195199550  0.1062081473560202
  0.4092283738631875  0.1650401921575497  0.6047215316665492
  0.4094455650989441  0.4990509224808869  0.1035133846497076
  0.4075002987650023  0.4971459954713312  0.6022573247691138
  0.4087049840915249  0.8331054629211749  0.1039507116799687
  0.4106313556971860  0.8307470323849313  0.6052841752693903
 -0.0052765284338190  0.1830379430734395  0.1231320435935706
  0.9973182748726245  0.1650071868577353  0.6289808726681249
 -0.0059224015872749  0.5070388888589263  0.1265433063014834
  0.9967719721311061  0.4981198666232169  0.6304230088778479
 -0.0002490088206144  0.8411187432226130  0.1298005095556029
  0.9975429321847564  0.8305360490028523  0.6293446402219302
  0.4994327021169279 -0.0012479953921832  0.3752751330013427
  0.5032024804146354 -0.0014870825049912  0.8745466734511497
  0.5079583235604777  0.3338612619960930  0.3760464173367035
  0.5040723846371470  0.3317971122810825  0.8747968633655371
  0.5032433636703326  0.6647516052152780  0.3724956155399593
  0.5038595076063062  0.6636347438849679  0.8750373611305744
  0.6740831771315799  0.1649950137354184  0.2823830492479071
  0.6723458984972256  0.1641141343376101  0.7811607825068131
  0.6741114630785957  0.5001357746855937  0.2823150993710835
  0.6726100464539263  0.4984875053314822  0.7812244832454295
  0.6737717205338124  0.8337016971046757  0.2824483526468812
  0.6723571333982951  0.8317963582322908  0.7816683387194482
  0.8291409716858100  0.0015220014133849  0.2197705311353613
  0.8279088165265805 -0.0027589869117999  0.7197300969739375
  0.8275337127825677  0.3334019635260695  0.2218285990236315
  0.8278470487232132  0.3308248570599573  0.7205358612765582
  0.8287295740374743  0.6685978162096293  0.2211224154644437
  0.8279174487053460  0.6641261084771147  0.7209702832039032
  0.8310611445341778 -0.0015346025897276  0.4471230688272982
  0.8336830793395457  0.0005127121378797  0.9477300128655222
  0.8364834074137533  0.3304075433879692  0.4464196928931924
  0.8285164513022354  0.3332296369366185  0.9435568125276766
  0.8335391974630544  0.6655734787396272  0.4470095343296269
  0.8320665043396365  0.6668385532873711  0.9469006904753974
  0.6691327373657132  0.1660081801745499  0.0559989930010383
  0.6681186947969600  0.1647580271439284  0.5548128155041472
  0.6698390647637100  0.4984023926183338  0.0569385764502377
  0.6709342585545113  0.4984707810020367  0.5562236699611312
  0.6686200992279792  0.8326670059705988  0.0556761829795366
  0.6667758976402607  0.8307125079467760  0.5546712944101908
  0.4965483242675323 -0.0009955842581991  0.1288362730580225
  0.4966848120872023 -0.0013848932312266  0.6289077088056588
  0.4960276557878455  0.3318511060552820  0.1286767152807840
  0.4967627328377555  0.3319838833926559  0.6283828946547950
  0.4964958381039727  0.6658877193586704  0.1295635985394655
  0.4966503754774355  0.6624437707408464  0.6283091209801088
  0.0089027357998302  0.1545435364837875  0.3693441429321632
  0.0029322338313615  0.1590180007731309  0.8748615601109917
  0.0041556502494252  0.4977398463978585  0.3733430632269580
  0.0050515277062597  0.4919448073823695  0.8783274897242416
  0.0068569739879605  0.8359554544793042  0.3741482680104181
  0.0020950652075172  0.8264156250994477  0.8727722762782913
  0.1728955575274460 -0.0032615395800687  0.7797009581438608
  0.1608645998553380  0.3337390631400003  0.2735243052154217
  0.1728330858043166  0.3294313829672328  0.7831606925437943
  0.1722484066409578  0.6659643756853886  0.2811672843252128
  0.1728505447437875  0.6636877287483230  0.7803294376256831
  0.3346263719830582  0.1693981476449078  0.2292365493630400
  0.3280518290834506  0.1648497381780300  0.7218706044053104
  0.3246284984217706  0.4958045347057110  0.2190056704312078
  0.3276528261037708  0.4965154160434402  0.7209288726072448
  0.3247704966367570  0.8334693028962439  0.2209852690305848
  0.3285146797040753  0.8299852057442133  0.7213628077360266
  0.3297322912970270  0.1720181749769659  0.4490262560535833
  0.3312574818796141  0.1653752985892520  0.9486540580582693
  0.3307983885051469  0.4957053529843348  0.4444635849177304
  0.3293834964586971  0.4964466558253126  0.9478058037249731
  0.3348808650555067  0.8284719982998637  0.4489518393140234
  0.3333974272894656  0.8297884896763514  0.9470447680585792
  0.1726216979657185 -0.0092464839259471  0.0493844082163445
  0.1679083124760585 -0.0025573871804304  0.5523861056458165
  0.1565209940696062  0.3166136416373715  0.0662288510171784
  0.1674603973114795  0.3317415323313994  0.5557745916395499
  0.1678099692792210  0.6613618907517860  0.0530073398565154
  0.1690390608693500  0.6625027979593988  0.5545154103832896
  0.1400907562370327  0.1870632209409103  0.1655378586170601
 
  0.00000000E+00  0.00000000E+00  0.00000000E+00
  0.00000000E+00  0.00000000E+00  0.00000000E+00
  0.00000000E+00  0.00000000E+00  0.00000000E+00
  0.00000000E+00  0.00000000E+00  0.00000000E+00
  0.00000000E+00  0.00000000E+00  0.00000000E+00
  0.00000000E+00  0.00000000E+00  0.00000000E+00
  0.00000000E+00  0.00000000E+00  0.00000000E+00
  0.00000000E+00  0.00000000E+00  0.00000000E+00
  0.00000000E+00  0.00000000E+00  0.00000000E+00
  0.00000000E+00  0.00000000E+00  0.00000000E+00
  0.00000000E+00  0.00000000E+00  0.00000000E+00
  0.00000000E+00  0.00000000E+00  0.00000000E+00
  0.00000000E+00  0.00000000E+00  0.00000000E+00
  0.00000000E+00  0.00000000E+00  0.00000000E+00
  0.00000000E+00  0.00000000E+00  0.00000000E+00
  0.00000000E+00  0.00000000E+00  0.00000000E+00
  0.00000000E+00  0.00000000E+00  0.00000000E+00
  0.00000000E+00  0.00000000E+00  0.00000000E+00
  0.00000000E+00  0.00000000E+00  0.00000000E+00
  0.00000000E+00  0.00000000E+00  0.00000000E+00
  0.00000000E+00  0.00000000E+00  0.00000000E+00
  0.00000000E+00  0.00000000E+00  0.00000000E+00
  0.00000000E+00  0.00000000E+00  0.00000000E+00
  0.00000000E+00  0.00000000E+00  0.00000000E+00
  0.00000000E+00  0.00000000E+00  0.00000000E+00
  0.00000000E+00  0.00000000E+00  0.00000000E+00
  0.00000000E+00  0.00000000E+00  0.00000000E+00
  0.00000000E+00  0.00000000E+00  0.00000000E+00
  0.00000000E+00  0.00000000E+00  0.00000000E+00
  0.00000000E+00  0.00000000E+00  0.00000000E+00
  0.00000000E+00  0.00000000E+00  0.00000000E+00
  0.00000000E+00  0.00000000E+00  0.00000000E+00
  0.00000000E+00  0.00000000E+00  0.00000000E+00
  0.00000000E+00  0.00000000E+00  0.00000000E+00
  0.00000000E+00  0.00000000E+00  0.00000000E+00
  0.00000000E+00  0.00000000E+00  0.00000000E+00
  0.00000000E+00  0.00000000E+00  0.00000000E+00
  0.00000000E+00  0.00000000E+00  0.00000000E+00
  0.00000000E+00  0.00000000E+00  0.00000000E+00
  0.00000000E+00  0.00000000E+00  0.00000000E+00
  0.00000000E+00  0.00000000E+00  0.00000000E+00
  0.00000000E+00  0.00000000E+00  0.00000000E+00
  0.00000000E+00  0.00000000E+00  0.00000000E+00
  0.00000000E+00  0.00000000E+00  0.00000000E+00
  0.00000000E+00  0.00000000E+00  0.00000000E+00
  0.00000000E+00  0.00000000E+00  0.00000000E+00
  0.00000000E+00  0.00000000E+00  0.00000000E+00
  0.00000000E+00  0.00000000E+00  0.00000000E+00
  0.00000000E+00  0.00000000E+00  0.00000000E+00
  0.00000000E+00  0.00000000E+00  0.00000000E+00
  0.00000000E+00  0.00000000E+00  0.00000000E+00
  0.00000000E+00  0.00000000E+00  0.00000000E+00
  0.00000000E+00  0.00000000E+00  0.00000000E+00
  0.00000000E+00  0.00000000E+00  0.00000000E+00
  0.00000000E+00  0.00000000E+00  0.00000000E+00
  0.00000000E+00  0.00000000E+00  0.00000000E+00
  0.00000000E+00  0.00000000E+00  0.00000000E+00
  0.00000000E+00  0.00000000E+00  0.00000000E+00
  0.00000000E+00  0.00000000E+00  0.00000000E+00
  0.00000000E+00  0.00000000E+00  0.00000000E+00
  0.00000000E+00  0.00000000E+00  0.00000000E+00
  0.00000000E+00  0.00000000E+00  0.00000000E+00
  0.00000000E+00  0.00000000E+00  0.00000000E+00
  0.00000000E+00  0.00000000E+00  0.00000000E+00
  0.00000000E+00  0.00000000E+00  0.00000000E+00
  0.00000000E+00  0.00000000E+00  0.00000000E+00
  0.00000000E+00  0.00000000E+00  0.00000000E+00
  0.00000000E+00  0.00000000E+00  0.00000000E+00
  0.00000000E+00  0.00000000E+00  0.00000000E+00
  0.00000000E+00  0.00000000E+00  0.00000000E+00
  0.00000000E+00  0.00000000E+00  0.00000000E+00
  0.00000000E+00  0.00000000E+00  0.00000000E+00
  0.00000000E+00  0.00000000E+00  0.00000000E+00
  0.00000000E+00  0.00000000E+00  0.00000000E+00
  0.00000000E+00  0.00000000E+00  0.00000000E+00
  0.00000000E+00  0.00000000E+00  0.00000000E+00
  0.00000000E+00  0.00000000E+00  0.00000000E+00
  0.00000000E+00  0.00000000E+00  0.00000000E+00
  0.00000000E+00  0.00000000E+00  0.00000000E+00
  0.00000000E+00  0.00000000E+00  0.00000000E+00
  0.00000000E+00  0.00000000E+00  0.00000000E+00
  0.00000000E+00  0.00000000E+00  0.00000000E+00
  0.00000000E+00  0.00000000E+00  0.00000000E+00
  0.00000000E+00  0.00000000E+00  0.00000000E+00
  0.00000000E+00  0.00000000E+00  0.00000000E+00
  0.00000000E+00  0.00000000E+00  0.00000000E+00
  0.00000000E+00  0.00000000E+00  0.00000000E+00
  0.00000000E+00  0.00000000E+00  0.00000000E+00
  0.00000000E+00  0.00000000E+00  0.00000000E+00
  0.00000000E+00  0.00000000E+00  0.00000000E+00
  0.00000000E+00  0.00000000E+00  0.00000000E+00
  0.00000000E+00  0.00000000E+00  0.00000000E+00
  0.00000000E+00  0.00000000E+00  0.00000000E+00
  0.00000000E+00  0.00000000E+00  0.00000000E+00
  0.00000000E+00  0.00000000E+00  0.00000000E+00
  0.00000000E+00  0.00000000E+00  0.00000000E+00
  0.00000000E+00  0.00000000E+00  0.00000000E+00
  0.00000000E+00  0.00000000E+00  0.00000000E+00
  0.00000000E+00  0.00000000E+00  0.00000000E+00
  0.00000000E+00  0.00000000E+00  0.00000000E+00
  0.00000000E+00  0.00000000E+00  0.00000000E+00
  0.00000000E+00  0.00000000E+00  0.00000000E+00
  0.00000000E+00  0.00000000E+00  0.00000000E+00
  0.00000000E+00  0.00000000E+00  0.00000000E+00
  0.00000000E+00  0.00000000E+00  0.00000000E+00
  0.00000000E+00  0.00000000E+00  0.00000000E+00
  0.00000000E+00  0.00000000E+00  0.00000000E+00
  0.00000000E+00  0.00000000E+00  0.00000000E+00
  0.00000000E+00  0.00000000E+00  0.00000000E+00
  0.00000000E+00  0.00000000E+00  0.00000000E+00
  0.00000000E+00  0.00000000E+00  0.00000000E+00
  0.00000000E+00  0.00000000E+00  0.00000000E+00
  0.00000000E+00  0.00000000E+00  0.00000000E+00
  0.00000000E+00  0.00000000E+00  0.00000000E+00
  0.00000000E+00  0.00000000E+00  0.00000000E+00
  0.00000000E+00  0.00000000E+00  0.00000000E+00
  0.00000000E+00  0.00000000E+00  0.00000000E+00
  0.00000000E+00  0.00000000E+00  0.00000000E+00
  0.00000000E+00  0.00000000E+00  0.00000000E+00
