Ga N  O                                 
    1.000000000000000     
    12.2804737091000007    0.0000000000000000    0.0000000000000000
     0.0000000000000000    9.1427021028000013    0.0000000000000000
    -2.7682616410000001    0.0000000000000000   11.3006974810000003
   Ga   N    O 
    48     1    71
Direct
  0.6586081693478136  0.0000000027527440  0.1566306753443102
  0.1597047640635222  0.1668944377977447  0.6562203125157055
  0.8403448326474862  0.1664567958375156  0.3433270167471500
  0.5910899242530200  0.1667346847077300  0.3980081327293362
  0.9082300630919347  0.0000000111608193  0.1023664707566710
  0.1582595028583759  0.1664578308807254  0.1561515620734763
  0.3410192662393325  0.0000000132780037  0.3433346892906426
  0.0912223754010947 -0.0000000052887704  0.3974079153390608
  0.4087849140201181  0.1669110451213189  0.1023447113640588
  0.6589953643657537  0.6668410154375839  0.1565387048293371
  0.4087849761274043  0.8330889870127161  0.1023446277292767
  0.4106140585267266  0.5000000383661960  0.6075036038423767
  0.8403448540150904  0.8335432010633710  0.3433269488632713
  0.3409470612547803  0.3332655703519815  0.8440528138538955
  0.1590166010773082  0.5000000020147625  0.6568731916169116
  0.9089431693448548  0.3332710659774611  0.6021425825850034
  0.0907288287561653  0.6668849217696680  0.8970201009442980
  0.6594826119421561 -0.0000000165599872  0.6569098149843781
  0.8411670472077565  0.1664629466644634  0.8434479264210910
  0.5911680288478385  0.1666780900710784  0.8975835439591530
  0.9095995302119322 -0.0000000102542653  0.6022455819758699
  0.0907288463485840  0.3331150680264834  0.8970201973830352
  0.3410447662615230  0.0000000018183556  0.8429611158073618
  0.0913461055375879  0.0000000162145956  0.8972558079764795
  0.4096370906798686  0.8331660816039824  0.6020661470109074
  0.0893682180131710  0.6670384521334324  0.3968975795086590
  0.1582594750677769  0.8335421881703345  0.1561513988246197
  0.3409470857740111  0.6667344311654451  0.8440527428214358
  0.1597047874027780  0.8331055520387628  0.6562203139847256
  0.9089431717714148  0.6667289372406118  0.6021425300974030
  0.8411670603394801  0.8335370526134622  0.8434478779124043
  0.6598194194558968  0.6668192253019970  0.6570909364340610
  0.5915022395925260  0.4999999903097035  0.8980709772848302
  0.8411580278923391  0.5000000011163769  0.8435663860340603
  0.6598194168233374  0.3331807781145709  0.6570909826665933
  0.5910899679215676  0.8332653148108312  0.3980081133333430
  0.5911680134600685  0.8333219213603862  0.8975834742329707
  0.9088193829673157  0.6666011577493671  0.1023570702447796
  0.4096372297023653  0.1668338449226243  0.6020664821547107
  0.4089874599590337  0.4999999969474683  0.1020861644734821
  0.0893681324401200  0.3329615595421487  0.3968976668283992
  0.3395558130413437  0.6684983227277190  0.3429541431890266
  0.1590690732372867  0.4999999945090295  0.1556445550904822
  0.3395557772817723  0.3315016048918216  0.3429547375938635
  0.5914366509461464  0.4999999825803453  0.3978589467512963
  0.8401924587957007  0.5000000048680919  0.3431445380388222
  0.6589953574074482  0.3331589917121768  0.1565387730097868
  0.9088193604723913  0.3333988385884871  0.1023570916060203
  0.3374801883186724  0.5000001501831508  0.4467108060704927
  0.1727885767851511 -0.0000000058868470  0.7801123494741562
  0.3276926506242277  0.1670523393230758  0.7192166786726921
  0.0035820301162098  0.1663393178592666  0.8721725318758665
  0.1720653006301593  0.0000000031962251  0.2799180009769910
  0.9958284413204599  0.1664076694946816  0.1271210861261760
  0.5037941724037142 -0.0000000163088410  0.3724148426563303
  0.4959650429826795  0.0000000304637357  0.1271081841571411
  0.8270076573950096  0.0000000049581030  0.2196451125921124
  0.8316737633637310 -0.0000000214893096  0.4459612834227765
  0.6679716429754601  0.1664527699623118  0.0542782025274980
  0.0029650829569684  0.1660237949758153  0.3729733016265055
  0.3270127404883105  0.1668678598136035  0.2194251210423304
  0.8323805091754456  0.3332401812012699  0.9456970340860401
  0.4970280674143988 -0.0000000749550717  0.6276631801261242
  0.6721925558042496  0.1667140259943639  0.2804709067590763
  0.8278854901777791  0.3332848577242172  0.7195366100338717
  0.8273705793979631  0.3331566369525316  0.2195565760948524
  0.5037552096306913  0.3334692299206525  0.8739614505220910
  0.3321429591860021  0.1644669103072312  0.4459178311914199
  0.3318238945664488  0.1664850769515599  0.9457023979990045
  0.1678346712340972  0.0000000006371019  0.5540083908395211
  0.9962543116079876  0.4999999877526488  0.1268785757255050
  0.5036096796264934  0.3335866960456763  0.3727809125709735
  0.6723721659516028  0.4999999935067158  0.2803667721551419
  0.6731399783061046  0.5000000053750369  0.7810843018837504
  0.8317338326899782  0.3332606504014147  0.4456934228839555
  0.4965343725383493  0.3332468934497625  0.1271655010041789
  0.0025827840495577  0.5000000275811056  0.3726604844107033
  0.1707366225797478  0.3331823096274945  0.2797096616663891
  0.3261578359182385  0.5000000126297534  0.2166389719180947
  0.3318239161986647  0.8335149114628437  0.9457023297562476
  0.9964773997352134  0.4999999995527066  0.6265305299285422
  0.6684626672095546  0.4999999850186918  0.0545636798415339
  0.1677834108891215  0.0000000437163950  0.0539698182348063
  0.8323805251100914  0.6667598277284611  0.9456970134090771
  0.5035944983681457  0.0000000139913210  0.8728677900042273
  0.6732025491783818  0.8337080930694685  0.7809775277232768
  0.8278855016256068  0.6667151289274514  0.7195365782674188
  0.4981703978075576  0.3325506307533920  0.6307292703973985
  0.6681483780383726  0.8333390312062975  0.5544358663779604
  0.4981704054402985  0.6674494174069012  0.6307292126496948
  0.0035820410227199  0.8336607002587370  0.8721725001717971
  0.5037552225687529  0.6665307581061196  0.8739614220912989
  0.1722291795964459  0.6669316000486031  0.7797988519888313
  0.6721925634439415  0.8332859828098186  0.2804708604521563
  0.1707365849733860  0.6668176989639051  0.2797094919862950
  0.9958284360273135  0.8335923504038166  0.1271210374616692
  0.3275210724214672  0.4999999896138336  0.7221016008935321
  0.3313102777432075  0.5000000186561867  0.9459729743144130
  0.1688506970579438  0.3346286182108524  0.5530335502938992
  0.3276926666436664  0.8329476583200117  0.7192165622490624
  0.9969757050569038  0.8329982021231640  0.6264922849264358
  0.1670267289035544  0.6673301162559244  0.0536121079735313
  0.3321428899506885  0.8355329514672880  0.4459175436217251
  0.6732025257749557  0.1662918948176280  0.7809775539831175
  0.8280056379448669  0.0000000076713650  0.7192999959618591
  0.8321410975530784 -0.0000000070992198  0.9456985297317674
  0.6681483396132504  0.1666609669626533  0.5544358914640155
  0.6681005908974812  0.4999999874242010  0.5545422091114093
  0.1670267528760088  0.3326698554693703  0.0536122052446085
  0.0036188693005570  0.4999999872782309  0.8720974480326835
  0.5036097294596517  0.6664133027513663  0.3727808474993082
  0.8273705749359707  0.6668433635553062  0.2195565323445871
  0.8317338131399313  0.6667393709266114  0.4456933829011787
  0.6679716075475599  0.8335472556590131  0.0542781519638904
  0.4965343836455247  0.6667531033142707  0.1271654731998638
  0.0029651062571978  0.8339761824109910  0.3729732534815883
  0.1722291662816641  0.3330684020719810  0.7797989007962581
  0.3270127206417013  0.8331321819408157  0.2194249401659510
  0.9969756939604288  0.1670017910392027  0.6264922951188655
  0.1688506827499528  0.6653713688441126  0.5530335108336369
 
  0.00000000E+00  0.00000000E+00  0.00000000E+00
  0.00000000E+00  0.00000000E+00  0.00000000E+00
  0.00000000E+00  0.00000000E+00  0.00000000E+00
  0.00000000E+00  0.00000000E+00  0.00000000E+00
  0.00000000E+00  0.00000000E+00  0.00000000E+00
  0.00000000E+00  0.00000000E+00  0.00000000E+00
  0.00000000E+00  0.00000000E+00  0.00000000E+00
  0.00000000E+00  0.00000000E+00  0.00000000E+00
  0.00000000E+00  0.00000000E+00  0.00000000E+00
  0.00000000E+00  0.00000000E+00  0.00000000E+00
  0.00000000E+00  0.00000000E+00  0.00000000E+00
  0.00000000E+00  0.00000000E+00  0.00000000E+00
  0.00000000E+00  0.00000000E+00  0.00000000E+00
  0.00000000E+00  0.00000000E+00  0.00000000E+00
  0.00000000E+00  0.00000000E+00  0.00000000E+00
  0.00000000E+00  0.00000000E+00  0.00000000E+00
  0.00000000E+00  0.00000000E+00  0.00000000E+00
  0.00000000E+00  0.00000000E+00  0.00000000E+00
  0.00000000E+00  0.00000000E+00  0.00000000E+00
  0.00000000E+00  0.00000000E+00  0.00000000E+00
  0.00000000E+00  0.00000000E+00  0.00000000E+00
  0.00000000E+00  0.00000000E+00  0.00000000E+00
  0.00000000E+00  0.00000000E+00  0.00000000E+00
  0.00000000E+00  0.00000000E+00  0.00000000E+00
  0.00000000E+00  0.00000000E+00  0.00000000E+00
  0.00000000E+00  0.00000000E+00  0.00000000E+00
  0.00000000E+00  0.00000000E+00  0.00000000E+00
  0.00000000E+00  0.00000000E+00  0.00000000E+00
  0.00000000E+00  0.00000000E+00  0.00000000E+00
  0.00000000E+00  0.00000000E+00  0.00000000E+00
  0.00000000E+00  0.00000000E+00  0.00000000E+00
  0.00000000E+00  0.00000000E+00  0.00000000E+00
  0.00000000E+00  0.00000000E+00  0.00000000E+00
  0.00000000E+00  0.00000000E+00  0.00000000E+00
  0.00000000E+00  0.00000000E+00  0.00000000E+00
  0.00000000E+00  0.00000000E+00  0.00000000E+00
  0.00000000E+00  0.00000000E+00  0.00000000E+00
  0.00000000E+00  0.00000000E+00  0.00000000E+00
  0.00000000E+00  0.00000000E+00  0.00000000E+00
  0.00000000E+00  0.00000000E+00  0.00000000E+00
  0.00000000E+00  0.00000000E+00  0.00000000E+00
  0.00000000E+00  0.00000000E+00  0.00000000E+00
  0.00000000E+00  0.00000000E+00  0.00000000E+00
  0.00000000E+00  0.00000000E+00  0.00000000E+00
  0.00000000E+00  0.00000000E+00  0.00000000E+00
  0.00000000E+00  0.00000000E+00  0.00000000E+00
  0.00000000E+00  0.00000000E+00  0.00000000E+00
  0.00000000E+00  0.00000000E+00  0.00000000E+00
  0.00000000E+00  0.00000000E+00  0.00000000E+00
  0.00000000E+00  0.00000000E+00  0.00000000E+00
  0.00000000E+00  0.00000000E+00  0.00000000E+00
  0.00000000E+00  0.00000000E+00  0.00000000E+00
  0.00000000E+00  0.00000000E+00  0.00000000E+00
  0.00000000E+00  0.00000000E+00  0.00000000E+00
  0.00000000E+00  0.00000000E+00  0.00000000E+00
  0.00000000E+00  0.00000000E+00  0.00000000E+00
  0.00000000E+00  0.00000000E+00  0.00000000E+00
  0.00000000E+00  0.00000000E+00  0.00000000E+00
  0.00000000E+00  0.00000000E+00  0.00000000E+00
  0.00000000E+00  0.00000000E+00  0.00000000E+00
  0.00000000E+00  0.00000000E+00  0.00000000E+00
  0.00000000E+00  0.00000000E+00  0.00000000E+00
  0.00000000E+00  0.00000000E+00  0.00000000E+00
  0.00000000E+00  0.00000000E+00  0.00000000E+00
  0.00000000E+00  0.00000000E+00  0.00000000E+00
  0.00000000E+00  0.00000000E+00  0.00000000E+00
  0.00000000E+00  0.00000000E+00  0.00000000E+00
  0.00000000E+00  0.00000000E+00  0.00000000E+00
  0.00000000E+00  0.00000000E+00  0.00000000E+00
  0.00000000E+00  0.00000000E+00  0.00000000E+00
  0.00000000E+00  0.00000000E+00  0.00000000E+00
  0.00000000E+00  0.00000000E+00  0.00000000E+00
  0.00000000E+00  0.00000000E+00  0.00000000E+00
  0.00000000E+00  0.00000000E+00  0.00000000E+00
  0.00000000E+00  0.00000000E+00  0.00000000E+00
  0.00000000E+00  0.00000000E+00  0.00000000E+00
  0.00000000E+00  0.00000000E+00  0.00000000E+00
  0.00000000E+00  0.00000000E+00  0.00000000E+00
  0.00000000E+00  0.00000000E+00  0.00000000E+00
  0.00000000E+00  0.00000000E+00  0.00000000E+00
  0.00000000E+00  0.00000000E+00  0.00000000E+00
  0.00000000E+00  0.00000000E+00  0.00000000E+00
  0.00000000E+00  0.00000000E+00  0.00000000E+00
  0.00000000E+00  0.00000000E+00  0.00000000E+00
  0.00000000E+00  0.00000000E+00  0.00000000E+00
  0.00000000E+00  0.00000000E+00  0.00000000E+00
  0.00000000E+00  0.00000000E+00  0.00000000E+00
  0.00000000E+00  0.00000000E+00  0.00000000E+00
  0.00000000E+00  0.00000000E+00  0.00000000E+00
  0.00000000E+00  0.00000000E+00  0.00000000E+00
  0.00000000E+00  0.00000000E+00  0.00000000E+00
  0.00000000E+00  0.00000000E+00  0.00000000E+00
  0.00000000E+00  0.00000000E+00  0.00000000E+00
  0.00000000E+00  0.00000000E+00  0.00000000E+00
  0.00000000E+00  0.00000000E+00  0.00000000E+00
  0.00000000E+00  0.00000000E+00  0.00000000E+00
  0.00000000E+00  0.00000000E+00  0.00000000E+00
  0.00000000E+00  0.00000000E+00  0.00000000E+00
  0.00000000E+00  0.00000000E+00  0.00000000E+00
  0.00000000E+00  0.00000000E+00  0.00000000E+00
  0.00000000E+00  0.00000000E+00  0.00000000E+00
  0.00000000E+00  0.00000000E+00  0.00000000E+00
  0.00000000E+00  0.00000000E+00  0.00000000E+00
  0.00000000E+00  0.00000000E+00  0.00000000E+00
  0.00000000E+00  0.00000000E+00  0.00000000E+00
  0.00000000E+00  0.00000000E+00  0.00000000E+00
  0.00000000E+00  0.00000000E+00  0.00000000E+00
  0.00000000E+00  0.00000000E+00  0.00000000E+00
  0.00000000E+00  0.00000000E+00  0.00000000E+00
  0.00000000E+00  0.00000000E+00  0.00000000E+00
  0.00000000E+00  0.00000000E+00  0.00000000E+00
  0.00000000E+00  0.00000000E+00  0.00000000E+00
  0.00000000E+00  0.00000000E+00  0.00000000E+00
  0.00000000E+00  0.00000000E+00  0.00000000E+00
  0.00000000E+00  0.00000000E+00  0.00000000E+00
  0.00000000E+00  0.00000000E+00  0.00000000E+00
  0.00000000E+00  0.00000000E+00  0.00000000E+00
  0.00000000E+00  0.00000000E+00  0.00000000E+00
  0.00000000E+00  0.00000000E+00  0.00000000E+00
  0.00000000E+00  0.00000000E+00  0.00000000E+00
