Ga48 O72                                
    1.000000000000000     
     0.0000000000000000   12.2804734172212839    0.0000000000000000
     9.1427020537309431    0.0000000000000000    0.0000000000000000
     0.0000000000000000   -2.7682617730220320  -11.3006977184464645
   Ga   O    N 
    48    71     1
Direct
  0.6589215097678220  0.0000000000000000  0.1563808838063139
  0.6595843469403562  0.0000000000000000  0.6566806976227539
  0.6589323107015730  0.3335089645456790  0.1565000510903545
  0.6592764959504862  0.3335007941953378  0.6565126973563125
  0.6589323107015730  0.6664910354543281  0.1565000510903545
  0.6592764959504862  0.6664992058046622  0.6565126973563125
  0.8404326837175304  0.1667262545157797  0.3430456175138943
  0.8408057304384045  0.1667886308718423  0.8434902668414708
  0.8406561387389928  0.5000000000000000  0.3431754050264288
  0.8412848366637675  0.5000000000000000  0.8433615067609850
  0.8404326837175304  0.8332737454842203  0.3430456175138943
  0.8408057304384045  0.8332113691281577  0.8434902668414708
  0.5909914503761797  0.1666596036456411  0.3976570631607075
  0.5910469543585535  0.1666366401329071  0.8975799868184140
  0.5904679182170227  0.5000000000000000  0.3975488511389500
  0.5917313144328702  0.5000000000000000  0.8976041014144016
  0.5909914503761797  0.8333403963543589  0.3976570631607075
  0.5910469543585535  0.8333633598670929  0.8975799868184140
  0.9085663089031044  0.0000000000000000  0.1022001978316851
  0.9088728885046891  0.0000000000000000  0.6023850965253601
  0.9087335733559598  0.3333599907152589  0.1023986460637829
  0.9087488998042019  0.3333702389267401  0.6020892363362336
  0.9087335733559598  0.6666400092847411  0.1023986460637829
  0.9087488998042019  0.6666297610732599  0.6020892363362336
  0.1588363721350774  0.1666722200931332  0.1560485841899748
  0.1607717305058358  0.1674276951947320  0.6559766582898234
  0.1587294881982615  0.5000000000000000  0.1565337265693714
  0.1588944413119222  0.5000000000000000  0.6566370271498272
  0.1588363721350774  0.8333277799068668  0.1560485841899748
  0.1607717305058358  0.8325723048052680  0.6559766582898234
  0.3406700163876195  0.0000000000000000  0.3429569432933093
  0.3409010368975487  0.0000000000000000  0.8446754148945459
  0.3403092351358481  0.3334163447856113  0.3434003732577509
  0.3415389744463866  0.3335867739473954  0.8438272485567921
  0.3403092351358481  0.6665836552143887  0.3434003732577509
  0.3415389744463866  0.6664132260526046  0.8438272485567921
  0.0905265753045228  0.0000000000000000  0.3947888003838003
  0.0908632840516646  0.0000000000000000  0.8978187847928467
  0.0904874778474607  0.3331704063966754  0.3977547604064924
  0.0911744303898558  0.3330553924310351  0.8971992819208126
  0.0904874778474607  0.6668295936033246  0.3977547604064924
  0.0911744303898558  0.6669446075689649  0.8971992819208126
  0.4093776320839098  0.1668977428599447  0.1031572907881610
  0.4101351455450413  0.1667635397291747  0.6033212398492296
  0.4087807250208542  0.5000000000000000  0.1026121154864370
  0.4086300992298177  0.5000000000000000  0.6025433746033926
  0.4093776320839098  0.8331022571400553  0.1031572907881610
  0.4101351455450413  0.8332364602708253  0.6033212398492296
  0.9961004412004044  0.1666200303752561  0.1264060499445279
  0.9964497392537197  0.1666063432722282  0.6282186641898875
  0.9962574041492402  0.5000000000000000  0.1271145154945543
  0.9960821246032978  0.5000000000000000  0.6275095653932325
  0.9961004412004044  0.8333799696247439  0.1264060499445279
  0.9964497392537197  0.8333936567277718  0.6282186641898875
  0.5033571766376426  0.0000000000000000  0.3730845969562324
  0.5037097347015305  0.0000000000000000  0.8732084941658798
  0.5030574733870878  0.3330164252912269  0.3730513945249712
  0.5041110050097899  0.3336523309548838  0.8730860084474230
  0.5030574733870878  0.6669835747087731  0.3730513945249712
  0.5041110050097899  0.6663476690451162  0.8730860084474230
  0.6722227874082662  0.1666747681693153  0.2804138411662507
  0.6724461870754155  0.1668261126260973  0.7803244962454059
  0.6721132627927915  0.5000000000000000  0.2805701628931985
  0.6728149676963753  0.5000000000000000  0.7801948914779331
  0.6722227874082662  0.8333252318306847  0.2804138411662507
  0.6724461870754155  0.8331738873739027  0.7803244962454059
  0.8268677103951703  0.0000000000000000  0.2191156141388930
  0.8274466915800929  0.0000000000000000  0.7196364367414745
  0.8268497015006631  0.3336510235524344  0.2191530101063961
  0.8275093335354669  0.3332888441002737  0.7195035105761391
  0.8268497015006631  0.6663489764475656  0.2191530101063961
  0.8275093335354669  0.6667111558997263  0.7195035105761391
  0.8321389574158999  0.0000000000000000  0.4457470038655345
  0.8316007313596927  0.0000000000000000  0.9456332734393342
  0.8318865337499943  0.3332931265929915  0.4456498123411876
  0.8318938527168740  0.3335324956131345  0.9457317218359620
  0.8318865337499943  0.6667068734070085  0.4456498123411876
  0.8318938527168740  0.6664675043868655  0.9457317218359620
  0.6677056454006589  0.1667557694465742  0.0541938648200357
  0.6680516425270113  0.1667348649049885  0.5541408160165631
  0.6680277616218930  0.5000000000000000  0.0542377392286468
  0.6680196920499029  0.5000000000000000  0.5539100060659976
  0.6677056454006589  0.8332442305534258  0.0541938648200357
  0.6680516425270113  0.8332651350950115  0.5541408160165631
  0.4964583565924698  0.0000000000000000  0.1279551232284604
  0.4971803260685377  0.0000000000000000  0.6272943987513884
  0.4965138812595598  0.3336724733838636  0.1278099044647050
  0.4966921954596941  0.3337917759401563  0.6269893349651525
  0.4965138812595598  0.6663275266161364  0.1278099044647050
  0.4966921954596941  0.6662082240598437  0.6269893349651525
  0.0021707996500169  0.1673026387917460  0.3694737162176551
  0.0032912362372812  0.1667383282260033  0.8727794730408078
  0.0030624423774768  0.5000000000000000  0.3721442232635113
  0.0039084445038000  0.5000000000000000  0.8726338588164140
  0.0021707996500169  0.8326973612082540  0.3694737162176551
  0.0032912362372812  0.8332616717739967  0.8727794730408078
  0.1723795489065836  0.0000000000000000  0.2782685044226412
  0.1741193717155483  0.0000000000000000  0.7837193298701735
  0.1723649354120909  0.3330312103722406  0.2805316317377446
  0.1729588360941108  0.3329561053005179  0.7802311192191667
  0.1723649354120909  0.6669687896277594  0.2805316317377446
  0.1729588360941108  0.6670438946994821  0.7802311192191667
  0.3276956845180905  0.1669771883904971  0.2201727943865492
  0.3297120426866940  0.1671996902924278  0.7210998322981652
  0.3270981898522010  0.5000000000000000  0.2195779151600519
  0.3279331596577961  0.5000000000000000  0.7201447307094426
  0.3276956845180905  0.8330228116095029  0.2201727943865492
  0.3297120426866940  0.8328003097075722  0.7210998322981652
  0.3316299145490049  0.1657175406151907  0.4467930200718442
  0.3329258959858237  0.1673691595935196  0.9466903701930249
  0.3322444888000433  0.5000000000000000  0.4458275767272326
  0.3320163883995022  0.5000000000000000  0.9460742444339232
  0.3316299145490049  0.8342824593848093  0.4467930200718442
  0.3329258959858237  0.8326308404064804  0.9466903701930249
  0.1682904356929598  0.0000000000000000  0.0540472783847363
  0.1678080091864373  0.3333571055550877  0.0540008117764543
  0.1679743518169516  0.3355865485080756  0.5539100532967467
  0.1678080091864373  0.6666428944449123  0.0540008117764543
  0.1679743518169516  0.6644134514919244  0.5539100532967467
  0.1655492590318204  0.0000000000000000  0.5538190804247876
 
  0.00000000E+00  0.00000000E+00  0.00000000E+00
  0.00000000E+00  0.00000000E+00  0.00000000E+00
  0.00000000E+00  0.00000000E+00  0.00000000E+00
  0.00000000E+00  0.00000000E+00  0.00000000E+00
  0.00000000E+00  0.00000000E+00  0.00000000E+00
  0.00000000E+00  0.00000000E+00  0.00000000E+00
  0.00000000E+00  0.00000000E+00  0.00000000E+00
  0.00000000E+00  0.00000000E+00  0.00000000E+00
  0.00000000E+00  0.00000000E+00  0.00000000E+00
  0.00000000E+00  0.00000000E+00  0.00000000E+00
  0.00000000E+00  0.00000000E+00  0.00000000E+00
  0.00000000E+00  0.00000000E+00  0.00000000E+00
  0.00000000E+00  0.00000000E+00  0.00000000E+00
  0.00000000E+00  0.00000000E+00  0.00000000E+00
  0.00000000E+00  0.00000000E+00  0.00000000E+00
  0.00000000E+00  0.00000000E+00  0.00000000E+00
  0.00000000E+00  0.00000000E+00  0.00000000E+00
  0.00000000E+00  0.00000000E+00  0.00000000E+00
  0.00000000E+00  0.00000000E+00  0.00000000E+00
  0.00000000E+00  0.00000000E+00  0.00000000E+00
  0.00000000E+00  0.00000000E+00  0.00000000E+00
  0.00000000E+00  0.00000000E+00  0.00000000E+00
  0.00000000E+00  0.00000000E+00  0.00000000E+00
  0.00000000E+00  0.00000000E+00  0.00000000E+00
  0.00000000E+00  0.00000000E+00  0.00000000E+00
  0.00000000E+00  0.00000000E+00  0.00000000E+00
  0.00000000E+00  0.00000000E+00  0.00000000E+00
  0.00000000E+00  0.00000000E+00  0.00000000E+00
  0.00000000E+00  0.00000000E+00  0.00000000E+00
  0.00000000E+00  0.00000000E+00  0.00000000E+00
  0.00000000E+00  0.00000000E+00  0.00000000E+00
  0.00000000E+00  0.00000000E+00  0.00000000E+00
  0.00000000E+00  0.00000000E+00  0.00000000E+00
  0.00000000E+00  0.00000000E+00  0.00000000E+00
  0.00000000E+00  0.00000000E+00  0.00000000E+00
  0.00000000E+00  0.00000000E+00  0.00000000E+00
  0.00000000E+00  0.00000000E+00  0.00000000E+00
  0.00000000E+00  0.00000000E+00  0.00000000E+00
  0.00000000E+00  0.00000000E+00  0.00000000E+00
  0.00000000E+00  0.00000000E+00  0.00000000E+00
  0.00000000E+00  0.00000000E+00  0.00000000E+00
  0.00000000E+00  0.00000000E+00  0.00000000E+00
  0.00000000E+00  0.00000000E+00  0.00000000E+00
  0.00000000E+00  0.00000000E+00  0.00000000E+00
  0.00000000E+00  0.00000000E+00  0.00000000E+00
  0.00000000E+00  0.00000000E+00  0.00000000E+00
  0.00000000E+00  0.00000000E+00  0.00000000E+00
  0.00000000E+00  0.00000000E+00  0.00000000E+00
  0.00000000E+00  0.00000000E+00  0.00000000E+00
  0.00000000E+00  0.00000000E+00  0.00000000E+00
  0.00000000E+00  0.00000000E+00  0.00000000E+00
  0.00000000E+00  0.00000000E+00  0.00000000E+00
  0.00000000E+00  0.00000000E+00  0.00000000E+00
  0.00000000E+00  0.00000000E+00  0.00000000E+00
  0.00000000E+00  0.00000000E+00  0.00000000E+00
  0.00000000E+00  0.00000000E+00  0.00000000E+00
  0.00000000E+00  0.00000000E+00  0.00000000E+00
  0.00000000E+00  0.00000000E+00  0.00000000E+00
  0.00000000E+00  0.00000000E+00  0.00000000E+00
  0.00000000E+00  0.00000000E+00  0.00000000E+00
  0.00000000E+00  0.00000000E+00  0.00000000E+00
  0.00000000E+00  0.00000000E+00  0.00000000E+00
  0.00000000E+00  0.00000000E+00  0.00000000E+00
  0.00000000E+00  0.00000000E+00  0.00000000E+00
  0.00000000E+00  0.00000000E+00  0.00000000E+00
  0.00000000E+00  0.00000000E+00  0.00000000E+00
  0.00000000E+00  0.00000000E+00  0.00000000E+00
  0.00000000E+00  0.00000000E+00  0.00000000E+00
  0.00000000E+00  0.00000000E+00  0.00000000E+00
  0.00000000E+00  0.00000000E+00  0.00000000E+00
  0.00000000E+00  0.00000000E+00  0.00000000E+00
  0.00000000E+00  0.00000000E+00  0.00000000E+00
  0.00000000E+00  0.00000000E+00  0.00000000E+00
  0.00000000E+00  0.00000000E+00  0.00000000E+00
  0.00000000E+00  0.00000000E+00  0.00000000E+00
  0.00000000E+00  0.00000000E+00  0.00000000E+00
  0.00000000E+00  0.00000000E+00  0.00000000E+00
  0.00000000E+00  0.00000000E+00  0.00000000E+00
  0.00000000E+00  0.00000000E+00  0.00000000E+00
  0.00000000E+00  0.00000000E+00  0.00000000E+00
  0.00000000E+00  0.00000000E+00  0.00000000E+00
  0.00000000E+00  0.00000000E+00  0.00000000E+00
  0.00000000E+00  0.00000000E+00  0.00000000E+00
  0.00000000E+00  0.00000000E+00  0.00000000E+00
  0.00000000E+00  0.00000000E+00  0.00000000E+00
  0.00000000E+00  0.00000000E+00  0.00000000E+00
  0.00000000E+00  0.00000000E+00  0.00000000E+00
  0.00000000E+00  0.00000000E+00  0.00000000E+00
  0.00000000E+00  0.00000000E+00  0.00000000E+00
  0.00000000E+00  0.00000000E+00  0.00000000E+00
  0.00000000E+00  0.00000000E+00  0.00000000E+00
  0.00000000E+00  0.00000000E+00  0.00000000E+00
  0.00000000E+00  0.00000000E+00  0.00000000E+00
  0.00000000E+00  0.00000000E+00  0.00000000E+00
  0.00000000E+00  0.00000000E+00  0.00000000E+00
  0.00000000E+00  0.00000000E+00  0.00000000E+00
  0.00000000E+00  0.00000000E+00  0.00000000E+00
  0.00000000E+00  0.00000000E+00  0.00000000E+00
  0.00000000E+00  0.00000000E+00  0.00000000E+00
  0.00000000E+00  0.00000000E+00  0.00000000E+00
  0.00000000E+00  0.00000000E+00  0.00000000E+00
  0.00000000E+00  0.00000000E+00  0.00000000E+00
  0.00000000E+00  0.00000000E+00  0.00000000E+00
  0.00000000E+00  0.00000000E+00  0.00000000E+00
  0.00000000E+00  0.00000000E+00  0.00000000E+00
  0.00000000E+00  0.00000000E+00  0.00000000E+00
  0.00000000E+00  0.00000000E+00  0.00000000E+00
  0.00000000E+00  0.00000000E+00  0.00000000E+00
  0.00000000E+00  0.00000000E+00  0.00000000E+00
  0.00000000E+00  0.00000000E+00  0.00000000E+00
  0.00000000E+00  0.00000000E+00  0.00000000E+00
  0.00000000E+00  0.00000000E+00  0.00000000E+00
  0.00000000E+00  0.00000000E+00  0.00000000E+00
  0.00000000E+00  0.00000000E+00  0.00000000E+00
  0.00000000E+00  0.00000000E+00  0.00000000E+00
  0.00000000E+00  0.00000000E+00  0.00000000E+00
  0.00000000E+00  0.00000000E+00  0.00000000E+00
  0.00000000E+00  0.00000000E+00  0.00000000E+00
  0.00000000E+00  0.00000000E+00  0.00000000E+00
  0.00000000E+00  0.00000000E+00  0.00000000E+00
