Ga8 O12                                 
    1.000000000000000     
     0.0000000000000000   12.2804737091000007    0.0000000000000000
     9.1427011490000005    0.0000000000000000    0.0000000000000000
     0.0000000000000000   -2.7682616411000001  -11.3006974810000003
   Ga   O    N    Fe
    47    71     1     1
Direct
  0.6592523933736629  0.9997312154789242  0.1572170891873341
  0.6587905313196387  0.9997925853649150  0.6558196940982199
  0.6588841902202347  0.3323924481665088  0.1556244846735098
  0.6581466339300093  0.3314373291384669  0.6580275835275771
  0.6579464589596853  0.6672824968982027  0.1563592081964416
  0.6568372177440693  0.6687521469033015  0.6576716675425729
  0.8409547451509880  0.1664374766442194  0.3431884838130799
  0.8409906150018855  0.1663714665407170  0.8435039753517728
  0.8415789229137260  0.5002820157673469  0.3427376616502187
  0.8406908182088486  0.5000833031432563  0.8428091935293338
  0.8409092621370391  0.8330910550398301  0.3434498013545380
  0.8408130690990703  0.8333765134004096  0.8433562197203415
  0.5915313092144672  0.1689758923926519  0.3973621447341955
  0.5907707275694278  0.1661708342242179  0.8977358681480183
  0.5904369022963749  0.4997809070989589  0.8974816948656468
  0.5910180985971607  0.8274395353885140  0.3974933978213144
  0.5908257988926309  0.8334072214579322  0.8980610213436293
  0.9092126300065217  0.0000397985104854  0.1024485887954896
  0.9085921417567633  0.9999838607420841  0.6024806894069243
  0.9090714475689339  0.3334284480067353  0.1021799610137819
  0.9086520158098850  0.3334430928979941  0.6017576137248142
  0.9087955111868098  0.6668073486885859  0.1022695250005157
  0.9088461327049018  0.6666194567307144  0.6021843326000251
  0.1597685939713074  0.1670712275292203  0.1575199768252844
  0.1586214032596445  0.1666542896853258  0.6566995399608970
  0.1588219567919751  0.5010158038842221  0.1561451938455818
  0.1591777911518832  0.5000837522011778  0.6565116136755904
  0.1595993338060069  0.8332368509316765  0.1578259612390909
  0.1586207610281321  0.8334954186693508  0.6567311486029865
  0.3433352695916057  0.0005214191803802  0.3431124179364460
  0.3404700865072954  0.9999736300467248  0.8429895851666629
  0.3419280352382827  0.3375611930444578  0.3442575691556229
  0.3406421253054006  0.3336737075098668  0.8434241803335780
  0.3440406009904891  0.6646699306012493  0.3436027382253499
  0.3407643278303070  0.6662305068683025  0.8435686731577832
  0.0907871352782053  0.0000747662473088  0.3973009792592777
  0.0910942865906108  0.9999593093523913  0.8982225860709363
  0.0918937994250797  0.3335480444599739  0.3976033990863925
  0.0909528574863430  0.3334085249367718  0.8977341148812812
  0.0920841339277061  0.6667387473605118  0.3974635392296335
  0.0907459065055747  0.6668604588367160  0.8974374395496838
  0.4085494446916371  0.1660445237739054  0.1017379331598178
  0.4085382838184017  0.1665556758170581  0.6026737482550502
  0.4098560176723396  0.5001466242085826  0.1036674458442803
  0.4083440422162425  0.5006618586657439  0.6011777905966724
  0.4084959938567749  0.8338337325497633  0.1015726554038494
  0.4083768770097862  0.8341028612685832  0.6026110030653911
  0.9965804185649176  0.1668719422516958  0.1275834262627029
  0.9958349353785962  0.1668510191301351  0.6268136462389577
  0.9963110479312647  0.5001552263860347  0.1272910070434676
  0.9962385161075460  0.4998739637287102  0.6269339935101641
  0.9963923544377451  0.8333040419059259  0.1272478051611401
  0.9959873041848013  0.8333119756070531  0.6272200251753048
  0.5061946003621287  0.9984026999827336  0.3730530473736238
  0.5032320472830136  0.9997928921363979  0.8728804017471390
  0.5034070974865585  0.3328413308175158  0.8726331774802603
  0.5085152979330303  0.6550807994033647  0.3751228938814322
  0.5034959992750316  0.6667786202411108  0.8731384881954298
  0.6735732166002677  0.1655591528825653  0.2795729686323867
  0.6725101581882242  0.1664236497835105  0.7808270729826461
  0.6692589532623643  0.5024813045211474  0.2783024489411545
  0.6719426422923860  0.4996300485982630  0.7801872677507973
  0.6727884766534444  0.8330044861369572  0.2803514927901176
  0.6723901779444077  0.8336693347684374  0.7808685155922319
  0.8280755393116834  0.9995998371494110  0.2197364119076539
  0.8273103819152539  0.9997502015095634  0.7197699029944289
  0.8272746945095832  0.3345173869783764  0.2195024757765651
  0.8265177235388350  0.3342064344594036  0.7184834007115555
  0.8272375685126150  0.6655589449512220  0.2196122224393093
  0.8261368696961711  0.6654718446602956  0.7183887012909125
  0.8323576321852713  0.9999347889740875  0.4458398665642491
  0.8322317474030285  0.9999643089433832  0.9459030769045995
  0.8300564554369387  0.3343245517045474  0.4452360134180964
  0.8322875076190570  0.3333679887276801  0.9454608921025951
  0.8313255121006620  0.6658111394224022  0.4456427826371865
  0.8320642947262371  0.6665791245158204  0.9454761160475655
  0.6684500299490779  0.1660957858107679  0.0538659982771890
  0.6686202694899919  0.1660993498965979  0.5549044851465936
  0.6677028215428535  0.4997109945019744  0.0539171626040797
  0.6605138008170215  0.5014407208442790  0.5536187534906460
  0.6684476059823510  0.8334204946709534  0.0542902280840778
  0.6675866556770984  0.8329308885336175  0.5544182744359034
  0.4964677321785516  0.9999660384581404  0.1263201002746186
  0.4963352633781639  0.0003198536885591  0.6282148794231972
  0.4963881060850568  0.3323522627088380  0.1275331748357473
  0.4956716616906149  0.3334675013891299  0.6268152317545130
  0.4958469336026283  0.6676779742818937  0.1261166531839564
  0.4951276796254120  0.6674406243413955  0.6291993711147938
  0.0035511127519214  0.1672819374115875  0.3728695289181587
  0.0034869657370749  0.1666534097674131  0.8725342566150047
  0.0041626958311767  0.5000459897048515  0.3731288781775888
  0.0033669345862890  0.5000389427062331  0.8724787085405552
  0.0036193452685040  0.8330278963604272  0.3728762888040151
  0.0032609003976702  0.8335101925895216  0.8721853018653647
  0.1736406501909897  0.0002847788381573  0.2812044132648026
  0.1717836147893195  0.0001781830801661  0.7802454342519596
  0.1733360021277477  0.3333141696578465  0.2805469895436445
  0.1722352826070619  0.3334460550414562  0.7804408007457226
  0.1729432503878314  0.6679993923924172  0.2802057522551280
  0.1723716420220640  0.6663609842007645  0.7804777695265273
  0.3286432003959234  0.1668547953434256  0.2199026679061689
  0.3270371244824375  0.1665846644563160  0.7195665157028230
  0.3255902582796324  0.5024868262839490  0.2179158596554345
  0.3275166835949221  0.4997993215569991  0.7196491164978056
  0.3291638167981645  0.8328964950092228  0.2203170166682966
  0.3268320731066936  0.8337510569123481  0.7195534373611423
  0.3344380846044430  0.1674676849588721  0.4454156116212715
  0.3315033787735686  0.1665977082386760  0.9453913996622347
  0.3260217938058645  0.5026179843293335  0.4466960420877157
  0.3328632186893827  0.4997383172257273  0.9465400076855417
  0.3354540287483303  0.8327557748312202  0.4449929907697054
  0.3312501573591433  0.8335257552891235  0.9452586079629768
  0.1681372814808739  0.0000191216600527  0.0548734519074117
  0.1679421491114326  0.0001014072094137  0.5539352276293386
  0.1676281480635495  0.3333941227179480  0.0543025700531174
  0.1678190196407883  0.3329308235405719  0.5544313889627830
  0.1673388051694573  0.6676542487156851  0.0538025749718472
  0.1674491134576641  0.6673208394655958  0.5545077629659119
  0.5073707579175135  0.3479726918504795  0.3734198251501297
  0.5984981413489265  0.4880975929960840  0.3992288154644470
 
  0.00000000E+00  0.00000000E+00  0.00000000E+00
  0.00000000E+00  0.00000000E+00  0.00000000E+00
  0.00000000E+00  0.00000000E+00  0.00000000E+00
  0.00000000E+00  0.00000000E+00  0.00000000E+00
  0.00000000E+00  0.00000000E+00  0.00000000E+00
  0.00000000E+00  0.00000000E+00  0.00000000E+00
  0.00000000E+00  0.00000000E+00  0.00000000E+00
  0.00000000E+00  0.00000000E+00  0.00000000E+00
  0.00000000E+00  0.00000000E+00  0.00000000E+00
  0.00000000E+00  0.00000000E+00  0.00000000E+00
  0.00000000E+00  0.00000000E+00  0.00000000E+00
  0.00000000E+00  0.00000000E+00  0.00000000E+00
  0.00000000E+00  0.00000000E+00  0.00000000E+00
  0.00000000E+00  0.00000000E+00  0.00000000E+00
  0.00000000E+00  0.00000000E+00  0.00000000E+00
  0.00000000E+00  0.00000000E+00  0.00000000E+00
  0.00000000E+00  0.00000000E+00  0.00000000E+00
  0.00000000E+00  0.00000000E+00  0.00000000E+00
  0.00000000E+00  0.00000000E+00  0.00000000E+00
  0.00000000E+00  0.00000000E+00  0.00000000E+00
  0.00000000E+00  0.00000000E+00  0.00000000E+00
  0.00000000E+00  0.00000000E+00  0.00000000E+00
  0.00000000E+00  0.00000000E+00  0.00000000E+00
  0.00000000E+00  0.00000000E+00  0.00000000E+00
  0.00000000E+00  0.00000000E+00  0.00000000E+00
  0.00000000E+00  0.00000000E+00  0.00000000E+00
  0.00000000E+00  0.00000000E+00  0.00000000E+00
  0.00000000E+00  0.00000000E+00  0.00000000E+00
  0.00000000E+00  0.00000000E+00  0.00000000E+00
  0.00000000E+00  0.00000000E+00  0.00000000E+00
  0.00000000E+00  0.00000000E+00  0.00000000E+00
  0.00000000E+00  0.00000000E+00  0.00000000E+00
  0.00000000E+00  0.00000000E+00  0.00000000E+00
  0.00000000E+00  0.00000000E+00  0.00000000E+00
  0.00000000E+00  0.00000000E+00  0.00000000E+00
  0.00000000E+00  0.00000000E+00  0.00000000E+00
  0.00000000E+00  0.00000000E+00  0.00000000E+00
  0.00000000E+00  0.00000000E+00  0.00000000E+00
  0.00000000E+00  0.00000000E+00  0.00000000E+00
  0.00000000E+00  0.00000000E+00  0.00000000E+00
  0.00000000E+00  0.00000000E+00  0.00000000E+00
  0.00000000E+00  0.00000000E+00  0.00000000E+00
  0.00000000E+00  0.00000000E+00  0.00000000E+00
  0.00000000E+00  0.00000000E+00  0.00000000E+00
  0.00000000E+00  0.00000000E+00  0.00000000E+00
  0.00000000E+00  0.00000000E+00  0.00000000E+00
  0.00000000E+00  0.00000000E+00  0.00000000E+00
  0.00000000E+00  0.00000000E+00  0.00000000E+00
  0.00000000E+00  0.00000000E+00  0.00000000E+00
  0.00000000E+00  0.00000000E+00  0.00000000E+00
  0.00000000E+00  0.00000000E+00  0.00000000E+00
  0.00000000E+00  0.00000000E+00  0.00000000E+00
  0.00000000E+00  0.00000000E+00  0.00000000E+00
  0.00000000E+00  0.00000000E+00  0.00000000E+00
  0.00000000E+00  0.00000000E+00  0.00000000E+00
  0.00000000E+00  0.00000000E+00  0.00000000E+00
  0.00000000E+00  0.00000000E+00  0.00000000E+00
  0.00000000E+00  0.00000000E+00  0.00000000E+00
  0.00000000E+00  0.00000000E+00  0.00000000E+00
  0.00000000E+00  0.00000000E+00  0.00000000E+00
  0.00000000E+00  0.00000000E+00  0.00000000E+00
  0.00000000E+00  0.00000000E+00  0.00000000E+00
  0.00000000E+00  0.00000000E+00  0.00000000E+00
  0.00000000E+00  0.00000000E+00  0.00000000E+00
  0.00000000E+00  0.00000000E+00  0.00000000E+00
  0.00000000E+00  0.00000000E+00  0.00000000E+00
  0.00000000E+00  0.00000000E+00  0.00000000E+00
  0.00000000E+00  0.00000000E+00  0.00000000E+00
  0.00000000E+00  0.00000000E+00  0.00000000E+00
  0.00000000E+00  0.00000000E+00  0.00000000E+00
  0.00000000E+00  0.00000000E+00  0.00000000E+00
  0.00000000E+00  0.00000000E+00  0.00000000E+00
  0.00000000E+00  0.00000000E+00  0.00000000E+00
  0.00000000E+00  0.00000000E+00  0.00000000E+00
  0.00000000E+00  0.00000000E+00  0.00000000E+00
  0.00000000E+00  0.00000000E+00  0.00000000E+00
  0.00000000E+00  0.00000000E+00  0.00000000E+00
  0.00000000E+00  0.00000000E+00  0.00000000E+00
  0.00000000E+00  0.00000000E+00  0.00000000E+00
  0.00000000E+00  0.00000000E+00  0.00000000E+00
  0.00000000E+00  0.00000000E+00  0.00000000E+00
  0.00000000E+00  0.00000000E+00  0.00000000E+00
  0.00000000E+00  0.00000000E+00  0.00000000E+00
  0.00000000E+00  0.00000000E+00  0.00000000E+00
  0.00000000E+00  0.00000000E+00  0.00000000E+00
  0.00000000E+00  0.00000000E+00  0.00000000E+00
  0.00000000E+00  0.00000000E+00  0.00000000E+00
  0.00000000E+00  0.00000000E+00  0.00000000E+00
  0.00000000E+00  0.00000000E+00  0.00000000E+00
  0.00000000E+00  0.00000000E+00  0.00000000E+00
  0.00000000E+00  0.00000000E+00  0.00000000E+00
  0.00000000E+00  0.00000000E+00  0.00000000E+00
  0.00000000E+00  0.00000000E+00  0.00000000E+00
  0.00000000E+00  0.00000000E+00  0.00000000E+00
  0.00000000E+00  0.00000000E+00  0.00000000E+00
  0.00000000E+00  0.00000000E+00  0.00000000E+00
  0.00000000E+00  0.00000000E+00  0.00000000E+00
  0.00000000E+00  0.00000000E+00  0.00000000E+00
  0.00000000E+00  0.00000000E+00  0.00000000E+00
  0.00000000E+00  0.00000000E+00  0.00000000E+00
  0.00000000E+00  0.00000000E+00  0.00000000E+00
  0.00000000E+00  0.00000000E+00  0.00000000E+00
  0.00000000E+00  0.00000000E+00  0.00000000E+00
  0.00000000E+00  0.00000000E+00  0.00000000E+00
  0.00000000E+00  0.00000000E+00  0.00000000E+00
  0.00000000E+00  0.00000000E+00  0.00000000E+00
  0.00000000E+00  0.00000000E+00  0.00000000E+00
  0.00000000E+00  0.00000000E+00  0.00000000E+00
  0.00000000E+00  0.00000000E+00  0.00000000E+00
  0.00000000E+00  0.00000000E+00  0.00000000E+00
  0.00000000E+00  0.00000000E+00  0.00000000E+00
  0.00000000E+00  0.00000000E+00  0.00000000E+00
  0.00000000E+00  0.00000000E+00  0.00000000E+00
  0.00000000E+00  0.00000000E+00  0.00000000E+00
  0.00000000E+00  0.00000000E+00  0.00000000E+00
  0.00000000E+00  0.00000000E+00  0.00000000E+00
  0.00000000E+00  0.00000000E+00  0.00000000E+00
  0.00000000E+00  0.00000000E+00  0.00000000E+00
  0.00000000E+00  0.00000000E+00  0.00000000E+00
  0.00000000E+00  0.00000000E+00  0.00000000E+00
