       N       E                     dE             d eps       ncg     rms          ort
SDA:   1    -0.954101932717E+03   -0.95410E+03    0.00000E+00  5040   0.262E+02 0.000E+00
CGA:   2    -0.959193918146E+03   -0.50920E+01   -0.50940E+01  5040   0.772E+01 0.192E+00
CGA:   3    -0.962123949718E+03   -0.29300E+01   -0.28613E+01  5040   0.265E+01 0.380E+00
CGA:   4    -0.962632926026E+03   -0.50898E+00   -0.51223E+00  5040   0.118E+01 0.546E-01
CGA:   5    -0.962988419725E+03   -0.35549E+00   -0.35227E+00  5040   0.376E+00 0.301E-01
CGA:   6    -0.963082333381E+03   -0.93914E-01   -0.93743E-01  5040   0.170E+00 0.309E-02
CGA:   7    -0.963120982822E+03   -0.38649E-01   -0.38633E-01  5040   0.387E-01 0.881E-03
CGA:   8    -0.963128632909E+03   -0.76501E-02   -0.76528E-02  5040   0.167E-01 0.142E-03
CGA:   9    -0.963131987880E+03   -0.33550E-02   -0.33559E-02  5040   0.554E-02 0.682E-04
CGA:  10    -0.963133356781E+03   -0.13689E-02   -0.13670E-02  5040   0.279E-02 0.552E-04
CGA:  11    -0.963134000196E+03   -0.64341E-03   -0.64256E-03  5040   0.116E-02 0.587E-04
CGA:  12    -0.963134264378E+03   -0.26418E-03   -0.26389E-03  5040   0.516E-03 0.343E-04
CGA:  13    -0.963134372715E+03   -0.10834E-03   -0.10849E-03  5040   0.201E-03 0.148E-04
CGA:  14    -0.963134422104E+03   -0.49389E-04   -0.49176E-04  5040   0.112E-03 0.909E-05
CGA:  15    -0.963134448444E+03   -0.26340E-04   -0.26297E-04  5040   0.663E-04 0.422E-05
CGA:  16    -0.963134465214E+03   -0.16770E-04   -0.16690E-04  5040   0.478E-04 0.300E-05
CGA:  17    -0.963134478406E+03   -0.13192E-04   -0.13179E-04  5040   0.366E-04 0.272E-06
CGA:  18    -0.963134490134E+03   -0.11729E-04   -0.11960E-04  5040   0.373E-04-0.220E-05
CGA:  19    -0.963134499775E+03   -0.96402E-05   -0.97625E-05  5040   0.333E-04-0.227E-05
   1 F= -.96313450E+03 E0= -.96313450E+03  d E =-.351216E-11
