Ga48 O72                                
    1.000000000000000     
     0.0000000000000000   12.2804734172212839    0.0000000000000000
     9.1427020537309431    0.0000000000000000    0.0000000000000000
     0.0000000000000000   -2.7682617730220320  -11.3006977184464645
   Ga   O    N 
    48    71     1
Direct
  0.6589562307045043  0.0000000000000000  0.1568666604608282
  0.6591744921689013  0.0000000000000000  0.6562726640476626
  0.6595185004725082  0.3334260641185196  0.1565741805670413
  0.6593086307822276  0.3333061982985157  0.6565674025234429
  0.6595185004725082  0.6665739358814804  0.1565741805670413
  0.6593086307822276  0.6666938017014843  0.6565674025234429
  0.8407159723481001  0.1665037466166410  0.3439274770144820
  0.8410451820884504  0.1665373365968748  0.8434948432219898
  0.8409617109657503  0.5000000000000000  0.3433817159960739
  0.8415062808214273  0.5000000000000000  0.8430253940883503
  0.8407159723481001  0.8334962533833590  0.3439274770144820
  0.8410451820884504  0.8334626634031252  0.8434948432219898
  0.5889567548511678  0.1657060382329405  0.3968189512567051
  0.5911448465067437  0.1667279934667505  0.8976083676129036
  0.5926938698137576  0.5000000000000000  0.3980846732275225
  0.5918761516389353  0.5000000000000000  0.8976573616312749
  0.5889567548511678  0.8342939617670666  0.3968189512567051
  0.5911448465067437  0.8332720065332495  0.8976083676129036
  0.9084637371990567  0.0000000000000000  0.1024528937774960
  0.9091176655560460  0.0000000000000000  0.6017939724263428
  0.9079744121805007  0.3334271313304384  0.1017280841317074
  0.9086785518975233  0.3332296898754663  0.6020249851644692
  0.9079744121805007  0.6665728686695687  0.1017280841317074
  0.9086785518975233  0.6667703101245337  0.6020249851644692
  0.1595600913601629  0.1606938463220544  0.1611999423477855
  0.1587462529004640  0.1658796502071169  0.6552187621765029
  0.1585336797058545  0.5000000000000000  0.1581584129007325
  0.1584501756016650  0.5000000000000000  0.6574920192487781
  0.1595600913601629  0.8393061536779456  0.1611999423477855
  0.1587462529004640  0.8341203497928831  0.6552187621765029
  0.3349953599969169  0.0000000000000000  0.3433658657966632
  0.3406688889841902  0.0000000000000000  0.8432482467279030
  0.3414603481978986  0.3334539874197233  0.3424049793593227
  0.3408624984978061  0.3334355479926074  0.8430568171101029
  0.3414603481978986  0.6665460125802767  0.3424049793593227
  0.3408624984978061  0.6665644520073926  0.8430568171101029
  0.0932938473955431  0.0000000000000000  0.3922119405576368
  0.0908912549813934  0.0000000000000000  0.8966477634839549
  0.0903403366241875  0.3326841014509938  0.3974240927945232
  0.0917362680345093  0.3325850396442078  0.8999152764752054
  0.0903403366241875  0.6673158985490062  0.3974240927945232
  0.0917362680345093  0.6674149603557922  0.8999152764752054
  0.4095297563940790  0.1674698072935783  0.1022716093628304
  0.4101398229235755  0.1672669277851071  0.6031203610896796
  0.4093404883243039  0.5000000000000000  0.1026830713739173
  0.4092252384629802  0.5000000000000000  0.6021774587249737
  0.4095297563940790  0.8325301927064217  0.1022716093628304
  0.4101398229235755  0.8327330722148929  0.6031203610896796
  0.9938818521388555  0.1673200361481051  0.1241781923893228
  0.9959086063901381  0.1668650624646517  0.6277834907574729
  0.9949140511166661  0.5000000000000000  0.1271422817532439
  0.9957562614940798  0.5000000000000000  0.6277037400851455
  0.9938818521388555  0.8326799638518949  0.1241781923893228
  0.9959086063901381  0.8331349375353483  0.6277834907574729
  0.5007424807079062  0.0000000000000000  0.3723935769348401
  0.5038521033301251  0.0000000000000000  0.8724490542285679
  0.5049937858115356  0.3345530460980086  0.3732387256216612
  0.5040055859102495  0.3336972043501589  0.8726885149290595
  0.5049937858115356  0.6654469539019914  0.3732387256216612
  0.5040055859102495  0.6663027956498411  0.8726885149290595
  0.6718731295487785  0.1664086011097510  0.2804298934179528
  0.6726350491575488  0.1666815927137222  0.7803862404994106
  0.6729710214854947  0.5000000000000000  0.2800621213305021
  0.6730090919825003  0.5000000000000000  0.7803885354675799
  0.6718731295487785  0.8335913988902490  0.2804298934179528
  0.6726350491575488  0.8333184072862778  0.7803862404994106
  0.8268235388363649  0.0000000000000000  0.2198795266806144
  0.8270952195688324  0.0000000000000000  0.7188736968557095
  0.8270084807264340  0.3332612846595566  0.2196586796654998
  0.8272912335568492  0.3332135426988856  0.7192206351246568
  0.8270084807264340  0.6667387153404434  0.2196586796654998
  0.8272912335568492  0.6667864573011215  0.7192206351246568
  0.8300345707095005  0.0000000000000000  0.4461487089410880
  0.8311160771308934  0.0000000000000000  0.9452422203513819
  0.8304968695451294  0.3337410117099466  0.4459720427201503
  0.8311088977344525  0.3337964628379382  0.9448801236159312
  0.8304968695451294  0.6662589882900534  0.4459720427201503
  0.8311088977344525  0.6662035371620618  0.9448801236159312
  0.6684403478159382  0.1665653587297626  0.0540302800084547
  0.6666799407852579  0.1665417823943756  0.5536610736976613
  0.6695629262940699  0.5000000000000000  0.0539200987604289
  0.6689162361921035  0.5000000000000000  0.5547742520021330
  0.6684403478159382  0.8334346412702374  0.0540302800084547
  0.6666799407852579  0.8334582176056244  0.5536610736976613
  0.4967064543056878  0.0000000000000000  0.1258021102074736
  0.4969774490107497  0.0000000000000000  0.6289432468883049
  0.4978182206868169  0.3342029200698775  0.1254831929691207
  0.4974680685102513  0.3341252841172206  0.6293829755209117
  0.4978182206868169  0.6657970799301225  0.1254831929691207
  0.4974680685102513  0.6658747158827794  0.6293829755209117
  0.0019297709541988  0.1670066564671799  0.3753259815971148
  0.0029675545880252  0.1667939189672438  0.8710890659672543
  0.0027251798886709  0.5000000000000000  0.3739441220502897
  0.0041670390086637  0.5000000000000000  0.8731548425105089
  0.0019297709541988  0.8329933435328130  0.3753259815971148
  0.0029675545880252  0.8332060810327491  0.8710890659672543
  0.1726588847364354  0.0000000000000000  0.7793992519763151
  0.1726612901210913  0.3370383566910249  0.2821649120953680
  0.1724292744661540  0.3331255575426013  0.7812751408596910
  0.1726612901210913  0.6629616433089751  0.2821649120953680
  0.1724292744661540  0.6668744424573916  0.7812751408596910
  0.3314939564550627  0.1736737804010247  0.2194215825530534
  0.3275401129158837  0.1669633094529317  0.7192989220125767
  0.3282537911704466  0.5000000000000000  0.2192606998784328
  0.3274255652411924  0.5000000000000000  0.7194449723288443
  0.3314939564550627  0.8263262195989753  0.2194215825530534
  0.3275401129158837  0.8330366905470683  0.7192989220125767
  0.3348873309693872  0.1699997705243561  0.4476728390095417
  0.3339052986431170  0.1671680258114563  0.9452082366398642
  0.3342215477236792  0.5000000000000000  0.4459330723944177
  0.3321218268875086  0.5000000000000000  0.9458979372129761
  0.3348873309693872  0.8300002294756439  0.4476728390095417
  0.3339052986431170  0.8328319741885437  0.9452082366398642
  0.1717855975016320  0.0000000000000000  0.0493410078228820
  0.1652683940559214  0.0000000000000000  0.5531269140971418
  0.1663498850400273  0.3315156056800959  0.0566498494362691
  0.1667964397680493  0.3339292234230982  0.5546865777517311
  0.1663498850400273  0.6684843943199041  0.0566498494362691
  0.1667964397680493  0.6660707765769018  0.5546865777517311
  0.1741672027012484  0.0000000000000000  0.2769672926342537
 
  0.00000000E+00  0.00000000E+00  0.00000000E+00
  0.00000000E+00  0.00000000E+00  0.00000000E+00
  0.00000000E+00  0.00000000E+00  0.00000000E+00
  0.00000000E+00  0.00000000E+00  0.00000000E+00
  0.00000000E+00  0.00000000E+00  0.00000000E+00
  0.00000000E+00  0.00000000E+00  0.00000000E+00
  0.00000000E+00  0.00000000E+00  0.00000000E+00
  0.00000000E+00  0.00000000E+00  0.00000000E+00
  0.00000000E+00  0.00000000E+00  0.00000000E+00
  0.00000000E+00  0.00000000E+00  0.00000000E+00
  0.00000000E+00  0.00000000E+00  0.00000000E+00
  0.00000000E+00  0.00000000E+00  0.00000000E+00
  0.00000000E+00  0.00000000E+00  0.00000000E+00
  0.00000000E+00  0.00000000E+00  0.00000000E+00
  0.00000000E+00  0.00000000E+00  0.00000000E+00
  0.00000000E+00  0.00000000E+00  0.00000000E+00
  0.00000000E+00  0.00000000E+00  0.00000000E+00
  0.00000000E+00  0.00000000E+00  0.00000000E+00
  0.00000000E+00  0.00000000E+00  0.00000000E+00
  0.00000000E+00  0.00000000E+00  0.00000000E+00
  0.00000000E+00  0.00000000E+00  0.00000000E+00
  0.00000000E+00  0.00000000E+00  0.00000000E+00
  0.00000000E+00  0.00000000E+00  0.00000000E+00
  0.00000000E+00  0.00000000E+00  0.00000000E+00
  0.00000000E+00  0.00000000E+00  0.00000000E+00
  0.00000000E+00  0.00000000E+00  0.00000000E+00
  0.00000000E+00  0.00000000E+00  0.00000000E+00
  0.00000000E+00  0.00000000E+00  0.00000000E+00
  0.00000000E+00  0.00000000E+00  0.00000000E+00
  0.00000000E+00  0.00000000E+00  0.00000000E+00
  0.00000000E+00  0.00000000E+00  0.00000000E+00
  0.00000000E+00  0.00000000E+00  0.00000000E+00
  0.00000000E+00  0.00000000E+00  0.00000000E+00
  0.00000000E+00  0.00000000E+00  0.00000000E+00
  0.00000000E+00  0.00000000E+00  0.00000000E+00
  0.00000000E+00  0.00000000E+00  0.00000000E+00
  0.00000000E+00  0.00000000E+00  0.00000000E+00
  0.00000000E+00  0.00000000E+00  0.00000000E+00
  0.00000000E+00  0.00000000E+00  0.00000000E+00
  0.00000000E+00  0.00000000E+00  0.00000000E+00
  0.00000000E+00  0.00000000E+00  0.00000000E+00
  0.00000000E+00  0.00000000E+00  0.00000000E+00
  0.00000000E+00  0.00000000E+00  0.00000000E+00
  0.00000000E+00  0.00000000E+00  0.00000000E+00
  0.00000000E+00  0.00000000E+00  0.00000000E+00
  0.00000000E+00  0.00000000E+00  0.00000000E+00
  0.00000000E+00  0.00000000E+00  0.00000000E+00
  0.00000000E+00  0.00000000E+00  0.00000000E+00
  0.00000000E+00  0.00000000E+00  0.00000000E+00
  0.00000000E+00  0.00000000E+00  0.00000000E+00
  0.00000000E+00  0.00000000E+00  0.00000000E+00
  0.00000000E+00  0.00000000E+00  0.00000000E+00
  0.00000000E+00  0.00000000E+00  0.00000000E+00
  0.00000000E+00  0.00000000E+00  0.00000000E+00
  0.00000000E+00  0.00000000E+00  0.00000000E+00
  0.00000000E+00  0.00000000E+00  0.00000000E+00
  0.00000000E+00  0.00000000E+00  0.00000000E+00
  0.00000000E+00  0.00000000E+00  0.00000000E+00
  0.00000000E+00  0.00000000E+00  0.00000000E+00
  0.00000000E+00  0.00000000E+00  0.00000000E+00
  0.00000000E+00  0.00000000E+00  0.00000000E+00
  0.00000000E+00  0.00000000E+00  0.00000000E+00
  0.00000000E+00  0.00000000E+00  0.00000000E+00
  0.00000000E+00  0.00000000E+00  0.00000000E+00
  0.00000000E+00  0.00000000E+00  0.00000000E+00
  0.00000000E+00  0.00000000E+00  0.00000000E+00
  0.00000000E+00  0.00000000E+00  0.00000000E+00
  0.00000000E+00  0.00000000E+00  0.00000000E+00
  0.00000000E+00  0.00000000E+00  0.00000000E+00
  0.00000000E+00  0.00000000E+00  0.00000000E+00
  0.00000000E+00  0.00000000E+00  0.00000000E+00
  0.00000000E+00  0.00000000E+00  0.00000000E+00
  0.00000000E+00  0.00000000E+00  0.00000000E+00
  0.00000000E+00  0.00000000E+00  0.00000000E+00
  0.00000000E+00  0.00000000E+00  0.00000000E+00
  0.00000000E+00  0.00000000E+00  0.00000000E+00
  0.00000000E+00  0.00000000E+00  0.00000000E+00
  0.00000000E+00  0.00000000E+00  0.00000000E+00
  0.00000000E+00  0.00000000E+00  0.00000000E+00
  0.00000000E+00  0.00000000E+00  0.00000000E+00
  0.00000000E+00  0.00000000E+00  0.00000000E+00
  0.00000000E+00  0.00000000E+00  0.00000000E+00
  0.00000000E+00  0.00000000E+00  0.00000000E+00
  0.00000000E+00  0.00000000E+00  0.00000000E+00
  0.00000000E+00  0.00000000E+00  0.00000000E+00
  0.00000000E+00  0.00000000E+00  0.00000000E+00
  0.00000000E+00  0.00000000E+00  0.00000000E+00
  0.00000000E+00  0.00000000E+00  0.00000000E+00
  0.00000000E+00  0.00000000E+00  0.00000000E+00
  0.00000000E+00  0.00000000E+00  0.00000000E+00
  0.00000000E+00  0.00000000E+00  0.00000000E+00
  0.00000000E+00  0.00000000E+00  0.00000000E+00
  0.00000000E+00  0.00000000E+00  0.00000000E+00
  0.00000000E+00  0.00000000E+00  0.00000000E+00
  0.00000000E+00  0.00000000E+00  0.00000000E+00
  0.00000000E+00  0.00000000E+00  0.00000000E+00
  0.00000000E+00  0.00000000E+00  0.00000000E+00
  0.00000000E+00  0.00000000E+00  0.00000000E+00
  0.00000000E+00  0.00000000E+00  0.00000000E+00
  0.00000000E+00  0.00000000E+00  0.00000000E+00
  0.00000000E+00  0.00000000E+00  0.00000000E+00
  0.00000000E+00  0.00000000E+00  0.00000000E+00
  0.00000000E+00  0.00000000E+00  0.00000000E+00
  0.00000000E+00  0.00000000E+00  0.00000000E+00
  0.00000000E+00  0.00000000E+00  0.00000000E+00
  0.00000000E+00  0.00000000E+00  0.00000000E+00
  0.00000000E+00  0.00000000E+00  0.00000000E+00
  0.00000000E+00  0.00000000E+00  0.00000000E+00
  0.00000000E+00  0.00000000E+00  0.00000000E+00
  0.00000000E+00  0.00000000E+00  0.00000000E+00
  0.00000000E+00  0.00000000E+00  0.00000000E+00
  0.00000000E+00  0.00000000E+00  0.00000000E+00
  0.00000000E+00  0.00000000E+00  0.00000000E+00
  0.00000000E+00  0.00000000E+00  0.00000000E+00
  0.00000000E+00  0.00000000E+00  0.00000000E+00
  0.00000000E+00  0.00000000E+00  0.00000000E+00
  0.00000000E+00  0.00000000E+00  0.00000000E+00
  0.00000000E+00  0.00000000E+00  0.00000000E+00
  0.00000000E+00  0.00000000E+00  0.00000000E+00
  0.00000000E+00  0.00000000E+00  0.00000000E+00
