Ga8 O12                                 
    1.000000000000000     
     0.0000000000000000   12.2804737091000007    0.0000000000000000
     9.1427011490000005    0.0000000000000000    0.0000000000000000
     0.0000000000000000   -2.7682616411000001  -11.3006974810000003
   Ga   O    Fe
    47    72     1
Direct
  0.6585853310712159 -0.0003304612718501  0.1548070495662185
  0.6576068131976321 -0.0022375148821737  0.6593044628737286
  0.6585853101088712  0.3336614538469940  0.1548098293242111
  0.6576050659273522  0.3355821724378482  0.6593049915896692
  0.6589016041732498  0.6666659580791249  0.1567242245225402
  0.6588606394455394  0.6666724092949557  0.6558481382732712
  0.8412807469867720  0.1666664477853377  0.3410437954170482
  0.8407525562549127  0.1666670167748163  0.8434914862296538
  0.8399440471009071  0.4997948279295280  0.3432297282551918
  0.8411606559743062  0.5002126472965908  0.8437378949475315
  0.8399449663836404  0.8335377763077899  0.3432283896766080
  0.8411616518988414  0.8331200042661032  0.8437380180984092
  0.5895280803049097  0.1666668111866042  0.8972063527394614
  0.5914917443803746  0.4967610846150055  0.3975811214002675
  0.5904971549250005  0.5004158904294239  0.8978453221677375
  0.5914903478290605  0.8365737277701262  0.3975779115581426
  0.5904962588586402  0.8329175196768054  0.8978444788275339
  0.9095180792736585 -0.0001767229435867  0.1023117004727011
  0.9075852271304437  0.0003074214598513  0.6012960391689169
  0.9095192808240119  0.3335098233866337  0.1023120481799003
  0.9075839311191608  0.3330250914927049  0.6012953763133811
  0.9090592603983093  0.6666658254222448  0.1026792821683603
  0.9082920805084720  0.6666669955413219  0.6022067578437503
  0.1596544287110621  0.1666670452317408  0.1566751134457229
  0.1587657947095681  0.1666667951875429  0.6561192493291819
  0.1600773134858673  0.4996574285618303  0.1576645592254523
  0.1582601962337188  0.4999472122381710  0.6562595621387197
  0.1600767841723343  0.8336753156857496  0.1576647071326778
  0.1582612512000936  0.8333860321249293  0.6562593273298699
  0.3434625042370373  0.0025085148245415  0.3437993699705805
  0.3399767719682391  0.0003165728220840  0.8433317123169406
  0.3434614959507624  0.3308245076162082  0.3437984621886285
  0.3399764364241276  0.3330174228726329  0.8433322994579581
  0.3428032425756709  0.6666662687719639  0.3435417090465717
  0.3397275666675075  0.6666663510104744  0.8428690485456690
  0.0917288028264364 -0.0000296644161579  0.3973762152053760
  0.0910737160264356  0.0000449211164039  0.8978107330592767
  0.0917287325301128  0.3333644250402392  0.3973755828706044
  0.0910750553281760  0.3332875998443734  0.8978121927522381
  0.0899952425449689  0.6666659334747379  0.3970452015261003
  0.0915696072109178  0.6666661404884002  0.8985168420013837
  0.4101677329308149  0.1666661116595130  0.1030556150391423
  0.4090797849118863  0.1666668146337732  0.6022287130041237
  0.4083350850737840  0.5003611932756924  0.1012698307167825
  0.4084328835041191  0.5003693245350235  0.6031158603388905
  0.4083330549588932  0.8329721989993831  0.1012684025471976
  0.4084352198629834  0.8329637828044072  0.6031152645674481
  0.9969810778822508  0.1666661624923534  0.1277005604935798
  0.9956744065544549  0.1666666692641718  0.6257630341757963
  0.9971078779907251  0.5002055843117993  0.1280822003233883
  0.9954165253749963  0.4994151073214919  0.6260929292298173
  0.9971072361941140  0.8331273912788493  0.1280822505320464
  0.9954171424387661  0.8339179028659555  0.6260935091015617
  0.5090275249827131  0.0105611842921799  0.3743813892577797
  0.5027189069628895 -0.0005786659343920  0.8730761168336482
  0.5090278869215229  0.3227723525981782  0.3744004959662445
  0.5027187514796766  0.3339119440123504  0.8730812519353368
  0.5058125332851613  0.6666658267124717  0.3725521913788352
  0.5025293439184354  0.6666667878899412  0.8728228507708284
  0.6692787551368894  0.1666638384288648  0.2741227598272539
  0.6724291077279925  0.1666659717327126  0.7818077329316401
  0.6724095022034949  0.4996348547554725  0.2798754212235861
  0.6726756998172514  0.5005765988176485  0.7812672081105583
  0.6724099488277484  0.8336938490916966  0.2798739771141488
  0.6726709607591274  0.8327541588768324  0.7812635332618297
  0.8275258861650396  0.0004370557040692  0.2193145775474104
  0.8262580704160082  0.0008680124997531  0.7187067699962139
  0.8275263568199513  0.3328957307127993  0.2193140716605056
  0.8262566275105852  0.3324672516788308  0.7187060661339907
  0.8273063685841541  0.6666652276877247  0.2196678347191394
  0.8269823657625159  0.6666691846455935  0.7194925531218590
  0.8276263268167565  0.0020602269425868  0.4448791357753718
  0.8326933240542657 -0.0002476433632522  0.9458390138350908
  0.8276257931430674  0.3312724712334044  0.4448779803895879
  0.8326942110998824  0.3335789348621733  0.9458395200329371
  0.8312129079146886  0.6666667090730248  0.4456959136034518
  0.8325109886930981  0.6666668863297288  0.9461147095934970
  0.6685337753224246  0.1666672417012674  0.0524731606596594
  0.6597192420786658  0.1666687028624328  0.5566815410871002
  0.6686086178705769  0.5004684489002834  0.0538221041510257
  0.6674251466652615  0.4994445607186083  0.5545009828413805
  0.6686101289708397  0.8328634630102887  0.0538204382734109
  0.6674225576110442  0.8338886202057202  0.5544972593791001
  0.4963416453783724 -0.0010145166272656  0.1262319573519420
  0.4957178185090136 -0.0005690092991765  0.6292162428963188
  0.4963411486840701  0.3343462734813096  0.1262404467602173
  0.4957168659104846  0.3339033252385427  0.6292222500665181
  0.4963831729773829  0.6666676664468256  0.1261096520599677
  0.4965179333696049  0.6666631342411142  0.6281289523771710
  0.0035919646634933  0.1666670469624522  0.3732268267539505
  0.0032625808989680  0.1666669528092928  0.8725762640640877
  0.0026171119857806  0.4992592362426690  0.3730446733408778
  0.0035279725100498  0.5001247535646667  0.8726049868783241
  0.0026182374450261  0.8340742873642109  0.3730450975251607
  0.0035283678764528  0.8332072366848634  0.8726056896507661
  0.1737594568719642 -0.0002239257599418  0.2809604169587920
  0.1718261216622481  0.0002043797287046  0.7800485996987966
  0.1737541007755562  0.3335618575526983  0.2809548868648378
  0.1718255674668195  0.3331287085403935  0.7800487121285575
  0.1739397749650468  0.6666667653565745  0.2817140697695504
  0.1713207390927831  0.6666666235397896  0.7798127970544705
  0.3277060184996611  0.1666672911215294  0.2193517761797726
  0.3270081496926696  0.1666665802005378  0.7195014217104342
  0.3293238273925812  0.4990066758321692  0.2205010860972961
  0.3263161177206571  0.5003669721805456  0.7194052899603436
  0.3293260048915455  0.8343269277721677  0.2205035308133981
  0.3263181425356236  0.8329660372886426  0.7194042678738704
  0.3307647357526184  0.1666666293362936  0.4464011242454702
  0.3321050383123590  0.1666665942469973  0.9463910860613258
  0.3361122913001001  0.4987231332040857  0.4453365593678452
  0.3304795246357589  0.5001276860969164  0.9452744084694633
  0.3361165387200560  0.8346097624151029  0.4453369424471582
  0.3304773936342350  0.8332060562695363  0.9452730823618950
  0.1680273144632068 -0.0001926499782727  0.0543436557039917
  0.1681173237058993 -0.0003087508190390  0.5539623455454107
  0.1680286363444989  0.3335253615184674  0.0543433042790284
  0.1681183322258445  0.3336429378350335  0.5539617381940007
  0.1688766659613279  0.6666666272604068  0.0551680414068593
  0.1676100831739955  0.6666658625629202  0.5534689669502779
  0.6047158579164108  0.1666664110687640  0.4009658314924701
 
  0.00000000E+00  0.00000000E+00  0.00000000E+00
  0.00000000E+00  0.00000000E+00  0.00000000E+00
  0.00000000E+00  0.00000000E+00  0.00000000E+00
  0.00000000E+00  0.00000000E+00  0.00000000E+00
  0.00000000E+00  0.00000000E+00  0.00000000E+00
  0.00000000E+00  0.00000000E+00  0.00000000E+00
  0.00000000E+00  0.00000000E+00  0.00000000E+00
  0.00000000E+00  0.00000000E+00  0.00000000E+00
  0.00000000E+00  0.00000000E+00  0.00000000E+00
  0.00000000E+00  0.00000000E+00  0.00000000E+00
  0.00000000E+00  0.00000000E+00  0.00000000E+00
  0.00000000E+00  0.00000000E+00  0.00000000E+00
  0.00000000E+00  0.00000000E+00  0.00000000E+00
  0.00000000E+00  0.00000000E+00  0.00000000E+00
  0.00000000E+00  0.00000000E+00  0.00000000E+00
  0.00000000E+00  0.00000000E+00  0.00000000E+00
  0.00000000E+00  0.00000000E+00  0.00000000E+00
  0.00000000E+00  0.00000000E+00  0.00000000E+00
  0.00000000E+00  0.00000000E+00  0.00000000E+00
  0.00000000E+00  0.00000000E+00  0.00000000E+00
  0.00000000E+00  0.00000000E+00  0.00000000E+00
  0.00000000E+00  0.00000000E+00  0.00000000E+00
  0.00000000E+00  0.00000000E+00  0.00000000E+00
  0.00000000E+00  0.00000000E+00  0.00000000E+00
  0.00000000E+00  0.00000000E+00  0.00000000E+00
  0.00000000E+00  0.00000000E+00  0.00000000E+00
  0.00000000E+00  0.00000000E+00  0.00000000E+00
  0.00000000E+00  0.00000000E+00  0.00000000E+00
  0.00000000E+00  0.00000000E+00  0.00000000E+00
  0.00000000E+00  0.00000000E+00  0.00000000E+00
  0.00000000E+00  0.00000000E+00  0.00000000E+00
  0.00000000E+00  0.00000000E+00  0.00000000E+00
  0.00000000E+00  0.00000000E+00  0.00000000E+00
  0.00000000E+00  0.00000000E+00  0.00000000E+00
  0.00000000E+00  0.00000000E+00  0.00000000E+00
  0.00000000E+00  0.00000000E+00  0.00000000E+00
  0.00000000E+00  0.00000000E+00  0.00000000E+00
  0.00000000E+00  0.00000000E+00  0.00000000E+00
  0.00000000E+00  0.00000000E+00  0.00000000E+00
  0.00000000E+00  0.00000000E+00  0.00000000E+00
  0.00000000E+00  0.00000000E+00  0.00000000E+00
  0.00000000E+00  0.00000000E+00  0.00000000E+00
  0.00000000E+00  0.00000000E+00  0.00000000E+00
  0.00000000E+00  0.00000000E+00  0.00000000E+00
  0.00000000E+00  0.00000000E+00  0.00000000E+00
  0.00000000E+00  0.00000000E+00  0.00000000E+00
  0.00000000E+00  0.00000000E+00  0.00000000E+00
  0.00000000E+00  0.00000000E+00  0.00000000E+00
  0.00000000E+00  0.00000000E+00  0.00000000E+00
  0.00000000E+00  0.00000000E+00  0.00000000E+00
  0.00000000E+00  0.00000000E+00  0.00000000E+00
  0.00000000E+00  0.00000000E+00  0.00000000E+00
  0.00000000E+00  0.00000000E+00  0.00000000E+00
  0.00000000E+00  0.00000000E+00  0.00000000E+00
  0.00000000E+00  0.00000000E+00  0.00000000E+00
  0.00000000E+00  0.00000000E+00  0.00000000E+00
  0.00000000E+00  0.00000000E+00  0.00000000E+00
  0.00000000E+00  0.00000000E+00  0.00000000E+00
  0.00000000E+00  0.00000000E+00  0.00000000E+00
  0.00000000E+00  0.00000000E+00  0.00000000E+00
  0.00000000E+00  0.00000000E+00  0.00000000E+00
  0.00000000E+00  0.00000000E+00  0.00000000E+00
  0.00000000E+00  0.00000000E+00  0.00000000E+00
  0.00000000E+00  0.00000000E+00  0.00000000E+00
  0.00000000E+00  0.00000000E+00  0.00000000E+00
  0.00000000E+00  0.00000000E+00  0.00000000E+00
  0.00000000E+00  0.00000000E+00  0.00000000E+00
  0.00000000E+00  0.00000000E+00  0.00000000E+00
  0.00000000E+00  0.00000000E+00  0.00000000E+00
  0.00000000E+00  0.00000000E+00  0.00000000E+00
  0.00000000E+00  0.00000000E+00  0.00000000E+00
  0.00000000E+00  0.00000000E+00  0.00000000E+00
  0.00000000E+00  0.00000000E+00  0.00000000E+00
  0.00000000E+00  0.00000000E+00  0.00000000E+00
  0.00000000E+00  0.00000000E+00  0.00000000E+00
  0.00000000E+00  0.00000000E+00  0.00000000E+00
  0.00000000E+00  0.00000000E+00  0.00000000E+00
  0.00000000E+00  0.00000000E+00  0.00000000E+00
  0.00000000E+00  0.00000000E+00  0.00000000E+00
  0.00000000E+00  0.00000000E+00  0.00000000E+00
  0.00000000E+00  0.00000000E+00  0.00000000E+00
  0.00000000E+00  0.00000000E+00  0.00000000E+00
  0.00000000E+00  0.00000000E+00  0.00000000E+00
  0.00000000E+00  0.00000000E+00  0.00000000E+00
  0.00000000E+00  0.00000000E+00  0.00000000E+00
  0.00000000E+00  0.00000000E+00  0.00000000E+00
  0.00000000E+00  0.00000000E+00  0.00000000E+00
  0.00000000E+00  0.00000000E+00  0.00000000E+00
  0.00000000E+00  0.00000000E+00  0.00000000E+00
  0.00000000E+00  0.00000000E+00  0.00000000E+00
  0.00000000E+00  0.00000000E+00  0.00000000E+00
  0.00000000E+00  0.00000000E+00  0.00000000E+00
  0.00000000E+00  0.00000000E+00  0.00000000E+00
  0.00000000E+00  0.00000000E+00  0.00000000E+00
  0.00000000E+00  0.00000000E+00  0.00000000E+00
  0.00000000E+00  0.00000000E+00  0.00000000E+00
  0.00000000E+00  0.00000000E+00  0.00000000E+00
  0.00000000E+00  0.00000000E+00  0.00000000E+00
  0.00000000E+00  0.00000000E+00  0.00000000E+00
  0.00000000E+00  0.00000000E+00  0.00000000E+00
  0.00000000E+00  0.00000000E+00  0.00000000E+00
  0.00000000E+00  0.00000000E+00  0.00000000E+00
  0.00000000E+00  0.00000000E+00  0.00000000E+00
  0.00000000E+00  0.00000000E+00  0.00000000E+00
  0.00000000E+00  0.00000000E+00  0.00000000E+00
  0.00000000E+00  0.00000000E+00  0.00000000E+00
  0.00000000E+00  0.00000000E+00  0.00000000E+00
  0.00000000E+00  0.00000000E+00  0.00000000E+00
  0.00000000E+00  0.00000000E+00  0.00000000E+00
  0.00000000E+00  0.00000000E+00  0.00000000E+00
  0.00000000E+00  0.00000000E+00  0.00000000E+00
  0.00000000E+00  0.00000000E+00  0.00000000E+00
  0.00000000E+00  0.00000000E+00  0.00000000E+00
  0.00000000E+00  0.00000000E+00  0.00000000E+00
  0.00000000E+00  0.00000000E+00  0.00000000E+00
  0.00000000E+00  0.00000000E+00  0.00000000E+00
  0.00000000E+00  0.00000000E+00  0.00000000E+00
  0.00000000E+00  0.00000000E+00  0.00000000E+00
  0.00000000E+00  0.00000000E+00  0.00000000E+00
  0.00000000E+00  0.00000000E+00  0.00000000E+00
