Ga8 O12                                 
    1.000000000000000     
     0.0000000000000000   12.2804737091000007    0.0000000000000000
     9.1427011490000005    0.0000000000000000    0.0000000000000000
     0.0000000000000000   -2.7682616411000001  -11.3006974810000003
   Ga   O    Cu   N 
    47    71     1     1
Direct
  0.6585575969412084 -0.0016111044835244  0.1546757410770787
  0.6603626084096461  0.0010626860052513  0.6570916671918393
  0.6583553799159896  0.3328268380771446  0.1563821112856279
  0.6596454689098336  0.3348379444769327  0.6577314136041139
  0.6582225233027877  0.6656971762358793  0.1563493795951082
  0.6603374181934430  0.6677560665392719  0.6562755324471913
  0.8418388656604896  0.1670235718621010  0.8430377540321324
  0.8401514256736924  0.4996703561617751  0.3441793931835341
  0.8418613165042222  0.5000454697543868  0.8441014548962741
  0.8399291529638174  0.8347876136044908  0.3418775132754891
  0.8422559788061964  0.8336869013723092  0.8423429977657677
  0.5936223874141353  0.1658929463890577  0.3988729536796883
  0.5910809181155576  0.1666363092637972  0.8972586027989699
  0.5910119297486793  0.4992828966101301  0.3976274213341807
  0.5915000315312660  0.4997732109449097  0.8976544047210928
  0.5910579804015340  0.8334469271672162  0.3963171927764190
  0.5910025425157400  0.8328853086698114  0.8959165320915821
  0.9100626156030075 -0.0012322429724823  0.1008896260489685
  0.9079823602803898  0.0063761404003807  0.5983681765858261
  0.9088567456821787  0.3315960460067199  0.1035662481774418
  0.9092480216501844  0.3356569769567352  0.6023512774514764
  0.9086518886422233  0.6659362591938169  0.1025083658388471
  0.9097191344447413  0.6699623028304117  0.6020827410028536
  0.1592578793491223  0.1659257994682631  0.1573690384792018
  0.1598041900561488  0.1674191992998555  0.6567885610000640
  0.1586028396704215  0.4990520837673644  0.1576356896699943
  0.1592519995105982  0.5005894513960696  0.6566413854856952
  0.1595185509117531  0.8325249197040797  0.1570305074287840
  0.1587066490318075  0.8342038545854127  0.6567753023485123
  0.3414900244184123 -0.0000732482072342  0.3440068740637762
  0.3412562877176890  0.0000680924256019  0.8434562749361139
  0.3413202568996816  0.3326133605875186  0.3443813879071873
  0.3412614533341599  0.3335020094661334  0.8434377159520432
  0.3412220963769552  0.6661802189572146  0.3439338678190469
  0.3410530592886844  0.6667780247199283  0.8432622855930956
  0.0906413515496320 -0.0020410381044241  0.3979672970922792
  0.0917350262341668  0.0000702762328614  0.8976488978538112
  0.0886866215543704  0.3309803912888618  0.3980999799742197
  0.0919511344251192  0.3333286077837064  0.8981728469625502
  0.0907695522436636  0.6650253369543989  0.3977549513960849
  0.0918834692820418  0.6664159090210000  0.8982079190571928
  0.4085627923993498  0.1660987869073834  0.1026025448829127
  0.4101551276963897  0.1670250323878721  0.6029197327837202
  0.4077465051940108  0.4991410095583869  0.1024248140148961
  0.4099010943415057  0.5009699589487668  0.6029140111625133
  0.4088168632284100  0.8325933373175397  0.1023792572300475
  0.4092681346412915  0.8339823956991057  0.6025938312598554
  0.9967241513283253  0.1656211653236049  0.1292898049195648
  0.9980582246281001  0.1704764754344616  0.6307457669363237
  0.9958484680371570  0.4988249656352084  0.1283884533055866
  0.9967370639449322  0.5025746553057973  0.6276385138341338
  0.9970912295087456  0.8319182153879258  0.1269436283938961
  0.9958987648431624  0.8376947503102008  0.6268355892358785
  0.5041920569305343  0.0004162744076911  0.3729647077642634
  0.5037941583389660 -0.0002029112190312  0.8722287066445127
  0.5043923768484411  0.3319924123893078  0.3731569050802835
  0.5037608482215554  0.3334605123591172  0.8728976549707761
  0.5037928944853599  0.6664065219478547  0.3731776421359161
  0.5037172205137709  0.6661147699436492  0.8720648890452654
  0.6703937589774039  0.1664940034604070  0.2775573066405791
  0.6731771194011228  0.1673410945649134  0.7809993123028257
  0.6717327541809581  0.4996271732077014  0.2798042272021583
  0.6733437711294860  0.5008130989820166  0.7809336349228079
  0.6696706597279396  0.8307207672945957  0.2771548474659419
  0.6731723059541861  0.8337641079425528  0.7793495420430965
  0.8254956795205350 -0.0055799301199922  0.2145365512019400
  0.8287727987662955  0.0014723980429308  0.7193110443035731
  0.8272243794082877  0.3311601750003600  0.2217163940483914
  0.8281671035309830  0.3344274667998388  0.7204065726341422
  0.8271622512920241  0.6653772062306041  0.2196413644270610
  0.8282674777876254  0.6674097188799683  0.7194581331589680
  0.8327799703825211 -0.0002132349936501  0.9447997986461317
  0.8274937611471065  0.3369456184724439  0.4477322720800918
  0.8328668342853606  0.3330305836476427  0.9466961694162680
  0.8315166346533240  0.6677092643030635  0.4457436053773478
  0.8328584008620868  0.6671265771184530  0.9455649746507477
  0.6676853594378326  0.1665174800148658  0.0536743511982057
  0.6671510858551498  0.1682678704020616  0.5558192679139649
  0.6686889592097144  0.4989775256753381  0.0543259075091783
  0.6677529371951725  0.5009297164691949  0.5544114363580724
  0.6670886945677529  0.8315272743267751  0.0525184693538309
  0.6703688231094864  0.8353320869063287  0.5527818225004658
  0.4960282790537921 -0.0004506916757066  0.1266386746973615
  0.4973926638208555  0.0000379368919406  0.6273999748520049
  0.4958428052398603  0.3329220881912046  0.1269087894647540
  0.4969785624690866  0.3341705400450516  0.6282554096171945
  0.4954264227828041  0.6653493019526980  0.1263062366670373
  0.4975418770437270  0.6678482629351690  0.6270685502996439
  0.0012944346419694  0.1631983850751206  0.3765588186807420
  0.0045339146129548  0.1668225800958948  0.8745791157135628
  0.0027857904115832  0.4987422964041678  0.3733434018081582
  0.0043849682345674  0.4998972426904656  0.8734949948319987
  0.0035329391739189  0.8316510295694570  0.3716119272243919
  0.0046969350876933  0.8331529692279859  0.8729710879530566
  0.1726293974157457 -0.0006828706981364  0.2811187167521538
  0.1732617442890328  0.0005883261974105  0.7806909571423465
  0.1716652602289963  0.3314678516094418  0.2818557854259496
  0.1733137757056730  0.3342915963148652  0.7808833000185922
  0.1727352327361212  0.6653940569654948  0.2809577379957006
  0.1726358029527521  0.6674807173124750  0.7804120650748496
  0.3274633994002561  0.1661622782635818  0.2201046252195422
  0.3281008664195751  0.1670293095433026  0.7196742658403020
  0.3271657044491006  0.4985649847105235  0.2203587342067372
  0.3277203904344764  0.5007080964954694  0.7194165765757600
  0.3277213730501057  0.8327830873244644  0.2199901191352817
  0.3276772877482714  0.8335672458493768  0.7195204471950957
  0.3328043414758284  0.1663235111259268  0.4465743116735181
  0.3322071802313378  0.1666779803388423  0.9458578425896562
  0.3329472651473617  0.4997687984306186  0.4464274640942996
  0.3317435890135468  0.5000008030117594  0.9456149471758172
  0.3324552882886487  0.8332140175267382  0.4460590408678284
  0.3321227628729757  0.8332552746613442  0.9457393914684312
  0.1680547922334692 -0.0004982147816426  0.0546681800606653
  0.1683450174299048  0.0004000600523445  0.5543705685648288
  0.1681200165985248  0.3328856305536550  0.0551815565925760
  0.1678602473518923  0.3337562827683957  0.5540434938126441
  0.1684124350321834  0.6655150436479053  0.0549357177534764
  0.1676381305253723  0.6672832890743190  0.5542746716965252
  0.8380650245667982  0.1649859435464857  0.3389475786084967
  0.8216778531514818  0.0068887376651995  0.4400521798117279
 
  0.00000000E+00  0.00000000E+00  0.00000000E+00
  0.00000000E+00  0.00000000E+00  0.00000000E+00
  0.00000000E+00  0.00000000E+00  0.00000000E+00
  0.00000000E+00  0.00000000E+00  0.00000000E+00
  0.00000000E+00  0.00000000E+00  0.00000000E+00
  0.00000000E+00  0.00000000E+00  0.00000000E+00
  0.00000000E+00  0.00000000E+00  0.00000000E+00
  0.00000000E+00  0.00000000E+00  0.00000000E+00
  0.00000000E+00  0.00000000E+00  0.00000000E+00
  0.00000000E+00  0.00000000E+00  0.00000000E+00
  0.00000000E+00  0.00000000E+00  0.00000000E+00
  0.00000000E+00  0.00000000E+00  0.00000000E+00
  0.00000000E+00  0.00000000E+00  0.00000000E+00
  0.00000000E+00  0.00000000E+00  0.00000000E+00
  0.00000000E+00  0.00000000E+00  0.00000000E+00
  0.00000000E+00  0.00000000E+00  0.00000000E+00
  0.00000000E+00  0.00000000E+00  0.00000000E+00
  0.00000000E+00  0.00000000E+00  0.00000000E+00
  0.00000000E+00  0.00000000E+00  0.00000000E+00
  0.00000000E+00  0.00000000E+00  0.00000000E+00
  0.00000000E+00  0.00000000E+00  0.00000000E+00
  0.00000000E+00  0.00000000E+00  0.00000000E+00
  0.00000000E+00  0.00000000E+00  0.00000000E+00
  0.00000000E+00  0.00000000E+00  0.00000000E+00
  0.00000000E+00  0.00000000E+00  0.00000000E+00
  0.00000000E+00  0.00000000E+00  0.00000000E+00
  0.00000000E+00  0.00000000E+00  0.00000000E+00
  0.00000000E+00  0.00000000E+00  0.00000000E+00
  0.00000000E+00  0.00000000E+00  0.00000000E+00
  0.00000000E+00  0.00000000E+00  0.00000000E+00
  0.00000000E+00  0.00000000E+00  0.00000000E+00
  0.00000000E+00  0.00000000E+00  0.00000000E+00
  0.00000000E+00  0.00000000E+00  0.00000000E+00
  0.00000000E+00  0.00000000E+00  0.00000000E+00
  0.00000000E+00  0.00000000E+00  0.00000000E+00
  0.00000000E+00  0.00000000E+00  0.00000000E+00
  0.00000000E+00  0.00000000E+00  0.00000000E+00
  0.00000000E+00  0.00000000E+00  0.00000000E+00
  0.00000000E+00  0.00000000E+00  0.00000000E+00
  0.00000000E+00  0.00000000E+00  0.00000000E+00
  0.00000000E+00  0.00000000E+00  0.00000000E+00
  0.00000000E+00  0.00000000E+00  0.00000000E+00
  0.00000000E+00  0.00000000E+00  0.00000000E+00
  0.00000000E+00  0.00000000E+00  0.00000000E+00
  0.00000000E+00  0.00000000E+00  0.00000000E+00
  0.00000000E+00  0.00000000E+00  0.00000000E+00
  0.00000000E+00  0.00000000E+00  0.00000000E+00
  0.00000000E+00  0.00000000E+00  0.00000000E+00
  0.00000000E+00  0.00000000E+00  0.00000000E+00
  0.00000000E+00  0.00000000E+00  0.00000000E+00
  0.00000000E+00  0.00000000E+00  0.00000000E+00
  0.00000000E+00  0.00000000E+00  0.00000000E+00
  0.00000000E+00  0.00000000E+00  0.00000000E+00
  0.00000000E+00  0.00000000E+00  0.00000000E+00
  0.00000000E+00  0.00000000E+00  0.00000000E+00
  0.00000000E+00  0.00000000E+00  0.00000000E+00
  0.00000000E+00  0.00000000E+00  0.00000000E+00
  0.00000000E+00  0.00000000E+00  0.00000000E+00
  0.00000000E+00  0.00000000E+00  0.00000000E+00
  0.00000000E+00  0.00000000E+00  0.00000000E+00
  0.00000000E+00  0.00000000E+00  0.00000000E+00
  0.00000000E+00  0.00000000E+00  0.00000000E+00
  0.00000000E+00  0.00000000E+00  0.00000000E+00
  0.00000000E+00  0.00000000E+00  0.00000000E+00
  0.00000000E+00  0.00000000E+00  0.00000000E+00
  0.00000000E+00  0.00000000E+00  0.00000000E+00
  0.00000000E+00  0.00000000E+00  0.00000000E+00
  0.00000000E+00  0.00000000E+00  0.00000000E+00
  0.00000000E+00  0.00000000E+00  0.00000000E+00
  0.00000000E+00  0.00000000E+00  0.00000000E+00
  0.00000000E+00  0.00000000E+00  0.00000000E+00
  0.00000000E+00  0.00000000E+00  0.00000000E+00
  0.00000000E+00  0.00000000E+00  0.00000000E+00
  0.00000000E+00  0.00000000E+00  0.00000000E+00
  0.00000000E+00  0.00000000E+00  0.00000000E+00
  0.00000000E+00  0.00000000E+00  0.00000000E+00
  0.00000000E+00  0.00000000E+00  0.00000000E+00
  0.00000000E+00  0.00000000E+00  0.00000000E+00
  0.00000000E+00  0.00000000E+00  0.00000000E+00
  0.00000000E+00  0.00000000E+00  0.00000000E+00
  0.00000000E+00  0.00000000E+00  0.00000000E+00
  0.00000000E+00  0.00000000E+00  0.00000000E+00
  0.00000000E+00  0.00000000E+00  0.00000000E+00
  0.00000000E+00  0.00000000E+00  0.00000000E+00
  0.00000000E+00  0.00000000E+00  0.00000000E+00
  0.00000000E+00  0.00000000E+00  0.00000000E+00
  0.00000000E+00  0.00000000E+00  0.00000000E+00
  0.00000000E+00  0.00000000E+00  0.00000000E+00
  0.00000000E+00  0.00000000E+00  0.00000000E+00
  0.00000000E+00  0.00000000E+00  0.00000000E+00
  0.00000000E+00  0.00000000E+00  0.00000000E+00
  0.00000000E+00  0.00000000E+00  0.00000000E+00
  0.00000000E+00  0.00000000E+00  0.00000000E+00
  0.00000000E+00  0.00000000E+00  0.00000000E+00
  0.00000000E+00  0.00000000E+00  0.00000000E+00
  0.00000000E+00  0.00000000E+00  0.00000000E+00
  0.00000000E+00  0.00000000E+00  0.00000000E+00
  0.00000000E+00  0.00000000E+00  0.00000000E+00
  0.00000000E+00  0.00000000E+00  0.00000000E+00
  0.00000000E+00  0.00000000E+00  0.00000000E+00
  0.00000000E+00  0.00000000E+00  0.00000000E+00
  0.00000000E+00  0.00000000E+00  0.00000000E+00
  0.00000000E+00  0.00000000E+00  0.00000000E+00
  0.00000000E+00  0.00000000E+00  0.00000000E+00
  0.00000000E+00  0.00000000E+00  0.00000000E+00
  0.00000000E+00  0.00000000E+00  0.00000000E+00
  0.00000000E+00  0.00000000E+00  0.00000000E+00
  0.00000000E+00  0.00000000E+00  0.00000000E+00
  0.00000000E+00  0.00000000E+00  0.00000000E+00
  0.00000000E+00  0.00000000E+00  0.00000000E+00
  0.00000000E+00  0.00000000E+00  0.00000000E+00
  0.00000000E+00  0.00000000E+00  0.00000000E+00
  0.00000000E+00  0.00000000E+00  0.00000000E+00
  0.00000000E+00  0.00000000E+00  0.00000000E+00
  0.00000000E+00  0.00000000E+00  0.00000000E+00
  0.00000000E+00  0.00000000E+00  0.00000000E+00
  0.00000000E+00  0.00000000E+00  0.00000000E+00
  0.00000000E+00  0.00000000E+00  0.00000000E+00
  0.00000000E+00  0.00000000E+00  0.00000000E+00
  0.00000000E+00  0.00000000E+00  0.00000000E+00
