 running    4 mpi-ranks, on    1 nodes
 distrk:  each k-point on    1 cores,    4 groups
 distr:  one band on    1 cores,    1 groups
 OpenACC runtime initialized ...    4 GPUs detected
 vasp.6.4.2 20Jul23 (build Nov 12 2023 22:16:35) complex                         
 POSCAR found type information on POSCAR GaO CuN 
 POSCAR found :  4 types and     120 ions
 scaLAPACK will be used selectively (only on CPU)
 LDA part: xc-table for Pade appr. of Perdew
 POSCAR, INCAR and KPOINTS ok, starting setup
 FFT: planning ... GRIDC
 FFT: planning ... GRID_SOFT
 FFT: planning ... GRID
 WAVECAR not read
 entering main loop
       N       E                     dE             d eps       ncg     rms          rms(c)
DAV:   1     0.219160481458E+05    0.21916E+05   -0.32067E+05 10096   0.281E+03
DAV:   2     0.487967979888E+04   -0.17036E+05   -0.16049E+05 10096   0.818E+02
DAV:   3    -0.127868645284E+03   -0.50075E+04   -0.47044E+04 12672   0.322E+02
DAV:   4    -0.780056153319E+03   -0.65219E+03   -0.63588E+03 12384   0.123E+02
DAV:   5    -0.830915035388E+03   -0.50859E+02   -0.50283E+02 14744   0.372E+01    0.742E+01
RMM:   6    -0.765624439289E+03    0.65291E+02   -0.69723E+02 14740   0.340E+01    0.381E+01
RMM:   7    -0.719383350294E+03    0.46241E+02   -0.24636E+02 13798   0.176E+01    0.246E+01
RMM:   8    -0.712042179512E+03    0.73412E+01   -0.41792E+01 11222   0.127E+01    0.155E+01
RMM:   9    -0.713748714976E+03   -0.17065E+01   -0.19731E+01 13381   0.461E+00    0.183E+01
RMM:  10    -0.719004171371E+03   -0.52555E+01   -0.35482E+01 13582   0.738E+00    0.188E+01
RMM:  11    -0.711149068438E+03    0.78551E+01   -0.11817E+01 12736   0.639E+00    0.608E+00
RMM:  12    -0.710886207747E+03    0.26286E+00   -0.21354E+00 15090   0.199E+00    0.535E+00
RMM:  13    -0.710666528243E+03    0.21968E+00   -0.76503E-01 11745   0.158E+00    0.613E+00
RMM:  14    -0.710586167189E+03    0.80361E-01   -0.32087E-01 14809   0.595E-01    0.378E+00
RMM:  15    -0.710452204101E+03    0.13396E+00   -0.17223E-01 13929   0.455E-01    0.288E+00
RMM:  16    -0.710404230025E+03    0.47974E-01   -0.20719E-01 13462   0.547E-01    0.277E+00
RMM:  17    -0.710356113325E+03    0.48117E-01   -0.50246E-02 14628   0.263E-01    0.524E-01
RMM:  18    -0.710364992413E+03   -0.88791E-02   -0.22205E-02 14222   0.160E-01    0.186E+00
RMM:  19    -0.710359509146E+03    0.54833E-02   -0.10560E-02 13555   0.123E-01    0.154E+00
RMM:  20    -0.710357622611E+03    0.18865E-02   -0.69129E-03 13410   0.110E-01    0.779E-01
RMM:  21    -0.710355395746E+03    0.22269E-02   -0.27020E-03 13373   0.739E-02    0.217E-01
RMM:  22    -0.710355747765E+03   -0.35202E-03   -0.15778E-03 12472   0.393E-02    0.382E-01
RMM:  23    -0.710355671961E+03    0.75804E-04   -0.49316E-04 10355   0.235E-02    0.267E-01
RMM:  24    -0.710355594887E+03    0.77074E-04   -0.27179E-04 10195   0.193E-02    0.158E-01
RMM:  25    -0.710355608192E+03   -0.13305E-04   -0.15871E-04  9457   0.160E-02    0.539E-02
RMM:  26    -0.710355613032E+03   -0.48397E-05   -0.57141E-05  7715   0.931E-03
   1 F= -.71035561E+03 E0= -.71033601E+03  d E =-.710356E+03
 curvature:   0.00 expect dE= 0.000E+00 dE for cont linesearch  0.000E+00
 trial: gam= 0.00000 g(F)=  0.249E+00 g(S)=  0.000E+00 ort = 0.000E+00 (trialstep = 0.100E+01)
 search vector abs. value=  0.249E+00
 bond charge predicted
       N       E                     dE             d eps       ncg     rms          rms(c)
DAV:   1    -0.710308505460E+03    0.47103E-01   -0.55857E+01 11264   0.973E+00    0.438E+00
RMM:   2    -0.712609641657E+03   -0.23011E+01   -0.34988E+00 13168   0.334E+00    0.121E+01
RMM:   3    -0.710770431881E+03    0.18392E+01   -0.14625E+00 12966   0.258E+00    0.367E+00
RMM:   4    -0.710559470457E+03    0.21096E+00   -0.24548E-01 14969   0.755E-01    0.320E+00
RMM:   5    -0.710487607306E+03    0.71863E-01   -0.90370E-02 14688   0.401E-01    0.156E+00
RMM:   6    -0.710486796681E+03    0.81062E-03   -0.31733E-02 14995   0.188E-01    0.158E+00
RMM:   7    -0.710490974360E+03   -0.41777E-02   -0.19122E-02 13281   0.134E-01    0.241E+00
RMM:   8    -0.710485950996E+03    0.50234E-02   -0.59724E-03 13061   0.123E-01    0.132E+00
RMM:   9    -0.710518656163E+03   -0.32705E-01   -0.12271E-02 13941   0.126E-01    0.388E+00
RMM:  10    -0.710483019435E+03    0.35637E-01   -0.40742E-03 13794   0.123E-01    0.628E-01
RMM:  11    -0.710483405165E+03   -0.38573E-03   -0.14619E-03 11233   0.679E-02    0.161E+00
RMM:  12    -0.710479798222E+03    0.36069E-02   -0.56190E-04 11040   0.303E-02    0.160E-01
RMM:  13    -0.710480153636E+03   -0.35541E-03   -0.56553E-04 10977   0.477E-02    0.384E-01
RMM:  14    -0.710479909090E+03    0.24455E-03   -0.11894E-04  8882   0.166E-02    0.518E-02
RMM:  15    -0.710480049693E+03   -0.14060E-03   -0.91931E-05  8313   0.154E-02    0.290E-01
RMM:  16    -0.710479912297E+03    0.13740E-03   -0.30805E-05  6744   0.809E-03    0.234E-02
RMM:  17    -0.710479934913E+03   -0.22616E-04   -0.20323E-05  6278   0.795E-03    0.134E-01
RMM:  18    -0.710479906192E+03    0.28721E-04   -0.76542E-06  5438   0.417E-03    0.105E-02
RMM:  19    -0.710479909845E+03   -0.36528E-05   -0.59280E-06  5491   0.413E-03
   2 F= -.71047991E+03 E0= -.71046060E+03  d E =-.124297E+00
 trial-energy change:   -0.124297  1 .order   -0.124749   -0.248571   -0.000927
 step:   1.0038(harm=  1.0037)  dis= 0.04447  next Energy=  -710.479912 (dE=-0.124E+00)
 bond charge predicted
       N       E                     dE             d eps       ncg     rms          rms(c)
DAV:   1    -0.710479902752E+03    0.34403E-05   -0.81300E-04 10720   0.375E-02    0.327E-02
RMM:   2    -0.710480646879E+03   -0.74413E-03   -0.13193E-04  8290   0.192E-02    0.622E-01
RMM:   3    -0.710480080646E+03    0.56623E-03   -0.90938E-05  7476   0.212E-02    0.255E-01
RMM:   4    -0.710479986448E+03    0.94198E-04   -0.42704E-05  6761   0.146E-02    0.152E-01
RMM:   5    -0.710479915587E+03    0.70862E-04   -0.11367E-05  6059   0.706E-03    0.317E-02
RMM:   6    -0.710479907415E+03    0.81719E-05   -0.43151E-06  5900   0.459E-03
   3 F= -.71047991E+03 E0= -.71046072E+03  d E =-.124294E+00
 curvature:  -0.50 expect dE=-0.551E-01 dE for cont linesearch -0.616E-05
 trial: gam= 0.44904 g(F)=  0.110E+00 g(S)=  0.000E+00 ort =-0.175E-02 (trialstep = 0.100E+01)
 search vector abs. value=  0.158E+00
 bond charge predicted
       N       E                     dE             d eps       ncg     rms          rms(c)
DAV:   1    -0.710412268271E+03    0.67647E-01   -0.37305E+01 10776   0.818E+00    0.191E+00
RMM:   2    -0.710960222800E+03   -0.54795E+00   -0.14280E+00 12892   0.235E+00    0.588E+00
RMM:   3    -0.710582323837E+03    0.37790E+00   -0.45828E-01 13212   0.144E+00    0.207E+00
RMM:   4    -0.710551222071E+03    0.31102E-01   -0.11104E-01 15157   0.497E-01    0.108E+00
RMM:   5    -0.710554493824E+03   -0.32718E-02   -0.22660E-02 14385   0.242E-01    0.173E+00
RMM:   6    -0.710562561279E+03   -0.80675E-02   -0.94440E-03 13394   0.138E-01    0.188E+00
RMM:   7    -0.710551986766E+03    0.10575E-01   -0.88074E-03 13000   0.124E-01    0.110E+00
RMM:   8    -0.710549602312E+03    0.23845E-02   -0.32557E-03 12802   0.851E-02    0.391E-01
RMM:   9    -0.710549007309E+03    0.59500E-03   -0.11550E-03 11321   0.481E-02    0.310E-01
RMM:  10    -0.710548784695E+03    0.22261E-03   -0.55253E-04 10510   0.263E-02    0.465E-02
RMM:  11    -0.710548775315E+03    0.93804E-05   -0.28045E-04  9386   0.175E-02    0.877E-02
RMM:  12    -0.710548772073E+03    0.32419E-05   -0.13787E-04  8268   0.107E-02    0.222E-02
RMM:  13    -0.710548777025E+03   -0.49519E-05   -0.66884E-05  7452   0.742E-03
   4 F= -.71054878E+03 E0= -.71052987E+03  d E =-.688696E-01
 trial-energy change:   -0.068870  1 .order   -0.068765   -0.109169   -0.028361
 step:   1.3520(harm=  1.3520)  dis= 0.02150  next Energy=  -710.553649 (dE=-0.737E-01)
 bond charge predicted
       N       E                     dE             d eps       ncg     rms          rms(c)
DAV:   1    -0.710537500930E+03    0.11271E-01   -0.45982E+00 11234   0.287E+00    0.641E-01
RMM:   2    -0.710638494716E+03   -0.10099E+00   -0.16758E-01 12705   0.811E-01    0.318E+00
RMM:   3    -0.710555871622E+03    0.82623E-01   -0.53752E-02 13117   0.484E-01    0.353E-01
RMM:   4    -0.710556378468E+03   -0.50685E-03   -0.13437E-02 14931   0.175E-01    0.100E+00
RMM:   5    -0.710554655945E+03    0.17225E-02   -0.27197E-03 13983   0.732E-02    0.272E-01
RMM:   6    -0.710554950382E+03   -0.29444E-03   -0.10151E-03 11570   0.436E-02    0.592E-01
RMM:   7    -0.710554539241E+03    0.41114E-03   -0.90064E-04 12471   0.367E-02    0.472E-01
RMM:   8    -0.710554203508E+03    0.33573E-03   -0.46870E-04 11188   0.347E-02    0.137E-01
RMM:   9    -0.710554126705E+03    0.76803E-04   -0.11462E-04  8740   0.162E-02    0.194E-01
RMM:  10    -0.710554069250E+03    0.57455E-04   -0.64303E-05  7789   0.883E-03    0.302E-02
RMM:  11    -0.710554070009E+03   -0.75844E-06   -0.24536E-05  6513   0.706E-03
   5 F= -.71055407E+03 E0= -.71053527E+03  d E =-.741626E-01
 curvature:  -0.98 expect dE=-0.573E-01 dE for cont linesearch -0.125E-05
 trial: gam= 0.50369 g(F)=  0.584E-01 g(S)=  0.000E+00 ort = 0.449E-03 (trialstep = 0.107E+01)
 search vector abs. value=  0.990E-01
 bond charge predicted
       N       E                     dE             d eps       ncg     rms          rms(c)
DAV:   1    -0.710483293346E+03    0.70776E-01   -0.26656E+01 10792   0.732E+00    0.104E+00
RMM:   2    -0.710726761912E+03   -0.24347E+00   -0.92728E-01 13373   0.200E+00    0.513E+00
RMM:   3    -0.710598144484E+03    0.12862E+00   -0.23729E-01 13902   0.985E-01    0.177E+00
RMM:   4    -0.710603044287E+03   -0.48998E-02   -0.49814E-02 14954   0.386E-01    0.247E+00
RMM:   5    -0.710593312098E+03    0.97322E-02   -0.12191E-02 14813   0.170E-01    0.100E+00
RMM:   6    -0.710590143317E+03    0.31688E-02   -0.42909E-03 14132   0.103E-01    0.610E-01
RMM:   7    -0.710589284723E+03    0.85859E-03   -0.37633E-03 13141   0.758E-02    0.620E-01
RMM:   8    -0.710588526696E+03    0.75803E-03   -0.10263E-03 12579   0.509E-02    0.607E-02
RMM:   9    -0.710588450179E+03    0.76517E-04   -0.36995E-04  9838   0.288E-02    0.193E-01
RMM:  10    -0.710588392405E+03    0.57774E-04   -0.17688E-04  9119   0.138E-02    0.299E-02
RMM:  11    -0.710588387635E+03    0.47700E-05   -0.79417E-05  8119   0.102E-02
   6 F= -.71058839E+03 E0= -.71056973E+03  d E =-.343176E-01
 trial-energy change:   -0.034318  1 .order   -0.033604   -0.062790   -0.004418
 step:   1.1462(harm=  1.1521)  dis= 0.01517  next Energy=  -710.588543 (dE=-0.345E-01)
 bond charge predicted
       N       E                     dE             d eps       ncg     rms          rms(c)
DAV:   1    -0.710588130208E+03    0.26220E-03   -0.13202E-01 11768   0.515E-01    0.639E-02
RMM:   2    -0.710589021729E+03   -0.89152E-03   -0.45059E-03 13389   0.136E-01    0.510E-01
RMM:   3    -0.710588812288E+03    0.20944E-03   -0.10664E-03 14303   0.615E-02    0.250E-01
RMM:   4    -0.710588742806E+03    0.69482E-04   -0.19370E-04 11090   0.280E-02    0.175E-01
RMM:   5    -0.710588666980E+03    0.75826E-04   -0.62857E-05  7671   0.161E-02    0.619E-02
RMM:   6    -0.710588651937E+03    0.15043E-04   -0.42574E-05  7433   0.966E-03    0.544E-02
RMM:   7    -0.710588645109E+03    0.68283E-05   -0.97850E-06  5995   0.640E-03
   7 F= -.71058865E+03 E0= -.71056998E+03  d E =-.345751E-01
 curvature:  -0.97 expect dE=-0.290E-01 dE for cont linesearch -0.242E-04
 trial: gam= 0.49368 g(F)=  0.299E-01 g(S)=  0.000E+00 ort = 0.157E-02 (trialstep = 0.109E+01)
 search vector abs. value=  0.556E-01
 bond charge predicted
       N       E                     dE             d eps       ncg     rms          rms(c)
DAV:   1    -0.710549053335E+03    0.39599E-01   -0.15227E+01 10760   0.564E+00    0.108E+00
RMM:   2    -0.710873646622E+03   -0.32459E+00   -0.56911E-01 13322   0.158E+00    0.596E+00
RMM:   3    -0.710610194344E+03    0.26345E+00   -0.17719E-01 13267   0.918E-01    0.960E-01
RMM:   4    -0.710622197716E+03   -0.12003E-01   -0.39335E-02 15132   0.329E-01    0.260E+00
RMM:   5    -0.710610351982E+03    0.11846E-01   -0.83679E-03 14932   0.143E-01    0.325E-01
RMM:   6    -0.710609755815E+03    0.59617E-03   -0.34262E-03 13501   0.910E-02    0.880E-01
RMM:   7    -0.710608621752E+03    0.11341E-02   -0.24707E-03 12990   0.603E-02    0.528E-01
RMM:   8    -0.710608126696E+03    0.49506E-03   -0.10957E-03 12727   0.515E-02    0.816E-02
RMM:   9    -0.710607998183E+03    0.12851E-03   -0.23942E-04  9604   0.248E-02    0.152E-01
RMM:  10    -0.710607968077E+03    0.30105E-04   -0.13006E-04  8844   0.120E-02    0.296E-02
RMM:  11    -0.710607968941E+03   -0.86374E-06   -0.49591E-05  7575   0.913E-03
   8 F= -.71060797E+03 E0= -.71058921E+03  d E =-.193238E-01
 trial-energy change:   -0.019324  1 .order   -0.019123   -0.033359   -0.004888
 step:   1.2638(harm=  1.2725)  dis= 0.01165  next Energy=  -710.608370 (dE=-0.197E-01)
 bond charge predicted
       N       E                     dE             d eps       ncg     rms          rms(c)
DAV:   1    -0.710606944472E+03    0.10236E-02   -0.40886E-01 11744   0.923E-01    0.180E-01
RMM:   2    -0.710624603312E+03   -0.17659E-01   -0.15108E-02 13293   0.257E-01    0.290E+00
RMM:   3    -0.710611625226E+03    0.12978E-01   -0.51737E-03 13298   0.159E-01    0.897E-01
RMM:   4    -0.710610206525E+03    0.14187E-02   -0.15951E-03 12021   0.835E-02    0.768E-01
RMM:   5    -0.710608714953E+03    0.14916E-02   -0.46182E-04 10695   0.441E-02    0.120E-01
RMM:   6    -0.710608652011E+03    0.62942E-04   -0.21476E-04  9129   0.244E-02    0.279E-01
RMM:   7    -0.710608512447E+03    0.13956E-03   -0.68734E-05  7921   0.134E-02    0.574E-02
RMM:   8    -0.710608505699E+03    0.67484E-05   -0.32167E-05  6982   0.894E-03
   9 F= -.71060851E+03 E0= -.71058959E+03  d E =-.198606E-01
 curvature:  -1.15 expect dE=-0.219E-01 dE for cont linesearch -0.656E-05
 trial: gam= 0.65935 g(F)=  0.190E-01 g(S)=  0.000E+00 ort = 0.563E-03 (trialstep = 0.112E+01)
 search vector abs. value=  0.439E-01
 bond charge predicted
       N       E                     dE             d eps       ncg     rms          rms(c)
DAV:   1    -0.710571386523E+03    0.37126E-01   -0.13195E+01 10824   0.524E+00    0.853E-01
RMM:   2    -0.710780996078E+03   -0.20961E+00   -0.45191E-01 13158   0.141E+00    0.520E+00
RMM:   3    -0.710626195664E+03    0.15480E+00   -0.13181E-01 13491   0.777E-01    0.124E+00
RMM:   4    -0.710633209841E+03   -0.70142E-02   -0.28897E-02 15063   0.289E-01    0.234E+00
RMM:   5    -0.710623181667E+03    0.10028E-01   -0.58868E-03 14789   0.128E-01    0.330E-01
RMM:   6    -0.710622359730E+03    0.82194E-03   -0.25746E-03 12762   0.823E-02    0.698E-01
RMM:   7    -0.710621541462E+03    0.81827E-03   -0.19810E-03 12939   0.540E-02    0.412E-01
RMM:   8    -0.710621281749E+03    0.25971E-03   -0.67314E-04 11985   0.427E-02    0.179E-01
RMM:   9    -0.710621176530E+03    0.10522E-03   -0.20424E-04  9602   0.222E-02    0.131E-01
RMM:  10    -0.710621149765E+03    0.26764E-04   -0.10385E-04  8715   0.126E-02    0.887E-02
RMM:  11    -0.710621132270E+03    0.17495E-04   -0.49031E-05  7589   0.877E-03    0.630E-03
RMM:  12    -0.710621131940E+03    0.33037E-06   -0.21565E-05  6622   0.582E-03
  10 F= -.71062113E+03 E0= -.71060229E+03  d E =-.126262E-01
 trial-energy change:   -0.012626  1 .order   -0.012201   -0.021731   -0.002671
 step:   1.2583(harm=  1.2788)  dis= 0.00978  next Energy=  -710.621295 (dE=-0.128E-01)
 bond charge predicted
       N       E                     dE             d eps       ncg     rms          rms(c)
DAV:   1    -0.710620647092E+03    0.48518E-03   -0.19654E-01 11712   0.638E-01    0.110E-01
RMM:   2    -0.710626460265E+03   -0.58132E-02   -0.67747E-03 13136   0.172E-01    0.170E+00
RMM:   3    -0.710622483419E+03    0.39768E-02   -0.21972E-03 13512   0.101E-01    0.543E-01
RMM:   4    -0.710622005896E+03    0.47752E-03   -0.61291E-04 11713   0.522E-02    0.463E-01
RMM:   5    -0.710621454555E+03    0.55134E-03   -0.17477E-04  8777   0.279E-02    0.567E-02
RMM:   6    -0.710621415665E+03    0.38890E-04   -0.86299E-05  8282   0.152E-02    0.142E-01
RMM:   7    -0.710621379855E+03    0.35810E-04   -0.25164E-05  6718   0.860E-03    0.331E-02
RMM:   8    -0.710621377716E+03    0.21387E-05   -0.11714E-05  6093   0.625E-03
  11 F= -.71062138E+03 E0= -.71060252E+03  d E =-.128720E-01
 curvature:  -1.43 expect dE=-0.166E-01 dE for cont linesearch -0.173E-04
 trial: gam= 0.58700 g(F)=  0.117E-01 g(S)=  0.000E+00 ort = 0.730E-03 (trialstep = 0.115E+01)
 search vector abs. value=  0.277E-01
 bond charge predicted
       N       E                     dE             d eps       ncg     rms          rms(c)
DAV:   1    -0.710594007407E+03    0.27372E-01   -0.88521E+00 10544   0.424E+00    0.595E-01
RMM:   2    -0.710688856104E+03   -0.94849E-01   -0.29978E-01 13179   0.111E+00    0.443E+00
RMM:   3    -0.710636396601E+03    0.52460E-01   -0.76544E-02 13988   0.557E-01    0.144E+00
RMM:   4    -0.710633240637E+03    0.31560E-02   -0.14994E-02 14809   0.222E-01    0.136E+00
RMM:   5    -0.710628984942E+03    0.42557E-02   -0.33556E-03 14191   0.102E-01    0.420E-01
RMM:   6    -0.710628321126E+03    0.66382E-03   -0.18223E-03 12560   0.623E-02    0.412E-01
RMM:   7    -0.710627765693E+03    0.55543E-03   -0.98222E-04 12492   0.437E-02    0.380E-02
RMM:   8    -0.710627739757E+03    0.25936E-04   -0.29544E-04 10592   0.240E-02    0.878E-02
RMM:   9    -0.710627732685E+03    0.70720E-05   -0.11333E-04  8760   0.141E-02    0.332E-02
RMM:  10    -0.710627734755E+03   -0.20702E-05   -0.60029E-05  7908   0.916E-03
  12 F= -.71062773E+03 E0= -.71060905E+03  d E =-.635704E-02
 trial-energy change:   -0.006357  1 .order   -0.006115   -0.013889    0.001660
 step:   1.0358(harm=  1.0263)  dis= 0.00644  next Energy=  -710.627816 (dE=-0.644E-02)
 bond charge predicted
       N       E                     dE             d eps       ncg     rms          rms(c)
DAV:   1    -0.710627447631E+03    0.28505E-03   -0.85461E-02 10664   0.417E-01    0.719E-02
RMM:   2    -0.710629483129E+03   -0.20355E-02   -0.30489E-03 13103   0.113E-01    0.879E-01
RMM:   3    -0.710628128986E+03    0.13541E-02   -0.89660E-04 13182   0.646E-02    0.333E-01
RMM:   4    -0.710627997083E+03    0.13190E-03   -0.21400E-04 10781   0.301E-02    0.269E-01
RMM:   5    -0.710627804023E+03    0.19306E-03   -0.60108E-05  7387   0.168E-02    0.399E-02
RMM:   6    -0.710627776691E+03    0.27332E-04   -0.28463E-05  6666   0.991E-03    0.398E-02
RMM:   7    -0.710627772609E+03    0.40817E-05   -0.11927E-05  6130   0.633E-03
  13 F= -.71062777E+03 E0= -.71060909E+03  d E =-.639489E-02
 curvature:  -1.17 expect dE=-0.585E-02 dE for cont linesearch -0.861E-06
 trial: gam= 0.44705 g(F)=  0.501E-02 g(S)=  0.000E+00 ort = 0.143E-03 (trialstep = 0.113E+01)
 search vector abs. value=  0.107E-01
 bond charge predicted
       N       E                     dE             d eps       ncg     rms          rms(c)
DAV:   1    -0.710617806151E+03    0.99705E-02   -0.31594E+00 10656   0.260E+00    0.333E-01
RMM:   2    -0.710643245409E+03   -0.25439E-01   -0.11207E-01 13513   0.696E-01    0.194E+00
RMM:   3    -0.710632354432E+03    0.10891E-01   -0.27008E-02 13879   0.340E-01    0.877E-01
RMM:   4    -0.710632579933E+03   -0.22550E-03   -0.53326E-03 15125   0.124E-01    0.831E-01
RMM:   5    -0.710630683068E+03    0.18969E-02   -0.98529E-04 13510   0.594E-02    0.103E-01
RMM:   6    -0.710630371710E+03    0.31136E-03   -0.55036E-04 12353   0.347E-02    0.205E-01
RMM:   7    -0.710630299318E+03    0.72392E-04   -0.38136E-04 11730   0.250E-02    0.512E-02
RMM:   8    -0.710630296753E+03    0.25654E-05   -0.89932E-05  8783   0.178E-02
  14 F= -.71063030E+03 E0= -.71061186E+03  d E =-.252414E-02
 trial-energy change:   -0.002524  1 .order   -0.002481   -0.005715    0.000753
 step:   0.9997(harm=  0.9952)  dis= 0.00336  next Energy=  -710.630339 (dE=-0.257E-02)
 bond charge predicted
       N       E                     dE             d eps       ncg     rms          rms(c)
DAV:   1    -0.710630186354E+03    0.11296E-03   -0.39433E-02 11024   0.291E-01    0.350E-02
RMM:   2    -0.710630500494E+03   -0.31414E-03   -0.13504E-03 13344   0.765E-02    0.311E-01
RMM:   3    -0.710630399919E+03    0.10057E-03   -0.30085E-04 12885   0.329E-02    0.145E-01
RMM:   4    -0.710630370234E+03    0.29685E-04   -0.54875E-05  7419   0.184E-02    0.967E-02
RMM:   5    -0.710630343903E+03    0.26331E-04   -0.15634E-05  6054   0.954E-03    0.294E-02
RMM:   6    -0.710630339765E+03    0.41380E-05   -0.10325E-05  5928   0.670E-03
  15 F= -.71063034E+03 E0= -.71061175E+03  d E =-.256716E-02
 curvature:  -1.04 expect dE=-0.256E-02 dE for cont linesearch -0.529E-06
 trial: gam= 0.51482 g(F)=  0.245E-02 g(S)=  0.000E+00 ort =-0.735E-04 (trialstep = 0.110E+01)
 search vector abs. value=  0.520E-02
 bond charge predicted
       N       E                     dE             d eps       ncg     rms          rms(c)
DAV:   1    -0.710626235239E+03    0.41087E-02   -0.14185E+00 11240   0.177E+00    0.314E-01
RMM:   2    -0.710657928245E+03   -0.31693E-01   -0.51597E-02 13316   0.490E-01    0.221E+00
RMM:   3    -0.710633099748E+03    0.24828E-01   -0.16976E-02 13135   0.292E-01    0.579E-01
RMM:   4    -0.710633704869E+03   -0.60512E-03   -0.35030E-03 14842   0.103E-01    0.864E-01
RMM:   5    -0.710631931263E+03    0.17736E-02   -0.75286E-04 12361   0.493E-02    0.125E-01
RMM:   6    -0.710631823904E+03    0.10736E-03   -0.26711E-04  9441   0.280E-02    0.296E-01
RMM:   7    -0.710631697148E+03    0.12676E-03   -0.27900E-04 10911   0.203E-02    0.167E-01
RMM:   8    -0.710631662022E+03    0.35125E-04   -0.91604E-05  8905   0.179E-02    0.293E-02
RMM:   9    -0.710631647454E+03    0.14568E-04   -0.25068E-05  6672   0.839E-03    0.375E-02
RMM:  10    -0.710631645857E+03    0.15970E-05   -0.10180E-05  6074   0.599E-03
  16 F= -.71063165E+03 E0= -.71061319E+03  d E =-.130609E-02
 trial-energy change:   -0.001306  1 .order   -0.001244   -0.002655    0.000167
 step:   1.0431(harm=  1.0360)  dis= 0.00212  next Energy=  -710.631650 (dE=-0.131E-02)
 bond charge predicted
       N       E                     dE             d eps       ncg     rms          rms(c)
DAV:   1    -0.710631628239E+03    0.19215E-04   -0.38414E-03 11600   0.928E-02    0.131E-02
RMM:   2    -0.710631683204E+03   -0.54964E-04   -0.14211E-04 11578   0.249E-02    0.147E-01
RMM:   3    -0.710631654211E+03    0.28992E-04   -0.30200E-05  6630   0.126E-02    0.626E-02
RMM:   4    -0.710631648648E+03    0.55633E-05   -0.10129E-05  5947   0.882E-03
  17 F= -.71063165E+03 E0= -.71061309E+03  d E =-.130888E-02
 curvature:  -1.10 expect dE=-0.134E-02 dE for cont linesearch -0.193E-04
 ZBRENT: interpolating
 opt :   1.0817  next Energy=  -710.631647 (dE=-0.131E-02)
 bond charge predicted
       N       E                     dE             d eps       ncg     rms          rms(c)
DAV:   1    -0.710631639557E+03    0.14655E-04   -0.17113E-03 11488   0.627E-02    0.809E-03
RMM:   2    -0.710631646561E+03   -0.70044E-05   -0.64383E-05  8795   0.171E-02
  18 F= -.71063165E+03 E0= -.71061311E+03  d E =-.130680E-02
 curvature:  -0.08 expect dE=-0.110E-03 dE for cont linesearch -0.145E-05
 ZBRENT: bisectioning
 opt :   1.0624  next Energy=  -710.631654 (dE=-0.131E-02)
 bond charge predicted
       N       E                     dE             d eps       ncg     rms          rms(c)
DAV:   1    -0.710631645013E+03   -0.54569E-05   -0.42910E-04 10992   0.305E-02    0.233E-02
RMM:   2    -0.710632042247E+03   -0.39723E-03   -0.63137E-05  7311   0.148E-02    0.457E-01
RMM:   3    -0.710631722295E+03    0.31995E-03   -0.42967E-05  6824   0.150E-02    0.138E-01
RMM:   4    -0.710631681993E+03    0.40302E-04   -0.18893E-05  6236   0.975E-03    0.107E-01
RMM:   5    -0.710631649200E+03    0.32794E-04   -0.44324E-06  5673   0.453E-03    0.895E-03
RMM:   6    -0.710631647493E+03    0.17067E-05   -0.16958E-06  5613   0.313E-03
  19 F= -.71063165E+03 E0= -.71061310E+03  d E =-.130773E-02
 curvature:  -0.41 expect dE=-0.519E-03 dE for cont linesearch -0.218E-05
 trial: gam= 0.42522 g(F)=  0.125E-02 g(S)=  0.000E+00 ort = 0.165E-03 (trialstep = 0.109E+01)
 search vector abs. value=  0.233E-02
 bond charge predicted
       N       E                     dE             d eps       ncg     rms          rms(c)
DAV:   1    -0.710630163635E+03    0.14856E-02   -0.63304E-01 11256   0.119E+00    0.189E-01
RMM:   2    -0.710647069036E+03   -0.16905E-01   -0.21995E-02 13172   0.323E-01    0.280E+00
RMM:   3    -0.710635527298E+03    0.11542E-01   -0.71819E-03 13402   0.187E-01    0.843E-01
RMM:   4    -0.710633994012E+03    0.15333E-02   -0.18419E-03 13449   0.887E-02    0.669E-01
RMM:   5    -0.710632751639E+03    0.12424E-02   -0.48188E-04 10967   0.429E-02    0.985E-02
RMM:   6    -0.710632667881E+03    0.83759E-04   -0.23392E-04  9816   0.250E-02    0.220E-01
RMM:   7    -0.710632578875E+03    0.89006E-04   -0.63551E-05  8036   0.139E-02    0.587E-02
RMM:   8    -0.710632570395E+03    0.84797E-05   -0.32739E-05  7122   0.909E-03
  20 F= -.71063257E+03 E0= -.71061403E+03  d E =-.922902E-03
 trial-energy change:   -0.000923  1 .order   -0.000919   -0.001445   -0.000392
 step:   1.4999(harm=  1.4999)  dis= 0.00209  next Energy=  -710.632639 (dE=-0.991E-03)
 bond charge predicted
       N       E                     dE             d eps       ncg     rms          rms(c)
DAV:   1    -0.710632309321E+03    0.26955E-03   -0.87661E-02 11808   0.442E-01    0.495E-02
RMM:   2    -0.710632730129E+03   -0.42081E-03   -0.29386E-03 13320   0.116E-01    0.270E-01
RMM:   3    -0.710632717322E+03    0.12807E-04   -0.72795E-04 14663   0.505E-02    0.155E-01
RMM:   4    -0.710632690310E+03    0.27011E-04   -0.11537E-04 10612   0.216E-02    0.941E-02
RMM:   5    -0.710632662762E+03    0.27549E-04   -0.26962E-05  6450   0.118E-02    0.291E-02
RMM:   6    -0.710632658373E+03    0.43890E-05   -0.17904E-05  6152   0.770E-03
  21 F= -.71063266E+03 E0= -.71061416E+03  d E =-.101088E-02
 curvature:  -1.32 expect dE=-0.128E-02 dE for cont linesearch -0.493E-05
 trial: gam= 0.76524 g(F)=  0.969E-03 g(S)=  0.000E+00 ort = 0.932E-04 (trialstep = 0.111E+01)
 search vector abs. value=  0.248E-02
 bond charge predicted
       N       E                     dE             d eps       ncg     rms          rms(c)
DAV:   1    -0.710630866489E+03    0.17963E-02   -0.68576E-01 11416   0.124E+00    0.163E-01
RMM:   2    -0.710640225228E+03   -0.93587E-02   -0.22070E-02 13110   0.322E-01    0.201E+00
RMM:   3    -0.710635071159E+03    0.51541E-02   -0.65359E-03 13816   0.170E-01    0.661E-01
RMM:   4    -0.710634280159E+03    0.79100E-03   -0.14008E-03 13779   0.759E-02    0.518E-01
RMM:   5    -0.710633543598E+03    0.73656E-03   -0.35206E-04 10884   0.363E-02    0.834E-02
RMM:   6    -0.710633460811E+03    0.82788E-04   -0.18305E-04  9910   0.217E-02    0.130E-01
RMM:   7    -0.710633426581E+03    0.34229E-04   -0.54682E-05  7841   0.128E-02    0.247E-02
RMM:   8    -0.710633425684E+03    0.89739E-06   -0.23225E-05  6643   0.801E-03
  22 F= -.71063343E+03 E0= -.71061499E+03  d E =-.767311E-03
 trial-energy change:   -0.000767  1 .order   -0.000781   -0.001150   -0.000413
 step:   1.7249(harm=  1.7249)  dis= 0.00212  next Energy=  -710.633555 (dE=-0.897E-03)
 bond charge predicted
       N       E                     dE             d eps       ncg     rms          rms(c)
DAV:   1    -0.710632736272E+03    0.69031E-03   -0.21521E-01 11776   0.693E-01    0.797E-02
RMM:   2    -0.710634157230E+03   -0.14210E-02   -0.69193E-03 13159   0.178E-01    0.640E-01
RMM:   3    -0.710633775975E+03    0.38125E-03   -0.18178E-03 14471   0.831E-02    0.272E-01
RMM:   4    -0.710633675750E+03    0.10023E-03   -0.29240E-04 12208   0.346E-02    0.188E-01
RMM:   5    -0.710633574798E+03    0.10095E-03   -0.80438E-05  8552   0.195E-02    0.435E-02
RMM:   6    -0.710633557922E+03    0.16877E-04   -0.55223E-05  8163   0.110E-02    0.449E-02
RMM:   7    -0.710633553242E+03    0.46795E-05   -0.11307E-05  6049   0.722E-03
  23 F= -.71063355E+03 E0= -.71061520E+03  d E =-.894870E-03
 curvature:  -2.05 expect dE=-0.202E-02 dE for cont linesearch -0.175E-05
 trial: gam= 1.00467 g(F)=  0.985E-03 g(S)=  0.000E+00 ort = 0.459E-04 (trialstep = 0.852E+00)
 search vector abs. value=  0.358E-02
 bond charge predicted
       N       E                     dE             d eps       ncg     rms          rms(c)
DAV:   1    -0.710631920452E+03    0.16375E-02   -0.58456E-01 11384   0.115E+00    0.152E-01
RMM:   2    -0.710640137038E+03   -0.82166E-02   -0.19115E-02 13134   0.302E-01    0.189E+00
RMM:   3    -0.710635618309E+03    0.45187E-02   -0.57805E-03 13737   0.161E-01    0.630E-01
RMM:   4    -0.710634897779E+03    0.72053E-03   -0.12350E-03 13629   0.711E-02    0.483E-01
RMM:   5    -0.710634243738E+03    0.65404E-03   -0.30098E-04 10624   0.348E-02    0.781E-02
RMM:   6    -0.710634169177E+03    0.74561E-04   -0.16012E-04  9776   0.204E-02    0.117E-01
RMM:   7    -0.710634140275E+03    0.28902E-04   -0.47792E-05  7644   0.119E-02    0.200E-02
RMM:   8    -0.710634139572E+03    0.70359E-06   -0.19689E-05  6471   0.765E-03
  24 F= -.71063414E+03 E0= -.71061579E+03  d E =-.586329E-03
 trial-energy change:   -0.000586  1 .order   -0.000574   -0.000878   -0.000270
 step:   1.2307(harm=  1.2307)  dis= 0.00176  next Energy=  -710.634188 (dE=-0.634E-03)
 bond charge predicted
       N       E                     dE             d eps       ncg     rms          rms(c)
DAV:   1    -0.710633760035E+03    0.38024E-03   -0.11604E-01 11960   0.512E-01    0.587E-02
RMM:   2    -0.710634520686E+03   -0.76065E-03   -0.37933E-03 13197   0.131E-01    0.458E-01
RMM:   3    -0.710634328329E+03    0.19236E-03   -0.98501E-04 14579   0.600E-02    0.202E-01
RMM:   4    -0.710634275889E+03    0.52440E-04   -0.15740E-04 11237   0.259E-02    0.140E-01
RMM:   5    -0.710634219409E+03    0.56481E-04   -0.42110E-05  7123   0.143E-02    0.324E-02
RMM:   6    -0.710634209841E+03    0.95677E-05   -0.24880E-05  6573   0.852E-03
  25 F= -.71063421E+03 E0= -.71061587E+03  d E =-.656599E-03
 curvature:  -2.14 expect dE=-0.145E-02 dE for cont linesearch -0.285E-05
 trial: gam= 0.67350 g(F)=  0.680E-03 g(S)=  0.000E+00 ort = 0.691E-04 (trialstep = 0.927E+00)
 search vector abs. value=  0.240E-02
 bond charge predicted
       N       E                     dE             d eps       ncg     rms          rms(c)
DAV:   1    -0.710632890411E+03    0.13290E-02   -0.46937E-01 11360   0.102E+00    0.133E-01
RMM:   2    -0.710637108664E+03   -0.42183E-02   -0.14868E-02 13011   0.262E-01    0.106E+00
RMM:   3    -0.710635272979E+03    0.18357E-02   -0.42356E-03 13818   0.135E-01    0.485E-01
RMM:   4    -0.710635020000E+03    0.25298E-03   -0.85826E-04 13757   0.546E-02    0.332E-01
RMM:   5    -0.710634684952E+03    0.33505E-03   -0.18493E-04  9877   0.287E-02    0.540E-02
RMM:   6    -0.710634647429E+03    0.37522E-04   -0.98204E-05  9465   0.155E-02    0.976E-02
RMM:   7    -0.710634628691E+03    0.18738E-04   -0.40328E-05  7425   0.102E-02    0.117E-02
RMM:   8    -0.710634628807E+03   -0.11591E-06   -0.10918E-05  6110   0.660E-03
  26 F= -.71063463E+03 E0= -.71061643E+03  d E =-.418966E-03
 trial-energy change:   -0.000419  1 .order   -0.000433   -0.000674   -0.000192
 step:   1.2977(harm=  1.2977)  dis= 0.00188  next Energy=  -710.634681 (dE=-0.471E-03)
 bond charge predicted
       N       E                     dE             d eps       ncg     rms          rms(c)
DAV:   1    -0.710634398663E+03    0.23003E-03   -0.75172E-02 11920   0.410E-01    0.478E-02
RMM:   2    -0.710634745420E+03   -0.34676E-03   -0.24039E-03 13088   0.103E-01    0.238E-01
RMM:   3    -0.710634746461E+03   -0.10416E-05   -0.59559E-04 14553   0.460E-02    0.168E-01
RMM:   4    -0.710634714062E+03    0.32400E-04   -0.10120E-04 10170   0.196E-02    0.908E-02
RMM:   5    -0.710634687022E+03    0.27040E-04   -0.22867E-05  6370   0.110E-02    0.299E-02
RMM:   6    -0.710634684616E+03    0.24055E-05   -0.12254E-05  6015   0.692E-03
  27 F= -.71063468E+03 E0= -.71061652E+03  d E =-.474775E-03
 curvature:  -2.14 expect dE=-0.120E-02 dE for cont linesearch -0.923E-05
 trial: gam= 0.70936 g(F)=  0.563E-03 g(S)=  0.000E+00 ort = 0.102E-03 (trialstep = 0.100E+01)
 search vector abs. value=  0.191E-02
 bond charge predicted
       N       E                     dE             d eps       ncg     rms          rms(c)
DAV:   1    -0.710633389537E+03    0.12975E-02   -0.43704E-01 11160   0.988E-01    0.201E-01
RMM:   2    -0.710655387528E+03   -0.21998E-01   -0.16147E-02 13006   0.276E-01    0.319E+00
RMM:   3    -0.710638746068E+03    0.16641E-01   -0.61690E-03 13220   0.178E-01    0.914E-01
RMM:   4    -0.710636525267E+03    0.22208E-02   -0.17672E-03 12334   0.893E-02    0.667E-01
RMM:   5    -0.710635177683E+03    0.13476E-02   -0.46863E-04 10815   0.440E-02    0.106E-01
RMM:   6    -0.710635120290E+03    0.57392E-04   -0.19906E-04  9367   0.233E-02    0.236E-01
RMM:   7    -0.710635015840E+03    0.10445E-03   -0.53658E-05  7822   0.125E-02    0.529E-02
RMM:   8    -0.710635006983E+03    0.88568E-05   -0.28957E-05  6863   0.886E-03
  28 F= -.71063501E+03 E0= -.71061669E+03  d E =-.322367E-03
 trial-energy change:   -0.000322  1 .order   -0.000335   -0.000636   -0.000033
 step:   1.0570(harm=  1.0570)  dis= 0.00186  next Energy=  -710.635020 (dE=-0.336E-03)
 bond charge predicted
       N       E                     dE             d eps       ncg     rms          rms(c)
DAV:   1    -0.710635001312E+03    0.14528E-04   -0.13585E-03 11728   0.557E-02    0.353E-02
RMM:   2    -0.710635722941E+03   -0.72163E-03   -0.18754E-04  8998   0.276E-02    0.564E-01
RMM:   3    -0.710635148177E+03    0.57476E-03   -0.93840E-05  7518   0.223E-02    0.197E-01
RMM:   4    -0.710635062895E+03    0.85282E-04   -0.33136E-05  6617   0.136E-02    0.122E-01
RMM:   5    -0.710635013323E+03    0.49571E-04   -0.92999E-06  5972   0.699E-03    0.211E-02
RMM:   6    -0.710635008445E+03    0.48785E-05   -0.37292E-06  5874   0.477E-03
  29 F= -.71063501E+03 E0= -.71061684E+03  d E =-.323829E-03
 curvature:  -1.59 expect dE=-0.460E-03 dE for cont linesearch -0.769E-07
 trial: gam= 0.46400 g(F)=  0.289E-03 g(S)=  0.000E+00 ort = 0.962E-05 (trialstep = 0.101E+01)
 search vector abs. value=  0.710E-03
 bond charge predicted
       N       E                     dE             d eps       ncg     rms          rms(c)
DAV:   1    -0.710634569157E+03    0.44417E-03   -0.16247E-01 11105   0.608E-01    0.680E-02
RMM:   2    -0.710635451757E+03   -0.88260E-03   -0.53875E-03 13295   0.162E-01    0.439E-01
RMM:   3    -0.710635365384E+03    0.86373E-04   -0.14306E-03 14203   0.739E-02    0.243E-01
RMM:   4    -0.710635275244E+03    0.90139E-04   -0.24146E-04 12169   0.304E-02    0.120E-01
RMM:   5    -0.710635222534E+03    0.52710E-04   -0.54797E-05  7827   0.172E-02    0.501E-02
RMM:   6    -0.710635213364E+03    0.91707E-05   -0.39844E-05  7519   0.964E-03
  30 F= -.71063521E+03 E0= -.71061692E+03  d E =-.204919E-03
 trial-energy change:   -0.000205  1 .order   -0.000190   -0.000297   -0.000083
 step:   1.4042(harm=  1.4042)  dis= 0.00124  next Energy=  -710.635215 (dE=-0.206E-03)
 bond charge predicted
       N       E                     dE             d eps       ncg     rms          rms(c)
DAV:   1    -0.710635122788E+03    0.99747E-04   -0.24203E-02 11704   0.235E-01    0.273E-02
RMM:   2    -0.710635253020E+03   -0.13023E-03   -0.80707E-04 13365   0.617E-02    0.167E-01
RMM:   3    -0.710635232898E+03    0.20122E-04   -0.20309E-04 11675   0.286E-02    0.783E-02
RMM:   4    -0.710635225452E+03    0.74456E-05   -0.42288E-05  7295   0.148E-02
  31 F= -.71063523E+03 E0= -.71061695E+03  d E =-.217007E-03
 curvature:  -1.70 expect dE=-0.546E-03 dE for cont linesearch -0.268E-04
 ZBRENT: interpolating
 opt :   1.1834  next Energy=  -710.635220 (dE=-0.212E-03)
 bond charge predicted
       N       E                     dE             d eps       ncg     rms          rms(c)
DAV:   1    -0.710635184384E+03    0.48513E-04   -0.76056E-03 11162   0.132E-01    0.170E-02
RMM:   2    -0.710635227889E+03   -0.43504E-04   -0.27671E-04 13093   0.369E-02    0.957E-02
RMM:   3    -0.710635221223E+03    0.66657E-05   -0.70465E-05  9769   0.166E-02
  32 F= -.71063522E+03 E0= -.71061710E+03  d E =-.212778E-03
 curvature:  -0.44 expect dE=-0.885E-04 dE for cont linesearch -0.170E-04
 ZBRENT: interpolating
 opt :   1.3180  next Energy=  -710.635230 (dE=-0.222E-03)
 bond charge predicted
       N       E                     dE             d eps       ncg     rms          rms(c)
DAV:   1    -0.710635208259E+03    0.19630E-04   -0.28102E-03 11616   0.812E-02    0.328E-02
RMM:   2    -0.710635899662E+03   -0.69140E-03   -0.20600E-04 10957   0.304E-02    0.551E-01
RMM:   3    -0.710635324118E+03    0.57554E-03   -0.89470E-05  7678   0.218E-02    0.158E-01
RMM:   4    -0.710635278324E+03    0.45794E-04   -0.33075E-05  6603   0.142E-02    0.144E-01
RMM:   5    -0.710635223150E+03    0.55174E-04   -0.99368E-06  5962   0.759E-03    0.870E-03
RMM:   6    -0.710635220173E+03    0.29776E-05   -0.42327E-06  5900   0.533E-03
  33 F= -.71063522E+03 E0= -.71061709E+03  d E =-.211728E-03
 curvature:  -0.12 expect dE=-0.244E-04 dE for cont linesearch -0.225E-06
 trial: gam= 0.87132 g(F)=  0.206E-03 g(S)=  0.000E+00 ort =-0.367E-04 (trialstep = 0.107E+01)
 search vector abs. value=  0.681E-03
 bond charge predicted
       N       E                     dE             d eps       ncg     rms          rms(c)
DAV:   1    -0.710634666923E+03    0.55623E-03   -0.17757E-01 11112   0.632E-01    0.882E-02
RMM:   2    -0.710637724264E+03   -0.30573E-02   -0.58027E-03 13067   0.169E-01    0.117E+00
RMM:   3    -0.710635917302E+03    0.18070E-02   -0.18578E-03 13516   0.928E-02    0.401E-01
RMM:   4    -0.710635604701E+03    0.31260E-03   -0.41425E-04 11975   0.426E-02    0.280E-01
RMM:   5    -0.710635368263E+03    0.23644E-03   -0.11030E-04  8700   0.231E-02    0.521E-02
RMM:   6    -0.710635338991E+03    0.29272E-04   -0.56891E-05  8055   0.120E-02    0.611E-02
RMM:   7    -0.710635330279E+03    0.87128E-05   -0.12940E-05  6158   0.735E-03
  34 F= -.71063533E+03 E0= -.71061715E+03  d E =-.110106E-03
 trial-energy change:   -0.000110  1 .order   -0.000098   -0.000186   -0.000009
 step:   1.1270(harm=  1.1270)  dis= 0.00089  next Energy=  -710.635318 (dE=-0.979E-04)
 bond charge predicted
       N       E                     dE             d eps       ncg     rms          rms(c)
DAV:   1    -0.710635328490E+03    0.10501E-04   -0.44557E-04 12200   0.341E-02    0.140E-02
RMM:   2    -0.710635444644E+03   -0.11615E-03   -0.31012E-05  6676   0.123E-02    0.233E-01
RMM:   3    -0.710635351799E+03    0.92845E-04   -0.17885E-05  6203   0.108E-02    0.752E-02
RMM:   4    -0.710635340831E+03    0.10968E-04   -0.67084E-06  5923   0.637E-03    0.576E-02
RMM:   5    -0.710635331318E+03    0.95130E-05   -0.23750E-06  5869   0.381E-03
  35 F= -.71063533E+03 E0= -.71061713E+03  d E =-.111145E-03
 curvature:  -2.21 expect dE=-0.306E-03 dE for cont linesearch -0.209E-05
 trial: gam= 0.56645 g(F)=  0.139E-03 g(S)=  0.000E+00 ort =-0.254E-04 (trialstep = 0.108E+01)
 search vector abs. value=  0.328E-03
 bond charge predicted
       N       E                     dE             d eps       ncg     rms          rms(c)
DAV:   1    -0.710635069959E+03    0.27087E-03   -0.87832E-02 11088   0.445E-01    0.103E-01
RMM:   2    -0.710640233105E+03   -0.51631E-02   -0.36092E-03 13059   0.130E-01    0.130E+00
RMM:   3    -0.710636061276E+03    0.41718E-02   -0.14107E-03 12705   0.858E-02    0.422E-01
RMM:   4    -0.710635837463E+03    0.22381E-03   -0.34990E-04 11567   0.391E-02    0.377E-01
RMM:   5    -0.710635452023E+03    0.38544E-03   -0.10298E-04  8139   0.221E-02    0.227E-02
RMM:   6    -0.710635421353E+03    0.30670E-04   -0.42982E-05  7255   0.116E-02    0.943E-02
RMM:   7    -0.710635404489E+03    0.16864E-04   -0.15926E-05  6312   0.653E-03    0.898E-03
RMM:   8    -0.710635404570E+03   -0.80581E-07   -0.65488E-06  5941   0.531E-03
  36 F= -.71063540E+03 E0= -.71061725E+03  d E =-.732521E-04
 trial-energy change:   -0.000073  1 .order   -0.000073   -0.000135   -0.000012
 step:   1.1881(harm=  1.1881)  dis= 0.00077  next Energy=  -710.635405 (dE=-0.738E-04)
 bond charge predicted
       N       E                     dE             d eps       ncg     rms          rms(c)
DAV:   1    -0.710635400459E+03    0.40303E-05   -0.79742E-04 11552   0.426E-02    0.526E-03
RMM:   2    -0.710635403825E+03   -0.33663E-05   -0.31537E-05  7590   0.119E-02
  37 F= -.71063540E+03 E0= -.71061719E+03  d E =-.725076E-04
 curvature:  -1.57 expect dE=-0.145E-03 dE for cont linesearch -0.131E-04
 ZBRENT: interpolating
 opt :   1.1021  next Energy=  -710.635405 (dE=-0.733E-04)
 bond charge predicted
       N       E                     dE             d eps       ncg     rms          rms(c)
DAV:   1    -0.710635404784E+03   -0.43247E-05   -0.54785E-04 10449   0.350E-02    0.351E-02
RMM:   2    -0.710636282143E+03   -0.87736E-03   -0.14991E-04  8030   0.229E-02    0.677E-01
RMM:   3    -0.710635577132E+03    0.70501E-03   -0.96373E-05  7497   0.221E-02    0.203E-01
RMM:   4    -0.710635480639E+03    0.96494E-04   -0.41307E-05  6712   0.142E-02    0.150E-01
RMM:   5    -0.710635412584E+03    0.68055E-04   -0.89813E-06  5702   0.639E-03    0.994E-03
RMM:   6    -0.710635408406E+03    0.41774E-05   -0.30655E-06  5575   0.424E-03
  38 F= -.71063541E+03 E0= -.71061715E+03  d E =-.770886E-04
 curvature:  -0.01 expect dE=-0.119E-05 dE for cont linesearch -0.570E-07
 ZBRENT: bisectioning
 opt :   1.1451  next Energy=  -710.635412 (dE=-0.803E-04)
 bond charge predicted
       N       E                     dE             d eps       ncg     rms          rms(c)
DAV:   1    -0.710635405296E+03    0.72880E-05   -0.13607E-04 11096   0.183E-02    0.249E-02
RMM:   2    -0.710635787062E+03   -0.38177E-03   -0.73484E-05  7365   0.143E-02    0.418E-01
RMM:   3    -0.710635479963E+03    0.30710E-03   -0.47106E-05  6827   0.153E-02    0.143E-01
RMM:   4    -0.710635432531E+03    0.47432E-04   -0.16619E-05  6010   0.875E-03    0.834E-02
RMM:   5    -0.710635407658E+03    0.24873E-04   -0.43098E-06  5116   0.394E-03    0.142E-02
RMM:   6    -0.710635405199E+03    0.24584E-05   -0.13121E-06  4711   0.252E-03
  39 F= -.71063541E+03 E0= -.71061724E+03  d E =-.738818E-04
 curvature:  -0.66 expect dE=-0.531E-04 dE for cont linesearch -0.320E-06
 trial: gam= 0.54319 g(F)=  0.805E-04 g(S)=  0.000E+00 ort =-0.126E-04 (trialstep = 0.110E+01)
 search vector abs. value=  0.164E-03
 bond charge predicted
       N       E                     dE             d eps       ncg     rms          rms(c)
DAV:   1    -0.710635269964E+03    0.13769E-03   -0.44641E-02 10922   0.319E-01    0.325E-02
RMM:   2    -0.710635421515E+03   -0.15155E-03   -0.15272E-03 13293   0.839E-02    0.547E-02
RMM:   3    -0.710635509926E+03   -0.88411E-04   -0.37062E-04 14105   0.352E-02    0.173E-01
RMM:   4    -0.710635464732E+03    0.45194E-04   -0.51134E-05  7940   0.163E-02    0.562E-02
RMM:   5    -0.710635454929E+03    0.98028E-05   -0.15156E-05  6090   0.980E-03
  40 F= -.71063545E+03 E0= -.71061721E+03  d E =-.497295E-04
 trial-energy change:   -0.000050  1 .order   -0.000034   -0.000081    0.000014
 step:   0.9388(harm=  0.9388)  dis= 0.00040  next Energy=  -710.635440 (dE=-0.346E-04)
 bond charge predicted
       N       E                     dE             d eps       ncg     rms          rms(c)
DAV:   1    -0.710635445522E+03    0.19209E-04   -0.10107E-03 11424   0.520E-02    0.410E-02
RMM:   2    -0.710636638010E+03   -0.11925E-02   -0.22603E-04  9317   0.318E-02    0.791E-01
RMM:   3    -0.710635670016E+03    0.96799E-03   -0.13350E-04  7759   0.260E-02    0.225E-01
RMM:   4    -0.710635558105E+03    0.11191E-03   -0.56783E-05  6980   0.173E-02    0.190E-01
RMM:   5    -0.710635458511E+03    0.99594E-04   -0.13386E-05  6059   0.774E-03    0.104E-02
RMM:   6    -0.710635453215E+03    0.52955E-05   -0.51700E-06  5889   0.548E-03
  41 F= -.71063545E+03 E0= -.71061718E+03  d E =-.480159E-04
 curvature:  -1.04 expect dE=-0.105E-03 dE for cont linesearch -0.664E-05
 ZBRENT: interpolating
 opt :   1.0528  next Energy=  -710.635455 (dE=-0.500E-04)
 bond charge predicted
       N       E                     dE             d eps       ncg     rms          rms(c)
DAV:   1    -0.710635447746E+03    0.10765E-04   -0.48015E-04 11264   0.338E-02    0.242E-02
RMM:   2    -0.710635795155E+03   -0.34741E-03   -0.80933E-05  7707   0.166E-02    0.398E-01
RMM:   3    -0.710635520398E+03    0.27476E-03   -0.45909E-05  6864   0.157E-02    0.142E-01
RMM:   4    -0.710635474480E+03    0.45918E-04   -0.16737E-05  6090   0.916E-03    0.790E-02
RMM:   5    -0.710635451633E+03    0.22847E-04   -0.47155E-06  5534   0.469E-03    0.163E-02
RMM:   6    -0.710635449122E+03    0.25109E-05   -0.16344E-06  5488   0.301E-03
  42 F= -.71063545E+03 E0= -.71061729E+03  d E =-.439225E-04
 curvature:  -0.04 expect dE=-0.204E-05 dE for cont linesearch -0.108E-09
 trial: gam= 0.48122 g(F)=  0.480E-04 g(S)=  0.000E+00 ort =-0.645E-06 (trialstep = 0.109E+01)
 search vector abs. value=  0.853E-04
 bond charge predicted
       N       E                     dE             d eps       ncg     rms          rms(c)
DAV:   1    -0.710635390601E+03    0.61031E-04   -0.22925E-02 10834   0.229E-01    0.241E-02
RMM:   2    -0.710635503772E+03   -0.11317E-03   -0.79308E-04 13360   0.605E-02    0.139E-01
RMM:   3    -0.710635499786E+03    0.39859E-05   -0.19062E-04 12088   0.263E-02    0.820E-02
RMM:   4    -0.710635489975E+03    0.98108E-05   -0.30362E-05  6564   0.139E-02
  43 F= -.71063549E+03 E0= -.71061723E+03  d E =-.408531E-04
 trial-energy change:   -0.000041  1 .order   -0.000016   -0.000052    0.000019
 step:   0.7936(harm=  0.7936)  dis= 0.00028  next Energy=  -710.635468 (dE=-0.189E-04)
 bond charge predicted
       N       E                     dE             d eps       ncg     rms          rms(c)
DAV:   1    -0.710635471435E+03    0.28351E-04   -0.16738E-03 10784   0.636E-02    0.200E-02
RMM:   2    -0.710635702511E+03   -0.23108E-03   -0.10397E-04  9369   0.222E-02    0.339E-01
RMM:   3    -0.710635515329E+03    0.18718E-03   -0.35413E-05  6780   0.142E-02    0.915E-02
RMM:   4    -0.710635500498E+03    0.14830E-04   -0.14865E-05  6143   0.977E-03    0.915E-02
RMM:   5    -0.710635479701E+03    0.20798E-04   -0.49226E-06  5855   0.554E-03    0.615E-03
RMM:   6    -0.710635479009E+03    0.69146E-06   -0.21467E-06  5831   0.383E-03
  44 F= -.71063548E+03 E0= -.71061724E+03  d E =-.298874E-04
 curvature:  -0.71 expect dE=-0.361E-04 dE for cont linesearch -0.948E-05
 ZBRENT: interpolating
 opt :   0.9867  next Energy=  -710.635491 (dE=-0.417E-04)
 bond charge predicted
       N       E                     dE             d eps       ncg     rms          rms(c)
DAV:   1    -0.710635478211E+03    0.14896E-05   -0.69855E-04 10872   0.402E-02    0.124E-02
RMM:   2    -0.710635561535E+03   -0.83324E-04   -0.37415E-05  7159   0.128E-02    0.196E-01
RMM:   3    -0.710635498529E+03    0.63007E-04   -0.15244E-05  6088   0.998E-03    0.715E-02
RMM:   4    -0.710635488798E+03    0.97303E-05   -0.57400E-06  5727   0.605E-03
  45 F= -.71063549E+03 E0= -.71061738E+03  d E =-.396763E-04
 curvature:  -0.07 expect dE=-0.242E-05 dE for cont linesearch -0.104E-08
 trial: gam= 0.74943 g(F)=  0.362E-04 g(S)=  0.000E+00 ort =-0.115E-05 (trialstep = 0.107E+01)
 search vector abs. value=  0.823E-04
 bond charge predicted
       N       E                     dE             d eps       ncg     rms          rms(c)
DAV:   1    -0.710635426736E+03    0.71792E-04   -0.20918E-02 10960   0.218E-01    0.114E-01
RMM:   2    -0.710644319854E+03   -0.88931E-02   -0.17587E-03 12449   0.841E-02    0.217E+00
RMM:   3    -0.710637293164E+03    0.70267E-02   -0.11720E-03 10988   0.783E-02    0.650E-01
RMM:   4    -0.710636141574E+03    0.11516E-02   -0.48159E-04  9689   0.510E-02    0.413E-01
RMM:   5    -0.710635555841E+03    0.58573E-03   -0.94391E-05  7461   0.213E-02    0.509E-02
RMM:   6    -0.710635523931E+03    0.31910E-04   -0.33949E-05  6985   0.132E-02    0.128E-01
RMM:   7    -0.710635494793E+03    0.29137E-04   -0.88856E-06  5963   0.668E-03    0.443E-02
RMM:   8    -0.710635491836E+03    0.29577E-05   -0.52409E-06  5903   0.523E-03
  46 F= -.71063549E+03 E0= -.71061723E+03  d E =-.303730E-05
 trial-energy change:   -0.000003  1 .order   -0.000001   -0.000038    0.000036
 step:   0.5458(harm=  0.5458)  dis= 0.00022  next Energy=  -710.635498 (dE=-0.963E-05)
 bond charge predicted
       N       E                     dE             d eps       ncg     rms          rms(c)
DAV:   1    -0.710635484360E+03    0.10433E-04   -0.49923E-03 10904   0.106E-01    0.886E-02
RMM:   2    -0.710639954725E+03   -0.44704E-02   -0.88568E-04 11653   0.526E-02    0.125E+00
RMM:   3    -0.710636116326E+03    0.38384E-02   -0.57100E-04  8970   0.519E-02    0.404E-01
RMM:   4    -0.710635770134E+03    0.34619E-03   -0.15371E-04  7722   0.275E-02    0.280E-01
RMM:   5    -0.710635518265E+03    0.25187E-03   -0.39021E-05  6568   0.131E-02    0.189E-02
RMM:   6    -0.710635500586E+03    0.17680E-04   -0.14489E-05  5809   0.890E-03    0.748E-02
RMM:   7    -0.710635491664E+03    0.89215E-05   -0.41211E-06  5477   0.470E-03
  47 F= -.71063549E+03 E0= -.71061735E+03  d E =-.286581E-05
 curvature:  -0.64 expect dE=-0.132E-04 dE for cont linesearch -0.504E-05
 ZBRENT: interpolating
 opt :   0.7706  next Energy=  -710.635495 (dE=-0.573E-05)
 bond charge predicted
       N       E                     dE             d eps       ncg     rms          rms(c)
DAV:   1    -0.710635492981E+03    0.76046E-05   -0.92643E-04 10904   0.463E-02    0.580E-02
RMM:   2    -0.710637849208E+03   -0.23562E-02   -0.35444E-04  9339   0.323E-02    0.112E+00
RMM:   3    -0.710635987091E+03    0.18621E-02   -0.26839E-04  8148   0.366E-02    0.348E-01
RMM:   4    -0.710635684156E+03    0.30293E-03   -0.11565E-04  7460   0.237E-02    0.229E-01
RMM:   5    -0.710635511219E+03    0.17294E-03   -0.22409E-05  6030   0.960E-03    0.226E-02
RMM:   6    -0.710635499674E+03    0.11545E-04   -0.75168E-06  5507   0.659E-03    0.643E-02
RMM:   7    -0.710635492919E+03    0.67554E-05   -0.18677E-06  5337   0.349E-03
  48 F= -.71063549E+03 E0= -.71061727E+03  d E =-.412024E-05
 curvature:  -0.36 expect dE=-0.237E-04 dE for cont linesearch -0.119E-05
 ZBRENT: interpolating
 opt :   0.6825  next Energy=  -710.635494 (dE=-0.484E-05)
 bond charge predicted
       N       E                     dE             d eps       ncg     rms          rms(c)
DAV:   1    -0.710635493675E+03    0.59989E-05   -0.14356E-04 10936   0.186E-02    0.428E-02
RMM:   2    -0.710636644110E+03   -0.11504E-02   -0.19858E-04  8162   0.220E-02    0.701E-01
RMM:   3    -0.710635689870E+03    0.95424E-03   -0.13776E-04  7637   0.250E-02    0.227E-01
RMM:   4    -0.710635572760E+03    0.11711E-03   -0.46935E-05  6729   0.144E-02    0.149E-01
RMM:   5    -0.710635499375E+03    0.73385E-04   -0.11100E-05  5326   0.621E-03    0.137E-02
RMM:   6    -0.710635493707E+03    0.56678E-05   -0.41059E-06  5121   0.413E-03
  49 F= -.71063549E+03 E0= -.71061737E+03  d E =-.490880E-05
 curvature:  -0.22 expect dE=-0.365E-05 dE for cont linesearch -0.117E-05
 trial: gam= 0.05415 g(F)=  0.165E-04 g(S)=  0.000E+00 ort = 0.209E-04 (trialstep = 0.991E+00)
 search vector abs. value=  0.190E-04
 reached required accuracy - stopping structural energy minimisation
Warning: ieee_invalid is signaling
Warning: ieee_divide_by_zero is signaling
Warning: ieee_underflow is signaling
Warning: ieee_inexact is signaling
FORTRAN STOP
Warning: ieee_invalid is signaling
Warning: ieee_divide_by_zero is signaling
Warning: ieee_underflow is signaling
Warning: ieee_inexact is signaling
FORTRAN STOP
Warning: ieee_invalid is signaling
Warning: ieee_divide_by_zero is signaling
Warning: ieee_underflow is signaling
Warning: ieee_inexact is signaling
FORTRAN STOP
Warning: ieee_invalid is signaling
Warning: ieee_divide_by_zero is signaling
Warning: ieee_underflow is signaling
Warning: ieee_inexact is signaling
FORTRAN STOP
