       N       E                     dE             d eps       ncg     rms          rms(c)
DAV:   1    -0.488632983191E+03   -0.48863E+03   -0.42567E+04   928   0.124E+03
DAV:   2    -0.130256346446E+04   -0.81393E+03   -0.78845E+03   992   0.370E+02
DAV:   3    -0.139947088144E+04   -0.96907E+02   -0.95675E+02  1296   0.123E+02
DAV:   4    -0.140297959591E+04   -0.35087E+01   -0.34932E+01  1208   0.262E+01
DAV:   5    -0.140321406684E+04   -0.23447E+00   -0.23386E+00  1296   0.630E+00    0.158E+02
DAV:   6    -0.383207766216E+03    0.10200E+04   -0.14522E+03   784   0.119E+02    0.203E+02
DAV:   7    -0.264825569597E+03    0.11838E+03   -0.30718E+02   966   0.519E+01    0.153E+02
DAV:   8    -0.111539997092E+03    0.15329E+03   -0.14958E+02   896   0.355E+01    0.993E+01
DAV:   9    -0.847329518868E+02    0.26807E+02   -0.81988E+01   984   0.223E+01    0.430E+01
DAV:  10    -0.843316059287E+02    0.40135E+00   -0.91146E+00  1000   0.960E+00    0.305E+01
DAV:  11    -0.839254488259E+02    0.40616E+00   -0.25724E+00   928   0.522E+00    0.153E+01
DAV:  12    -0.839473543478E+02   -0.21906E-01   -0.70452E-01  1080   0.267E+00    0.766E+00
DAV:  13    -0.839734593508E+02   -0.26105E-01   -0.17060E-01   992   0.151E+00    0.264E+00
DAV:  14    -0.839755230012E+02   -0.20637E-02   -0.32778E-02  1104   0.608E-01    0.168E+00
DAV:  15    -0.839778926007E+02   -0.23696E-02   -0.34700E-03   936   0.244E-01    0.881E-01
DAV:  16    -0.839782968862E+02   -0.40429E-03   -0.45680E-03   928   0.236E-01    0.141E-01
DAV:  17    -0.839783571520E+02   -0.60266E-04   -0.52561E-04  1048   0.857E-02    0.948E-02
DAV:  18    -0.839783616595E+02   -0.45075E-05   -0.74457E-05   928   0.343E-02
   1 F= -.83978362E+02 E0= -.83978362E+02  d E =-.335931E-11
