 vasp.6.4.2 20Jul23 (build Nov 12 2023 22:16:35) complex                         
 executed on              LinuxNV date 2025.05.31  20:12:17
 running    4 mpi-ranks, on    1 nodes
 distrk:  each k-point on    1 cores,    4 groups
 distr:  one band on NCORE=   1 cores,    1 groups
 OpenACC runtime initialized ...    4 GPUs detected


--------------------------------------------------------------------------------------------------------


 INCAR:
   PREC = Normal
   ENCUT = 450
   NELM = 300
   IBRION = -1
   ISPIN = 1
   NSW = 0
   ISIF = 2
   EDIFF = 1E-5
   EDIFFG = -5E-3
   ISTART = 0
   ICHARG = 0
   ISMEAR = 0
   SIGMA = 0.05
   LWAVE = .T.
   LCHARG = .T.
   LREAL = Auto
   LPLANE = .TRUE.
   NPAR = 1
   KPAR = 4
   NCORE = 1
   ICORELEVEL = 1
   ISYM = 0

 POTCAR:    PAW_PBE P 06Sep2000                   
 POTCAR:    PAW_PBE P 06Sep2000                   
   SHA256 =  df60c54a93efe35c9e85ae94c010c75e9f6960a95d5595d7cdba4096d109af88 P/POTCAR              
   COPYR  = (c) Copyright 06Sep2000 Georg Kresse                                                    
   COPYR  = This file is part of the software VASP. Any use, copying, and all other rights are regul
   COPYR  = If you do not have a valid VASP license, you may not use, copy or distribute this file. 
   VRHFIN =P : s2p3                                                                                 
   LEXCH  = PE                                                                                      
   EATOM  =   176.0430 eV,   12.9388 Ry                                                             
                                                                                                    
   TITEL  = PAW_PBE P 06Sep2000                                                                     
   LULTRA =        F    use ultrasoft PP ?                                                          
   IUNSCR =        1    unscreen: 0-lin 1-nonlin 2-no                                               
   RPACOR =    1.500    partial core radius                                                         
   POMASS =   30.974; ZVAL   =    5.000    mass and valenz                                          
   RCORE  =    1.900    outmost cutoff radius                                                       
   RWIGS  =    2.330; RWIGS  =    1.233    wigner-seitz radius (au A)                               
   ENMAX  =  255.040; ENMIN  =  191.280 eV                                                          
   ICORE  =        2    local potential                                                             
   LCOR   =        T    correct aug charges                                                         
   LPAW   =        T    paw PP                                                                      
   EAUG   =  342.924                                                                                
   DEXC   =    0.000                                                                                
   RMAX   =    1.935    core radius for proj-oper                                                   
   RAUG   =    1.300    factor for augmentation sphere                                              
   RDEP   =    1.931    radius for radial grids                                                     
   RDEPT  =    1.794    core radius for aug-charge                                                  
                                                                                                    
   Atomic configuration                                                                             
    6 entries                                                                                       
     n  l   j            E        occ.                                                              
     1  0  0.50     -2084.0982   2.0000                                                             
     2  0  0.50      -173.9859   2.0000                                                             
     2  1  1.50      -124.4865   6.0000                                                             
     3  0  0.50       -13.9692   2.0000                                                             
     3  1  0.50        -5.5067   3.0000                                                             
     3  2  1.50        -5.4423   0.0000                                                             
   Description                                                                                      
     l       E           TYP  RCUT    TYP  RCUT                                                     
     0    -13.9691527     23  1.900                                                                 
     0    -11.7794650     23  1.900                                                                 
     1     -5.5066937     23  1.900                                                                 
     1     -0.2556953     23  1.900                                                                 
     2     -5.4423304     23  1.900                                                                 
  local pseudopotential read in
  partial core-charges read in
  partial kinetic energy density read in
  atomic valenz-charges read in
  non local Contribution for L=            0  read in
    real space projection operators read in
  non local Contribution for L=            0  read in
    real space projection operators read in
  non local Contribution for L=            1  read in
    real space projection operators read in
  non local Contribution for L=            1  read in
    real space projection operators read in
    PAW grid and wavefunctions read in
 
   number of l-projection  operators is LMAX  =            4
   number of lm-projection operators is LMMAX =            8
 
 Optimization of the real space projectors (new method)

 maximal supplied QI-value         = 19.84
 optimisation between [QCUT,QGAM] = [ 10.71, 21.63] = [ 32.15,130.99] Ry 
 Optimized for a Real-space Cutoff    1.19 Angstroem

   l    n(q)    QCUT    max X(q) W(low)/X(q) W(high)/X(q)  e(spline) 
   0      8    10.715   160.924    0.37E-03    0.37E-04    0.63E-07
   0      8    10.715   130.086    0.37E-03    0.36E-04    0.63E-07
   1      7    10.715    74.434    0.19E-03    0.56E-03    0.65E-07
   1      7    10.715    49.120    0.19E-03    0.55E-03    0.63E-07
  PAW_PBE P 06Sep2000                   :
 energy of atom  1       EATOM= -176.0430
 kinetic energy error for atom=    0.0019 (will be added to EATOM!!)
 
 
 POSCAR: P16
  positions in direct lattice
  velocities in cartesian coordinates
 exchange correlation table for  LEXCH =        8
   RHO(1)=    0.500       N(1)  =     2000
   RHO(2)=  100.500       N(2)  =     4000
 


--------------------------------------------------------------------------------------------------------


 ion  position               nearest neighbor table
   1  0.652  0.500  0.751-   3 2.20   5 2.20   8 2.20
   2  0.348  0.500  0.249-   4 2.20   6 2.20   7 2.20
   3  0.782  0.500  0.429-   1 2.20   8 2.20   5 2.20
   4  0.218  0.500  0.571-   2 2.20   6 2.20   7 2.20
   5  0.849  0.372  0.750-   3 2.20   8 2.20   1 2.20
   6  0.151  0.372  0.250-   4 2.20   7 2.20   2 2.20
   7  0.151  0.628  0.250-   4 2.20   6 2.20   2 2.20
   8  0.849  0.628  0.750-   3 2.20   5 2.20   1 2.20
   9  0.152  0.000  0.751-  11 2.20  16 2.20  13 2.20
  10  0.848  1.000  0.249-  12 2.20  15 2.20  14 2.20
  11  0.282  1.000  0.429-   9 2.20  16 2.20  13 2.20
  12  0.718  0.000  0.571-  10 2.20  14 2.20  15 2.20
  13  0.349  0.872  0.750-  11 2.20  16 2.20   9 2.20
  14  0.651  0.872  0.250-  12 2.20  15 2.20  10 2.20
  15  0.651  0.128  0.250-  12 2.20  14 2.20  10 2.20
  16  0.349  0.128  0.750-  11 2.20  13 2.20   9 2.20
 

IMPORTANT INFORMATION: All symmetrisations will be switched off!
NOSYMM: (Re-)initialisation of all symmetry stuff for point group C_1.


----------------------------------------------------------------------------------------

                                     Primitive cell                                     

  volume of cell :     462.6094

  direct lattice vectors                    reciprocal lattice vectors
     0.000000000  9.655935788  0.000000000     0.000000000  0.103563240 -0.000440236
     8.584947329  0.000000000  0.000000000     0.116482951 -0.000000000  0.000000000
     0.000000000 -0.023722583 -5.580620493     0.000000000  0.000000000 -0.179191544

  length of vectors
     9.655935788  8.584947329  5.580670914     0.103564176  0.116482951  0.179191544

  position of ions in fractional coordinates (direct lattice)
     0.651533707  0.500000082  0.750567374
     0.348466096  0.499999776  0.249431921
     0.781811036  0.499999974  0.428891073
     0.218188477  0.500000076  0.571109069
     0.849224718  0.371712641  0.750156460
     0.150774664  0.371712767  0.249843758
     0.150774872  0.628287345  0.249843444
     0.849224849  0.628287384  0.750156243
     0.151534747  0.000000174  0.750569431
     0.848465412  0.999999926  0.249431186
     0.281812333  0.999999908  0.428893928
     0.718188219  0.000000007  0.571105956
     0.349225385  0.871712764  0.750157891
     0.650774902  0.871712707  0.249842455
     0.650775091  0.128287231  0.249842176
     0.349225491  0.128287238  0.750157634

  ion indices of the primitive-cell ions
   primitive index   ion index
                 1           1
                 2           2
                 3           3
                 4           4
                 5           5
                 6           6
                 7           7
                 8           8
                 9           9
                10          10
                11          11
                12          12
                13          13
                14          14
                15          15
                16          16

----------------------------------------------------------------------------------------

 
 
 KPOINTS: Automatic mesh                          

Automatic generation of k-mesh.
 Grid dimensions read from file:
 generate k-points for:    2    2    2

 Generating k-lattice:

  Cartesian coordinates                     Fractional coordinates (reciprocal lattice)
     0.000000000  0.051781620 -0.000220118     0.500000000  0.000000000 -0.000000000
     0.058241476 -0.000000000  0.000000000     0.000000000  0.500000000  0.000000000
     0.000000000  0.000000000 -0.089595772     0.000000000  0.000000000  0.500000000

  Length of vectors
     0.051782088  0.058241476  0.089595772

  Shift w.r.t. Gamma in fractional coordinates (k-lattice)
     0.000000000  0.000000000  0.000000000

 
 Subroutine IBZKPT returns following result:
 ===========================================
 
 Found      8 irreducible k-points:
 
 Following reciprocal coordinates:
            Coordinates               Weight
  0.000000  0.000000  0.000000      1.000000
  0.500000  0.000000  0.000000      1.000000
  0.000000  0.500000  0.000000      1.000000
  0.500000  0.500000  0.000000      1.000000
  0.000000  0.000000  0.500000      1.000000
  0.500000  0.000000  0.500000      1.000000
  0.000000  0.500000  0.500000      1.000000
  0.500000  0.500000  0.500000      1.000000
 
 Following cartesian coordinates:
            Coordinates               Weight
  0.000000  0.000000 -0.000000      1.000000
  0.000000  0.051782 -0.000220      1.000000
  0.058241  0.000000 -0.000000      1.000000
  0.058241  0.051782 -0.000220      1.000000
  0.000000  0.000000 -0.089596      1.000000
  0.000000  0.051782 -0.089816      1.000000
  0.058241  0.000000 -0.089596      1.000000
  0.058241  0.051782 -0.089816      1.000000
 


--------------------------------------------------------------------------------------------------------




 Dimension of arrays:
   k-points           NKPTS =      8   k-points in BZ     NKDIM =      8   number of bands    NBANDS=     49
   number of dos      NEDOS =    301   number of ions     NIONS =     16
   non local maximal  LDIM  =      4   non local SUM 2l+1 LMDIM =      8
   total plane-waves  NPLWV =  72000
   max r-space proj   IRMAX =   1151   max aug-charges    IRDMAX=   4935
   dimension x,y,z NGX =    50 NGY =   48 NGZ =   30
   dimension x,y,z NGXF=   100 NGYF=   96 NGZF=   60
   support grid    NGXF=   100 NGYF=   96 NGZF=   60
   ions per type =              16
   NGX,Y,Z   is equivalent  to a cutoff of   8.61,  9.30,  8.94 a.u.
   NGXF,Y,Z  is equivalent  to a cutoff of  17.22, 18.59, 17.87 a.u.

 SYSTEM =  unknown system                          
 POSCAR =  P16                                     

 Startparameter for this run:
   NWRITE =      2    write-flag & timer
   PREC   = normal    normal or accurate (medium, high low for compatibility)
   ISTART =      0    job   : 0-new  1-cont  2-samecut
   ICHARG =      0    charge: 1-file 2-atom 10-const
   ISPIN  =      1    spin polarized calculation?
   LNONCOLLINEAR =      F non collinear calculations
   LSORBIT =      F    spin-orbit coupling
   INIWAV =      1    electr: 0-lowe 1-rand  2-diag
   LASPH  =      F    aspherical Exc in radial PAW
 Electronic Relaxation 1
   ENCUT  =  450.0 eV  33.07 Ry    5.75 a.u.  16.70 14.85  9.65*2*pi/ulx,y,z
   ENINI  =  450.0     initial cutoff
   ENAUG  =  342.9 eV  augmentation charge cutoff
   NELM   =    300;   NELMIN=  2; NELMDL= -5     # of ELM steps 
   EDIFF  = 0.1E-04   stopping-criterion for ELM
   LREAL  =      T    real-space projection
   NLSPLINE    = F    spline interpolate recip. space projectors
   LCOMPAT=      F    compatible to vasp.4.4
   GGA_COMPAT  = T    GGA compatible to vasp.4.4-vasp.4.6
   LMAXPAW     = -100 max onsite density
   LMAXMIX     =    2 max onsite mixed and CHGCAR
   VOSKOWN=      0    Vosko Wilk Nusair interpolation
   ROPT   =   -0.00050
 Ionic relaxation
   EDIFFG = -.5E-02   stopping-criterion for IOM
   NSW    =      0    number of steps for IOM
   NBLOCK =      1;   KBLOCK =      1    inner block; outer block 
   IBRION =     -1    ionic relax: 0-MD 1-quasi-New 2-CG
   NFREE  =      0    steps in history (QN), initial steepest desc. (CG)
   ISIF   =      2    stress and relaxation
   IWAVPR =     10    prediction:  0-non 1-charg 2-wave 3-comb
   ISYM   =      0    0-nonsym 1-usesym 2-fastsym
   LCORR  =      T    Harris-Foulkes like correction to forces

   POTIM  = 0.5000    time-step for ionic-motion
   TEIN   =    0.0    initial temperature
   TEBEG  =    0.0;   TEEND  =   0.0 temperature during run
   SMASS  =  -3.00    Nose mass-parameter (am)
   estimated Nose-frequenzy (Omega)   =  0.10E-29 period in steps = 0.13E+47 mass=  -0.213E-26a.u.
   SCALEE = 1.0000    scale energy and forces
   NPACO  =    256;   APACO  = 10.0  distance and # of slots for P.C.
   PSTRESS=    0.0 pullay stress

  Mass of Ions in am
   POMASS =  30.97
  Ionic Valenz
   ZVAL   =   5.00
  Atomic Wigner-Seitz radii
   RWIGS  =  -1.00
  virtual crystal weights 
   VCA    =   1.00
   NELECT =      80.0000    total number of electrons
   NUPDOWN=      -1.0000    fix difference up-down

 DOS related values:
   EMIN   =  10.00;   EMAX   =-10.00  energy-range for DOS
   EFERMI =   0.00;   METHOD = LEGACY      
   ISMEAR =     0;   SIGMA  =   0.05  broadening in eV -4-tet -1-fermi 0-gaus

 Electronic relaxation 2 (details)
   IALGO  =     38    algorithm
   LDIAG  =      T    sub-space diagonalisation (order eigenvalues)
   LSUBROT=      F    optimize rotation matrix (better conditioning)
   TURBO    =      0    0=normal 1=particle mesh
   IRESTART =      0    0=no restart 2=restart with 2 vectors
   NREBOOT  =      0    no. of reboots
   NMIN     =      0    reboot dimension
   EREF     =   0.00    reference energy to select bands
   IMIX   =      4    mixing-type and parameters
     AMIX     =   0.40;   BMIX     =  1.00
     AMIX_MAG =   1.60;   BMIX_MAG =  1.00
     AMIN     =   0.10
     WC   =   100.;   INIMIX=   1;  MIXPRE=   1;  MAXMIX= -45

 Intra band minimization:
   WEIMIN = 0.0000     energy-eigenvalue tresh-hold
   EBREAK =  0.51E-07  absolut break condition
   DEPER  =   0.30     relativ break condition  

   TIME   =   0.40     timestep for ELM

  volume/ion in A,a.u.               =      28.91       195.12
  Fermi-wavevector in a.u.,A,eV,Ry     =   0.912081  1.723583 11.318570  0.831891
  Thomas-Fermi vector in A             =   2.036435
 
 Write flags
   LWAVE        =      T    write WAVECAR
   LDOWNSAMPLE  =      F    k-point downsampling of WAVECAR
   LCHARG       =      T    write CHGCAR
   LVTOT        =      F    write LOCPOT, total local potential
   LVHAR        =      F    write LOCPOT, Hartree potential only
   LELF         =      F    write electronic localiz. function (ELF)
   LORBIT       =      0    0 simple, 1 ext, 2 COOP (PROOUT), +10 PAW based schemes


 Dipole corrections
   LMONO  =      F    monopole corrections only (constant potential shift)
   LDIPOL =      F    correct potential (dipole corrections)
   IDIPOL =      0    1-x, 2-y, 3-z, 4-all directions 
   EPSILON=  1.0000000 bulk dielectric constant

 Core level calculations are selected ICORELEVEL =  1
 Exchange correlation treatment:
   GGA     =    --    GGA type
   LEXCH   =     8    internal setting for exchange type
   LIBXC   =     F    Libxc                    
   VOSKOWN =     0    Vosko Wilk Nusair interpolation
   LHFCALC =     F    Hartree Fock is set to
   LHFONE  =     F    Hartree Fock one center treatment
   AEXX    =    0.0000 exact exchange contribution

 Linear response parameters
   LEPSILON=     F    determine dielectric tensor
   LRPA    =     F    only Hartree local field effects (RPA)
   LNABLA  =     F    use nabla operator in PAW spheres
   LVEL    =     F    velocity operator in full k-point grid
   CSHIFT  =0.1000    complex shift for real part using Kramers Kronig
   OMEGAMAX=  -1.0    maximum frequency
   DEG_THRESHOLD= 0.2000000E-02 threshold for treating states as degnerate
   RTIME   =   -0.100 relaxation time in fs
  (WPLASMAI=    0.000 imaginary part of plasma frequency in eV, 0.658/RTIME)
   DFIELD  = 0.0000000 0.0000000 0.0000000 field for delta impulse in time
 
  Optional k-point grid parameters
   LKPOINTS_OPT  =     F    use optional k-point grid
   KPOINTS_OPT_MODE=     1    mode for optional k-point grid
 
 Orbital magnetization related:
   ORBITALMAG=     F  switch on orbital magnetization
   LCHIMAG   =     F  perturbation theory with respect to B field
   DQ        =  0.001000  dq finite difference perturbation B field
   LLRAUG    =     F  two centre corrections for induced B field
   LBONE     =     F  B-component reconstruction in AE one-centre
   LVGVCALC  =     T  calculate vGv susceptibility
   LVGVAPPL  =     F  apply vGv susceptibility instead of pGv for G=0

 Random number generation:
   RANDOM_GENERATOR = DEFAULT
   PCG_SEED         = not used


--------------------------------------------------------------------------------------------------------


 Static calculation
 charge density and potential will be updated during run
 non-spin polarized calculation
 Variant of blocked Davidson
 Davidson routine will perform the subspace rotation
 perform sub-space diagonalisation
    after iterative eigenvector-optimisation
 modified Broyden-mixing scheme, WC =      100.0
 initial mixing is a Kerker type mixing with AMIX =  0.4000 and BMIX =      1.0000
 Hartree-type preconditioning will be used
 using additional bands             9
 real space projection scheme for non local part
 use partial core corrections
 calculate Harris-corrections to forces 
   (improved forces if not selfconsistent)
 use gradient corrections 
 use of overlap-Matrix (Vanderbilt PP)
 Gauss-broadening in eV      SIGMA  =   0.05


--------------------------------------------------------------------------------------------------------


  energy-cutoff  :      450.00
  volume of cell :      462.61
      direct lattice vectors                 reciprocal lattice vectors
     0.000000000  9.655935788  0.000000000     0.000000000  0.103563240 -0.000440236
     8.584947329  0.000000000  0.000000000     0.116482951 -0.000000000  0.000000000
     0.000000000 -0.023722583 -5.580620493     0.000000000  0.000000000 -0.179191544

  length of vectors
     9.655935788  8.584947329  5.580670914     0.103564176  0.116482951  0.179191544


 
 k-points in units of 2pi/SCALE and weight: Automatic mesh                          
   0.00000000  0.00000000 -0.00000000       0.125
   0.00000000  0.05178162 -0.00022012       0.125
   0.05824148  0.00000000 -0.00000000       0.125
   0.05824148  0.05178162 -0.00022012       0.125
   0.00000000  0.00000000 -0.08959577       0.125
   0.00000000  0.05178162 -0.08981589       0.125
   0.05824148  0.00000000 -0.08959577       0.125
   0.05824148  0.05178162 -0.08981589       0.125
 
 k-points in reciprocal lattice and weights: Automatic mesh                          
   0.00000000  0.00000000  0.00000000       0.125
   0.50000000  0.00000000  0.00000000       0.125
   0.00000000  0.50000000  0.00000000       0.125
   0.50000000  0.50000000  0.00000000       0.125
   0.00000000  0.00000000  0.50000000       0.125
   0.50000000  0.00000000  0.50000000       0.125
   0.00000000  0.50000000  0.50000000       0.125
   0.50000000  0.50000000  0.50000000       0.125
 
 position of ions in fractional coordinates (direct lattice) 
   0.65153371  0.50000008  0.75056737
   0.34846610  0.49999978  0.24943192
   0.78181104  0.49999997  0.42889107
   0.21818848  0.50000008  0.57110907
   0.84922472  0.37171264  0.75015646
   0.15077466  0.37171277  0.24984376
   0.15077487  0.62828735  0.24984344
   0.84922485  0.62828738  0.75015624
   0.15153475  0.00000017  0.75056943
   0.84846541  0.99999993  0.24943119
   0.28181233  0.99999991  0.42889393
   0.71818822  0.00000001  0.57110596
   0.34922538  0.87171276  0.75015789
   0.65077490  0.87171271  0.24984245
   0.65077509  0.12828723  0.24984218
   0.34922549  0.12828724  0.75015763
 
 position of ions in cartesian coordinates  (Angst):
   4.29247437  6.27336225 -4.18863167
   4.29247174  3.35884908 -1.39198489
   4.29247344  7.53894276 -2.39347831
   4.29247431  2.09326575 -3.18714298
   3.19113344  8.18226370 -4.18633851
   3.19113452  1.44994353 -1.39428320
   5.39381376  1.44994555 -1.39428145
   5.39381410  8.18226497 -4.18633730
   0.00000150  1.44540434 -4.18864315
   8.58494669  8.18681039 -1.39198079
   8.58494654  2.71098732 -2.39349424
   0.00000006  6.92123122 -3.18712560
   7.48360816  3.35430221 -4.18634650
   7.48360768  6.27791376 -1.39427592
   1.10133912  6.27791559 -1.39427437
   1.10133918  3.35430324 -4.18634506
 


--------------------------------------------------------------------------------------------------------


 k-point   1 :   0.0000 0.0000 0.0000  plane waves:   10085
 k-point   2 :   0.5000 0.0000 0.0000  plane waves:   10020
 k-point   3 :   0.0000 0.5000 0.0000  plane waves:   10026
 k-point   4 :   0.5000 0.5000 0.0000  plane waves:   10056
 k-point   5 :   0.0000 0.0000 0.5000  plane waves:   10030
 k-point   6 :   0.5000 0.0000 0.5000  plane waves:   10020
 k-point   7 :   0.0000 0.5000 0.5000  plane waves:   10012
 k-point   8 :   0.5000 0.5000 0.5000  plane waves:   10028

 maximum and minimum number of plane-waves per node :     10085    10012

 maximum number of plane-waves:     10085
 maximum index in each direction: 
   IXMAX=   16   IYMAX=   14   IZMAX=    9
   IXMIN=  -17   IYMIN=  -15   IZMIN=  -10


 serial   3D FFT for wavefunctions
 parallel 3D FFT for charge:
    minimum data exchange during FFTs selected (reduces bandwidth)


 total amount of memory used by VASP MPI-rank0   147057. kBytes
=======================================================================

   base      :      30000. kBytes
   nonlr-proj:       1505. kBytes
   fftplans  :      20268. kBytes
   grid      :      31180. kBytes
   one-center:         49. kBytes
   wavefun   :      64055. kBytes
 
     INWAV:  cpu time      0.0000: real time      0.0001
 Broyden mixing: mesh for mixing (old mesh)
   NGX = 33   NGY = 29   NGZ = 19
  (NGX  =100   NGY  = 96   NGZ  = 60)
  gives a total of  18183 points

 charge density for first step will be calculated from the start-wavefunctions


--------------------------------------------------------------------------------------------------------


 Maximum index for non-local projection operator          1072
 Maximum index for augmentation-charges          4603 (set IRDMAX)


--------------------------------------------------------------------------------------------------------


 initial charge from wavefunction
 First call to EWALD:  gamma=   0.229
 Maximum number of real-space cells 2x 3x 4
 Maximum number of reciprocal cells 3x 3x 2

    FEWALD:  cpu time      0.0024: real time      0.0024


--------------------------------------- Ionic step        1  -------------------------------------------




--------------------------------------- Iteration      1(   1)  ---------------------------------------


    POTLOK:  cpu time      0.0278: real time      0.0278
    SETDIJ:  cpu time      0.0103: real time      0.0103
     EDDAV:  cpu time      0.1963: real time      0.1963
       DOS:  cpu time      0.0006: real time      0.0006
    --------------------------------------------
      LOOP:  cpu time      0.2350: real time      0.2349

 eigenvalue-minimisations  :   928
 total energy-change (2. order) :-0.4886330E+03  (-0.4256748E+04)
 number of electron      79.9999997 magnetization 
 augmentation part       -1.5041524 magnetization 

 Free energy of the ion-electron system (eV)
  ---------------------------------------------------
  alpha Z        PSCENC =        55.48217190
  Ewald energy   TEWEN  =     -2140.16248874
  -Hartree energ DENC   =       -29.15972106
  -exchange      EXHF   =         0.00000000
  -V(xc)+E(xc)   XCENC  =        18.81047459
  PAW double counting   =    158903.92663480  -158753.86501527
  entropy T*S    EENTRO =        -0.00681490
  eigenvalues    EBANDS =     -1360.31654176
  atomic energy  EATOM  =      2816.65831726
  Solvation  Ediel_sol  =         0.00000000
  ---------------------------------------------------
  free energy    TOTEN  =      -488.63298319 eV

  energy without entropy =     -488.62616829  energy(sigma->0) =     -488.62957574


--------------------------------------------------------------------------------------------------------




--------------------------------------- Iteration      1(   2)  ---------------------------------------


     EDDAV:  cpu time      0.1482: real time      0.1493
       DOS:  cpu time      0.0003: real time      0.0003
    --------------------------------------------
      LOOP:  cpu time      0.1485: real time      0.1495

 eigenvalue-minimisations  :   992
 total energy-change (2. order) :-0.8139305E+03  (-0.7884482E+03)
 number of electron      79.9999997 magnetization 
 augmentation part       -1.5041524 magnetization 

 Free energy of the ion-electron system (eV)
  ---------------------------------------------------
  alpha Z        PSCENC =        55.48217190
  Ewald energy   TEWEN  =     -2140.16248874
  -Hartree energ DENC   =       -29.15972106
  -exchange      EXHF   =         0.00000000
  -V(xc)+E(xc)   XCENC  =        18.81047459
  PAW double counting   =    158903.92663480  -158753.86501527
  entropy T*S    EENTRO =        -0.00000000
  eigenvalues    EBANDS =     -2174.25383793
  atomic energy  EATOM  =      2816.65831726
  Solvation  Ediel_sol  =         0.00000000
  ---------------------------------------------------
  free energy    TOTEN  =     -1302.56346446 eV

  energy without entropy =    -1302.56346446  energy(sigma->0) =    -1302.56346446


--------------------------------------------------------------------------------------------------------




--------------------------------------- Iteration      1(   3)  ---------------------------------------


     EDDAV:  cpu time      0.1583: real time      0.1587
       DOS:  cpu time      0.0003: real time      0.0003
    --------------------------------------------
      LOOP:  cpu time      0.1585: real time      0.1590

 eigenvalue-minimisations  :  1296
 total energy-change (2. order) :-0.9690742E+02  (-0.9567542E+02)
 number of electron      79.9999997 magnetization 
 augmentation part       -1.5041524 magnetization 

 Free energy of the ion-electron system (eV)
  ---------------------------------------------------
  alpha Z        PSCENC =        55.48217190
  Ewald energy   TEWEN  =     -2140.16248874
  -Hartree energ DENC   =       -29.15972106
  -exchange      EXHF   =         0.00000000
  -V(xc)+E(xc)   XCENC  =        18.81047459
  PAW double counting   =    158903.92663480  -158753.86501527
  entropy T*S    EENTRO =        -0.00000000
  eigenvalues    EBANDS =     -2271.16125491
  atomic energy  EATOM  =      2816.65831726
  Solvation  Ediel_sol  =         0.00000000
  ---------------------------------------------------
  free energy    TOTEN  =     -1399.47088144 eV

  energy without entropy =    -1399.47088144  energy(sigma->0) =    -1399.47088144


--------------------------------------------------------------------------------------------------------




--------------------------------------- Iteration      1(   4)  ---------------------------------------


     EDDAV:  cpu time      0.1525: real time      0.1529
       DOS:  cpu time      0.0003: real time      0.0003
    --------------------------------------------
      LOOP:  cpu time      0.1528: real time      0.1532

 eigenvalue-minimisations  :  1208
 total energy-change (2. order) :-0.3508714E+01  (-0.3493242E+01)
 number of electron      79.9999997 magnetization 
 augmentation part       -1.5041524 magnetization 

 Free energy of the ion-electron system (eV)
  ---------------------------------------------------
  alpha Z        PSCENC =        55.48217190
  Ewald energy   TEWEN  =     -2140.16248874
  -Hartree energ DENC   =       -29.15972106
  -exchange      EXHF   =         0.00000000
  -V(xc)+E(xc)   XCENC  =        18.81047459
  PAW double counting   =    158903.92663480  -158753.86501527
  entropy T*S    EENTRO =        -0.00000000
  eigenvalues    EBANDS =     -2274.66996939
  atomic energy  EATOM  =      2816.65831726
  Solvation  Ediel_sol  =         0.00000000
  ---------------------------------------------------
  free energy    TOTEN  =     -1402.97959591 eV

  energy without entropy =    -1402.97959591  energy(sigma->0) =    -1402.97959591


--------------------------------------------------------------------------------------------------------




--------------------------------------- Iteration      1(   5)  ---------------------------------------


     EDDAV:  cpu time      0.1593: real time      0.1598
       DOS:  cpu time      0.0003: real time      0.0003
    CHARGE:  cpu time      0.0319: real time      0.0319
    MIXING:  cpu time      0.0103: real time      0.0103
    --------------------------------------------
      LOOP:  cpu time      0.2018: real time      0.2023

 eigenvalue-minimisations  :  1296
 total energy-change (2. order) :-0.2344709E+00  (-0.2338606E+00)
 number of electron      79.9999948 magnetization 
 augmentation part      -12.4992433 magnetization 

 Broyden mixing:
  rms(total) = 0.15771E+02    rms(broyden)= 0.15768E+02
  rms(prec ) = 0.22711E+02
  weight for this iteration     100.00

 Free energy of the ion-electron system (eV)
  ---------------------------------------------------
  alpha Z        PSCENC =        55.48217190
  Ewald energy   TEWEN  =     -2140.16248874
  -Hartree energ DENC   =       -29.15972106
  -exchange      EXHF   =         0.00000000
  -V(xc)+E(xc)   XCENC  =        18.81047459
  PAW double counting   =    158903.92663480  -158753.86501527
  entropy T*S    EENTRO =        -0.00000000
  eigenvalues    EBANDS =     -2274.90444032
  atomic energy  EATOM  =      2816.65831726
  Solvation  Ediel_sol  =         0.00000000
  ---------------------------------------------------
  free energy    TOTEN  =     -1403.21406684 eV

  energy without entropy =    -1403.21406684  energy(sigma->0) =    -1403.21406684


--------------------------------------------------------------------------------------------------------




--------------------------------------- Iteration      1(   6)  ---------------------------------------


    POTLOK:  cpu time      0.0068: real time      0.0072
    SETDIJ:  cpu time      0.0104: real time      0.0104
     EDDAV:  cpu time      0.1056: real time      0.1056
       DOS:  cpu time      0.0003: real time      0.0003
    CHARGE:  cpu time      0.0321: real time      0.0320
    MIXING:  cpu time      0.0103: real time      0.0103
    --------------------------------------------
      LOOP:  cpu time      0.1654: real time      0.1658

 eigenvalue-minimisations  :   784
 total energy-change (2. order) : 0.1020006E+04  (-0.1452228E+03)
 number of electron      79.9999978 magnetization 
 augmentation part      -10.7682243 magnetization 

 Broyden mixing:
  rms(total) = 0.20292E+02    rms(broyden)= 0.20292E+02
  rms(prec ) = 0.21804E+02
  weight for this iteration     100.00

 eigenvalues of (default mixing * dielectric matrix)
  average eigenvalue GAMMA=   0.3868
  0.3868

 Free energy of the ion-electron system (eV)
  ---------------------------------------------------
  alpha Z        PSCENC =        55.48217190
  Ewald energy   TEWEN  =     -2140.16248874
  -Hartree energ DENC   =      -206.26223737
  -exchange      EXHF   =         0.00000000
  -V(xc)+E(xc)   XCENC  =        25.73173406
  PAW double counting   =    141692.20009314  -141553.30003323
  entropy T*S    EENTRO =        -0.00000000
  eigenvalues    EBANDS =     -1073.55532324
  atomic energy  EATOM  =      2816.65831726
  Solvation  Ediel_sol  =         0.00000000
  ---------------------------------------------------
  free energy    TOTEN  =      -383.20776622 eV

  energy without entropy =     -383.20776622  energy(sigma->0) =     -383.20776622


--------------------------------------------------------------------------------------------------------




--------------------------------------- Iteration      1(   7)  ---------------------------------------


    POTLOK:  cpu time      0.0070: real time      0.0073
    SETDIJ:  cpu time      0.0105: real time      0.0105
     EDDAV:  cpu time      0.1237: real time      0.1237
       DOS:  cpu time      0.0003: real time      0.0003
    CHARGE:  cpu time      0.0318: real time      0.0318
    MIXING:  cpu time      0.0106: real time      0.0106
    --------------------------------------------
      LOOP:  cpu time      0.1840: real time      0.1843

 eigenvalue-minimisations  :   966
 total energy-change (2. order) : 0.1183822E+03  (-0.3071760E+02)
 number of electron      79.9999987 magnetization 
 augmentation part      -11.3287009 magnetization 

 Broyden mixing:
  rms(total) = 0.15328E+02    rms(broyden)= 0.15328E+02
  rms(prec ) = 0.16393E+02
  weight for this iteration     100.00

 eigenvalues of (default mixing * dielectric matrix)
  average eigenvalue GAMMA=   1.1500
  1.1500  1.1500

 Free energy of the ion-electron system (eV)
  ---------------------------------------------------
  alpha Z        PSCENC =        55.48217190
  Ewald energy   TEWEN  =     -2140.16248874
  -Hartree energ DENC   =      -302.14267282
  -exchange      EXHF   =         0.00000000
  -V(xc)+E(xc)   XCENC  =        29.70958330
  PAW double counting   =    102046.35420429  -101910.22253655
  entropy T*S    EENTRO =        -0.00000000
  eigenvalues    EBANDS =      -860.50214823
  atomic energy  EATOM  =      2816.65831726
  Solvation  Ediel_sol  =         0.00000000
  ---------------------------------------------------
  free energy    TOTEN  =      -264.82556960 eV

  energy without entropy =     -264.82556960  energy(sigma->0) =     -264.82556960


--------------------------------------------------------------------------------------------------------




--------------------------------------- Iteration      1(   8)  ---------------------------------------


    POTLOK:  cpu time      0.0071: real time      0.0076
    SETDIJ:  cpu time      0.0104: real time      0.0104
     EDDAV:  cpu time      0.1231: real time      0.1231
       DOS:  cpu time      0.0003: real time      0.0003
    CHARGE:  cpu time      0.0321: real time      0.0321
    MIXING:  cpu time      0.0110: real time      0.0110
    --------------------------------------------
      LOOP:  cpu time      0.1840: real time      0.1844

 eigenvalue-minimisations  :   896
 total energy-change (2. order) : 0.1532856E+03  (-0.1495835E+02)
 number of electron      79.9999991 magnetization 
 augmentation part       -9.6983001 magnetization 

 Broyden mixing:
  rms(total) = 0.99261E+01    rms(broyden)= 0.99261E+01
  rms(prec ) = 0.10297E+02
  weight for this iteration     100.00

 eigenvalues of (default mixing * dielectric matrix)
  average eigenvalue GAMMA=   1.2860
  2.0910  1.1990  0.5679

 Free energy of the ion-electron system (eV)
  ---------------------------------------------------
  alpha Z        PSCENC =        55.48217190
  Ewald energy   TEWEN  =     -2140.16248874
  -Hartree energ DENC   =      -509.91065574
  -exchange      EXHF   =         0.00000000
  -V(xc)+E(xc)   XCENC  =        39.40650101
  PAW double counting   =     35585.35389237   -35456.20992060
  entropy T*S    EENTRO =        -0.00000000
  eigenvalues    EBANDS =      -502.15781454
  atomic energy  EATOM  =      2816.65831726
  Solvation  Ediel_sol  =         0.00000000
  ---------------------------------------------------
  free energy    TOTEN  =      -111.53999709 eV

  energy without entropy =     -111.53999709  energy(sigma->0) =     -111.53999709


--------------------------------------------------------------------------------------------------------




--------------------------------------- Iteration      1(   9)  ---------------------------------------


    POTLOK:  cpu time      0.0068: real time      0.0072
    SETDIJ:  cpu time      0.0104: real time      0.0104
     EDDAV:  cpu time      0.1268: real time      0.1268
       DOS:  cpu time      0.0003: real time      0.0003
    CHARGE:  cpu time      0.0317: real time      0.0317
    MIXING:  cpu time      0.0123: real time      0.0123
    --------------------------------------------
      LOOP:  cpu time      0.1883: real time      0.1887

 eigenvalue-minimisations  :   984
 total energy-change (2. order) : 0.2680705E+02  (-0.8198839E+01)
 number of electron      79.9999993 magnetization 
 augmentation part       -8.6435052 magnetization 

 Broyden mixing:
  rms(total) = 0.43010E+01    rms(broyden)= 0.43010E+01
  rms(prec ) = 0.44110E+01
  weight for this iteration     100.00

 eigenvalues of (default mixing * dielectric matrix)
  average eigenvalue GAMMA=   1.3114
  1.7701  1.7701  0.8528  0.8528

 Free energy of the ion-electron system (eV)
  ---------------------------------------------------
  alpha Z        PSCENC =        55.48217190
  Ewald energy   TEWEN  =     -2140.16248874
  -Hartree energ DENC   =      -680.83526689
  -exchange      EXHF   =         0.00000000
  -V(xc)+E(xc)   XCENC  =        49.97751891
  PAW double counting   =     12545.94896781   -12419.73258391
  entropy T*S    EENTRO =        -0.00000000
  eigenvalues    EBANDS =      -312.06958822
  atomic energy  EATOM  =      2816.65831726
  Solvation  Ediel_sol  =         0.00000000
  ---------------------------------------------------
  free energy    TOTEN  =       -84.73295189 eV

  energy without entropy =      -84.73295189  energy(sigma->0) =      -84.73295189


--------------------------------------------------------------------------------------------------------




--------------------------------------- Iteration      1(  10)  ---------------------------------------


    POTLOK:  cpu time      0.0069: real time      0.0075
    SETDIJ:  cpu time      0.0110: real time      0.0110
     EDDAV:  cpu time      0.1331: real time      0.1330
       DOS:  cpu time      0.0004: real time      0.0004
    CHARGE:  cpu time      0.0323: real time      0.0323
    MIXING:  cpu time      0.0116: real time      0.0116
    --------------------------------------------
      LOOP:  cpu time      0.1953: real time      0.1958

 eigenvalue-minimisations  :  1000
 total energy-change (2. order) : 0.4013460E+00  (-0.9114617E+00)
 number of electron      79.9999992 magnetization 
 augmentation part       -8.8557782 magnetization 

 Broyden mixing:
  rms(total) = 0.30526E+01    rms(broyden)= 0.30526E+01
  rms(prec ) = 0.31188E+01
  weight for this iteration     100.00

 eigenvalues of (default mixing * dielectric matrix)
  average eigenvalue GAMMA=   1.3248
  1.9941  1.9941  1.0108  1.0108  0.6144

 Free energy of the ion-electron system (eV)
  ---------------------------------------------------
  alpha Z        PSCENC =        55.48217190
  Ewald energy   TEWEN  =     -2140.16248874
  -Hartree energ DENC   =      -670.35011955
  -exchange      EXHF   =         0.00000000
  -V(xc)+E(xc)   XCENC  =        49.81391956
  PAW double counting   =     13074.56100868   -12946.41287072
  entropy T*S    EENTRO =        -0.00000000
  eigenvalues    EBANDS =      -323.92154432
  atomic energy  EATOM  =      2816.65831726
  Solvation  Ediel_sol  =         0.00000000
  ---------------------------------------------------
  free energy    TOTEN  =       -84.33160593 eV

  energy without entropy =      -84.33160593  energy(sigma->0) =      -84.33160593


--------------------------------------------------------------------------------------------------------




--------------------------------------- Iteration      1(  11)  ---------------------------------------


    POTLOK:  cpu time      0.0071: real time      0.0075
    SETDIJ:  cpu time      0.0103: real time      0.0103
     EDDAV:  cpu time      0.1233: real time      0.1233
       DOS:  cpu time      0.0003: real time      0.0003
    CHARGE:  cpu time      0.0315: real time      0.0315
    MIXING:  cpu time      0.0121: real time      0.0120
    --------------------------------------------
      LOOP:  cpu time      0.1846: real time      0.1849

 eigenvalue-minimisations  :   928
 total energy-change (2. order) : 0.4061571E+00  (-0.2572422E+00)
 number of electron      79.9999991 magnetization 
 augmentation part       -8.7408148 magnetization 

 Broyden mixing:
  rms(total) = 0.15334E+01    rms(broyden)= 0.15334E+01
  rms(prec ) = 0.15643E+01
  weight for this iteration     100.00

 eigenvalues of (default mixing * dielectric matrix)
  average eigenvalue GAMMA=   1.3639
  2.3336  2.3336  1.0198  1.0198  0.7383  0.7383

 Free energy of the ion-electron system (eV)
  ---------------------------------------------------
  alpha Z        PSCENC =        55.48217190
  Ewald energy   TEWEN  =     -2140.16248874
  -Hartree energ DENC   =      -694.85867157
  -exchange      EXHF   =         0.00000000
  -V(xc)+E(xc)   XCENC  =        51.90336748
  PAW double counting   =     10676.30650435   -10547.51358112
  entropy T*S    EENTRO =        -0.00000000
  eigenvalues    EBANDS =      -301.74106838
  atomic energy  EATOM  =      2816.65831726
  Solvation  Ediel_sol  =         0.00000000
  ---------------------------------------------------
  free energy    TOTEN  =       -83.92544883 eV

  energy without entropy =      -83.92544883  energy(sigma->0) =      -83.92544883


--------------------------------------------------------------------------------------------------------




--------------------------------------- Iteration      1(  12)  ---------------------------------------


    POTLOK:  cpu time      0.0068: real time      0.0073
    SETDIJ:  cpu time      0.0103: real time      0.0103
     EDDAV:  cpu time      0.1372: real time      0.1372
       DOS:  cpu time      0.0003: real time      0.0003
    CHARGE:  cpu time      0.0320: real time      0.0320
    MIXING:  cpu time      0.0123: real time      0.0123
    --------------------------------------------
      LOOP:  cpu time      0.1991: real time      0.1995

 eigenvalue-minimisations  :  1080
 total energy-change (2. order) :-0.2190552E-01  (-0.7045236E-01)
 number of electron      79.9999992 magnetization 
 augmentation part       -8.7498422 magnetization 

 Broyden mixing:
  rms(total) = 0.76558E+00    rms(broyden)= 0.76558E+00
  rms(prec ) = 0.77799E+00
  weight for this iteration     100.00

 eigenvalues of (default mixing * dielectric matrix)
  average eigenvalue GAMMA=   1.4517
  2.9661  2.0791  1.2197  1.2197  1.0875  0.7201  0.8694

 Free energy of the ion-electron system (eV)
  ---------------------------------------------------
  alpha Z        PSCENC =        55.48217190
  Ewald energy   TEWEN  =     -2140.16248874
  -Hartree energ DENC   =      -702.35367464
  -exchange      EXHF   =         0.00000000
  -V(xc)+E(xc)   XCENC  =        52.66262134
  PAW double counting   =      9671.37763497    -9542.10809719
  entropy T*S    EENTRO =        -0.00000000
  eigenvalues    EBANDS =      -295.50383924
  atomic energy  EATOM  =      2816.65831726
  Solvation  Ediel_sol  =         0.00000000
  ---------------------------------------------------
  free energy    TOTEN  =       -83.94735435 eV

  energy without entropy =      -83.94735435  energy(sigma->0) =      -83.94735435


--------------------------------------------------------------------------------------------------------




--------------------------------------- Iteration      1(  13)  ---------------------------------------


    POTLOK:  cpu time      0.0070: real time      0.0075
    SETDIJ:  cpu time      0.0108: real time      0.0108
     EDDAV:  cpu time      0.1329: real time      0.1329
       DOS:  cpu time      0.0003: real time      0.0003
    CHARGE:  cpu time      0.0316: real time      0.0316
    MIXING:  cpu time      0.0129: real time      0.0129
    --------------------------------------------
      LOOP:  cpu time      0.1957: real time      0.1961

 eigenvalue-minimisations  :   992
 total energy-change (2. order) :-0.2610500E-01  (-0.1705981E-01)
 number of electron      79.9999992 magnetization 
 augmentation part       -8.7393503 magnetization 

 Broyden mixing:
  rms(total) = 0.26417E+00    rms(broyden)= 0.26417E+00
  rms(prec ) = 0.26930E+00
  weight for this iteration     100.00

 eigenvalues of (default mixing * dielectric matrix)
  average eigenvalue GAMMA=   1.3910
  2.7261  2.3089  1.3436  1.3436  1.0668  0.8763  0.7312  0.7312

 Free energy of the ion-electron system (eV)
  ---------------------------------------------------
  alpha Z        PSCENC =        55.48217190
  Ewald energy   TEWEN  =     -2140.16248874
  -Hartree energ DENC   =      -707.71797169
  -exchange      EXHF   =         0.00000000
  -V(xc)+E(xc)   XCENC  =        53.17032816
  PAW double counting   =      8796.46818121    -8667.07106709
  entropy T*S    EENTRO =        -0.00000000
  eigenvalues    EBANDS =      -290.80093036
  atomic energy  EATOM  =      2816.65831726
  Solvation  Ediel_sol  =         0.00000000
  ---------------------------------------------------
  free energy    TOTEN  =       -83.97345935 eV

  energy without entropy =      -83.97345935  energy(sigma->0) =      -83.97345935


--------------------------------------------------------------------------------------------------------




--------------------------------------- Iteration      1(  14)  ---------------------------------------


    POTLOK:  cpu time      0.0071: real time      0.0074
    SETDIJ:  cpu time      0.0105: real time      0.0105
     EDDAV:  cpu time      0.1426: real time      0.1426
       DOS:  cpu time      0.0003: real time      0.0003
    CHARGE:  cpu time      0.0320: real time      0.0320
    MIXING:  cpu time      0.0134: real time      0.0134
    --------------------------------------------
      LOOP:  cpu time      0.2060: real time      0.2063

 eigenvalue-minimisations  :  1104
 total energy-change (2. order) :-0.2063650E-02  (-0.3277802E-02)
 number of electron      79.9999992 magnetization 
 augmentation part       -8.7395596 magnetization 

 Broyden mixing:
  rms(total) = 0.16837E+00    rms(broyden)= 0.16837E+00
  rms(prec ) = 0.17063E+00
  weight for this iteration     100.00

 eigenvalues of (default mixing * dielectric matrix)
  average eigenvalue GAMMA=   1.4061
  2.6455  2.6455  1.4578  1.4578  0.9716  0.9716  0.9099  0.9099  0.6856

 Free energy of the ion-electron system (eV)
  ---------------------------------------------------
  alpha Z        PSCENC =        55.48217190
  Ewald energy   TEWEN  =     -2140.16248874
  -Hartree energ DENC   =      -709.00405078
  -exchange      EXHF   =         0.00000000
  -V(xc)+E(xc)   XCENC  =        53.23935135
  PAW double counting   =      8578.23856026    -8448.88086408
  entropy T*S    EENTRO =        -0.00000000
  eigenvalues    EBANDS =      -289.54652017
  atomic energy  EATOM  =      2816.65831726
  Solvation  Ediel_sol  =         0.00000000
  ---------------------------------------------------
  free energy    TOTEN  =       -83.97552300 eV

  energy without entropy =      -83.97552300  energy(sigma->0) =      -83.97552300


--------------------------------------------------------------------------------------------------------




--------------------------------------- Iteration      1(  15)  ---------------------------------------


    POTLOK:  cpu time      0.0069: real time      0.0073
    SETDIJ:  cpu time      0.0111: real time      0.0111
     EDDAV:  cpu time      0.1260: real time      0.1260
       DOS:  cpu time      0.0003: real time      0.0003
    CHARGE:  cpu time      0.0322: real time      0.0321
    MIXING:  cpu time      0.0143: real time      0.0143
    --------------------------------------------
      LOOP:  cpu time      0.1908: real time      0.1912

 eigenvalue-minimisations  :   936
 total energy-change (2. order) :-0.2369599E-02  (-0.3469964E-03)
 number of electron      79.9999992 magnetization 
 augmentation part       -8.7393179 magnetization 

 Broyden mixing:
  rms(total) = 0.88095E-01    rms(broyden)= 0.88095E-01
  rms(prec ) = 0.90004E-01
  weight for this iteration     100.00

 eigenvalues of (default mixing * dielectric matrix)
  average eigenvalue GAMMA=   1.4698
  2.9519  2.7005  1.8107  1.4079  1.2461  1.2461  0.9714  0.7707  0.7707  0.8222

 Free energy of the ion-electron system (eV)
  ---------------------------------------------------
  alpha Z        PSCENC =        55.48217190
  Ewald energy   TEWEN  =     -2140.16248874
  -Hartree energ DENC   =      -709.46720084
  -exchange      EXHF   =         0.00000000
  -V(xc)+E(xc)   XCENC  =        53.27760171
  PAW double counting   =      8449.79626520    -8320.44716191
  entropy T*S    EENTRO =        -0.00000000
  eigenvalues    EBANDS =      -289.11539717
  atomic energy  EATOM  =      2816.65831726
  Solvation  Ediel_sol  =         0.00000000
  ---------------------------------------------------
  free energy    TOTEN  =       -83.97789260 eV

  energy without entropy =      -83.97789260  energy(sigma->0) =      -83.97789260


--------------------------------------------------------------------------------------------------------




--------------------------------------- Iteration      1(  16)  ---------------------------------------


    POTLOK:  cpu time      0.0070: real time      0.0074
    SETDIJ:  cpu time      0.0104: real time      0.0104
     EDDAV:  cpu time      0.1234: real time      0.1233
       DOS:  cpu time      0.0004: real time      0.0004
    CHARGE:  cpu time      0.0320: real time      0.0320
    MIXING:  cpu time      0.0142: real time      0.0142
    --------------------------------------------
      LOOP:  cpu time      0.1873: real time      0.1877

 eigenvalue-minimisations  :   928
 total energy-change (2. order) :-0.4042855E-03  (-0.4567985E-03)
 number of electron      79.9999992 magnetization 
 augmentation part       -8.7340835 magnetization 

 Broyden mixing:
  rms(total) = 0.14096E-01    rms(broyden)= 0.14096E-01
  rms(prec ) = 0.14845E-01
  weight for this iteration     100.00

 eigenvalues of (default mixing * dielectric matrix)
  average eigenvalue GAMMA=   1.4319
  3.0679  2.6067  1.7425  1.5724  1.2760  1.2760  0.8697  0.8697  0.9409  0.7241
  0.8052

 Free energy of the ion-electron system (eV)
  ---------------------------------------------------
  alpha Z        PSCENC =        55.48217190
  Ewald energy   TEWEN  =     -2140.16248874
  -Hartree energ DENC   =      -710.70332346
  -exchange      EXHF   =         0.00000000
  -V(xc)+E(xc)   XCENC  =        53.36899535
  PAW double counting   =      8303.86844794    -8174.54515430
  entropy T*S    EENTRO =        -0.00000000
  eigenvalues    EBANDS =      -287.94526283
  atomic energy  EATOM  =      2816.65831726
  Solvation  Ediel_sol  =         0.00000000
  ---------------------------------------------------
  free energy    TOTEN  =       -83.97829689 eV

  energy without entropy =      -83.97829689  energy(sigma->0) =      -83.97829689


--------------------------------------------------------------------------------------------------------




--------------------------------------- Iteration      1(  17)  ---------------------------------------


    POTLOK:  cpu time      0.0071: real time      0.0075
    SETDIJ:  cpu time      0.0103: real time      0.0103
     EDDAV:  cpu time      0.1364: real time      0.1363
       DOS:  cpu time      0.0004: real time      0.0003
    CHARGE:  cpu time      0.0316: real time      0.0316
    MIXING:  cpu time      0.0152: real time      0.0152
    --------------------------------------------
      LOOP:  cpu time      0.2009: real time      0.2013

 eigenvalue-minimisations  :  1048
 total energy-change (2. order) :-0.6026576E-04  (-0.5256108E-04)
 number of electron      79.9999992 magnetization 
 augmentation part       -8.7343991 magnetization 

 Broyden mixing:
  rms(total) = 0.94826E-02    rms(broyden)= 0.94826E-02
  rms(prec ) = 0.99917E-02
  weight for this iteration     100.00

 eigenvalues of (default mixing * dielectric matrix)
  average eigenvalue GAMMA=   1.4434
  2.8592  2.7931  1.9270  1.9270  1.2146  1.2146  1.0115  1.0115  0.7885  0.7885
  0.8037  0.9820

 Free energy of the ion-electron system (eV)
  ---------------------------------------------------
  alpha Z        PSCENC =        55.48217190
  Ewald energy   TEWEN  =     -2140.16248874
  -Hartree energ DENC   =      -710.83731312
  -exchange      EXHF   =         0.00000000
  -V(xc)+E(xc)   XCENC  =        53.37938327
  PAW double counting   =      8294.46240774    -8165.14344966
  entropy T*S    EENTRO =        -0.00000000
  eigenvalues    EBANDS =      -287.81738580
  atomic energy  EATOM  =      2816.65831726
  Solvation  Ediel_sol  =         0.00000000
  ---------------------------------------------------
  free energy    TOTEN  =       -83.97835715 eV

  energy without entropy =      -83.97835715  energy(sigma->0) =      -83.97835715


--------------------------------------------------------------------------------------------------------




--------------------------------------- Iteration      1(  18)  ---------------------------------------


    POTLOK:  cpu time      0.0069: real time      0.0073
    SETDIJ:  cpu time      0.0105: real time      0.0105
     EDDAV:  cpu time      0.1234: real time      0.1234
       DOS:  cpu time      0.0003: real time      0.0003
    --------------------------------------------
      LOOP:  cpu time      0.2201: real time      0.2204

 eigenvalue-minimisations  :   928
 total energy-change (2. order) :-0.4507549E-05  (-0.7445658E-05)
 number of electron      79.9999992 magnetization 
 augmentation part       -8.7343991 magnetization 

 Free energy of the ion-electron system (eV)
  ---------------------------------------------------
  alpha Z        PSCENC =        55.48217190
  Ewald energy   TEWEN  =     -2140.16248874
  -Hartree energ DENC   =      -710.96231636
  -exchange      EXHF   =         0.00000000
  -V(xc)+E(xc)   XCENC  =        53.38834722
  PAW double counting   =      8293.43803252    -8164.12319158
  entropy T*S    EENTRO =        -0.00000000
  eigenvalues    EBANDS =      -287.69723388
  atomic energy  EATOM  =      2816.65831726
  Solvation  Ediel_sol  =         0.00000000
  ---------------------------------------------------
  free energy    TOTEN  =       -83.97836166 eV

  energy without entropy =      -83.97836166  energy(sigma->0) =      -83.97836166


--------------------------------------------------------------------------------------------------------




 the core state eigenenergies are
   1-  1s  -2076.2228  2s   -166.2677  2p   -116.7529
   2-  1s  -2076.2231  2s   -166.2680  2p   -116.7532
   3-  1s  -2076.2143  2s   -166.2636  2p   -116.7484
   4-  1s  -2076.2142  2s   -166.2636  2p   -116.7484
   5-  1s  -2076.2431  2s   -166.2836  2p   -116.7692
   6-  1s  -2076.2432  2s   -166.2838  2p   -116.7694
   7-  1s  -2076.2432  2s   -166.2839  2p   -116.7694
   8-  1s  -2076.2432  2s   -166.2837  2p   -116.7693
   9-  1s  -2076.2242  2s   -166.2680  2p   -116.7533
  10-  1s  -2076.2242  2s   -166.2679  2p   -116.7532
  11-  1s  -2076.2140  2s   -166.2626  2p   -116.7474
  12-  1s  -2076.2140  2s   -166.2625  2p   -116.7473
  13-  1s  -2076.2443  2s   -166.2838  2p   -116.7694
  14-  1s  -2076.2442  2s   -166.2836  2p   -116.7692
  15-  1s  -2076.2443  2s   -166.2837  2p   -116.7694
  16-  1s  -2076.2441  2s   -166.2837  2p   -116.7693
 
 E-fermi :   1.0661     XC(G=0):  -7.7542     alpha+bet : -7.6368

 Fermi energy:         1.0660522271

 k-point     1 :       0.0000    0.0000    0.0000
  band No.  band energies     occupation 
      1     -13.3686      2.00000
      2     -13.2812      2.00000
      3     -13.2364      2.00000
      4     -13.1642      2.00000
      5      -7.0247      2.00000
      6      -6.9525      2.00000
      7      -6.8150      2.00000
      8      -6.6979      2.00000
      9      -6.5020      2.00000
     10      -6.4029      2.00000
     11      -6.3827      2.00000
     12      -6.3625      2.00000
     13      -6.3328      2.00000
     14      -6.3153      2.00000
     15      -6.2899      2.00000
     16      -6.1929      2.00000
     17      -3.0058      2.00000
     18      -2.3662      2.00000
     19      -2.1164      2.00000
     20      -1.4500      2.00000
     21      -1.0885      2.00000
     22      -1.0547      2.00000
     23      -0.9122      2.00000
     24      -0.9080      2.00000
     25      -0.7406      2.00000
     26      -0.6955      2.00000
     27      -0.5287      2.00000
     28      -0.5122      2.00000
     29      -0.4084      2.00000
     30      -0.3917      2.00000
     31      -0.2197      2.00000
     32       0.0882      2.00000
     33       0.2100      2.00000
     34       0.2683      2.00000
     35       0.3113      2.00000
     36       0.3114      2.00000
     37       0.4527      2.00000
     38       0.4672      2.00000
     39       0.5733      2.00000
     40       0.6404      2.00000
     41       3.8403      0.00000
     42       4.0572      0.00000
     43       4.2589      0.00000
     44       4.4055      0.00000
     45       4.4378      0.00000
     46       4.5100      0.00000
     47       4.5197      0.00000
     48       4.5279      0.00000
     49       4.5876      0.00000

 k-point     2 :       0.5000    0.0000    0.0000
  band No.  band energies     occupation 
      1     -13.3320      2.00000
      2     -13.3311      2.00000
      3     -13.1948      2.00000
      4     -13.1939      2.00000
      5      -6.9330      2.00000
      6      -6.9324      2.00000
      7      -6.7102      2.00000
      8      -6.7092      2.00000
      9      -6.5404      2.00000
     10      -6.5400      2.00000
     11      -6.3755      2.00000
     12      -6.3733      2.00000
     13      -6.3607      2.00000
     14      -6.3591      2.00000
     15      -6.2505      2.00000
     16      -6.2500      2.00000
     17      -2.6350      2.00000
     18      -2.6345      2.00000
     19      -1.7466      2.00000
     20      -1.7463      2.00000
     21      -1.0130      2.00000
     22      -1.0127      2.00000
     23      -0.8830      2.00000
     24      -0.8824      2.00000
     25      -0.8033      2.00000
     26      -0.8022      2.00000
     27      -0.5704      2.00000
     28      -0.5700      2.00000
     29      -0.4084      2.00000
     30      -0.4071      2.00000
     31      -0.2418      2.00000
     32      -0.2414      2.00000
     33       0.1888      2.00000
     34       0.1905      2.00000
     35       0.3523      2.00000
     36       0.3543      2.00000
     37       0.5581      2.00000
     38       0.5601      2.00000
     39       0.5963      2.00000
     40       0.5978      2.00000
     41       4.1341      0.00000
     42       4.1348      0.00000
     43       4.3323      0.00000
     44       4.3327      0.00000
     45       4.4945      0.00000
     46       4.4969      0.00000
     47       5.0021      0.00000
     48       5.0068      0.00000
     49       5.0481      0.00000

 k-point     3 :       0.0000    0.5000    0.0000
  band No.  band energies     occupation 
      1     -13.3050      2.00000
      2     -13.3030      2.00000
      3     -13.2248      2.00000
      4     -13.2228      2.00000
      5      -6.8569      2.00000
      6      -6.8554      2.00000
      7      -6.7050      2.00000
      8      -6.7044      2.00000
      9      -6.6168      2.00000
     10      -6.6164      2.00000
     11      -6.3651      2.00000
     12      -6.3637      2.00000
     13      -6.3517      2.00000
     14      -6.3497      2.00000
     15      -6.2806      2.00000
     16      -6.2788      2.00000
     17      -2.4744      2.00000
     18      -2.4723      2.00000
     19      -1.8138      2.00000
     20      -1.8117      2.00000
     21      -1.1987      2.00000
     22      -1.1984      2.00000
     23      -1.0734      2.00000
     24      -1.0725      2.00000
     25      -0.9245      2.00000
     26      -0.9223      2.00000
     27      -0.3852      2.00000
     28      -0.3851      2.00000
     29      -0.2693      2.00000
     30      -0.2688      2.00000
     31      -0.1556      2.00000
     32      -0.1535      2.00000
     33       0.2335      2.00000
     34       0.2356      2.00000
     35       0.2600      2.00000
     36       0.2616      2.00000
     37       0.5457      2.00000
     38       0.5474      2.00000
     39       0.6281      2.00000
     40       0.6297      2.00000
     41       4.2113      0.00000
     42       4.2122      0.00000
     43       4.4443      0.00000
     44       4.4461      0.00000
     45       4.6319      0.00000
     46       4.6332      0.00000
     47       4.8749      0.00000
     48       4.8930      0.00000
     49       4.8951      0.00000

 k-point     4 :       0.5000    0.5000    0.0000
  band No.  band energies     occupation 
      1     -13.2937      2.00000
      2     -13.2917      2.00000
      3     -13.2368      2.00000
      4     -13.2348      2.00000
      5      -6.7834      2.00000
      6      -6.7827      2.00000
      7      -6.6649      2.00000
      8      -6.6629      2.00000
      9      -6.5897      2.00000
     10      -6.5892      2.00000
     11      -6.4964      2.00000
     12      -6.4949      2.00000
     13      -6.3562      2.00000
     14      -6.3541      2.00000
     15      -6.3149      2.00000
     16      -6.3136      2.00000
     17      -2.2168      2.00000
     18      -2.2147      2.00000
     19      -1.9831      2.00000
     20      -1.9810      2.00000
     21      -1.1976      2.00000
     22      -1.1967      2.00000
     23      -1.0772      2.00000
     24      -1.0759      2.00000
     25      -0.8456      2.00000
     26      -0.8456      2.00000
     27      -0.6847      2.00000
     28      -0.6824      2.00000
     29      -0.2449      2.00000
     30      -0.2439      2.00000
     31      -0.1011      2.00000
     32      -0.1005      2.00000
     33       0.2700      2.00000
     34       0.2703      2.00000
     35       0.3826      2.00000
     36       0.3829      2.00000
     37       0.4909      2.00000
     38       0.4927      2.00000
     39       0.5425      2.00000
     40       0.5439      2.00000
     41       4.3419      0.00000
     42       4.3435      0.00000
     43       4.4781      0.00000
     44       4.4788      0.00000
     45       4.7196      0.00000
     46       4.7208      0.00000
     47       4.7581      0.00000
     48       4.7593      0.00000
     49       5.2181      0.00000

 k-point     5 :       0.0000    0.0000    0.5000
  band No.  band energies     occupation 
      1     -13.3063      2.00000
      2     -13.2465      2.00000
      3     -13.2148      2.00000
      4     -13.1722      2.00000
      5      -6.9752      2.00000
      6      -6.8100      2.00000
      7      -6.7843      2.00000
      8      -6.7290      2.00000
      9      -6.7208      2.00000
     10      -6.6764      2.00000
     11      -6.6716      2.00000
     12      -6.4850      2.00000
     13      -6.4679      2.00000
     14      -6.4446      2.00000
     15      -6.4295      2.00000
     16      -6.4205      2.00000
     17      -2.1718      2.00000
     18      -1.7588      2.00000
     19      -1.6006      2.00000
     20      -1.5149      2.00000
     21      -0.9796      2.00000
     22      -0.8037      2.00000
     23      -0.7978      2.00000
     24      -0.7756      2.00000
     25      -0.6274      2.00000
     26      -0.4243      2.00000
     27      -0.4234      2.00000
     28      -0.4011      2.00000
     29      -0.2752      2.00000
     30      -0.2374      2.00000
     31      -0.1672      2.00000
     32      -0.0803      2.00000
     33      -0.0310      2.00000
     34      -0.0064      2.00000
     35       0.2178      2.00000
     36       0.2300      2.00000
     37       0.3047      2.00000
     38       0.3957      2.00000
     39       0.4553      2.00000
     40       0.5905      2.00000
     41       4.3990      0.00000
     42       4.4697      0.00000
     43       4.5284      0.00000
     44       4.7236      0.00000
     45       4.8386      0.00000
     46       4.9086      0.00000
     47       4.9517      0.00000
     48       4.9645      0.00000
     49       5.2440      0.00000

 k-point     6 :       0.5000    0.0000    0.5000
  band No.  band energies     occupation 
      1     -13.2814      2.00000
      2     -13.2805      2.00000
      3     -13.1896      2.00000
      4     -13.1887      2.00000
      5      -6.9453      2.00000
      6      -6.9444      2.00000
      7      -6.7604      2.00000
      8      -6.7593      2.00000
      9      -6.7315      2.00000
     10      -6.7310      2.00000
     11      -6.4828      2.00000
     12      -6.4814      2.00000
     13      -6.4375      2.00000
     14      -6.4358      2.00000
     15      -6.4348      2.00000
     16      -6.4343      2.00000
     17      -1.9751      2.00000
     18      -1.9748      2.00000
     19      -1.7713      2.00000
     20      -1.7703      2.00000
     21      -0.8924      2.00000
     22      -0.8907      2.00000
     23      -0.7946      2.00000
     24      -0.7936      2.00000
     25      -0.4199      2.00000
     26      -0.4181      2.00000
     27      -0.3775      2.00000
     28      -0.3764      2.00000
     29      -0.2362      2.00000
     30      -0.2349      2.00000
     31      -0.2132      2.00000
     32      -0.2123      2.00000
     33      -0.0528      2.00000
     34      -0.0514      2.00000
     35       0.1701      2.00000
     36       0.1705      2.00000
     37       0.5752      2.00000
     38       0.5763      2.00000
     39       0.7072      2.00000
     40       0.7095      2.00000
     41       4.4558      0.00000
     42       4.4570      0.00000
     43       4.6481      0.00000
     44       4.6496      0.00000
     45       4.6767      0.00000
     46       4.6772      0.00000
     47       4.7640      0.00000
     48       4.7647      0.00000
     49       5.2332      0.00000

 k-point     7 :       0.0000    0.5000    0.5000
  band No.  band energies     occupation 
      1     -13.2621      2.00000
      2     -13.2601      2.00000
      3     -13.2106      2.00000
      4     -13.2086      2.00000
      5      -6.9939      2.00000
      6      -6.9926      2.00000
      7      -6.8881      2.00000
      8      -6.8874      2.00000
      9      -6.6732      2.00000
     10      -6.6712      2.00000
     11      -6.4955      2.00000
     12      -6.4940      2.00000
     13      -6.3581      2.00000
     14      -6.3580      2.00000
     15      -6.3359      2.00000
     16      -6.3358      2.00000
     17      -1.9189      2.00000
     18      -1.9173      2.00000
     19      -1.8389      2.00000
     20      -1.8378      2.00000
     21      -0.9368      2.00000
     22      -0.9367      2.00000
     23      -0.9271      2.00000
     24      -0.9262      2.00000
     25      -0.7228      2.00000
     26      -0.7211      2.00000
     27      -0.4898      2.00000
     28      -0.4896      2.00000
     29      -0.1082      2.00000
     30      -0.1069      2.00000
     31      -0.0981      2.00000
     32      -0.0956      2.00000
     33       0.1151      2.00000
     34       0.1159      2.00000
     35       0.1823      2.00000
     36       0.1830      2.00000
     37       0.6515      2.00000
     38       0.6521      2.00000
     39       0.7170      2.00000
     40       0.7180      2.00000
     41       4.4209      0.00000
     42       4.4220      0.00000
     43       4.6348      0.00000
     44       4.6357      0.00000
     45       4.9338      0.00000
     46       4.9353      0.00000
     47       5.1416      0.00000
     48       5.1423      0.00000
     49       5.2374      0.00000

 k-point     8 :       0.5000    0.5000    0.5000
  band No.  band energies     occupation 
      1     -13.2559      2.00000
      2     -13.2539      2.00000
      3     -13.2169      2.00000
      4     -13.2149      2.00000
      5      -7.0096      2.00000
      6      -7.0083      2.00000
      7      -6.9504      2.00000
      8      -6.9492      2.00000
      9      -6.5609      2.00000
     10      -6.5593      2.00000
     11      -6.4875      2.00000
     12      -6.4866      2.00000
     13      -6.3942      2.00000
     14      -6.3935      2.00000
     15      -6.3218      2.00000
     16      -6.3217      2.00000
     17      -2.0329      2.00000
     18      -2.0316      2.00000
     19      -1.8785      2.00000
     20      -1.8770      2.00000
     21      -1.1260      2.00000
     22      -1.1247      2.00000
     23      -0.8435      2.00000
     24      -0.8434      2.00000
     25      -0.7366      2.00000
     26      -0.7365      2.00000
     27      -0.3536      2.00000
     28      -0.3524      2.00000
     29      -0.1507      2.00000
     30      -0.1495      2.00000
     31       0.0116      2.00000
     32       0.0132      2.00000
     33       0.0585      2.00000
     34       0.0598      2.00000
     35       0.4802      2.00000
     36       0.4810      2.00000
     37       0.5600      2.00000
     38       0.5603      2.00000
     39       0.8336      2.00000
     40       0.8351      2.00000
     41       4.1439      0.00000
     42       4.1449      0.00000
     43       4.3539      0.00000
     44       4.3552      0.00000
     45       4.8604      0.00000
     46       4.8610      0.00000
     47       4.8681      0.00000
     48       4.8687      0.00000
     49       5.3397      0.00000


--------------------------------------------------------------------------------------------------------


 soft charge-density along one line, spin component            1
         0         1         2         3         4         5         6         7         8         9
 total charge-density along one line
 
 pseudopotential strength for first ion, spin component:            1
 29.214  36.442   0.026   0.009  -0.000   0.041   0.015  -0.000
 36.442  45.462   0.032   0.012  -0.000   0.051   0.018  -0.000
  0.026   0.032   6.477   0.002   0.000  10.017   0.004   0.000
  0.009   0.012   0.002   6.471   0.000   0.004  10.008   0.000
 -0.000  -0.000   0.000   0.000   6.470   0.000   0.000  10.007
  0.041   0.051  10.017   0.004   0.000  15.509   0.006   0.000
  0.015   0.018   0.004  10.008   0.000   0.006  15.496   0.000
 -0.000  -0.000   0.000   0.000  10.007   0.000   0.000  15.494
 total augmentation occupancy for first ion, spin component:            1
  7.985  -4.508   3.762   1.352   0.000  -1.505  -0.541  -0.000
 -4.508   3.313  -3.140  -1.129  -0.000   1.130   0.406   0.000
  3.762  -3.140   3.942   0.414   0.000  -1.278  -0.204  -0.000
  1.352  -1.129   0.414   2.970  -0.000  -0.204  -0.791   0.000
  0.000  -0.000   0.000  -0.000   2.806  -0.000   0.000  -0.713
 -1.505   1.130  -1.278  -0.204  -0.000   0.465   0.092   0.000
 -0.541   0.406  -0.204  -0.791   0.000   0.092   0.245  -0.000
 -0.000   0.000  -0.000   0.000  -0.713   0.000  -0.000   0.210


------------------------ aborting loop because EDIFF is reached ----------------------------------------


    CHARGE:  cpu time      0.0446: real time      0.0446
    FORLOC:  cpu time      0.0012: real time      0.0012
    FORNL :  cpu time      0.0844: real time      0.0844
    STRESS:  cpu time      0.2625: real time      0.2625
    FORCOR:  cpu time      0.0071: real time      0.0071
    FORHAR:  cpu time      0.0014: real time      0.0014
    MIXING:  cpu time      0.0159: real time      0.0159
    OFIELD:  cpu time      0.0000: real time      0.0000

  FORCE on cell =-STRESS in cart. coord.  units (eV):
  Direction    XX          YY          ZZ          XY          YZ          ZX
  --------------------------------------------------------------------------------------
  Alpha Z    55.48217    55.48217    55.48217
  Ewald    -652.10342  -786.60070  -701.46471     0.00004    10.30198     0.00014
  Hartree   278.02209   187.46917   245.48160    -0.00029     7.41088     0.00027
  E(xc)    -267.25507  -267.43363  -267.53923     0.00001    -0.00894     0.00000
  Local    -936.83523  -712.17406  -856.69520     0.00022   -17.84769    -0.00047
  n-local   911.36620   911.38587   913.07267    -0.00002     0.13826     0.00005
  augment  -173.98104  -173.96745  -174.29811    -0.00001    -0.01548     0.00002
  Kinetic   786.33940   786.73632   790.53483     0.00029    -0.03474    -0.00020
  Fock        0.00000     0.00000     0.00000     0.00000     0.00000     0.00000
  -------------------------------------------------------------------------------------
  Total       1.03511     0.89768     4.57402     0.00025    -0.05572    -0.00017
  in kB       3.58495     3.10898    15.84141     0.00085    -0.19297    -0.00059
  external pressure =        7.51 kB  Pullay stress =        0.00 kB


 VOLUME and BASIS-vectors are now :
 -----------------------------------------------------------------------------
  energy-cutoff  :      450.00
  volume of cell :      462.61
      direct lattice vectors                 reciprocal lattice vectors
     0.000000000  9.655935788  0.000000000     0.000000000  0.103563240 -0.000440236
     8.584947329  0.000000000  0.000000000     0.116482951 -0.000000000  0.000000000
     0.000000000 -0.023722583 -5.580620493     0.000000000  0.000000000 -0.179191544

  length of vectors
     9.655935788  8.584947329  5.580670914     0.103564176  0.116482951  0.179191544


 FORCES acting on ions
    electron-ion (+dipol)            ewald-force                    non-local-force                 convergence-correction
 -----------------------------------------------------------------------------------------------
   0.222E-03 0.122E+03 0.458E+02   0.620E-04 -.126E+03 -.473E+02   0.882E-05 0.400E+01 0.145E+01   -.296E-03 0.162E-02 0.200E-02
   0.265E-03 -.122E+03 -.458E+02   -.123E-03 0.126E+03 0.473E+02   -.361E-04 -.400E+01 -.145E+01   -.937E-04 -.178E-03 -.257E-02
   0.329E-03 0.106E+02 -.112E+03   -.445E-04 -.106E+02 0.117E+03   -.303E-04 0.117E-01 -.453E+01   -.251E-03 -.234E-02 -.340E-02
   0.328E-03 -.106E+02 0.112E+03   0.805E-04 0.106E+02 -.117E+03   -.189E-03 -.116E-01 0.453E+01   -.223E-03 0.158E-02 0.364E-02
   0.954E+02 -.537E+02 0.477E+02   -.987E+02 0.557E+02 -.492E+02   0.338E+01 -.207E+01 0.144E+01   -.341E-02 -.308E-02 0.124E-02
   0.954E+02 0.537E+02 -.477E+02   -.987E+02 -.557E+02 0.492E+02   0.338E+01 0.207E+01 -.144E+01   -.335E-02 0.117E-02 -.187E-02
   -.954E+02 0.537E+02 -.477E+02   0.987E+02 -.557E+02 0.492E+02   -.338E+01 0.207E+01 -.144E+01   0.325E-02 0.143E-02 -.173E-02
   -.954E+02 -.537E+02 0.477E+02   0.987E+02 0.557E+02 -.492E+02   -.338E+01 -.207E+01 0.144E+01   0.317E-02 -.296E-02 0.109E-02
   0.167E-03 0.122E+03 0.458E+02   0.837E-04 -.126E+03 -.473E+02   -.154E-03 0.400E+01 0.145E+01   -.110E-03 0.553E-02 0.999E-03
   -.419E-03 -.122E+03 -.458E+02   -.841E-04 0.126E+03 0.473E+02   0.253E-03 -.400E+01 -.145E+01   0.229E-03 -.714E-02 -.918E-03
   0.421E-03 0.105E+02 -.112E+03   -.608E-04 -.106E+02 0.117E+03   -.226E-03 0.189E-01 -.453E+01   -.140E-03 0.100E-01 -.273E-02
   -.677E-03 -.105E+02 0.112E+03   0.487E-04 0.106E+02 -.117E+03   0.314E-03 -.191E-01 0.453E+01   0.316E-03 -.973E-02 0.284E-02
   0.953E+02 -.537E+02 0.477E+02   -.987E+02 0.557E+02 -.492E+02   0.338E+01 -.207E+01 0.144E+01   0.116E-01 0.844E-02 0.297E-02
   0.953E+02 0.537E+02 -.477E+02   -.987E+02 -.557E+02 0.492E+02   0.338E+01 0.207E+01 -.144E+01   0.111E-01 -.735E-02 -.281E-02
   -.953E+02 0.537E+02 -.477E+02   0.987E+02 -.557E+02 0.492E+02   -.338E+01 0.207E+01 -.144E+01   -.112E-01 -.711E-02 -.299E-02
   -.953E+02 -.537E+02 0.477E+02   0.987E+02 0.557E+02 -.492E+02   -.338E+01 -.207E+01 0.144E+01   -.113E-01 0.882E-02 0.286E-02
 -----------------------------------------------------------------------------------------------
   0.329E-03 0.179E-02 0.120E-02   0.426E-13 -.639E-13 0.711E-14   0.288E-03 -.355E-03 0.201E-03   -.682E-03 -.127E-02 -.138E-02
 
 
 POSITION                                       TOTAL-FORCE (eV/Angst)
 -----------------------------------------------------------------------------------
      4.29247      6.27336     -4.18863         0.000001     -0.003911     -0.001474
      4.29247      3.35885     -1.39198         0.000015      0.003800      0.001315
      4.29247      7.53894     -2.39348         0.000008      0.003920     -0.003313
      4.29247      2.09327     -3.18714         0.000001     -0.003840      0.003635
      3.19113      8.18226     -4.18634         0.001799     -0.003555     -0.000597
      3.19113      1.44994     -1.39428         0.001978      0.003596      0.000518
      5.39381      1.44995     -1.39428        -0.002001      0.003617      0.000512
      5.39381      8.18226     -4.18634        -0.001801     -0.003571     -0.000596
      0.00000      1.44540     -4.18864        -0.000010     -0.005999     -0.001998
      8.58495      8.18681     -1.39198        -0.000017      0.006081      0.002103
      8.58495      2.71099     -2.39349        -0.000001      0.003493     -0.001193
      0.00000      6.92123     -3.18713         0.000006     -0.003553      0.000927
      7.48361      3.35430     -4.18635         0.001704     -0.002655     -0.001467
      7.48361      6.27791     -1.39428         0.001448      0.002611      0.001565
      1.10134      6.27792     -1.39427        -0.001453      0.002598      0.001544
      1.10134      3.35430     -4.18635        -0.001676     -0.002631     -0.001480
 -----------------------------------------------------------------------------------
    total drift:                               -0.000065      0.000165      0.000016


--------------------------------------------------------------------------------------------------------



  FREE ENERGIE OF THE ION-ELECTRON SYSTEM (eV)
  ---------------------------------------------------
  free  energy   TOTEN  =       -83.97836166 eV

  energy  without entropy=      -83.97836166  energy(sigma->0) =      -83.97836166
 


--------------------------------------------------------------------------------------------------------


    POTLOK:  cpu time      0.0208: real time      0.0208


--------------------------------------------------------------------------------------------------------


 writing wavefunctions
     LOOP+:  cpu time      4.8015: real time      5.1516
    4ORBIT:  cpu time      0.0000: real time      0.0000

 total amount of memory used by VASP MPI-rank0   147057. kBytes
=======================================================================

   base      :      30000. kBytes
   nonlr-proj:       1505. kBytes
   fftplans  :      20268. kBytes
   grid      :      31180. kBytes
   one-center:         49. kBytes
   wavefun   :      64055. kBytes
 
  
  
 General timing and accounting informations for this job:
 ========================================================
  
                  Total CPU time used (sec):        9.137
                            User time (sec):        7.559
                          System time (sec):        1.578
                         Elapsed time (sec):       11.476
  
                   Maximum memory used (kb):     3689408.
                   Average memory used (kb):          N/A
  
                          Minor page faults:        64628
                          Major page faults:            4
                 Voluntary context switches:         3824
