<?xml version="1.0" encoding="ISO-8859-1"?>
<modeling>
 <generator>
  <i name="program" type="string">vasp </i>
  <i name="version" type="string">6.4.2  </i>
  <i name="subversion" type="string">20Jul23 (build Nov 12 2023 22:16:35) complex                          parallel </i>
  <i name="platform" type="string">LinuxNV </i>
  <i name="date" type="string">2025 05 31 </i>
  <i name="time" type="string">20:12:17 </i>
 </generator>
 <incar>
  <i type="int" name="ISTART">     0</i>
  <i type="string" name="PREC">Normal</i>
  <i type="int" name="ISPIN">     1</i>
  <i type="int" name="ICHARG">     0</i>
  <i type="int" name="NELM">   300</i>
  <i type="int" name="IBRION">    -1</i>
  <i name="EDIFF">      0.00001000</i>
  <i name="EDIFFG">     -0.00500000</i>
  <i type="int" name="NSW">     0</i>
  <i type="int" name="ISIF">     2</i>
  <i type="int" name="ISYM">     0</i>
  <i name="ENCUT">    450.00000000</i>
  <i type="string" name="LREAL">Auto</i>
  <i type="logical" name="LPLANE"> T  </i>
  <i type="int" name="ISMEAR">     0</i>
  <i name="SIGMA">      0.05000000</i>
  <i type="logical" name="LWAVE"> T  </i>
  <i type="logical" name="LCHARG"> T  </i>
  <i type="int" name="ICORELEVEL">     1</i>
 </incar>
 <primitive_cell>
  <structure name="primitive_cell" >
   <crystal>
    <varray name="basis" >
     <v>       0.00000000       9.65593579       0.00000000 </v>
     <v>       8.58494733       0.00000000       0.00000000 </v>
     <v>       0.00000000      -0.02372258      -5.58062049 </v>
    </varray>
    <i name="volume">    462.60944306 </i>
    <varray name="rec_basis" >
     <v>       0.00000000       0.10356324      -0.00044024 </v>
     <v>       0.11648295      -0.00000000       0.00000000 </v>
     <v>       0.00000000       0.00000000      -0.17919154 </v>
    </varray>
   </crystal>
   <varray name="positions" >
    <v>       0.65153371       0.50000008       0.75056737 </v>
    <v>       0.34846610       0.49999978       0.24943192 </v>
    <v>       0.78181104       0.49999997       0.42889107 </v>
    <v>       0.21818848       0.50000008       0.57110907 </v>
    <v>       0.84922472       0.37171264       0.75015646 </v>
    <v>       0.15077466       0.37171277       0.24984376 </v>
    <v>       0.15077487       0.62828735       0.24984344 </v>
    <v>       0.84922485       0.62828738       0.75015624 </v>
    <v>       0.15153475       0.00000017       0.75056943 </v>
    <v>       0.84846541       0.99999993       0.24943119 </v>
    <v>       0.28181233       0.99999991       0.42889393 </v>
    <v>       0.71818822       0.00000001       0.57110596 </v>
    <v>       0.34922538       0.87171276       0.75015789 </v>
    <v>       0.65077490       0.87171271       0.24984245 </v>
    <v>       0.65077509       0.12828723       0.24984218 </v>
    <v>       0.34922549       0.12828724       0.75015763 </v>
   </varray>
  </structure>
  <varray name="primitive_index" >
   <v type="int" >        1 </v>
   <v type="int" >        2 </v>
   <v type="int" >        3 </v>
   <v type="int" >        4 </v>
   <v type="int" >        5 </v>
   <v type="int" >        6 </v>
   <v type="int" >        7 </v>
   <v type="int" >        8 </v>
   <v type="int" >        9 </v>
   <v type="int" >       10 </v>
   <v type="int" >       11 </v>
   <v type="int" >       12 </v>
   <v type="int" >       13 </v>
   <v type="int" >       14 </v>
   <v type="int" >       15 </v>
   <v type="int" >       16 </v>
  </varray>
 </primitive_cell>
 <kpoints>
  <generation param="Gamma">
   <v type="int" name="divisions">       2        2        2 </v>
   <v name="usershift">      0.00000000       0.00000000       0.00000000 </v>
   <v name="genvec1">      0.50000000       0.00000000      -0.00000000 </v>
   <v name="genvec2">      0.00000000       0.50000000       0.00000000 </v>
   <v name="genvec3">      0.00000000       0.00000000       0.50000000 </v>
   <v name="shift">      0.00000000       0.00000000       0.00000000 </v>
  </generation>
  <varray name="kpointlist" >
   <v>       0.00000000       0.00000000       0.00000000 </v>
   <v>       0.50000000       0.00000000       0.00000000 </v>
   <v>       0.00000000       0.50000000       0.00000000 </v>
   <v>       0.50000000       0.50000000       0.00000000 </v>
   <v>       0.00000000       0.00000000       0.50000000 </v>
   <v>       0.50000000       0.00000000       0.50000000 </v>
   <v>       0.00000000       0.50000000       0.50000000 </v>
   <v>       0.50000000       0.50000000       0.50000000 </v>
  </varray>
  <varray name="weights" >
   <v>       0.12500000 </v>
   <v>       0.12500000 </v>
   <v>       0.12500000 </v>
   <v>       0.12500000 </v>
   <v>       0.12500000 </v>
   <v>       0.12500000 </v>
   <v>       0.12500000 </v>
   <v>       0.12500000 </v>
  </varray>
 </kpoints>
 <parameters>
  <separator name="general" >
   <i type="string" name="SYSTEM">unknown system</i>
   <i type="logical" name="LCOMPAT"> F  </i>
  </separator>
  <separator name="electronic" >
   <i type="string" name="PREC">normal</i>
   <i name="ENMAX">    450.00000000</i>
   <i name="ENAUG">    342.92400000</i>
   <i name="EDIFF">      0.00001000</i>
   <i type="int" name="IALGO">    38</i>
   <i type="int" name="IWAVPR">    10</i>
   <i type="int" name="NBANDS">    49</i>
   <i type="int" name="NBANDSLOW">    -1</i>
   <i type="int" name="NBANDSHIGH">    -1</i>
   <i name="NELECT">     80.00000000</i>
   <i type="int" name="TURBO">     0</i>
   <i type="int" name="IRESTART">     0</i>
   <i type="int" name="NREBOOT">     0</i>
   <i type="int" name="NMIN">     0</i>
   <i name="EREF">      0.00000000</i>
   <separator name="electronic smearing" >
    <i type="int" name="ISMEAR">     0</i>
    <i name="SIGMA">      0.05000000</i>
    <i name="KSPACING">      0.50000000</i>
    <i type="logical" name="KGAMMA"> T  </i>
    <i type="logical" name="KBLOWUP"> T  </i>
   </separator>
   <separator name="electronic projectors" >
    <i type="logical" name="LREAL"> T  </i>
    <v name="ROPT">     -0.00050000</v>
    <i type="int" name="LMAXPAW">  -100</i>
    <i type="int" name="LMAXMIX">     2</i>
    <i type="logical" name="NLSPLINE"> F  </i>
   </separator>
   <separator name="electronic startup" >
    <i type="int" name="ISTART">     0</i>
    <i type="int" name="ICHARG">     0</i>
    <i type="int" name="INIWAV">     1</i>
   </separator>
   <separator name="electronic spin" >
    <i type="int" name="ISPIN">     1</i>
    <i type="logical" name="LNONCOLLINEAR"> F  </i>
    <v name="MAGMOM">      1.00000000      1.00000000      1.00000000      1.00000000      1.00000000      1.00000000      1.00000000      1.00000000      1.00000000      1.00000000      1.00000000      1.00000000      1.00000000      1.00000000      1.00000000      1.00000000</v>
    <i name="NUPDOWN">     -1.00000000</i>
    <i type="logical" name="LSORBIT"> F  </i>
    <v name="SAXIS">      0.00000000      0.00000000      1.00000000</v>
    <i type="logical" name="LSPIRAL"> F  </i>
    <v name="QSPIRAL">      0.00000000      0.00000000      0.00000000</v>
    <i type="logical" name="LZEROZ"> F  </i>
   </separator>
   <separator name="electronic exchange-correlation" >
    <i type="logical" name="LASPH"> F  </i>
    <i type="logical" name="LMETAGGA"> F  </i>
   </separator>
   <separator name="electronic convergence" >
    <i type="int" name="NELM">   300</i>
    <i type="int" name="NELMDL">    -5</i>
    <i type="int" name="NELMIN">     2</i>
    <i name="ENINI">    450.00000000</i>
    <separator name="electronic convergence detail" >
     <i type="logical" name="LDIAG"> T  </i>
     <i type="logical" name="LSUBROT"> F  </i>
     <i name="WEIMIN">      0.00000000</i>
     <i name="EBREAK">      0.00000005</i>
     <i name="DEPER">      0.30000000</i>
     <i type="int" name="NRMM">     4</i>
     <i name="TIME">      0.40000000</i>
    </separator>
   </separator>
   <separator name="electronic mixer" >
    <i name="AMIX">      0.40000000</i>
    <i name="BMIX">      1.00000000</i>
    <i name="AMIN">      0.10000000</i>
    <i name="AMIX_MAG">      1.60000000</i>
    <i name="BMIX_MAG">      1.00000000</i>
    <separator name="electronic mixer details" >
     <i type="int" name="IMIX">     4</i>
     <i type="logical" name="MIXFIRST"> F  </i>
     <i type="int" name="MAXMIX">   -45</i>
     <i name="WC">    100.00000000</i>
     <i type="int" name="INIMIX">     1</i>
     <i type="int" name="MIXPRE">     1</i>
     <i type="int" name="MREMOVE">     5</i>
    </separator>
   </separator>
   <separator name="electronic dipolcorrection" >
    <i type="logical" name="LDIPOL"> F  </i>
    <i type="logical" name="LMONO"> F  </i>
    <i type="int" name="IDIPOL">     0</i>
    <i name="EPSILON">      1.00000000</i>
    <v name="DIPOL">   -100.00000000   -100.00000000   -100.00000000</v>
    <i name="EFIELD">      0.00000000</i>
   </separator>
  </separator>
  <separator name="grids" >
   <i type="int" name="NGX">    50</i>
   <i type="int" name="NGY">    48</i>
   <i type="int" name="NGZ">    30</i>
   <i type="int" name="NGXF">   100</i>
   <i type="int" name="NGYF">    96</i>
   <i type="int" name="NGZF">    60</i>
   <i type="logical" name="ADDGRID"> F  </i>
  </separator>
  <separator name="ionic" >
   <i type="int" name="NSW">     0</i>
   <i type="int" name="IBRION">    -1</i>
   <i type="int" name="MDALGO">     0</i>
   <i type="int" name="ISIF">     2</i>
   <i name="PSTRESS">      0.00000000</i>
   <i name="EDIFFG">     -0.00500000</i>
   <i type="int" name="NFREE">     0</i>
   <i name="POTIM">      0.50000000</i>
   <i name="SMASS">     -3.00000000</i>
   <i name="SCALEE">      1.00000000</i>
  </separator>
  <separator name="ionic md" >
   <i name="TEBEG">      0.00010000</i>
   <i name="TEEND">      0.00010000</i>
   <i type="int" name="NBLOCK">     1</i>
   <i type="int" name="KBLOCK">     1</i>
   <i type="int" name="NPACO">   256</i>
   <i name="APACO">     10.00000000</i>
  </separator>
  <separator name="symmetry" >
   <i type="int" name="ISYM">     0</i>
   <i name="SYMPREC">      0.00001000</i>
  </separator>
  <separator name="dos" >
   <i type="int" name="LORBIT">     0</i>
   <v name="RWIGS">     -1.00000000</v>
   <i type="int" name="NEDOS">   301</i>
   <i name="EMIN">     10.00000000</i>
   <i name="EMAX">    -10.00000000</i>
   <i name="EFERMI">      0.00000000</i>
  </separator>
  <separator name="writing" >
   <i type="int" name="NWRITE">     2</i>
   <i type="logical" name="LWAVE"> T  </i>
   <i type="logical" name="LDOWNSAMPLE"> F  </i>
   <i type="logical" name="LCHARG"> T  </i>
   <i type="logical" name="LPARD"> F  </i>
   <i type="logical" name="LVTOT"> F  </i>
   <i type="logical" name="LVHAR"> F  </i>
   <i type="logical" name="LELF"> F  </i>
   <i type="logical" name="LOPTICS"> F  </i>
   <v name="STM">      0.00000000      0.00000000      0.00000000      0.00000000      0.00000000      0.00000000      0.00000000</v>
  </separator>
  <separator name="performance" >
   <i type="int" name="NPAR">     1</i>
   <i type="int" name="NSIM">     4</i>
   <i type="int" name="NBLK">    -1</i>
   <i type="logical" name="LPLANE"> T  </i>
   <i type="logical" name="LSCALAPACK"> T  </i>
   <i type="logical" name="LSCAAWARE"> F  </i>
   <i type="logical" name="LSCALU"> F  </i>
   <i type="logical" name="LASYNC"> F  </i>
   <i type="logical" name="LORBITALREAL"> F  </i>
  </separator>
  <separator name="miscellaneous" >
   <i type="int" name="IDIOT">     3</i>
   <i type="int" name="PHON_NSTRUCT">    -1</i>
   <i type="logical" name="LMUSIC"> F  </i>
   <v name="POMASS">     30.97400000</v>
   <v name="DARWINR">      0.00000000</v>
   <v name="DARWINV">      1.00000000</v>
   <i type="logical" name="LCORR"> T  </i>
  </separator>
  <i type="logical" name="GGA_COMPAT"> T  </i>
  <i type="logical" name="LBERRY"> F  </i>
  <i type="int" name="ICORELEVEL">     1</i>
  <i type="int" name="CLNT">     1</i>
  <i type="int" name="CLN">     1</i>
  <i type="int" name="CLL">     0</i>
  <i name="CLZ">      0.00000000</i>
  <i type="logical" name="LDAU"> F  </i>
  <i type="int" name="I_CONSTRAINED_M">     0</i>
  <separator name="electronic exchange-correlation" >
   <i type="string" name="GGA">--</i>
   <i type="int" name="VOSKOWN">     0</i>
   <i type="logical" name="LHFCALC"> F  </i>
   <i type="string" name="PRECFOCK"></i>
   <i type="logical" name="LSYMGRAD"> F  </i>
   <i type="logical" name="LHFONE"> F  </i>
   <i type="logical" name="LRHFCALC"> F  </i>
   <i type="logical" name="LTHOMAS"> F  </i>
   <i type="logical" name="LMODELHF"> F  </i>
   <i type="logical" name="LFOCKACE"> F  </i>
   <i name="ENCUT4O">     -1.00000000</i>
   <i type="int" name="EXXOEP">     0</i>
   <i type="int" name="FOURORBIT">     0</i>
   <i name="AEXX">      0.00000000</i>
   <i name="HFALPHA">      0.00000000</i>
   <i name="MCALPHA">      0.00000000</i>
   <i name="ALDAX">      1.00000000</i>
   <i name="AGGAX">      1.00000000</i>
   <i name="ALDAC">      1.00000000</i>
   <i name="AGGAC">      1.00000000</i>
   <i type="int" name="NKREDX">     1</i>
   <i type="int" name="NKREDY">     1</i>
   <i type="int" name="NKREDZ">     1</i>
   <i type="logical" name="SHIFTRED"> F  </i>
   <i type="logical" name="ODDONLY"> F  </i>
   <i type="logical" name="EVENONLY"> F  </i>
   <i type="int" name="LMAXFOCK">     0</i>
   <i type="int" name="NMAXFOCKAE">     0</i>
   <i type="logical" name="LFOCKAEDFT"> F  </i>
   <i name="HFSCREEN">      0.00000000</i>
   <i name="HFSCREENC">      0.00000000</i>
   <i type="int" name="NBANDSGWLOW">     0</i>
  </separator>
  <separator name="vdW DFT" >
   <i type="logical" name="LUSE_VDW"> F  </i>
   <i type="int" name="IVDW_NL">     1</i>
   <i type="logical" name="LSPIN_VDW"> F  </i>
   <i name="Zab_VDW">     -0.84910000</i>
   <i name="PARAM1">      0.12340000</i>
   <i name="PARAM2">      1.00000000</i>
   <i name="PARAM3">      0.00000000</i>
  </separator>
  <separator name="model GW" >
   <i type="int" name="MODEL_GW">     0</i>
   <i name="MODEL_EPS0">     17.34785411</i>
   <i name="MODEL_ALPHA">      1.00000000</i>
  </separator>
  <separator name="linear response parameters" >
   <i type="logical" name="LEPSILON"> F  </i>
   <i type="logical" name="LRPA"> F  </i>
   <i type="logical" name="LNABLA"> F  </i>
   <i type="logical" name="LVEL"> F  </i>
   <i name="CSHIFT">      0.10000000</i>
   <i name="OMEGAMAX">     -1.00000000</i>
   <i name="DEG_THRESHOLD">      0.00200000</i>
   <i name="RTIME">     -0.10000000</i>
   <i name="WPLASMAI">      0.00000000</i>
   <v name="DFIELD">      0.00000000      0.00000000      0.00000000</v>
   <v name="WPLASMA">      0.00000000      0.00000000      0.00000000      0.00000000      0.00000000      0.00000000      0.00000000      0.00000000      0.00000000</v>
  </separator>
  <separator name="orbital magnetization" >
   <i type="logical" name="NUCIND"> F  </i>
   <v name="MAGPOS">      0.00000000      0.00000000      0.00000000</v>
   <i type="logical" name="LNICSALL"> T  </i>
   <i type="logical" name="ORBITALMAG"> F  </i>
   <i type="logical" name="LMAGBLOCH"> F  </i>
   <i type="logical" name="LCHIMAG"> F  </i>
   <i type="logical" name="LGAUGE"> T  </i>
   <i type="int" name="MAGATOM">     0</i>
   <v name="MAGDIPOL">      0.00000000      0.00000000      0.00000000</v>
   <v name="AVECCONST">      0.00000000      0.00000000      0.00000000</v>
  </separator>
  <separator name="response functions" >
   <i type="logical" name="LALL_IN_ONE"> F  </i>
   <i type="int" name="IALL_IN_ONE">    -1</i>
   <i type="int" name="NBANDS_WAVE">    -1</i>
   <i type="logical" name="LFINITE_TEMPERATURE"> F  </i>
   <i type="logical" name="LADDER"> F  </i>
   <i type="logical" name="LRPAFORCE"> F  </i>
   <i type="logical" name="LFXC"> F  </i>
   <i type="logical" name="LHARTREE"> T  </i>
   <i type="int" name="IBSE">     0</i>
   <v type="int" name="KPOINT">    -1     0     0     0</v>
   <i type="logical" name="LTCTC"> F  </i>
   <i type="logical" name="LTCTE"> F  </i>
   <i type="logical" name="LTETE"> F  </i>
   <i type="logical" name="LTRIPLET"> F  </i>
   <i type="logical" name="LFXCEPS"> F  </i>
   <i type="logical" name="LFXHEG"> F  </i>
   <i type="int" name="NATURALO">     2</i>
   <i type="logical" name="LHOLEGF"> F  </i>
   <i type="logical" name="L2ORDER"> F  </i>
   <i type="logical" name="LDMP1"> F  </i>
   <i type="logical" name="LMP2LT"> F  </i>
   <i type="logical" name="LSMP2LT"> F  </i>
   <i type="logical" name="LGWLF"> F  </i>
   <i name="ENCUTGW">     -1.60000002</i>
   <i name="ENCUTGWSOFT">     -1.60000002</i>
   <i name="ENCUTLF">     -1.00000000</i>
   <i type="logical" name="LESF_SPLINES"> F  </i>
   <i type="int" name="LMAXMP2">    -1</i>
   <i name="SCISSOR">      0.00000000</i>
   <i type="int" name="NOMEGA">     0</i>
   <i type="int" name="NOMEGAR">     0</i>
   <i type="int" name="NBANDSGW">    -1</i>
   <i type="int" name="NBANDSO">    -1</i>
   <i type="int" name="NBANDSV">    -1</i>
   <i type="int" name="NELMGW">     1</i>
   <i type="int" name="NELMHF">     1</i>
   <i type="int" name="DIM">     3</i>
   <i type="int" name="IESPILON">     4</i>
   <i type="int" name="ANTIRES">     0</i>
   <i name="OMEGAMAX">    -30.00000000</i>
   <i name="OMEGAMIN">    -30.00000000</i>
   <i name="OMEGATL">   -200.00000000</i>
   <i type="int" name="OMEGAGRID">     0</i>
   <i name="CSHIFT">     -0.10000000</i>
   <i type="logical" name="LSELFENERGY"> F  </i>
   <i type="logical" name="LSPECTRAL"> F  </i>
   <i type="logical" name="LSPECTRALGW"> F  </i>
   <i type="logical" name="LSINGLES"> F  </i>
   <i type="logical" name="LFERMIGW"> F  </i>
   <i type="logical" name="ODDONLYGW"> F  </i>
   <i type="logical" name="EVENONLYGW"> F  </i>
   <i type="int" name="NKREDLFX">     1</i>
   <i type="int" name="NKREDLFY">     1</i>
   <i type="int" name="NKREDLFZ">     1</i>
   <i type="int" name="MAXMEM">  2800</i>
   <i type="int" name="TELESCOPE">     0</i>
   <i type="int" name="NTAUPAR">    -1</i>
   <i type="int" name="NOMEGAPAR">    -1</i>
   <i name="DAMP_NEWTON">      0.80000001</i>
   <i name="LAMBDA">      1.00000000</i>
  </separator>
  <separator name="External order field" >
   <i name="OFIELD_KAPPA">      0.00000000</i>
   <v name="OFIELD_K">      0.00000000      0.00000000      0.00000000</v>
   <i name="OFIELD_Q6_NEAR">      0.00000000</i>
   <i name="OFIELD_Q6_FAR">      0.00000000</i>
   <i name="OFIELD_A">      0.00000000</i>
  </separator>
  <separator name="optional k-points parameters" >
   <i type="int" name="KPOINTS_OPT_MODE">     1</i>
   <i type="logical" name="LKPOINTS_OPT"> F  </i>
  </separator>
 </parameters>
 <atominfo>
  <atoms>      16 </atoms>
  <types>       1 </types>
  <array name="atoms" >
   <dimension dim="1">ion</dimension>
   <field type="string">element</field>
   <field type="int">atomtype</field>
   <set>
    <rc><c>P </c><c>   1</c></rc>
    <rc><c>P </c><c>   1</c></rc>
    <rc><c>P </c><c>   1</c></rc>
    <rc><c>P </c><c>   1</c></rc>
    <rc><c>P </c><c>   1</c></rc>
    <rc><c>P </c><c>   1</c></rc>
    <rc><c>P </c><c>   1</c></rc>
    <rc><c>P </c><c>   1</c></rc>
    <rc><c>P </c><c>   1</c></rc>
    <rc><c>P </c><c>   1</c></rc>
    <rc><c>P </c><c>   1</c></rc>
    <rc><c>P </c><c>   1</c></rc>
    <rc><c>P </c><c>   1</c></rc>
    <rc><c>P </c><c>   1</c></rc>
    <rc><c>P </c><c>   1</c></rc>
    <rc><c>P </c><c>   1</c></rc>
   </set>
  </array>
  <array name="atomtypes" >
   <dimension dim="1">type</dimension>
   <field type="int">atomspertype</field>
   <field type="string">element</field>
   <field>mass</field>
   <field>valence</field>
   <field type="string">pseudopotential</field>
   <set>
    <rc><c>  16</c><c>P </c><c>     30.97400000</c><c>      5.00000000</c><c>  PAW_PBE P 06Sep2000                   </c></rc>
   </set>
  </array>
 </atominfo>
 <structure name="initialpos" >
  <crystal>
   <varray name="basis" >
    <v>       0.00000000       9.65593579       0.00000000 </v>
    <v>       8.58494733       0.00000000       0.00000000 </v>
    <v>       0.00000000      -0.02372258      -5.58062049 </v>
   </varray>
   <i name="volume">    462.60944306 </i>
   <varray name="rec_basis" >
    <v>       0.00000000       0.10356324      -0.00044024 </v>
    <v>       0.11648295      -0.00000000       0.00000000 </v>
    <v>       0.00000000       0.00000000      -0.17919154 </v>
   </varray>
  </crystal>
  <varray name="positions" >
   <v>       0.65153371       0.50000008       0.75056737 </v>
   <v>       0.34846610       0.49999978       0.24943192 </v>
   <v>       0.78181104       0.49999997       0.42889107 </v>
   <v>       0.21818848       0.50000008       0.57110907 </v>
   <v>       0.84922472       0.37171264       0.75015646 </v>
   <v>       0.15077466       0.37171277       0.24984376 </v>
   <v>       0.15077487       0.62828735       0.24984344 </v>
   <v>       0.84922485       0.62828738       0.75015624 </v>
   <v>       0.15153475       0.00000017       0.75056943 </v>
   <v>       0.84846541       0.99999993       0.24943119 </v>
   <v>       0.28181233       0.99999991       0.42889393 </v>
   <v>       0.71818822       0.00000001       0.57110596 </v>
   <v>       0.34922538       0.87171276       0.75015789 </v>
   <v>       0.65077490       0.87171271       0.24984245 </v>
   <v>       0.65077509       0.12828723       0.24984218 </v>
   <v>       0.34922549       0.12828724       0.75015763 </v>
  </varray>
 </structure>
 <calculation>
  <scstep>
   <time name="dav">    0.20    0.20</time>
   <time name="total">    0.23    0.23</time>
   <energy>
    <i name="alphaZ">     55.48217190 </i>
    <i name="ewald">  -2140.16248874 </i>
    <i name="hartreedc">    -29.15972106 </i>
    <i name="XCdc">     18.81047459 </i>
    <i name="pawpsdc"> 158903.92663480 </i>
    <i name="pawaedc">-158753.86501527 </i>
    <i name="eentropy">     -0.00681490 </i>
    <i name="bandstr">  -1360.31654176 </i>
    <i name="atom">   2816.65831726 </i>
    <i name="e_fr_energy">   -488.63298319 </i>
    <i name="e_wo_entrp">   -488.62616829 </i>
    <i name="e_0_energy">   -488.62957574 </i>
   </energy>
  </scstep>
  <scstep>
   <time name="dav">    0.15    0.15</time>
   <time name="total">    0.15    0.15</time>
   <energy>
    <i name="e_fr_energy">  -1302.56346446 </i>
    <i name="e_wo_entrp">  -1302.56346446 </i>
    <i name="e_0_energy">  -1302.56346446 </i>
   </energy>
  </scstep>
  <scstep>
   <time name="dav">    0.16    0.16</time>
   <time name="total">    0.16    0.16</time>
   <energy>
    <i name="e_fr_energy">  -1399.47088144 </i>
    <i name="e_wo_entrp">  -1399.47088144 </i>
    <i name="e_0_energy">  -1399.47088144 </i>
   </energy>
  </scstep>
  <scstep>
   <time name="dav">    0.15    0.15</time>
   <time name="total">    0.15    0.15</time>
   <energy>
    <i name="e_fr_energy">  -1402.97959591 </i>
    <i name="e_wo_entrp">  -1402.97959591 </i>
    <i name="e_0_energy">  -1402.97959591 </i>
   </energy>
  </scstep>
  <scstep>
   <time name="dav">    0.16    0.16</time>
   <time name="total">    0.20    0.20</time>
   <energy>
    <i name="e_fr_energy">  -1403.21406684 </i>
    <i name="e_wo_entrp">  -1403.21406684 </i>
    <i name="e_0_energy">  -1403.21406684 </i>
   </energy>
  </scstep>
  <scstep>
   <time name="dav">    0.11    0.11</time>
   <time name="total">    0.17    0.17</time>
   <energy>
    <i name="e_fr_energy">   -383.20776622 </i>
    <i name="e_wo_entrp">   -383.20776622 </i>
    <i name="e_0_energy">   -383.20776622 </i>
   </energy>
  </scstep>
  <scstep>
   <time name="dav">    0.12    0.12</time>
   <time name="total">    0.18    0.18</time>
   <energy>
    <i name="e_fr_energy">   -264.82556960 </i>
    <i name="e_wo_entrp">   -264.82556960 </i>
    <i name="e_0_energy">   -264.82556960 </i>
   </energy>
  </scstep>
  <scstep>
   <time name="dav">    0.12    0.12</time>
   <time name="total">    0.18    0.18</time>
   <energy>
    <i name="e_fr_energy">   -111.53999709 </i>
    <i name="e_wo_entrp">   -111.53999709 </i>
    <i name="e_0_energy">   -111.53999709 </i>
   </energy>
  </scstep>
  <scstep>
   <time name="dav">    0.13    0.13</time>
   <time name="total">    0.19    0.19</time>
   <energy>
    <i name="e_fr_energy">    -84.73295189 </i>
    <i name="e_wo_entrp">    -84.73295189 </i>
    <i name="e_0_energy">    -84.73295189 </i>
   </energy>
  </scstep>
  <scstep>
   <time name="dav">    0.13    0.13</time>
   <time name="total">    0.20    0.20</time>
   <energy>
    <i name="e_fr_energy">    -84.33160593 </i>
    <i name="e_wo_entrp">    -84.33160593 </i>
    <i name="e_0_energy">    -84.33160593 </i>
   </energy>
  </scstep>
  <scstep>
   <time name="dav">    0.12    0.12</time>
   <time name="total">    0.18    0.18</time>
   <energy>
    <i name="e_fr_energy">    -83.92544883 </i>
    <i name="e_wo_entrp">    -83.92544883 </i>
    <i name="e_0_energy">    -83.92544883 </i>
   </energy>
  </scstep>
  <scstep>
   <time name="dav">    0.14    0.14</time>
   <time name="total">    0.20    0.20</time>
   <energy>
    <i name="e_fr_energy">    -83.94735435 </i>
    <i name="e_wo_entrp">    -83.94735435 </i>
    <i name="e_0_energy">    -83.94735435 </i>
   </energy>
  </scstep>
  <scstep>
   <time name="dav">    0.13    0.13</time>
   <time name="total">    0.20    0.20</time>
   <energy>
    <i name="e_fr_energy">    -83.97345935 </i>
    <i name="e_wo_entrp">    -83.97345935 </i>
    <i name="e_0_energy">    -83.97345935 </i>
   </energy>
  </scstep>
  <scstep>
   <time name="dav">    0.14    0.14</time>
   <time name="total">    0.21    0.21</time>
   <energy>
    <i name="e_fr_energy">    -83.97552300 </i>
    <i name="e_wo_entrp">    -83.97552300 </i>
    <i name="e_0_energy">    -83.97552300 </i>
   </energy>
  </scstep>
  <scstep>
   <time name="dav">    0.13    0.13</time>
   <time name="total">    0.19    0.19</time>
   <energy>
    <i name="e_fr_energy">    -83.97789260 </i>
    <i name="e_wo_entrp">    -83.97789260 </i>
    <i name="e_0_energy">    -83.97789260 </i>
   </energy>
  </scstep>
  <scstep>
   <time name="dav">    0.12    0.12</time>
   <time name="total">    0.19    0.19</time>
   <energy>
    <i name="e_fr_energy">    -83.97829689 </i>
    <i name="e_wo_entrp">    -83.97829689 </i>
    <i name="e_0_energy">    -83.97829689 </i>
   </energy>
  </scstep>
  <scstep>
   <time name="dav">    0.14    0.14</time>
   <time name="total">    0.20    0.20</time>
   <energy>
    <i name="e_fr_energy">    -83.97835715 </i>
    <i name="e_wo_entrp">    -83.97835715 </i>
    <i name="e_0_energy">    -83.97835715 </i>
   </energy>
  </scstep>
  <scstep>
   <time name="dav">    0.12    0.12</time>
   <time name="total">    0.22    0.22</time>
   <energy>
    <i name="alphaZ">     55.48217190 </i>
    <i name="ewald">  -2140.16248874 </i>
    <i name="hartreedc">   -710.96231636 </i>
    <i name="XCdc">     53.38834722 </i>
    <i name="pawpsdc">   8293.43803252 </i>
    <i name="pawaedc">  -8164.12319158 </i>
    <i name="eentropy">     -0.00000000 </i>
    <i name="bandstr">   -287.69723388 </i>
    <i name="atom">   2816.65831726 </i>
    <i name="e_fr_energy">    -83.97836166 </i>
    <i name="e_wo_entrp">    -83.97836166 </i>
    <i name="e_0_energy">    -83.97836166 </i>
   </energy>
  </scstep>
  <structure>
   <crystal>
    <varray name="basis" >
     <v>       0.00000000       9.65593579       0.00000000 </v>
     <v>       8.58494733       0.00000000       0.00000000 </v>
     <v>       0.00000000      -0.02372258      -5.58062049 </v>
    </varray>
    <i name="volume">    462.60944306 </i>
    <varray name="rec_basis" >
     <v>       0.00000000       0.10356324      -0.00044024 </v>
     <v>       0.11648295      -0.00000000       0.00000000 </v>
     <v>       0.00000000       0.00000000      -0.17919154 </v>
    </varray>
   </crystal>
   <varray name="positions" >
    <v>       0.65153371       0.50000008       0.75056737 </v>
    <v>       0.34846610       0.49999978       0.24943192 </v>
    <v>       0.78181104       0.49999997       0.42889107 </v>
    <v>       0.21818848       0.50000008       0.57110907 </v>
    <v>       0.84922472       0.37171264       0.75015646 </v>
    <v>       0.15077466       0.37171277       0.24984376 </v>
    <v>       0.15077487       0.62828735       0.24984344 </v>
    <v>       0.84922485       0.62828738       0.75015624 </v>
    <v>       0.15153475       0.00000017       0.75056943 </v>
    <v>       0.84846541       0.99999993       0.24943119 </v>
    <v>       0.28181233       0.99999991       0.42889393 </v>
    <v>       0.71818822       0.00000001       0.57110596 </v>
    <v>       0.34922538       0.87171276       0.75015789 </v>
    <v>       0.65077490       0.87171271       0.24984245 </v>
    <v>       0.65077509       0.12828723       0.24984218 </v>
    <v>       0.34922549       0.12828724       0.75015763 </v>
   </varray>
  </structure>
  <varray name="forces" >
   <v>       0.00000069      -0.00391135      -0.00147407 </v>
   <v>       0.00001544       0.00379956       0.00131532 </v>
   <v>       0.00000764       0.00392028      -0.00331345 </v>
   <v>       0.00000064      -0.00384021       0.00363518 </v>
   <v>       0.00179916      -0.00355521      -0.00059699 </v>
   <v>       0.00197799       0.00359624       0.00051783 </v>
   <v>      -0.00200075       0.00361672       0.00051152 </v>
   <v>      -0.00180120      -0.00357073      -0.00059641 </v>
   <v>      -0.00000989      -0.00599856      -0.00199777 </v>
   <v>      -0.00001696       0.00608093       0.00210252 </v>
   <v>      -0.00000131       0.00349261      -0.00119250 </v>
   <v>       0.00000648      -0.00355316       0.00092723 </v>
   <v>       0.00170379      -0.00265513      -0.00146717 </v>
   <v>       0.00144781       0.00261094       0.00156471 </v>
   <v>      -0.00145331       0.00259838       0.00154425 </v>
   <v>      -0.00167622      -0.00263132      -0.00148020 </v>
  </varray>
  <varray name="stress" >
   <v>       3.58494915       0.00085419      -0.00058742 </v>
   <v>       0.00085423       3.10898071      -0.19296794 </v>
   <v>      -0.00058728      -0.19296761      15.84141339 </v>
  </varray>
  <energy>
   <i name="e_fr_energy">    -83.97836166 </i>
   <i name="e_wo_entrp">    -83.97836166 </i>
   <i name="e_0_energy">    -83.97836166 </i>
  </energy>
  <time name="totalsc">    4.80    5.15</time>
  <eigenvalues>
   <array>
    <dimension dim="1">band</dimension>
    <dimension dim="2">kpoint</dimension>
    <dimension dim="3">spin</dimension>
    <field>eigene</field>
    <field>occ</field>
    <set>
     <set comment="spin 1">
      <set comment="kpoint 1">
       <r>  -13.3686    1.0000 </r>
       <r>  -13.2812    1.0000 </r>
       <r>  -13.2364    1.0000 </r>
       <r>  -13.1642    1.0000 </r>
       <r>   -7.0247    1.0000 </r>
       <r>   -6.9525    1.0000 </r>
       <r>   -6.8150    1.0000 </r>
       <r>   -6.6979    1.0000 </r>
       <r>   -6.5020    1.0000 </r>
       <r>   -6.4029    1.0000 </r>
       <r>   -6.3827    1.0000 </r>
       <r>   -6.3625    1.0000 </r>
       <r>   -6.3328    1.0000 </r>
       <r>   -6.3153    1.0000 </r>
       <r>   -6.2899    1.0000 </r>
       <r>   -6.1929    1.0000 </r>
       <r>   -3.0058    1.0000 </r>
       <r>   -2.3662    1.0000 </r>
       <r>   -2.1164    1.0000 </r>
       <r>   -1.4500    1.0000 </r>
       <r>   -1.0885    1.0000 </r>
       <r>   -1.0547    1.0000 </r>
       <r>   -0.9122    1.0000 </r>
       <r>   -0.9080    1.0000 </r>
       <r>   -0.7406    1.0000 </r>
       <r>   -0.6955    1.0000 </r>
       <r>   -0.5287    1.0000 </r>
       <r>   -0.5122    1.0000 </r>
       <r>   -0.4084    1.0000 </r>
       <r>   -0.3917    1.0000 </r>
       <r>   -0.2197    1.0000 </r>
       <r>    0.0882    1.0000 </r>
       <r>    0.2100    1.0000 </r>
       <r>    0.2683    1.0000 </r>
       <r>    0.3113    1.0000 </r>
       <r>    0.3114    1.0000 </r>
       <r>    0.4527    1.0000 </r>
       <r>    0.4672    1.0000 </r>
       <r>    0.5733    1.0000 </r>
       <r>    0.6404    1.0000 </r>
       <r>    3.8403    0.0000 </r>
       <r>    4.0572    0.0000 </r>
       <r>    4.2589    0.0000 </r>
       <r>    4.4055    0.0000 </r>
       <r>    4.4378    0.0000 </r>
       <r>    4.5100    0.0000 </r>
       <r>    4.5197    0.0000 </r>
       <r>    4.5279    0.0000 </r>
       <r>    4.5876    0.0000 </r>
      </set>
      <set comment="kpoint 2">
       <r>  -13.3320    1.0000 </r>
       <r>  -13.3311    1.0000 </r>
       <r>  -13.1948    1.0000 </r>
       <r>  -13.1939    1.0000 </r>
       <r>   -6.9330    1.0000 </r>
       <r>   -6.9324    1.0000 </r>
       <r>   -6.7102    1.0000 </r>
       <r>   -6.7092    1.0000 </r>
       <r>   -6.5404    1.0000 </r>
       <r>   -6.5400    1.0000 </r>
       <r>   -6.3755    1.0000 </r>
       <r>   -6.3733    1.0000 </r>
       <r>   -6.3607    1.0000 </r>
       <r>   -6.3591    1.0000 </r>
       <r>   -6.2505    1.0000 </r>
       <r>   -6.2500    1.0000 </r>
       <r>   -2.6350    1.0000 </r>
       <r>   -2.6345    1.0000 </r>
       <r>   -1.7466    1.0000 </r>
       <r>   -1.7463    1.0000 </r>
       <r>   -1.0130    1.0000 </r>
       <r>   -1.0127    1.0000 </r>
       <r>   -0.8830    1.0000 </r>
       <r>   -0.8824    1.0000 </r>
       <r>   -0.8033    1.0000 </r>
       <r>   -0.8022    1.0000 </r>
       <r>   -0.5704    1.0000 </r>
       <r>   -0.5700    1.0000 </r>
       <r>   -0.4084    1.0000 </r>
       <r>   -0.4071    1.0000 </r>
       <r>   -0.2418    1.0000 </r>
       <r>   -0.2414    1.0000 </r>
       <r>    0.1888    1.0000 </r>
       <r>    0.1905    1.0000 </r>
       <r>    0.3523    1.0000 </r>
       <r>    0.3543    1.0000 </r>
       <r>    0.5581    1.0000 </r>
       <r>    0.5601    1.0000 </r>
       <r>    0.5963    1.0000 </r>
       <r>    0.5978    1.0000 </r>
       <r>    4.1341    0.0000 </r>
       <r>    4.1348    0.0000 </r>
       <r>    4.3323    0.0000 </r>
       <r>    4.3327    0.0000 </r>
       <r>    4.4945    0.0000 </r>
       <r>    4.4969    0.0000 </r>
       <r>    5.0021    0.0000 </r>
       <r>    5.0068    0.0000 </r>
       <r>    5.0481    0.0000 </r>
      </set>
      <set comment="kpoint 3">
       <r>  -13.3050    1.0000 </r>
       <r>  -13.3030    1.0000 </r>
       <r>  -13.2248    1.0000 </r>
       <r>  -13.2228    1.0000 </r>
       <r>   -6.8569    1.0000 </r>
       <r>   -6.8554    1.0000 </r>
       <r>   -6.7050    1.0000 </r>
       <r>   -6.7044    1.0000 </r>
       <r>   -6.6168    1.0000 </r>
       <r>   -6.6164    1.0000 </r>
       <r>   -6.3651    1.0000 </r>
       <r>   -6.3637    1.0000 </r>
       <r>   -6.3517    1.0000 </r>
       <r>   -6.3497    1.0000 </r>
       <r>   -6.2806    1.0000 </r>
       <r>   -6.2788    1.0000 </r>
       <r>   -2.4744    1.0000 </r>
       <r>   -2.4723    1.0000 </r>
       <r>   -1.8138    1.0000 </r>
       <r>   -1.8117    1.0000 </r>
       <r>   -1.1987    1.0000 </r>
       <r>   -1.1984    1.0000 </r>
       <r>   -1.0734    1.0000 </r>
       <r>   -1.0725    1.0000 </r>
       <r>   -0.9245    1.0000 </r>
       <r>   -0.9223    1.0000 </r>
       <r>   -0.3852    1.0000 </r>
       <r>   -0.3851    1.0000 </r>
       <r>   -0.2693    1.0000 </r>
       <r>   -0.2688    1.0000 </r>
       <r>   -0.1556    1.0000 </r>
       <r>   -0.1535    1.0000 </r>
       <r>    0.2335    1.0000 </r>
       <r>    0.2356    1.0000 </r>
       <r>    0.2600    1.0000 </r>
       <r>    0.2616    1.0000 </r>
       <r>    0.5457    1.0000 </r>
       <r>    0.5474    1.0000 </r>
       <r>    0.6281    1.0000 </r>
       <r>    0.6297    1.0000 </r>
       <r>    4.2113    0.0000 </r>
       <r>    4.2122    0.0000 </r>
       <r>    4.4443    0.0000 </r>
       <r>    4.4461    0.0000 </r>
       <r>    4.6319    0.0000 </r>
       <r>    4.6332    0.0000 </r>
       <r>    4.8749    0.0000 </r>
       <r>    4.8930    0.0000 </r>
       <r>    4.8951    0.0000 </r>
      </set>
      <set comment="kpoint 4">
       <r>  -13.2937    1.0000 </r>
       <r>  -13.2917    1.0000 </r>
       <r>  -13.2368    1.0000 </r>
       <r>  -13.2348    1.0000 </r>
       <r>   -6.7834    1.0000 </r>
       <r>   -6.7827    1.0000 </r>
       <r>   -6.6649    1.0000 </r>
       <r>   -6.6629    1.0000 </r>
       <r>   -6.5897    1.0000 </r>
       <r>   -6.5892    1.0000 </r>
       <r>   -6.4964    1.0000 </r>
       <r>   -6.4949    1.0000 </r>
       <r>   -6.3562    1.0000 </r>
       <r>   -6.3541    1.0000 </r>
       <r>   -6.3149    1.0000 </r>
       <r>   -6.3136    1.0000 </r>
       <r>   -2.2168    1.0000 </r>
       <r>   -2.2147    1.0000 </r>
       <r>   -1.9831    1.0000 </r>
       <r>   -1.9810    1.0000 </r>
       <r>   -1.1976    1.0000 </r>
       <r>   -1.1967    1.0000 </r>
       <r>   -1.0772    1.0000 </r>
       <r>   -1.0759    1.0000 </r>
       <r>   -0.8456    1.0000 </r>
       <r>   -0.8456    1.0000 </r>
       <r>   -0.6847    1.0000 </r>
       <r>   -0.6824    1.0000 </r>
       <r>   -0.2449    1.0000 </r>
       <r>   -0.2439    1.0000 </r>
       <r>   -0.1011    1.0000 </r>
       <r>   -0.1005    1.0000 </r>
       <r>    0.2700    1.0000 </r>
       <r>    0.2703    1.0000 </r>
       <r>    0.3826    1.0000 </r>
       <r>    0.3829    1.0000 </r>
       <r>    0.4909    1.0000 </r>
       <r>    0.4927    1.0000 </r>
       <r>    0.5425    1.0000 </r>
       <r>    0.5439    1.0000 </r>
       <r>    4.3419    0.0000 </r>
       <r>    4.3435    0.0000 </r>
       <r>    4.4781    0.0000 </r>
       <r>    4.4788    0.0000 </r>
       <r>    4.7196    0.0000 </r>
       <r>    4.7208    0.0000 </r>
       <r>    4.7581    0.0000 </r>
       <r>    4.7593    0.0000 </r>
       <r>    5.2181    0.0000 </r>
      </set>
      <set comment="kpoint 5">
       <r>  -13.3063    1.0000 </r>
       <r>  -13.2465    1.0000 </r>
       <r>  -13.2148    1.0000 </r>
       <r>  -13.1722    1.0000 </r>
       <r>   -6.9752    1.0000 </r>
       <r>   -6.8100    1.0000 </r>
       <r>   -6.7843    1.0000 </r>
       <r>   -6.7290    1.0000 </r>
       <r>   -6.7208    1.0000 </r>
       <r>   -6.6764    1.0000 </r>
       <r>   -6.6716    1.0000 </r>
       <r>   -6.4850    1.0000 </r>
       <r>   -6.4679    1.0000 </r>
       <r>   -6.4446    1.0000 </r>
       <r>   -6.4295    1.0000 </r>
       <r>   -6.4205    1.0000 </r>
       <r>   -2.1718    1.0000 </r>
       <r>   -1.7588    1.0000 </r>
       <r>   -1.6006    1.0000 </r>
       <r>   -1.5149    1.0000 </r>
       <r>   -0.9796    1.0000 </r>
       <r>   -0.8037    1.0000 </r>
       <r>   -0.7978    1.0000 </r>
       <r>   -0.7756    1.0000 </r>
       <r>   -0.6274    1.0000 </r>
       <r>   -0.4243    1.0000 </r>
       <r>   -0.4234    1.0000 </r>
       <r>   -0.4011    1.0000 </r>
       <r>   -0.2752    1.0000 </r>
       <r>   -0.2374    1.0000 </r>
       <r>   -0.1672    1.0000 </r>
       <r>   -0.0803    1.0000 </r>
       <r>   -0.0310    1.0000 </r>
       <r>   -0.0064    1.0000 </r>
       <r>    0.2178    1.0000 </r>
       <r>    0.2300    1.0000 </r>
       <r>    0.3047    1.0000 </r>
       <r>    0.3957    1.0000 </r>
       <r>    0.4553    1.0000 </r>
       <r>    0.5905    1.0000 </r>
       <r>    4.3990    0.0000 </r>
       <r>    4.4697    0.0000 </r>
       <r>    4.5284    0.0000 </r>
       <r>    4.7236    0.0000 </r>
       <r>    4.8386    0.0000 </r>
       <r>    4.9086    0.0000 </r>
       <r>    4.9517    0.0000 </r>
       <r>    4.9645    0.0000 </r>
       <r>    5.2440    0.0000 </r>
      </set>
      <set comment="kpoint 6">
       <r>  -13.2814    1.0000 </r>
       <r>  -13.2805    1.0000 </r>
       <r>  -13.1896    1.0000 </r>
       <r>  -13.1887    1.0000 </r>
       <r>   -6.9453    1.0000 </r>
       <r>   -6.9444    1.0000 </r>
       <r>   -6.7604    1.0000 </r>
       <r>   -6.7593    1.0000 </r>
       <r>   -6.7315    1.0000 </r>
       <r>   -6.7310    1.0000 </r>
       <r>   -6.4828    1.0000 </r>
       <r>   -6.4814    1.0000 </r>
       <r>   -6.4375    1.0000 </r>
       <r>   -6.4358    1.0000 </r>
       <r>   -6.4348    1.0000 </r>
       <r>   -6.4343    1.0000 </r>
       <r>   -1.9751    1.0000 </r>
       <r>   -1.9748    1.0000 </r>
       <r>   -1.7713    1.0000 </r>
       <r>   -1.7703    1.0000 </r>
       <r>   -0.8924    1.0000 </r>
       <r>   -0.8907    1.0000 </r>
       <r>   -0.7946    1.0000 </r>
       <r>   -0.7936    1.0000 </r>
       <r>   -0.4199    1.0000 </r>
       <r>   -0.4181    1.0000 </r>
       <r>   -0.3775    1.0000 </r>
       <r>   -0.3764    1.0000 </r>
       <r>   -0.2362    1.0000 </r>
       <r>   -0.2349    1.0000 </r>
       <r>   -0.2132    1.0000 </r>
       <r>   -0.2123    1.0000 </r>
       <r>   -0.0528    1.0000 </r>
       <r>   -0.0514    1.0000 </r>
       <r>    0.1701    1.0000 </r>
       <r>    0.1705    1.0000 </r>
       <r>    0.5752    1.0000 </r>
       <r>    0.5763    1.0000 </r>
       <r>    0.7072    1.0000 </r>
       <r>    0.7095    1.0000 </r>
       <r>    4.4558    0.0000 </r>
       <r>    4.4570    0.0000 </r>
       <r>    4.6481    0.0000 </r>
       <r>    4.6496    0.0000 </r>
       <r>    4.6767    0.0000 </r>
       <r>    4.6772    0.0000 </r>
       <r>    4.7640    0.0000 </r>
       <r>    4.7647    0.0000 </r>
       <r>    5.2332    0.0000 </r>
      </set>
      <set comment="kpoint 7">
       <r>  -13.2621    1.0000 </r>
       <r>  -13.2601    1.0000 </r>
       <r>  -13.2106    1.0000 </r>
       <r>  -13.2086    1.0000 </r>
       <r>   -6.9939    1.0000 </r>
       <r>   -6.9926    1.0000 </r>
       <r>   -6.8881    1.0000 </r>
       <r>   -6.8874    1.0000 </r>
       <r>   -6.6732    1.0000 </r>
       <r>   -6.6712    1.0000 </r>
       <r>   -6.4955    1.0000 </r>
       <r>   -6.4940    1.0000 </r>
       <r>   -6.3581    1.0000 </r>
       <r>   -6.3580    1.0000 </r>
       <r>   -6.3359    1.0000 </r>
       <r>   -6.3358    1.0000 </r>
       <r>   -1.9189    1.0000 </r>
       <r>   -1.9173    1.0000 </r>
       <r>   -1.8389    1.0000 </r>
       <r>   -1.8378    1.0000 </r>
       <r>   -0.9368    1.0000 </r>
       <r>   -0.9367    1.0000 </r>
       <r>   -0.9271    1.0000 </r>
       <r>   -0.9262    1.0000 </r>
       <r>   -0.7228    1.0000 </r>
       <r>   -0.7211    1.0000 </r>
       <r>   -0.4898    1.0000 </r>
       <r>   -0.4896    1.0000 </r>
       <r>   -0.1082    1.0000 </r>
       <r>   -0.1069    1.0000 </r>
       <r>   -0.0981    1.0000 </r>
       <r>   -0.0956    1.0000 </r>
       <r>    0.1151    1.0000 </r>
       <r>    0.1159    1.0000 </r>
       <r>    0.1823    1.0000 </r>
       <r>    0.1830    1.0000 </r>
       <r>    0.6515    1.0000 </r>
       <r>    0.6521    1.0000 </r>
       <r>    0.7170    1.0000 </r>
       <r>    0.7180    1.0000 </r>
       <r>    4.4209    0.0000 </r>
       <r>    4.4220    0.0000 </r>
       <r>    4.6348    0.0000 </r>
       <r>    4.6357    0.0000 </r>
       <r>    4.9338    0.0000 </r>
       <r>    4.9353    0.0000 </r>
       <r>    5.1416    0.0000 </r>
       <r>    5.1423    0.0000 </r>
       <r>    5.2374    0.0000 </r>
      </set>
      <set comment="kpoint 8">
       <r>  -13.2559    1.0000 </r>
       <r>  -13.2539    1.0000 </r>
       <r>  -13.2169    1.0000 </r>
       <r>  -13.2149    1.0000 </r>
       <r>   -7.0096    1.0000 </r>
       <r>   -7.0083    1.0000 </r>
       <r>   -6.9504    1.0000 </r>
       <r>   -6.9492    1.0000 </r>
       <r>   -6.5609    1.0000 </r>
       <r>   -6.5593    1.0000 </r>
       <r>   -6.4875    1.0000 </r>
       <r>   -6.4866    1.0000 </r>
       <r>   -6.3942    1.0000 </r>
       <r>   -6.3935    1.0000 </r>
       <r>   -6.3218    1.0000 </r>
       <r>   -6.3217    1.0000 </r>
       <r>   -2.0329    1.0000 </r>
       <r>   -2.0316    1.0000 </r>
       <r>   -1.8785    1.0000 </r>
       <r>   -1.8770    1.0000 </r>
       <r>   -1.1260    1.0000 </r>
       <r>   -1.1247    1.0000 </r>
       <r>   -0.8435    1.0000 </r>
       <r>   -0.8434    1.0000 </r>
       <r>   -0.7366    1.0000 </r>
       <r>   -0.7365    1.0000 </r>
       <r>   -0.3536    1.0000 </r>
       <r>   -0.3524    1.0000 </r>
       <r>   -0.1507    1.0000 </r>
       <r>   -0.1495    1.0000 </r>
       <r>    0.0116    1.0000 </r>
       <r>    0.0132    1.0000 </r>
       <r>    0.0585    1.0000 </r>
       <r>    0.0598    1.0000 </r>
       <r>    0.4802    1.0000 </r>
       <r>    0.4810    1.0000 </r>
       <r>    0.5600    1.0000 </r>
       <r>    0.5603    1.0000 </r>
       <r>    0.8336    1.0000 </r>
       <r>    0.8351    1.0000 </r>
       <r>    4.1439    0.0000 </r>
       <r>    4.1449    0.0000 </r>
       <r>    4.3539    0.0000 </r>
       <r>    4.3552    0.0000 </r>
       <r>    4.8604    0.0000 </r>
       <r>    4.8610    0.0000 </r>
       <r>    4.8681    0.0000 </r>
       <r>    4.8687    0.0000 </r>
       <r>    5.3397    0.0000 </r>
      </set>
     </set>
    </set>
   </array>
  </eigenvalues>
  <separator name="orbital magnetization" >
   <v name="MAGDIPOLOUT">      0.00000000      0.00000000      0.00000000</v>
  </separator>
  <dos>
   <i name="efermi">      1.06605223 </i>
   <total>
    <array>
     <dimension dim="1">gridpoints</dimension>
     <dimension dim="2">spin</dimension>
     <field>energy</field>
     <field>total</field>
     <field>integrated</field>
     <set>
      <set comment="spin 1">
       <r>   -14.3040     0.0000     0.0000 </r>
       <r>   -14.2354     0.0000     0.0000 </r>
       <r>   -14.1668     0.0000     0.0000 </r>
       <r>   -14.0982     0.0000     0.0000 </r>
       <r>   -14.0296     0.0000     0.0000 </r>
       <r>   -13.9610     0.0000     0.0000 </r>
       <r>   -13.8924     0.0000     0.0000 </r>
       <r>   -13.8238     0.0000     0.0000 </r>
       <r>   -13.7552     0.0000     0.0000 </r>
       <r>   -13.6866     0.0000     0.0000 </r>
       <r>   -13.6180     0.0000     0.0000 </r>
       <r>   -13.5494     0.0000     0.0000 </r>
       <r>   -13.4808     0.0028     0.0002 </r>
       <r>   -13.4122     0.4915     0.0339 </r>
       <r>   -13.3436     7.5429     0.5513 </r>
       <r>   -13.2750    30.7418     2.6601 </r>
       <r>   -13.2064    47.9434     5.9489 </r>
       <r>   -13.1378    27.1336     7.8102 </r>
       <r>   -13.0692     2.7430     7.9983 </r>
       <r>   -13.0006     0.0241     8.0000 </r>
       <r>   -12.9320     0.0000     8.0000 </r>
       <r>   -12.8634     0.0000     8.0000 </r>
       <r>   -12.7948     0.0000     8.0000 </r>
       <r>   -12.7262     0.0000     8.0000 </r>
       <r>   -12.6576     0.0000     8.0000 </r>
       <r>   -12.5890     0.0000     8.0000 </r>
       <r>   -12.5204     0.0000     8.0000 </r>
       <r>   -12.4518     0.0000     8.0000 </r>
       <r>   -12.3832     0.0000     8.0000 </r>
       <r>   -12.3147     0.0000     8.0000 </r>
       <r>   -12.2461     0.0000     8.0000 </r>
       <r>   -12.1775     0.0000     8.0000 </r>
       <r>   -12.1089     0.0000     8.0000 </r>
       <r>   -12.0403     0.0000     8.0000 </r>
       <r>   -11.9717     0.0000     8.0000 </r>
       <r>   -11.9031     0.0000     8.0000 </r>
       <r>   -11.8345     0.0000     8.0000 </r>
       <r>   -11.7659     0.0000     8.0000 </r>
       <r>   -11.6973     0.0000     8.0000 </r>
       <r>   -11.6287     0.0000     8.0000 </r>
       <r>   -11.5601     0.0000     8.0000 </r>
       <r>   -11.4915     0.0000     8.0000 </r>
       <r>   -11.4229     0.0000     8.0000 </r>
       <r>   -11.3543     0.0000     8.0000 </r>
       <r>   -11.2857     0.0000     8.0000 </r>
       <r>   -11.2171     0.0000     8.0000 </r>
       <r>   -11.1485     0.0000     8.0000 </r>
       <r>   -11.0799     0.0000     8.0000 </r>
       <r>   -11.0113     0.0000     8.0000 </r>
       <r>   -10.9427     0.0000     8.0000 </r>
       <r>   -10.8741     0.0000     8.0000 </r>
       <r>   -10.8055     0.0000     8.0000 </r>
       <r>   -10.7369     0.0000     8.0000 </r>
       <r>   -10.6683     0.0000     8.0000 </r>
       <r>   -10.5997     0.0000     8.0000 </r>
       <r>   -10.5311     0.0000     8.0000 </r>
       <r>   -10.4625     0.0000     8.0000 </r>
       <r>   -10.3939     0.0000     8.0000 </r>
       <r>   -10.3253     0.0000     8.0000 </r>
       <r>   -10.2567     0.0000     8.0000 </r>
       <r>   -10.1881     0.0000     8.0000 </r>
       <r>   -10.1195     0.0000     8.0000 </r>
       <r>   -10.0510     0.0000     8.0000 </r>
       <r>    -9.9824     0.0000     8.0000 </r>
       <r>    -9.9138     0.0000     8.0000 </r>
       <r>    -9.8452     0.0000     8.0000 </r>
       <r>    -9.7766     0.0000     8.0000 </r>
       <r>    -9.7080     0.0000     8.0000 </r>
       <r>    -9.6394     0.0000     8.0000 </r>
       <r>    -9.5708     0.0000     8.0000 </r>
       <r>    -9.5022     0.0000     8.0000 </r>
       <r>    -9.4336     0.0000     8.0000 </r>
       <r>    -9.3650     0.0000     8.0000 </r>
       <r>    -9.2964     0.0000     8.0000 </r>
       <r>    -9.2278     0.0000     8.0000 </r>
       <r>    -9.1592     0.0000     8.0000 </r>
       <r>    -9.0906     0.0000     8.0000 </r>
       <r>    -9.0220     0.0000     8.0000 </r>
       <r>    -8.9534     0.0000     8.0000 </r>
       <r>    -8.8848     0.0000     8.0000 </r>
       <r>    -8.8162     0.0000     8.0000 </r>
       <r>    -8.7476     0.0000     8.0000 </r>
       <r>    -8.6790     0.0000     8.0000 </r>
       <r>    -8.6104     0.0000     8.0000 </r>
       <r>    -8.5418     0.0000     8.0000 </r>
       <r>    -8.4732     0.0000     8.0000 </r>
       <r>    -8.4046     0.0000     8.0000 </r>
       <r>    -8.3360     0.0000     8.0000 </r>
       <r>    -8.2674     0.0000     8.0000 </r>
       <r>    -8.1988     0.0000     8.0000 </r>
       <r>    -8.1302     0.0000     8.0000 </r>
       <r>    -8.0616     0.0000     8.0000 </r>
       <r>    -7.9930     0.0000     8.0000 </r>
       <r>    -7.9244     0.0000     8.0000 </r>
       <r>    -7.8558     0.0000     8.0000 </r>
       <r>    -7.7872     0.0000     8.0000 </r>
       <r>    -7.7187     0.0000     8.0000 </r>
       <r>    -7.6501     0.0000     8.0000 </r>
       <r>    -7.5815     0.0000     8.0000 </r>
       <r>    -7.5129     0.0000     8.0000 </r>
       <r>    -7.4443     0.0000     8.0000 </r>
       <r>    -7.3757     0.0000     8.0000 </r>
       <r>    -7.3071     0.0000     8.0000 </r>
       <r>    -7.2385     0.0000     8.0000 </r>
       <r>    -7.1699     0.0001     8.0000 </r>
       <r>    -7.1013     0.0971     8.0067 </r>
       <r>    -7.0327     4.5597     8.3194 </r>
       <r>    -6.9641    20.9179     9.7544 </r>
       <r>    -6.8955    23.4891    11.3656 </r>
       <r>    -6.8269    15.0304    12.3967 </r>
       <r>    -6.7583    21.0488    13.8406 </r>
       <r>    -6.6897    33.3510    16.1283 </r>
       <r>    -6.6211    26.6173    17.9542 </r>
       <r>    -6.5525    18.7645    19.2414 </r>
       <r>    -6.4839    31.1831    21.3805 </r>
       <r>    -6.4153    40.4004    24.1518 </r>
       <r>    -6.3467    53.3376    27.8106 </r>
       <r>    -6.2781    43.3009    30.7809 </r>
       <r>    -6.2095    14.1450    31.7512 </r>
       <r>    -6.1409     3.3616    31.9818 </r>
       <r>    -6.0723     0.2637    31.9999 </r>
       <r>    -6.0037     0.0012    32.0000 </r>
       <r>    -5.9351     0.0000    32.0000 </r>
       <r>    -5.8665     0.0000    32.0000 </r>
       <r>    -5.7979     0.0000    32.0000 </r>
       <r>    -5.7293     0.0000    32.0000 </r>
       <r>    -5.6607     0.0000    32.0000 </r>
       <r>    -5.5921     0.0000    32.0000 </r>
       <r>    -5.5235     0.0000    32.0000 </r>
       <r>    -5.4550     0.0000    32.0000 </r>
       <r>    -5.3864     0.0000    32.0000 </r>
       <r>    -5.3178     0.0000    32.0000 </r>
       <r>    -5.2492     0.0000    32.0000 </r>
       <r>    -5.1806     0.0000    32.0000 </r>
       <r>    -5.1120     0.0000    32.0000 </r>
       <r>    -5.0434     0.0000    32.0000 </r>
       <r>    -4.9748     0.0000    32.0000 </r>
       <r>    -4.9062     0.0000    32.0000 </r>
       <r>    -4.8376     0.0000    32.0000 </r>
       <r>    -4.7690     0.0000    32.0000 </r>
       <r>    -4.7004     0.0000    32.0000 </r>
       <r>    -4.6318     0.0000    32.0000 </r>
       <r>    -4.5632     0.0000    32.0000 </r>
       <r>    -4.4946     0.0000    32.0000 </r>
       <r>    -4.4260     0.0000    32.0000 </r>
       <r>    -4.3574     0.0000    32.0000 </r>
       <r>    -4.2888     0.0000    32.0000 </r>
       <r>    -4.2202     0.0000    32.0000 </r>
       <r>    -4.1516     0.0000    32.0000 </r>
       <r>    -4.0830     0.0000    32.0000 </r>
       <r>    -4.0144     0.0000    32.0000 </r>
       <r>    -3.9458     0.0000    32.0000 </r>
       <r>    -3.8772     0.0000    32.0000 </r>
       <r>    -3.8086     0.0000    32.0000 </r>
       <r>    -3.7400     0.0000    32.0000 </r>
       <r>    -3.6714     0.0000    32.0000 </r>
       <r>    -3.6028     0.0000    32.0000 </r>
       <r>    -3.5342     0.0000    32.0000 </r>
       <r>    -3.4656     0.0000    32.0000 </r>
       <r>    -3.3970     0.0000    32.0000 </r>
       <r>    -3.3284     0.0000    32.0000 </r>
       <r>    -3.2598     0.0000    32.0000 </r>
       <r>    -3.1912     0.0000    32.0000 </r>
       <r>    -3.1227     0.0017    32.0001 </r>
       <r>    -3.0541     0.3120    32.0215 </r>
       <r>    -2.9855     2.3005    32.1793 </r>
       <r>    -2.9169     1.0085    32.2485 </r>
       <r>    -2.8483     0.0217    32.2500 </r>
       <r>    -2.7797     0.0002    32.2500 </r>
       <r>    -2.7111     0.1122    32.2577 </r>
       <r>    -2.6425     2.9002    32.4567 </r>
       <r>    -2.5739     3.9821    32.7298 </r>
       <r>    -2.5053     1.6300    32.8416 </r>
       <r>    -2.4367     4.9448    33.1808 </r>
       <r>    -2.3681     2.7445    33.3691 </r>
       <r>    -2.2995     1.8668    33.4971 </r>
       <r>    -2.2309     2.6537    33.6792 </r>
       <r>    -2.1623     6.7650    34.1432 </r>
       <r>    -2.0937     4.5079    34.4525 </r>
       <r>    -2.0251     6.2964    34.8844 </r>
       <r>    -1.9565    13.3488    35.8001 </r>
       <r>    -1.8879    12.2255    36.6387 </r>
       <r>    -1.8193    14.0540    37.6028 </r>
       <r>    -1.7507    16.1056    38.7076 </r>
       <r>    -1.6821     7.5947    39.2285 </r>
       <r>    -1.6135     1.6226    39.3398 </r>
       <r>    -1.5449     2.8576    39.5359 </r>
       <r>    -1.4763     3.4502    39.7725 </r>
       <r>    -1.4077     2.8888    39.9707 </r>
       <r>    -1.3391     0.4243    39.9998 </r>
       <r>    -1.2705     0.2937    40.0200 </r>
       <r>    -1.2019     6.4467    40.4622 </r>
       <r>    -1.1333    11.4742    41.2493 </r>
       <r>    -1.0647    16.9422    42.4115 </r>
       <r>    -0.9961    15.0598    43.4445 </r>
       <r>    -0.9275    19.6872    44.7950 </r>
       <r>    -0.8590    30.3174    46.8747 </r>
       <r>    -0.7904    27.0811    48.7324 </r>
       <r>    -0.7218    23.5447    50.3475 </r>
       <r>    -0.6532    15.5961    51.4173 </r>
       <r>    -0.5846     7.2197    51.9126 </r>
       <r>    -0.5160    10.2012    52.6123 </r>
       <r>    -0.4474    14.1605    53.5837 </r>
       <r>    -0.3788    31.1327    55.7193 </r>
       <r>    -0.3102    19.5450    57.0601 </r>
       <r>    -0.2416    22.7950    58.6237 </r>
       <r>    -0.1730    27.8107    60.5315 </r>
       <r>    -0.1044    24.4586    62.2092 </r>
       <r>    -0.0358    22.0411    63.7212 </r>
       <r>     0.0328    14.2119    64.6961 </r>
       <r>     0.1014    12.3705    65.5447 </r>
       <r>     0.1700    15.7666    66.6262 </r>
       <r>     0.2386    27.4656    68.5103 </r>
       <r>     0.3072    25.2933    70.2453 </r>
       <r>     0.3758    16.6344    71.3864 </r>
       <r>     0.4444    13.9307    72.3420 </r>
       <r>     0.5130    21.1159    73.7905 </r>
       <r>     0.5816    33.5872    76.0945 </r>
       <r>     0.6502    27.5094    77.9815 </r>
       <r>     0.7188    15.4984    79.0447 </r>
       <r>     0.7874     7.0400    79.5276 </r>
       <r>     0.8560     4.9150    79.8647 </r>
       <r>     0.9246     1.9327    79.9973 </r>
       <r>     0.9932     0.0391    80.0000 </r>
       <r>     1.0618     0.0000    80.0000 </r>
       <r>     1.1304     0.0000    80.0000 </r>
       <r>     1.1990     0.0000    80.0000 </r>
       <r>     1.2676     0.0000    80.0000 </r>
       <r>     1.3362     0.0000    80.0000 </r>
       <r>     1.4047     0.0000    80.0000 </r>
       <r>     1.4733     0.0000    80.0000 </r>
       <r>     1.5419     0.0000    80.0000 </r>
       <r>     1.6105     0.0000    80.0000 </r>
       <r>     1.6791     0.0000    80.0000 </r>
       <r>     1.7477     0.0000    80.0000 </r>
       <r>     1.8163     0.0000    80.0000 </r>
       <r>     1.8849     0.0000    80.0000 </r>
       <r>     1.9535     0.0000    80.0000 </r>
       <r>     2.0221     0.0000    80.0000 </r>
       <r>     2.0907     0.0000    80.0000 </r>
       <r>     2.1593     0.0000    80.0000 </r>
       <r>     2.2279     0.0000    80.0000 </r>
       <r>     2.2965     0.0000    80.0000 </r>
       <r>     2.3651     0.0000    80.0000 </r>
       <r>     2.4337     0.0000    80.0000 </r>
       <r>     2.5023     0.0000    80.0000 </r>
       <r>     2.5709     0.0000    80.0000 </r>
       <r>     2.6395     0.0000    80.0000 </r>
       <r>     2.7081     0.0000    80.0000 </r>
       <r>     2.7767     0.0000    80.0000 </r>
       <r>     2.8453     0.0000    80.0000 </r>
       <r>     2.9139     0.0000    80.0000 </r>
       <r>     2.9825     0.0000    80.0000 </r>
       <r>     3.0511     0.0000    80.0000 </r>
       <r>     3.1197     0.0000    80.0000 </r>
       <r>     3.1883     0.0000    80.0000 </r>
       <r>     3.2569     0.0000    80.0000 </r>
       <r>     3.3255     0.0000    80.0000 </r>
       <r>     3.3941     0.0000    80.0000 </r>
       <r>     3.4627     0.0000    80.0000 </r>
       <r>     3.5313     0.0000    80.0000 </r>
       <r>     3.5999     0.0000    80.0000 </r>
       <r>     3.6685     0.0000    80.0000 </r>
       <r>     3.7370     0.0064    80.0004 </r>
       <r>     3.8056     0.5889    80.0408 </r>
       <r>     3.8742     2.4344    80.2078 </r>
       <r>     3.9428     0.6102    80.2497 </r>
       <r>     4.0114     0.3636    80.2746 </r>
       <r>     4.0800     3.0436    80.4834 </r>
       <r>     4.1486     9.2692    81.1192 </r>
       <r>     4.2172     9.8708    81.7964 </r>
       <r>     4.2858     6.9349    82.2721 </r>
       <r>     4.3544    14.1761    83.2445 </r>
       <r>     4.4230    21.4614    84.7167 </r>
       <r>     4.4916    30.0772    86.7799 </r>
       <r>     4.5602    20.1192    88.1600 </r>
       <r>     4.6288    13.7094    89.1005 </r>
       <r>     4.6974    20.4481    90.5031 </r>
       <r>     4.7660    17.8526    91.7278 </r>
       <r>     4.8346    12.7786    92.6043 </r>
       <r>     4.9032    21.6209    94.0875 </r>
       <r>     4.9718    18.0525    95.3258 </r>
       <r>     5.0404    10.1293    96.0207 </r>
       <r>     5.1090     4.4608    96.3266 </r>
       <r>     5.1776     5.9725    96.7363 </r>
       <r>     5.2462     9.5069    97.3885 </r>
       <r>     5.3148     5.9615    97.7974 </r>
       <r>     5.3834     2.5575    97.9729 </r>
       <r>     5.4520     0.3929    97.9998 </r>
       <r>     5.5206     0.0027    98.0000 </r>
       <r>     5.5892     0.0000    98.0000 </r>
       <r>     5.6578     0.0000    98.0000 </r>
       <r>     5.7264     0.0000    98.0000 </r>
       <r>     5.7950     0.0000    98.0000 </r>
       <r>     5.8636     0.0000    98.0000 </r>
       <r>     5.9322     0.0000    98.0000 </r>
       <r>     6.0007     0.0000    98.0000 </r>
       <r>     6.0693     0.0000    98.0000 </r>
       <r>     6.1379     0.0000    98.0000 </r>
       <r>     6.2065     0.0000    98.0000 </r>
       <r>     6.2751     0.0000    98.0000 </r>
      </set>
     </set>
    </array>
   </total>
  </dos>
 </calculation>
 <structure name="finalpos" >
  <crystal>
   <varray name="basis" >
    <v>       0.00000000       9.65593579       0.00000000 </v>
    <v>       8.58494733       0.00000000       0.00000000 </v>
    <v>       0.00000000      -0.02372258      -5.58062049 </v>
   </varray>
   <i name="volume">    462.60944306 </i>
   <varray name="rec_basis" >
    <v>       0.00000000       0.10356324      -0.00044024 </v>
    <v>       0.11648295      -0.00000000       0.00000000 </v>
    <v>       0.00000000       0.00000000      -0.17919154 </v>
   </varray>
  </crystal>
  <varray name="positions" >
   <v>       0.65153371       0.50000008       0.75056737 </v>
   <v>       0.34846610       0.49999978       0.24943192 </v>
   <v>       0.78181104       0.49999997       0.42889107 </v>
   <v>       0.21818848       0.50000008       0.57110907 </v>
   <v>       0.84922472       0.37171264       0.75015646 </v>
   <v>       0.15077466       0.37171277       0.24984376 </v>
   <v>       0.15077487       0.62828735       0.24984344 </v>
   <v>       0.84922485       0.62828738       0.75015624 </v>
   <v>       0.15153475       0.00000017       0.75056943 </v>
   <v>       0.84846541       0.99999993       0.24943119 </v>
   <v>       0.28181233       0.99999991       0.42889393 </v>
   <v>       0.71818822       0.00000001       0.57110596 </v>
   <v>       0.34922538       0.87171276       0.75015789 </v>
   <v>       0.65077490       0.87171271       0.24984245 </v>
   <v>       0.65077509       0.12828723       0.24984218 </v>
   <v>       0.34922549       0.12828724       0.75015763 </v>
  </varray>
 </structure>
</modeling>
