Ga N  O                                 
    1.000000000000000     
    12.2804737091000007    0.0000000000000000    0.0000000000000000
     0.0000000000000000    9.1427021028000013    0.0000000000000000
    -2.7682616410000001    0.0000000000000000   11.3006974810000003
   Ga   N    O 
    48     1    71
Direct
  0.6586081693478150  0.0000000027527420  0.1566306753443101
  0.1597047640635196  0.1668944377977439  0.6562203125157069
  0.8403448326474887  0.1664567958375187  0.3433270167471534
  0.5910899242530192  0.1667346847077269  0.3980081327293377
  0.9082300630919349  0.0000000111608216  0.1023664707566709
  0.1582595028583782  0.1664578308807236  0.1561515620734752
  0.3410192662393356  0.0000000132780045  0.3433346892906428
  0.0912223754010952  0.9999999947112315  0.3974079153390591
  0.4087849140201172  0.1669110451213172  0.1023447113640614
  0.6589953643657509  0.6668410154375835  0.1565387048293374
  0.4087849761274072  0.8330889870127152  0.1023446277292734
  0.4106140585267255  0.5000000383661956  0.6075036038423747
  0.8403448540150933  0.8335432010633710  0.3433269488632718
  0.3409470612547807  0.3332655703519833  0.8440528138538923
  0.1590166010773117  0.5000000020147652  0.6568731916169099
  0.9089431693448518  0.3332710659774634  0.6021425825850031
  0.0907288287561627  0.6668849217696646  0.8970201009442960
  0.6594826119421526  0.9999999834400128  0.6569098149843811
  0.8411670472077546  0.1664629466644669  0.8434479264210921
  0.5911680288478394  0.1666780900710805  0.8975835439591506
  0.9095995302119348  0.9999999897457315  0.6022455819758719
  0.0907288463485827  0.3331150680264869  0.8970201973830356
  0.3410447662615255  0.0000000018183570  0.8429611158073627
  0.0913461055375890  0.0000000162145923  0.8972558079764781
  0.4096370906798654  0.8331660816039843  0.6020661470109090
  0.0893682180131705  0.6670384521334327  0.3968975795086607
  0.1582594750677799  0.8335421881703340  0.1561513988246190
  0.3409470857740118  0.6667344311654446  0.8440527428214324
  0.1597047874027808  0.8331055520387594  0.6562203139847256
  0.9089431717714120  0.6667289372406131  0.6021425300974030
  0.8411670603394796  0.8335370526134653  0.8434478779124035
  0.6598194194558999  0.6668192253019996  0.6570909364340594
  0.5915022395925291  0.4999999903097034  0.8980709772848314
  0.8411580278923410  0.5000000011163763  0.8435663860340625
  0.6598194168233391  0.3331807781145741  0.6570909826665954
  0.5910899679215689  0.8332653148108307  0.3980081133333400
  0.5911680134600701  0.8333219213603869  0.8975834742329738
  0.9088193829673159  0.6666011577493691  0.1023570702447785
  0.4096372297023620  0.1668338449226212  0.6020664821547115
  0.4089874599590360  0.4999999969474658  0.1020861644734836
  0.0893681324401214  0.3329615595421487  0.3968976668284014
  0.3395558130413434  0.6684983227277215  0.3429541431890257
  0.1590690732372835  0.4999999945090323  0.1556445550904826
  0.3395557772817739  0.3315016048918196  0.3429547375938640
  0.5914366509461431  0.4999999825803485  0.3978589467512990
  0.8401924587956984  0.5000000048680917  0.3431445380388212
  0.6589953574074485  0.3331589917121747  0.1565387730097854
  0.9088193604723926  0.3333988385884865  0.1023570916060237
  0.3374801883186720  0.5000001501831477  0.4467108060704916
  0.1727885767851518  0.9999999941131534  0.7801123494741589
  0.3276926506242290  0.1670523393230781  0.7192166786726943
  0.0035820301162133  0.1663393178592685  0.8721725318758686
  0.1720653006301589  0.0000000031962273  0.2799180009769913
  0.9958284413204623  0.1664076694946814  0.1271210861261736
  0.5037941724037154  0.9999999836911613  0.3724148426563332
  0.4959650429826823  0.0000000304637382  0.1271081841571444
  0.8270076573950078  0.0000000049581033  0.2196451125921115
  0.8316737633637317  0.9999999785106937  0.4459612834227755
  0.6679716429754592  0.1664527699623122  0.0542782025274988
  0.0029650829569690  0.1660237949758141  0.3729733016265087
  0.3270127404883141  0.1668678598136069  0.2194251210423275
  0.8323805091754437  0.3332401812012691  0.9456970340860380
  0.4970280674143979  0.9999999250449250  0.6276631801261274
  0.6721925558042514  0.1667140259943665  0.2804709067590778
  0.8278854901777777  0.3332848577242160  0.7195366100338703
  0.8273705793979644  0.3331566369525305  0.2195565760948526
  0.5037552096306896  0.3334692299206523  0.8739614505220885
  0.3321429591860010  0.1644669103072331  0.4459178311914229
  0.3318238945664476  0.1664850769515596  0.9457023979990069
  0.1678346712340968  0.0000000006371010  0.5540083908395204
  0.9962543116079843  0.4999999877526520  0.1268785757255060
  0.5036096796264928  0.3335866960456784  0.3727809125709740
  0.6723721659516002  0.4999999935067123  0.2803667721551406
  0.6731399783061036  0.5000000053750355  0.7810843018837517
  0.8317338326899772  0.3332606504014137  0.4456934228839557
  0.4965343725383491  0.3332468934497612  0.1271655010041783
  0.0025827840495580  0.5000000275811090  0.3726604844107015
  0.1707366225797458  0.3331823096274960  0.2797096616663879
  0.3261578359182380  0.5000000126297550  0.2166389719180941
  0.3318239161986654  0.8335149114628422  0.9457023297562444
  0.9964773997352125  0.4999999995527062  0.6265305299285444
  0.6684626672095533  0.4999999850186896  0.0545636798415359
  0.1677834108891219  0.0000000437163976  0.0539698182348047
  0.8323805251100893  0.6667598277284625  0.9456970134090739
  0.5035944983681446  0.0000000139913183  0.8728677900042285
  0.6732025491783844  0.8337080930694682  0.7809775277232802
  0.8278855016256088  0.6667151289274500  0.7195365782674159
  0.4981703978075558  0.3325506307533885  0.6307292703973957
  0.6681483780383743  0.8333390312063003  0.5544358663779576
  0.4981704054402982  0.6674494174068997  0.6307292126496975
  0.0035820410227174  0.8336607002587400  0.8721725001717999
  0.5037552225687563  0.6665307581061199  0.8739614220912983
  0.1722291795964423  0.6669316000486063  0.7797988519888293
  0.6721925634439430  0.8332859828098194  0.2804708604521551
  0.1707365849733833  0.6668176989639036  0.2797094919862957
  0.9958284360273169  0.8335923504038192  0.1271210374616700
  0.3275210724214688  0.4999999896138334  0.7221016008935308
  0.3313102777432064  0.5000000186561877  0.9459729743144152
  0.1688506970579411  0.3346286182108500  0.5530335502938968
  0.3276926666436637  0.8329476583200091  0.7192165622490592
  0.9969757050569044  0.8329982021231643  0.6264922849264352
  0.1670267289035579  0.6673301162559255  0.0536121079735281
  0.3321428899506884  0.8355329514672860  0.4459175436217251
  0.6732025257749541  0.1662918948176255  0.7809775539831207
  0.8280056379448695  0.0000000076713675  0.7192999959618618
  0.8321410975530767  0.9999999929007828  0.9456985297317644
  0.6681483396132535  0.1666609669626524  0.5544358914640171
  0.6681005908974811  0.4999999874242036  0.5545422091114105
  0.1670267528760121  0.3326698554693692  0.0536122052446117
  0.0036188693005599  0.4999999872782297  0.8720974480326831
  0.5036097294596544  0.6664133027513657  0.3727808474993068
  0.8273705749359692  0.6668433635553086  0.2195565323445905
  0.8317338131399339  0.6667393709266136  0.4456933829011760
  0.6679716075475568  0.8335472556590133  0.0542781519638922
  0.4965343836455247  0.6667531033142708  0.1271654731998666
  0.0029651062572000  0.8339761824109928  0.3729732534815895
  0.1722291662816673  0.3330684020719801  0.7797989007962585
  0.3270127206417044  0.8331321819408188  0.2194249401659505
  0.9969756939604295  0.1670017910392048  0.6264922951188652
  0.1688506827499552  0.6653713688441130  0.5530335108336359
 
  0.00000000E+00  0.00000000E+00  0.00000000E+00
  0.00000000E+00  0.00000000E+00  0.00000000E+00
  0.00000000E+00  0.00000000E+00  0.00000000E+00
  0.00000000E+00  0.00000000E+00  0.00000000E+00
  0.00000000E+00  0.00000000E+00  0.00000000E+00
  0.00000000E+00  0.00000000E+00  0.00000000E+00
  0.00000000E+00  0.00000000E+00  0.00000000E+00
  0.00000000E+00  0.00000000E+00  0.00000000E+00
  0.00000000E+00  0.00000000E+00  0.00000000E+00
  0.00000000E+00  0.00000000E+00  0.00000000E+00
  0.00000000E+00  0.00000000E+00  0.00000000E+00
  0.00000000E+00  0.00000000E+00  0.00000000E+00
  0.00000000E+00  0.00000000E+00  0.00000000E+00
  0.00000000E+00  0.00000000E+00  0.00000000E+00
  0.00000000E+00  0.00000000E+00  0.00000000E+00
  0.00000000E+00  0.00000000E+00  0.00000000E+00
  0.00000000E+00  0.00000000E+00  0.00000000E+00
  0.00000000E+00  0.00000000E+00  0.00000000E+00
  0.00000000E+00  0.00000000E+00  0.00000000E+00
  0.00000000E+00  0.00000000E+00  0.00000000E+00
  0.00000000E+00  0.00000000E+00  0.00000000E+00
  0.00000000E+00  0.00000000E+00  0.00000000E+00
  0.00000000E+00  0.00000000E+00  0.00000000E+00
  0.00000000E+00  0.00000000E+00  0.00000000E+00
  0.00000000E+00  0.00000000E+00  0.00000000E+00
  0.00000000E+00  0.00000000E+00  0.00000000E+00
  0.00000000E+00  0.00000000E+00  0.00000000E+00
  0.00000000E+00  0.00000000E+00  0.00000000E+00
  0.00000000E+00  0.00000000E+00  0.00000000E+00
  0.00000000E+00  0.00000000E+00  0.00000000E+00
  0.00000000E+00  0.00000000E+00  0.00000000E+00
  0.00000000E+00  0.00000000E+00  0.00000000E+00
  0.00000000E+00  0.00000000E+00  0.00000000E+00
  0.00000000E+00  0.00000000E+00  0.00000000E+00
  0.00000000E+00  0.00000000E+00  0.00000000E+00
  0.00000000E+00  0.00000000E+00  0.00000000E+00
  0.00000000E+00  0.00000000E+00  0.00000000E+00
  0.00000000E+00  0.00000000E+00  0.00000000E+00
  0.00000000E+00  0.00000000E+00  0.00000000E+00
  0.00000000E+00  0.00000000E+00  0.00000000E+00
  0.00000000E+00  0.00000000E+00  0.00000000E+00
  0.00000000E+00  0.00000000E+00  0.00000000E+00
  0.00000000E+00  0.00000000E+00  0.00000000E+00
  0.00000000E+00  0.00000000E+00  0.00000000E+00
  0.00000000E+00  0.00000000E+00  0.00000000E+00
  0.00000000E+00  0.00000000E+00  0.00000000E+00
  0.00000000E+00  0.00000000E+00  0.00000000E+00
  0.00000000E+00  0.00000000E+00  0.00000000E+00
  0.00000000E+00  0.00000000E+00  0.00000000E+00
  0.00000000E+00  0.00000000E+00  0.00000000E+00
  0.00000000E+00  0.00000000E+00  0.00000000E+00
  0.00000000E+00  0.00000000E+00  0.00000000E+00
  0.00000000E+00  0.00000000E+00  0.00000000E+00
  0.00000000E+00  0.00000000E+00  0.00000000E+00
  0.00000000E+00  0.00000000E+00  0.00000000E+00
  0.00000000E+00  0.00000000E+00  0.00000000E+00
  0.00000000E+00  0.00000000E+00  0.00000000E+00
  0.00000000E+00  0.00000000E+00  0.00000000E+00
  0.00000000E+00  0.00000000E+00  0.00000000E+00
  0.00000000E+00  0.00000000E+00  0.00000000E+00
  0.00000000E+00  0.00000000E+00  0.00000000E+00
  0.00000000E+00  0.00000000E+00  0.00000000E+00
  0.00000000E+00  0.00000000E+00  0.00000000E+00
  0.00000000E+00  0.00000000E+00  0.00000000E+00
  0.00000000E+00  0.00000000E+00  0.00000000E+00
  0.00000000E+00  0.00000000E+00  0.00000000E+00
  0.00000000E+00  0.00000000E+00  0.00000000E+00
  0.00000000E+00  0.00000000E+00  0.00000000E+00
  0.00000000E+00  0.00000000E+00  0.00000000E+00
  0.00000000E+00  0.00000000E+00  0.00000000E+00
  0.00000000E+00  0.00000000E+00  0.00000000E+00
  0.00000000E+00  0.00000000E+00  0.00000000E+00
  0.00000000E+00  0.00000000E+00  0.00000000E+00
  0.00000000E+00  0.00000000E+00  0.00000000E+00
  0.00000000E+00  0.00000000E+00  0.00000000E+00
  0.00000000E+00  0.00000000E+00  0.00000000E+00
  0.00000000E+00  0.00000000E+00  0.00000000E+00
  0.00000000E+00  0.00000000E+00  0.00000000E+00
  0.00000000E+00  0.00000000E+00  0.00000000E+00
  0.00000000E+00  0.00000000E+00  0.00000000E+00
  0.00000000E+00  0.00000000E+00  0.00000000E+00
  0.00000000E+00  0.00000000E+00  0.00000000E+00
  0.00000000E+00  0.00000000E+00  0.00000000E+00
  0.00000000E+00  0.00000000E+00  0.00000000E+00
  0.00000000E+00  0.00000000E+00  0.00000000E+00
  0.00000000E+00  0.00000000E+00  0.00000000E+00
  0.00000000E+00  0.00000000E+00  0.00000000E+00
  0.00000000E+00  0.00000000E+00  0.00000000E+00
  0.00000000E+00  0.00000000E+00  0.00000000E+00
  0.00000000E+00  0.00000000E+00  0.00000000E+00
  0.00000000E+00  0.00000000E+00  0.00000000E+00
  0.00000000E+00  0.00000000E+00  0.00000000E+00
  0.00000000E+00  0.00000000E+00  0.00000000E+00
  0.00000000E+00  0.00000000E+00  0.00000000E+00
  0.00000000E+00  0.00000000E+00  0.00000000E+00
  0.00000000E+00  0.00000000E+00  0.00000000E+00
  0.00000000E+00  0.00000000E+00  0.00000000E+00
  0.00000000E+00  0.00000000E+00  0.00000000E+00
  0.00000000E+00  0.00000000E+00  0.00000000E+00
  0.00000000E+00  0.00000000E+00  0.00000000E+00
  0.00000000E+00  0.00000000E+00  0.00000000E+00
  0.00000000E+00  0.00000000E+00  0.00000000E+00
  0.00000000E+00  0.00000000E+00  0.00000000E+00
  0.00000000E+00  0.00000000E+00  0.00000000E+00
  0.00000000E+00  0.00000000E+00  0.00000000E+00
  0.00000000E+00  0.00000000E+00  0.00000000E+00
  0.00000000E+00  0.00000000E+00  0.00000000E+00
  0.00000000E+00  0.00000000E+00  0.00000000E+00
  0.00000000E+00  0.00000000E+00  0.00000000E+00
  0.00000000E+00  0.00000000E+00  0.00000000E+00
  0.00000000E+00  0.00000000E+00  0.00000000E+00
  0.00000000E+00  0.00000000E+00  0.00000000E+00
  0.00000000E+00  0.00000000E+00  0.00000000E+00
  0.00000000E+00  0.00000000E+00  0.00000000E+00
  0.00000000E+00  0.00000000E+00  0.00000000E+00
  0.00000000E+00  0.00000000E+00  0.00000000E+00
  0.00000000E+00  0.00000000E+00  0.00000000E+00
  0.00000000E+00  0.00000000E+00  0.00000000E+00
  0.00000000E+00  0.00000000E+00  0.00000000E+00
  0.00000000E+00  0.00000000E+00  0.00000000E+00
