Ga48 O72                                
    1.000000000000000     
     0.0000000000000000   12.2804734172212839    0.0000000000000000
     9.1427020537309431    0.0000000000000000    0.0000000000000000
     0.0000000000000000   -2.7682617730220320  -11.3006977184464645
   Ga   O    P 
    48    71     1
Direct
  0.6578064616905195  0.9965422774139086  0.1534639067324690
  0.6586461791000957  0.9995898613842442  0.6570457065475424
  0.6578064616905195  0.3367910559194272  0.1534639067324690
  0.6586461791000957  0.3337434719490915  0.6570457065475424
  0.6589265630090253  0.6666666666666643  0.1556043769148445
  0.6583563997899660  0.6666666666666643  0.6573592680822813
  0.8170174037655329  0.1666666666666643  0.3612898731896337
  0.8409438628306205  0.1666666666666643  0.8437993607664325
  0.8411976182456087  0.5011923713951489  0.3410405798837743
  0.8413099269851756  0.5003051217037466  0.8437408062047851
  0.8411976182456087  0.8321409619381868  0.3410405798837743
  0.8413099269851756  0.8330282116295962  0.8437408062047851
  0.5836651044359797  0.1666666666666643  0.3995765371820497
  0.5913352866210957  0.1666666666666643  0.8979262164598936
  0.5936818297915423  0.5016174211670545  0.3983266726593442
  0.5895614925028809  0.5004564813287402  0.8957487446924972
  0.5936818297915423  0.8317159121662812  0.3983266726593442
  0.5895614925028809  0.8328768520045955  0.8957487446924972
  0.9066582455738725  0.9966889386966997  0.1037968781086747
  0.9088546700603288  0.9977124403655466  0.6031191885955707
  0.9066582455738725  0.3366443946366360  0.1037968781086747
  0.9088546700603288  0.3356208929677891  0.6031191885955707
  0.9111798210351623  0.6666666666666643  0.1035872757913197
  0.9082764600855029  0.6666666666666643  0.6005764797798179
  0.1631102381374987  0.1666666666666643  0.1572017379521284
  0.1607398894816257  0.1666666666666643  0.6558908827684533
  0.1611937960017329  0.5005464098493775  0.1563520540684706
  0.1605452064268107  0.5012949181629622  0.6597628474036625
  0.1611937960017329  0.8327869234839582  0.1563520540684706
  0.1605452064268107  0.8320384151703735  0.6597628474036625
  0.3433293675807079  0.9982331237548863  0.3425279116178572
  0.3411505506385311  0.0000293505462921  0.8433301860022269
  0.3433293675807079  0.3351002095784494  0.3425279116178572
  0.3411505506385311  0.3333039827870437  0.8433301860022269
  0.3426664475900694  0.6666666666666643  0.3430339931687030
  0.3413311467688089  0.6666666666666643  0.8445896688438168
  0.1033092030822829  0.9850686285686336  0.4020592072383664
  0.0911075971731492  0.0002372758986553  0.8976264373737948
  0.1033092030822829  0.3482647047647021  0.4020592072383664
  0.0911075971731492  0.3330960574346804  0.8976264373737948
  0.0949262514505804  0.6666666666666643  0.4001186943417494
  0.0901935753558831  0.6666666666666643  0.8979971874660038
  0.4099377464851344  0.1666666666666643  0.1008144668710855
  0.4085281609306364  0.1666666666666643  0.6023626259499153
  0.4099011404489943  0.5005702959610829  0.1016393770704980
  0.4080324197608078  0.5001758077875920  0.6026159744390327
  0.4099011404489943  0.8327630373722528  0.1016393770704980
  0.4080324197608078  0.8331575255457437  0.6026159744390327
  0.9959963691809151  0.1666666666666643  0.1310892595184470
  0.9955372850795356  0.1666666666666643  0.6151741509391684
  0.9983243239424056  0.4996284289342086  0.1284320087275859
  0.9973834779616482  0.5005583186833320  0.6270201274887697
  0.9983243239424056  0.8337049043991271  0.1284320087275859
  0.9973834779616482  0.8327750146500037  0.6270201274887697
  0.5036440937989468  0.9965443787847974  0.3728302545386271
  0.5035665362697443  0.0005459992029913  0.8728138528844269
  0.5036440937989468  0.3367889545485383  0.3728302545386271
  0.5035665362697443  0.3327873341303444  0.8728138528844269
  0.5044707428716606  0.6666666666666643  0.3743398978279302
  0.5025010920032216  0.6666666666666643  0.8709876133391816
  0.6651887426243732  0.1666666666666643  0.2805312756735390
  0.6727403159068146  0.1666666666666643  0.7807387126374863
  0.6704229454863793  0.5024850366186371  0.2786525174277799
  0.6732439167116056  0.4999664978878400  0.7809884816626962
  0.6704229454863793  0.8308482967146986  0.2786525174277799
  0.6732439167116056  0.8333668354454957  0.7809884816626962
  0.8206905432764771  0.9869829759858746  0.2147739424278257
  0.8278757775141727  0.0007962657467004  0.7201718467884817
  0.8206905432764771  0.3463503573474611  0.2147739424278257
  0.8278757775141727  0.3325370675866353  0.7201718467884817
  0.8277417611180269  0.6666666666666643  0.2186274372315253
  0.8280169030198508  0.6666666666666643  0.7193663566105712
  0.8194356962271740  0.9893100732017288  0.4508085369685233
  0.8337247713836717  0.0003054575332229  0.9462539166510524
  0.8194356962271740  0.3440232601316069  0.4508085369685233
  0.8337247713836717  0.3330278758001128  0.9462539166510524
  0.8298369249793822  0.6666666666666643  0.4447171955265929
  0.8345162799507762  0.6666666666666643  0.9465809489155390
  0.6679155053295531  0.1666666666666643  0.0547203679068673
  0.6661448904694254  0.1666666666666643  0.5540556687625369
  0.6659514786642760  0.5022995499554526  0.0512129262040517
  0.6663357396522400  0.5007127551965311  0.5558372134753640
  0.6659514786642760  0.8310337833778831  0.0512129262040517
  0.6663357396522400  0.8326205781368046  0.5558372134753640
  0.4965292666023586  0.9998540086496277  0.1260592162969445
  0.4959241521137514  0.9998080513598211  0.6276339393203756
  0.4965292666023586  0.3334793246837080  0.1260592162969445
  0.4959241521137514  0.3335252819735146  0.6276339393203756
  0.4966328411709569  0.6666666666666643  0.1250797481816477
  0.4956159701548870  0.6666666666666643  0.6280055597522107
  0.0034787024882803  0.1666666666666643  0.8703864552995100
  0.0049844704125164  0.5057496939353925  0.3771326905313543
  0.0038253642757624  0.4995835842216039  0.8724494939969460
  0.0049844704125164  0.8275836393979432  0.3771326905313543
  0.0038253642757624  0.8337497491117318  0.8724494939969460
  0.1793284896708514  0.9947412968863745  0.2788758241303526
  0.1717398772961758  0.0010826011911007  0.7800212308615002
  0.1793284896708514  0.3385920364469612  0.2788758241303526
  0.1717398772961758  0.3322507321422350  0.7800212308615002
  0.1742588998819983  0.6666666666666643  0.2808511220577259
  0.1726151353528707  0.6666666666666643  0.7818556538094299
  0.3302845690750047  0.1666666666666643  0.2189527967425633
  0.3283128685320094  0.1666666666666643  0.7205103973902283
  0.3298941329973530  0.5024014955521210  0.2188490245174037
  0.3288648199111890  0.5005303229845666  0.7219613718781517
  0.3298941329973530  0.8309318377812147  0.2188490245174037
  0.3288648199111890  0.8328030103487691  0.7219613718781517
  0.3350075634104783  0.1666666666666643  0.4446219640706914
  0.3313776007291409  0.1666666666666643  0.9452693728772417
  0.3313457194122762  0.5004939218047610  0.4458674852685931
  0.3311207539578049  0.4993473552702241  0.9458958012966079
  0.3313457194122762  0.8328394115285747  0.4458674852685931
  0.3311207539578049  0.8339859780631116  0.9458958012966079
  0.1677280409079884  0.0009475041590292  0.0538041266861029
  0.1768740535834112  0.9961578743004722  0.5588421091639688
  0.1677280409079884  0.3323858291743065  0.0538041266861029
  0.1768740535834112  0.3371754590328635  0.5588421091639688
  0.1682249468420025  0.6666666666666643  0.0538212825603850
  0.1720768061929547  0.6666666666666643  0.5569885898835167
  0.9902846316762250  0.1666666666666643  0.3422306912932598
 
  0.00000000E+00  0.00000000E+00  0.00000000E+00
  0.00000000E+00  0.00000000E+00  0.00000000E+00
  0.00000000E+00  0.00000000E+00  0.00000000E+00
  0.00000000E+00  0.00000000E+00  0.00000000E+00
  0.00000000E+00  0.00000000E+00  0.00000000E+00
  0.00000000E+00  0.00000000E+00  0.00000000E+00
  0.00000000E+00  0.00000000E+00  0.00000000E+00
  0.00000000E+00  0.00000000E+00  0.00000000E+00
  0.00000000E+00  0.00000000E+00  0.00000000E+00
  0.00000000E+00  0.00000000E+00  0.00000000E+00
  0.00000000E+00  0.00000000E+00  0.00000000E+00
  0.00000000E+00  0.00000000E+00  0.00000000E+00
  0.00000000E+00  0.00000000E+00  0.00000000E+00
  0.00000000E+00  0.00000000E+00  0.00000000E+00
  0.00000000E+00  0.00000000E+00  0.00000000E+00
  0.00000000E+00  0.00000000E+00  0.00000000E+00
  0.00000000E+00  0.00000000E+00  0.00000000E+00
  0.00000000E+00  0.00000000E+00  0.00000000E+00
  0.00000000E+00  0.00000000E+00  0.00000000E+00
  0.00000000E+00  0.00000000E+00  0.00000000E+00
  0.00000000E+00  0.00000000E+00  0.00000000E+00
  0.00000000E+00  0.00000000E+00  0.00000000E+00
  0.00000000E+00  0.00000000E+00  0.00000000E+00
  0.00000000E+00  0.00000000E+00  0.00000000E+00
  0.00000000E+00  0.00000000E+00  0.00000000E+00
  0.00000000E+00  0.00000000E+00  0.00000000E+00
  0.00000000E+00  0.00000000E+00  0.00000000E+00
  0.00000000E+00  0.00000000E+00  0.00000000E+00
  0.00000000E+00  0.00000000E+00  0.00000000E+00
  0.00000000E+00  0.00000000E+00  0.00000000E+00
  0.00000000E+00  0.00000000E+00  0.00000000E+00
  0.00000000E+00  0.00000000E+00  0.00000000E+00
  0.00000000E+00  0.00000000E+00  0.00000000E+00
  0.00000000E+00  0.00000000E+00  0.00000000E+00
  0.00000000E+00  0.00000000E+00  0.00000000E+00
  0.00000000E+00  0.00000000E+00  0.00000000E+00
  0.00000000E+00  0.00000000E+00  0.00000000E+00
  0.00000000E+00  0.00000000E+00  0.00000000E+00
  0.00000000E+00  0.00000000E+00  0.00000000E+00
  0.00000000E+00  0.00000000E+00  0.00000000E+00
  0.00000000E+00  0.00000000E+00  0.00000000E+00
  0.00000000E+00  0.00000000E+00  0.00000000E+00
  0.00000000E+00  0.00000000E+00  0.00000000E+00
  0.00000000E+00  0.00000000E+00  0.00000000E+00
  0.00000000E+00  0.00000000E+00  0.00000000E+00
  0.00000000E+00  0.00000000E+00  0.00000000E+00
  0.00000000E+00  0.00000000E+00  0.00000000E+00
  0.00000000E+00  0.00000000E+00  0.00000000E+00
  0.00000000E+00  0.00000000E+00  0.00000000E+00
  0.00000000E+00  0.00000000E+00  0.00000000E+00
  0.00000000E+00  0.00000000E+00  0.00000000E+00
  0.00000000E+00  0.00000000E+00  0.00000000E+00
  0.00000000E+00  0.00000000E+00  0.00000000E+00
  0.00000000E+00  0.00000000E+00  0.00000000E+00
  0.00000000E+00  0.00000000E+00  0.00000000E+00
  0.00000000E+00  0.00000000E+00  0.00000000E+00
  0.00000000E+00  0.00000000E+00  0.00000000E+00
  0.00000000E+00  0.00000000E+00  0.00000000E+00
  0.00000000E+00  0.00000000E+00  0.00000000E+00
  0.00000000E+00  0.00000000E+00  0.00000000E+00
  0.00000000E+00  0.00000000E+00  0.00000000E+00
  0.00000000E+00  0.00000000E+00  0.00000000E+00
  0.00000000E+00  0.00000000E+00  0.00000000E+00
  0.00000000E+00  0.00000000E+00  0.00000000E+00
  0.00000000E+00  0.00000000E+00  0.00000000E+00
  0.00000000E+00  0.00000000E+00  0.00000000E+00
  0.00000000E+00  0.00000000E+00  0.00000000E+00
  0.00000000E+00  0.00000000E+00  0.00000000E+00
  0.00000000E+00  0.00000000E+00  0.00000000E+00
  0.00000000E+00  0.00000000E+00  0.00000000E+00
  0.00000000E+00  0.00000000E+00  0.00000000E+00
  0.00000000E+00  0.00000000E+00  0.00000000E+00
  0.00000000E+00  0.00000000E+00  0.00000000E+00
  0.00000000E+00  0.00000000E+00  0.00000000E+00
  0.00000000E+00  0.00000000E+00  0.00000000E+00
  0.00000000E+00  0.00000000E+00  0.00000000E+00
  0.00000000E+00  0.00000000E+00  0.00000000E+00
  0.00000000E+00  0.00000000E+00  0.00000000E+00
  0.00000000E+00  0.00000000E+00  0.00000000E+00
  0.00000000E+00  0.00000000E+00  0.00000000E+00
  0.00000000E+00  0.00000000E+00  0.00000000E+00
  0.00000000E+00  0.00000000E+00  0.00000000E+00
  0.00000000E+00  0.00000000E+00  0.00000000E+00
  0.00000000E+00  0.00000000E+00  0.00000000E+00
  0.00000000E+00  0.00000000E+00  0.00000000E+00
  0.00000000E+00  0.00000000E+00  0.00000000E+00
  0.00000000E+00  0.00000000E+00  0.00000000E+00
  0.00000000E+00  0.00000000E+00  0.00000000E+00
  0.00000000E+00  0.00000000E+00  0.00000000E+00
  0.00000000E+00  0.00000000E+00  0.00000000E+00
  0.00000000E+00  0.00000000E+00  0.00000000E+00
  0.00000000E+00  0.00000000E+00  0.00000000E+00
  0.00000000E+00  0.00000000E+00  0.00000000E+00
  0.00000000E+00  0.00000000E+00  0.00000000E+00
  0.00000000E+00  0.00000000E+00  0.00000000E+00
  0.00000000E+00  0.00000000E+00  0.00000000E+00
  0.00000000E+00  0.00000000E+00  0.00000000E+00
  0.00000000E+00  0.00000000E+00  0.00000000E+00
  0.00000000E+00  0.00000000E+00  0.00000000E+00
  0.00000000E+00  0.00000000E+00  0.00000000E+00
  0.00000000E+00  0.00000000E+00  0.00000000E+00
  0.00000000E+00  0.00000000E+00  0.00000000E+00
  0.00000000E+00  0.00000000E+00  0.00000000E+00
  0.00000000E+00  0.00000000E+00  0.00000000E+00
  0.00000000E+00  0.00000000E+00  0.00000000E+00
  0.00000000E+00  0.00000000E+00  0.00000000E+00
  0.00000000E+00  0.00000000E+00  0.00000000E+00
  0.00000000E+00  0.00000000E+00  0.00000000E+00
  0.00000000E+00  0.00000000E+00  0.00000000E+00
  0.00000000E+00  0.00000000E+00  0.00000000E+00
  0.00000000E+00  0.00000000E+00  0.00000000E+00
  0.00000000E+00  0.00000000E+00  0.00000000E+00
  0.00000000E+00  0.00000000E+00  0.00000000E+00
  0.00000000E+00  0.00000000E+00  0.00000000E+00
  0.00000000E+00  0.00000000E+00  0.00000000E+00
  0.00000000E+00  0.00000000E+00  0.00000000E+00
  0.00000000E+00  0.00000000E+00  0.00000000E+00
  0.00000000E+00  0.00000000E+00  0.00000000E+00
  0.00000000E+00  0.00000000E+00  0.00000000E+00
  0.00000000E+00  0.00000000E+00  0.00000000E+00
