Ga8 O12                                 
    1.000000000000000     
     0.0000000000000000   12.2804737091000007    0.0000000000000000
     9.1427011490000005    0.0000000000000000    0.0000000000000000
     0.0000000000000000   -2.7682616411000001  -11.3006974810000003
   Ga   O    N    Fe
    47    71     1     1
Direct
  0.6589618531601005  0.0007184741904993  0.1572609629744761
  0.6578685814417469  0.0000860166794538  0.6559487624879381
  0.6600285353562967  0.3337760334103450  0.1565334296077907
  0.6581269661240512  0.3331287343447471  0.6556630317415681
  0.6592239163782239  0.6665414741038163  0.1566705417609668
  0.6578773309299208  0.6657251848322616  0.6558052601881386
  0.8411067521975468  0.1672796783574597  0.3441096528543000
  0.8403532011334249  0.1666221250102069  0.8429248544548074
  0.8416053860975978  0.5000631749140467  0.3437783623656046
  0.8404887916716746  0.5000600109803415  0.8432683700353749
  0.8410326301639088  0.8338256212608286  0.3436836392471321
  0.8404094766811383  0.8332489927821385  0.8430577961277024
  0.5877863338797269  0.1691440360541066  0.3966373105736452
  0.5917670346272104  0.1667889661152202  0.8981414929717744
  0.5885157164894537  0.4996671913918433  0.3964123048377459
  0.5911626328056698  0.5000753419687598  0.8982202696624171
  0.5915778119766628  0.8341244462020683  0.3979615351026951
  0.5918352169423500  0.8334129511641777  0.8982817936581782
  0.9075910781533381  0.0007873213490512  0.1020492400751110
  0.9089945034499891  0.9998711563560221  0.6027833329417618
  0.9107431799529948  0.3345570347216622  0.1029930973070705
  0.9094283323069661  0.3332076370354358  0.6027315214385851
  0.9108874615807920  0.6661002858168885  0.1031787042629873
  0.9091623931665112  0.6665922277872198  0.6027505461297196
  0.1592904105092998  0.1673250642438120  0.1576305611849804
  0.1598493049582004  0.1661891933705846  0.6578641478331946
  0.1645782645703804  0.5005671586519114  0.1566185196762291
  0.1598754764890060  0.4999954898513863  0.6576232705370018
  0.1587897586129330  0.8340288467888399  0.1575786895288047
  0.1597214837012828  0.8330970567430498  0.6571172175394651
  0.3408523692391583  0.0001691614179791  0.3436122911969335
  0.3420941218969062  0.0001273296760118  0.8431773210120923
  0.3419398647476370  0.3338635002280412  0.8447369160323390
  0.3399932577660678  0.6594750926788890  0.3390081757136585
  0.3420580055610856  0.6656553504502725  0.8445093134972339
  0.0911342737974863  0.0010121254350537  0.3975435071179589
  0.0910762121111262  0.0001672520843101  0.8981442548488516
  0.0940457749696222  0.3334104393149602  0.3991819541603761
  0.0895454920915313  0.3328379389964979  0.8967807942866699
  0.0907481691269112  0.6676241305220927  0.3977144141884423
  0.0901597932191009  0.6673135983589802  0.8969914291075867
  0.4097489115480855  0.1686308962707699  0.1037713493269408
  0.4071919664370043  0.1663149033336282  0.5986980511878315
  0.4072540759856906  0.4987242708020219  0.1082349906397937
  0.4071938230177281  0.4966879099450736  0.5992442355386274
  0.4096415202298971  0.8329365177322288  0.1027164860511860
  0.4081343885773592  0.8312067601914208  0.6001855625121806
  0.9957158904825150  0.1663637334926946  0.1275488641625202
  0.9966218288517794  0.1663235080306649  0.6279804594810088
  0.9991321743878174  0.5001168077563207  0.1279549272033123
  0.9966329675908696  0.4999962302839123  0.6280704546301052
  0.9951177376067122  0.8349645365724356  0.1262737743936455
  0.9965705373200038  0.8333223358743069  0.6280495041286471
  0.5039766490202808  0.0000568118868713  0.3721990371512547
  0.5047284771580109  0.0000606757077435  0.8729066476695664
  0.5003685162152607  0.3346243831541926  0.3745327045152891
  0.5046690465745058  0.3330977533598158  0.8727606068604530
  0.5050934622858989  0.6683976793452615  0.3749076519806920
  0.5046462108205105  0.6670792153543204  0.8720273533947278
  0.6725374431611968  0.1678330933333214  0.2813133083350294
  0.6726024109005593  0.1664803493356359  0.7803088292259233
  0.6729798375696561  0.5000394782252684  0.2808968337541629
  0.6727322676517389  0.4997394701550633  0.7806696074407640
  0.6733208141566109  0.8338495934915144  0.2807617970487399
  0.6723857519431320  0.8327292757536569  0.7803368586335253
  0.8273295360443953  0.0010276791144719  0.2202728696400129
  0.8265576945313953  0.9999836696151334  0.7189663865446079
  0.8283035191789310  0.3339151521642378  0.2198524504471848
  0.8270032501579294  0.3331041515233437  0.7191125161638752
  0.8283381935896657  0.6665836231226976  0.2199504717652374
  0.8269046191695608  0.6664763082331007  0.7192050604421212
  0.8319701841906522  0.0004195085464289  0.4464018913030969
  0.8312017668390652  0.0001043926554942  0.9452223685659504
  0.8323345608607298  0.3337051522876990  0.4464116949014922
  0.8332909555755776  0.3334543542779116  0.9461085383886996
  0.8325672169207579  0.6668119973540669  0.4462076485421775
  0.8332512270907912  0.6665880404280315  0.9462488978078767
  0.6700652269905234  0.1663295732635888  0.0543389127464096
  0.6667800196174696  0.1666351079470090  0.5533100446363619
  0.6702751472785806  0.5004725641366221  0.0540771476384805
  0.6675377320838081  0.4993572850649102  0.5535144286747737
  0.6692326398948438  0.8339937357403571  0.0546604875897572
  0.6682870974054538  0.8333568278580188  0.5547751806773036
  0.4968547277859869  0.0007208628579889  0.1268528366565036
  0.4954076711857880  0.9988938621906200  0.6266906844276434
  0.4991914279739973  0.3330398102980823  0.1247917767217430
  0.4964441717112322  0.3317144032243888  0.6291373509702538
  0.4976603543840170  0.6667347615505790  0.1254007567227120
  0.4954785648159117  0.6640649286297560  0.6268356950400431
  0.0037310855433716  0.1678350203500543  0.3742586844002247
  0.0023846045157399  0.1657267580706403  0.8708803559174925
  0.0044235576768799  0.4993234934903583  0.3741751781913152
  0.0028753366006242  0.5003328880122737  0.8711287255655691
  0.0028524971131176  0.8347556167749701  0.3744363550771297
  0.0027103793210586  0.8342204278178684  0.8711399906582997
  0.1716121563009310  0.0004682659862425  0.2801260868308333
  0.1729982708521689  0.9997100004405794  0.7811142981474930
  0.1737636513747489  0.3284186081912779  0.2824782854923100
  0.1729409914814894  0.3330043347913758  0.7815024253312259
  0.1682514504328623  0.6735206635524023  0.2797516988429010
  0.1729517261664455  0.6665655240849162  0.7809671825179052
  0.3278791024524210  0.1704057831548269  0.2204093090602086
  0.3281204112731047  0.1662842018977742  0.7194627610604911
  0.3278496141924023  0.4996258601112515  0.7195733789418028
  0.3272047271426786  0.8375553859220375  0.2179522374700156
  0.3278594208538621  0.8328397504513205  0.7191322783799023
  0.3312429909841015  0.1670578218560479  0.4431368796514832
  0.3337177370558990  0.1663229641537143  0.9462159505538281
  0.3265800292188317  0.4942828813112214  0.4452530880162939
  0.3356690706835437  0.4999451016417069  0.9469310688810850
  0.3325129711200958  0.8300017890894793  0.4436614420333456
  0.3337279632050780  0.8336677399020687  0.9454030607394657
  0.1671954772275939  0.0008921640233694  0.0543040354653712
  0.1677587101211486  0.9998191043878606  0.5545460941701492
  0.1644032924283039  0.3307526830976428  0.0523382353710389
  0.1673574948674315  0.3327573873509166  0.5564230403422457
  0.1662601522710929  0.6700510177910388  0.0524540036962549
  0.1669294866900657  0.6666833416305948  0.5547628347615543
  0.3260414082087664  0.4951407493204769  0.2244851591542556
  0.3366428678192506  0.3367058842297865  0.3342212927289765
 
  0.00000000E+00  0.00000000E+00  0.00000000E+00
  0.00000000E+00  0.00000000E+00  0.00000000E+00
  0.00000000E+00  0.00000000E+00  0.00000000E+00
  0.00000000E+00  0.00000000E+00  0.00000000E+00
  0.00000000E+00  0.00000000E+00  0.00000000E+00
  0.00000000E+00  0.00000000E+00  0.00000000E+00
  0.00000000E+00  0.00000000E+00  0.00000000E+00
  0.00000000E+00  0.00000000E+00  0.00000000E+00
  0.00000000E+00  0.00000000E+00  0.00000000E+00
  0.00000000E+00  0.00000000E+00  0.00000000E+00
  0.00000000E+00  0.00000000E+00  0.00000000E+00
  0.00000000E+00  0.00000000E+00  0.00000000E+00
  0.00000000E+00  0.00000000E+00  0.00000000E+00
  0.00000000E+00  0.00000000E+00  0.00000000E+00
  0.00000000E+00  0.00000000E+00  0.00000000E+00
  0.00000000E+00  0.00000000E+00  0.00000000E+00
  0.00000000E+00  0.00000000E+00  0.00000000E+00
  0.00000000E+00  0.00000000E+00  0.00000000E+00
  0.00000000E+00  0.00000000E+00  0.00000000E+00
  0.00000000E+00  0.00000000E+00  0.00000000E+00
  0.00000000E+00  0.00000000E+00  0.00000000E+00
  0.00000000E+00  0.00000000E+00  0.00000000E+00
  0.00000000E+00  0.00000000E+00  0.00000000E+00
  0.00000000E+00  0.00000000E+00  0.00000000E+00
  0.00000000E+00  0.00000000E+00  0.00000000E+00
  0.00000000E+00  0.00000000E+00  0.00000000E+00
  0.00000000E+00  0.00000000E+00  0.00000000E+00
  0.00000000E+00  0.00000000E+00  0.00000000E+00
  0.00000000E+00  0.00000000E+00  0.00000000E+00
  0.00000000E+00  0.00000000E+00  0.00000000E+00
  0.00000000E+00  0.00000000E+00  0.00000000E+00
  0.00000000E+00  0.00000000E+00  0.00000000E+00
  0.00000000E+00  0.00000000E+00  0.00000000E+00
  0.00000000E+00  0.00000000E+00  0.00000000E+00
  0.00000000E+00  0.00000000E+00  0.00000000E+00
  0.00000000E+00  0.00000000E+00  0.00000000E+00
  0.00000000E+00  0.00000000E+00  0.00000000E+00
  0.00000000E+00  0.00000000E+00  0.00000000E+00
  0.00000000E+00  0.00000000E+00  0.00000000E+00
  0.00000000E+00  0.00000000E+00  0.00000000E+00
  0.00000000E+00  0.00000000E+00  0.00000000E+00
  0.00000000E+00  0.00000000E+00  0.00000000E+00
  0.00000000E+00  0.00000000E+00  0.00000000E+00
  0.00000000E+00  0.00000000E+00  0.00000000E+00
  0.00000000E+00  0.00000000E+00  0.00000000E+00
  0.00000000E+00  0.00000000E+00  0.00000000E+00
  0.00000000E+00  0.00000000E+00  0.00000000E+00
  0.00000000E+00  0.00000000E+00  0.00000000E+00
  0.00000000E+00  0.00000000E+00  0.00000000E+00
  0.00000000E+00  0.00000000E+00  0.00000000E+00
  0.00000000E+00  0.00000000E+00  0.00000000E+00
  0.00000000E+00  0.00000000E+00  0.00000000E+00
  0.00000000E+00  0.00000000E+00  0.00000000E+00
  0.00000000E+00  0.00000000E+00  0.00000000E+00
  0.00000000E+00  0.00000000E+00  0.00000000E+00
  0.00000000E+00  0.00000000E+00  0.00000000E+00
  0.00000000E+00  0.00000000E+00  0.00000000E+00
  0.00000000E+00  0.00000000E+00  0.00000000E+00
  0.00000000E+00  0.00000000E+00  0.00000000E+00
  0.00000000E+00  0.00000000E+00  0.00000000E+00
  0.00000000E+00  0.00000000E+00  0.00000000E+00
  0.00000000E+00  0.00000000E+00  0.00000000E+00
  0.00000000E+00  0.00000000E+00  0.00000000E+00
  0.00000000E+00  0.00000000E+00  0.00000000E+00
  0.00000000E+00  0.00000000E+00  0.00000000E+00
  0.00000000E+00  0.00000000E+00  0.00000000E+00
  0.00000000E+00  0.00000000E+00  0.00000000E+00
  0.00000000E+00  0.00000000E+00  0.00000000E+00
  0.00000000E+00  0.00000000E+00  0.00000000E+00
  0.00000000E+00  0.00000000E+00  0.00000000E+00
  0.00000000E+00  0.00000000E+00  0.00000000E+00
  0.00000000E+00  0.00000000E+00  0.00000000E+00
  0.00000000E+00  0.00000000E+00  0.00000000E+00
  0.00000000E+00  0.00000000E+00  0.00000000E+00
  0.00000000E+00  0.00000000E+00  0.00000000E+00
  0.00000000E+00  0.00000000E+00  0.00000000E+00
  0.00000000E+00  0.00000000E+00  0.00000000E+00
  0.00000000E+00  0.00000000E+00  0.00000000E+00
  0.00000000E+00  0.00000000E+00  0.00000000E+00
  0.00000000E+00  0.00000000E+00  0.00000000E+00
  0.00000000E+00  0.00000000E+00  0.00000000E+00
  0.00000000E+00  0.00000000E+00  0.00000000E+00
  0.00000000E+00  0.00000000E+00  0.00000000E+00
  0.00000000E+00  0.00000000E+00  0.00000000E+00
  0.00000000E+00  0.00000000E+00  0.00000000E+00
  0.00000000E+00  0.00000000E+00  0.00000000E+00
  0.00000000E+00  0.00000000E+00  0.00000000E+00
  0.00000000E+00  0.00000000E+00  0.00000000E+00
  0.00000000E+00  0.00000000E+00  0.00000000E+00
  0.00000000E+00  0.00000000E+00  0.00000000E+00
  0.00000000E+00  0.00000000E+00  0.00000000E+00
  0.00000000E+00  0.00000000E+00  0.00000000E+00
  0.00000000E+00  0.00000000E+00  0.00000000E+00
  0.00000000E+00  0.00000000E+00  0.00000000E+00
  0.00000000E+00  0.00000000E+00  0.00000000E+00
  0.00000000E+00  0.00000000E+00  0.00000000E+00
  0.00000000E+00  0.00000000E+00  0.00000000E+00
  0.00000000E+00  0.00000000E+00  0.00000000E+00
  0.00000000E+00  0.00000000E+00  0.00000000E+00
  0.00000000E+00  0.00000000E+00  0.00000000E+00
  0.00000000E+00  0.00000000E+00  0.00000000E+00
  0.00000000E+00  0.00000000E+00  0.00000000E+00
  0.00000000E+00  0.00000000E+00  0.00000000E+00
  0.00000000E+00  0.00000000E+00  0.00000000E+00
  0.00000000E+00  0.00000000E+00  0.00000000E+00
  0.00000000E+00  0.00000000E+00  0.00000000E+00
  0.00000000E+00  0.00000000E+00  0.00000000E+00
  0.00000000E+00  0.00000000E+00  0.00000000E+00
  0.00000000E+00  0.00000000E+00  0.00000000E+00
  0.00000000E+00  0.00000000E+00  0.00000000E+00
  0.00000000E+00  0.00000000E+00  0.00000000E+00
  0.00000000E+00  0.00000000E+00  0.00000000E+00
  0.00000000E+00  0.00000000E+00  0.00000000E+00
  0.00000000E+00  0.00000000E+00  0.00000000E+00
  0.00000000E+00  0.00000000E+00  0.00000000E+00
  0.00000000E+00  0.00000000E+00  0.00000000E+00
  0.00000000E+00  0.00000000E+00  0.00000000E+00
  0.00000000E+00  0.00000000E+00  0.00000000E+00
  0.00000000E+00  0.00000000E+00  0.00000000E+00
  0.00000000E+00  0.00000000E+00  0.00000000E+00
