Ga48 O72                                
    1.000000000000000     
     0.0000000000000000   12.2804734172212839    0.0000000000000000
     9.1427020537309431    0.0000000000000000    0.0000000000000000
     0.0000000000000000   -2.7682617730220320  -11.3006977184464645
   Ga   O    N 
    48    71     1
Direct
  0.6584115258090298 -0.0006316066342590  0.1559472598429807
  0.6592405213865683 -0.0001175453916786  0.6568503699614189
  0.6584115258090298  0.3339649399675947  0.1559472598429807
  0.6592405213865683  0.3334508787250143  0.6568503699614189
  0.6586721152630186  0.6666666666666643  0.1562720354745605
  0.6594215411090950  0.6666666666666643  0.6569669912004220
  0.8391582058068796  0.1666666666666643  0.3435840976058264
  0.8410992534268886  0.1666666666666643  0.8431984615787166
  0.8406942002427619  0.5004923212407151  0.3428714268773979
  0.8416329442045584  0.5001263961793674  0.8438112973754275
  0.8406942002427619  0.8328410120926206  0.3428714268773979
  0.8416329442045584  0.8332069371539683  0.8438112973754275
  0.5915430656405987  0.1666666666666643  0.3978793670488218
  0.5907774552623490  0.1666666666666643  0.8975208539097899
  0.5917325351169104  0.5001388673212249  0.3978019811765175
  0.5904992511028345  0.5001367485451566  0.8970803784508029
  0.5917325351169104  0.8331944660121108  0.3978019811765175
  0.5904992511028345  0.8331965847881792  0.8970803784508029
  0.9085587448399426 -0.0012002963772762  0.1037378962019754
  0.9077445488485606 -0.0009296672170205  0.6011147964988257
  0.9085587448399426  0.3345336297106117  0.1037378962019754
  0.9077445488485606  0.3342630005503563  0.6011147964988257
  0.9094362948591915  0.6666666666666643  0.1029783110142706
  0.9087654355983541  0.6666666666666643  0.6018760988952951
  0.1608312187047065  0.1666666666666643  0.1587450774249967
  0.1599270137128095  0.1666666666666643  0.6551488165004704
  0.1597212799231161  0.5000606595021042  0.1573177694425850
  0.1589813352201534  0.5000500749722163  0.6562168576217019
  0.1597212799231161  0.8332726738312315  0.1573177694425850
  0.1589813352201534  0.8332832583611193  0.6562168576217019
  0.3418854226185052 -0.0004128495539524  0.3440172811363874
  0.3406823078191291  0.0000262712733668  0.8430467152600141
  0.3418854226185052  0.3337461828872881  0.3440172811363874
  0.3406823078191291  0.3333070620599690  0.8430467152600141
  0.3417809514185733  0.6666666666666643  0.3435414422634709
  0.3404851539471196  0.6666666666666643  0.8432859435435650
  0.0900922174761712 -0.0000501050317325  0.3968522365905705
  0.0914382991423439 -0.0001773679783408  0.8974868876994397
  0.0900922174761712  0.3333834383650684  0.3968522365905705
  0.0914382991423439  0.3335107013116764  0.8974868876994397
  0.0915433465573740  0.6666666666666643  0.3977782650307070
  0.0914446051765084  0.6666666666666643  0.8978847808435962
  0.4089379981051721  0.1666666666666643  0.1020366670780938
  0.4095574748534538  0.1666666666666643  0.6025053404420895
  0.4089012939782992  0.5000799327715699  0.1020451225473456
  0.4092282470488649  0.5001344657777830  0.6027965205009833
  0.4089012939782992  0.8332534005617658  0.1020451225473456
  0.4092282470488649  0.8331988675555527  0.6027965205009833
  0.9966111306153532  0.1666666666666643  0.1375953488770869
  0.9956746301325644  0.1666666666666643  0.6203822825287372
  0.9969351477366906  0.5000982496636233  0.1277875703000474
  0.9962154275187499  0.4998654788087550  0.6269703655223637
  0.9969351477366906  0.8332350836697126  0.1277875703000474
  0.9962154275187499  0.8334678545245807  0.6269703655223637
  0.5043153089552708 -0.0000565452565098  0.3730604052064652
  0.5032997771932894  0.0000756620178649  0.8725928402596371
  0.5043153089552708  0.3333898785898454  0.3730604052064652
  0.5032997771932894  0.3332576713154710  0.8725928402596371
  0.5041729883832050  0.6666666666666643  0.3732117506962477
  0.5029914572663045  0.6666666666666643  0.8721566707653896
  0.6722738717770871  0.1666666666666643  0.2799774223980701
  0.6730323006738230  0.1666666666666643  0.7809900224807707
  0.6716382258149958  0.5008181059927279  0.2796433393008761
  0.6733173345343394  0.4996480199417146  0.7810906379124809
  0.6716382258149958  0.8325152273406078  0.2796433393008761
  0.6733173345343394  0.8336853133916207  0.7810906379124809
  0.8251821666173167 -0.0030439917213627  0.2182039218144142
  0.8280944828834097  0.0003055221141728  0.7198363537377820
  0.8251821666173167  0.3363773250546985  0.2182039218144142
  0.8280944828834097  0.3330278112191630  0.7198363537377820
  0.8271054502442964  0.6666666666666643  0.2191488552547040
  0.8278891606584045  0.6666666666666643  0.7197976810160656
  0.8280428801787205 -0.0020626388715781  0.4457064741889425
  0.8343659899477625  0.0006728469476683  0.9465897714372877
  0.8280428801787205  0.3353959722049138  0.4457064741889425
  0.8343659899477625  0.3326604863856675  0.9465897714372877
  0.8310096268063965  0.6666666666666643  0.4456336864300550
  0.8329490732641947  0.6666666666666643  0.9462160453285532
  0.6676491014694180  0.1666666666666643  0.0539191635259076
  0.6680122305239535  0.1666666666666643  0.5547147660742746
  0.6672502829502159  0.5003697972367688  0.0533428875986043
  0.6679207846232500  0.5000946182671085  0.5547332983007399
  0.6672502829502159  0.8329635360965669  0.0533428875986043
  0.6679207846232500  0.8332387150662272  0.5547332983007399
  0.4961419403858384  0.0000205364888855  0.1267742387934942
  0.4967681498158685 -0.0001317783150432  0.6279792740277926
  0.4961419403858384  0.3333127968444502  0.1267742387934942
  0.4967681498158685  0.3334651116483786  0.6279792740277926
  0.4960280840899514  0.6666666666666643  0.1262653058383322
  0.4968632564220969  0.6666666666666643  0.6282731192175691
  0.0038840737705963  0.1666666666666643  0.8723877159586227
  0.0034264946112388  0.5014944220054697  0.3731414682799660
  0.0040628988983152  0.5000639999501478  0.8726772125864659
  0.0034264946112388  0.8318389113278660  0.3731414682799660
  0.0040628988983152  0.8332693333831879  0.8726772125864659
  0.1743180543293639 -0.0015704599780981  0.2808341495010814
  0.1720001460516389  0.0006291601912416  0.7796599664189494
  0.1743180543293639  0.3349037933114338  0.2808341495010814
  0.1720001460516389  0.3327041731420941  0.7796599664189494
  0.1733805577240096  0.6666666666666643  0.2808262762039210
  0.1722726617974105  0.6666666666666643  0.7801832774896208
  0.3283729231680336  0.1666666666666643  0.2198222258667711
  0.3277593109026819  0.1666666666666643  0.7194606432338383
  0.3281760447389276  0.5001593425045000  0.2195516198028267
  0.3275348900091641  0.4999126217472681  0.7198305768918569
  0.3281760447389276  0.8331739908288357  0.2195516198028267
  0.3275348900091641  0.8334207115860676  0.7198305768918569
  0.3333401170317397  0.1666666666666643  0.4459493538844819
  0.3315558018303412  0.1666666666666643  0.9455675958575240
  0.3332369772591463  0.5003579646723036  0.4461607800575652
  0.3312524195816949  0.4996848231218445  0.9456150554995520
  0.3332369772591463  0.8329753686610322  0.4461607800575652
  0.3312524195816949  0.8336485102114911  0.9456150554995520
  0.1663885259489183  0.0009348439757997  0.0545880039533840
  0.1691822899562615 -0.0010483827042594  0.5539201490900943
  0.1663885259489183  0.3323984893575360  0.0545880039533840
  0.1691822899562615  0.3343817160375950  0.5539201490900943
  0.1681364677497257  0.6666666666666643  0.0544799464974281
  0.1684859781536165  0.6666666666666643  0.5544336554311895
  0.0001459854663442  0.1666666666666643  0.3688343239560622
 
  0.00000000E+00  0.00000000E+00  0.00000000E+00
  0.00000000E+00  0.00000000E+00  0.00000000E+00
  0.00000000E+00  0.00000000E+00  0.00000000E+00
  0.00000000E+00  0.00000000E+00  0.00000000E+00
  0.00000000E+00  0.00000000E+00  0.00000000E+00
  0.00000000E+00  0.00000000E+00  0.00000000E+00
  0.00000000E+00  0.00000000E+00  0.00000000E+00
  0.00000000E+00  0.00000000E+00  0.00000000E+00
  0.00000000E+00  0.00000000E+00  0.00000000E+00
  0.00000000E+00  0.00000000E+00  0.00000000E+00
  0.00000000E+00  0.00000000E+00  0.00000000E+00
  0.00000000E+00  0.00000000E+00  0.00000000E+00
  0.00000000E+00  0.00000000E+00  0.00000000E+00
  0.00000000E+00  0.00000000E+00  0.00000000E+00
  0.00000000E+00  0.00000000E+00  0.00000000E+00
  0.00000000E+00  0.00000000E+00  0.00000000E+00
  0.00000000E+00  0.00000000E+00  0.00000000E+00
  0.00000000E+00  0.00000000E+00  0.00000000E+00
  0.00000000E+00  0.00000000E+00  0.00000000E+00
  0.00000000E+00  0.00000000E+00  0.00000000E+00
  0.00000000E+00  0.00000000E+00  0.00000000E+00
  0.00000000E+00  0.00000000E+00  0.00000000E+00
  0.00000000E+00  0.00000000E+00  0.00000000E+00
  0.00000000E+00  0.00000000E+00  0.00000000E+00
  0.00000000E+00  0.00000000E+00  0.00000000E+00
  0.00000000E+00  0.00000000E+00  0.00000000E+00
  0.00000000E+00  0.00000000E+00  0.00000000E+00
  0.00000000E+00  0.00000000E+00  0.00000000E+00
  0.00000000E+00  0.00000000E+00  0.00000000E+00
  0.00000000E+00  0.00000000E+00  0.00000000E+00
  0.00000000E+00  0.00000000E+00  0.00000000E+00
  0.00000000E+00  0.00000000E+00  0.00000000E+00
  0.00000000E+00  0.00000000E+00  0.00000000E+00
  0.00000000E+00  0.00000000E+00  0.00000000E+00
  0.00000000E+00  0.00000000E+00  0.00000000E+00
  0.00000000E+00  0.00000000E+00  0.00000000E+00
  0.00000000E+00  0.00000000E+00  0.00000000E+00
  0.00000000E+00  0.00000000E+00  0.00000000E+00
  0.00000000E+00  0.00000000E+00  0.00000000E+00
  0.00000000E+00  0.00000000E+00  0.00000000E+00
  0.00000000E+00  0.00000000E+00  0.00000000E+00
  0.00000000E+00  0.00000000E+00  0.00000000E+00
  0.00000000E+00  0.00000000E+00  0.00000000E+00
  0.00000000E+00  0.00000000E+00  0.00000000E+00
  0.00000000E+00  0.00000000E+00  0.00000000E+00
  0.00000000E+00  0.00000000E+00  0.00000000E+00
  0.00000000E+00  0.00000000E+00  0.00000000E+00
  0.00000000E+00  0.00000000E+00  0.00000000E+00
  0.00000000E+00  0.00000000E+00  0.00000000E+00
  0.00000000E+00  0.00000000E+00  0.00000000E+00
  0.00000000E+00  0.00000000E+00  0.00000000E+00
  0.00000000E+00  0.00000000E+00  0.00000000E+00
  0.00000000E+00  0.00000000E+00  0.00000000E+00
  0.00000000E+00  0.00000000E+00  0.00000000E+00
  0.00000000E+00  0.00000000E+00  0.00000000E+00
  0.00000000E+00  0.00000000E+00  0.00000000E+00
  0.00000000E+00  0.00000000E+00  0.00000000E+00
  0.00000000E+00  0.00000000E+00  0.00000000E+00
  0.00000000E+00  0.00000000E+00  0.00000000E+00
  0.00000000E+00  0.00000000E+00  0.00000000E+00
  0.00000000E+00  0.00000000E+00  0.00000000E+00
  0.00000000E+00  0.00000000E+00  0.00000000E+00
  0.00000000E+00  0.00000000E+00  0.00000000E+00
  0.00000000E+00  0.00000000E+00  0.00000000E+00
  0.00000000E+00  0.00000000E+00  0.00000000E+00
  0.00000000E+00  0.00000000E+00  0.00000000E+00
  0.00000000E+00  0.00000000E+00  0.00000000E+00
  0.00000000E+00  0.00000000E+00  0.00000000E+00
  0.00000000E+00  0.00000000E+00  0.00000000E+00
  0.00000000E+00  0.00000000E+00  0.00000000E+00
  0.00000000E+00  0.00000000E+00  0.00000000E+00
  0.00000000E+00  0.00000000E+00  0.00000000E+00
  0.00000000E+00  0.00000000E+00  0.00000000E+00
  0.00000000E+00  0.00000000E+00  0.00000000E+00
  0.00000000E+00  0.00000000E+00  0.00000000E+00
  0.00000000E+00  0.00000000E+00  0.00000000E+00
  0.00000000E+00  0.00000000E+00  0.00000000E+00
  0.00000000E+00  0.00000000E+00  0.00000000E+00
  0.00000000E+00  0.00000000E+00  0.00000000E+00
  0.00000000E+00  0.00000000E+00  0.00000000E+00
  0.00000000E+00  0.00000000E+00  0.00000000E+00
  0.00000000E+00  0.00000000E+00  0.00000000E+00
  0.00000000E+00  0.00000000E+00  0.00000000E+00
  0.00000000E+00  0.00000000E+00  0.00000000E+00
  0.00000000E+00  0.00000000E+00  0.00000000E+00
  0.00000000E+00  0.00000000E+00  0.00000000E+00
  0.00000000E+00  0.00000000E+00  0.00000000E+00
  0.00000000E+00  0.00000000E+00  0.00000000E+00
  0.00000000E+00  0.00000000E+00  0.00000000E+00
  0.00000000E+00  0.00000000E+00  0.00000000E+00
  0.00000000E+00  0.00000000E+00  0.00000000E+00
  0.00000000E+00  0.00000000E+00  0.00000000E+00
  0.00000000E+00  0.00000000E+00  0.00000000E+00
  0.00000000E+00  0.00000000E+00  0.00000000E+00
  0.00000000E+00  0.00000000E+00  0.00000000E+00
  0.00000000E+00  0.00000000E+00  0.00000000E+00
  0.00000000E+00  0.00000000E+00  0.00000000E+00
  0.00000000E+00  0.00000000E+00  0.00000000E+00
  0.00000000E+00  0.00000000E+00  0.00000000E+00
  0.00000000E+00  0.00000000E+00  0.00000000E+00
  0.00000000E+00  0.00000000E+00  0.00000000E+00
  0.00000000E+00  0.00000000E+00  0.00000000E+00
  0.00000000E+00  0.00000000E+00  0.00000000E+00
  0.00000000E+00  0.00000000E+00  0.00000000E+00
  0.00000000E+00  0.00000000E+00  0.00000000E+00
  0.00000000E+00  0.00000000E+00  0.00000000E+00
  0.00000000E+00  0.00000000E+00  0.00000000E+00
  0.00000000E+00  0.00000000E+00  0.00000000E+00
  0.00000000E+00  0.00000000E+00  0.00000000E+00
  0.00000000E+00  0.00000000E+00  0.00000000E+00
  0.00000000E+00  0.00000000E+00  0.00000000E+00
  0.00000000E+00  0.00000000E+00  0.00000000E+00
  0.00000000E+00  0.00000000E+00  0.00000000E+00
  0.00000000E+00  0.00000000E+00  0.00000000E+00
  0.00000000E+00  0.00000000E+00  0.00000000E+00
  0.00000000E+00  0.00000000E+00  0.00000000E+00
  0.00000000E+00  0.00000000E+00  0.00000000E+00
  0.00000000E+00  0.00000000E+00  0.00000000E+00
  0.00000000E+00  0.00000000E+00  0.00000000E+00
  0.00000000E+00  0.00000000E+00  0.00000000E+00
