Ga8 O12                                 
    1.000000000000000     
     0.0000000000000000   12.2804734172212839    0.0000000000000000
     3.0475673512436479    0.0000000000000000    0.0000000000000000
     0.0000000000000000   -1.3841308865110160   -5.6503488592232323
   Ga   O 
     8    12
Direct
  0.6590513346739755  0.0000000000000000  0.3126078138150632
  0.8409486653260245  0.5000000000000000  0.6873921861849368
  0.5908936324681378  0.5000000000000000  0.7947379262792396
  0.9091063675318622  0.0000000000000000  0.2052620737207604
  0.1590513346739755  0.5000000000000000  0.3126078138150632
  0.3409486653260245  0.0000000000000000  0.6873921861849368
  0.0908936324681378  0.0000000000000000  0.7947379262792396
  0.4091063675318622  0.5000000000000000  0.2052620737207604
  0.9971982866011544  0.5000000000000000  0.2558451382688318
  0.5028017133988456  0.0000000000000000  0.7441548617311682
  0.6737319395268244  0.5000000000000000  0.5634381778159678
  0.8262680604731756  0.0000000000000000  0.4365618221840251
  0.8331719375679185  0.0000000000000000  0.8926213500004607
  0.6668280624320744  0.5000000000000000  0.1073786499995393
  0.4971982866011544  0.0000000000000000  0.2558451382688318
  0.0028017133988456  0.5000000000000000  0.7441548617311682
  0.1737319395268244  0.0000000000000000  0.5634381778159678
  0.3262680604731756  0.5000000000000000  0.4365618221840251
  0.3331719375679185  0.5000000000000000  0.8926213500004607
  0.1668280624320744  0.0000000000000000  0.1073786499995393
 
  0.00000000E+00  0.00000000E+00  0.00000000E+00
  0.00000000E+00  0.00000000E+00  0.00000000E+00
  0.00000000E+00  0.00000000E+00  0.00000000E+00
  0.00000000E+00  0.00000000E+00  0.00000000E+00
  0.00000000E+00  0.00000000E+00  0.00000000E+00
  0.00000000E+00  0.00000000E+00  0.00000000E+00
  0.00000000E+00  0.00000000E+00  0.00000000E+00
  0.00000000E+00  0.00000000E+00  0.00000000E+00
  0.00000000E+00  0.00000000E+00  0.00000000E+00
  0.00000000E+00  0.00000000E+00  0.00000000E+00
  0.00000000E+00  0.00000000E+00  0.00000000E+00
  0.00000000E+00  0.00000000E+00  0.00000000E+00
  0.00000000E+00  0.00000000E+00  0.00000000E+00
  0.00000000E+00  0.00000000E+00  0.00000000E+00
  0.00000000E+00  0.00000000E+00  0.00000000E+00
  0.00000000E+00  0.00000000E+00  0.00000000E+00
  0.00000000E+00  0.00000000E+00  0.00000000E+00
  0.00000000E+00  0.00000000E+00  0.00000000E+00
  0.00000000E+00  0.00000000E+00  0.00000000E+00
  0.00000000E+00  0.00000000E+00  0.00000000E+00
