Ga8 O12                                 
    1.000000000000000     
     0.0000000000000000   12.2804734172212839    0.0000000000000000
     3.0475673512436479    0.0000000000000000    0.0000000000000000
     0.0000000000000000   -1.3841308865110160   -5.6503488592232323
   Ga   O 
     8    12
Direct
  0.6590513346739783 -0.0000000000000000  0.3126078138150606
  0.8409486653260217  0.5000000000000000  0.6873921861849394
  0.5908936324681403  0.5000000000000000  0.7947379262792373
  0.9091063675318597  0.0000000000000000  0.2052620737207622
  0.1590513346739780  0.5000000000000000  0.3126078138150606
  0.3409486653260220  0.0000000000000000  0.6873921861849394
  0.0908936324681404  0.0000000000000000  0.7947379262792373
  0.4091063675318595  0.5000000000000000  0.2052620737207622
  0.9971982866011521  0.5000000000000000  0.2558451382688304
  0.5028017133988479 -0.0000000000000000  0.7441548617311701
  0.6737319395268240  0.5000000000000000  0.5634381778159663
  0.8262680604731760 -0.0000000000000000  0.4365618221840262
  0.8331719375679186  0.0000000000000000  0.8926213500004578
  0.6668280624320743  0.5000000000000000  0.1073786499995424
  0.4971982866011525  0.0000000000000000  0.2558451382688304
  0.0028017133988476  0.5000000000000000  0.7441548617311701
  0.1737319395268234 -0.0000000000000000  0.5634381778159663
  0.3262680604731767  0.5000000000000000  0.4365618221840262
  0.3331719375679187  0.5000000000000000  0.8926213500004578
  0.1668280624320740 -0.0000000000000000  0.1073786499995424
 
  0.00000000E+00  0.00000000E+00  0.00000000E+00
  0.00000000E+00  0.00000000E+00  0.00000000E+00
  0.00000000E+00  0.00000000E+00  0.00000000E+00
  0.00000000E+00  0.00000000E+00  0.00000000E+00
  0.00000000E+00  0.00000000E+00  0.00000000E+00
  0.00000000E+00  0.00000000E+00  0.00000000E+00
  0.00000000E+00  0.00000000E+00  0.00000000E+00
  0.00000000E+00  0.00000000E+00  0.00000000E+00
  0.00000000E+00  0.00000000E+00  0.00000000E+00
  0.00000000E+00  0.00000000E+00  0.00000000E+00
  0.00000000E+00  0.00000000E+00  0.00000000E+00
  0.00000000E+00  0.00000000E+00  0.00000000E+00
  0.00000000E+00  0.00000000E+00  0.00000000E+00
  0.00000000E+00  0.00000000E+00  0.00000000E+00
  0.00000000E+00  0.00000000E+00  0.00000000E+00
  0.00000000E+00  0.00000000E+00  0.00000000E+00
  0.00000000E+00  0.00000000E+00  0.00000000E+00
  0.00000000E+00  0.00000000E+00  0.00000000E+00
  0.00000000E+00  0.00000000E+00  0.00000000E+00
  0.00000000E+00  0.00000000E+00  0.00000000E+00
