Ga48 O72                                
    1.000000000000000     
     0.0000000000000000   12.2804734172212839    0.0000000000000000
     9.1427020537309431    0.0000000000000000    0.0000000000000000
     0.0000000000000000   -2.7682617730220320  -11.3006977184464645
   Ga   O    P 
    48    71     1
Direct
  0.6578064616905190 -0.0034577225860888  0.1534639067324695
  0.6586461791000972 -0.0004101386157576  0.6570457065475396
  0.6578064616905190  0.3367910559194245  0.1534639067324695
  0.6586461791000972  0.3337434719490932  0.6570457065475396
  0.6589265630090285  0.6666666666666643  0.1556043769148440
  0.6583563997899671  0.6666666666666643  0.6573592680822828
  0.8170174037655301  0.1666666666666643  0.3612898731896310
  0.8409438628306179  0.1666666666666643  0.8437993607664293
  0.8411976182456119  0.5011923713951466  0.3410405798837778
  0.8413099269851766  0.5003051217037431  0.8437408062047832
  0.8411976182456119  0.8321409619381890  0.3410405798837778
  0.8413099269851766  0.8330282116295927  0.8437408062047832
  0.5836651044359762  0.1666666666666643  0.3995765371820489
  0.5913352866210944  0.1666666666666643  0.8979262164598959
  0.5936818297915409  0.5016174211670540  0.3983266726593461
  0.5895614925028776  0.5004564813287432  0.8957487446924991
  0.5936818297915409  0.8317159121662817  0.3983266726593461
  0.5895614925028776  0.8328768520045925  0.8957487446924991
  0.9066582455738755 -0.0033110613032971  0.1037968781086754
  0.9088546700603284 -0.0022875596344553  0.6031191885955687
  0.9066582455738755  0.3366443946366328  0.1037968781086754
  0.9088546700603284  0.3356208929677908  0.6031191885955687
  0.9111798210351642  0.6666666666666643  0.1035872757913191
  0.9082764600855024  0.6666666666666643  0.6005764797798148
  0.1631102381375019  0.1666666666666643  0.1572017379521312
  0.1607398894816282  0.1666666666666643  0.6558908827684532
  0.1611937960017347  0.5005464098493810  0.1563520540684731
  0.1605452064268099  0.5012949181629651  0.6597628474036596
  0.1611937960017347  0.8327869234839548  0.1563520540684731
  0.1605452064268099  0.8320384151703706  0.6597628474036596
  0.3433293675807088 -0.0017668762451105  0.3425279116178563
  0.3411505506385281  0.0000293505462936  0.8433301860022243
  0.3433293675807088  0.3351002095784462  0.3425279116178563
  0.3411505506385281  0.3333039827870421  0.8433301860022243
  0.3426664475900662  0.6666666666666643  0.3430339931687051
  0.3413311467688090  0.6666666666666643  0.8445896688438179
  0.1033092030822836 -0.0149313714313676  0.4020592072383652
  0.0911075971731460  0.0002372758986566  0.8976264373737943
  0.1033092030822836  0.3482647047647032  0.4020592072383652
  0.0911075971731460  0.3330960574346792  0.8976264373737943
  0.0949262514505776  0.6666666666666643  0.4001186943417463
  0.0901935753558830  0.6666666666666643  0.8979971874660047
  0.4099377464851315  0.1666666666666643  0.1008144668710885
  0.4085281609306396  0.1666666666666643  0.6023626259499151
  0.4099011404489955  0.5005702959610834  0.1016393770704997
  0.4080324197608069  0.5001758077875947  0.6026159744390296
  0.4099011404489955  0.8327630373722523  0.1016393770704997
  0.4080324197608069  0.8331575255457411  0.6026159744390296
  0.9959963691809129  0.1666666666666643  0.1310892595184485
  0.9955372850795380  0.1666666666666643  0.6151741509391710
  0.9983243239424087  0.4996284289342087  0.1284320087275850
  0.9973834779616517  0.5005583186833356  0.6270201274887715
  0.9983243239424087  0.8337049043991276  0.1284320087275850
  0.9973834779616517  0.8327750146500003  0.6270201274887715
  0.5036440937989467 -0.0034556212152041  0.3728302545386238
  0.5035665362697479  0.0005459992029926  0.8728138528844274
  0.5036440937989467  0.3367889545485397  0.3728302545386238
  0.5035665362697479  0.3327873341303429  0.8728138528844274
  0.5044707428716626  0.6666666666666643  0.3743398978279288
  0.5025010920032241  0.6666666666666643  0.8709876133391836
  0.6651887426243706  0.1666666666666643  0.2805312756735370
  0.6727403159068176  0.1666666666666643  0.7807387126374883
  0.6704229454863828  0.5024850366186355  0.2786525174277769
  0.6732439167116039  0.4999664978878390  0.7809884816626929
  0.6704229454863828  0.8308482967147001  0.2786525174277769
  0.6732439167116039  0.8333668354454966  0.7809884816626929
  0.8206905432764762 -0.0130170240141288  0.2147739424278262
  0.8278757775141700  0.0007962657466997  0.7201718467884818
  0.8206905432764762  0.3463503573474646  0.2147739424278262
  0.8278757775141700  0.3325370675866358  0.7201718467884818
  0.8277417611180301  0.6666666666666643  0.2186274372315243
  0.8280169030198481  0.6666666666666643  0.7193663566105679
  0.8194356962271706 -0.0106899267982687  0.4508085369685203
  0.8337247713836724  0.0003054575332244  0.9462539166510496
  0.8194356962271706  0.3440232601316044  0.4508085369685203
  0.8337247713836724  0.3330278758001112  0.9462539166510496
  0.8298369249793801  0.6666666666666643  0.4447171955265895
  0.8345162799507790  0.6666666666666643  0.9465809489155385
  0.6679155053295535  0.1666666666666643  0.0547203679068646
  0.6661448904694286  0.1666666666666643  0.5540556687625361
  0.6659514786642787  0.5022995499554550  0.0512129262040537
  0.6663357396522380  0.5007127551965296  0.5558372134753605
  0.6659514786642787  0.8310337833778807  0.0512129262040537
  0.6663357396522380  0.8326205781368061  0.5558372134753605
  0.4965292666023612 -0.0001459913503755  0.1260592162969472
  0.4959241521137492 -0.0001919486401792  0.6276339393203787
  0.4965292666023612  0.3334793246837113  0.1260592162969472
  0.4959241521137492  0.3335252819735149  0.6276339393203787
  0.4966328411709551  0.6666666666666643  0.1250797481816466
  0.4956159701548888  0.6666666666666643  0.6280055597522131
  0.0034787024882784  0.1666666666666643  0.8703864552995134
  0.0049844704125178  0.5057496939353915  0.3771326905313516
  0.0038253642757604  0.4995835842216048  0.8724494939969469
  0.0049844704125178  0.8275836393979442  0.3771326905313516
  0.0038253642757604  0.8337497491117313  0.8724494939969469
  0.1793284896708488 -0.0052587031136255  0.2788758241303495
  0.1717398772961773  0.0010826011911024  0.7800212308614981
  0.1793284896708489  0.3385920364469612  0.2788758241303495
  0.1717398772961773  0.3322507321422333  0.7800212308614981
  0.1742588998820003  0.6666666666666643  0.2808511220577281
  0.1726151353528699  0.6666666666666643  0.7818556538094277
  0.3302845690750034  0.1666666666666643  0.2189527967425666
  0.3283128685320087  0.1666666666666643  0.7205103973902314
  0.3298941329973540  0.5024014955521177  0.2188490245174027
  0.3288648199111880  0.5005303229845635  0.7219613718781488
  0.3298941329973540  0.8309318377812180  0.2188490245174027
  0.3288648199111880  0.8328030103487722  0.7219613718781488
  0.3350075634104776  0.1666666666666643  0.4446219640706939
  0.3313776007291412  0.1666666666666643  0.9452693728772440
  0.3313457194122796  0.5004939218047594  0.4458674852685931
  0.3311207539578020  0.4993473552702268  0.9458958012966080
  0.3313457194122796  0.8328394115285764  0.4458674852685931
  0.3311207539578020  0.8339859780631090  0.9458958012966080
  0.1677280409079853  0.0009475041590264  0.0538041266861061
  0.1768740535834132 -0.0038421256995261  0.5588421091639703
  0.1677280409079853  0.3323858291743094  0.0538041266861061
  0.1768740535834132  0.3371754590328618  0.5588421091639703
  0.1682249468419990  0.6666666666666643  0.0538212825603876
  0.1720768061929556  0.6666666666666643  0.5569885898835170
 -0.0097153683237723  0.1666666666666643  0.3422306912932593
 
  0.00000000E+00  0.00000000E+00  0.00000000E+00
  0.00000000E+00  0.00000000E+00  0.00000000E+00
  0.00000000E+00  0.00000000E+00  0.00000000E+00
  0.00000000E+00  0.00000000E+00  0.00000000E+00
  0.00000000E+00  0.00000000E+00  0.00000000E+00
  0.00000000E+00  0.00000000E+00  0.00000000E+00
  0.00000000E+00  0.00000000E+00  0.00000000E+00
  0.00000000E+00  0.00000000E+00  0.00000000E+00
  0.00000000E+00  0.00000000E+00  0.00000000E+00
  0.00000000E+00  0.00000000E+00  0.00000000E+00
  0.00000000E+00  0.00000000E+00  0.00000000E+00
  0.00000000E+00  0.00000000E+00  0.00000000E+00
  0.00000000E+00  0.00000000E+00  0.00000000E+00
  0.00000000E+00  0.00000000E+00  0.00000000E+00
  0.00000000E+00  0.00000000E+00  0.00000000E+00
  0.00000000E+00  0.00000000E+00  0.00000000E+00
  0.00000000E+00  0.00000000E+00  0.00000000E+00
  0.00000000E+00  0.00000000E+00  0.00000000E+00
  0.00000000E+00  0.00000000E+00  0.00000000E+00
  0.00000000E+00  0.00000000E+00  0.00000000E+00
  0.00000000E+00  0.00000000E+00  0.00000000E+00
  0.00000000E+00  0.00000000E+00  0.00000000E+00
  0.00000000E+00  0.00000000E+00  0.00000000E+00
  0.00000000E+00  0.00000000E+00  0.00000000E+00
  0.00000000E+00  0.00000000E+00  0.00000000E+00
  0.00000000E+00  0.00000000E+00  0.00000000E+00
  0.00000000E+00  0.00000000E+00  0.00000000E+00
  0.00000000E+00  0.00000000E+00  0.00000000E+00
  0.00000000E+00  0.00000000E+00  0.00000000E+00
  0.00000000E+00  0.00000000E+00  0.00000000E+00
  0.00000000E+00  0.00000000E+00  0.00000000E+00
  0.00000000E+00  0.00000000E+00  0.00000000E+00
  0.00000000E+00  0.00000000E+00  0.00000000E+00
  0.00000000E+00  0.00000000E+00  0.00000000E+00
  0.00000000E+00  0.00000000E+00  0.00000000E+00
  0.00000000E+00  0.00000000E+00  0.00000000E+00
  0.00000000E+00  0.00000000E+00  0.00000000E+00
  0.00000000E+00  0.00000000E+00  0.00000000E+00
  0.00000000E+00  0.00000000E+00  0.00000000E+00
  0.00000000E+00  0.00000000E+00  0.00000000E+00
  0.00000000E+00  0.00000000E+00  0.00000000E+00
  0.00000000E+00  0.00000000E+00  0.00000000E+00
  0.00000000E+00  0.00000000E+00  0.00000000E+00
  0.00000000E+00  0.00000000E+00  0.00000000E+00
  0.00000000E+00  0.00000000E+00  0.00000000E+00
  0.00000000E+00  0.00000000E+00  0.00000000E+00
  0.00000000E+00  0.00000000E+00  0.00000000E+00
  0.00000000E+00  0.00000000E+00  0.00000000E+00
  0.00000000E+00  0.00000000E+00  0.00000000E+00
  0.00000000E+00  0.00000000E+00  0.00000000E+00
  0.00000000E+00  0.00000000E+00  0.00000000E+00
  0.00000000E+00  0.00000000E+00  0.00000000E+00
  0.00000000E+00  0.00000000E+00  0.00000000E+00
  0.00000000E+00  0.00000000E+00  0.00000000E+00
  0.00000000E+00  0.00000000E+00  0.00000000E+00
  0.00000000E+00  0.00000000E+00  0.00000000E+00
  0.00000000E+00  0.00000000E+00  0.00000000E+00
  0.00000000E+00  0.00000000E+00  0.00000000E+00
  0.00000000E+00  0.00000000E+00  0.00000000E+00
  0.00000000E+00  0.00000000E+00  0.00000000E+00
  0.00000000E+00  0.00000000E+00  0.00000000E+00
  0.00000000E+00  0.00000000E+00  0.00000000E+00
  0.00000000E+00  0.00000000E+00  0.00000000E+00
  0.00000000E+00  0.00000000E+00  0.00000000E+00
  0.00000000E+00  0.00000000E+00  0.00000000E+00
  0.00000000E+00  0.00000000E+00  0.00000000E+00
  0.00000000E+00  0.00000000E+00  0.00000000E+00
  0.00000000E+00  0.00000000E+00  0.00000000E+00
  0.00000000E+00  0.00000000E+00  0.00000000E+00
  0.00000000E+00  0.00000000E+00  0.00000000E+00
  0.00000000E+00  0.00000000E+00  0.00000000E+00
  0.00000000E+00  0.00000000E+00  0.00000000E+00
  0.00000000E+00  0.00000000E+00  0.00000000E+00
  0.00000000E+00  0.00000000E+00  0.00000000E+00
  0.00000000E+00  0.00000000E+00  0.00000000E+00
  0.00000000E+00  0.00000000E+00  0.00000000E+00
  0.00000000E+00  0.00000000E+00  0.00000000E+00
  0.00000000E+00  0.00000000E+00  0.00000000E+00
  0.00000000E+00  0.00000000E+00  0.00000000E+00
  0.00000000E+00  0.00000000E+00  0.00000000E+00
  0.00000000E+00  0.00000000E+00  0.00000000E+00
  0.00000000E+00  0.00000000E+00  0.00000000E+00
  0.00000000E+00  0.00000000E+00  0.00000000E+00
  0.00000000E+00  0.00000000E+00  0.00000000E+00
  0.00000000E+00  0.00000000E+00  0.00000000E+00
  0.00000000E+00  0.00000000E+00  0.00000000E+00
  0.00000000E+00  0.00000000E+00  0.00000000E+00
  0.00000000E+00  0.00000000E+00  0.00000000E+00
  0.00000000E+00  0.00000000E+00  0.00000000E+00
  0.00000000E+00  0.00000000E+00  0.00000000E+00
  0.00000000E+00  0.00000000E+00  0.00000000E+00
  0.00000000E+00  0.00000000E+00  0.00000000E+00
  0.00000000E+00  0.00000000E+00  0.00000000E+00
  0.00000000E+00  0.00000000E+00  0.00000000E+00
  0.00000000E+00  0.00000000E+00  0.00000000E+00
  0.00000000E+00  0.00000000E+00  0.00000000E+00
  0.00000000E+00  0.00000000E+00  0.00000000E+00
  0.00000000E+00  0.00000000E+00  0.00000000E+00
  0.00000000E+00  0.00000000E+00  0.00000000E+00
  0.00000000E+00  0.00000000E+00  0.00000000E+00
  0.00000000E+00  0.00000000E+00  0.00000000E+00
  0.00000000E+00  0.00000000E+00  0.00000000E+00
  0.00000000E+00  0.00000000E+00  0.00000000E+00
  0.00000000E+00  0.00000000E+00  0.00000000E+00
  0.00000000E+00  0.00000000E+00  0.00000000E+00
  0.00000000E+00  0.00000000E+00  0.00000000E+00
  0.00000000E+00  0.00000000E+00  0.00000000E+00
  0.00000000E+00  0.00000000E+00  0.00000000E+00
  0.00000000E+00  0.00000000E+00  0.00000000E+00
  0.00000000E+00  0.00000000E+00  0.00000000E+00
  0.00000000E+00  0.00000000E+00  0.00000000E+00
  0.00000000E+00  0.00000000E+00  0.00000000E+00
  0.00000000E+00  0.00000000E+00  0.00000000E+00
  0.00000000E+00  0.00000000E+00  0.00000000E+00
  0.00000000E+00  0.00000000E+00  0.00000000E+00
  0.00000000E+00  0.00000000E+00  0.00000000E+00
  0.00000000E+00  0.00000000E+00  0.00000000E+00
  0.00000000E+00  0.00000000E+00  0.00000000E+00
  0.00000000E+00  0.00000000E+00  0.00000000E+00
  0.00000000E+00  0.00000000E+00  0.00000000E+00
