Ga8 O12                                 
    1.000000000000000     
     0.0000000000000000   12.2804737091000007    0.0000000000000000
     9.1427011490000005    0.0000000000000000    0.0000000000000000
     0.0000000000000000   -2.7682616411000001  -11.3006974810000003
   Ga   O    Fe
    47    72     1
Direct
  0.6603680411903454  0.0006594274371281  0.1579659225196295
  0.6595651624217354  0.9999723273205348  0.6568765716654781
  0.6603681316631338  0.3326748510153337  0.1579629660057265
  0.6595658568676228  0.3333606969562624  0.6568768162923533
  0.6596583107638452  0.6666666256987241  0.1577174991350816
  0.6591255626200621  0.6666658583664855  0.6568272632182754
  0.8413587353860095  0.1666606073133110  0.8430153656749582
  0.8410236196637584  0.4977597820842874  0.3443598796744993
  0.8413389218042582  0.4996304278883983  0.8432862158440955
  0.8410236497125751  0.8355709154928022  0.3443623550920876
  0.8413386841116335  0.8337003322778784  0.8432877775985403
  0.5948503450913449  0.1666672289180298  0.3973517456074163
  0.5912738013164329  0.1666661447900992  0.8978373405504030
  0.5911454677514385  0.4995404496229057  0.3975614764423341
  0.5913784014599983  0.4998955733793906  0.8981597255974521
  0.5911455108230825  0.8337929030106253  0.3975618331522099
  0.5913788783127529  0.8334381408658160  0.8981603312708586
  0.9081058343592616  0.0003831476539986  0.1037464917134372
  0.9072556588549290  0.0014807363108673  0.5981489277086496
  0.9081052561008249  0.3329519213183900  0.1037457726062172
  0.9072541393552598  0.3318517721886209  0.5981452229857993
  0.9085661802629801  0.6666663984266492  0.1028400946104426
  0.9091730153874522  0.6666647122189246  0.6022493239098239
  0.1586497173055932  0.1666669215064829  0.1571839431416748
  0.1585045167153254  0.1666669978432083  0.6557485485006538
  0.1588090012866061  0.4995780697938699  0.1570049939276856
  0.1583579964670108  0.4996081177870053  0.6563042187840793
  0.1588084266267487  0.8337554618312026  0.1570061763663233
  0.1583605525756013  0.8337240343622696  0.6563059759784764
  0.3413681422389416  0.0003445307175269  0.3437121544276422
  0.3409000432538818  0.0000153751431284  0.8433522630226378
  0.3413682150683783  0.3329889714939966  0.3437115005503131
  0.3409000811079252  0.3333184045077715  0.8433521509758535
  0.3412840316771479  0.6666667294658524  0.3432283172542796
  0.3409900453288159  0.6666663063805771  0.8433146679369017
  0.0887185277679947  0.0016325376907247  0.3972622162796853
  0.0910947072946797  0.0000426426162861  0.8976301835287188
  0.0887181967839155  0.3317020020338077  0.3972614467658033
  0.0910940398973850  0.3332903233620499  0.8976291147182422
  0.0915891995235398  0.6666659507410486  0.3978421306661772
  0.0913783731501212  0.6666663334341223  0.8979892208596141
  0.4092319138689433  0.1666689937935857  0.1027796025879084
  0.4092768900794184  0.1666666680292650  0.6025646114968382
  0.4093797802792238  0.4997717760000242  0.1026443214824937
  0.4088672816374199  0.4999428186390489  0.6025756177796353
  0.4093814370555791  0.8335656029497471  0.1026453336586286
  0.4088676654088346  0.8333904988172733  0.6025757235163312
  0.9963735296749761  0.1666663938077093  0.1266298422561078
  0.9966042263724404  0.1666665071059441  0.6293958646167965
  0.9962782222467510  0.4998346513006737  0.1268601282460295
  0.9959175527628545  0.4991232661862739  0.6272692379384992
  0.9962777783769496  0.8335000734919547  0.1268607909526978
  0.9959176749738745  0.8342083357613674  0.6272707449977233
  0.5042509736061547  0.0011200270746556  0.3731756914058906
  0.5035515988052950  0.9999740324337267  0.8724764681569468
  0.5042505691546282  0.3322134318148073  0.3731751237555159
  0.5035520484544165  0.3333585784739626  0.8724768275464641
  0.5036218453814101  0.6666669474699134  0.3732329722283154
  0.5037612053066383  0.6666672064867711  0.8726628938268490
  0.6736118914453399  0.1666663752990090  0.2791036071889437
  0.6727193098944753  0.1666660905612218  0.7807409474981100
  0.6713241643399641  0.5011500810264167  0.2799782841608263
  0.6726393949706591  0.4999097501492713  0.7807160305326875
  0.6713248186242353  0.8321855607615944  0.2799791448688467
  0.6726392786969413  0.8334229707700800  0.7807164079313509
  0.8271530769936177  0.9994122833050838  0.2205056432050583
  0.8278635726098287  0.9999722514272307  0.7190072716615674
  0.8271534462797234  0.3339212743381879  0.2205043439262582
  0.8278635746759306  0.3333591669335192  0.7190052294132556
  0.8275274622255253  0.6666688245011869  0.2198951161491465
  0.8275827469175141  0.6666666727663184  0.7197302283181983
  0.8293259707847156  0.0018651117888382  0.4431303808354130
  0.8327990074567637  0.0000101762448992  0.9459155011270539
  0.8293270235930876  0.3314809557869154  0.4431309714281824
  0.8327984885501678  0.3333216732747601  0.9459137013426542
  0.8321143156722570  0.6666680362005621  0.4459915464620963
  0.8324604058283072  0.6666652830409632  0.9456891186050100
  0.6684888008362222  0.1666666265356085  0.0536431265804396
  0.6673970612120073  0.1666662424963192  0.5551970790807061
  0.6679794694590981  0.5000056676215934  0.0544006675021791
  0.6673456985432011  0.5002554870932769  0.5545387737518226
  0.6679804345355365  0.8333282753424740  0.0544017205569745
  0.6673452027545252  0.8330777419264024  0.5545388584368709
  0.4966516637413676  0.0002102450787618  0.1270241862615933
  0.4965589495066638  0.9998383184573498  0.6277880386775578
  0.4966508618141745  0.3331238298620391  0.1270233395289040
  0.4965591609629882  0.3334951321838204  0.6277880939594667
  0.4962980618120696  0.6666678914977027  0.1268360486104143
  0.4963459043795524  0.6666664864872871  0.6277619011138924
  0.0017878104484907  0.1666657394072288  0.3735850973188306
  0.0039173937976003  0.1666660647263569  0.8735043614068587
  0.0041651567410952  0.5005678315404154  0.3728272372914674
  0.0039342733286247  0.5001143177413852  0.8729011087808942
  0.0041643068506474  0.8327665593723168  0.3728277898598904
  0.0039342280343746  0.8332188424378941  0.8729013310449929
  0.1725415049916776  0.0000251343311604  0.2807737156323356
  0.1728489772954234  0.9999699710110619  0.7807239895063844
  0.1725414053661964  0.3333081129770150  0.2807733660703775
  0.1728488546147204  0.3333634016254337  0.7807233894285375
  0.1730841812175044  0.6666668072048481  0.2804130073166675
  0.1724753592339354  0.6666661465956025  0.7805185243185946
  0.3274618191566034  0.1666665809281866  0.2197389632985036
  0.3275212188567309  0.1666669500933153  0.7195774293939579
  0.3277479677326554  0.4996359034205256  0.2197049783074192
  0.3274414597533948  0.5000822797554818  0.7197494833221469
  0.3277479702686463  0.8336980807521286  0.2197050730600054
  0.3274418993203909  0.8332505690343908  0.7197498508501923
  0.3321397546873683  0.1666668693438709  0.4461665258365031
  0.3323642668779812  0.1666667486994484  0.9460265336180242
  0.3326156882179916  0.5000011745698245  0.4458916566139877
  0.3323221839234591  0.5000539817832745  0.9459718022783079
  0.3326153856054859  0.8333321381827403  0.4458918272462640
  0.3323224992398792  0.8332798157256462  0.9459725019045564
  0.1682635766391414  0.0001026624993798  0.0542815018689566
  0.1682879762920848  0.9997964007629534  0.5540099353301287
  0.1682632418071819  0.3332303960544962  0.0542806034620185
  0.1682879644067086  0.3335365552583696  0.5540094566425324
  0.1680782610367331  0.6666672971611121  0.0546073838386860
  0.1683972613243299  0.6666664777731128  0.5546139736596558
  0.8379837610203325  0.1666592055692391  0.3358243537666752
 
  0.00000000E+00  0.00000000E+00  0.00000000E+00
  0.00000000E+00  0.00000000E+00  0.00000000E+00
  0.00000000E+00  0.00000000E+00  0.00000000E+00
  0.00000000E+00  0.00000000E+00  0.00000000E+00
  0.00000000E+00  0.00000000E+00  0.00000000E+00
  0.00000000E+00  0.00000000E+00  0.00000000E+00
  0.00000000E+00  0.00000000E+00  0.00000000E+00
  0.00000000E+00  0.00000000E+00  0.00000000E+00
  0.00000000E+00  0.00000000E+00  0.00000000E+00
  0.00000000E+00  0.00000000E+00  0.00000000E+00
  0.00000000E+00  0.00000000E+00  0.00000000E+00
  0.00000000E+00  0.00000000E+00  0.00000000E+00
  0.00000000E+00  0.00000000E+00  0.00000000E+00
  0.00000000E+00  0.00000000E+00  0.00000000E+00
  0.00000000E+00  0.00000000E+00  0.00000000E+00
  0.00000000E+00  0.00000000E+00  0.00000000E+00
  0.00000000E+00  0.00000000E+00  0.00000000E+00
  0.00000000E+00  0.00000000E+00  0.00000000E+00
  0.00000000E+00  0.00000000E+00  0.00000000E+00
  0.00000000E+00  0.00000000E+00  0.00000000E+00
  0.00000000E+00  0.00000000E+00  0.00000000E+00
  0.00000000E+00  0.00000000E+00  0.00000000E+00
  0.00000000E+00  0.00000000E+00  0.00000000E+00
  0.00000000E+00  0.00000000E+00  0.00000000E+00
  0.00000000E+00  0.00000000E+00  0.00000000E+00
  0.00000000E+00  0.00000000E+00  0.00000000E+00
  0.00000000E+00  0.00000000E+00  0.00000000E+00
  0.00000000E+00  0.00000000E+00  0.00000000E+00
  0.00000000E+00  0.00000000E+00  0.00000000E+00
  0.00000000E+00  0.00000000E+00  0.00000000E+00
  0.00000000E+00  0.00000000E+00  0.00000000E+00
  0.00000000E+00  0.00000000E+00  0.00000000E+00
  0.00000000E+00  0.00000000E+00  0.00000000E+00
  0.00000000E+00  0.00000000E+00  0.00000000E+00
  0.00000000E+00  0.00000000E+00  0.00000000E+00
  0.00000000E+00  0.00000000E+00  0.00000000E+00
  0.00000000E+00  0.00000000E+00  0.00000000E+00
  0.00000000E+00  0.00000000E+00  0.00000000E+00
  0.00000000E+00  0.00000000E+00  0.00000000E+00
  0.00000000E+00  0.00000000E+00  0.00000000E+00
  0.00000000E+00  0.00000000E+00  0.00000000E+00
  0.00000000E+00  0.00000000E+00  0.00000000E+00
  0.00000000E+00  0.00000000E+00  0.00000000E+00
  0.00000000E+00  0.00000000E+00  0.00000000E+00
  0.00000000E+00  0.00000000E+00  0.00000000E+00
  0.00000000E+00  0.00000000E+00  0.00000000E+00
  0.00000000E+00  0.00000000E+00  0.00000000E+00
  0.00000000E+00  0.00000000E+00  0.00000000E+00
  0.00000000E+00  0.00000000E+00  0.00000000E+00
  0.00000000E+00  0.00000000E+00  0.00000000E+00
  0.00000000E+00  0.00000000E+00  0.00000000E+00
  0.00000000E+00  0.00000000E+00  0.00000000E+00
  0.00000000E+00  0.00000000E+00  0.00000000E+00
  0.00000000E+00  0.00000000E+00  0.00000000E+00
  0.00000000E+00  0.00000000E+00  0.00000000E+00
  0.00000000E+00  0.00000000E+00  0.00000000E+00
  0.00000000E+00  0.00000000E+00  0.00000000E+00
  0.00000000E+00  0.00000000E+00  0.00000000E+00
  0.00000000E+00  0.00000000E+00  0.00000000E+00
  0.00000000E+00  0.00000000E+00  0.00000000E+00
  0.00000000E+00  0.00000000E+00  0.00000000E+00
  0.00000000E+00  0.00000000E+00  0.00000000E+00
  0.00000000E+00  0.00000000E+00  0.00000000E+00
  0.00000000E+00  0.00000000E+00  0.00000000E+00
  0.00000000E+00  0.00000000E+00  0.00000000E+00
  0.00000000E+00  0.00000000E+00  0.00000000E+00
  0.00000000E+00  0.00000000E+00  0.00000000E+00
  0.00000000E+00  0.00000000E+00  0.00000000E+00
  0.00000000E+00  0.00000000E+00  0.00000000E+00
  0.00000000E+00  0.00000000E+00  0.00000000E+00
  0.00000000E+00  0.00000000E+00  0.00000000E+00
  0.00000000E+00  0.00000000E+00  0.00000000E+00
  0.00000000E+00  0.00000000E+00  0.00000000E+00
  0.00000000E+00  0.00000000E+00  0.00000000E+00
  0.00000000E+00  0.00000000E+00  0.00000000E+00
  0.00000000E+00  0.00000000E+00  0.00000000E+00
  0.00000000E+00  0.00000000E+00  0.00000000E+00
  0.00000000E+00  0.00000000E+00  0.00000000E+00
  0.00000000E+00  0.00000000E+00  0.00000000E+00
  0.00000000E+00  0.00000000E+00  0.00000000E+00
  0.00000000E+00  0.00000000E+00  0.00000000E+00
  0.00000000E+00  0.00000000E+00  0.00000000E+00
  0.00000000E+00  0.00000000E+00  0.00000000E+00
  0.00000000E+00  0.00000000E+00  0.00000000E+00
  0.00000000E+00  0.00000000E+00  0.00000000E+00
  0.00000000E+00  0.00000000E+00  0.00000000E+00
  0.00000000E+00  0.00000000E+00  0.00000000E+00
  0.00000000E+00  0.00000000E+00  0.00000000E+00
  0.00000000E+00  0.00000000E+00  0.00000000E+00
  0.00000000E+00  0.00000000E+00  0.00000000E+00
  0.00000000E+00  0.00000000E+00  0.00000000E+00
  0.00000000E+00  0.00000000E+00  0.00000000E+00
  0.00000000E+00  0.00000000E+00  0.00000000E+00
  0.00000000E+00  0.00000000E+00  0.00000000E+00
  0.00000000E+00  0.00000000E+00  0.00000000E+00
  0.00000000E+00  0.00000000E+00  0.00000000E+00
  0.00000000E+00  0.00000000E+00  0.00000000E+00
  0.00000000E+00  0.00000000E+00  0.00000000E+00
  0.00000000E+00  0.00000000E+00  0.00000000E+00
  0.00000000E+00  0.00000000E+00  0.00000000E+00
  0.00000000E+00  0.00000000E+00  0.00000000E+00
  0.00000000E+00  0.00000000E+00  0.00000000E+00
  0.00000000E+00  0.00000000E+00  0.00000000E+00
  0.00000000E+00  0.00000000E+00  0.00000000E+00
  0.00000000E+00  0.00000000E+00  0.00000000E+00
  0.00000000E+00  0.00000000E+00  0.00000000E+00
  0.00000000E+00  0.00000000E+00  0.00000000E+00
  0.00000000E+00  0.00000000E+00  0.00000000E+00
  0.00000000E+00  0.00000000E+00  0.00000000E+00
  0.00000000E+00  0.00000000E+00  0.00000000E+00
  0.00000000E+00  0.00000000E+00  0.00000000E+00
  0.00000000E+00  0.00000000E+00  0.00000000E+00
  0.00000000E+00  0.00000000E+00  0.00000000E+00
  0.00000000E+00  0.00000000E+00  0.00000000E+00
  0.00000000E+00  0.00000000E+00  0.00000000E+00
  0.00000000E+00  0.00000000E+00  0.00000000E+00
  0.00000000E+00  0.00000000E+00  0.00000000E+00
  0.00000000E+00  0.00000000E+00  0.00000000E+00
  0.00000000E+00  0.00000000E+00  0.00000000E+00
  0.00000000E+00  0.00000000E+00  0.00000000E+00
