Ga8 O12                                 
    1.000000000000000     
     0.0000000000000000   12.2804737091000007    0.0000000000000000
     9.1427011490000005    0.0000000000000000    0.0000000000000000
     0.0000000000000000   -2.7682616411000001  -11.3006974810000003
   Ga   O    Cu   N 
    47    71     1     1
Direct
  0.6576370538619806 -0.0018284617011654  0.1550214109113442
  0.6595380190218679 -0.0001698419572239  0.6570231206137840
  0.6580085480791228  0.3333317895073374  0.1558153596624350
  0.6592929043975535  0.3333121753109480  0.6572330843565372
  0.6589367657192509  0.6657026703816536  0.1563243902996143
  0.6597571987697037  0.6664720888968185  0.6571508621235930
  0.8356485215692461  0.1626680193226759  0.3424649477587223
  0.8412706763370215  0.1663180502053084  0.8434715356042277
  0.8416498924437534  0.4993650939596921  0.3425859955843530
  0.8418765095079129  0.5003430989146448  0.8438982009403934
  0.8410049722434096  0.8314942231566198  0.3439104798472362
  0.8418069517558736  0.8334910420869747  0.8444847365902050
  0.5906377412795295  0.1663575821396470  0.3982284158655456
  0.5903047090706393  0.1663921925121799  0.8972225740343118
  0.5924334904963565  0.5004699491440152  0.3979942186090196
  0.5904245738687152  0.4997783015441152  0.8970911535165792
  0.5918902225449011  0.8328803110220735  0.3977971971846654
  0.5901104341468589  0.8326656407779898  0.8968216930115908
  0.9093204955301341 -0.0011272205168558  0.1057410981303063
  0.9074870200586124 -0.0018017322407876  0.6003294161493685
  0.9085809881919006  0.3349282967084836  0.1035013321776812
  0.9085935493151321  0.3328475736853879  0.6021424494052210
  0.9094213589544584  0.6667762008935407  0.1031886790971870
  0.9079422737687423  0.6655935828200675  0.6014408613818765
  0.1621374729701077  0.1665029471881212  0.1592783985877141
  0.1600723614033699  0.1667156113846605  0.6568044742691761
  0.1597165249820524  0.5011204767738060  0.1574661667773009
  0.1583677075272218  0.5004116438354947  0.6549324280942788
  0.1595281486485382  0.8339171354223021  0.1589315299238155
  0.1576173424797613  0.8319693324584487  0.6553213132710815
  0.3417854260734264 -0.0000379211852651  0.3444145838696408
  0.3403922702824028 -0.0003563051139195  0.8429157513052411
  0.3429569142728865  0.3342651759285063  0.3436394021382411
  0.3404816993416732  0.3334733072901896  0.8428761499901632
  0.3415068212222352  0.6670385249051387  0.3439218717264735
  0.3399171960439626  0.6664881589654217  0.8427394114823279
  0.0908766552439518  0.0000060494780156  0.8975362620243633
  0.0922329743734915  0.3353874848919712  0.3959473121749875
  0.0916222043870759  0.3338606573282396  0.8977827287594217
  0.0883343291204476  0.6743416059278289  0.3964730345685740
  0.0916088133307440  0.6670451984645298  0.8981639981878576
  0.4093452124873247  0.1666160818691120  0.1014884377578547
  0.4097920595722875  0.1668340540266014  0.6026628131789916
  0.4085508849213080  0.5001278324242767  0.1018050808212865
  0.4094980728176956  0.5003461564435145  0.6027050336942209
  0.4086342950639971  0.8325186133345744  0.1018785744842582
  0.4095989656074663  0.8333574642747691  0.6029850826342679
  0.9969934341504764  0.1675691134815649  0.1420161379471686
  0.9960659361092589  0.1652017625344351  0.6192668342973624
  0.9969860571028919  0.5001768484746337  0.1278847895372554
  0.9959623802569322  0.4992282229913675  0.6269997919802708
  0.9968022450916887  0.8330912988061460  0.1271027451355373
  0.9953116499129012  0.8324529829949366  0.6271663096241042
  0.5042643900017837 -0.0005873500031859  0.3727862517709094
  0.5029639016015706 -0.0003659125897312  0.8724680309249444
  0.5048854546750710  0.3340153988512898  0.3730656111689790
  0.5029676686510040  0.3331624447057017  0.8722781858331694
  0.5044064840432976  0.6663048575871585  0.3731165504218181
  0.5025711434558859  0.6660947244527422  0.8719045678273474
  0.6704979600502932  0.1665899175974427  0.2794833826405526
  0.6732773014847018  0.1665069786494315  0.7813870382560397
  0.6723155838475623  0.4987361468417388  0.2798318562327785
  0.6735521653371100  0.4992910950472545  0.7814053391612689
  0.6718618432860896  0.8314443337045565  0.2795828310176871
  0.6736384060345267  0.8338994653285295  0.7815560478279254
  0.8234403923487780 -0.0022999242298229  0.2177408714029996
  0.8283228128079118  0.0003544874654253  0.7199823178184765
  0.8258725635021004  0.3340856724730988  0.2187354751500418
  0.8282870662635260  0.3325035221152222  0.7199583767807575
  0.8264058997972573  0.6643442925575199  0.2184566844366779
  0.8277923230896067  0.6663950888875567  0.7200371465259678
  0.8251051559573002 -0.0020910482773348  0.4459857618229244
  0.8357854719973276  0.0012278963583326  0.9478625971485354
  0.8320737218973882  0.3320979889079326  0.4453414702018199
  0.8347580089148445  0.3325401152359225  0.9466679365050606
  0.8286412479568762  0.6636036957045910  0.4458567437117052
  0.8330797320819043  0.6665771305450102  0.9463338916674973
  0.6669160438336966  0.1663129626765371  0.0536289911726314
  0.6677571854483373  0.1668894875889047  0.5548293187070130
  0.6675476782812880  0.4993733242464328  0.0532476443841383
  0.6684750896001814  0.4995099036125198  0.5549964620870400
  0.6671077434863519  0.8319934651987760  0.0529580870785734
  0.6676867314272791  0.8330756457816826  0.5549636174862403
  0.4958411940532546 -0.0006496756176570  0.1261451618674849
  0.4970615247058776  0.0001147930957122  0.6286209285070974
  0.4959788423878380  0.3336612060552527  0.1259341242501989
  0.4969567848644734  0.3337029766549348  0.6285526535381407
  0.4962886207030833  0.6661752148905556  0.1259408570852676
  0.4972720905725388  0.6666561038069376  0.6289044134369166
  0.0039603029281425  0.1671527114012444  0.8726728252574911
  0.0043417628681996  0.5022788504145108  0.3728289203602803
  0.0042438442969211  0.5003251944016308  0.8727168063027491
 -0.0012171307989722  0.8351740620623127  0.3725292616230503
  0.0039694687592923  0.8333042917403027  0.8724053842478334
  0.1767339480314286 -0.0001289399050466  0.2792408785065085
  0.1717902870299912  0.0003650742189659  0.7799300349220568
  0.1751988596441393  0.3353393611422328  0.2806336573403219
  0.1717237681983927  0.3327250170303022  0.7794111345761133
  0.1730174771884831  0.6675111487530550  0.2812969049938657
  0.1719146884855061  0.6665900422006957  0.7798199846958221
  0.3298601715637333  0.1684857431563099  0.2196196696171117
  0.3278643154367607  0.1670991445464542  0.7195909034398672
  0.3280556107456244  0.5008681417889606  0.2194218219761261
  0.3266636747165522  0.4997616918541984  0.7188572481811820
  0.3285963284651972  0.8325581384735868  0.2195718295225118
  0.3271058487053545  0.8334463167848432  0.7194023807946124
  0.3348653150244818  0.1676438550166043  0.4459974959722984
  0.3312967755064175  0.1665665781614903  0.9452461325930194
  0.3335694724977687  0.5001813794340557  0.4461744331357084
  0.3307395510251681  0.4997051951381287  0.9452859256393261
  0.3346177548315427  0.8330416207515314  0.4464300985543917
  0.3310496069630948  0.8332176901845814  0.9453704754859242
  0.1662788260080259  0.0012794667963225  0.0543708879498058
  0.1721841179684047 -0.0012996624142648  0.5562214647789249
  0.1659648498550539  0.3325995266125601  0.0549230645622994
  0.1675424305605317  0.3329905895001593  0.5533106696898987
  0.1681188044569166  0.6675018060622238  0.0547315366094997
  0.1673221278369103  0.6667169401781925  0.5532114608542935
  0.0945415926561968  0.0161397662411078  0.4000680232310246
  0.0001583943665708  0.1636826901922111  0.3641717976304210
 
  0.00000000E+00  0.00000000E+00  0.00000000E+00
  0.00000000E+00  0.00000000E+00  0.00000000E+00
  0.00000000E+00  0.00000000E+00  0.00000000E+00
  0.00000000E+00  0.00000000E+00  0.00000000E+00
  0.00000000E+00  0.00000000E+00  0.00000000E+00
  0.00000000E+00  0.00000000E+00  0.00000000E+00
  0.00000000E+00  0.00000000E+00  0.00000000E+00
  0.00000000E+00  0.00000000E+00  0.00000000E+00
  0.00000000E+00  0.00000000E+00  0.00000000E+00
  0.00000000E+00  0.00000000E+00  0.00000000E+00
  0.00000000E+00  0.00000000E+00  0.00000000E+00
  0.00000000E+00  0.00000000E+00  0.00000000E+00
  0.00000000E+00  0.00000000E+00  0.00000000E+00
  0.00000000E+00  0.00000000E+00  0.00000000E+00
  0.00000000E+00  0.00000000E+00  0.00000000E+00
  0.00000000E+00  0.00000000E+00  0.00000000E+00
  0.00000000E+00  0.00000000E+00  0.00000000E+00
  0.00000000E+00  0.00000000E+00  0.00000000E+00
  0.00000000E+00  0.00000000E+00  0.00000000E+00
  0.00000000E+00  0.00000000E+00  0.00000000E+00
  0.00000000E+00  0.00000000E+00  0.00000000E+00
  0.00000000E+00  0.00000000E+00  0.00000000E+00
  0.00000000E+00  0.00000000E+00  0.00000000E+00
  0.00000000E+00  0.00000000E+00  0.00000000E+00
  0.00000000E+00  0.00000000E+00  0.00000000E+00
  0.00000000E+00  0.00000000E+00  0.00000000E+00
  0.00000000E+00  0.00000000E+00  0.00000000E+00
  0.00000000E+00  0.00000000E+00  0.00000000E+00
  0.00000000E+00  0.00000000E+00  0.00000000E+00
  0.00000000E+00  0.00000000E+00  0.00000000E+00
  0.00000000E+00  0.00000000E+00  0.00000000E+00
  0.00000000E+00  0.00000000E+00  0.00000000E+00
  0.00000000E+00  0.00000000E+00  0.00000000E+00
  0.00000000E+00  0.00000000E+00  0.00000000E+00
  0.00000000E+00  0.00000000E+00  0.00000000E+00
  0.00000000E+00  0.00000000E+00  0.00000000E+00
  0.00000000E+00  0.00000000E+00  0.00000000E+00
  0.00000000E+00  0.00000000E+00  0.00000000E+00
  0.00000000E+00  0.00000000E+00  0.00000000E+00
  0.00000000E+00  0.00000000E+00  0.00000000E+00
  0.00000000E+00  0.00000000E+00  0.00000000E+00
  0.00000000E+00  0.00000000E+00  0.00000000E+00
  0.00000000E+00  0.00000000E+00  0.00000000E+00
  0.00000000E+00  0.00000000E+00  0.00000000E+00
  0.00000000E+00  0.00000000E+00  0.00000000E+00
  0.00000000E+00  0.00000000E+00  0.00000000E+00
  0.00000000E+00  0.00000000E+00  0.00000000E+00
  0.00000000E+00  0.00000000E+00  0.00000000E+00
  0.00000000E+00  0.00000000E+00  0.00000000E+00
  0.00000000E+00  0.00000000E+00  0.00000000E+00
  0.00000000E+00  0.00000000E+00  0.00000000E+00
  0.00000000E+00  0.00000000E+00  0.00000000E+00
  0.00000000E+00  0.00000000E+00  0.00000000E+00
  0.00000000E+00  0.00000000E+00  0.00000000E+00
  0.00000000E+00  0.00000000E+00  0.00000000E+00
  0.00000000E+00  0.00000000E+00  0.00000000E+00
  0.00000000E+00  0.00000000E+00  0.00000000E+00
  0.00000000E+00  0.00000000E+00  0.00000000E+00
  0.00000000E+00  0.00000000E+00  0.00000000E+00
  0.00000000E+00  0.00000000E+00  0.00000000E+00
  0.00000000E+00  0.00000000E+00  0.00000000E+00
  0.00000000E+00  0.00000000E+00  0.00000000E+00
  0.00000000E+00  0.00000000E+00  0.00000000E+00
  0.00000000E+00  0.00000000E+00  0.00000000E+00
  0.00000000E+00  0.00000000E+00  0.00000000E+00
  0.00000000E+00  0.00000000E+00  0.00000000E+00
  0.00000000E+00  0.00000000E+00  0.00000000E+00
  0.00000000E+00  0.00000000E+00  0.00000000E+00
  0.00000000E+00  0.00000000E+00  0.00000000E+00
  0.00000000E+00  0.00000000E+00  0.00000000E+00
  0.00000000E+00  0.00000000E+00  0.00000000E+00
  0.00000000E+00  0.00000000E+00  0.00000000E+00
  0.00000000E+00  0.00000000E+00  0.00000000E+00
  0.00000000E+00  0.00000000E+00  0.00000000E+00
  0.00000000E+00  0.00000000E+00  0.00000000E+00
  0.00000000E+00  0.00000000E+00  0.00000000E+00
  0.00000000E+00  0.00000000E+00  0.00000000E+00
  0.00000000E+00  0.00000000E+00  0.00000000E+00
  0.00000000E+00  0.00000000E+00  0.00000000E+00
  0.00000000E+00  0.00000000E+00  0.00000000E+00
  0.00000000E+00  0.00000000E+00  0.00000000E+00
  0.00000000E+00  0.00000000E+00  0.00000000E+00
  0.00000000E+00  0.00000000E+00  0.00000000E+00
  0.00000000E+00  0.00000000E+00  0.00000000E+00
  0.00000000E+00  0.00000000E+00  0.00000000E+00
  0.00000000E+00  0.00000000E+00  0.00000000E+00
  0.00000000E+00  0.00000000E+00  0.00000000E+00
  0.00000000E+00  0.00000000E+00  0.00000000E+00
  0.00000000E+00  0.00000000E+00  0.00000000E+00
  0.00000000E+00  0.00000000E+00  0.00000000E+00
  0.00000000E+00  0.00000000E+00  0.00000000E+00
  0.00000000E+00  0.00000000E+00  0.00000000E+00
  0.00000000E+00  0.00000000E+00  0.00000000E+00
  0.00000000E+00  0.00000000E+00  0.00000000E+00
  0.00000000E+00  0.00000000E+00  0.00000000E+00
  0.00000000E+00  0.00000000E+00  0.00000000E+00
  0.00000000E+00  0.00000000E+00  0.00000000E+00
  0.00000000E+00  0.00000000E+00  0.00000000E+00
  0.00000000E+00  0.00000000E+00  0.00000000E+00
  0.00000000E+00  0.00000000E+00  0.00000000E+00
  0.00000000E+00  0.00000000E+00  0.00000000E+00
  0.00000000E+00  0.00000000E+00  0.00000000E+00
  0.00000000E+00  0.00000000E+00  0.00000000E+00
  0.00000000E+00  0.00000000E+00  0.00000000E+00
  0.00000000E+00  0.00000000E+00  0.00000000E+00
  0.00000000E+00  0.00000000E+00  0.00000000E+00
  0.00000000E+00  0.00000000E+00  0.00000000E+00
  0.00000000E+00  0.00000000E+00  0.00000000E+00
  0.00000000E+00  0.00000000E+00  0.00000000E+00
  0.00000000E+00  0.00000000E+00  0.00000000E+00
  0.00000000E+00  0.00000000E+00  0.00000000E+00
  0.00000000E+00  0.00000000E+00  0.00000000E+00
  0.00000000E+00  0.00000000E+00  0.00000000E+00
  0.00000000E+00  0.00000000E+00  0.00000000E+00
  0.00000000E+00  0.00000000E+00  0.00000000E+00
  0.00000000E+00  0.00000000E+00  0.00000000E+00
  0.00000000E+00  0.00000000E+00  0.00000000E+00
  0.00000000E+00  0.00000000E+00  0.00000000E+00
  0.00000000E+00  0.00000000E+00  0.00000000E+00
  0.00000000E+00  0.00000000E+00  0.00000000E+00
