Ga48 O72                                
    1.000000000000000     
     0.0000000000000000   12.2804734172212839    0.0000000000000000
     9.1427020537309431    0.0000000000000000    0.0000000000000000
     0.0000000000000000   -2.7682617730220320  -11.3006977184464645
   Ga   O    P 
    47    71     1
Direct
  0.6600530779067384  0.0000000000000000  0.1553900150064962
  0.6582329660995825  0.0000000000000000  0.6543152672110182
  0.6630567045134725  0.3336507722928133  0.1561925239629858
  0.6585866311504276  0.3329340324190468  0.6550328335690239
  0.6630567045134725  0.6663492277071867  0.1561925239629858
  0.6585866311504276  0.6670659675809532  0.6550328335690239
  0.8383907093219705  0.1640309282566577  0.3440369073436642
  0.8399437114785329  0.1663271913102093  0.8431290827888276
  0.8456654161157928  0.5000000000000000  0.3431642304484868
  0.8402491088294397  0.5000000000000000  0.8438465820189052
  0.8383907093219705  0.8359690717433423  0.3440369073436642
  0.8399437114785329  0.8336728086897907  0.8431290827888276
  0.5857405174057533  0.1636950594307010  0.3949140299492555
  0.5918869827978384  0.1669025251844189  0.8968454534073658
  0.5944778023590658  0.5000000000000000  0.3968969823955675
  0.5930632154936077  0.5000000000000000  0.8985145000313111
  0.5857405174057533  0.8363049405692990  0.3949140299492555
  0.5918869827978384  0.8330974748155811  0.8968454534073658
  0.9110806785376298  0.0000000000000000  0.1034049913221153
  0.9085139009189334  0.0000000000000000  0.6033781220281327
  0.9130359080025414  0.3310073080171492  0.1021049691811058
  0.9083406482384646  0.3339756966614189  0.6039678793200665
  0.9130359080025414  0.6689926919828508  0.1021049691811058
  0.9083406482384646  0.6660243033385882  0.6039678793200665
  0.1665051997487552  0.1585896280561272  0.1552981942257432
  0.1567561169144867  0.1706091672274752  0.6602778659785287
  0.1597082489416124  0.5000000000000000  0.1554832056272275
  0.1581117429774039  0.5000000000000000  0.6557616468405669
  0.1665051997487552  0.8414103719438657  0.1552981942257432
  0.1567561169144867  0.8293908327725248  0.6602778659785287
  0.3223589923787245  0.0000000000000000  0.3300477910686652
  0.3421478222439873  0.0000000000000000  0.8393633851989364
  0.3420383872995956  0.3339859655770425  0.3404520142230183
  0.3420539407554557  0.3343025200678937  0.8414621420977326
  0.3420383872995956  0.6660140344229575  0.3404520142230183
  0.3420539407554557  0.6656974799321063  0.8414621420977326
  0.0891181286374945  0.0000000000000000  0.8923158540450515
  0.0943167062837418  0.3287536465750662  0.3965286756978728
  0.0905855674985361  0.3333653979539051  0.8984236785859991
  0.0943167062837418  0.6712463534249338  0.3965286756978728
  0.0905855674985361  0.6666346020460949  0.8984236785859991
  0.4136678629297705  0.1690038244847045  0.0976899133556657
  0.4077467331558893  0.1663925913335902  0.5969032657878017
  0.4104694096549437  0.5000000000000000  0.1016848427778143
  0.4086480076960584  0.5000000000000000  0.5997114118482543
  0.4136678629297705  0.8309961755152955  0.0976899133556657
  0.4077467331558893  0.8336074086664098  0.5969032657878017
  0.0009736675334509  0.1639420213174390  0.1323806758814356
  0.9951292927698034  0.1672150169876758  0.6300477244170324
  0.9974057823840639  0.5000000000000000  0.1271242879815020
  0.9963497330146041  0.5000000000000000  0.6284052065508448
  0.0009736675334509  0.8360579786825610  0.1323806758814356
  0.9951292927698034  0.8327849830123242  0.6300477244170324
  0.4954657290012392  0.0000000000000000  0.3692824281062030
  0.5046117847667944  0.0000000000000000  0.8704707478582705
  0.5047890115771736  0.3356238850496140  0.3726428235231296
  0.5045002384058108  0.3339259397141632  0.8709438901708140
  0.5047890115771736  0.6643761149503860  0.3726428235231296
  0.5045002384058108  0.6660740602858368  0.8709438901708140
  0.6718353610794665  0.1664535217425538  0.2800453200077015
  0.6722491527388641  0.1664686661612720  0.7789973113760027
  0.6777756957214152  0.5000000000000000  0.2806527219958923
  0.6723861096715851  0.5000000000000000  0.7795049377339822
  0.6718353610794665  0.8335464782574462  0.2800453200077015
  0.6722491527388641  0.8335313338387280  0.7789973113760027
  0.8287170803286017  0.0000000000000000  0.2213220841372632
  0.8264734259550011  0.0000000000000000  0.7195274572721431
  0.8329803345270363  0.3288753963521316  0.2218026224340477
  0.8264385236464591  0.3331561350998271  0.7197536842775847
  0.8329803345270363  0.6711246036478684  0.2218026224340477
  0.8264385236464591  0.6668438649001729  0.7197536842775847
  0.8304738909436082  0.0000000000000000  0.4471288773625375
  0.8329548662771984  0.0000000000000000  0.9468678613095136
  0.8388604153787398  0.3319273518050565  0.4451470002328151
  0.8332186977736740  0.3323904424393902  0.9464893728151651
  0.8388604153787398  0.6680726481949435  0.4451470002328151
  0.8332186977736740  0.6676095575606098  0.9464893728151651
  0.6702186414852918  0.1665626053090747  0.0534864519023159
  0.6666969380856855  0.1664190359362507  0.5514004239526926
  0.6748618145893346  0.5000000000000000  0.0541434787675996
  0.6712614120574756  0.5000000000000000  0.5536908618002485
  0.6702186414852918  0.8334373946909253  0.0534864519023159
  0.6666969380856855  0.8335809640637493  0.5514004239526926
  0.4984636139809879  0.0000000000000000  0.1234126508155882
  0.4955335783185788  0.0000000000000000  0.6251085660317273
  0.5013391554462032  0.3361648306428009  0.1236238572523121
  0.4958125709838797  0.3329358052380513  0.6250725899711185
  0.5013391554462032  0.6638351693571991  0.1236238572523121
  0.4958125709838797  0.6670641947619487  0.6250725899711185
  0.0124474055615664  0.1438716482265079  0.3841844018596987
  0.0024262503199424  0.1670147609470405  0.8719578952138178
  0.0080774418043816  0.5000000000000000  0.3728529131523359
  0.0029612725261856  0.5000000000000000  0.8719157470162884
  0.0124474055615664  0.8561283517734921  0.3841844018596987
  0.0024262503199424  0.8329852390529595  0.8719578952138178
  0.1719142498149822  0.0000000000000000  0.7756314252360426
  0.1725720332490255  0.3315543584371881  0.2791899329994791
  0.1726815839756597  0.3340449578650961  0.7810031200121372
  0.1725720332490255  0.6684456415628119  0.2791899329994791
  0.1726815839756597  0.6659550421349039  0.7810031200121372
  0.3346425290551522  0.1797746751490266  0.2144280998968568
  0.3247855568928983  0.1647917402388472  0.7137995367899848
  0.3277198511862238  0.5000000000000000  0.2176223454264345
  0.3265821319344440  0.5000000000000000  0.7172681047322413
  0.3346425290551522  0.8202253248509734  0.2144280998968568
  0.3247855568928983  0.8352082597611528  0.7137995367899848
  0.3274038084706277  0.1673065599616379  0.4415971290806411
  0.3352007270015349  0.1669385658792635  0.9414633181219187
  0.3303640571440738  0.5000000000000000  0.4437250022025907
  0.3329892918122397  0.5000000000000000  0.9447136982246249
  0.3274038084706277  0.8326934400383621  0.4415971290806411
  0.3352007270015349  0.8330614341207365  0.9414633181219187
  0.1753595469548088  0.0000000000000000  0.0438078376670745
  0.1465032039968293  0.0000000000000000  0.5481903735383540
  0.1669460821360076  0.3319423952956129  0.0540110470906185
  0.1648525219640931  0.3319142368570880  0.5542535938417714
  0.1669460821360076  0.6680576047043871  0.0540110470906185
  0.1648525219640931  0.6680857631429120  0.5542535938417714
  0.0991158619176389  0.0000000000000000  0.4049960520206355
 
  0.00000000E+00  0.00000000E+00  0.00000000E+00
  0.00000000E+00  0.00000000E+00  0.00000000E+00
  0.00000000E+00  0.00000000E+00  0.00000000E+00
  0.00000000E+00  0.00000000E+00  0.00000000E+00
  0.00000000E+00  0.00000000E+00  0.00000000E+00
  0.00000000E+00  0.00000000E+00  0.00000000E+00
  0.00000000E+00  0.00000000E+00  0.00000000E+00
  0.00000000E+00  0.00000000E+00  0.00000000E+00
  0.00000000E+00  0.00000000E+00  0.00000000E+00
  0.00000000E+00  0.00000000E+00  0.00000000E+00
  0.00000000E+00  0.00000000E+00  0.00000000E+00
  0.00000000E+00  0.00000000E+00  0.00000000E+00
  0.00000000E+00  0.00000000E+00  0.00000000E+00
  0.00000000E+00  0.00000000E+00  0.00000000E+00
  0.00000000E+00  0.00000000E+00  0.00000000E+00
  0.00000000E+00  0.00000000E+00  0.00000000E+00
  0.00000000E+00  0.00000000E+00  0.00000000E+00
  0.00000000E+00  0.00000000E+00  0.00000000E+00
  0.00000000E+00  0.00000000E+00  0.00000000E+00
  0.00000000E+00  0.00000000E+00  0.00000000E+00
  0.00000000E+00  0.00000000E+00  0.00000000E+00
  0.00000000E+00  0.00000000E+00  0.00000000E+00
  0.00000000E+00  0.00000000E+00  0.00000000E+00
  0.00000000E+00  0.00000000E+00  0.00000000E+00
  0.00000000E+00  0.00000000E+00  0.00000000E+00
  0.00000000E+00  0.00000000E+00  0.00000000E+00
  0.00000000E+00  0.00000000E+00  0.00000000E+00
  0.00000000E+00  0.00000000E+00  0.00000000E+00
  0.00000000E+00  0.00000000E+00  0.00000000E+00
  0.00000000E+00  0.00000000E+00  0.00000000E+00
  0.00000000E+00  0.00000000E+00  0.00000000E+00
  0.00000000E+00  0.00000000E+00  0.00000000E+00
  0.00000000E+00  0.00000000E+00  0.00000000E+00
  0.00000000E+00  0.00000000E+00  0.00000000E+00
  0.00000000E+00  0.00000000E+00  0.00000000E+00
  0.00000000E+00  0.00000000E+00  0.00000000E+00
  0.00000000E+00  0.00000000E+00  0.00000000E+00
  0.00000000E+00  0.00000000E+00  0.00000000E+00
  0.00000000E+00  0.00000000E+00  0.00000000E+00
  0.00000000E+00  0.00000000E+00  0.00000000E+00
  0.00000000E+00  0.00000000E+00  0.00000000E+00
  0.00000000E+00  0.00000000E+00  0.00000000E+00
  0.00000000E+00  0.00000000E+00  0.00000000E+00
  0.00000000E+00  0.00000000E+00  0.00000000E+00
  0.00000000E+00  0.00000000E+00  0.00000000E+00
  0.00000000E+00  0.00000000E+00  0.00000000E+00
  0.00000000E+00  0.00000000E+00  0.00000000E+00
  0.00000000E+00  0.00000000E+00  0.00000000E+00
  0.00000000E+00  0.00000000E+00  0.00000000E+00
  0.00000000E+00  0.00000000E+00  0.00000000E+00
  0.00000000E+00  0.00000000E+00  0.00000000E+00
  0.00000000E+00  0.00000000E+00  0.00000000E+00
  0.00000000E+00  0.00000000E+00  0.00000000E+00
  0.00000000E+00  0.00000000E+00  0.00000000E+00
  0.00000000E+00  0.00000000E+00  0.00000000E+00
  0.00000000E+00  0.00000000E+00  0.00000000E+00
  0.00000000E+00  0.00000000E+00  0.00000000E+00
  0.00000000E+00  0.00000000E+00  0.00000000E+00
  0.00000000E+00  0.00000000E+00  0.00000000E+00
  0.00000000E+00  0.00000000E+00  0.00000000E+00
  0.00000000E+00  0.00000000E+00  0.00000000E+00
  0.00000000E+00  0.00000000E+00  0.00000000E+00
  0.00000000E+00  0.00000000E+00  0.00000000E+00
  0.00000000E+00  0.00000000E+00  0.00000000E+00
  0.00000000E+00  0.00000000E+00  0.00000000E+00
  0.00000000E+00  0.00000000E+00  0.00000000E+00
  0.00000000E+00  0.00000000E+00  0.00000000E+00
  0.00000000E+00  0.00000000E+00  0.00000000E+00
  0.00000000E+00  0.00000000E+00  0.00000000E+00
  0.00000000E+00  0.00000000E+00  0.00000000E+00
  0.00000000E+00  0.00000000E+00  0.00000000E+00
  0.00000000E+00  0.00000000E+00  0.00000000E+00
  0.00000000E+00  0.00000000E+00  0.00000000E+00
  0.00000000E+00  0.00000000E+00  0.00000000E+00
  0.00000000E+00  0.00000000E+00  0.00000000E+00
  0.00000000E+00  0.00000000E+00  0.00000000E+00
  0.00000000E+00  0.00000000E+00  0.00000000E+00
  0.00000000E+00  0.00000000E+00  0.00000000E+00
  0.00000000E+00  0.00000000E+00  0.00000000E+00
  0.00000000E+00  0.00000000E+00  0.00000000E+00
  0.00000000E+00  0.00000000E+00  0.00000000E+00
  0.00000000E+00  0.00000000E+00  0.00000000E+00
  0.00000000E+00  0.00000000E+00  0.00000000E+00
  0.00000000E+00  0.00000000E+00  0.00000000E+00
  0.00000000E+00  0.00000000E+00  0.00000000E+00
  0.00000000E+00  0.00000000E+00  0.00000000E+00
  0.00000000E+00  0.00000000E+00  0.00000000E+00
  0.00000000E+00  0.00000000E+00  0.00000000E+00
  0.00000000E+00  0.00000000E+00  0.00000000E+00
  0.00000000E+00  0.00000000E+00  0.00000000E+00
  0.00000000E+00  0.00000000E+00  0.00000000E+00
  0.00000000E+00  0.00000000E+00  0.00000000E+00
  0.00000000E+00  0.00000000E+00  0.00000000E+00
  0.00000000E+00  0.00000000E+00  0.00000000E+00
  0.00000000E+00  0.00000000E+00  0.00000000E+00
  0.00000000E+00  0.00000000E+00  0.00000000E+00
  0.00000000E+00  0.00000000E+00  0.00000000E+00
  0.00000000E+00  0.00000000E+00  0.00000000E+00
  0.00000000E+00  0.00000000E+00  0.00000000E+00
  0.00000000E+00  0.00000000E+00  0.00000000E+00
  0.00000000E+00  0.00000000E+00  0.00000000E+00
  0.00000000E+00  0.00000000E+00  0.00000000E+00
  0.00000000E+00  0.00000000E+00  0.00000000E+00
  0.00000000E+00  0.00000000E+00  0.00000000E+00
  0.00000000E+00  0.00000000E+00  0.00000000E+00
  0.00000000E+00  0.00000000E+00  0.00000000E+00
  0.00000000E+00  0.00000000E+00  0.00000000E+00
  0.00000000E+00  0.00000000E+00  0.00000000E+00
  0.00000000E+00  0.00000000E+00  0.00000000E+00
  0.00000000E+00  0.00000000E+00  0.00000000E+00
  0.00000000E+00  0.00000000E+00  0.00000000E+00
  0.00000000E+00  0.00000000E+00  0.00000000E+00
  0.00000000E+00  0.00000000E+00  0.00000000E+00
  0.00000000E+00  0.00000000E+00  0.00000000E+00
  0.00000000E+00  0.00000000E+00  0.00000000E+00
  0.00000000E+00  0.00000000E+00  0.00000000E+00
  0.00000000E+00  0.00000000E+00  0.00000000E+00
  0.00000000E+00  0.00000000E+00  0.00000000E+00
  0.00000000E+00  0.00000000E+00  0.00000000E+00
