Ga48 O72                                
    1.000000000000000     
     0.0000000000000000   12.2804734172212839    0.0000000000000000
     9.1427020537309431    0.0000000000000000    0.0000000000000000
     0.0000000000000000   -2.7682617730220320  -11.3006977184464645
   Ga   O    P 
    47    71     1
Direct
  0.6586632057384634  0.0000000000000000  0.1583076076596797
  0.6645943683713966  0.0000000000000000  0.6522137290738783
  0.6587965378543785  0.3329481906535676  0.1565060717869784
  0.6684431045583068  0.3300508464443794  0.6579002112962939
  0.6587965378543785  0.6670518093464324  0.1565060717869784
  0.6684431045583068  0.6699491535556206  0.6579002112962939
  0.8416034165167545  0.1677658229089047  0.3431117466722498
  0.8527186819451202  0.1660739680302967  0.8383946275804348
  0.8405674348733996  0.5000000000000000  0.3444225556742708
  0.8187029233518643  0.5000000000000000  0.8966720979063112
  0.8416034165167545  0.8322341770910953  0.3431117466722498
  0.8527186819451202  0.8339260319697104  0.8383946275804348
  0.5861102425706264  0.1639117296626367  0.3935779657115219
  0.6016004660748919  0.1640355224659942  0.8962973400107330
  0.5974786359374278  0.5000000000000000  0.4012370305068771
  0.5801884727612787  0.5000000000000000  0.8918948680804490
  0.5861102425706264  0.8360882703373633  0.3935779657115219
  0.6016004660748919  0.8359644775340058  0.8962973400107330
  0.9171094517286065  0.0000000000000000  0.1052251634219417
  0.9164202423095062  0.0000000000000000  0.5931070845832949
  0.8967508017387473  0.3616490976872058  0.0922027053902710
  0.9110895589688894  0.3332405667952472  0.5998272956123216
  0.8967508017387473  0.6383509023127942  0.0922027053902710
  0.9110895589688894  0.6667594332047528  0.5998272956123216
  0.1495773511251741  0.1636023746718749  0.1571363800192529
  0.1638124634478260  0.1623386134779707  0.6460449192000794
  0.1678730868261553  0.5000000000000000  0.1606185733626972
  0.1638817993341419  0.5000000000000000  0.6525972693118760
  0.1495773511251741  0.8363976253281251  0.1571363800192529
  0.1638124634478260  0.8376613865220293  0.6460449192000794
  0.3262687967602744  0.0000000000000000  0.3450514447529258
  0.3415675998612073  0.0000000000000000  0.8440502398199428
  0.3416688103583709  0.3321414047774240  0.3451788062095105
  0.3385186424478306  0.3298451896956962  0.8406033932808583
  0.3416688103583709  0.6678585952225760  0.3451788062095105
  0.3385186424478306  0.6701548103043038  0.8406033932808583
  0.0894209052913624  0.0000000000000000  0.8919110989854886
  0.0863851319427269  0.3262344655076603  0.3942033212446745
  0.0966354685375919  0.3689289079097691  0.8994807670546123
  0.0863851319427269  0.6737655344923397  0.3942033212446745
  0.0966354685375919  0.6310710920902309  0.8994807670546123
  0.4048218766200833  0.1670470033930229  0.1031602799621822
  0.4155931832608388  0.1681751215324638  0.6068381628340802
  0.4095151127986369  0.5000000000000000  0.1021911045768036
  0.4156506043902581  0.5000000000000000  0.6040618316185302
  0.4048218766200833  0.8329529966069771  0.1031602799621822
  0.4155931832608388  0.8318248784675362  0.6068381628340802
  0.9812657109847791  0.1866827643168136  0.1121197682230104
  0.0020941184848766  0.1678006078292782  0.6265106328763324
  0.0177020146920270  0.5000000000000000  0.1556773504479949
  0.0016220010443888  0.5000000000000000  0.6294877971938746
  0.9812657109847791  0.8133172356831864  0.1121197682230104
  0.0020941184848766  0.8321993921707218  0.6265106328763324
  0.4950921255266891  0.0000000000000000  0.3700511979498486
  0.5052043001783844  0.0000000000000000  0.8747767431862314
  0.5053942243551859  0.3364716351398300  0.3736754749248234
  0.5029059778360079  0.3250982631229888  0.8717443578290727
  0.5053942243551859  0.6635283648601700  0.3736754749248234
  0.5029059778360079  0.6749017368770112  0.8717443578290727
  0.6707867335342002  0.1650555527811832  0.2793289030321660
  0.6707078248000542  0.1578201222752753  0.7694603313716328
  0.6694908225320901  0.5000000000000000  0.2770022833058547
  0.6740594549869243  0.5000000000000000  0.7816754366174123
  0.6707867335342002  0.8349444472188168  0.2793289030321660
  0.6707078248000542  0.8421798777247247  0.7694603313716328
  0.8272990560959812  0.0000000000000000  0.2169078523970569
  0.8363305666846443  0.0000000000000000  0.7155007099983450
  0.8239513249658472  0.3352398438189255  0.2209043870903216
  0.8277149087785247  0.3130038535234405  0.7111815161451602
  0.8239513249658472  0.6647601561810745  0.2209043870903216
  0.8277149087785247  0.6869961464765595  0.7111815161451602
  0.8225938956872199  0.0000000000000000  0.4433244810410812
  0.8448873987116201  0.0000000000000000  0.9420275940772171
  0.8203865672748307  0.3369876860600627  0.4464417390303197
  0.8004247410513514  0.2960351212081420  0.9395015167550653
  0.8203865672748307  0.6630123139399373  0.4464417390303197
  0.8004247410513514  0.7039648787918580  0.9395015167550653
  0.6641400671158024  0.1640816047916971  0.0575129599004569
  0.6658354685300907  0.1646159753676812  0.5480701768238561
  0.6544186642868084  0.5000000000000000  0.0510332915666680
  0.6730106333622885  0.5000000000000000  0.5582765696837910
  0.6641400671158024  0.8359183952083029  0.0575129599004569
  0.6658354685300907  0.8353840246323188  0.5480701768238561
  0.4946257793754185  0.0000000000000000  0.1265507909392127
  0.5002957209104508  0.0000000000000000  0.6255981841669183
  0.4971164302364670  0.3316068027793904  0.1275212431224944
  0.5054461558834547  0.3343550053213846  0.6305816937923794
  0.4971164302364670  0.6683931972206096  0.1275212431224944
  0.5054461558834547  0.6656449946786154  0.6305816937923794
  0.9933356331458683  0.1758088769905584  0.3845762893909352
  0.0141908700769733  0.1813473780900381  0.8731072394219197
  0.0023099257450880  0.5000000000000000  0.3849250209849018
  0.9575480570938595  0.5000000000000000  0.8678833150947085
  0.9933356331458683  0.8241911230094416  0.3845762893909352
  0.0141908700769733  0.8186526219099619  0.8731072394219197
  0.1757402505207111  0.0000000000000000  0.7808553455122720
  0.1791396279712387  0.3415318435028283  0.2906980254346649
  0.1756696500906827  0.3251092951401375  0.7693867119745974
  0.1791396279712387  0.6584681564971717  0.2906980254346649
  0.1756696500906827  0.6748907048598625  0.7693867119745974
  0.3336684836563961  0.1728403884153167  0.2250054153403411
  0.3352304247059266  0.1664834403550159  0.7225051481188842
  0.3328185120236000  0.5000000000000000  0.2239922639395502
  0.3322417086018703  0.5000000000000000  0.7190911232605472
  0.3336684836563961  0.8271596115846833  0.2250054153403411
  0.3352304247059266  0.8335165596449841  0.7225051481188842
  0.3440570880146510  0.1725399539797507  0.4517941489564521
  0.3305844864370542  0.1667603278351066  0.9457240622452332
  0.3417015135392205  0.5000000000000000  0.4483300331197668
  0.3411751509287200  0.5000000000000000  0.9423916848077027
  0.3440570880146510  0.8274600460202421  0.4517941489564521
  0.3305844864370542  0.8332396721648934  0.9457240622452332
  0.1690881022392574  0.0000000000000000  0.0458077874504212
  0.1840772904043959  0.0000000000000000  0.5589232168093687
  0.1732120645613477  0.3258633656766818  0.0629866316261811
  0.1751354607345164  0.3350551530943378  0.5484842562751879
  0.1732120645613477  0.6741366343233182  0.0629866316261811
  0.1751354607345164  0.6649448469056622  0.5484842562751879
  0.1352504521057227  0.0000000000000000  0.3003819799791714
 
  0.00000000E+00  0.00000000E+00  0.00000000E+00
  0.00000000E+00  0.00000000E+00  0.00000000E+00
  0.00000000E+00  0.00000000E+00  0.00000000E+00
  0.00000000E+00  0.00000000E+00  0.00000000E+00
  0.00000000E+00  0.00000000E+00  0.00000000E+00
  0.00000000E+00  0.00000000E+00  0.00000000E+00
  0.00000000E+00  0.00000000E+00  0.00000000E+00
  0.00000000E+00  0.00000000E+00  0.00000000E+00
  0.00000000E+00  0.00000000E+00  0.00000000E+00
  0.00000000E+00  0.00000000E+00  0.00000000E+00
  0.00000000E+00  0.00000000E+00  0.00000000E+00
  0.00000000E+00  0.00000000E+00  0.00000000E+00
  0.00000000E+00  0.00000000E+00  0.00000000E+00
  0.00000000E+00  0.00000000E+00  0.00000000E+00
  0.00000000E+00  0.00000000E+00  0.00000000E+00
  0.00000000E+00  0.00000000E+00  0.00000000E+00
  0.00000000E+00  0.00000000E+00  0.00000000E+00
  0.00000000E+00  0.00000000E+00  0.00000000E+00
  0.00000000E+00  0.00000000E+00  0.00000000E+00
  0.00000000E+00  0.00000000E+00  0.00000000E+00
  0.00000000E+00  0.00000000E+00  0.00000000E+00
  0.00000000E+00  0.00000000E+00  0.00000000E+00
  0.00000000E+00  0.00000000E+00  0.00000000E+00
  0.00000000E+00  0.00000000E+00  0.00000000E+00
  0.00000000E+00  0.00000000E+00  0.00000000E+00
  0.00000000E+00  0.00000000E+00  0.00000000E+00
  0.00000000E+00  0.00000000E+00  0.00000000E+00
  0.00000000E+00  0.00000000E+00  0.00000000E+00
  0.00000000E+00  0.00000000E+00  0.00000000E+00
  0.00000000E+00  0.00000000E+00  0.00000000E+00
  0.00000000E+00  0.00000000E+00  0.00000000E+00
  0.00000000E+00  0.00000000E+00  0.00000000E+00
  0.00000000E+00  0.00000000E+00  0.00000000E+00
  0.00000000E+00  0.00000000E+00  0.00000000E+00
  0.00000000E+00  0.00000000E+00  0.00000000E+00
  0.00000000E+00  0.00000000E+00  0.00000000E+00
  0.00000000E+00  0.00000000E+00  0.00000000E+00
  0.00000000E+00  0.00000000E+00  0.00000000E+00
  0.00000000E+00  0.00000000E+00  0.00000000E+00
  0.00000000E+00  0.00000000E+00  0.00000000E+00
  0.00000000E+00  0.00000000E+00  0.00000000E+00
  0.00000000E+00  0.00000000E+00  0.00000000E+00
  0.00000000E+00  0.00000000E+00  0.00000000E+00
  0.00000000E+00  0.00000000E+00  0.00000000E+00
  0.00000000E+00  0.00000000E+00  0.00000000E+00
  0.00000000E+00  0.00000000E+00  0.00000000E+00
  0.00000000E+00  0.00000000E+00  0.00000000E+00
  0.00000000E+00  0.00000000E+00  0.00000000E+00
  0.00000000E+00  0.00000000E+00  0.00000000E+00
  0.00000000E+00  0.00000000E+00  0.00000000E+00
  0.00000000E+00  0.00000000E+00  0.00000000E+00
  0.00000000E+00  0.00000000E+00  0.00000000E+00
  0.00000000E+00  0.00000000E+00  0.00000000E+00
  0.00000000E+00  0.00000000E+00  0.00000000E+00
  0.00000000E+00  0.00000000E+00  0.00000000E+00
  0.00000000E+00  0.00000000E+00  0.00000000E+00
  0.00000000E+00  0.00000000E+00  0.00000000E+00
  0.00000000E+00  0.00000000E+00  0.00000000E+00
  0.00000000E+00  0.00000000E+00  0.00000000E+00
  0.00000000E+00  0.00000000E+00  0.00000000E+00
  0.00000000E+00  0.00000000E+00  0.00000000E+00
  0.00000000E+00  0.00000000E+00  0.00000000E+00
  0.00000000E+00  0.00000000E+00  0.00000000E+00
  0.00000000E+00  0.00000000E+00  0.00000000E+00
  0.00000000E+00  0.00000000E+00  0.00000000E+00
  0.00000000E+00  0.00000000E+00  0.00000000E+00
  0.00000000E+00  0.00000000E+00  0.00000000E+00
  0.00000000E+00  0.00000000E+00  0.00000000E+00
  0.00000000E+00  0.00000000E+00  0.00000000E+00
  0.00000000E+00  0.00000000E+00  0.00000000E+00
  0.00000000E+00  0.00000000E+00  0.00000000E+00
  0.00000000E+00  0.00000000E+00  0.00000000E+00
  0.00000000E+00  0.00000000E+00  0.00000000E+00
  0.00000000E+00  0.00000000E+00  0.00000000E+00
  0.00000000E+00  0.00000000E+00  0.00000000E+00
  0.00000000E+00  0.00000000E+00  0.00000000E+00
  0.00000000E+00  0.00000000E+00  0.00000000E+00
  0.00000000E+00  0.00000000E+00  0.00000000E+00
  0.00000000E+00  0.00000000E+00  0.00000000E+00
  0.00000000E+00  0.00000000E+00  0.00000000E+00
  0.00000000E+00  0.00000000E+00  0.00000000E+00
  0.00000000E+00  0.00000000E+00  0.00000000E+00
  0.00000000E+00  0.00000000E+00  0.00000000E+00
  0.00000000E+00  0.00000000E+00  0.00000000E+00
  0.00000000E+00  0.00000000E+00  0.00000000E+00
  0.00000000E+00  0.00000000E+00  0.00000000E+00
  0.00000000E+00  0.00000000E+00  0.00000000E+00
  0.00000000E+00  0.00000000E+00  0.00000000E+00
  0.00000000E+00  0.00000000E+00  0.00000000E+00
  0.00000000E+00  0.00000000E+00  0.00000000E+00
  0.00000000E+00  0.00000000E+00  0.00000000E+00
  0.00000000E+00  0.00000000E+00  0.00000000E+00
  0.00000000E+00  0.00000000E+00  0.00000000E+00
  0.00000000E+00  0.00000000E+00  0.00000000E+00
  0.00000000E+00  0.00000000E+00  0.00000000E+00
  0.00000000E+00  0.00000000E+00  0.00000000E+00
  0.00000000E+00  0.00000000E+00  0.00000000E+00
  0.00000000E+00  0.00000000E+00  0.00000000E+00
  0.00000000E+00  0.00000000E+00  0.00000000E+00
  0.00000000E+00  0.00000000E+00  0.00000000E+00
  0.00000000E+00  0.00000000E+00  0.00000000E+00
  0.00000000E+00  0.00000000E+00  0.00000000E+00
  0.00000000E+00  0.00000000E+00  0.00000000E+00
  0.00000000E+00  0.00000000E+00  0.00000000E+00
  0.00000000E+00  0.00000000E+00  0.00000000E+00
  0.00000000E+00  0.00000000E+00  0.00000000E+00
  0.00000000E+00  0.00000000E+00  0.00000000E+00
  0.00000000E+00  0.00000000E+00  0.00000000E+00
  0.00000000E+00  0.00000000E+00  0.00000000E+00
  0.00000000E+00  0.00000000E+00  0.00000000E+00
  0.00000000E+00  0.00000000E+00  0.00000000E+00
  0.00000000E+00  0.00000000E+00  0.00000000E+00
  0.00000000E+00  0.00000000E+00  0.00000000E+00
  0.00000000E+00  0.00000000E+00  0.00000000E+00
  0.00000000E+00  0.00000000E+00  0.00000000E+00
  0.00000000E+00  0.00000000E+00  0.00000000E+00
  0.00000000E+00  0.00000000E+00  0.00000000E+00
  0.00000000E+00  0.00000000E+00  0.00000000E+00
  0.00000000E+00  0.00000000E+00  0.00000000E+00
