Ga48 O72                                
    1.000000000000000     
     0.0000000000000000   12.2804734172212839    0.0000000000000000
     9.1427020537309431    0.0000000000000000    0.0000000000000000
     0.0000000000000000   -2.7682617730220320  -11.3006977184464645
   Ga   O    P 
    47    71     1
Direct
  0.6586632057384645 -0.0000000000000000  0.1583076076596824
  0.6645943683713992 -0.0000000000000000  0.6522137290738766
  0.6587965378543819  0.3329481906535684  0.1565060717869785
  0.6684431045583087  0.3300508464443795  0.6579002112962973
  0.6587965378543819  0.6670518093464315  0.1565060717869785
  0.6684431045583087  0.6699491535556211  0.6579002112962973
  0.8416034165167517  0.1677658229089020  0.3431117466722468
  0.8527186819451219  0.1660739680302937  0.8383946275804349
  0.8405674348733992  0.5000000000000000  0.3444225556742734
  0.8187029233518652  0.5000000000000000  0.8966720979063123
  0.8416034165167517  0.8322341770910980  0.3431117466722468
  0.8527186819451219  0.8339260319697072  0.8383946275804349
  0.5861102425706296  0.1639117296626392  0.3935779657115237
  0.6016004660748944  0.1640355224659928  0.8962973400107307
  0.5974786359374262  0.5000000000000000  0.4012370305068757
  0.5801884727612812  0.5000000000000000  0.8918948680804477
  0.5861102425706296  0.8360882703373611  0.3935779657115237
  0.6016004660748944  0.8359644775340069  0.8962973400107307
  0.9171094517286041 -0.0000000000000000  0.1052251634219390
  0.9164202423095065 -0.0000000000000000  0.5931070845832941
  0.8967508017387491  0.3616490976872063  0.0922027053902700
  0.9110895589688887  0.3332405667952496  0.5998272956123241
  0.8967508017387491  0.6383509023127939  0.0922027053902700
  0.9110895589688887  0.6667594332047503  0.5998272956123241
  0.1495773511251766  0.1636023746718770  0.1571363800192552
  0.1638124634478262  0.1623386134779713  0.6460449192000807
  0.1678730868261577  0.5000000000000000  0.1606185733626993
  0.1638817993341391  0.5000000000000000  0.6525972693118760
  0.1495773511251766  0.8363976253281229  0.1571363800192552
  0.1638124634478262  0.8376613865220294  0.6460449192000807
  0.3262687967602714 -0.0000000000000000  0.3450514447529235
  0.3415675998612078 -0.0000000000000000  0.8440502398199414
  0.3416688103583682  0.3321414047774227  0.3451788062095128
  0.3385186424478333  0.3298451896956957  0.8406033932808590
  0.3416688103583682  0.6678585952225780  0.3451788062095128
  0.3385186424478333  0.6701548103043047  0.8406033932808590
  0.0894209052913632 -0.0000000000000000  0.8919110989854901
  0.0863851319427241  0.3262344655076625  0.3942033212446764
  0.0966354685375930  0.3689289079097702  0.8994807670546109
  0.0863851319427241  0.6737655344923371  0.3942033212446764
  0.0966354685375930  0.6310710920902304  0.8994807670546109
  0.4048218766200835  0.1670470033930216  0.1031602799621813
  0.4155931832608399  0.1681751215324667  0.6068381628340794
  0.4095151127986335  0.5000000000000000  0.1021911045768040
  0.4156506043902571  0.5000000000000000  0.6040618316185268
  0.4048218766200835  0.8329529966069789  0.1031602799621813
  0.4155931832608398  0.8318248784675334  0.6068381628340794
  0.9812657109847807  0.1866827643168132  0.1121197682230138
  0.0020941184848738  0.1678006078292775  0.6265106328763351
  0.0177020146920260  0.5000000000000000  0.1556773504479969
  0.0016220010443904  0.5000000000000000  0.6294877971938752
  0.9812657109847807  0.8133172356831867  0.1121197682230138
  0.0020941184848738  0.8321993921707225  0.6265106328763351
  0.4950921255266880 -0.0000000000000000  0.3700511979498483
  0.5052043001783845 -0.0000000000000000  0.8747767431862316
  0.5053942243551890  0.3364716351398309  0.3736754749248258
  0.5029059778360100  0.3250982631229890  0.8717443578290734
  0.5053942243551890  0.6635283648601691  0.3736754749248258
  0.5029059778360100  0.6749017368770123  0.8717443578290734
  0.6707867335341972  0.1650555527811818  0.2793289030321631
  0.6707078248000573  0.1578201222752741  0.7694603313716359
  0.6694908225320898  0.5000000000000000  0.2770022833058527
  0.6740594549869252  0.5000000000000000  0.7816754366174139
  0.6707867335341972  0.8349444472188174  0.2793289030321631
  0.6707078248000573  0.8421798777247260  0.7694603313716359
  0.8272990560959788 -0.0000000000000000  0.2169078523970580
  0.8363305666846431 -0.0000000000000000  0.7155007099983482
  0.8239513249658453  0.3352398438189269  0.2209043870903192
  0.8277149087785242  0.3130038535234408  0.7111815161451627
  0.8239513249658453  0.6647601561810724  0.2209043870903192
  0.8277149087785242  0.6869961464765589  0.7111815161451627
  0.8225938956872215 -0.0000000000000000  0.4433244810410830
  0.8448873987116233 -0.0000000000000000  0.9420275940772194
  0.8203865672748277  0.3369876860600635  0.4464417390303197
  0.8004247410513515  0.2960351212081396  0.9395015167550641
  0.8203865672748277  0.6630123139399360  0.4464417390303197
  0.8004247410513515  0.7039648787918608  0.9395015167550641
  0.6641400671158000  0.1640816047916945  0.0575129599004600
  0.6658354685300909  0.1646159753676847  0.5480701768238539
  0.6544186642868084  0.5000000000000000  0.0510332915666701
  0.6730106333622874  0.5000000000000000  0.5582765696837917
  0.6641400671158000  0.8359183952083058  0.0575129599004600
  0.6658354685300909  0.8353840246323156  0.5480701768238539
  0.4946257793754166 -0.0000000000000000  0.1265507909392135
  0.5002957209104500 -0.0000000000000000  0.6255981841669213
  0.4971164302364661  0.3316068027793905  0.1275212431224974
  0.5054461558834521  0.3343550053213828  0.6305816937923764
  0.4971164302364661  0.6683931972206093  0.1275212431224974
  0.5054461558834521  0.6656449946786179  0.6305816937923764
 -0.0066643668541303  0.1758088769905613  0.3845762893909336
  0.0141908700769722  0.1813473780900396  0.8731072394219165
  0.0023099257450859  0.5000000000000000  0.3849250209848987
 -0.0424519429061412  0.5000000000000000  0.8678833150947070
 -0.0066643668541303  0.8241911230094391  0.3845762893909336
  0.0141908700769722  0.8186526219099608  0.8731072394219165
  0.1757402505207083 -0.0000000000000000  0.7808553455122713
  0.1791396279712361  0.3415318435028286  0.2906980254346672
  0.1756696500906834  0.3251092951401384  0.7693867119745962
  0.1791396279712361  0.6584681564971714  0.2906980254346672
  0.1756696500906834  0.6748907048598610  0.7693867119745962
  0.3336684836563971  0.1728403884153159  0.2250054153403426
  0.3352304247059238  0.1664834403550159  0.7225051481188823
  0.3328185120236029  0.5000000000000000  0.2239922639395506
  0.3322417086018724  0.5000000000000000  0.7190911232605441
  0.3336684836563971  0.8271596115846833  0.2250054153403426
  0.3352304247059238  0.8335165596449839  0.7225051481188823
  0.3440570880146475  0.1725399539797543  0.4517941489564534
  0.3305844864370544  0.1667603278351065  0.9457240622452345
  0.3417015135392203  0.5000000000000000  0.4483300331197649
  0.3411751509287195  0.5000000000000000  0.9423916848077057
  0.3440570880146476  0.8274600460202453  0.4517941489564534
  0.3305844864370544  0.8332396721648936  0.9457240622452345
  0.1690881022392582 -0.0000000000000000  0.0458077874504201
  0.1840772904043978 -0.0000000000000000  0.5589232168093693
  0.1732120645613505  0.3258633656766819  0.0629866316261793
  0.1751354607345131  0.3350551530943407  0.5484842562751845
  0.1732120645613505  0.6741366343233182  0.0629866316261793
  0.1751354607345131  0.6649448469056596  0.5484842562751845
  0.1352504521057238 -0.0000000000000000  0.3003819799791712
 
  0.00000000E+00  0.00000000E+00  0.00000000E+00
  0.00000000E+00  0.00000000E+00  0.00000000E+00
  0.00000000E+00  0.00000000E+00  0.00000000E+00
  0.00000000E+00  0.00000000E+00  0.00000000E+00
  0.00000000E+00  0.00000000E+00  0.00000000E+00
  0.00000000E+00  0.00000000E+00  0.00000000E+00
  0.00000000E+00  0.00000000E+00  0.00000000E+00
  0.00000000E+00  0.00000000E+00  0.00000000E+00
  0.00000000E+00  0.00000000E+00  0.00000000E+00
  0.00000000E+00  0.00000000E+00  0.00000000E+00
  0.00000000E+00  0.00000000E+00  0.00000000E+00
  0.00000000E+00  0.00000000E+00  0.00000000E+00
  0.00000000E+00  0.00000000E+00  0.00000000E+00
  0.00000000E+00  0.00000000E+00  0.00000000E+00
  0.00000000E+00  0.00000000E+00  0.00000000E+00
  0.00000000E+00  0.00000000E+00  0.00000000E+00
  0.00000000E+00  0.00000000E+00  0.00000000E+00
  0.00000000E+00  0.00000000E+00  0.00000000E+00
  0.00000000E+00  0.00000000E+00  0.00000000E+00
  0.00000000E+00  0.00000000E+00  0.00000000E+00
  0.00000000E+00  0.00000000E+00  0.00000000E+00
  0.00000000E+00  0.00000000E+00  0.00000000E+00
  0.00000000E+00  0.00000000E+00  0.00000000E+00
  0.00000000E+00  0.00000000E+00  0.00000000E+00
  0.00000000E+00  0.00000000E+00  0.00000000E+00
  0.00000000E+00  0.00000000E+00  0.00000000E+00
  0.00000000E+00  0.00000000E+00  0.00000000E+00
  0.00000000E+00  0.00000000E+00  0.00000000E+00
  0.00000000E+00  0.00000000E+00  0.00000000E+00
  0.00000000E+00  0.00000000E+00  0.00000000E+00
  0.00000000E+00  0.00000000E+00  0.00000000E+00
  0.00000000E+00  0.00000000E+00  0.00000000E+00
  0.00000000E+00  0.00000000E+00  0.00000000E+00
  0.00000000E+00  0.00000000E+00  0.00000000E+00
  0.00000000E+00  0.00000000E+00  0.00000000E+00
  0.00000000E+00  0.00000000E+00  0.00000000E+00
  0.00000000E+00  0.00000000E+00  0.00000000E+00
  0.00000000E+00  0.00000000E+00  0.00000000E+00
  0.00000000E+00  0.00000000E+00  0.00000000E+00
  0.00000000E+00  0.00000000E+00  0.00000000E+00
  0.00000000E+00  0.00000000E+00  0.00000000E+00
  0.00000000E+00  0.00000000E+00  0.00000000E+00
  0.00000000E+00  0.00000000E+00  0.00000000E+00
  0.00000000E+00  0.00000000E+00  0.00000000E+00
  0.00000000E+00  0.00000000E+00  0.00000000E+00
  0.00000000E+00  0.00000000E+00  0.00000000E+00
  0.00000000E+00  0.00000000E+00  0.00000000E+00
  0.00000000E+00  0.00000000E+00  0.00000000E+00
  0.00000000E+00  0.00000000E+00  0.00000000E+00
  0.00000000E+00  0.00000000E+00  0.00000000E+00
  0.00000000E+00  0.00000000E+00  0.00000000E+00
  0.00000000E+00  0.00000000E+00  0.00000000E+00
  0.00000000E+00  0.00000000E+00  0.00000000E+00
  0.00000000E+00  0.00000000E+00  0.00000000E+00
  0.00000000E+00  0.00000000E+00  0.00000000E+00
  0.00000000E+00  0.00000000E+00  0.00000000E+00
  0.00000000E+00  0.00000000E+00  0.00000000E+00
  0.00000000E+00  0.00000000E+00  0.00000000E+00
  0.00000000E+00  0.00000000E+00  0.00000000E+00
  0.00000000E+00  0.00000000E+00  0.00000000E+00
  0.00000000E+00  0.00000000E+00  0.00000000E+00
  0.00000000E+00  0.00000000E+00  0.00000000E+00
  0.00000000E+00  0.00000000E+00  0.00000000E+00
  0.00000000E+00  0.00000000E+00  0.00000000E+00
  0.00000000E+00  0.00000000E+00  0.00000000E+00
  0.00000000E+00  0.00000000E+00  0.00000000E+00
  0.00000000E+00  0.00000000E+00  0.00000000E+00
  0.00000000E+00  0.00000000E+00  0.00000000E+00
  0.00000000E+00  0.00000000E+00  0.00000000E+00
  0.00000000E+00  0.00000000E+00  0.00000000E+00
  0.00000000E+00  0.00000000E+00  0.00000000E+00
  0.00000000E+00  0.00000000E+00  0.00000000E+00
  0.00000000E+00  0.00000000E+00  0.00000000E+00
  0.00000000E+00  0.00000000E+00  0.00000000E+00
  0.00000000E+00  0.00000000E+00  0.00000000E+00
  0.00000000E+00  0.00000000E+00  0.00000000E+00
  0.00000000E+00  0.00000000E+00  0.00000000E+00
  0.00000000E+00  0.00000000E+00  0.00000000E+00
  0.00000000E+00  0.00000000E+00  0.00000000E+00
  0.00000000E+00  0.00000000E+00  0.00000000E+00
  0.00000000E+00  0.00000000E+00  0.00000000E+00
  0.00000000E+00  0.00000000E+00  0.00000000E+00
  0.00000000E+00  0.00000000E+00  0.00000000E+00
  0.00000000E+00  0.00000000E+00  0.00000000E+00
  0.00000000E+00  0.00000000E+00  0.00000000E+00
  0.00000000E+00  0.00000000E+00  0.00000000E+00
  0.00000000E+00  0.00000000E+00  0.00000000E+00
  0.00000000E+00  0.00000000E+00  0.00000000E+00
  0.00000000E+00  0.00000000E+00  0.00000000E+00
  0.00000000E+00  0.00000000E+00  0.00000000E+00
  0.00000000E+00  0.00000000E+00  0.00000000E+00
  0.00000000E+00  0.00000000E+00  0.00000000E+00
  0.00000000E+00  0.00000000E+00  0.00000000E+00
  0.00000000E+00  0.00000000E+00  0.00000000E+00
  0.00000000E+00  0.00000000E+00  0.00000000E+00
  0.00000000E+00  0.00000000E+00  0.00000000E+00
  0.00000000E+00  0.00000000E+00  0.00000000E+00
  0.00000000E+00  0.00000000E+00  0.00000000E+00
  0.00000000E+00  0.00000000E+00  0.00000000E+00
  0.00000000E+00  0.00000000E+00  0.00000000E+00
  0.00000000E+00  0.00000000E+00  0.00000000E+00
  0.00000000E+00  0.00000000E+00  0.00000000E+00
  0.00000000E+00  0.00000000E+00  0.00000000E+00
  0.00000000E+00  0.00000000E+00  0.00000000E+00
  0.00000000E+00  0.00000000E+00  0.00000000E+00
  0.00000000E+00  0.00000000E+00  0.00000000E+00
  0.00000000E+00  0.00000000E+00  0.00000000E+00
  0.00000000E+00  0.00000000E+00  0.00000000E+00
  0.00000000E+00  0.00000000E+00  0.00000000E+00
  0.00000000E+00  0.00000000E+00  0.00000000E+00
  0.00000000E+00  0.00000000E+00  0.00000000E+00
  0.00000000E+00  0.00000000E+00  0.00000000E+00
  0.00000000E+00  0.00000000E+00  0.00000000E+00
  0.00000000E+00  0.00000000E+00  0.00000000E+00
  0.00000000E+00  0.00000000E+00  0.00000000E+00
  0.00000000E+00  0.00000000E+00  0.00000000E+00
  0.00000000E+00  0.00000000E+00  0.00000000E+00
  0.00000000E+00  0.00000000E+00  0.00000000E+00
  0.00000000E+00  0.00000000E+00  0.00000000E+00
