Ga8 O12                                 
    1.000000000000000     
     0.0000000000000000   12.2804737091000007    0.0000000000000000
     9.1427011490000005    0.0000000000000000    0.0000000000000000
     0.0000000000000000   -2.7682616411000001  -11.3006974810000003
   Ga   O    N    Fe
    47    71     1     1
Direct
  0.6588435112468076  0.0002283986899201  0.1567276269844271
  0.6583610903526420  0.9995843298360469  0.6565403848740416
  0.6592337055196680  0.3330263203727313  0.1564424946301060
  0.6591720908145788  0.3326136455667879  0.6564935594508583
  0.6590705197742821  0.6663432987894637  0.1565273640113460
  0.6572431316849929  0.6650129509108851  0.6558501759085473
  0.8406534865515596  0.1666330261003495  0.3437786628215491
  0.8407910400912968  0.1661424597684587  0.8435285271020305
  0.8410218428442349  0.4993658428492580  0.3434801357066135
  0.8407620505845514  0.4999883223424746  0.8432752367768543
  0.8409305048547608  0.8334066522997361  0.3433106399775880
  0.8404183014621083  0.8330759688739633  0.8431134534957252
  0.5885430552037789  0.1665576190571088  0.3972448191754481
  0.5910014754695538  0.1666195903164507  0.8976750281466579
  0.5887801457731214  0.4982017179972047  0.3958496375473359
  0.5910129336411813  0.4997955299962342  0.8975133803141162
  0.5919078658555890  0.8335468752031545  0.3977382905775073
  0.5909754133217788  0.8331898883602022  0.8978201978265901
  0.9094854065774527  0.0009644246206122  0.1028208628305833
  0.9095408037908257  0.9995127200450966  0.6027523132201438
  0.9091771044995198  0.3335048193027106  0.1025111054974133
  0.9092063524645724  0.3328685514043812  0.6025670275597292
  0.9093608787513077  0.6668622175604924  0.1025876508649262
  0.9085071519372789  0.6665774944341862  0.6024603924259324
  0.1607162277619807  0.1670347005851625  0.1567007940788514
  0.1597729654595383  0.1664456017054974  0.6572594251557788
  0.1595705618711136  0.5012636999072555  0.1559531745363287
  0.1584907853429272  0.4999255086282659  0.6578597034433713
  0.1592250112002418  0.8341692150329294  0.1571282955329494
  0.1597842758339709  0.8328135387325588  0.6564223456523877
  0.3408662902727144  0.0061761003284673  0.3445325874030871
  0.3412119878578252  0.0000548276596106  0.8437055397525910
  0.3409382721304510  0.3327720827548717  0.8447080165183749
  0.3416391351265915  0.6704198063873292  0.3424766455548038
  0.3410870809833639  0.6665072358035928  0.8442166742711521
  0.0912195491440855  0.0001527314126903  0.3976882348831978
  0.0911313030294494  0.9998133596936185  0.8976456084947770
  0.0926580468103211  0.3322878378781766  0.3982457651995617
  0.0904464165300283  0.3330250960437979  0.8977220454484822
  0.0899613119668174  0.6666515823407266  0.3971899719388290
  0.0906760375713560  0.6669220885241245  0.8974442093039841
  0.4085121546900083  0.1670474309780730  0.1040728605298256
  0.4087617182348637  0.1675207809400447  0.6012902399185478
  0.4093888261485077  0.4989346541021149  0.1030982757654115
  0.4055736123890057  0.4947653593311259  0.6031242571473641
  0.4089865917060465  0.8332899720362690  0.1027668973454325
  0.4086935027649687  0.8322286099969745  0.6020984265013496
  0.9975818238987699  0.1675510210798521  0.1283658609219032
  0.9969210415713192  0.1663872764023893  0.6272500420814282
  0.9969042508436416  0.4999401840183992  0.1277141768840124
  0.9962178309779546  0.5000110895317817  0.6271066011590349
  0.9964703076588819  0.8338900887081593  0.1274662246292877
  0.9970212607133746  0.8325593546715098  0.6268530609382523
  0.5031856033428568  0.9990109399645419  0.3726238676629166
  0.5036778021983395  0.9999070971317536  0.8729374869485724
  0.4989992865477433  0.3318189515934904  0.3687143346019894
  0.5036267107371302  0.3332186777425221  0.8738414396194614
  0.5048667007618093  0.6673187591881344  0.3712813968470954
  0.5036236934746086  0.6664714083271122  0.8724285864820018
  0.6718987497366626  0.1671215568256343  0.2811365850247611
  0.6729807856997922  0.1656697896140500  0.7808599096849491
  0.6723643417667020  0.4990912892713411  0.2804003350409232
  0.6726844499866615  0.4999732197947537  0.7803827578772342
  0.6730344824876937  0.8336113264928571  0.2803709290458301
  0.6718895676618644  0.8325044315991263  0.7801554132266304
  0.8275586163894815  0.0006788021108335  0.2197880569281807
  0.8272360770336888  0.9994013591774475  0.7192396732435355
  0.8275425903927314  0.3329977679013467  0.2196301329658183
  0.8273410161850450  0.3328933593397636  0.7193448309895416
  0.8276606592988998  0.6662391980893574  0.2196820090075846
  0.8266063712567018  0.6661001843646730  0.7189834656123608
  0.8324330211839808  0.9998048974863067  0.4461951654923837
  0.8324790024844404  0.9997799521335011  0.9461716418026214
  0.8323998694730221  0.3331570938930000  0.4460862748664596
  0.8324505524125598  0.3332208289711218  0.9458718819573519
  0.8325321138309718  0.6663646262437197  0.4456267280425905
  0.8324886662404580  0.6666099672758676  0.9459524427579424
  0.6683289717661651  0.1663598585396073  0.0542732423274188
  0.6668335083999750  0.1663342708317828  0.5535314130486739
  0.6682235555174714  0.4999724752492298  0.0540843764445924
  0.6660719185594175  0.4984290967301064  0.5526445768301613
  0.6678144643389956  0.8333059776862299  0.0544004889162863
  0.6671950302428939  0.8324489960134258  0.5546077550597985
  0.4962120393436251  0.0002303019611603  0.1276544214743254
  0.4956273165334579  0.9996675320722019  0.6269058578383166
  0.4969301048484667  0.3328525280129995  0.1265751221636222
  0.4980030128712798  0.3322303199912824  0.6316533578779939
  0.4963534876308273  0.6663485413282260  0.1271233831658023
  0.4938045626177825  0.6630701859259389  0.6253051635484326
  0.0039757126635038  0.1670352418669054  0.3728330903215280
  0.0033410647459959  0.1661895663840767  0.8726859763821082
  0.0042212540201945  0.4985178046234608  0.3724802792895900
  0.0034427077706241  0.5000583671191947  0.8725141090353716
  0.0034669463333330  0.8337198412663724  0.3730972217575186
  0.0032601419087754  0.8334766473632413  0.8723105552902126
  0.1725452251392596  0.0013757882583789  0.2806129639815680
  0.1727144813056825  0.9995736944145506  0.7805537902250634
  0.1769636555624956  0.3345470059159013  0.2821307693360424
  0.1721632371871209  0.3327116858056343  0.7808534145140413
  0.1714394839533995  0.6674334761987097  0.2802231684219549
  0.1721905043823782  0.6666833798667184  0.7802183003823089
  0.3277377332298741  0.1697460560987736  0.2216333557179979
  0.3277198093898477  0.1666004274938260  0.7198636476929252
  0.3266883751506811  0.4999913324790128  0.2190546666157829
  0.3267304314787935  0.4992945907902921  0.7216136931658852
  0.3272460350287218  0.8345008703638186  0.2195927110972917
  0.3275163933716456  0.8326411999989745  0.7197459228631828
  0.3321444786928680  0.1755335805679579  0.4449800525564243
  0.3321991900016528  0.1662717482015026  0.9467497934103903
  0.3319450476391523  0.4999652341346774  0.9465879655107727
  0.3319474920216479  0.8370885768158658  0.4455303385027207
  0.3323042033054691  0.8332948030211114  0.9460362788755887
  0.1682102662112683  0.0002790501174346  0.0542350725087104
  0.1683431187957609  0.0000470896670421  0.5542259343020390
  0.1673615838707150  0.3335477646002190  0.0541426315428168
  0.1685944068171779  0.3343038037852608  0.5548861794369628
  0.1678971345337104  0.6676835842447133  0.0538880028271009
  0.1696995378061175  0.6649254763543624  0.5533718360684077
  0.3399285675099506  0.4897869959027261  0.4376661106120281
  0.3386750333604027  0.3447762474915308  0.3425027346150813
 
  0.00000000E+00  0.00000000E+00  0.00000000E+00
  0.00000000E+00  0.00000000E+00  0.00000000E+00
  0.00000000E+00  0.00000000E+00  0.00000000E+00
  0.00000000E+00  0.00000000E+00  0.00000000E+00
  0.00000000E+00  0.00000000E+00  0.00000000E+00
  0.00000000E+00  0.00000000E+00  0.00000000E+00
  0.00000000E+00  0.00000000E+00  0.00000000E+00
  0.00000000E+00  0.00000000E+00  0.00000000E+00
  0.00000000E+00  0.00000000E+00  0.00000000E+00
  0.00000000E+00  0.00000000E+00  0.00000000E+00
  0.00000000E+00  0.00000000E+00  0.00000000E+00
  0.00000000E+00  0.00000000E+00  0.00000000E+00
  0.00000000E+00  0.00000000E+00  0.00000000E+00
  0.00000000E+00  0.00000000E+00  0.00000000E+00
  0.00000000E+00  0.00000000E+00  0.00000000E+00
  0.00000000E+00  0.00000000E+00  0.00000000E+00
  0.00000000E+00  0.00000000E+00  0.00000000E+00
  0.00000000E+00  0.00000000E+00  0.00000000E+00
  0.00000000E+00  0.00000000E+00  0.00000000E+00
  0.00000000E+00  0.00000000E+00  0.00000000E+00
  0.00000000E+00  0.00000000E+00  0.00000000E+00
  0.00000000E+00  0.00000000E+00  0.00000000E+00
  0.00000000E+00  0.00000000E+00  0.00000000E+00
  0.00000000E+00  0.00000000E+00  0.00000000E+00
  0.00000000E+00  0.00000000E+00  0.00000000E+00
  0.00000000E+00  0.00000000E+00  0.00000000E+00
  0.00000000E+00  0.00000000E+00  0.00000000E+00
  0.00000000E+00  0.00000000E+00  0.00000000E+00
  0.00000000E+00  0.00000000E+00  0.00000000E+00
  0.00000000E+00  0.00000000E+00  0.00000000E+00
  0.00000000E+00  0.00000000E+00  0.00000000E+00
  0.00000000E+00  0.00000000E+00  0.00000000E+00
  0.00000000E+00  0.00000000E+00  0.00000000E+00
  0.00000000E+00  0.00000000E+00  0.00000000E+00
  0.00000000E+00  0.00000000E+00  0.00000000E+00
  0.00000000E+00  0.00000000E+00  0.00000000E+00
  0.00000000E+00  0.00000000E+00  0.00000000E+00
  0.00000000E+00  0.00000000E+00  0.00000000E+00
  0.00000000E+00  0.00000000E+00  0.00000000E+00
  0.00000000E+00  0.00000000E+00  0.00000000E+00
  0.00000000E+00  0.00000000E+00  0.00000000E+00
  0.00000000E+00  0.00000000E+00  0.00000000E+00
  0.00000000E+00  0.00000000E+00  0.00000000E+00
  0.00000000E+00  0.00000000E+00  0.00000000E+00
  0.00000000E+00  0.00000000E+00  0.00000000E+00
  0.00000000E+00  0.00000000E+00  0.00000000E+00
  0.00000000E+00  0.00000000E+00  0.00000000E+00
  0.00000000E+00  0.00000000E+00  0.00000000E+00
  0.00000000E+00  0.00000000E+00  0.00000000E+00
  0.00000000E+00  0.00000000E+00  0.00000000E+00
  0.00000000E+00  0.00000000E+00  0.00000000E+00
  0.00000000E+00  0.00000000E+00  0.00000000E+00
  0.00000000E+00  0.00000000E+00  0.00000000E+00
  0.00000000E+00  0.00000000E+00  0.00000000E+00
  0.00000000E+00  0.00000000E+00  0.00000000E+00
  0.00000000E+00  0.00000000E+00  0.00000000E+00
  0.00000000E+00  0.00000000E+00  0.00000000E+00
  0.00000000E+00  0.00000000E+00  0.00000000E+00
  0.00000000E+00  0.00000000E+00  0.00000000E+00
  0.00000000E+00  0.00000000E+00  0.00000000E+00
  0.00000000E+00  0.00000000E+00  0.00000000E+00
  0.00000000E+00  0.00000000E+00  0.00000000E+00
  0.00000000E+00  0.00000000E+00  0.00000000E+00
  0.00000000E+00  0.00000000E+00  0.00000000E+00
  0.00000000E+00  0.00000000E+00  0.00000000E+00
  0.00000000E+00  0.00000000E+00  0.00000000E+00
  0.00000000E+00  0.00000000E+00  0.00000000E+00
  0.00000000E+00  0.00000000E+00  0.00000000E+00
  0.00000000E+00  0.00000000E+00  0.00000000E+00
  0.00000000E+00  0.00000000E+00  0.00000000E+00
  0.00000000E+00  0.00000000E+00  0.00000000E+00
  0.00000000E+00  0.00000000E+00  0.00000000E+00
  0.00000000E+00  0.00000000E+00  0.00000000E+00
  0.00000000E+00  0.00000000E+00  0.00000000E+00
  0.00000000E+00  0.00000000E+00  0.00000000E+00
  0.00000000E+00  0.00000000E+00  0.00000000E+00
  0.00000000E+00  0.00000000E+00  0.00000000E+00
  0.00000000E+00  0.00000000E+00  0.00000000E+00
  0.00000000E+00  0.00000000E+00  0.00000000E+00
  0.00000000E+00  0.00000000E+00  0.00000000E+00
  0.00000000E+00  0.00000000E+00  0.00000000E+00
  0.00000000E+00  0.00000000E+00  0.00000000E+00
  0.00000000E+00  0.00000000E+00  0.00000000E+00
  0.00000000E+00  0.00000000E+00  0.00000000E+00
  0.00000000E+00  0.00000000E+00  0.00000000E+00
  0.00000000E+00  0.00000000E+00  0.00000000E+00
  0.00000000E+00  0.00000000E+00  0.00000000E+00
  0.00000000E+00  0.00000000E+00  0.00000000E+00
  0.00000000E+00  0.00000000E+00  0.00000000E+00
  0.00000000E+00  0.00000000E+00  0.00000000E+00
  0.00000000E+00  0.00000000E+00  0.00000000E+00
  0.00000000E+00  0.00000000E+00  0.00000000E+00
  0.00000000E+00  0.00000000E+00  0.00000000E+00
  0.00000000E+00  0.00000000E+00  0.00000000E+00
  0.00000000E+00  0.00000000E+00  0.00000000E+00
  0.00000000E+00  0.00000000E+00  0.00000000E+00
  0.00000000E+00  0.00000000E+00  0.00000000E+00
  0.00000000E+00  0.00000000E+00  0.00000000E+00
  0.00000000E+00  0.00000000E+00  0.00000000E+00
  0.00000000E+00  0.00000000E+00  0.00000000E+00
  0.00000000E+00  0.00000000E+00  0.00000000E+00
  0.00000000E+00  0.00000000E+00  0.00000000E+00
  0.00000000E+00  0.00000000E+00  0.00000000E+00
  0.00000000E+00  0.00000000E+00  0.00000000E+00
  0.00000000E+00  0.00000000E+00  0.00000000E+00
  0.00000000E+00  0.00000000E+00  0.00000000E+00
  0.00000000E+00  0.00000000E+00  0.00000000E+00
  0.00000000E+00  0.00000000E+00  0.00000000E+00
  0.00000000E+00  0.00000000E+00  0.00000000E+00
  0.00000000E+00  0.00000000E+00  0.00000000E+00
  0.00000000E+00  0.00000000E+00  0.00000000E+00
  0.00000000E+00  0.00000000E+00  0.00000000E+00
  0.00000000E+00  0.00000000E+00  0.00000000E+00
  0.00000000E+00  0.00000000E+00  0.00000000E+00
  0.00000000E+00  0.00000000E+00  0.00000000E+00
  0.00000000E+00  0.00000000E+00  0.00000000E+00
  0.00000000E+00  0.00000000E+00  0.00000000E+00
  0.00000000E+00  0.00000000E+00  0.00000000E+00
  0.00000000E+00  0.00000000E+00  0.00000000E+00
  0.00000000E+00  0.00000000E+00  0.00000000E+00
