       N       E                     dE             d eps       ncg     rms          ort
SDA:   1    -0.954174383533E+03   -0.95417E+03    0.00000E+00  5040   0.316E+02 0.000E+00
CGA:   2    -0.959345119646E+03   -0.51707E+01   -0.54006E+01  5040   0.642E+01 0.324E+01
CGA:   3    -0.962381794135E+03   -0.30367E+01   -0.29356E+01  5040   0.243E+01 0.450E+00
CGA:   4    -0.962874334727E+03   -0.49254E+00   -0.49496E+00  5040   0.128E+01 0.547E-01
CGA:   5    -0.963234088920E+03   -0.35975E+00   -0.35623E+00  5040   0.419E+00 0.403E-01
CGA:   6    -0.963336355211E+03   -0.10227E+00   -0.10212E+00  5040   0.183E+00 0.334E-02
CGA:   7    -0.963379349593E+03   -0.42994E-01   -0.42963E-01  5040   0.484E-01 0.106E-02
CGA:   8    -0.963389856503E+03   -0.10507E-01   -0.10507E-01  5040   0.244E-01 0.193E-03
CGA:   9    -0.963395757659E+03   -0.59012E-02   -0.58990E-02  5040   0.149E-01 0.688E-04
CGA:  10    -0.963400120848E+03   -0.43632E-02   -0.43575E-02  5040   0.127E-01 0.641E-04
CGA:  11    -0.963404280135E+03   -0.41593E-02   -0.41485E-02  5040   0.117E-01 0.101E-03
CGA:  12    -0.963408051079E+03   -0.37709E-02   -0.37565E-02  5040   0.111E-01 0.142E-03
CGA:  13    -0.963411465385E+03   -0.34143E-02   -0.34162E-02  5040   0.102E-01-0.175E-04
CGA:  14    -0.963414475564E+03   -0.30102E-02   -0.30172E-02  5040   0.908E-02-0.930E-04
CGA:  15    -0.963417299319E+03   -0.28238E-02   -0.28255E-02  5040   0.725E-02-0.273E-04
CGA:  16    -0.963419139785E+03   -0.18405E-02   -0.18414E-02  5040   0.503E-02-0.496E-04
CGA:  17    -0.963420258383E+03   -0.11186E-02   -0.11178E-02  5040   0.267E-02-0.444E-04
CGA:  18    -0.963420875437E+03   -0.61705E-03   -0.61682E-03  5040   0.158E-02-0.328E-04
CGA:  19    -0.963421263975E+03   -0.38854E-03   -0.38864E-03  5040   0.100E-02-0.112E-04
CGA:  20    -0.963421482794E+03   -0.21882E-03   -0.21900E-03  5040   0.651E-03 0.906E-05
CGA:  21    -0.963421627874E+03   -0.14508E-03   -0.14523E-03  5040   0.380E-03 0.828E-05
CGA:  22    -0.963421717789E+03   -0.89915E-04   -0.89936E-04  5040   0.229E-03 0.465E-05
CGA:  23    -0.963421774645E+03   -0.56856E-04   -0.56826E-04  5040   0.131E-03 0.456E-05
CGA:  24    -0.963421803903E+03   -0.29257E-04   -0.29354E-04  5040   0.729E-04 0.517E-05
CGA:  25    -0.963421818659E+03   -0.14757E-04   -0.14911E-04  5040   0.390E-04 0.381E-05
CGA:  26    -0.963421826460E+03   -0.78007E-05   -0.78806E-05  5040   0.202E-04 0.185E-05
   1 F= -.96342183E+03 E0= -.96342183E+03  d E =-.221719E-16
