Ga8 O12                                 
    1.000000000000000     
     0.0000000000000000   12.2804737091000007    0.0000000000000000
     9.1427011490000005    0.0000000000000000    0.0000000000000000
     0.0000000000000000   -2.7682616411000001  -11.3006974810000003
   Ga   O    N    Fe
    47    71     1     1
Direct
  0.6588435112468062  0.0002283986899223  0.1567276269844243
  0.6583610903526395 -0.0004156701639556  0.6565403848740392
  0.6592337055196662  0.3330263203727278  0.1564424946301034
  0.6591720908145782  0.3326136455667900  0.6564935594508583
  0.6590705197742805  0.6663432987894665  0.1565273640113430
  0.6572431316849929  0.6650129509108840  0.6558501759085449
  0.8406534865515592  0.1666330261003517  0.3437786628215471
  0.8407910400912938  0.1661424597684556  0.8435285271020297
  0.8410218428442331  0.4993658428492574  0.3434801357066167
  0.8407620505845518  0.4999883223424780  0.8432752367768526
  0.8409305048547601  0.8334066522997340  0.3433106399775905
  0.8404183014621085  0.8330759688739656  0.8431134534957259
  0.5885430552037758  0.1665576190571075  0.3972448191754456
  0.5910014754695542  0.1666195903164520  0.8976750281466573
  0.5887801457731234  0.4982017179972054  0.3958496375473375
  0.5910129336411821  0.4997955299962342  0.8975133803141162
  0.5919078658555902  0.8335468752031556  0.3977382905775067
  0.5909754133217814  0.8331898883602007  0.8978201978265901
  0.9094854065774530  0.0009644246206107  0.1028208628305850
  0.9095408037908280 -0.0004872799549041  0.6027523132201453
  0.9091771044995213  0.3335048193027120  0.1025111054974117
  0.9092063524645734  0.3328685514043838  0.6025670275597262
  0.9093608787513043  0.6668622175604939  0.1025876508649239
  0.9085071519372798  0.6665774944341858  0.6024603924259302
  0.1607162277619807  0.1670347005851646  0.1567007940788520
  0.1597729654595416  0.1664456017054946  0.6572594251557763
  0.1595705618711160  0.5012636999072544  0.1559531745363312
  0.1584907853429266  0.4999255086282655  0.6578597034433729
  0.1592250112002392  0.8341692150329322  0.1571282955329469
  0.1597842758339722  0.8328135387325603  0.6564223456523900
  0.3408662902727125  0.0061761003284644  0.3445325874030868
  0.3412119878578243  0.0000548276596139  0.8437055397525887
  0.3409382721304544  0.3327720827548709  0.8447080165183727
  0.3416391351265904  0.6704198063873312  0.3424766455548022
  0.3410870809833635  0.6665072358035896  0.8442166742711529
  0.0912195491440861  0.0001527314126920  0.3976882348832007
  0.0911313030294485 -0.0001866403063831  0.8976456084947783
  0.0926580468103191  0.3322878378781738  0.3982457651995651
  0.0904464165300298  0.3330250960437999  0.8977220454484830
  0.0899613119668174  0.6666515823407273  0.3971899719388300
  0.0906760375713581  0.6669220885241254  0.8974442093039842
  0.4085121546900071  0.1670474309780730  0.1040728605298261
  0.4087617182348670  0.1675207809400455  0.6012902399185487
  0.4093888261485091  0.4989346541021168  0.1030982757654113
  0.4055736123890034  0.4947653593311293  0.6031242571473658
  0.4089865917060473  0.8332899720362695  0.1027668973454290
  0.4086935027649684  0.8322286099969755  0.6020984265013490
  0.9975818238987726  0.1675510210798536  0.1283658609219063
  0.9969210415713168  0.1663872764023876  0.6272500420814247
  0.9969042508436406  0.4999401840183961  0.1277141768840159
  0.9962178309779549  0.5000110895317790  0.6271066011590359
  0.9964703076588791  0.8338900887081612  0.1274662246292853
  0.9970212607133770  0.8325593546715132  0.6268530609382557
  0.5031856033428569 -0.0009890600354609  0.3726238676629166
  0.5036778021983390 -0.0000929028682434  0.8729374869485730
  0.4989992865477433  0.3318189515934889  0.3687143346019930
  0.5036267107371306  0.3332186777425243  0.8738414396194620
  0.5048667007618117  0.6673187591881335  0.3712813968470953
  0.5036236934746056  0.6664714083271122  0.8724285864819986
  0.6718987497366644  0.1671215568256340  0.2811365850247629
  0.6729807856997929  0.1656697896140466  0.7808599096849457
  0.6723643417667026  0.4990912892713442  0.2804003350409258
  0.6726844499866610  0.4999732197947561  0.7803827578772378
  0.6730344824876932  0.8336113264928555  0.2803709290458278
  0.6718895676618667  0.8325044315991256  0.7801554132266274
  0.8275586163894779  0.0006788021108370  0.2197880569281836
  0.8272360770336907 -0.0005986408225554  0.7192396732435326
  0.8275425903927325  0.3329977679013491  0.2196301329658179
  0.8273410161850461  0.3328933593397621  0.7193448309895386
  0.8276606592989005  0.6662391980893565  0.2196820090075857
  0.8266063712567029  0.6661001843646737  0.7189834656123587
  0.8324330211839814 -0.0001951025136912  0.4461951654923821
  0.8324790024844395 -0.0002200478664960  0.9461716418026200
  0.8323998694730242  0.3331570938930009  0.4460862748664607
  0.8324505524125582  0.3332208289711250  0.9458718819573516
  0.8325321138309705  0.6663646262437172  0.4456267280425938
  0.8324886662404594  0.6666099672758684  0.9459524427579442
  0.6683289717661655  0.1663598585396080  0.0542732423274196
  0.6668335083999758  0.1663342708317806  0.5535314130486754
  0.6682235555174679  0.4999724752492303  0.0540843764445955
  0.6660719185594148  0.4984290967301078  0.5526445768301579
  0.6678144643389975  0.8333059776862316  0.0544004889162837
  0.6671950302428917  0.8324489960134251  0.5546077550598005
  0.4962120393436280  0.0002303019611599  0.1276544214743257
  0.4956273165334596 -0.0003324679277952  0.6269058578383145
  0.4969301048484685  0.3328525280130026  0.1265751221636233
  0.4980030128712812  0.3322303199912856  0.6316533578779944
  0.4963534876308304  0.6663485413282257  0.1271233831658054
  0.4938045626177827  0.6630701859259361  0.6253051635484359
  0.0039757126635004  0.1670352418669035  0.3728330903215309
  0.0033410647459927  0.1661895663840772  0.8726859763821065
  0.0042212540201980  0.4985178046234620  0.3724802792895867
  0.0034427077706261  0.5000583671191914  0.8725141090353747
  0.0034669463333297  0.8337198412663729  0.3730972217575202
  0.0032601419087784  0.8334766473632378  0.8723105552902101
  0.1725452251392590  0.0013757882583805  0.2806129639815674
  0.1727144813056827 -0.0004263055854516  0.7805537902250608
  0.1769636555624954  0.3345470059159008  0.2821307693360395
  0.1721632371871236  0.3327116858056376  0.7808534145140391
  0.1714394839533988  0.6674334761987109  0.2802231684219540
  0.1721905043823782  0.6666833798667214  0.7802183003823120
  0.3277377332298715  0.1697460560987721  0.2216333557179951
  0.3277198093898476  0.1666004274938241  0.7198636476929269
  0.3266883751506818  0.4999913324790116  0.2190546666157852
  0.3267304314787906  0.4992945907902951  0.7216136931658846
  0.3272460350287245  0.8345008703638199  0.2195927110972887
  0.3275163933716425  0.8326411999989763  0.7197459228631848
  0.3321444786928653  0.1755335805679569  0.4449800525564260
  0.3321991900016548  0.1662717482014998  0.9467497934103903
  0.3319450476391501  0.4999652341346756  0.9465879655107730
  0.3319474920216480  0.8370885768158670  0.4455303385027204
  0.3323042033054711  0.8332948030211147  0.9460362788755889
  0.1682102662112712  0.0002790501174356  0.0542350725087089
  0.1683431187957630  0.0000470896670412  0.5542259343020388
  0.1673615838707157  0.3335477646002201  0.0541426315428198
  0.1685944068171765  0.3343038037852614  0.5548861794369623
  0.1678971345337091  0.6676835842447124  0.0538880028270983
  0.1696995378061169  0.6649254763543617  0.5533718360684058
  0.3399285675099532  0.4897869959027249  0.4376661106120283
  0.3386750333604063  0.3447762474915327  0.3425027346150845
 
  0.00000000E+00  0.00000000E+00  0.00000000E+00
  0.00000000E+00  0.00000000E+00  0.00000000E+00
  0.00000000E+00  0.00000000E+00  0.00000000E+00
  0.00000000E+00  0.00000000E+00  0.00000000E+00
  0.00000000E+00  0.00000000E+00  0.00000000E+00
  0.00000000E+00  0.00000000E+00  0.00000000E+00
  0.00000000E+00  0.00000000E+00  0.00000000E+00
  0.00000000E+00  0.00000000E+00  0.00000000E+00
  0.00000000E+00  0.00000000E+00  0.00000000E+00
  0.00000000E+00  0.00000000E+00  0.00000000E+00
  0.00000000E+00  0.00000000E+00  0.00000000E+00
  0.00000000E+00  0.00000000E+00  0.00000000E+00
  0.00000000E+00  0.00000000E+00  0.00000000E+00
  0.00000000E+00  0.00000000E+00  0.00000000E+00
  0.00000000E+00  0.00000000E+00  0.00000000E+00
  0.00000000E+00  0.00000000E+00  0.00000000E+00
  0.00000000E+00  0.00000000E+00  0.00000000E+00
  0.00000000E+00  0.00000000E+00  0.00000000E+00
  0.00000000E+00  0.00000000E+00  0.00000000E+00
  0.00000000E+00  0.00000000E+00  0.00000000E+00
  0.00000000E+00  0.00000000E+00  0.00000000E+00
  0.00000000E+00  0.00000000E+00  0.00000000E+00
  0.00000000E+00  0.00000000E+00  0.00000000E+00
  0.00000000E+00  0.00000000E+00  0.00000000E+00
  0.00000000E+00  0.00000000E+00  0.00000000E+00
  0.00000000E+00  0.00000000E+00  0.00000000E+00
  0.00000000E+00  0.00000000E+00  0.00000000E+00
  0.00000000E+00  0.00000000E+00  0.00000000E+00
  0.00000000E+00  0.00000000E+00  0.00000000E+00
  0.00000000E+00  0.00000000E+00  0.00000000E+00
  0.00000000E+00  0.00000000E+00  0.00000000E+00
  0.00000000E+00  0.00000000E+00  0.00000000E+00
  0.00000000E+00  0.00000000E+00  0.00000000E+00
  0.00000000E+00  0.00000000E+00  0.00000000E+00
  0.00000000E+00  0.00000000E+00  0.00000000E+00
  0.00000000E+00  0.00000000E+00  0.00000000E+00
  0.00000000E+00  0.00000000E+00  0.00000000E+00
  0.00000000E+00  0.00000000E+00  0.00000000E+00
  0.00000000E+00  0.00000000E+00  0.00000000E+00
  0.00000000E+00  0.00000000E+00  0.00000000E+00
  0.00000000E+00  0.00000000E+00  0.00000000E+00
  0.00000000E+00  0.00000000E+00  0.00000000E+00
  0.00000000E+00  0.00000000E+00  0.00000000E+00
  0.00000000E+00  0.00000000E+00  0.00000000E+00
  0.00000000E+00  0.00000000E+00  0.00000000E+00
  0.00000000E+00  0.00000000E+00  0.00000000E+00
  0.00000000E+00  0.00000000E+00  0.00000000E+00
  0.00000000E+00  0.00000000E+00  0.00000000E+00
  0.00000000E+00  0.00000000E+00  0.00000000E+00
  0.00000000E+00  0.00000000E+00  0.00000000E+00
  0.00000000E+00  0.00000000E+00  0.00000000E+00
  0.00000000E+00  0.00000000E+00  0.00000000E+00
  0.00000000E+00  0.00000000E+00  0.00000000E+00
  0.00000000E+00  0.00000000E+00  0.00000000E+00
  0.00000000E+00  0.00000000E+00  0.00000000E+00
  0.00000000E+00  0.00000000E+00  0.00000000E+00
  0.00000000E+00  0.00000000E+00  0.00000000E+00
  0.00000000E+00  0.00000000E+00  0.00000000E+00
  0.00000000E+00  0.00000000E+00  0.00000000E+00
  0.00000000E+00  0.00000000E+00  0.00000000E+00
  0.00000000E+00  0.00000000E+00  0.00000000E+00
  0.00000000E+00  0.00000000E+00  0.00000000E+00
  0.00000000E+00  0.00000000E+00  0.00000000E+00
  0.00000000E+00  0.00000000E+00  0.00000000E+00
  0.00000000E+00  0.00000000E+00  0.00000000E+00
  0.00000000E+00  0.00000000E+00  0.00000000E+00
  0.00000000E+00  0.00000000E+00  0.00000000E+00
  0.00000000E+00  0.00000000E+00  0.00000000E+00
  0.00000000E+00  0.00000000E+00  0.00000000E+00
  0.00000000E+00  0.00000000E+00  0.00000000E+00
  0.00000000E+00  0.00000000E+00  0.00000000E+00
  0.00000000E+00  0.00000000E+00  0.00000000E+00
  0.00000000E+00  0.00000000E+00  0.00000000E+00
  0.00000000E+00  0.00000000E+00  0.00000000E+00
  0.00000000E+00  0.00000000E+00  0.00000000E+00
  0.00000000E+00  0.00000000E+00  0.00000000E+00
  0.00000000E+00  0.00000000E+00  0.00000000E+00
  0.00000000E+00  0.00000000E+00  0.00000000E+00
  0.00000000E+00  0.00000000E+00  0.00000000E+00
  0.00000000E+00  0.00000000E+00  0.00000000E+00
  0.00000000E+00  0.00000000E+00  0.00000000E+00
  0.00000000E+00  0.00000000E+00  0.00000000E+00
  0.00000000E+00  0.00000000E+00  0.00000000E+00
  0.00000000E+00  0.00000000E+00  0.00000000E+00
  0.00000000E+00  0.00000000E+00  0.00000000E+00
  0.00000000E+00  0.00000000E+00  0.00000000E+00
  0.00000000E+00  0.00000000E+00  0.00000000E+00
  0.00000000E+00  0.00000000E+00  0.00000000E+00
  0.00000000E+00  0.00000000E+00  0.00000000E+00
  0.00000000E+00  0.00000000E+00  0.00000000E+00
  0.00000000E+00  0.00000000E+00  0.00000000E+00
  0.00000000E+00  0.00000000E+00  0.00000000E+00
  0.00000000E+00  0.00000000E+00  0.00000000E+00
  0.00000000E+00  0.00000000E+00  0.00000000E+00
  0.00000000E+00  0.00000000E+00  0.00000000E+00
  0.00000000E+00  0.00000000E+00  0.00000000E+00
  0.00000000E+00  0.00000000E+00  0.00000000E+00
  0.00000000E+00  0.00000000E+00  0.00000000E+00
  0.00000000E+00  0.00000000E+00  0.00000000E+00
  0.00000000E+00  0.00000000E+00  0.00000000E+00
  0.00000000E+00  0.00000000E+00  0.00000000E+00
  0.00000000E+00  0.00000000E+00  0.00000000E+00
  0.00000000E+00  0.00000000E+00  0.00000000E+00
  0.00000000E+00  0.00000000E+00  0.00000000E+00
  0.00000000E+00  0.00000000E+00  0.00000000E+00
  0.00000000E+00  0.00000000E+00  0.00000000E+00
  0.00000000E+00  0.00000000E+00  0.00000000E+00
  0.00000000E+00  0.00000000E+00  0.00000000E+00
  0.00000000E+00  0.00000000E+00  0.00000000E+00
  0.00000000E+00  0.00000000E+00  0.00000000E+00
  0.00000000E+00  0.00000000E+00  0.00000000E+00
  0.00000000E+00  0.00000000E+00  0.00000000E+00
  0.00000000E+00  0.00000000E+00  0.00000000E+00
  0.00000000E+00  0.00000000E+00  0.00000000E+00
  0.00000000E+00  0.00000000E+00  0.00000000E+00
  0.00000000E+00  0.00000000E+00  0.00000000E+00
  0.00000000E+00  0.00000000E+00  0.00000000E+00
  0.00000000E+00  0.00000000E+00  0.00000000E+00
  0.00000000E+00  0.00000000E+00  0.00000000E+00
  0.00000000E+00  0.00000000E+00  0.00000000E+00
