Ga8 O12                                 
    1.000000000000000     
     0.0000000000000000   12.2804737091000007    0.0000000000000000
     9.1427011490000005    0.0000000000000000    0.0000000000000000
     0.0000000000000000   -2.7682616411000001  -11.3006974810000003
   Ga   O    Fe
    47    72     1
Direct
  0.6586928325896295  0.0000375791232727  0.1567552079006518
  0.6585421501624111  0.9999852060331662  0.6559821669033354
  0.6584355458777935  0.3332471935626486  0.1547793194720555
  0.6574413269087884  0.3311264036264490  0.6597060265693386
  0.6584538753085312  0.6668253795598176  0.1547686893921636
  0.6574286637687976  0.6688568111093005  0.6596977203700831
  0.8400030537554954  0.1668797799444803  0.3428761184129812
  0.8413726429971149  0.1663822880700039  0.8436993121275407
  0.8412199259992974  0.5000170148757590  0.3406183051983334
  0.8408999348269006  0.4999789369068921  0.8436304532692418
  0.8400053268349410  0.8331785771422986  0.3428576649887844
  0.8413837823945585  0.8335735046174619  0.8436840673573869
  0.5913092524937440  0.1696259842405254  0.3975676960758179
  0.5900940676918935  0.1663918626463641  0.8977602871720904
  0.5893742273026206  0.5000152190055971  0.8972681615071494
  0.5913114921762599  0.8303086418685695  0.3975664662052765
  0.5900983196221361  0.8336434878793568  0.8977528971540636
  0.9094601853246544  0.0000248606165982  0.1027610978902516
  0.9081118449492891  0.9999989166882699  0.6021382555392663
  0.9100526724802904  0.3331183686665398  0.1025001326494035
  0.9074270707861345  0.3336377694902311  0.6012986799422464
  0.9100497583711515  0.6669401130131902  0.1024844994141674
  0.9074246561435970  0.6663669514847186  0.6012825290920958
  0.1603219836388661  0.1670504630219583  0.1578920462593061
  0.1578777890206595  0.1667031163315613  0.6562291414889927
  0.1598989202191916  0.5000143083275148  0.1569535972230938
  0.1584165173150396  0.5000001839622144  0.6560658337420762
  0.1603304375070920  0.8329666893585426  0.1578935678682711
  0.1578786944859232  0.8332937362885815  0.6562128391270079
  0.3430168439680656  0.9999874014172363  0.3434972273544474
  0.3396036996678333  0.0000094837548090  0.8425540604531818
  0.3442726548110926  0.3358326047113991  0.3439168650658360
  0.3398524580635751  0.3336618688604744  0.8431064737633278
  0.3442790135520468  0.6641106774363550  0.3439344263341155
  0.3398598408245945  0.6663560979107501  0.8430714264296384
  0.0899431763091556  0.0000319464480967  0.3969853408299784
  0.0916480613957305  0.9999896594855926  0.8987290227417830
  0.0916779463655359  0.3333839228422946  0.3971269683123140
  0.0910284501476681  0.3333416378968153  0.8978875322496904
  0.0916679922961379  0.6666723745148175  0.3971137792520665
  0.0910387632151171  0.6666308195621795  0.8978808191633334
  0.4084209480182253  0.1663934362111448  0.1011352149023352
  0.4083672708843551  0.1662402604778279  0.6030987194959181
  0.4101459422973122  0.5000421985384875  0.1029185472623837
  0.4092645414661220  0.4999184684431199  0.6022739074420258
  0.4084171858655878  0.8336778928742490  0.1011128678649769
  0.4083493665149476  0.8336018500887477  0.6030735132573710
  0.9973758715415286  0.1663655080096405  0.1281447455869653
  0.9950206345755319  0.1671873596732354  0.6259764408070367
  0.9972077256238592  0.5000263716558919  0.1280616697403971
  0.9952879324198776  0.5000022026005198  0.6258309791375538
  0.9973806332109802  0.8336900140917720  0.1281293843344997
  0.9950247584683822  0.8328136924865461  0.6259631439835474
  0.5056604910099836  0.9999741883651794  0.3728279196405282
  0.5024734481916653  0.0000140866062139  0.8727320621714725
  0.5090799439653040  0.3430108900646616  0.3743230067877121
  0.5025192428805667  0.3328327413645695  0.8728889805219140
  0.5091013528345485  0.6569168185100622  0.3744588741484947
  0.5025233678382719  0.6671998758651014  0.8727829396491202
  0.6722320638184200  0.1667944482842572  0.2797218378261022
  0.6725413726852594  0.1660100552601094  0.7813872430066340
  0.6693236522779671  0.4999798262959558  0.2734134005884528
  0.6725792978393912  0.4999671023394825  0.7822395531338628
  0.6722258297250718  0.8332152078423718  0.2797101505629556
  0.6725446336439944  0.8339473091328884  0.7813806000023789
  0.8274579265800455  0.0000355932993870  0.2194888836099764
  0.8270291678028059  0.9999684528328814  0.7195933746631553
  0.8279205224957380  0.3333979181692968  0.2193478599041185
  0.8265056216362296  0.3338584849106923  0.7190318043291200
  0.8279161252052205  0.6666436898564925  0.2193323713789468
  0.8265052090181868  0.6661025195151353  0.7190180132643889
  0.8313852429742994  0.0000167580792976  0.4454594797877789
  0.8328266092124466  0.9999810956311634  0.9461603600634305
  0.8276329845902808  0.3354255964086121  0.4447326142924766
  0.8334411490562985  0.3329441974388487  0.9459696460002363
  0.8276610378152114  0.6646170083198157  0.4447091982502585
  0.8334345059981558  0.6670314632035215  0.9459566601520208
  0.6681895354180014  0.1662484569542428  0.0537861785800899
  0.6671460853727211  0.1671309654845246  0.5547078218301209
  0.6686315686865640  0.5000324817952375  0.0523476536615846
  0.6594506279388028  0.5000208853669079  0.5579384165114476
  0.6682052302014938  0.8338428099191901  0.0537764486674064
  0.6671609443049817  0.8328572194175479  0.5547008402549238
  0.4960816533652448  0.0000316601242361  0.1260942401517084
  0.4961448229650784  0.9999137367655564  0.6284709784229392
  0.4960201422617345  0.3323836973502878  0.1257950435120136
  0.4954209694368643  0.3325378572196982  0.6295216944174058
  0.4960339534168767  0.6676916574969383  0.1257434974257592
  0.4954037999678604  0.6673243680401555  0.6294556670534419
  0.0028561794517117  0.1674137183267987  0.3729827890301394
  0.0038666893241697  0.1664099376464350  0.8727642463056284
  0.0036899545322058  0.5000217995545171  0.3730809479690294
  0.0035849536101580  0.4999903600332445  0.8725923372444342
  0.0028592160221592  0.8326489645096942  0.3729429267135913
  0.0038760568683642  0.8335630383678065  0.8727619242775262
  0.1739629565290031  0.0000111949207238  0.2817388979057611
  0.1709817002214393  0.9999964217917423  0.7796224946753654
  0.1739235445615535  0.3331663027901541  0.2809190924095830
  0.1715477390424240  0.3335265165939916  0.7798703125139212
  0.1739299116418351  0.6668560254598432  0.2809220841256774
  0.1715486166189208  0.6664604899992597  0.7798568718784793
  0.3295541637842092  0.1676416372905010  0.2205364092789850
  0.3261097941987288  0.1662523051002083  0.7192544808755201
  0.3280534999760008  0.5000193817526792  0.2195485477350232
  0.3268444338766159  0.4999825171552743  0.7193211759807951
  0.3295697820958878  0.8323625799175431  0.2205314807057519
  0.3261031273287855  0.8337264442648262  0.7192374878262768
  0.3359684276837243  0.1678795758629263  0.4452852177141935
  0.3304167118225507  0.1664518530906776  0.9450472938428334
  0.3310330875708019  0.4999233372626506  0.4463502254876275
  0.3318749634808214  0.5000241624176454  0.9461702696573298
  0.3359497118925674  0.8320733089185595  0.4452656320384136
  0.3304073730633093  0.8335634443594131  0.9450258073707261
  0.1691119163057522  0.0000071858408788  0.0553803830901742
  0.1674254010985479  0.0000064281564534  0.5534843926832949
  0.1681462138323653  0.3331826516757630  0.0544576461524713
  0.1675962599428047  0.3330497996385944  0.5539254415533605
  0.1681455846285971  0.6668340643239716  0.0544541327371988
  0.1675972987457897  0.6669527601880958  0.5539125093129442
  0.6055859353605655  0.4999435718047209  0.4015453706063496
 
  0.00000000E+00  0.00000000E+00  0.00000000E+00
  0.00000000E+00  0.00000000E+00  0.00000000E+00
  0.00000000E+00  0.00000000E+00  0.00000000E+00
  0.00000000E+00  0.00000000E+00  0.00000000E+00
  0.00000000E+00  0.00000000E+00  0.00000000E+00
  0.00000000E+00  0.00000000E+00  0.00000000E+00
  0.00000000E+00  0.00000000E+00  0.00000000E+00
  0.00000000E+00  0.00000000E+00  0.00000000E+00
  0.00000000E+00  0.00000000E+00  0.00000000E+00
  0.00000000E+00  0.00000000E+00  0.00000000E+00
  0.00000000E+00  0.00000000E+00  0.00000000E+00
  0.00000000E+00  0.00000000E+00  0.00000000E+00
  0.00000000E+00  0.00000000E+00  0.00000000E+00
  0.00000000E+00  0.00000000E+00  0.00000000E+00
  0.00000000E+00  0.00000000E+00  0.00000000E+00
  0.00000000E+00  0.00000000E+00  0.00000000E+00
  0.00000000E+00  0.00000000E+00  0.00000000E+00
  0.00000000E+00  0.00000000E+00  0.00000000E+00
  0.00000000E+00  0.00000000E+00  0.00000000E+00
  0.00000000E+00  0.00000000E+00  0.00000000E+00
  0.00000000E+00  0.00000000E+00  0.00000000E+00
  0.00000000E+00  0.00000000E+00  0.00000000E+00
  0.00000000E+00  0.00000000E+00  0.00000000E+00
  0.00000000E+00  0.00000000E+00  0.00000000E+00
  0.00000000E+00  0.00000000E+00  0.00000000E+00
  0.00000000E+00  0.00000000E+00  0.00000000E+00
  0.00000000E+00  0.00000000E+00  0.00000000E+00
  0.00000000E+00  0.00000000E+00  0.00000000E+00
  0.00000000E+00  0.00000000E+00  0.00000000E+00
  0.00000000E+00  0.00000000E+00  0.00000000E+00
  0.00000000E+00  0.00000000E+00  0.00000000E+00
  0.00000000E+00  0.00000000E+00  0.00000000E+00
  0.00000000E+00  0.00000000E+00  0.00000000E+00
  0.00000000E+00  0.00000000E+00  0.00000000E+00
  0.00000000E+00  0.00000000E+00  0.00000000E+00
  0.00000000E+00  0.00000000E+00  0.00000000E+00
  0.00000000E+00  0.00000000E+00  0.00000000E+00
  0.00000000E+00  0.00000000E+00  0.00000000E+00
  0.00000000E+00  0.00000000E+00  0.00000000E+00
  0.00000000E+00  0.00000000E+00  0.00000000E+00
  0.00000000E+00  0.00000000E+00  0.00000000E+00
  0.00000000E+00  0.00000000E+00  0.00000000E+00
  0.00000000E+00  0.00000000E+00  0.00000000E+00
  0.00000000E+00  0.00000000E+00  0.00000000E+00
  0.00000000E+00  0.00000000E+00  0.00000000E+00
  0.00000000E+00  0.00000000E+00  0.00000000E+00
  0.00000000E+00  0.00000000E+00  0.00000000E+00
  0.00000000E+00  0.00000000E+00  0.00000000E+00
  0.00000000E+00  0.00000000E+00  0.00000000E+00
  0.00000000E+00  0.00000000E+00  0.00000000E+00
  0.00000000E+00  0.00000000E+00  0.00000000E+00
  0.00000000E+00  0.00000000E+00  0.00000000E+00
  0.00000000E+00  0.00000000E+00  0.00000000E+00
  0.00000000E+00  0.00000000E+00  0.00000000E+00
  0.00000000E+00  0.00000000E+00  0.00000000E+00
  0.00000000E+00  0.00000000E+00  0.00000000E+00
  0.00000000E+00  0.00000000E+00  0.00000000E+00
  0.00000000E+00  0.00000000E+00  0.00000000E+00
  0.00000000E+00  0.00000000E+00  0.00000000E+00
  0.00000000E+00  0.00000000E+00  0.00000000E+00
  0.00000000E+00  0.00000000E+00  0.00000000E+00
  0.00000000E+00  0.00000000E+00  0.00000000E+00
  0.00000000E+00  0.00000000E+00  0.00000000E+00
  0.00000000E+00  0.00000000E+00  0.00000000E+00
  0.00000000E+00  0.00000000E+00  0.00000000E+00
  0.00000000E+00  0.00000000E+00  0.00000000E+00
  0.00000000E+00  0.00000000E+00  0.00000000E+00
  0.00000000E+00  0.00000000E+00  0.00000000E+00
  0.00000000E+00  0.00000000E+00  0.00000000E+00
  0.00000000E+00  0.00000000E+00  0.00000000E+00
  0.00000000E+00  0.00000000E+00  0.00000000E+00
  0.00000000E+00  0.00000000E+00  0.00000000E+00
  0.00000000E+00  0.00000000E+00  0.00000000E+00
  0.00000000E+00  0.00000000E+00  0.00000000E+00
  0.00000000E+00  0.00000000E+00  0.00000000E+00
  0.00000000E+00  0.00000000E+00  0.00000000E+00
  0.00000000E+00  0.00000000E+00  0.00000000E+00
  0.00000000E+00  0.00000000E+00  0.00000000E+00
  0.00000000E+00  0.00000000E+00  0.00000000E+00
  0.00000000E+00  0.00000000E+00  0.00000000E+00
  0.00000000E+00  0.00000000E+00  0.00000000E+00
  0.00000000E+00  0.00000000E+00  0.00000000E+00
  0.00000000E+00  0.00000000E+00  0.00000000E+00
  0.00000000E+00  0.00000000E+00  0.00000000E+00
  0.00000000E+00  0.00000000E+00  0.00000000E+00
  0.00000000E+00  0.00000000E+00  0.00000000E+00
  0.00000000E+00  0.00000000E+00  0.00000000E+00
  0.00000000E+00  0.00000000E+00  0.00000000E+00
  0.00000000E+00  0.00000000E+00  0.00000000E+00
  0.00000000E+00  0.00000000E+00  0.00000000E+00
  0.00000000E+00  0.00000000E+00  0.00000000E+00
  0.00000000E+00  0.00000000E+00  0.00000000E+00
  0.00000000E+00  0.00000000E+00  0.00000000E+00
  0.00000000E+00  0.00000000E+00  0.00000000E+00
  0.00000000E+00  0.00000000E+00  0.00000000E+00
  0.00000000E+00  0.00000000E+00  0.00000000E+00
  0.00000000E+00  0.00000000E+00  0.00000000E+00
  0.00000000E+00  0.00000000E+00  0.00000000E+00
  0.00000000E+00  0.00000000E+00  0.00000000E+00
  0.00000000E+00  0.00000000E+00  0.00000000E+00
  0.00000000E+00  0.00000000E+00  0.00000000E+00
  0.00000000E+00  0.00000000E+00  0.00000000E+00
  0.00000000E+00  0.00000000E+00  0.00000000E+00
  0.00000000E+00  0.00000000E+00  0.00000000E+00
  0.00000000E+00  0.00000000E+00  0.00000000E+00
  0.00000000E+00  0.00000000E+00  0.00000000E+00
  0.00000000E+00  0.00000000E+00  0.00000000E+00
  0.00000000E+00  0.00000000E+00  0.00000000E+00
  0.00000000E+00  0.00000000E+00  0.00000000E+00
  0.00000000E+00  0.00000000E+00  0.00000000E+00
  0.00000000E+00  0.00000000E+00  0.00000000E+00
  0.00000000E+00  0.00000000E+00  0.00000000E+00
  0.00000000E+00  0.00000000E+00  0.00000000E+00
  0.00000000E+00  0.00000000E+00  0.00000000E+00
  0.00000000E+00  0.00000000E+00  0.00000000E+00
  0.00000000E+00  0.00000000E+00  0.00000000E+00
  0.00000000E+00  0.00000000E+00  0.00000000E+00
  0.00000000E+00  0.00000000E+00  0.00000000E+00
  0.00000000E+00  0.00000000E+00  0.00000000E+00
  0.00000000E+00  0.00000000E+00  0.00000000E+00
