Ga48 O72                                
    1.000000000000000     
     0.0000000000000000   12.2804734172212839    0.0000000000000000
     9.1427020537309431    0.0000000000000000    0.0000000000000000
     0.0000000000000000   -2.7682617730220320  -11.3006977184464645
   Ga   O    P 
    47    71     1
Direct
  0.6569179662262101  0.9965594394433523  0.1556264657090196
  0.6603144002762136  0.0017567954586752  0.6569245073119632
  0.6583517693982301  0.3302772922500168  0.1580682396311843
  0.6591160357349395  0.3352922489725856  0.6571724751212003
  0.6588573676857052  0.6642674833072491  0.1578461081918050
  0.6596007331191345  0.6681124286398656  0.6570562474956887
  0.8407587983320610  0.1511555128943556  0.3420053980241775
  0.8411334734429019  0.1680327935295551  0.8438594545458571
  0.8471059347600516  0.4916700900883058  0.3426167287282453
  0.8405831706552860  0.5020043536688803  0.8435688860952766
  0.8453032976585320  0.8258243878375566  0.3446579113855606
  0.8416233233222457  0.8356538693982714  0.8442771021720930
  0.5910492994383603  0.1668854123884813  0.3977120197218227
  0.5899156327780659  0.1669836408944647  0.8974463080094850
  0.5918518532908124  0.5023551274567666  0.3972523602213869
  0.5886152957398281  0.5008647138156164  0.8970745576893648
  0.5926576766119780  0.8350796925064188  0.3974205524403303
  0.5906627274674179  0.8339688698982854  0.8975601246932428
  0.9101359412463310  0.0017947922063613  0.1046279331735818
  0.9079073173040086  0.0003922783135124  0.6006246726811071
  0.9091321827639405  0.3364471108472316  0.1027216229544123
  0.9086485132559972  0.3345310033504916  0.6021404660547915
  0.9076240408408438  0.6668873446356329  0.1020064288146898
  0.9071738514596888  0.6659986585843569  0.6007554065783438
  0.1582075159021201  0.1733429634494783  0.1590827155441588
  0.1583880583432702  0.1752257365569676  0.6553614666027414
  0.1606876613747446  0.5028511806574159  0.1568349945704668
  0.1589772879796527  0.5065790680256228  0.6565022640677256
  0.1547507407777289  0.8305430775792786  0.1567880616999489
  0.1542111552056866  0.8371218038835835  0.6465140865911678
  0.3394993355927909  0.0044802784417968  0.3479519939782136
  0.3389276922420805  0.0014800414923002  0.8395838625725389
  0.3432224482465074  0.3384161212265155  0.3427671954775349
  0.3390879354741614  0.3355777547612888  0.8441235769262150
  0.3403883268932475  0.6704420011950774  0.3442891730967190
  0.3384135891363158  0.6689649632158918  0.8427328215424410
  0.0930912704840665  0.0018901908607205  0.8976500606588758
  0.1032148140107410  0.3155950232354670  0.4020661660891776
  0.0906736609412135  0.3357884369830160  0.8979572989637248
  0.0863509365136679  0.6649052277965311  0.3946710091788290
  0.0910138415708559  0.6684350709490943  0.8963572851020416
  0.4059652240635572  0.1653428704534790  0.1016815706955114
  0.4110458282432887  0.1705165195998930  0.6036067552291584
  0.4100201963959265  0.5010219748727636  0.1019821067379638
  0.4079229572721417  0.5032741936920289  0.6033304784802880
  0.4040479469035745  0.8345415651780641  0.1022730601299031
  0.4110451928667018  0.8362341917157821  0.6023968692390369
  0.9964315151374166  0.1701166796002980  0.1385805358532579
  0.9958135457792210  0.1678461085965068  0.6222660992255058
  0.9971743794543926  0.5021673245991565  0.1255316576520116
  0.9962113761572979  0.5008011979272027  0.6277189687674749
  0.9949373679621800  0.8333854207681100  0.1259566217919428
  0.9945268911059486  0.8333695444017124  0.6271678004451928
  0.5032670089408384  0.0005739768051072  0.3731055833275434
  0.5019286620090213  0.0001337512064552  0.8719129093766753
  0.5046068995182083  0.3347624712488511  0.3722160971364588
  0.5013485964159301  0.3331921562408695  0.8720328342193824
  0.5036932801641356  0.6691555605584298  0.3725537313430891
  0.5012487537625319  0.6688029100368098  0.8718357386867197
  0.6720467300375645  0.1635349408534168  0.2803314066652902
  0.6725672392297284  0.1685735991457449  0.7810291723123299
  0.6735569003955106  0.4950228170295645  0.2806950751021304
  0.6719863700504263  0.5016271138416073  0.7809900455153738
  0.6735842045273799  0.8296059319555056  0.2801904953255345
  0.6730465684742981  0.8358712732208531  0.7810876814883159
  0.8240644942049755  0.9953154923234919  0.2169996478225684
  0.8283260017244203  0.0025149288402346  0.7199850414566455
  0.8292714720536338  0.3260272989623729  0.2204790892184718
  0.8275981977786486  0.3349667609915485  0.7195531022157766
  0.8267655861058145  0.6587709047789829  0.2184693855707565
  0.8274766646603666  0.6685499617370425  0.7197516336835790
  0.8240425190980787  0.9920487523999739  0.4467520095842517
  0.8340359275991460  0.0025680280959719  0.9474402455067406
  0.8406048259503649  0.3212694402904788  0.4430888039868606
  0.8328977466844236  0.3346175550013371  0.9461913823096282
  0.8300729766351296  0.6564549464444340  0.4448469770300676
  0.8311841494954137  0.6684011459948991  0.9454086969830158
  0.6658729126426763  0.1650155289044974  0.0540999019442623
  0.6678962558865820  0.1690850543281144  0.5544634064492158
  0.6648160910863297  0.4975354933787344  0.0541539635294939
  0.6686867217422403  0.5008655521784178  0.5541768944376742
  0.6673964875338072  0.8308164758856904  0.0538226176740935
  0.6677629098378404  0.8343428782198714  0.5548158835815116
  0.4941619215810107  0.9989995936369027  0.1267801433738001
  0.4978224937190490  0.0032120263063575  0.6280537481490356
  0.4943464394129933  0.3313885363385367  0.1268976023413373
  0.4968858294537526  0.3375621364607966  0.6287622485546720
  0.4948013749943385  0.6699752812161179  0.1271069460772836
  0.4970156845608074  0.6690856692131959  0.6282403271585224
  0.0042701708824424  0.1680565686042854  0.8738319866422941
  0.0102471257300323  0.4854007139003329  0.3740320997040882
  0.0029882745633572  0.5021806211077120  0.8724699416863828
  0.0010184828593438  0.8274441636598482  0.3727057135908964
  0.0044697861135745  0.8358967093571721  0.8732438680369938
  0.1545803749354349  0.0168141011604774  0.3000129564429486
  0.1685550677409253  0.0028810197968880  0.7716510916651558
  0.1784397525372228  0.3427436319692276  0.2771543669484373
  0.1721570189531931  0.3361591846524234  0.7815141282626428
  0.1726442535124946  0.6693657528009922  0.2798337276079295
  0.1714656924328253  0.6701076081425299  0.7783834700124928
  0.3250324491757368  0.1627761230803770  0.2208082815091927
  0.3256825960278960  0.1658807990793392  0.7171087676670425
  0.3303007444545472  0.5057209643861640  0.2197191606738187
  0.3286807333025266  0.5048630439967212  0.7219256070546223
  0.3210879339921675  0.8428006278113571  0.2209592823141264
  0.3219491458429218  0.8410817150667924  0.7125251681061400
  0.3355733429526566  0.1724152659626554  0.4470437892023043
  0.3284051177218359  0.1657920672333049  0.9444521757670330
  0.3341529363773645  0.5037500893688929  0.4462202819588157
  0.3310242996971624  0.5020492599706543  0.9462653873434164
  0.3326703132474904  0.8372231205724887  0.4465818445753555
  0.3279499366897340  0.8365455197984559  0.9438526140944958
  0.1622604740128040  0.0024800795932194  0.0596474192711938
  0.1441635548794338  0.0168319809166064  0.5271376014095779
  0.1684427422397619  0.3351148982472552  0.0536855443480277
  0.1769886108139360  0.3430773485170633  0.5609883970522347
  0.1688924625120833  0.6685188544507881  0.0531106027892250
  0.1681813661303337  0.6698982117673395  0.5515172263964203
  0.0712746468620011  0.0628321388560877  0.3911554943741606
 
  0.00000000E+00  0.00000000E+00  0.00000000E+00
  0.00000000E+00  0.00000000E+00  0.00000000E+00
  0.00000000E+00  0.00000000E+00  0.00000000E+00
  0.00000000E+00  0.00000000E+00  0.00000000E+00
  0.00000000E+00  0.00000000E+00  0.00000000E+00
  0.00000000E+00  0.00000000E+00  0.00000000E+00
  0.00000000E+00  0.00000000E+00  0.00000000E+00
  0.00000000E+00  0.00000000E+00  0.00000000E+00
  0.00000000E+00  0.00000000E+00  0.00000000E+00
  0.00000000E+00  0.00000000E+00  0.00000000E+00
  0.00000000E+00  0.00000000E+00  0.00000000E+00
  0.00000000E+00  0.00000000E+00  0.00000000E+00
  0.00000000E+00  0.00000000E+00  0.00000000E+00
  0.00000000E+00  0.00000000E+00  0.00000000E+00
  0.00000000E+00  0.00000000E+00  0.00000000E+00
  0.00000000E+00  0.00000000E+00  0.00000000E+00
  0.00000000E+00  0.00000000E+00  0.00000000E+00
  0.00000000E+00  0.00000000E+00  0.00000000E+00
  0.00000000E+00  0.00000000E+00  0.00000000E+00
  0.00000000E+00  0.00000000E+00  0.00000000E+00
  0.00000000E+00  0.00000000E+00  0.00000000E+00
  0.00000000E+00  0.00000000E+00  0.00000000E+00
  0.00000000E+00  0.00000000E+00  0.00000000E+00
  0.00000000E+00  0.00000000E+00  0.00000000E+00
  0.00000000E+00  0.00000000E+00  0.00000000E+00
  0.00000000E+00  0.00000000E+00  0.00000000E+00
  0.00000000E+00  0.00000000E+00  0.00000000E+00
  0.00000000E+00  0.00000000E+00  0.00000000E+00
  0.00000000E+00  0.00000000E+00  0.00000000E+00
  0.00000000E+00  0.00000000E+00  0.00000000E+00
  0.00000000E+00  0.00000000E+00  0.00000000E+00
  0.00000000E+00  0.00000000E+00  0.00000000E+00
  0.00000000E+00  0.00000000E+00  0.00000000E+00
  0.00000000E+00  0.00000000E+00  0.00000000E+00
  0.00000000E+00  0.00000000E+00  0.00000000E+00
  0.00000000E+00  0.00000000E+00  0.00000000E+00
  0.00000000E+00  0.00000000E+00  0.00000000E+00
  0.00000000E+00  0.00000000E+00  0.00000000E+00
  0.00000000E+00  0.00000000E+00  0.00000000E+00
  0.00000000E+00  0.00000000E+00  0.00000000E+00
  0.00000000E+00  0.00000000E+00  0.00000000E+00
  0.00000000E+00  0.00000000E+00  0.00000000E+00
  0.00000000E+00  0.00000000E+00  0.00000000E+00
  0.00000000E+00  0.00000000E+00  0.00000000E+00
  0.00000000E+00  0.00000000E+00  0.00000000E+00
  0.00000000E+00  0.00000000E+00  0.00000000E+00
  0.00000000E+00  0.00000000E+00  0.00000000E+00
  0.00000000E+00  0.00000000E+00  0.00000000E+00
  0.00000000E+00  0.00000000E+00  0.00000000E+00
  0.00000000E+00  0.00000000E+00  0.00000000E+00
  0.00000000E+00  0.00000000E+00  0.00000000E+00
  0.00000000E+00  0.00000000E+00  0.00000000E+00
  0.00000000E+00  0.00000000E+00  0.00000000E+00
  0.00000000E+00  0.00000000E+00  0.00000000E+00
  0.00000000E+00  0.00000000E+00  0.00000000E+00
  0.00000000E+00  0.00000000E+00  0.00000000E+00
  0.00000000E+00  0.00000000E+00  0.00000000E+00
  0.00000000E+00  0.00000000E+00  0.00000000E+00
  0.00000000E+00  0.00000000E+00  0.00000000E+00
  0.00000000E+00  0.00000000E+00  0.00000000E+00
  0.00000000E+00  0.00000000E+00  0.00000000E+00
  0.00000000E+00  0.00000000E+00  0.00000000E+00
  0.00000000E+00  0.00000000E+00  0.00000000E+00
  0.00000000E+00  0.00000000E+00  0.00000000E+00
  0.00000000E+00  0.00000000E+00  0.00000000E+00
  0.00000000E+00  0.00000000E+00  0.00000000E+00
  0.00000000E+00  0.00000000E+00  0.00000000E+00
  0.00000000E+00  0.00000000E+00  0.00000000E+00
  0.00000000E+00  0.00000000E+00  0.00000000E+00
  0.00000000E+00  0.00000000E+00  0.00000000E+00
  0.00000000E+00  0.00000000E+00  0.00000000E+00
  0.00000000E+00  0.00000000E+00  0.00000000E+00
  0.00000000E+00  0.00000000E+00  0.00000000E+00
  0.00000000E+00  0.00000000E+00  0.00000000E+00
  0.00000000E+00  0.00000000E+00  0.00000000E+00
  0.00000000E+00  0.00000000E+00  0.00000000E+00
  0.00000000E+00  0.00000000E+00  0.00000000E+00
  0.00000000E+00  0.00000000E+00  0.00000000E+00
  0.00000000E+00  0.00000000E+00  0.00000000E+00
  0.00000000E+00  0.00000000E+00  0.00000000E+00
  0.00000000E+00  0.00000000E+00  0.00000000E+00
  0.00000000E+00  0.00000000E+00  0.00000000E+00
  0.00000000E+00  0.00000000E+00  0.00000000E+00
  0.00000000E+00  0.00000000E+00  0.00000000E+00
  0.00000000E+00  0.00000000E+00  0.00000000E+00
  0.00000000E+00  0.00000000E+00  0.00000000E+00
  0.00000000E+00  0.00000000E+00  0.00000000E+00
  0.00000000E+00  0.00000000E+00  0.00000000E+00
  0.00000000E+00  0.00000000E+00  0.00000000E+00
  0.00000000E+00  0.00000000E+00  0.00000000E+00
  0.00000000E+00  0.00000000E+00  0.00000000E+00
  0.00000000E+00  0.00000000E+00  0.00000000E+00
  0.00000000E+00  0.00000000E+00  0.00000000E+00
  0.00000000E+00  0.00000000E+00  0.00000000E+00
  0.00000000E+00  0.00000000E+00  0.00000000E+00
  0.00000000E+00  0.00000000E+00  0.00000000E+00
  0.00000000E+00  0.00000000E+00  0.00000000E+00
  0.00000000E+00  0.00000000E+00  0.00000000E+00
  0.00000000E+00  0.00000000E+00  0.00000000E+00
  0.00000000E+00  0.00000000E+00  0.00000000E+00
  0.00000000E+00  0.00000000E+00  0.00000000E+00
  0.00000000E+00  0.00000000E+00  0.00000000E+00
  0.00000000E+00  0.00000000E+00  0.00000000E+00
  0.00000000E+00  0.00000000E+00  0.00000000E+00
  0.00000000E+00  0.00000000E+00  0.00000000E+00
  0.00000000E+00  0.00000000E+00  0.00000000E+00
  0.00000000E+00  0.00000000E+00  0.00000000E+00
  0.00000000E+00  0.00000000E+00  0.00000000E+00
  0.00000000E+00  0.00000000E+00  0.00000000E+00
  0.00000000E+00  0.00000000E+00  0.00000000E+00
  0.00000000E+00  0.00000000E+00  0.00000000E+00
  0.00000000E+00  0.00000000E+00  0.00000000E+00
  0.00000000E+00  0.00000000E+00  0.00000000E+00
  0.00000000E+00  0.00000000E+00  0.00000000E+00
  0.00000000E+00  0.00000000E+00  0.00000000E+00
  0.00000000E+00  0.00000000E+00  0.00000000E+00
  0.00000000E+00  0.00000000E+00  0.00000000E+00
  0.00000000E+00  0.00000000E+00  0.00000000E+00
  0.00000000E+00  0.00000000E+00  0.00000000E+00
