Ga48 O72                                
    1.000000000000000     
     0.0000000000000000   12.2804734172212839    0.0000000000000000
     9.1427020537309431    0.0000000000000000    0.0000000000000000
     0.0000000000000000   -2.7682617730220320  -11.3006977184464645
   Ga   O    P 
    47    71     1
Direct
  0.6569179662262118 -0.0034405605566455  0.1556264657090206
  0.6603144002762135  0.0017567954586743  0.6569245073119607
  0.6583517693982333  0.3302772922500188  0.1580682396311824
  0.6591160357349398  0.3352922489725837  0.6571724751211993
  0.6588573676857060  0.6642674833072487  0.1578461081918073
  0.6596007331191359  0.6681124286398628  0.6570562474956891
  0.8407587983320642  0.1511555128943574  0.3420053980241779
  0.8411334734429033  0.1680327935295583  0.8438594545458551
  0.8471059347600535  0.4916700900883080  0.3426167287282427
  0.8405831706552840  0.5020043536688820  0.8435688860952761
  0.8453032976585293  0.8258243878375594  0.3446579113855577
  0.8416233233222452  0.8356538693982720  0.8442771021720941
  0.5910492994383574  0.1668854123884825  0.3977120197218262
  0.5899156327780627  0.1669836408944620  0.8974463080094858
  0.5918518532908115  0.5023551274567664  0.3972523602213885
  0.5886152957398274  0.5008647138156178  0.8970745576893683
  0.5926576766119807  0.8350796925064214  0.3974205524403323
  0.5906627274674169  0.8339688698982869  0.8975601246932422
  0.9101359412463341  0.0017947922063617  0.1046279331735800
  0.9079073173040080  0.0003922783135115  0.6006246726811056
  0.9091321827639401  0.3364471108472300  0.1027216229544114
  0.9086485132559973  0.3345310033504941  0.6021404660547903
  0.9076240408408425  0.6668873446356356  0.1020064288146883
  0.9071738514596867  0.6659986585843592  0.6007554065783431
  0.1582075159021219  0.1733429634494796  0.1590827155441600
  0.1583880583432676  0.1752257365569641  0.6553614666027401
  0.1606876613747453  0.5028511806574137  0.1568349945704682
  0.1589772879796545  0.5065790680256227  0.6565022640677255
  0.1547507407777323  0.8305430775792820  0.1567880616999508
  0.1542111552056897  0.8371218038835847  0.6465140865911706
  0.3394993355927929  0.0044802784417945  0.3479519939782159
  0.3389276922420805  0.0014800414922974  0.8395838625725375
  0.3432224482465049  0.3384161212265157  0.3427671954775378
  0.3390879354741607  0.3355777547612865  0.8441235769262182
  0.3403883268932448  0.6704420011950792  0.3442891730967210
  0.3384135891363126  0.6689649632158940  0.8427328215424398
  0.0930912704840669  0.0018901908607181  0.8976500606588793
  0.1032148140107429  0.3155950232354698  0.4020661660891784
  0.0906736609412121  0.3357884369830143  0.8979572989637270
  0.0863509365136711  0.6649052277965293  0.3946710091788309
  0.0910138415708529  0.6684350709490953  0.8963572851020422
  0.4059652240635581  0.1653428704534801  0.1016815706955091
  0.4110458282432913  0.1705165195998908  0.6036067552291599
  0.4100201963959249  0.5010219748727669  0.1019821067379603
  0.4079229572721385  0.5032741936920302  0.6033304784802851
  0.4040479469035718  0.8345415651780652  0.1022730601299025
  0.4110451928666996  0.8362341917157793  0.6023968692390367
  0.9964315151374155  0.1701166796002982  0.1385805358532573
  0.9958135457792223  0.1678461085965041  0.6222660992255047
  0.9971743794543951  0.5021673245991574  0.1255316576520122
  0.9962113761572959  0.5008011979272000  0.6277189687674750
  0.9949373679621776  0.8333854207681085  0.1259566217919422
  0.9945268911059520  0.8333695444017092  0.6271678004451898
  0.5032670089408378  0.0005739768051045  0.3731055833275436
  0.5019286620090185  0.0001337512064557  0.8719129093766776
  0.5046068995182109  0.3347624712488479  0.3722160971364598
  0.5013485964159303  0.3331921562408690  0.8720328342193795
  0.5036932801641341  0.6691555605584316  0.3725537313430898
  0.5012487537625318  0.6688029100368111  0.8718357386867174
  0.6720467300375663  0.1635349408534168  0.2803314066652914
  0.6725672392297269  0.1685735991457414  0.7810291723123276
  0.6735569003955116  0.4950228170295624  0.2806950751021326
  0.6719863700504246  0.5016271138416067  0.7809900455153728
  0.6735842045273773  0.8296059319555024  0.2801904953255360
  0.6730465684743000  0.8358712732208504  0.7810876814883141
  0.8240644942049785 -0.0046845076765109  0.2169996478225699
  0.8283260017244197  0.0025149288402331  0.7199850414566458
  0.8292714720536307  0.3260272989623723  0.2204790892184748
  0.8275981977786516  0.3349667609915479  0.7195531022157745
  0.8267655861058151  0.6587709047789838  0.2184693855707576
  0.8274766646603646  0.6685499617370411  0.7197516336835799
  0.8240425190980774 -0.0079512476000275  0.4467520095842538
  0.8340359275991425  0.0025680280959719  0.9474402455067377
  0.8406048259503618  0.3212694402904780  0.4430888039868616
  0.8328977466844238  0.3346175550013368  0.9461913823096301
  0.8300729766351268  0.6564549464444354  0.4448469770300677
  0.8311841494954106  0.6684011459948975  0.9454086969830153
  0.6658729126426759  0.1650155289045002  0.0540999019442611
  0.6678962558865831  0.1690850543281146  0.5544634064492179
  0.6648160910863313  0.4975354933787340  0.0541539635294919
  0.6686867217422425  0.5008655521784205  0.5541768944376718
  0.6673964875338050  0.8308164758856933  0.0538226176740960
  0.6677629098378391  0.8343428782198703  0.5548158835815133
  0.4941619215810094 -0.0010004063630969  0.1267801433737996
  0.4978224937190489  0.0032120263063604  0.6280537481490388
  0.4943464394129899  0.3313885363385390  0.1268976023413390
  0.4968858294537510  0.3375621364607942  0.6287622485546730
  0.4948013749943361  0.6699752812161184  0.1271069460772837
  0.4970156845608075  0.6690856692131992  0.6282403271585253
  0.0042701708824442  0.1680565686042858  0.8738319866422933
  0.0102471257300339  0.4854007139003314  0.3740320997040893
  0.0029882745633559  0.5021806211077097  0.8724699416863820
  0.0010184828593444  0.8274441636598447  0.3727057135908947
  0.0044697861135722  0.8358967093571739  0.8732438680369938
  0.1545803749354344  0.0168141011604790  0.3000129564429477
  0.1685550677409232  0.0028810197968874  0.7716510916651588
  0.1784397525372201  0.3427436319692295  0.2771543669484396
  0.1721570189531927  0.3361591846524261  0.7815141282626448
  0.1726442535124973  0.6693657528009946  0.2798337276079270
  0.1714656924328284  0.6701076081425295  0.7783834700124902
  0.3250324491757388  0.1627761230803745  0.2208082815091935
  0.3256825960278961  0.1658807990793374  0.7171087676670420
  0.3303007444545478  0.5057209643861612  0.2197191606738162
  0.3286807333025263  0.5048630439967211  0.7219256070546255
  0.3210879339921680  0.8428006278113590  0.2209592823141257
  0.3219491458429194  0.8410817150667936  0.7125251681061400
  0.3355733429526588  0.1724152659626561  0.4470437892023066
  0.3284051177218330  0.1657920672333040  0.9444521757670324
  0.3341529363773613  0.5037500893688914  0.4462202819588146
  0.3310242996971654  0.5020492599706536  0.9462653873434186
  0.3326703132474936  0.8372231205724918  0.4465818445753524
  0.3279499366897369  0.8365455197984527  0.9438526140944967
  0.1622604740128036  0.0024800795932228  0.0596474192711969
  0.1441635548794311  0.0168319809166048  0.5271376014095763
  0.1684427422397590  0.3351148982472539  0.0536855443480269
  0.1769886108139385  0.3430773485170638  0.5609883970522355
  0.1688924625120844  0.6685188544507911  0.0531106027892273
  0.1681813661303338  0.6698982117673394  0.5515172263964201
  0.0712746468620008  0.0628321388560864  0.3911554943741637
 
  0.00000000E+00  0.00000000E+00  0.00000000E+00
  0.00000000E+00  0.00000000E+00  0.00000000E+00
  0.00000000E+00  0.00000000E+00  0.00000000E+00
  0.00000000E+00  0.00000000E+00  0.00000000E+00
  0.00000000E+00  0.00000000E+00  0.00000000E+00
  0.00000000E+00  0.00000000E+00  0.00000000E+00
  0.00000000E+00  0.00000000E+00  0.00000000E+00
  0.00000000E+00  0.00000000E+00  0.00000000E+00
  0.00000000E+00  0.00000000E+00  0.00000000E+00
  0.00000000E+00  0.00000000E+00  0.00000000E+00
  0.00000000E+00  0.00000000E+00  0.00000000E+00
  0.00000000E+00  0.00000000E+00  0.00000000E+00
  0.00000000E+00  0.00000000E+00  0.00000000E+00
  0.00000000E+00  0.00000000E+00  0.00000000E+00
  0.00000000E+00  0.00000000E+00  0.00000000E+00
  0.00000000E+00  0.00000000E+00  0.00000000E+00
  0.00000000E+00  0.00000000E+00  0.00000000E+00
  0.00000000E+00  0.00000000E+00  0.00000000E+00
  0.00000000E+00  0.00000000E+00  0.00000000E+00
  0.00000000E+00  0.00000000E+00  0.00000000E+00
  0.00000000E+00  0.00000000E+00  0.00000000E+00
  0.00000000E+00  0.00000000E+00  0.00000000E+00
  0.00000000E+00  0.00000000E+00  0.00000000E+00
  0.00000000E+00  0.00000000E+00  0.00000000E+00
  0.00000000E+00  0.00000000E+00  0.00000000E+00
  0.00000000E+00  0.00000000E+00  0.00000000E+00
  0.00000000E+00  0.00000000E+00  0.00000000E+00
  0.00000000E+00  0.00000000E+00  0.00000000E+00
  0.00000000E+00  0.00000000E+00  0.00000000E+00
  0.00000000E+00  0.00000000E+00  0.00000000E+00
  0.00000000E+00  0.00000000E+00  0.00000000E+00
  0.00000000E+00  0.00000000E+00  0.00000000E+00
  0.00000000E+00  0.00000000E+00  0.00000000E+00
  0.00000000E+00  0.00000000E+00  0.00000000E+00
  0.00000000E+00  0.00000000E+00  0.00000000E+00
  0.00000000E+00  0.00000000E+00  0.00000000E+00
  0.00000000E+00  0.00000000E+00  0.00000000E+00
  0.00000000E+00  0.00000000E+00  0.00000000E+00
  0.00000000E+00  0.00000000E+00  0.00000000E+00
  0.00000000E+00  0.00000000E+00  0.00000000E+00
  0.00000000E+00  0.00000000E+00  0.00000000E+00
  0.00000000E+00  0.00000000E+00  0.00000000E+00
  0.00000000E+00  0.00000000E+00  0.00000000E+00
  0.00000000E+00  0.00000000E+00  0.00000000E+00
  0.00000000E+00  0.00000000E+00  0.00000000E+00
  0.00000000E+00  0.00000000E+00  0.00000000E+00
  0.00000000E+00  0.00000000E+00  0.00000000E+00
  0.00000000E+00  0.00000000E+00  0.00000000E+00
  0.00000000E+00  0.00000000E+00  0.00000000E+00
  0.00000000E+00  0.00000000E+00  0.00000000E+00
  0.00000000E+00  0.00000000E+00  0.00000000E+00
  0.00000000E+00  0.00000000E+00  0.00000000E+00
  0.00000000E+00  0.00000000E+00  0.00000000E+00
  0.00000000E+00  0.00000000E+00  0.00000000E+00
  0.00000000E+00  0.00000000E+00  0.00000000E+00
  0.00000000E+00  0.00000000E+00  0.00000000E+00
  0.00000000E+00  0.00000000E+00  0.00000000E+00
  0.00000000E+00  0.00000000E+00  0.00000000E+00
  0.00000000E+00  0.00000000E+00  0.00000000E+00
  0.00000000E+00  0.00000000E+00  0.00000000E+00
  0.00000000E+00  0.00000000E+00  0.00000000E+00
  0.00000000E+00  0.00000000E+00  0.00000000E+00
  0.00000000E+00  0.00000000E+00  0.00000000E+00
  0.00000000E+00  0.00000000E+00  0.00000000E+00
  0.00000000E+00  0.00000000E+00  0.00000000E+00
  0.00000000E+00  0.00000000E+00  0.00000000E+00
  0.00000000E+00  0.00000000E+00  0.00000000E+00
  0.00000000E+00  0.00000000E+00  0.00000000E+00
  0.00000000E+00  0.00000000E+00  0.00000000E+00
  0.00000000E+00  0.00000000E+00  0.00000000E+00
  0.00000000E+00  0.00000000E+00  0.00000000E+00
  0.00000000E+00  0.00000000E+00  0.00000000E+00
  0.00000000E+00  0.00000000E+00  0.00000000E+00
  0.00000000E+00  0.00000000E+00  0.00000000E+00
  0.00000000E+00  0.00000000E+00  0.00000000E+00
  0.00000000E+00  0.00000000E+00  0.00000000E+00
  0.00000000E+00  0.00000000E+00  0.00000000E+00
  0.00000000E+00  0.00000000E+00  0.00000000E+00
  0.00000000E+00  0.00000000E+00  0.00000000E+00
  0.00000000E+00  0.00000000E+00  0.00000000E+00
  0.00000000E+00  0.00000000E+00  0.00000000E+00
  0.00000000E+00  0.00000000E+00  0.00000000E+00
  0.00000000E+00  0.00000000E+00  0.00000000E+00
  0.00000000E+00  0.00000000E+00  0.00000000E+00
  0.00000000E+00  0.00000000E+00  0.00000000E+00
  0.00000000E+00  0.00000000E+00  0.00000000E+00
  0.00000000E+00  0.00000000E+00  0.00000000E+00
  0.00000000E+00  0.00000000E+00  0.00000000E+00
  0.00000000E+00  0.00000000E+00  0.00000000E+00
  0.00000000E+00  0.00000000E+00  0.00000000E+00
  0.00000000E+00  0.00000000E+00  0.00000000E+00
  0.00000000E+00  0.00000000E+00  0.00000000E+00
  0.00000000E+00  0.00000000E+00  0.00000000E+00
  0.00000000E+00  0.00000000E+00  0.00000000E+00
  0.00000000E+00  0.00000000E+00  0.00000000E+00
  0.00000000E+00  0.00000000E+00  0.00000000E+00
  0.00000000E+00  0.00000000E+00  0.00000000E+00
  0.00000000E+00  0.00000000E+00  0.00000000E+00
  0.00000000E+00  0.00000000E+00  0.00000000E+00
  0.00000000E+00  0.00000000E+00  0.00000000E+00
  0.00000000E+00  0.00000000E+00  0.00000000E+00
  0.00000000E+00  0.00000000E+00  0.00000000E+00
  0.00000000E+00  0.00000000E+00  0.00000000E+00
  0.00000000E+00  0.00000000E+00  0.00000000E+00
  0.00000000E+00  0.00000000E+00  0.00000000E+00
  0.00000000E+00  0.00000000E+00  0.00000000E+00
  0.00000000E+00  0.00000000E+00  0.00000000E+00
  0.00000000E+00  0.00000000E+00  0.00000000E+00
  0.00000000E+00  0.00000000E+00  0.00000000E+00
  0.00000000E+00  0.00000000E+00  0.00000000E+00
  0.00000000E+00  0.00000000E+00  0.00000000E+00
  0.00000000E+00  0.00000000E+00  0.00000000E+00
  0.00000000E+00  0.00000000E+00  0.00000000E+00
  0.00000000E+00  0.00000000E+00  0.00000000E+00
  0.00000000E+00  0.00000000E+00  0.00000000E+00
  0.00000000E+00  0.00000000E+00  0.00000000E+00
  0.00000000E+00  0.00000000E+00  0.00000000E+00
  0.00000000E+00  0.00000000E+00  0.00000000E+00
  0.00000000E+00  0.00000000E+00  0.00000000E+00
