Ga8 O12                                 
    1.000000000000000     
     0.0000000000000000   12.2804737091000007    0.0000000000000000
     9.1427011490000005    0.0000000000000000    0.0000000000000000
     0.0000000000000000   -2.7682616411000001  -11.3006974810000003
   Ga   O    Cu   N 
    47    71     1     1
Direct
  0.6596570533749997  0.9998661598617602  0.1581673068702329
  0.6582263451760539  0.9999016966095695  0.6547468477658924
  0.6613588019604535  0.3354733735824880  0.1599312611896622
  0.6599135478424287  0.3350431790983137  0.6539360606913576
  0.6605648135379170  0.6653525028670302  0.1598095709024392
  0.6585281056998298  0.6662701684467223  0.6535932209440887
  0.8423951086210479  0.1664499057970019  0.3434645753778298
  0.8399926346527522  0.1668772611911891  0.8424225852103220
  0.8404137005865167  0.5007806434844326  0.3441999996570146
  0.8398048426310467  0.5004656201852882  0.8430049833946711
  0.8420670587670429  0.8336149345927311  0.3435334530447918
  0.8398069586400609  0.8335506643057258  0.8425094443598837
  0.5890268767828886  0.1671314401376094  0.3959693522826768
  0.5921409928937251  0.1669205172780579  0.8982334924784539
  0.5912248648469998  0.5001318572599800  0.8977319968450601
  0.5880290440039460  0.8251129796570140  0.3964745416968682
  0.5920431445035703  0.8331383760652429  0.8984561426067259
  0.9087337120480967  0.0001622218533512  0.1018447248044296
  0.9094859060305183  0.0000595797633451  0.6027584957389678
  0.9093834926801563  0.3333146346872695  0.1018293551667853
  0.9092007772275323  0.3337815816731933  0.6027967092810158
  0.9094351532798655  0.6675344982631941  0.1020175747959726
  0.9089004280832071  0.6666927873686390  0.6031324646065883
  0.1587190388342705  0.1661072049034686  0.1557944305769183
  0.1591891641943022  0.1669238292465565  0.6573890548636498
  0.1586573967431661  0.5012236992380821  0.1554462354898973
  0.1595116545165496  0.5003267353859258  0.6570800320058723
  0.1591785986167977  0.8339565569301186  0.1563034711275790
  0.1593274610375346  0.8335286576432068  0.6573708762204404
  0.3415975580761597  0.0000244175837523  0.3427998721234573
  0.3421075986264128  0.9999744846705525  0.8437807900481076
  0.3370532626207918  0.3350113318793930  0.3447173120318823
  0.3416636986661388  0.3339097052293525  0.8440677792618416
  0.3418990058581315  0.6670940755510912  0.3440514388004061
  0.3420040868518797  0.6663937835500207  0.8444965245319054
  0.0931211689358591  0.9999816200569640  0.3980804410690553
  0.0903507405485584  0.0002496719580236  0.8970011976483292
  0.0907981564728999  0.3338352089238725  0.3978821657465446
  0.0901092705193633  0.3335733048685015  0.8972495538648531
  0.0920324462507409  0.6669027714293563  0.3975658150160299
  0.0898733381061518  0.6672579893970010  0.8967963087065343
  0.4090101597727127  0.1660447391593038  0.1035603754416243
  0.4077209326021318  0.1666142699600570  0.6009764449203274
  0.4102900290923941  0.5006651440852607  0.1061995311685990
  0.4077394745775180  0.5011214936192516  0.5995124622956496
  0.4097243490107374  0.8331367453873781  0.1034772738785747
  0.4078609387159204  0.8335717572427299  0.6006898481824194
  0.9964441008976976  0.1664133910267864  0.1257650609080443
  0.9968321955726154  0.1668476891348121  0.6290583000037060
  0.9964034504637596  0.5003363258385534  0.1260543830399641
  0.9968916974363964  0.5002659221580572  0.6290578812241989
  0.9966118300842908  0.8342501970098795  0.1255078160382581
  0.9969134800819148  0.8334591332998258  0.6293309949787940
  0.5037616941441172  0.9967946872311657  0.3736834340248265
  0.5045679974675252  0.0001019540984117  0.8729259745861597
  0.5039009158528103  0.3331307335830687  0.8717507558651292
  0.4981793147890698  0.6662704440263241  0.3723799834648389
  0.5040210553518278  0.6669947151517235  0.8722240396333021
  0.6745067751780027  0.1649629743606766  0.2811923197462747
  0.6718582391597678  0.1674192653691193  0.7794890510372525
  0.6782439873471660  0.5019837458904135  0.2777918423102435
  0.6723905351984030  0.4997265472573176  0.7808484801149831
  0.6735285674743849  0.8334647604075514  0.2816081852392784
  0.6719482022419925  0.8334869479234683  0.7798216226617214
  0.8285122873851449  0.9999029664965207  0.2195253601126836
  0.8270991451952909  0.0002342179030776  0.7191809545872374
  0.8302703235401196  0.3307521390257691  0.2196801887057873
  0.8286645153219396  0.3322639577939555  0.7205995502284779
  0.8303027474795925  0.6698729476582059  0.2196369590135347
  0.8284599056090656  0.6680622911743441  0.7209628355963957
  0.8347408973195485  0.0001402742345533  0.4461186612328589
  0.8311808033340640  0.0004284112646076  0.9453046600690129
  0.8358799460778457  0.3325213118638501  0.4460112056814651
  0.8320578602945758  0.3333169743187128  0.9455804727839237
  0.8358186067515021  0.6681709678963301  0.4463675823844611
  0.8318727883859722  0.6671665910482716  0.9457742328718197
  0.6671534930021679  0.1677471871640250  0.0552201933037821
  0.6682874888779224  0.1660129615876045  0.5534703944572072
  0.6684064000442120  0.4996360830645301  0.0534083619919841
  0.6770457986083116  0.5018976026725070  0.5582014782054330
  0.6682358890377316  0.8330416826820652  0.0551410229088418
  0.6679686325231131  0.8335945095212978  0.5533985575650107
  0.4969147800175620  0.0000270230697694  0.1275336831691192
  0.4955315872771138  0.0003251762723195  0.6269361554526185
  0.4970408757632185  0.3326045594218670  0.1329039445085343
  0.4955461779781274  0.3338104414575298  0.6217002920332604
  0.4972177400092619  0.6671210643017176  0.1260772453877976
  0.4955731102602030  0.6670272818254404  0.6272077657724680
  0.0051550721881526  0.1660809594420627  0.3730244044885254
  0.0029823253946191  0.1667294379220152  0.8723501925789421
  0.0040097252984950  0.5006021728276622  0.3725390469070788
  0.0028552886828237  0.5002986831740515  0.8725216698136649
  0.0051976675760912  0.8340394968646407  0.3731791022231192
  0.0027502272844444  0.8340239270767427  0.8720668998291501
  0.1716619176165821  0.0001741031252394  0.2790774233994995
  0.1734113988285841  0.0004965725557682  0.7814477099120722
  0.1711256328619157  0.3330425925620659  0.2795159331470245
  0.1732160645251142  0.3337590986697450  0.7815744703832834
  0.1717143860189267  0.6680804744478337  0.2791952275992742
  0.1734519679956819  0.6664509011633228  0.7816214347996251
  0.3250201334992084  0.1637100629719370  0.2175768101010078
  0.3278477214118496  0.1673499562037506  0.7198507557408504
  0.3234868394687354  0.5021944072646534  0.2173107198812403
  0.3280905203655777  0.4998919605405376  0.7196638164804057
  0.3258814273438446  0.8353350878365191  0.2178306035703557
  0.3276654415206863  0.8335814661741168  0.7197235783177334
  0.3259997661082394  0.1642077352976656  0.4462406061630446
  0.3339587562335922  0.1669845395715868  0.9463178480648935
  0.3223146671392954  0.5022963338612101  0.4465357791850977
  0.3351000608333976  0.4995381942037653  0.9477040017264855
  0.3268412827611797  0.8354598863961087  0.4457757832201850
  0.3334487206062562  0.8335882771221108  0.9462169562615017
  0.1671728036839397  0.0001135977461146  0.0527836316278822
  0.1671559827758031  0.0002916277705438  0.5556067631044215
  0.1669441579583975  0.3333518120593837  0.0534060635883193
  0.1666690132918518  0.3333706683687794  0.5550182838102131
  0.1667517956536955  0.6676894450548048  0.0527260955387163
  0.1666335018754097  0.6671645739786243  0.5551718316799992
  0.5923710267878519  0.4806714851200979  0.4002043777231421
  0.4964559744566301  0.3327866232121792  0.3689369015002981
 
  0.00000000E+00  0.00000000E+00  0.00000000E+00
  0.00000000E+00  0.00000000E+00  0.00000000E+00
  0.00000000E+00  0.00000000E+00  0.00000000E+00
  0.00000000E+00  0.00000000E+00  0.00000000E+00
  0.00000000E+00  0.00000000E+00  0.00000000E+00
  0.00000000E+00  0.00000000E+00  0.00000000E+00
  0.00000000E+00  0.00000000E+00  0.00000000E+00
  0.00000000E+00  0.00000000E+00  0.00000000E+00
  0.00000000E+00  0.00000000E+00  0.00000000E+00
  0.00000000E+00  0.00000000E+00  0.00000000E+00
  0.00000000E+00  0.00000000E+00  0.00000000E+00
  0.00000000E+00  0.00000000E+00  0.00000000E+00
  0.00000000E+00  0.00000000E+00  0.00000000E+00
  0.00000000E+00  0.00000000E+00  0.00000000E+00
  0.00000000E+00  0.00000000E+00  0.00000000E+00
  0.00000000E+00  0.00000000E+00  0.00000000E+00
  0.00000000E+00  0.00000000E+00  0.00000000E+00
  0.00000000E+00  0.00000000E+00  0.00000000E+00
  0.00000000E+00  0.00000000E+00  0.00000000E+00
  0.00000000E+00  0.00000000E+00  0.00000000E+00
  0.00000000E+00  0.00000000E+00  0.00000000E+00
  0.00000000E+00  0.00000000E+00  0.00000000E+00
  0.00000000E+00  0.00000000E+00  0.00000000E+00
  0.00000000E+00  0.00000000E+00  0.00000000E+00
  0.00000000E+00  0.00000000E+00  0.00000000E+00
  0.00000000E+00  0.00000000E+00  0.00000000E+00
  0.00000000E+00  0.00000000E+00  0.00000000E+00
  0.00000000E+00  0.00000000E+00  0.00000000E+00
  0.00000000E+00  0.00000000E+00  0.00000000E+00
  0.00000000E+00  0.00000000E+00  0.00000000E+00
  0.00000000E+00  0.00000000E+00  0.00000000E+00
  0.00000000E+00  0.00000000E+00  0.00000000E+00
  0.00000000E+00  0.00000000E+00  0.00000000E+00
  0.00000000E+00  0.00000000E+00  0.00000000E+00
  0.00000000E+00  0.00000000E+00  0.00000000E+00
  0.00000000E+00  0.00000000E+00  0.00000000E+00
  0.00000000E+00  0.00000000E+00  0.00000000E+00
  0.00000000E+00  0.00000000E+00  0.00000000E+00
  0.00000000E+00  0.00000000E+00  0.00000000E+00
  0.00000000E+00  0.00000000E+00  0.00000000E+00
  0.00000000E+00  0.00000000E+00  0.00000000E+00
  0.00000000E+00  0.00000000E+00  0.00000000E+00
  0.00000000E+00  0.00000000E+00  0.00000000E+00
  0.00000000E+00  0.00000000E+00  0.00000000E+00
  0.00000000E+00  0.00000000E+00  0.00000000E+00
  0.00000000E+00  0.00000000E+00  0.00000000E+00
  0.00000000E+00  0.00000000E+00  0.00000000E+00
  0.00000000E+00  0.00000000E+00  0.00000000E+00
  0.00000000E+00  0.00000000E+00  0.00000000E+00
  0.00000000E+00  0.00000000E+00  0.00000000E+00
  0.00000000E+00  0.00000000E+00  0.00000000E+00
  0.00000000E+00  0.00000000E+00  0.00000000E+00
  0.00000000E+00  0.00000000E+00  0.00000000E+00
  0.00000000E+00  0.00000000E+00  0.00000000E+00
  0.00000000E+00  0.00000000E+00  0.00000000E+00
  0.00000000E+00  0.00000000E+00  0.00000000E+00
  0.00000000E+00  0.00000000E+00  0.00000000E+00
  0.00000000E+00  0.00000000E+00  0.00000000E+00
  0.00000000E+00  0.00000000E+00  0.00000000E+00
  0.00000000E+00  0.00000000E+00  0.00000000E+00
  0.00000000E+00  0.00000000E+00  0.00000000E+00
  0.00000000E+00  0.00000000E+00  0.00000000E+00
  0.00000000E+00  0.00000000E+00  0.00000000E+00
  0.00000000E+00  0.00000000E+00  0.00000000E+00
  0.00000000E+00  0.00000000E+00  0.00000000E+00
  0.00000000E+00  0.00000000E+00  0.00000000E+00
  0.00000000E+00  0.00000000E+00  0.00000000E+00
  0.00000000E+00  0.00000000E+00  0.00000000E+00
  0.00000000E+00  0.00000000E+00  0.00000000E+00
  0.00000000E+00  0.00000000E+00  0.00000000E+00
  0.00000000E+00  0.00000000E+00  0.00000000E+00
  0.00000000E+00  0.00000000E+00  0.00000000E+00
  0.00000000E+00  0.00000000E+00  0.00000000E+00
  0.00000000E+00  0.00000000E+00  0.00000000E+00
  0.00000000E+00  0.00000000E+00  0.00000000E+00
  0.00000000E+00  0.00000000E+00  0.00000000E+00
  0.00000000E+00  0.00000000E+00  0.00000000E+00
  0.00000000E+00  0.00000000E+00  0.00000000E+00
  0.00000000E+00  0.00000000E+00  0.00000000E+00
  0.00000000E+00  0.00000000E+00  0.00000000E+00
  0.00000000E+00  0.00000000E+00  0.00000000E+00
  0.00000000E+00  0.00000000E+00  0.00000000E+00
  0.00000000E+00  0.00000000E+00  0.00000000E+00
  0.00000000E+00  0.00000000E+00  0.00000000E+00
  0.00000000E+00  0.00000000E+00  0.00000000E+00
  0.00000000E+00  0.00000000E+00  0.00000000E+00
  0.00000000E+00  0.00000000E+00  0.00000000E+00
  0.00000000E+00  0.00000000E+00  0.00000000E+00
  0.00000000E+00  0.00000000E+00  0.00000000E+00
  0.00000000E+00  0.00000000E+00  0.00000000E+00
  0.00000000E+00  0.00000000E+00  0.00000000E+00
  0.00000000E+00  0.00000000E+00  0.00000000E+00
  0.00000000E+00  0.00000000E+00  0.00000000E+00
  0.00000000E+00  0.00000000E+00  0.00000000E+00
  0.00000000E+00  0.00000000E+00  0.00000000E+00
  0.00000000E+00  0.00000000E+00  0.00000000E+00
  0.00000000E+00  0.00000000E+00  0.00000000E+00
  0.00000000E+00  0.00000000E+00  0.00000000E+00
  0.00000000E+00  0.00000000E+00  0.00000000E+00
  0.00000000E+00  0.00000000E+00  0.00000000E+00
  0.00000000E+00  0.00000000E+00  0.00000000E+00
  0.00000000E+00  0.00000000E+00  0.00000000E+00
  0.00000000E+00  0.00000000E+00  0.00000000E+00
  0.00000000E+00  0.00000000E+00  0.00000000E+00
  0.00000000E+00  0.00000000E+00  0.00000000E+00
  0.00000000E+00  0.00000000E+00  0.00000000E+00
  0.00000000E+00  0.00000000E+00  0.00000000E+00
  0.00000000E+00  0.00000000E+00  0.00000000E+00
  0.00000000E+00  0.00000000E+00  0.00000000E+00
  0.00000000E+00  0.00000000E+00  0.00000000E+00
  0.00000000E+00  0.00000000E+00  0.00000000E+00
  0.00000000E+00  0.00000000E+00  0.00000000E+00
  0.00000000E+00  0.00000000E+00  0.00000000E+00
  0.00000000E+00  0.00000000E+00  0.00000000E+00
  0.00000000E+00  0.00000000E+00  0.00000000E+00
  0.00000000E+00  0.00000000E+00  0.00000000E+00
  0.00000000E+00  0.00000000E+00  0.00000000E+00
  0.00000000E+00  0.00000000E+00  0.00000000E+00
  0.00000000E+00  0.00000000E+00  0.00000000E+00
  0.00000000E+00  0.00000000E+00  0.00000000E+00
