       N       E                     dE             d eps       ncg     rms          ort
SDA:   1    -0.937502922272E+03   -0.93750E+03    0.00000E+00  5056   0.299E+02 0.000E+00
CGA:   2    -0.942799428037E+03   -0.52965E+01   -0.53541E+01  5056   0.105E+02 0.106E+01
CGA:   3    -0.944471163389E+03   -0.16717E+01   -0.16922E+01  5056   0.105E+02 0.116E+00
CGA:   4    -0.946213064510E+03   -0.17419E+01   -0.17521E+01  5056   0.176E+01 0.113E+00
CGA:   5    -0.946664265975E+03   -0.45120E+00   -0.44754E+00  5056   0.779E+00 0.467E-01
CGA:   6    -0.946883225178E+03   -0.21896E+00   -0.21780E+00  5056   0.322E+00 0.120E-01
CGA:   7    -0.946949565910E+03   -0.66341E-01   -0.66337E-01  5056   0.107E+00 0.156E-02
CGA:   8    -0.946973835612E+03   -0.24270E-01   -0.24251E-01  5056   0.416E-01 0.573E-03
CGA:   9    -0.946979404650E+03   -0.55690E-02   -0.55711E-02  5056   0.201E-01 0.944E-05
CGA:  10    -0.946982423062E+03   -0.30184E-02   -0.30207E-02  5056   0.739E-02 0.186E-04
CGA:  11    -0.946984092189E+03   -0.16691E-02   -0.16660E-02  5056   0.338E-02 0.108E-03
CGA:  12    -0.946984795485E+03   -0.70330E-03   -0.70282E-03  5056   0.187E-02 0.758E-04
CGA:  13    -0.946985103443E+03   -0.30796E-03   -0.30896E-03  5056   0.119E-02 0.256E-04
CGA:  14    -0.946985313965E+03   -0.21052E-03   -0.21083E-03  5056   0.498E-03 0.133E-04
CGA:  15    -0.946985424719E+03   -0.11075E-03   -0.11028E-03  5056   0.267E-03 0.206E-04
CGA:  16    -0.946985491533E+03   -0.66813E-04   -0.66191E-04  5056   0.213E-03 0.151E-04
CGA:  17    -0.946985545335E+03   -0.53802E-04   -0.53651E-04  5056   0.225E-03 0.392E-05
CGA:  18    -0.946985601433E+03   -0.56098E-04   -0.56156E-04  5056   0.258E-03-0.146E-05
CGA:  19    -0.946985665042E+03   -0.63609E-04   -0.63763E-04  5056   0.258E-03-0.319E-05
CGA:  20    -0.946985733504E+03   -0.68463E-04   -0.68635E-04  5056   0.253E-03-0.275E-05
CGA:  21    -0.946985801586E+03   -0.68081E-04   -0.68475E-04  5056   0.244E-03-0.607E-05
CGA:  22    -0.946985854162E+03   -0.52576E-04   -0.52637E-04  5056   0.213E-03-0.611E-05
CGA:  23    -0.946985897307E+03   -0.43146E-04   -0.43132E-04  5056   0.180E-03-0.309E-05
CGA:  24    -0.946985933192E+03   -0.35885E-04   -0.35868E-04  5056   0.145E-03-0.143E-05
CGA:  25    -0.946985965009E+03   -0.31817E-04   -0.31813E-04  5056   0.117E-03 0.288E-06
CGA:  26    -0.946985992192E+03   -0.27183E-04   -0.27175E-04  5056   0.100E-03 0.428E-06
CGA:  27    -0.946986014850E+03   -0.22657E-04   -0.22647E-04  5056   0.725E-04 0.789E-06
CGA:  28    -0.946986031868E+03   -0.17019E-04   -0.16991E-04  5056   0.512E-04 0.143E-05
CGA:  29    -0.946986042141E+03   -0.10272E-04   -0.10300E-04  5056   0.323E-04 0.164E-05
CGA:  30    -0.946986048312E+03   -0.61712E-05   -0.62205E-05  5056   0.168E-04 0.182E-05
   1 F= -.94698605E+03 E0= -.94698605E+03  d E =-.110228E-10
