Ga8 O12                                 
    1.000000000000000     
     0.0000000000000000   12.2804737091000007    0.0000000000000000
     9.1427011490000005    0.0000000000000000    0.0000000000000000
     0.0000000000000000   -2.7682616411000001  -11.3006974810000003
   Ga   O    Cu   N 
    47    71     1     1
Direct
  0.6596570533749977 -0.0001338401382369  0.1581673068702307
  0.6582263451760528 -0.0000983033904333  0.6547468477658897
  0.6613588019604544  0.3354733735824873  0.1599312611896646
  0.6599135478424314  0.3350431790983122  0.6539360606913592
  0.6605648135379167  0.6653525028670292  0.1598095709024426
  0.6585281056998276  0.6662701684467253  0.6535932209440865
  0.8423951086210467  0.1664499057969992  0.3434645753778307
  0.8399926346527508  0.1668772611911906  0.8424225852103191
  0.8404137005865140  0.5007806434844340  0.3441999996570119
  0.8398048426310490  0.5004656201852870  0.8430049833946746
  0.8420670587670437  0.8336149345927327  0.3435334530447897
  0.8398069586400614  0.8335506643057226  0.8425094443598865
  0.5890268767828910  0.1671314401376122  0.3959693522826757
  0.5921409928937266  0.1669205172780593  0.8982334924784509
  0.5912248648470021  0.5001318572599792  0.8977319968450612
  0.5880290440039481  0.8251129796570167  0.3964745416968715
  0.5920431445035698  0.8331383760652398  0.8984561426067255
  0.9087337120480966  0.0001622218533546  0.1018447248044287
  0.9094859060305159  0.0000595797633470  0.6027584957389643
  0.9093834926801591  0.3333146346872678  0.1018293551667834
  0.9092007772275309  0.3337815816731941  0.6027967092810149
  0.9094351532798661  0.6675344982631940  0.1020175747959759
  0.9089004280832099  0.6666927873686370  0.6031324646065884
  0.1587190388342733  0.1661072049034689  0.1557944305769170
  0.1591891641943048  0.1669238292465563  0.6573890548636485
  0.1586573967431642  0.5012236992380844  0.1554462354898952
  0.1595116545165498  0.5003267353859249  0.6570800320058722
  0.1591785986167973  0.8339565569301188  0.1563034711275796
  0.1593274610375338  0.8335286576432062  0.6573708762204423
  0.3415975580761613  0.0000244175837515  0.3427998721234539
  0.3421075986264120 -0.0000255153294501  0.8437807900481110
  0.3370532626207937  0.3350113318793899  0.3447173120318810
  0.3416636986661377  0.3339097052293499  0.8440677792618395
  0.3418990058581304  0.6670940755510893  0.3440514388004028
  0.3420040868518767  0.6663937835500197  0.8444965245319057
  0.0931211689358603 -0.0000183799430387  0.3980804410690557
  0.0903507405485612  0.0002496719580226  0.8970011976483323
  0.0907981564729012  0.3338352089238707  0.3978821657465447
  0.0901092705193607  0.3335733048685029  0.8972495538648539
  0.0920324462507400  0.6669027714293555  0.3975658150160320
  0.0898733381061535  0.6672579893969985  0.8967963087065314
  0.4090101597727162  0.1660447391593070  0.1035603754416242
  0.4077209326021299  0.1666142699600542  0.6009764449203295
  0.4102900290923925  0.5006651440852596  0.1061995311686016
  0.4077394745775164  0.5011214936192500  0.5995124622956504
  0.4097243490107340  0.8331367453873806  0.1034772738785776
  0.4078609387159228  0.8335717572427299  0.6006898481824203
  0.9964441008976954  0.1664133910267886  0.1257650609080472
  0.9968321955726126  0.1668476891348110  0.6290583000037057
  0.9964034504637603  0.5003363258385509  0.1260543830399633
  0.9968916974363951  0.5002659221580606  0.6290578812242011
  0.9966118300842876  0.8342501970098808  0.1255078160382604
  0.9969134800819154  0.8334591332998240  0.6293309949787961
  0.5037616941441155 -0.0032053127688370  0.3736834340248257
  0.5045679974675272  0.0001019540984111  0.8729259745861572
  0.5039009158528074  0.3331307335830703  0.8717507558651296
  0.4981793147890710  0.6662704440263241  0.3723799834648387
  0.5040210553518312  0.6669947151517268  0.8722240396332994
  0.6745067751780008  0.1649629743606741  0.2811923197462778
  0.6718582391597658  0.1674192653691159  0.7794890510372516
  0.6782439873471688  0.5019837458904142  0.2777918423102454
  0.6723905351984053  0.4997265472573196  0.7808484801149806
  0.6735285674743838  0.8334647604075538  0.2816081852392794
  0.6719482022419920  0.8334869479234699  0.7798216226617201
  0.8285122873851463 -0.0000970335034780  0.2195253601126816
  0.8270991451952915  0.0002342179030768  0.7191809545872380
  0.8302703235401179  0.3307521390257663  0.2196801887057888
  0.8286645153219410  0.3322639577939590  0.7205995502284788
  0.8303027474795902  0.6698729476582053  0.2196369590135342
  0.8284599056090686  0.6680622911743407  0.7209628355963938
  0.8347408973195496  0.0001402742345517  0.4461186612328617
  0.8311808033340616  0.0004284112646053  0.9453046600690138
  0.8358799460778450  0.3325213118638516  0.4460112056814619
  0.8320578602945756  0.3333169743187112  0.9455804727839264
  0.8358186067514991  0.6681709678963332  0.4463675823844618
  0.8318727883859756  0.6671665910482708  0.9457742328718223
  0.6671534930021668  0.1677471871640250  0.0552201933037812
  0.6682874888779226  0.1660129615876078  0.5534703944572105
  0.6684064000442149  0.4996360830645283  0.0534083619919864
  0.6770457986083145  0.5018976026725053  0.5582014782054321
  0.6682358890377281  0.8330416826820660  0.0551410229088440
  0.6679686325231112  0.8335945095212952  0.5533985575650101
  0.4969147800175600  0.0000270230697727  0.1275336831691197
  0.4955315872771146  0.0003251762723216  0.6269361554526200
  0.4970408757632206  0.3326045594218667  0.1329039445085360
  0.4955461779781267  0.3338104414575301  0.6217002920332628
  0.4972177400092609  0.6671210643017158  0.1260772453877990
  0.4955731102602016  0.6670272818254376  0.6272077657724676
  0.0051550721881543  0.1660809594420614  0.3730244044885251
  0.0029823253946221  0.1667294379220162  0.8723501925789421
  0.0040097252984975  0.5006021728276602  0.3725390469070792
  0.0028552886828211  0.5002986831740546  0.8725216698136663
  0.0051976675760941  0.8340394968646382  0.3731791022231160
  0.0027502272844417  0.8340239270767392  0.8720668998291490
  0.1716619176165826  0.0001741031252360  0.2790774233995005
  0.1734113988285865  0.0004965725557667  0.7814477099120748
  0.1711256328619191  0.3330425925620637  0.2795159331470238
  0.1732160645251107  0.3337590986697478  0.7815744703832826
  0.1717143860189282  0.6680804744478326  0.2791952275992718
  0.1734519679956795  0.6664509011633259  0.7816214347996282
  0.3250201334992093  0.1637100629719370  0.2175768101010083
  0.3278477214118471  0.1673499562037538  0.7198507557408473
  0.3234868394687336  0.5021944072646528  0.2173107198812405
  0.3280905203655800  0.4998919605405349  0.7196638164804079
  0.3258814273438432  0.8353350878365204  0.2178306035703563
  0.3276654415206879  0.8335814661741147  0.7197235783177366
  0.3259997661082395  0.1642077352976622  0.4462406061630460
  0.3339587562335892  0.1669845395715839  0.9463178480648901
  0.3223146671392946  0.5022963338612065  0.4465357791850978
  0.3351000608333957  0.4995381942037674  0.9477040017264888
  0.3268412827611776  0.8354598863961075  0.4457757832201842
  0.3334487206062556  0.8335882771221136  0.9462169562614996
  0.1671728036839399  0.0001135977461177  0.0527836316278828
  0.1671559827758000  0.0002916277705443  0.5556067631044229
  0.1669441579584005  0.3333518120593857  0.0534060635883181
  0.1666690132918519  0.3333706683687783  0.5550182838102129
  0.1667517956536972  0.6676894450548017  0.0527260955387162
  0.1666335018754131  0.6671645739786245  0.5551718316799963
  0.5923710267878514  0.4806714851200969  0.4002043777231452
  0.4964559744566297  0.3327866232121766  0.3689369015003013
 
  0.00000000E+00  0.00000000E+00  0.00000000E+00
  0.00000000E+00  0.00000000E+00  0.00000000E+00
  0.00000000E+00  0.00000000E+00  0.00000000E+00
  0.00000000E+00  0.00000000E+00  0.00000000E+00
  0.00000000E+00  0.00000000E+00  0.00000000E+00
  0.00000000E+00  0.00000000E+00  0.00000000E+00
  0.00000000E+00  0.00000000E+00  0.00000000E+00
  0.00000000E+00  0.00000000E+00  0.00000000E+00
  0.00000000E+00  0.00000000E+00  0.00000000E+00
  0.00000000E+00  0.00000000E+00  0.00000000E+00
  0.00000000E+00  0.00000000E+00  0.00000000E+00
  0.00000000E+00  0.00000000E+00  0.00000000E+00
  0.00000000E+00  0.00000000E+00  0.00000000E+00
  0.00000000E+00  0.00000000E+00  0.00000000E+00
  0.00000000E+00  0.00000000E+00  0.00000000E+00
  0.00000000E+00  0.00000000E+00  0.00000000E+00
  0.00000000E+00  0.00000000E+00  0.00000000E+00
  0.00000000E+00  0.00000000E+00  0.00000000E+00
  0.00000000E+00  0.00000000E+00  0.00000000E+00
  0.00000000E+00  0.00000000E+00  0.00000000E+00
  0.00000000E+00  0.00000000E+00  0.00000000E+00
  0.00000000E+00  0.00000000E+00  0.00000000E+00
  0.00000000E+00  0.00000000E+00  0.00000000E+00
  0.00000000E+00  0.00000000E+00  0.00000000E+00
  0.00000000E+00  0.00000000E+00  0.00000000E+00
  0.00000000E+00  0.00000000E+00  0.00000000E+00
  0.00000000E+00  0.00000000E+00  0.00000000E+00
  0.00000000E+00  0.00000000E+00  0.00000000E+00
  0.00000000E+00  0.00000000E+00  0.00000000E+00
  0.00000000E+00  0.00000000E+00  0.00000000E+00
  0.00000000E+00  0.00000000E+00  0.00000000E+00
  0.00000000E+00  0.00000000E+00  0.00000000E+00
  0.00000000E+00  0.00000000E+00  0.00000000E+00
  0.00000000E+00  0.00000000E+00  0.00000000E+00
  0.00000000E+00  0.00000000E+00  0.00000000E+00
  0.00000000E+00  0.00000000E+00  0.00000000E+00
  0.00000000E+00  0.00000000E+00  0.00000000E+00
  0.00000000E+00  0.00000000E+00  0.00000000E+00
  0.00000000E+00  0.00000000E+00  0.00000000E+00
  0.00000000E+00  0.00000000E+00  0.00000000E+00
  0.00000000E+00  0.00000000E+00  0.00000000E+00
  0.00000000E+00  0.00000000E+00  0.00000000E+00
  0.00000000E+00  0.00000000E+00  0.00000000E+00
  0.00000000E+00  0.00000000E+00  0.00000000E+00
  0.00000000E+00  0.00000000E+00  0.00000000E+00
  0.00000000E+00  0.00000000E+00  0.00000000E+00
  0.00000000E+00  0.00000000E+00  0.00000000E+00
  0.00000000E+00  0.00000000E+00  0.00000000E+00
  0.00000000E+00  0.00000000E+00  0.00000000E+00
  0.00000000E+00  0.00000000E+00  0.00000000E+00
  0.00000000E+00  0.00000000E+00  0.00000000E+00
  0.00000000E+00  0.00000000E+00  0.00000000E+00
  0.00000000E+00  0.00000000E+00  0.00000000E+00
  0.00000000E+00  0.00000000E+00  0.00000000E+00
  0.00000000E+00  0.00000000E+00  0.00000000E+00
  0.00000000E+00  0.00000000E+00  0.00000000E+00
  0.00000000E+00  0.00000000E+00  0.00000000E+00
  0.00000000E+00  0.00000000E+00  0.00000000E+00
  0.00000000E+00  0.00000000E+00  0.00000000E+00
  0.00000000E+00  0.00000000E+00  0.00000000E+00
  0.00000000E+00  0.00000000E+00  0.00000000E+00
  0.00000000E+00  0.00000000E+00  0.00000000E+00
  0.00000000E+00  0.00000000E+00  0.00000000E+00
  0.00000000E+00  0.00000000E+00  0.00000000E+00
  0.00000000E+00  0.00000000E+00  0.00000000E+00
  0.00000000E+00  0.00000000E+00  0.00000000E+00
  0.00000000E+00  0.00000000E+00  0.00000000E+00
  0.00000000E+00  0.00000000E+00  0.00000000E+00
  0.00000000E+00  0.00000000E+00  0.00000000E+00
  0.00000000E+00  0.00000000E+00  0.00000000E+00
  0.00000000E+00  0.00000000E+00  0.00000000E+00
  0.00000000E+00  0.00000000E+00  0.00000000E+00
  0.00000000E+00  0.00000000E+00  0.00000000E+00
  0.00000000E+00  0.00000000E+00  0.00000000E+00
  0.00000000E+00  0.00000000E+00  0.00000000E+00
  0.00000000E+00  0.00000000E+00  0.00000000E+00
  0.00000000E+00  0.00000000E+00  0.00000000E+00
  0.00000000E+00  0.00000000E+00  0.00000000E+00
  0.00000000E+00  0.00000000E+00  0.00000000E+00
  0.00000000E+00  0.00000000E+00  0.00000000E+00
  0.00000000E+00  0.00000000E+00  0.00000000E+00
  0.00000000E+00  0.00000000E+00  0.00000000E+00
  0.00000000E+00  0.00000000E+00  0.00000000E+00
  0.00000000E+00  0.00000000E+00  0.00000000E+00
  0.00000000E+00  0.00000000E+00  0.00000000E+00
  0.00000000E+00  0.00000000E+00  0.00000000E+00
  0.00000000E+00  0.00000000E+00  0.00000000E+00
  0.00000000E+00  0.00000000E+00  0.00000000E+00
  0.00000000E+00  0.00000000E+00  0.00000000E+00
  0.00000000E+00  0.00000000E+00  0.00000000E+00
  0.00000000E+00  0.00000000E+00  0.00000000E+00
  0.00000000E+00  0.00000000E+00  0.00000000E+00
  0.00000000E+00  0.00000000E+00  0.00000000E+00
  0.00000000E+00  0.00000000E+00  0.00000000E+00
  0.00000000E+00  0.00000000E+00  0.00000000E+00
  0.00000000E+00  0.00000000E+00  0.00000000E+00
  0.00000000E+00  0.00000000E+00  0.00000000E+00
  0.00000000E+00  0.00000000E+00  0.00000000E+00
  0.00000000E+00  0.00000000E+00  0.00000000E+00
  0.00000000E+00  0.00000000E+00  0.00000000E+00
  0.00000000E+00  0.00000000E+00  0.00000000E+00
  0.00000000E+00  0.00000000E+00  0.00000000E+00
  0.00000000E+00  0.00000000E+00  0.00000000E+00
  0.00000000E+00  0.00000000E+00  0.00000000E+00
  0.00000000E+00  0.00000000E+00  0.00000000E+00
  0.00000000E+00  0.00000000E+00  0.00000000E+00
  0.00000000E+00  0.00000000E+00  0.00000000E+00
  0.00000000E+00  0.00000000E+00  0.00000000E+00
  0.00000000E+00  0.00000000E+00  0.00000000E+00
  0.00000000E+00  0.00000000E+00  0.00000000E+00
  0.00000000E+00  0.00000000E+00  0.00000000E+00
  0.00000000E+00  0.00000000E+00  0.00000000E+00
  0.00000000E+00  0.00000000E+00  0.00000000E+00
  0.00000000E+00  0.00000000E+00  0.00000000E+00
  0.00000000E+00  0.00000000E+00  0.00000000E+00
  0.00000000E+00  0.00000000E+00  0.00000000E+00
  0.00000000E+00  0.00000000E+00  0.00000000E+00
  0.00000000E+00  0.00000000E+00  0.00000000E+00
  0.00000000E+00  0.00000000E+00  0.00000000E+00
  0.00000000E+00  0.00000000E+00  0.00000000E+00
