 running    4 mpi-ranks, on    1 nodes
 distrk:  each k-point on    1 cores,    4 groups
 distr:  one band on    1 cores,    1 groups
 OpenACC runtime initialized ...    4 GPUs detected
 vasp.6.4.2 20Jul23 (build Nov 12 2023 22:16:35) complex                         
 POSCAR found type information on POSCAR GaO CuN 
 POSCAR found :  4 types and     120 ions
 scaLAPACK will be used selectively (only on CPU)
 LDA part: xc-table for Pade appr. of Perdew
 POSCAR, INCAR and KPOINTS ok, starting setup
 FFT: planning ... GRIDC
 FFT: planning ... GRID_SOFT
 FFT: planning ... GRID
 WAVECAR not read
 entering main loop
       N       E                     dE             d eps       ncg     rms          rms(c)
DAV:   1     0.219197828690E+05    0.21920E+05   -0.32068E+05 10096   0.281E+03
DAV:   2     0.487931228067E+04   -0.17040E+05   -0.16056E+05 10096   0.818E+02
DAV:   3    -0.132029817331E+03   -0.50113E+04   -0.47068E+04 12728   0.322E+02
DAV:   4    -0.781690967742E+03   -0.64966E+03   -0.63374E+03 12408   0.123E+02
DAV:   5    -0.831140478578E+03   -0.49450E+02   -0.48890E+02 14688   0.369E+01    0.742E+01
RMM:   6    -0.765736930123E+03    0.65404E+02   -0.69662E+02 14513   0.339E+01    0.378E+01
RMM:   7    -0.718230715066E+03    0.47506E+02   -0.24552E+02 14114   0.175E+01    0.239E+01
RMM:   8    -0.712008237932E+03    0.62225E+01   -0.49335E+01 11604   0.118E+01    0.140E+01
RMM:   9    -0.712172616523E+03   -0.16438E+00   -0.11701E+01 14132   0.395E+00    0.136E+01
RMM:  10    -0.721112377039E+03   -0.89398E+01   -0.34907E+01 13224   0.703E+00    0.196E+01
RMM:  11    -0.712523685412E+03    0.85887E+01   -0.82583E+00 11863   0.535E+00    0.121E+01
RMM:  12    -0.710962340647E+03    0.15613E+01   -0.50654E+00 14603   0.315E+00    0.607E+00
RMM:  13    -0.710630155118E+03    0.33219E+00   -0.58198E-01 14468   0.890E-01    0.454E+00
RMM:  14    -0.710623181168E+03    0.69739E-02   -0.14501E-01 15650   0.403E-01    0.460E+00
RMM:  15    -0.710561840399E+03    0.61341E-01   -0.31475E-02 13278   0.245E-01    0.405E+00
RMM:  16    -0.710566241430E+03   -0.44010E-02   -0.21690E-02 13454   0.118E-01    0.413E+00
RMM:  17    -0.710819803820E+03   -0.25356E+00   -0.28661E-01 14358   0.608E-01    0.730E+00
RMM:  18    -0.710954296085E+03   -0.13449E+00   -0.23458E-01 14900   0.569E-01    0.871E+00
RMM:  19    -0.710540919818E+03    0.41338E+00   -0.16907E-01 14162   0.601E-01    0.419E+00
RMM:  20    -0.710528994710E+03    0.11925E-01   -0.16263E-02 15727   0.163E-01    0.433E+00
RMM:  21    -0.710468682031E+03    0.60313E-01   -0.40258E-02 14460   0.231E-01    0.179E+00
RMM:  22    -0.710471116032E+03   -0.24340E-02   -0.74478E-03 15088   0.148E-01    0.249E+00
RMM:  23    -0.710453783525E+03    0.17333E-01   -0.61425E-03 13780   0.857E-02    0.111E+00
RMM:  24    -0.710452995266E+03    0.78826E-03   -0.21014E-03 13254   0.587E-02    0.173E+00
RMM:  25    -0.710455624967E+03   -0.26297E-02   -0.19665E-03 13598   0.535E-02    0.232E+00
RMM:  26    -0.710442429168E+03    0.13196E-01   -0.46849E-03 14045   0.719E-02    0.125E+00
RMM:  27    -0.710436921086E+03    0.55081E-02   -0.39655E-03 13818   0.610E-02    0.791E-01
RMM:  28    -0.710434592896E+03    0.23282E-02   -0.40182E-03 13874   0.664E-02    0.877E-01
RMM:  29    -0.710433567357E+03    0.10255E-02   -0.94014E-04 12119   0.477E-02    0.305E-01
RMM:  30    -0.710432863700E+03    0.70366E-03   -0.88825E-04 12145   0.332E-02    0.219E-01
RMM:  31    -0.710432709054E+03    0.15465E-03   -0.86649E-04 12728   0.360E-02    0.357E-01
RMM:  32    -0.710432468871E+03    0.24018E-03   -0.89702E-04 11717   0.360E-02    0.336E-01
RMM:  33    -0.710432273505E+03    0.19537E-03   -0.22258E-04 10219   0.212E-02    0.880E-02
RMM:  34    -0.710432246126E+03    0.27379E-04   -0.11006E-04  9227   0.126E-02    0.531E-02
RMM:  35    -0.710432231070E+03    0.15056E-04   -0.33873E-05  7516   0.768E-03    0.323E-02
RMM:  36    -0.710432238412E+03   -0.73426E-05   -0.19366E-05  6625   0.558E-03
   1 F= -.71043224E+03 E0= -.71041317E+03  d E =-.710432E+03
 curvature:   0.00 expect dE= 0.000E+00 dE for cont linesearch  0.000E+00
 trial: gam= 0.00000 g(F)=  0.380E+00 g(S)=  0.000E+00 ort = 0.000E+00 (trialstep = 0.100E+01)
 search vector abs. value=  0.380E+00
 bond charge predicted
       N       E                     dE             d eps       ncg     rms          rms(c)
DAV:   1    -0.710363578718E+03    0.68652E-01   -0.84546E+01 11328   0.116E+01    0.380E+00
RMM:   2    -0.712001017289E+03   -0.16374E+01   -0.40312E+00 13397   0.352E+00    0.109E+01
RMM:   3    -0.710733351245E+03    0.12677E+01   -0.13286E+00 13176   0.236E+00    0.313E+00
RMM:   4    -0.710607470686E+03    0.12588E+00   -0.27824E-01 14830   0.812E-01    0.114E+00
RMM:   5    -0.710607753826E+03   -0.28314E-03   -0.72515E-02 14988   0.357E-01    0.740E-01
RMM:   6    -0.710621043376E+03   -0.13290E-01   -0.21937E-02 12727   0.214E-01    0.276E+00
RMM:   7    -0.710615783193E+03    0.52602E-02   -0.20689E-02 13511   0.153E-01    0.207E+00
RMM:   8    -0.710604022532E+03    0.11761E-01   -0.11736E-02 13330   0.146E-01    0.707E-01
RMM:   9    -0.710603420914E+03    0.60162E-03   -0.41068E-03 13750   0.856E-02    0.837E-01
RMM:  10    -0.710602051301E+03    0.13696E-02   -0.13584E-03 11009   0.450E-02    0.320E-01
RMM:  11    -0.710601757616E+03    0.29369E-03   -0.83046E-04 10628   0.333E-02    0.471E-02
RMM:  12    -0.710601750381E+03    0.72354E-05   -0.28683E-04  9525   0.171E-02    0.159E-01
RMM:  13    -0.710601723209E+03    0.27172E-04   -0.17510E-04  8503   0.118E-02    0.709E-02
RMM:  14    -0.710601713291E+03    0.99175E-05   -0.80510E-05  7702   0.812E-03
   2 F= -.71060171E+03 E0= -.71058474E+03  d E =-.169475E+00
 trial-energy change:   -0.169475  1 .order   -0.159599   -0.379760    0.060563
 step:   0.8770(harm=  0.8625)  dis= 0.04223  next Energy=  -710.605420 (dE=-0.173E+00)
 bond charge predicted
       N       E                     dE             d eps       ncg     rms          rms(c)
DAV:   1    -0.710603914798E+03   -0.21916E-02   -0.12712E+00 11642   0.143E+00    0.124E+00
RMM:   2    -0.711066341169E+03   -0.46243E+00   -0.16990E-01 12147   0.718E-01    0.838E+00
RMM:   3    -0.710615041449E+03    0.45130E+00   -0.77068E-02 12392   0.557E-01    0.146E+00
RMM:   4    -0.710604385097E+03    0.10656E-01   -0.11542E-02 14021   0.149E-01    0.712E-01
RMM:   5    -0.710605032151E+03   -0.64705E-03   -0.37367E-03 12155   0.830E-02    0.115E-01
RMM:   6    -0.710605496343E+03   -0.46419E-03   -0.92738E-04 10961   0.424E-02    0.323E-01
RMM:   7    -0.710605486095E+03    0.10248E-04   -0.51699E-04 10693   0.286E-02    0.329E-01
RMM:   8    -0.710605309602E+03    0.17649E-03   -0.18782E-04  9423   0.228E-02    0.818E-02
RMM:   9    -0.710605277375E+03    0.32227E-04   -0.84309E-05  8416   0.118E-02    0.834E-02
RMM:  10    -0.710605258409E+03    0.18966E-04   -0.23411E-05  6583   0.729E-03    0.176E-02
RMM:  11    -0.710605255895E+03    0.25137E-05   -0.10542E-05  6070   0.512E-03
   3 F= -.71060526E+03 E0= -.71058833E+03  d E =-.173017E+00
 curvature:  -0.43 expect dE=-0.491E-01 dE for cont linesearch -0.671E-05
 trial: gam= 0.29697 g(F)=  0.115E+00 g(S)=  0.000E+00 ort = 0.244E-02 (trialstep = 0.975E+00)
 search vector abs. value=  0.150E+00
 bond charge predicted
       N       E                     dE             d eps       ncg     rms          rms(c)
DAV:   1    -0.710556391187E+03    0.48867E-01   -0.34839E+01 10784   0.799E+00    0.168E+00
RMM:   2    -0.711098710111E+03   -0.54232E+00   -0.13170E+00 12839   0.224E+00    0.629E+00
RMM:   3    -0.710695594434E+03    0.40312E+00   -0.36211E-01 13569   0.125E+00    0.788E-01
RMM:   4    -0.710688427654E+03    0.71668E-02   -0.87080E-02 15055   0.455E-01    0.129E+00
RMM:   5    -0.710694039331E+03   -0.56117E-02   -0.19867E-02 14143   0.221E-01    0.195E+00
RMM:   6    -0.710687985224E+03    0.60541E-02   -0.78177E-03 13773   0.118E-01    0.112E+00
RMM:   7    -0.710684780848E+03    0.32044E-02   -0.64890E-03 13137   0.105E-01    0.695E-01
RMM:   8    -0.710684017533E+03    0.76331E-03   -0.20734E-03 12924   0.635E-02    0.638E-01
RMM:   9    -0.710683201481E+03    0.81605E-03   -0.70889E-04 11401   0.327E-02    0.372E-01
RMM:  10    -0.710683060127E+03    0.14135E-03   -0.26565E-04  9867   0.188E-02    0.252E-01
RMM:  11    -0.710682985230E+03    0.74897E-04   -0.18165E-04  9356   0.133E-02    0.102E-01
RMM:  12    -0.710682989063E+03   -0.38332E-05   -0.72007E-05  8081   0.115E-02
   4 F= -.71068299E+03 E0= -.71066593E+03  d E =-.777332E-01
 trial-energy change:   -0.077733  1 .order   -0.077470   -0.113095   -0.041844
 step:   1.5290(harm=  1.5482)  dis= 0.04065  next Energy=  -710.694912 (dE=-0.897E-01)
 bond charge predicted
       N       E                     dE             d eps       ncg     rms          rms(c)
DAV:   1    -0.710655893755E+03    0.27091E-01   -0.11227E+01 11080   0.453E+00    0.985E-01
RMM:   2    -0.710906239322E+03   -0.25035E+00   -0.42107E-01 12732   0.127E+00    0.522E+00
RMM:   3    -0.710704089238E+03    0.20215E+00   -0.12131E-01 13524   0.714E-01    0.104E+00
RMM:   4    -0.710707668573E+03   -0.35793E-02   -0.26850E-02 14843   0.259E-01    0.217E+00
RMM:   5    -0.710697976310E+03    0.96923E-02   -0.62375E-03 14750   0.111E-01    0.471E-01
RMM:   6    -0.710696103304E+03    0.18730E-02   -0.27428E-03 12512   0.723E-02    0.266E-01
RMM:   7    -0.710696405547E+03   -0.30224E-03   -0.21065E-03 12833   0.606E-02    0.415E-01
RMM:   8    -0.710696388506E+03    0.17041E-04   -0.69934E-04 11608   0.406E-02    0.450E-01
RMM:   9    -0.710696030576E+03    0.35793E-03   -0.24309E-04  9483   0.193E-02    0.236E-01
RMM:  10    -0.710695924869E+03    0.10571E-03   -0.82462E-05  8106   0.130E-02    0.914E-02
RMM:  11    -0.710695930798E+03   -0.59289E-05   -0.46882E-05  7686   0.874E-03
   5 F= -.71069593E+03 E0= -.71067878E+03  d E =-.906749E-01
 curvature:  -1.00 expect dE=-0.765E-01 dE for cont linesearch -0.231E-04
 trial: gam= 0.61777 g(F)=  0.764E-01 g(S)=  0.000E+00 ort = 0.186E-02 (trialstep = 0.109E+01)
 search vector abs. value=  0.136E+00
 bond charge predicted
       N       E                     dE             d eps       ncg     rms          rms(c)
DAV:   1    -0.710575450188E+03    0.12047E+00   -0.37908E+01 11040   0.877E+00    0.108E+00
RMM:   2    -0.710800022540E+03   -0.22457E+00   -0.13361E+00 13364   0.241E+00    0.470E+00
RMM:   3    -0.710748337190E+03    0.51685E-01   -0.33572E-01 14446   0.112E+00    0.226E+00
RMM:   4    -0.710738709901E+03    0.96273E-02   -0.58058E-02 15364   0.397E-01    0.155E+00
RMM:   5    -0.710730916477E+03    0.77934E-02   -0.11068E-02 14597   0.180E-01    0.412E-01
RMM:   6    -0.710727956955E+03    0.29595E-02   -0.81294E-03 12956   0.117E-01    0.151E-01
RMM:   7    -0.710727999535E+03   -0.42580E-04   -0.31292E-03 13319   0.771E-02    0.309E-01
RMM:   8    -0.710727792350E+03    0.20719E-03   -0.60555E-04 12864   0.417E-02    0.111E-01
RMM:   9    -0.710727768390E+03    0.23960E-04   -0.37528E-04 10874   0.229E-02    0.993E-02
RMM:  10    -0.710727751233E+03    0.17157E-04   -0.12931E-04  9133   0.151E-02    0.202E-02
RMM:  11    -0.710727751773E+03   -0.53974E-06   -0.69731E-05  8084   0.966E-03
   6 F= -.71072775E+03 E0= -.71071065E+03  d E =-.318210E-01
 trial-energy change:   -0.031821  1 .order   -0.030889   -0.084207    0.022430
 step:   0.8668(harm=  0.8577)  dis= 0.01574  next Energy=  -710.730008 (dE=-0.341E-01)
 bond charge predicted
       N       E                     dE             d eps       ncg     rms          rms(c)
DAV:   1    -0.710723933128E+03    0.38181E-02   -0.15440E+00 11192   0.177E+00    0.214E-01
RMM:   2    -0.710733316248E+03   -0.93831E-02   -0.52408E-02 13260   0.479E-01    0.136E+00
RMM:   3    -0.710731223041E+03    0.20932E-02   -0.13202E-02 14519   0.220E-01    0.693E-01
RMM:   4    -0.710730609796E+03    0.61324E-03   -0.22155E-03 14641   0.843E-02    0.382E-01
RMM:   5    -0.710730091688E+03    0.51811E-03   -0.46967E-04 11653   0.388E-02    0.114E-01
RMM:   6    -0.710729942816E+03    0.14887E-03   -0.40882E-04 11543   0.288E-02    0.631E-02
RMM:   7    -0.710729928660E+03    0.14156E-04   -0.10114E-04  9007   0.170E-02    0.180E-02
RMM:   8    -0.710729928821E+03   -0.16099E-06   -0.37225E-05  7346   0.832E-03
   7 F= -.71072993E+03 E0= -.71071282E+03  d E =-.339980E-01
 curvature:  -0.75 expect dE=-0.196E-01 dE for cont linesearch -0.184E-05
 trial: gam= 0.34477 g(F)=  0.261E-01 g(S)=  0.000E+00 ort = 0.577E-03 (trialstep = 0.104E+01)
 search vector abs. value=  0.426E-01
 bond charge predicted
       N       E                     dE             d eps       ncg     rms          rms(c)
DAV:   1    -0.710702979403E+03    0.26949E-01   -0.10468E+01 10720   0.477E+00    0.574E-01
RMM:   2    -0.710763290483E+03   -0.60311E-01   -0.36743E-01 13518   0.130E+00    0.321E+00
RMM:   3    -0.710753384557E+03    0.99059E-02   -0.90680E-02 14368   0.595E-01    0.159E+00
RMM:   4    -0.710748431464E+03    0.49531E-02   -0.16109E-02 15253   0.223E-01    0.830E-01
RMM:   5    -0.710745658530E+03    0.27729E-02   -0.30565E-03 14181   0.102E-01    0.237E-01
RMM:   6    -0.710744774713E+03    0.88382E-03   -0.21774E-03 13085   0.643E-02    0.184E-01
RMM:   7    -0.710744686364E+03    0.88348E-04   -0.83822E-04 12785   0.413E-02    0.330E-02
RMM:   8    -0.710744682230E+03    0.41345E-05   -0.20902E-04  9855   0.247E-02    0.501E-02
RMM:   9    -0.710744682225E+03    0.47148E-08   -0.11502E-04  8855   0.115E-02    0.254E-02
RMM:  10    -0.710744683200E+03   -0.97530E-06   -0.41437E-05  7628   0.867E-03
   8 F= -.71074468E+03 E0= -.71072751E+03  d E =-.147544E-01
 trial-energy change:   -0.014754  1 .order   -0.014592   -0.027370   -0.001815
 step:   1.1134(harm=  1.1163)  dis= 0.01137  next Energy=  -710.744745 (dE=-0.148E-01)
 bond charge predicted
       N       E                     dE             d eps       ncg     rms          rms(c)
DAV:   1    -0.710744594177E+03    0.88048E-04   -0.49050E-02 11776   0.326E-01    0.401E-02
RMM:   2    -0.710744955174E+03   -0.36100E-03   -0.17312E-03 13370   0.898E-02    0.307E-01
RMM:   3    -0.710744839105E+03    0.11607E-03   -0.45752E-04 13450   0.424E-02    0.127E-01
RMM:   4    -0.710744815739E+03    0.23365E-04   -0.89912E-05  8948   0.190E-02    0.755E-02
RMM:   5    -0.710744794256E+03    0.21483E-04   -0.21709E-05  6408   0.107E-02    0.140E-02
RMM:   6    -0.710744789869E+03    0.43869E-05   -0.14663E-05  6121   0.729E-03
   9 F= -.71074479E+03 E0= -.71072761E+03  d E =-.148610E-01
 curvature:  -0.90 expect dE=-0.158E-01 dE for cont linesearch -0.124E-04
 trial: gam= 0.63408 g(F)=  0.175E-01 g(S)=  0.000E+00 ort = 0.766E-03 (trialstep = 0.106E+01)
 search vector abs. value=  0.356E-01
 bond charge predicted
       N       E                     dE             d eps       ncg     rms          rms(c)
DAV:   1    -0.710719601683E+03    0.25193E-01   -0.93820E+00 10672   0.446E+00    0.509E-01
RMM:   2    -0.710750233251E+03   -0.30632E-01   -0.31460E-01 13280   0.116E+00    0.680E-01
RMM:   3    -0.710770112402E+03   -0.19879E-01   -0.74811E-02 14736   0.512E-01    0.214E+00
RMM:   4    -0.710757958636E+03    0.12154E-01   -0.11395E-02 15178   0.190E-01    0.489E-01
RMM:   5    -0.710757162797E+03    0.79584E-03   -0.25878E-03 14569   0.854E-02    0.477E-01
RMM:   6    -0.710756681045E+03    0.48175E-03   -0.13047E-03 12766   0.519E-02    0.496E-01
RMM:   7    -0.710756168385E+03    0.51266E-03   -0.12188E-03 12667   0.493E-02    0.849E-02
RMM:   8    -0.710756084420E+03    0.83964E-04   -0.19422E-04 10350   0.248E-02    0.141E-01
RMM:   9    -0.710756044678E+03    0.39743E-04   -0.10353E-04  8948   0.143E-02    0.375E-02
RMM:  10    -0.710756046948E+03   -0.22705E-05   -0.49788E-05  7790   0.958E-03
  10 F= -.71075605E+03 E0= -.71073888E+03  d E =-.112571E-01
 trial-energy change:   -0.011257  1 .order   -0.010883   -0.019005   -0.002760
 step:   1.2114(harm=  1.2360)  dis= 0.01294  next Energy=  -710.756251 (dE=-0.115E-01)
 bond charge predicted
       N       E                     dE             d eps       ncg     rms          rms(c)
DAV:   1    -0.710755590880E+03    0.45380E-03   -0.20286E-01 11536   0.656E-01    0.733E-02
RMM:   2    -0.710756253525E+03   -0.66265E-03   -0.68612E-03 13293   0.171E-01    0.816E-02
RMM:   3    -0.710756760954E+03   -0.50743E-03   -0.16272E-03 14975   0.733E-02    0.407E-01
RMM:   4    -0.710756455068E+03    0.30589E-03   -0.24029E-04 11926   0.297E-02    0.118E-01
RMM:   5    -0.710756417429E+03    0.37639E-04   -0.75655E-05  8373   0.187E-02    0.795E-02
RMM:   6    -0.710756398777E+03    0.18652E-04   -0.37929E-05  7281   0.975E-03    0.737E-02
RMM:   7    -0.710756385997E+03    0.12780E-04   -0.28587E-05  6858   0.897E-03    0.909E-03
RMM:   8    -0.710756384931E+03    0.10656E-05   -0.66126E-06  5922   0.568E-03
  11 F= -.71075638E+03 E0= -.71073923E+03  d E =-.115951E-01
 curvature:  -1.20 expect dE=-0.129E-01 dE for cont linesearch -0.555E-04
 trial: gam= 0.59049 g(F)=  0.108E-01 g(S)=  0.000E+00 ort = 0.128E-02 (trialstep = 0.109E+01)
 search vector abs. value=  0.247E-01
 bond charge predicted
       N       E                     dE             d eps       ncg     rms          rms(c)
DAV:   1    -0.710736497307E+03    0.19889E-01   -0.71601E+00 10736   0.381E+00    0.444E-01
RMM:   2    -0.710758508665E+03   -0.22011E-01   -0.23027E-01 12966   0.972E-01    0.346E-01
RMM:   3    -0.710778069674E+03   -0.19561E-01   -0.55788E-02 15423   0.405E-01    0.246E+00
RMM:   4    -0.710766291171E+03    0.11779E-01   -0.81345E-03 14138   0.184E-01    0.844E-01
RMM:   5    -0.710764656659E+03    0.16345E-02   -0.23530E-03 14292   0.864E-02    0.559E-01
RMM:   6    -0.710763728587E+03    0.92807E-03   -0.80297E-04 12322   0.406E-02    0.337E-01
RMM:   7    -0.710763293515E+03    0.43507E-03   -0.11550E-03 12842   0.452E-02    0.138E-01
RMM:   8    -0.710763213327E+03    0.80187E-04   -0.19121E-04 10933   0.229E-02    0.775E-02
RMM:   9    -0.710763214137E+03   -0.80932E-06   -0.72686E-05  8321   0.118E-02
  12 F= -.71076321E+03 E0= -.71074602E+03  d E =-.682921E-02
 trial-energy change:   -0.006829  1 .order   -0.006832   -0.012538   -0.001127
 step:   1.1949(harm=  1.1949)  dis= 0.01267  next Energy=  -710.763273 (dE=-0.689E-02)
 bond charge predicted
       N       E                     dE             d eps       ncg     rms          rms(c)
DAV:   1    -0.710762990131E+03    0.22320E-03   -0.71035E-02 11848   0.380E-01    0.488E-02
RMM:   2    -0.710763349771E+03   -0.35964E-03   -0.24430E-03 12962   0.986E-02    0.243E-01
RMM:   3    -0.710763336842E+03    0.12929E-04   -0.59498E-04 14090   0.448E-02    0.158E-01
RMM:   4    -0.710763299590E+03    0.37253E-04   -0.93908E-05  9452   0.191E-02    0.757E-02
RMM:   5    -0.710763278676E+03    0.20913E-04   -0.22858E-05  6457   0.105E-02    0.287E-02
RMM:   6    -0.710763271689E+03    0.69871E-05   -0.21274E-05  6410   0.767E-03
  13 F= -.71076327E+03 E0= -.71074609E+03  d E =-.688676E-02
 curvature:  -1.28 expect dE=-0.597E-02 dE for cont linesearch -0.101E-04
 trial: gam= 0.48547 g(F)=  0.466E-02 g(S)=  0.000E+00 ort = 0.442E-03 (trialstep = 0.111E+01)
 search vector abs. value=  0.109E-01
 bond charge predicted
       N       E                     dE             d eps       ncg     rms          rms(c)
DAV:   1    -0.710753913945E+03    0.93647E-02   -0.32995E+00 10632   0.258E+00    0.377E-01
RMM:   2    -0.710794406715E+03   -0.40493E-01   -0.10520E-01 12653   0.670E-01    0.337E+00
RMM:   3    -0.710770776661E+03    0.23630E-01   -0.32250E-02 14104   0.354E-01    0.113E+00
RMM:   4    -0.710769220389E+03    0.15563E-02   -0.59061E-03 14624   0.142E-01    0.100E+00
RMM:   5    -0.710766393929E+03    0.28265E-02   -0.14203E-03 13470   0.644E-02    0.106E-01
RMM:   6    -0.710765964927E+03    0.42900E-03   -0.71387E-04 11780   0.410E-02    0.414E-02
RMM:   7    -0.710765965275E+03   -0.34788E-06   -0.34100E-04 10856   0.247E-02    0.182E-02
RMM:   8    -0.710765971200E+03   -0.59258E-05   -0.83764E-05  8690   0.146E-02
  14 F= -.71076597E+03 E0= -.71074877E+03  d E =-.269951E-02
 trial-energy change:   -0.002700  1 .order   -0.002752   -0.005410   -0.000094
 step:   1.1297(harm=  1.1285)  dis= 0.00804  next Energy=  -710.765972 (dE=-0.270E-02)
 bond charge predicted
       N       E                     dE             d eps       ncg     rms          rms(c)
DAV:   1    -0.710765972803E+03   -0.75282E-05   -0.12306E-03 12184   0.536E-02    0.188E-02
RMM:   2    -0.710766122181E+03   -0.14938E-03   -0.84771E-05  8888   0.197E-02    0.254E-01
RMM:   3    -0.710766005442E+03    0.11674E-03   -0.34752E-05  6832   0.132E-02    0.870E-02
RMM:   4    -0.710765989940E+03    0.15502E-04   -0.12382E-05  6107   0.825E-03    0.529E-02
RMM:   5    -0.710765979620E+03    0.10320E-04   -0.41472E-06  5902   0.495E-03    0.590E-03
RMM:   6    -0.710765978906E+03    0.71461E-06   -0.19239E-06  5873   0.334E-03
  15 F= -.71076598E+03 E0= -.71074877E+03  d E =-.270722E-02
 curvature:  -1.26 expect dE=-0.317E-02 dE for cont linesearch -0.613E-07
 trial: gam= 0.51916 g(F)=  0.252E-02 g(S)=  0.000E+00 ort = 0.231E-04 (trialstep = 0.111E+01)
 search vector abs. value=  0.549E-02
 bond charge predicted
       N       E                     dE             d eps       ncg     rms          rms(c)
DAV:   1    -0.710761500015E+03    0.44796E-02   -0.15652E+00 10976   0.186E+00    0.209E-01
RMM:   2    -0.710769884316E+03   -0.83843E-02   -0.50953E-02 13360   0.488E-01    0.128E+00
RMM:   3    -0.710768523215E+03    0.13611E-02   -0.13060E-02 14475   0.223E-01    0.590E-01
RMM:   4    -0.710768124700E+03    0.39852E-03   -0.20206E-03 14890   0.837E-02    0.403E-01
RMM:   5    -0.710767663291E+03    0.46141E-03   -0.41887E-04 12245   0.366E-02    0.147E-01
RMM:   6    -0.710767549560E+03    0.11373E-03   -0.27283E-04 10758   0.266E-02    0.111E-01
RMM:   7    -0.710767512283E+03    0.37277E-04   -0.10192E-04  9061   0.169E-02    0.320E-02
RMM:   8    -0.710767514927E+03   -0.26450E-05   -0.29600E-05  7058   0.845E-03
  16 F= -.71076751E+03 E0= -.71075031E+03  d E =-.153602E-02
 trial-energy change:   -0.001536  1 .order   -0.001503   -0.002821   -0.000185
 step:   1.1915(harm=  1.1915)  dis= 0.00466  next Energy=  -710.767489 (dE=-0.151E-02)
 bond charge predicted
       N       E                     dE             d eps       ncg     rms          rms(c)
DAV:   1    -0.710767492766E+03    0.19517E-04   -0.78891E-03 11784   0.132E-01    0.278E-02
RMM:   2    -0.710767802019E+03   -0.30925E-03   -0.33220E-04 12931   0.398E-02    0.359E-01
RMM:   3    -0.710767581131E+03    0.22089E-03   -0.11985E-04 10220   0.242E-02    0.128E-01
RMM:   4    -0.710767556181E+03    0.24950E-04   -0.33673E-05  6778   0.139E-02    0.906E-02
RMM:   5    -0.710767529424E+03    0.26756E-04   -0.94586E-06  5991   0.735E-03    0.805E-03
RMM:   6    -0.710767526647E+03    0.27767E-05   -0.43720E-06  5915   0.514E-03
  17 F= -.71076753E+03 E0= -.71075033E+03  d E =-.154774E-02
 curvature:  -1.29 expect dE=-0.157E-02 dE for cont linesearch -0.749E-07
 trial: gam= 0.45684 g(F)=  0.122E-02 g(S)=  0.000E+00 ort = 0.178E-04 (trialstep = 0.113E+01)
 search vector abs. value=  0.238E-02
 bond charge predicted
       N       E                     dE             d eps       ncg     rms          rms(c)
DAV:   1    -0.710765670940E+03    0.18585E-02   -0.69685E-01 10848   0.125E+00    0.164E-01
RMM:   2    -0.710773366986E+03   -0.76960E-02   -0.23568E-02 13243   0.332E-01    0.149E+00
RMM:   3    -0.710769287132E+03    0.40799E-02   -0.66268E-03 13859   0.169E-01    0.554E-01
RMM:   4    -0.710769051082E+03    0.23605E-03   -0.12819E-03 14234   0.680E-02    0.440E-01
RMM:   5    -0.710768468707E+03    0.58237E-03   -0.28331E-04 10956   0.320E-02    0.700E-02
RMM:   6    -0.710768394960E+03    0.73747E-04   -0.14072E-04  9257   0.199E-02    0.595E-02
RMM:   7    -0.710768374127E+03    0.20834E-04   -0.80616E-05  9123   0.137E-02    0.940E-03
RMM:   8    -0.710768375810E+03   -0.16832E-05   -0.20582E-05  6694   0.793E-03
  18 F= -.71076838E+03 E0= -.71075119E+03  d E =-.849162E-03
 trial-energy change:   -0.000849  1 .order   -0.000805   -0.001382   -0.000227
 step:   1.3039(harm=  1.3508)  dis= 0.00271  next Energy=  -710.768394 (dE=-0.867E-03)
 bond charge predicted
       N       E                     dE             d eps       ncg     rms          rms(c)
DAV:   1    -0.710768332761E+03    0.41366E-04   -0.16844E-02 11824   0.194E-01    0.219E-02
RMM:   2    -0.710768389159E+03   -0.56398E-04   -0.59129E-04 13273   0.519E-02    0.108E-02
RMM:   3    -0.710768409823E+03   -0.20664E-04   -0.14376E-04 11520   0.216E-02    0.603E-02
RMM:   4    -0.710768408142E+03    0.16811E-05   -0.22529E-05  6210   0.123E-02
  19 F= -.71076841E+03 E0= -.71075122E+03  d E =-.881495E-03
 curvature:  -1.25 expect dE=-0.113E-02 dE for cont linesearch -0.381E-05
 trial: gam= 0.80344 g(F)=  0.901E-03 g(S)=  0.000E+00 ort =-0.850E-04 (trialstep = 0.116E+01)
 search vector abs. value=  0.230E-02
 bond charge predicted
       N       E                     dE             d eps       ncg     rms          rms(c)
DAV:   1    -0.710766429809E+03    0.19800E-02   -0.71413E-01 11066   0.126E+00    0.202E-01
RMM:   2    -0.710782165652E+03   -0.15736E-01   -0.23532E-02 12887   0.334E-01    0.241E+00
RMM:   3    -0.710771385096E+03    0.10781E-01   -0.82274E-03 13620   0.194E-01    0.802E-01
RMM:   4    -0.710770503446E+03    0.88165E-03   -0.17783E-03 13773   0.834E-02    0.667E-01
RMM:   5    -0.710769215402E+03    0.12880E-02   -0.45373E-04 11158   0.407E-02    0.666E-02
RMM:   6    -0.710769068771E+03    0.14663E-03   -0.20205E-04  9278   0.237E-02    0.687E-02
RMM:   7    -0.710769053191E+03    0.15580E-04   -0.87785E-05  9163   0.138E-02    0.166E-02
RMM:   8    -0.710769055787E+03   -0.25963E-05   -0.28062E-05  6951   0.922E-03
  20 F= -.71076906E+03 E0= -.71075187E+03  d E =-.647645E-03
 trial-energy change:   -0.000648  1 .order   -0.000605   -0.000969   -0.000241
 step:   1.4332(harm=  1.5501)  dis= 0.00257  next Energy=  -710.769084 (dE=-0.676E-03)
 bond charge predicted
       N       E                     dE             d eps       ncg     rms          rms(c)
DAV:   1    -0.710768945789E+03    0.10740E-03   -0.38218E-02 11816   0.292E-01    0.415E-02
RMM:   2    -0.710769487357E+03   -0.54157E-03   -0.12636E-03 12929   0.767E-02    0.444E-01
RMM:   3    -0.710769165042E+03    0.32231E-03   -0.37892E-04 12068   0.409E-02    0.151E-01
RMM:   4    -0.710769146080E+03    0.18962E-04   -0.89967E-05  9304   0.213E-02    0.130E-01
RMM:   5    -0.710769097574E+03    0.48506E-04   -0.23517E-05  6416   0.106E-02    0.136E-02
RMM:   6    -0.710769092522E+03    0.50517E-05   -0.10443E-05  6074   0.708E-03
  21 F= -.71076909E+03 E0= -.71075191E+03  d E =-.684380E-03
 curvature:  -1.94 expect dE=-0.157E-02 dE for cont linesearch -0.590E-06
 trial: gam= 0.88781 g(F)=  0.809E-03 g(S)=  0.000E+00 ort = 0.264E-04 (trialstep = 0.105E+01)
 search vector abs. value=  0.267E-02
 bond charge predicted
       N       E                     dE             d eps       ncg     rms          rms(c)
DAV:   1    -0.710767131027E+03    0.19665E-02   -0.66086E-01 11152   0.123E+00    0.208E-01
RMM:   2    -0.710783549016E+03   -0.16418E-01   -0.22498E-02 12932   0.334E-01    0.216E+00
RMM:   3    -0.710771125199E+03    0.12424E-01   -0.80760E-03 13369   0.196E-01    0.697E-01
RMM:   4    -0.710770970526E+03    0.15467E-03   -0.17387E-03 14187   0.800E-02    0.655E-01
RMM:   5    -0.710769740275E+03    0.12303E-02   -0.41334E-04 11168   0.390E-02    0.588E-02
RMM:   6    -0.710769655426E+03    0.84849E-04   -0.16471E-04  8794   0.222E-02    0.149E-01
RMM:   7    -0.710769596625E+03    0.58801E-04   -0.84608E-05  9310   0.126E-02    0.160E-02
RMM:   8    -0.710769599836E+03   -0.32109E-05   -0.31630E-05  7162   0.982E-03
  22 F= -.71076960E+03 E0= -.71075241E+03  d E =-.507313E-03
 trial-energy change:   -0.000507  1 .order   -0.000518   -0.000873   -0.000163
 step:   1.2896(harm=  1.2896)  dis= 0.00171  next Energy=  -710.769629 (dE=-0.537E-03)
 bond charge predicted
       N       E                     dE             d eps       ncg     rms          rms(c)
DAV:   1    -0.710769474224E+03    0.12240E-03   -0.34637E-02 11976   0.281E-01    0.361E-02
RMM:   2    -0.710769825321E+03   -0.35110E-03   -0.11539E-03 13135   0.740E-02    0.330E-01
RMM:   3    -0.710769655220E+03    0.17010E-03   -0.33148E-04 12472   0.361E-02    0.123E-01
RMM:   4    -0.710769645418E+03    0.98029E-05   -0.67141E-05  8685   0.196E-02
  23 F= -.71076965E+03 E0= -.71075245E+03  d E =-.552895E-03
 curvature:  -2.07 expect dE=-0.178E-02 dE for cont linesearch -0.625E-04
 ZBRENT: interpolating
 opt :   1.1342  next Energy=  -710.769606 (dE=-0.514E-03)
 bond charge predicted
       N       E                     dE             d eps       ncg     rms          rms(c)
DAV:   1    -0.710769555563E+03    0.99657E-04   -0.14278E-02 11384   0.183E-01    0.256E-02
RMM:   2    -0.710769686334E+03   -0.13077E-03   -0.47999E-04 12792   0.468E-02    0.202E-01
RMM:   3    -0.710769642063E+03    0.44271E-04   -0.13416E-04 10944   0.234E-02    0.112E-01
RMM:   4    -0.710769622385E+03    0.19678E-04   -0.27652E-05  6491   0.132E-02    0.585E-02
RMM:   5    -0.710769611141E+03    0.11245E-04   -0.81367E-06  5932   0.710E-03    0.200E-02
RMM:   6    -0.710769608860E+03    0.22808E-05   -0.30059E-06  5879   0.454E-03
  24 F= -.71076961E+03 E0= -.71075243E+03  d E =-.516338E-03
 curvature:  -0.22 expect dE=-0.110E-03 dE for cont linesearch -0.166E-05
 ZBRENT: bisectioning
 opt :   1.2119  next Energy=  -710.769620 (dE=-0.527E-03)
 bond charge predicted
       N       E                     dE             d eps       ncg     rms          rms(c)
DAV:   1    -0.710769597282E+03    0.13859E-04   -0.36104E-03 11432   0.910E-02    0.126E-02
RMM:   2    -0.710769649422E+03   -0.52140E-04   -0.13523E-04 10969   0.247E-02    0.135E-01
RMM:   3    -0.710769618640E+03    0.30782E-04   -0.33734E-05  7011   0.128E-02    0.489E-02
RMM:   4    -0.710769615968E+03    0.26726E-05   -0.88610E-06  5907   0.829E-03
  25 F= -.71076962E+03 E0= -.71075243E+03  d E =-.523445E-03
 curvature:  -1.39 expect dE=-0.820E-03 dE for cont linesearch -0.547E-05
 trial: gam= 0.78704 g(F)=  0.588E-03 g(S)=  0.000E+00 ort =-0.102E-03 (trialstep = 0.108E+01)
 search vector abs. value=  0.208E-02
 bond charge predicted
       N       E                     dE             d eps       ncg     rms          rms(c)
DAV:   1    -0.710767952818E+03    0.16658E-02   -0.54411E-01 11114   0.112E+00    0.142E-01
RMM:   2    -0.710774308804E+03   -0.63560E-02   -0.17285E-02 13057   0.291E-01    0.147E+00
RMM:   3    -0.710770919367E+03    0.33894E-02   -0.54426E-03 13837   0.154E-01    0.529E-01
RMM:   4    -0.710770559444E+03    0.35992E-03   -0.10182E-03 13953   0.626E-02    0.399E-01
RMM:   5    -0.710770070915E+03    0.48853E-03   -0.22672E-04 10341   0.303E-02    0.512E-02
RMM:   6    -0.710770003615E+03    0.67301E-04   -0.12209E-04  9297   0.183E-02    0.195E-02
RMM:   7    -0.710769999653E+03    0.39620E-05   -0.52570E-05  8136   0.115E-02
  26 F= -.71077000E+03 E0= -.71075281E+03  d E =-.383685E-03
 trial-energy change:   -0.000384  1 .order   -0.000368   -0.000549   -0.000187
 step:   1.6416(harm=  1.6416)  dis= 0.00217  next Energy=  -710.770032 (dE=-0.416E-03)
 bond charge predicted
       N       E                     dE             d eps       ncg     rms          rms(c)
DAV:   1    -0.710769462095E+03    0.54152E-03   -0.14534E-01 11448   0.577E-01    0.700E-02
RMM:   2    -0.710770724189E+03   -0.12621E-02   -0.46278E-03 13165   0.150E-01    0.621E-01
RMM:   3    -0.710770187743E+03    0.53645E-03   -0.13725E-03 13861   0.753E-02    0.238E-01
RMM:   4    -0.710770127431E+03    0.60312E-04   -0.25115E-04 11998   0.311E-02    0.173E-01
RMM:   5    -0.710770032404E+03    0.95026E-04   -0.59399E-05  7921   0.173E-02    0.222E-02
RMM:   6    -0.710770018840E+03    0.13564E-04   -0.29915E-05  6864   0.964E-03    0.121E-02
RMM:   7    -0.710770017720E+03    0.11201E-05   -0.13086E-05  6105   0.707E-03
  27 F= -.71077002E+03 E0= -.71075283E+03  d E =-.401752E-03
 curvature:  -3.36 expect dE=-0.262E-02 dE for cont linesearch -0.276E-05
 trial: gam= 1.40414 g(F)=  0.779E-03 g(S)=  0.000E+00 ort =-0.413E-04 (trialstep = 0.521E+00)
 search vector abs. value=  0.476E-02
 bond charge predicted
       N       E                     dE             d eps       ncg     rms          rms(c)
DAV:   1    -0.710769194849E+03    0.82399E-03   -0.29701E-01 11184   0.812E-01    0.958E-02
RMM:   2    -0.710771175979E+03   -0.19811E-02   -0.88319E-03 12722   0.203E-01    0.710E-01
RMM:   3    -0.710770526260E+03    0.64972E-03   -0.26219E-03 14348   0.995E-02    0.305E-01
RMM:   4    -0.710770444864E+03    0.81396E-04   -0.41666E-04 12578   0.406E-02    0.222E-01
RMM:   5    -0.710770301942E+03    0.14292E-03   -0.10681E-04  9216   0.216E-02    0.619E-02
RMM:   6    -0.710770277338E+03    0.24603E-04   -0.57386E-05  8036   0.124E-02    0.197E-02
RMM:   7    -0.710770272620E+03    0.47182E-05   -0.20761E-05  6551   0.855E-03
  28 F= -.71077027E+03 E0= -.71075309E+03  d E =-.254900E-03
 trial-energy change:   -0.000255  1 .order   -0.000287   -0.000376   -0.000198
 step:   1.1044(harm=  1.1044)  dis= 0.00274  next Energy=  -710.770416 (dE=-0.398E-03)
 bond charge predicted
       N       E                     dE             d eps       ncg     rms          rms(c)
DAV:   1    -0.710768991233E+03    0.12861E-02   -0.37188E-01 11240   0.908E-01    0.104E-01
RMM:   2    -0.710770978582E+03   -0.19873E-02   -0.10959E-02 12739   0.226E-01    0.648E-01
RMM:   3    -0.710770588094E+03    0.39049E-03   -0.31851E-03 14543   0.108E-01    0.315E-01
RMM:   4    -0.710770499562E+03    0.88532E-04   -0.47754E-04 13051   0.432E-02    0.212E-01
RMM:   5    -0.710770368011E+03    0.13155E-03   -0.11970E-04  9544   0.224E-02    0.655E-02
RMM:   6    -0.710770342338E+03    0.25674E-04   -0.65602E-05  8405   0.131E-02    0.206E-02
RMM:   7    -0.710770336752E+03    0.55858E-05   -0.26511E-05  6843   0.921E-03
  29 F= -.71077034E+03 E0= -.71075315E+03  d E =-.319032E-03
 curvature:  -3.65 expect dE=-0.181E-02 dE for cont linesearch -0.116E-05
 trial: gam= 0.29446 g(F)=  0.496E-03 g(S)=  0.000E+00 ort = 0.389E-04 (trialstep = 0.638E+00)
 search vector abs. value=  0.932E-03
 bond charge predicted
       N       E                     dE             d eps       ncg     rms          rms(c)
DAV:   1    -0.710770220959E+03    0.12138E-03   -0.86182E-02 11136   0.442E-01    0.909E-02
RMM:   2    -0.710773941832E+03   -0.37209E-02   -0.34315E-03 13204   0.128E-01    0.119E+00
RMM:   3    -0.710771077834E+03    0.28640E-02   -0.13195E-03 13158   0.802E-02    0.393E-01
RMM:   4    -0.710770897556E+03    0.18028E-03   -0.32901E-04 11557   0.367E-02    0.310E-01
RMM:   5    -0.710770595953E+03    0.30160E-03   -0.91331E-05  8028   0.203E-02    0.294E-02
RMM:   6    -0.710770573757E+03    0.22196E-04   -0.36680E-05  7070   0.106E-02    0.651E-02
RMM:   7    -0.710770561951E+03    0.11806E-04   -0.13627E-05  6186   0.658E-03    0.101E-02
RMM:   8    -0.710770562371E+03   -0.41995E-06   -0.65293E-06  5896   0.515E-03
  30 F= -.71077056E+03 E0= -.71075337E+03  d E =-.225619E-03
 trial-energy change:   -0.000226  1 .order   -0.000230   -0.000324   -0.000136
 step:   1.1029(harm=  1.1029)  dis= 0.00124  next Energy=  -710.770617 (dE=-0.280E-03)
 bond charge predicted
       N       E                     dE             d eps       ncg     rms          rms(c)
DAV:   1    -0.710770419730E+03    0.14222E-03   -0.45786E-02 11176   0.322E-01    0.533E-02
RMM:   2    -0.710771580011E+03   -0.11603E-02   -0.16958E-03 13434   0.875E-02    0.666E-01
RMM:   3    -0.710770764866E+03    0.81515E-03   -0.54033E-04 12883   0.505E-02    0.224E-01
RMM:   4    -0.710770711409E+03    0.53456E-04   -0.13018E-04  9663   0.236E-02    0.179E-01
RMM:   5    -0.710770612809E+03    0.98601E-04   -0.34770E-05  6839   0.126E-02    0.192E-02
RMM:   6    -0.710770605108E+03    0.77013E-05   -0.14391E-05  6232   0.769E-03
  31 F= -.71077061E+03 E0= -.71075342E+03  d E =-.268356E-03
 curvature:  -1.01 expect dE=-0.388E-03 dE for cont linesearch -0.289E-05
 trial: gam= 0.82260 g(F)=  0.383E-03 g(S)=  0.000E+00 ort =-0.516E-04 (trialstep = 0.731E+00)
 search vector abs. value=  0.929E-03
 bond charge predicted
       N       E                     dE             d eps       ncg     rms          rms(c)
DAV:   1    -0.710770344766E+03    0.26804E-03   -0.11370E-01 10920   0.498E-01    0.139E-01
RMM:   2    -0.710780105791E+03   -0.97610E-02   -0.50518E-03 12590   0.154E-01    0.202E+00
RMM:   3    -0.710772334122E+03    0.77717E-02   -0.23250E-03 13119   0.106E-01    0.647E-01
RMM:   4    -0.710771599172E+03    0.73495E-03   -0.68857E-04 11570   0.539E-02    0.493E-01
RMM:   5    -0.710770833138E+03    0.76603E-03   -0.17793E-04  8474   0.279E-02    0.350E-02
RMM:   6    -0.710770770422E+03    0.62716E-04   -0.77333E-05  7890   0.150E-02    0.928E-02
RMM:   7    -0.710770754041E+03    0.16381E-04   -0.22664E-05  6702   0.780E-03    0.282E-02
RMM:   8    -0.710770754616E+03   -0.57430E-06   -0.87973E-06  6012   0.593E-03
  32 F= -.71077075E+03 E0= -.71075358E+03  d E =-.149508E-03
 trial-energy change:   -0.000150  1 .order   -0.000150   -0.000249   -0.000050
 step:   0.9144(harm=  0.9144)  dis= 0.00099  next Energy=  -710.770761 (dE=-0.156E-03)
 bond charge predicted
       N       E                     dE             d eps       ncg     rms          rms(c)
DAV:   1    -0.710770734726E+03    0.19316E-04   -0.71775E-03 12024   0.125E-01    0.195E-02
RMM:   2    -0.710770868610E+03   -0.13388E-03   -0.25593E-04 12626   0.326E-02    0.225E-01
RMM:   3    -0.710770779019E+03    0.89591E-04   -0.69143E-05  8570   0.176E-02    0.710E-02
RMM:   4    -0.710770775094E+03    0.39251E-05   -0.19117E-05  6222   0.108E-02
  33 F= -.71077078E+03 E0= -.71075360E+03  d E =-.169986E-03
 curvature:  -1.25 expect dE=-0.441E-03 dE for cont linesearch -0.142E-04
 ZBRENT: interpolating
 opt :   0.8041  next Energy=  -710.770757 (dE=-0.152E-03)
 bond charge predicted
       N       E                     dE             d eps       ncg     rms          rms(c)
DAV:   1    -0.710770750124E+03    0.28894E-04   -0.25438E-03 10824   0.760E-02    0.233E-02
RMM:   2    -0.710770990904E+03   -0.24078E-03   -0.14163E-04  9939   0.244E-02    0.322E-01
RMM:   3    -0.710770807747E+03    0.18316E-03   -0.53837E-05  7351   0.169E-02    0.122E-01
RMM:   4    -0.710770778630E+03    0.29117E-04   -0.18345E-05  6185   0.105E-02    0.666E-02
RMM:   5    -0.710770761219E+03    0.17411E-04   -0.59106E-06  5903   0.623E-03    0.115E-02
RMM:   6    -0.710770759359E+03    0.18600E-05   -0.23286E-06  5856   0.405E-03
  34 F= -.71077076E+03 E0= -.71075357E+03  d E =-.154251E-03
 curvature:  -0.22 expect dE=-0.445E-04 dE for cont linesearch -0.230E-05
 ZBRENT: bisectioning
 opt :   0.8593  next Energy=  -710.770765 (dE=-0.160E-03)
 bond charge predicted
       N       E                     dE             d eps       ncg     rms          rms(c)
DAV:   1    -0.710770758962E+03    0.22563E-05   -0.63025E-04 10728   0.373E-02    0.109E-02
RMM:   2    -0.710770816615E+03   -0.57652E-04   -0.31435E-05  6773   0.121E-02    0.159E-01
RMM:   3    -0.710770771471E+03    0.45143E-04   -0.12335E-05  5951   0.895E-03    0.543E-02
RMM:   4    -0.710770766742E+03    0.47292E-05   -0.45661E-06  5782   0.529E-03
  35 F= -.71077077E+03 E0= -.71075359E+03  d E =-.161635E-03
 curvature:  -0.58 expect dE=-0.155E-03 dE for cont linesearch -0.125E-05
 trial: gam= 0.60526 g(F)=  0.269E-03 g(S)=  0.000E+00 ort =-0.448E-04 (trialstep = 0.757E+00)
 search vector abs. value=  0.555E-03
 bond charge predicted
       N       E                     dE             d eps       ncg     rms          rms(c)
DAV:   1    -0.710770607229E+03    0.16424E-03   -0.72271E-02 10946   0.403E-01    0.112E-01
RMM:   2    -0.710776731591E+03   -0.61244E-02   -0.33514E-03 13162   0.123E-01    0.151E+00
RMM:   3    -0.710771685401E+03    0.50462E-02   -0.14395E-03 12754   0.849E-02    0.489E-01
RMM:   4    -0.710771353506E+03    0.33189E-03   -0.39823E-04 11329   0.408E-02    0.364E-01
RMM:   5    -0.710770919736E+03    0.43377E-03   -0.10793E-04  8082   0.214E-02    0.388E-02
RMM:   6    -0.710770887808E+03    0.31928E-04   -0.41457E-05  7183   0.116E-02    0.773E-02
RMM:   7    -0.710770871489E+03    0.16319E-04   -0.12140E-05  6161   0.635E-03    0.900E-03
RMM:   8    -0.710770870945E+03    0.54418E-06   -0.72089E-06  5920   0.535E-03
  36 F= -.71077087E+03 E0= -.71075369E+03  d E =-.104203E-03
 trial-energy change:   -0.000104  1 .order   -0.000110   -0.000183   -0.000038
 step:   0.9525(harm=  0.9525)  dis= 0.00088  next Energy=  -710.770882 (dE=-0.115E-03)
 bond charge predicted
       N       E                     dE             d eps       ncg     rms          rms(c)
DAV:   1    -0.710770853471E+03    0.18018E-04   -0.48027E-03 11656   0.104E-01    0.230E-02
RMM:   2    -0.710771112541E+03   -0.25907E-03   -0.20705E-04 12766   0.291E-02    0.329E-01
RMM:   3    -0.710770910328E+03    0.20221E-03   -0.68781E-05  7881   0.188E-02    0.106E-01
RMM:   4    -0.710770896535E+03    0.13793E-04   -0.21943E-05  6266   0.114E-02    0.846E-02
RMM:   5    -0.710770874589E+03    0.21946E-04   -0.73324E-06  5914   0.672E-03    0.820E-03
RMM:   6    -0.710770873412E+03    0.11764E-05   -0.31486E-06  5893   0.456E-03
  37 F= -.71077087E+03 E0= -.71075369E+03  d E =-.106670E-03
 curvature:  -1.09 expect dE=-0.185E-03 dE for cont linesearch -0.594E-05
 ZBRENT: interpolating
 opt :   0.8496  next Energy=  -710.770873 (dE=-0.107E-03)
 bond charge predicted
       N       E                     dE             d eps       ncg     rms          rms(c)
DAV:   1    -0.710770867366E+03    0.72232E-05   -0.13207E-03 10640   0.550E-02    0.179E-02
RMM:   2    -0.710771032792E+03   -0.16543E-03   -0.84373E-05  9069   0.193E-02    0.270E-01
RMM:   3    -0.710770902510E+03    0.13028E-03   -0.30959E-05  6570   0.134E-02    0.929E-02
RMM:   4    -0.710770885869E+03    0.16641E-04   -0.11600E-05  6026   0.835E-03    0.577E-02
RMM:   5    -0.710770873870E+03    0.11999E-04   -0.35778E-06  5852   0.480E-03    0.745E-03
RMM:   6    -0.710770872718E+03    0.11524E-05   -0.15466E-06  5834   0.329E-03
  38 F= -.71077087E+03 E0= -.71075369E+03  d E =-.105976E-03
 curvature:  -0.43 expect dE=-0.538E-04 dE for cont linesearch -0.852E-06
 ZBRENT: bisectioning
 opt :   0.9010  next Energy=  -710.770874 (dE=-0.107E-03)
 bond charge predicted
       N       E                     dE             d eps       ncg     rms          rms(c)
DAV:   1    -0.710770871871E+03    0.19997E-05   -0.32420E-04 10592   0.272E-02    0.916E-03
RMM:   2    -0.710770914508E+03   -0.42637E-04   -0.18624E-05  6145   0.960E-03    0.137E-01
RMM:   3    -0.710770880555E+03    0.33953E-04   -0.87173E-06  5779   0.764E-03    0.464E-02
RMM:   4    -0.710770876807E+03    0.37483E-05   -0.29075E-06  5628   0.419E-03
  39 F= -.71077088E+03 E0= -.71075369E+03  d E =-.110065E-03
 curvature:  -0.74 expect dE=-0.126E-03 dE for cont linesearch -0.435E-05
 ZBRENT: interpolating
 opt :   0.8686  next Energy=  -710.770873 (dE=-0.106E-03)
 bond charge predicted
       N       E                     dE             d eps       ncg     rms          rms(c)
DAV:   1    -0.710770873210E+03    0.73449E-05   -0.12583E-04 11448   0.184E-02    0.395E-03
RMM:   2    -0.710770876631E+03   -0.34208E-05   -0.54477E-06  5352   0.505E-03
  40 F= -.71077088E+03 E0= -.71075370E+03  d E =-.109889E-03
 curvature:  -0.05 expect dE=-0.747E-05 dE for cont linesearch -0.321E-06
 ZBRENT: interpolating
 opt :   0.8849  next Energy=  -710.770877 (dE=-0.111E-03)
 bond charge predicted
       N       E                     dE             d eps       ncg     rms          rms(c)
DAV:   1    -0.710770873788E+03   -0.57765E-06   -0.43333E-05  7512   0.135E-02    0.190E-02
RMM:   2    -0.710771095381E+03   -0.22159E-03   -0.38660E-05  6696   0.120E-02    0.318E-01
RMM:   3    -0.710770905209E+03    0.19017E-03   -0.28900E-05  6091   0.115E-02    0.902E-02
RMM:   4    -0.710770891181E+03    0.14028E-04   -0.10597E-05  5487   0.666E-03    0.718E-02
RMM:   5    -0.710770874774E+03    0.16406E-04   -0.26503E-06  4552   0.320E-03    0.671E-03
RMM:   6    -0.710770873972E+03    0.80211E-06   -0.91806E-07  4046   0.221E-03
  41 F= -.71077087E+03 E0= -.71075370E+03  d E =-.107230E-03
 curvature:  -0.08 expect dE=-0.100E-04 dE for cont linesearch -0.131E-07
 trial: gam= 0.42614 g(F)=  0.129E-03 g(S)=  0.000E+00 ort =-0.970E-05 (trialstep = 0.782E+00)
 search vector abs. value=  0.222E-03
 bond charge predicted
       N       E                     dE             d eps       ncg     rms          rms(c)
DAV:   1    -0.710770820804E+03    0.53971E-04   -0.30136E-02 10848   0.263E-01    0.698E-02
RMM:   2    -0.710773262956E+03   -0.24422E-02   -0.14017E-03 13242   0.817E-02    0.995E-01
RMM:   3    -0.710771303956E+03    0.19590E-02   -0.61019E-04 11881   0.560E-02    0.328E-01
RMM:   4    -0.710771154996E+03    0.14896E-03   -0.17413E-04  9415   0.284E-02    0.248E-01
RMM:   5    -0.710770958568E+03    0.19643E-03   -0.48041E-05  7081   0.145E-02    0.291E-02
RMM:   6    -0.710770943565E+03    0.15003E-04   -0.18559E-05  6332   0.911E-03    0.516E-02
RMM:   7    -0.710770936208E+03    0.73571E-05   -0.56872E-06  5907   0.530E-03
  42 F= -.71077094E+03 E0= -.71075375E+03  d E =-.622362E-04
 trial-energy change:   -0.000062  1 .order   -0.000059   -0.000098   -0.000020
 step:   0.9848(harm=  0.9848)  dis= 0.00057  next Energy=  -710.770936 (dE=-0.616E-04)
 bond charge predicted
       N       E                     dE             d eps       ncg     rms          rms(c)
DAV:   1    -0.710770930650E+03    0.12916E-04   -0.19930E-03 11472   0.696E-02    0.929E-03
RMM:   2    -0.710770960887E+03   -0.30237E-04   -0.88266E-05 10321   0.215E-02    0.100E-01
RMM:   3    -0.710770943125E+03    0.17762E-04   -0.21615E-05  6358   0.106E-02    0.325E-02
RMM:   4    -0.710770942284E+03    0.84090E-06   -0.66809E-06  5900   0.712E-03
  43 F= -.71077094E+03 E0= -.71075375E+03  d E =-.683120E-04
 curvature:  -0.87 expect dE=-0.116E-03 dE for cont linesearch -0.406E-05
 ZBRENT: interpolating
 opt :   0.8724  next Energy=  -710.770937 (dE=-0.634E-04)
 bond charge predicted
       N       E                     dE             d eps       ncg     rms          rms(c)
DAV:   1    -0.710770936079E+03    0.70464E-05   -0.59416E-04 10657   0.377E-02    0.812E-03
RMM:   2    -0.710770959553E+03   -0.23474E-04   -0.26621E-05  6510   0.117E-02    0.991E-02
RMM:   3    -0.710770943549E+03    0.16003E-04   -0.90687E-06  5853   0.825E-03    0.411E-02
RMM:   4    -0.710770940711E+03    0.28385E-05   -0.32228E-06  5762   0.461E-03
  44 F= -.71077094E+03 E0= -.71075376E+03  d E =-.667388E-04
 curvature:  -0.25 expect dE=-0.149E-04 dE for cont linesearch -0.343E-05
 ZBRENT: interpolating
 opt :   0.9435  next Energy=  -710.770943 (dE=-0.690E-04)
 bond charge predicted
       N       E                     dE             d eps       ncg     rms          rms(c)
DAV:   1    -0.710770938769E+03    0.47808E-05   -0.23194E-04 11000   0.241E-02    0.319E-03
RMM:   2    -0.710770939526E+03   -0.75715E-06   -0.95196E-06  5477   0.696E-03
  45 F= -.71077094E+03 E0= -.71075375E+03  d E =-.655537E-04
 curvature:  -0.05 expect dE=-0.423E-05 dE for cont linesearch -0.114E-06
 ZBRENT: bisectioning
 opt :   0.9079  next Energy=  -710.770940 (dE=-0.662E-04)
 bond charge predicted
       N       E                     dE             d eps       ncg     rms          rms(c)
DAV:   1    -0.710770939109E+03   -0.34015E-06   -0.55836E-05  9858   0.127E-02    0.130E-02
RMM:   2    -0.710771041259E+03   -0.10215E-03   -0.22141E-05  6198   0.931E-03    0.214E-01
RMM:   3    -0.710770954601E+03    0.86658E-04   -0.14233E-05  5576   0.836E-03    0.641E-02
RMM:   4    -0.710770946342E+03    0.82593E-05   -0.48451E-06  5032   0.463E-03
  46 F= -.71077095E+03 E0= -.71075376E+03  d E =-.723698E-04
 curvature:  -0.28 expect dE=-0.437E-04 dE for cont linesearch -0.447E-06
 trial: gam= 1.02080 g(F)=  0.154E-03 g(S)=  0.000E+00 ort = 0.187E-04 (trialstep = 0.423E+00)
 search vector abs. value=  0.423E-03
 bond charge predicted
       N       E                     dE             d eps       ncg     rms          rms(c)
DAV:   1    -0.710770917909E+03    0.36692E-04   -0.16889E-02 10808   0.193E-01    0.941E-02
RMM:   2    -0.710775895044E+03   -0.49771E-02   -0.13570E-03 12408   0.723E-02    0.149E+00
RMM:   3    -0.710771821621E+03    0.40734E-02   -0.81636E-04 10914   0.619E-02    0.480E-01
RMM:   4    -0.710771335924E+03    0.48570E-03   -0.28002E-04  8758   0.358E-02    0.300E-01
RMM:   5    -0.710771000816E+03    0.33511E-03   -0.61788E-05  7214   0.165E-02    0.201E-02
RMM:   6    -0.710770977399E+03    0.23417E-04   -0.22972E-05  6495   0.103E-02    0.676E-02
RMM:   7    -0.710770969661E+03    0.77379E-05   -0.58854E-06  5914   0.557E-03
  47 F= -.71077097E+03 E0= -.71075379E+03  d E =-.233189E-04
 trial-energy change:   -0.000023  1 .order   -0.000035   -0.000073    0.000003
 step:   0.4081(harm=  0.4081)  dis= 0.00040  next Energy=  -710.770982 (dE=-0.352E-04)
 bond charge predicted
       N       E                     dE             d eps       ncg     rms          rms(c)
DAV:   1    -0.710770968718E+03    0.86807E-05   -0.23245E-05  8072   0.117E-02    0.317E-02
RMM:   2    -0.710771535389E+03   -0.56667E-03   -0.10700E-04  7939   0.154E-02    0.499E-01
RMM:   3    -0.710771066732E+03    0.46866E-03   -0.83138E-05  7394   0.190E-02    0.167E-01
RMM:   4    -0.710771005843E+03    0.60889E-04   -0.28534E-05  6379   0.103E-02    0.895E-02
RMM:   5    -0.710770971978E+03    0.33864E-04   -0.65488E-06  5308   0.468E-03    0.158E-02
RMM:   6    -0.710770968800E+03    0.31783E-05   -0.23182E-06  4700   0.319E-03
  48 F= -.71077097E+03 E0= -.71075378E+03  d E =-.224581E-04
 curvature:  -0.50 expect dE=-0.348E-04 dE for cont linesearch -0.462E-05
 ZBRENT: interpolating
 opt :   0.4220  next Energy=  -710.770970 (dE=-0.233E-04)
 bond charge predicted
       N       E                     dE             d eps       ncg     rms          rms(c)
DAV:   1    -0.710770968316E+03    0.36619E-05   -0.15344E-05  7296   0.750E-03    0.664E-03
RMM:   2    -0.710770991387E+03   -0.23071E-04   -0.80482E-06  5570   0.583E-03    0.102E-01
RMM:   3    -0.710770973122E+03    0.18265E-04   -0.43571E-06  5320   0.483E-03    0.366E-02
RMM:   4    -0.710770969939E+03    0.31832E-05   -0.12377E-06  4231   0.247E-03
  49 F= -.71077097E+03 E0= -.71075378E+03  d E =-.235969E-04
 curvature:  -0.00 expect dE=-0.308E-07 dE for cont linesearch -0.503E-11
 trial: gam= 0.26674 g(F)=  0.609E-04 g(S)=  0.000E+00 ort =-0.205E-05 (trialstep = 0.423E+00)
 search vector abs. value=  0.899E-04
 bond charge predicted
       N       E                     dE             d eps       ncg     rms          rms(c)
DAV:   1    -0.710770976221E+03   -0.30992E-05   -0.38345E-03 10553   0.911E-02    0.156E-02
RMM:   2    -0.710771079713E+03   -0.10349E-03   -0.15947E-04 11532   0.256E-02    0.203E-01
RMM:   3    -0.710771005889E+03    0.73824E-04   -0.40014E-05  7182   0.141E-02    0.648E-02
RMM:   4    -0.710771000469E+03    0.54200E-05   -0.12080E-05  6009   0.907E-03
  50 F= -.71077100E+03 E0= -.71075382E+03  d E =-.305300E-04
 trial-energy change:   -0.000031  1 .order   -0.000017   -0.000026   -0.000008
 step:   0.6334(harm=  0.6334)  dis= 0.00027  next Energy=  -710.770989 (dE=-0.191E-04)
 bond charge predicted
       N       E                     dE             d eps       ncg     rms          rms(c)
DAV:   1    -0.710770995772E+03    0.10117E-04   -0.98278E-04 11728   0.480E-02    0.735E-03
RMM:   2    -0.710771013851E+03   -0.18079E-04   -0.36895E-05  7416   0.130E-02    0.858E-02
RMM:   3    -0.710770999351E+03    0.14500E-04   -0.10235E-05  5928   0.790E-03    0.157E-02
RMM:   4    -0.710770999816E+03   -0.46589E-06   -0.39316E-06  5879   0.527E-03
  51 F= -.71077100E+03 E0= -.71075382E+03  d E =-.298776E-04
 curvature:  -0.47 expect dE=-0.107E-04 dE for cont linesearch -0.210E-05
 ZBRENT: increasing intervall
 opt :   1.0539  next Energy=  -710.771008 (dE=-0.383E-04)
 bond charge predicted
       N       E                     dE             d eps       ncg     rms          rms(c)
DAV:   1    -0.710770988824E+03    0.10527E-04   -0.37580E-03 10633   0.908E-02    0.128E-02
RMM:   2    -0.710771048882E+03   -0.60058E-04   -0.15604E-04 11919   0.267E-02    0.146E-01
RMM:   3    -0.710771010889E+03    0.37993E-04   -0.39544E-05  7049   0.133E-02    0.424E-02
RMM:   4    -0.710771008727E+03    0.21622E-05   -0.10269E-05  5948   0.867E-03
  52 F= -.71077101E+03 E0= -.71075383E+03  d E =-.387884E-04
 curvature:  -1.89 expect dE=-0.111E-03 dE for cont linesearch -0.630E-05
 ZBRENT: bracketing found
 ZBRENT: interpolating
 opt :   0.8588  next Energy=  -710.771010 (dE=-0.405E-04)
 bond charge predicted
       N       E                     dE             d eps       ncg     rms          rms(c)
DAV:   1    -0.710770999353E+03    0.11536E-04   -0.78565E-04 10464   0.425E-02    0.840E-03
RMM:   2    -0.710771011775E+03   -0.12421E-04   -0.35017E-05  6997   0.132E-02    0.669E-02
RMM:   3    -0.710771005909E+03    0.58657E-05   -0.92461E-06  5854   0.800E-03
  53 F= -.71077101E+03 E0= -.71075382E+03  d E =-.359700E-04
 curvature:  -0.51 expect dE=-0.281E-04 dE for cont linesearch -0.810E-05
 ZBRENT: interpolating
 opt :   0.9927  next Energy=  -710.771009 (dE=-0.393E-04)
 bond charge predicted
       N       E                     dE             d eps       ncg     rms          rms(c)
DAV:   1    -0.710771003768E+03    0.80062E-05   -0.36483E-04 10657   0.294E-02    0.189E-02
RMM:   2    -0.710771217650E+03   -0.21388E-03   -0.44811E-05  7205   0.131E-02    0.312E-01
RMM:   3    -0.710771035001E+03    0.18265E-03   -0.29663E-05  6522   0.125E-02    0.899E-02
RMM:   4    -0.710771022879E+03    0.12121E-04   -0.11130E-05  5992   0.706E-03    0.754E-02
RMM:   5    -0.710771005466E+03    0.17413E-04   -0.29990E-06  5763   0.378E-03    0.595E-03
RMM:   6    -0.710771004850E+03    0.61595E-06   -0.11671E-06  5682   0.258E-03
  54 F= -.71077100E+03 E0= -.71075382E+03  d E =-.349108E-04
 curvature:  -0.03 expect dE=-0.132E-05 dE for cont linesearch -0.128E-08
 trial: gam= 0.78772 g(F)=  0.398E-04 g(S)=  0.000E+00 ort =-0.187E-05 (trialstep = 0.521E+00)
 search vector abs. value=  0.926E-04
 bond charge predicted
       N       E                     dE             d eps       ncg     rms          rms(c)
DAV:   1    -0.710770997240E+03    0.82252E-05   -0.60227E-03 10593   0.112E-01    0.391E-02
RMM:   2    -0.710771780274E+03   -0.78303E-03   -0.31881E-04 11636   0.364E-02    0.579E-01
RMM:   3    -0.710771147677E+03    0.63260E-03   -0.15288E-04  8838   0.270E-02    0.194E-01
RMM:   4    -0.710771088459E+03    0.59217E-04   -0.51203E-05  7015   0.161E-02    0.139E-01
RMM:   5    -0.710771024817E+03    0.63642E-04   -0.13915E-05  6121   0.841E-03    0.171E-02
RMM:   6    -0.710771019679E+03    0.51380E-05   -0.62247E-06  5960   0.614E-03
  55 F= -.71077102E+03 E0= -.71075383E+03  d E =-.148293E-04
 trial-energy change:   -0.000015  1 .order   -0.000011   -0.000020   -0.000001
 step:   0.5605(harm=  0.5605)  dis= 0.00028  next Energy=  -710.771016 (dE=-0.107E-04)
 bond charge predicted
       N       E                     dE             d eps       ncg     rms          rms(c)
DAV:   1    -0.710771018069E+03    0.67479E-05   -0.36155E-05  9544   0.116E-02    0.322E-03
RMM:   2    -0.710771019256E+03   -0.11870E-05   -0.47567E-06  5487   0.599E-03
  56 F= -.71077102E+03 E0= -.71075383E+03  d E =-.144064E-04
 curvature:  -0.68 expect dE=-0.114E-04 dE for cont linesearch -0.278E-06
 trial: gam= 0.05156 g(F)=  0.168E-04 g(S)=  0.000E+00 ort = 0.617E-05 (trialstep = 0.529E+00)
 search vector abs. value=  0.176E-04
 reached required accuracy - stopping structural energy minimisation
Warning: ieee_invalid is signaling
Warning: ieee_divide_by_zero is signaling
Warning: ieee_underflow is signaling
Warning: ieee_inexact is signaling
FORTRAN STOP
Warning: ieee_invalid is signaling
Warning: ieee_divide_by_zero is signaling
Warning: ieee_underflow is signaling
Warning: ieee_inexact is signaling
FORTRAN STOP
Warning: ieee_invalid is signaling
Warning: ieee_divide_by_zero is signaling
Warning: ieee_underflow is signaling
Warning: ieee_inexact is signaling
FORTRAN STOP
Warning: ieee_invalid is signaling
Warning: ieee_divide_by_zero is signaling
Warning: ieee_underflow is signaling
Warning: ieee_inexact is signaling
FORTRAN STOP
