       N       E                     dE             d eps       ncg     rms          rms(c)
DAV:   1     0.219142066450E+05    0.21914E+05   -0.32070E+05 10096   0.281E+03
DAV:   2     0.487131795220E+04   -0.17043E+05   -0.16062E+05 10096   0.817E+02
DAV:   3    -0.131645164135E+03   -0.50030E+04   -0.46976E+04 12688   0.322E+02
DAV:   4    -0.781555922267E+03   -0.64991E+03   -0.63384E+03 12400   0.123E+02
DAV:   5    -0.831149558449E+03   -0.49594E+02   -0.49055E+02 14720   0.369E+01    0.742E+01
RMM:   6    -0.765719238432E+03    0.65430E+02   -0.69823E+02 14520   0.339E+01    0.378E+01
RMM:   7    -0.718207980167E+03    0.47511E+02   -0.24550E+02 14089   0.175E+01    0.240E+01
RMM:   8    -0.712102684404E+03    0.61053E+01   -0.48990E+01 11590   0.118E+01    0.143E+01
RMM:   9    -0.712359367939E+03   -0.25668E+00   -0.12245E+01 14041   0.402E+00    0.149E+01
RMM:  10    -0.721180896921E+03   -0.88215E+01   -0.35777E+01 13259   0.715E+00    0.197E+01
RMM:  11    -0.712584068823E+03    0.85968E+01   -0.83080E+00 11898   0.540E+00    0.120E+01
RMM:  12    -0.710962865633E+03    0.16212E+01   -0.48871E+00 14670   0.311E+00    0.590E+00
RMM:  13    -0.710667327969E+03    0.29554E+00   -0.63123E-01 14515   0.902E-01    0.474E+00
RMM:  14    -0.710629003880E+03    0.38324E-01   -0.14489E-01 15542   0.401E-01    0.464E+00
RMM:  15    -0.710537541270E+03    0.91463E-01   -0.54488E-02 12993   0.338E-01    0.268E+00
RMM:  16    -0.710564043650E+03   -0.26502E-01   -0.40064E-02 13338   0.214E-01    0.402E+00
RMM:  17    -0.710475758588E+03    0.88285E-01   -0.20059E-01 14314   0.519E-01    0.275E+00
RMM:  18    -0.710695116599E+03   -0.21936E+00   -0.16007E-01 14334   0.434E-01    0.839E+00
RMM:  19    -0.710649806156E+03    0.45310E-01   -0.28437E-02 15615   0.246E-01    0.822E+00
RMM:  20    -0.710664027465E+03   -0.14221E-01   -0.11639E-02 13304   0.178E-01    0.844E+00
RMM:  21    -0.710582094775E+03    0.81933E-01   -0.90671E-03 13694   0.117E-01    0.794E+00
RMM:  22    -0.710464252080E+03    0.11784E+00   -0.24167E-02 14368   0.158E-01    0.496E+00
RMM:  23    -0.710502439354E+03   -0.38187E-01   -0.48582E-03 14368   0.111E-01    0.640E+00
RMM:  24    -0.710446988622E+03    0.55451E-01   -0.31220E-02 14882   0.194E-01    0.256E+00
RMM:  25    -0.710462523067E+03   -0.15534E-01   -0.20580E-02 14645   0.204E-01    0.245E+00
RMM:  26    -0.710474626215E+03   -0.12103E-01   -0.12341E-02 15248   0.122E-01    0.329E+00
RMM:  27    -0.710465840589E+03    0.87856E-02   -0.20247E-03 13085   0.661E-02    0.296E+00
RMM:  28    -0.710439830884E+03    0.26010E-01   -0.72680E-03 15017   0.103E-01    0.149E+00
RMM:  29    -0.710439171815E+03    0.65907E-03   -0.24302E-03 14019   0.638E-02    0.143E+00
RMM:  30    -0.710436665025E+03    0.25068E-02   -0.23938E-03 14298   0.657E-02    0.125E+00
RMM:  31    -0.710431992024E+03    0.46730E-02   -0.95512E-03 16333   0.115E-01    0.404E-01
RMM:  32    -0.710432630562E+03   -0.63854E-03   -0.24968E-03 13876   0.649E-02    0.396E-01
RMM:  33    -0.710432518467E+03    0.11209E-03   -0.13267E-03 11839   0.520E-02    0.198E-01
RMM:  34    -0.710432316507E+03    0.20196E-03   -0.43332E-04 10650   0.280E-02    0.140E-01
RMM:  35    -0.710432298868E+03    0.17639E-04   -0.17512E-04  9285   0.132E-02    0.162E-01
RMM:  36    -0.710432265824E+03    0.33044E-04   -0.64776E-05  7922   0.114E-02    0.105E-01
RMM:  37    -0.710432263621E+03    0.22024E-05   -0.53567E-05  8566   0.885E-03
   1 F= -.71043226E+03 E0= -.71041368E+03  d E =-.710432E+03
       N       E                     dE             d eps       ncg     rms          rms(c)
DAV:   1    -0.710373628970E+03    0.58637E-01   -0.82212E+01 11336   0.114E+01    0.368E+00
RMM:   2    -0.711936355379E+03   -0.15627E+01   -0.38098E+00 13347   0.343E+00    0.107E+01
RMM:   3    -0.710729367485E+03    0.12070E+01   -0.12467E+00 13188   0.229E+00    0.306E+00
RMM:   4    -0.710608864723E+03    0.12050E+00   -0.26541E-01 14839   0.799E-01    0.117E+00
RMM:   5    -0.710609659375E+03   -0.79465E-03   -0.70619E-02 14966   0.352E-01    0.833E-01
RMM:   6    -0.710636064111E+03   -0.26405E-01   -0.20996E-02 12406   0.221E-01    0.342E+00
RMM:   7    -0.710612399650E+03    0.23664E-01   -0.20214E-02 13457   0.156E-01    0.156E+00
RMM:   8    -0.710607456252E+03    0.49434E-02   -0.11293E-02 13271   0.144E-01    0.115E+00
RMM:   9    -0.710604877014E+03    0.25792E-02   -0.40934E-03 13932   0.855E-02    0.628E-01
RMM:  10    -0.710604155041E+03    0.72197E-03   -0.14461E-03 10906   0.480E-02    0.427E-01
RMM:  11    -0.710603677498E+03    0.47754E-03   -0.75621E-04 10503   0.307E-02    0.397E-02
RMM:  12    -0.710603694558E+03   -0.17060E-04   -0.29577E-04  9446   0.178E-02    0.197E-01
RMM:  13    -0.710603634444E+03    0.60114E-04   -0.18314E-04  8565   0.119E-02    0.157E-02
RMM:  14    -0.710603640053E+03   -0.56093E-05   -0.77254E-05  7668   0.886E-03
   2 F= -.71060364E+03 E0= -.71058672E+03  d E =-.171376E+00
       N       E                     dE             d eps       ncg     rms          rms(c)
DAV:   1    -0.710604885593E+03   -0.12511E-02   -0.90299E-01 11536   0.121E+00    0.952E-01
RMM:   2    -0.710909550335E+03   -0.30466E+00   -0.10369E-01 12139   0.565E-01    0.773E+00
RMM:   3    -0.710610934328E+03    0.29862E+00   -0.47125E-02 12485   0.441E-01    0.801E-01
RMM:   4    -0.710606809127E+03    0.41252E-02   -0.74811E-03 13378   0.129E-01    0.899E-01
RMM:   5    -0.710606140538E+03    0.66859E-03   -0.27030E-03 11720   0.728E-02    0.200E-01
RMM:   6    -0.710606706945E+03   -0.56641E-03   -0.68862E-04 10536   0.411E-02    0.469E-01
RMM:   7    -0.710606282827E+03    0.42412E-03   -0.36893E-04  9479   0.257E-02    0.177E-01
RMM:   8    -0.710606199913E+03    0.82914E-04   -0.20040E-04  9746   0.199E-02    0.649E-02
RMM:   9    -0.710606185496E+03    0.14417E-04   -0.62915E-05  7914   0.109E-02    0.726E-02
RMM:  10    -0.710606181059E+03    0.44364E-05   -0.19131E-05  6416   0.698E-03
   3 F= -.71060618E+03 E0= -.71058925E+03  d E =-.173917E+00
       N       E                     dE             d eps       ncg     rms          rms(c)
DAV:   1    -0.710559345084E+03    0.46840E-01   -0.35208E+01 10784   0.801E+00    0.199E+00
RMM:   2    -0.711268280972E+03   -0.70894E+00   -0.14113E+00 12763   0.231E+00    0.715E+00
RMM:   3    -0.710706899744E+03    0.56138E+00   -0.42303E-01 13416   0.136E+00    0.150E+00
RMM:   4    -0.710686434638E+03    0.20465E-01   -0.10382E-01 15066   0.482E-01    0.897E-01
RMM:   5    -0.710687118029E+03   -0.68339E-03   -0.20953E-02 14376   0.227E-01    0.106E+00
RMM:   6    -0.710697455496E+03   -0.10337E-01   -0.77744E-03 13495   0.121E-01    0.232E+00
RMM:   7    -0.710686151371E+03    0.11304E-01   -0.70990E-03 13061   0.111E-01    0.736E-01
RMM:   8    -0.710684115154E+03    0.20362E-02   -0.27265E-03 12781   0.778E-02    0.147E-01
RMM:   9    -0.710683866053E+03    0.24910E-03   -0.84183E-04 11001   0.381E-02    0.250E-01
RMM:  10    -0.710683759539E+03    0.10651E-03   -0.39687E-04 10581   0.225E-02    0.978E-02
RMM:  11    -0.710683739679E+03    0.19861E-04   -0.17805E-04  8776   0.155E-02    0.215E-02
RMM:  12    -0.710683743436E+03   -0.37573E-05   -0.87840E-05  7973   0.900E-03
   4 F= -.71068374E+03 E0= -.71066669E+03  d E =-.775624E-01
       N       E                     dE             d eps       ncg     rms          rms(c)
DAV:   1    -0.710658438716E+03    0.25301E-01   -0.10973E+01 11096   0.446E+00    0.115E+00
RMM:   2    -0.710982355771E+03   -0.32392E+00   -0.43942E-01 12577   0.130E+00    0.558E+00
RMM:   3    -0.710704649565E+03    0.27771E+00   -0.13486E-01 13354   0.766E-01    0.633E-01
RMM:   4    -0.710703072981E+03    0.15766E-02   -0.33002E-02 14895   0.276E-01    0.167E+00
RMM:   5    -0.710702139362E+03    0.93362E-03   -0.87968E-03 14510   0.127E-01    0.132E+00
RMM:   6    -0.710697957951E+03    0.41814E-02   -0.29393E-03 12341   0.850E-02    0.380E-01
RMM:   7    -0.710697045057E+03    0.91289E-03   -0.18796E-03 12880   0.560E-02    0.398E-01
RMM:   8    -0.710697707311E+03   -0.66225E-03   -0.94557E-04 12247   0.385E-02    0.713E-01
RMM:   9    -0.710696695111E+03    0.10122E-02   -0.25691E-04 10206   0.230E-02    0.289E-01
RMM:  10    -0.710696602549E+03    0.92563E-04   -0.10686E-04  8596   0.143E-02    0.235E-01
RMM:  11    -0.710696527999E+03    0.74550E-04   -0.75915E-05  8468   0.103E-02    0.313E-02
RMM:  12    -0.710696558891E+03   -0.30892E-04   -0.31428E-05  7040   0.101E-02    0.639E-02
RMM:  13    -0.710696553116E+03    0.57752E-05   -0.91548E-06  6075   0.566E-03
   5 F= -.71069655E+03 E0= -.71067940E+03  d E =-.903721E-01
       N       E                     dE             d eps       ncg     rms          rms(c)
DAV:   1    -0.710581195760E+03    0.11536E+00   -0.36639E+01 10992   0.861E+00    0.100E+00
RMM:   2    -0.710742979936E+03   -0.16178E+00   -0.12819E+00 13360   0.236E+00    0.384E+00
RMM:   3    -0.710751834849E+03   -0.88549E-02   -0.31008E-01 14722   0.104E+00    0.237E+00
RMM:   4    -0.710734416827E+03    0.17418E-01   -0.47495E-02 15360   0.371E-01    0.781E-01
RMM:   5    -0.710731094614E+03    0.33222E-02   -0.94673E-03 14531   0.166E-01    0.609E-01
RMM:   6    -0.710728396546E+03    0.26981E-02   -0.73210E-03 12898   0.110E-01    0.242E-01
RMM:   7    -0.710728288402E+03    0.10814E-03   -0.26210E-03 13382   0.715E-02    0.161E-01
RMM:   8    -0.710728176628E+03    0.11177E-03   -0.49993E-04 12680   0.373E-02    0.793E-02
RMM:   9    -0.710728182827E+03   -0.61991E-05   -0.32389E-04 10515   0.208E-02    0.101E-01
RMM:  10    -0.710728169050E+03    0.13777E-04   -0.11150E-04  8906   0.142E-02    0.298E-02
RMM:  11    -0.710728173164E+03   -0.41137E-05   -0.58610E-05  7834   0.917E-03
   6 F= -.71072817E+03 E0= -.71071107E+03  d E =-.316200E-01
       N       E                     dE             d eps       ncg     rms          rms(c)
DAV:   1    -0.710724689810E+03    0.34792E-02   -0.14040E+00 11192   0.169E+00    0.201E-01
RMM:   2    -0.710732366191E+03   -0.76764E-02   -0.47425E-02 13242   0.455E-01    0.117E+00
RMM:   3    -0.710731220310E+03    0.11459E-02   -0.11902E-02 14585   0.207E-01    0.641E-01
RMM:   4    -0.710730674223E+03    0.54609E-03   -0.19386E-03 14632   0.788E-02    0.330E-01
RMM:   5    -0.710730273675E+03    0.40055E-03   -0.41722E-04 11446   0.368E-02    0.109E-01
RMM:   6    -0.710730139511E+03    0.13416E-03   -0.37791E-04 11491   0.270E-02    0.368E-02
RMM:   7    -0.710730131199E+03    0.83120E-05   -0.82432E-05  8551   0.157E-02
   7 F= -.71073013E+03 E0= -.71071302E+03  d E =-.335781E-01
       N       E                     dE             d eps       ncg     rms          rms(c)
DAV:   1    -0.710701808502E+03    0.28331E-01   -0.10710E+01 10698   0.482E+00    0.542E-01
RMM:   2    -0.710737523051E+03   -0.35715E-01   -0.37721E-01 13554   0.130E+00    0.419E-01
RMM:   3    -0.710764741054E+03   -0.27218E-01   -0.88099E-02 14543   0.571E-01    0.242E+00
RMM:   4    -0.710747303555E+03    0.17437E-01   -0.15121E-02 15085   0.221E-01    0.612E-01
RMM:   5    -0.710746443573E+03    0.85998E-03   -0.35228E-03 14802   0.956E-02    0.556E-01
RMM:   6    -0.710745831893E+03    0.61168E-03   -0.13742E-03 13035   0.537E-02    0.600E-01
RMM:   7    -0.710745001480E+03    0.83041E-03   -0.16846E-03 12940   0.580E-02    0.754E-02
RMM:   8    -0.710744907776E+03    0.93704E-04   -0.26492E-04 11677   0.293E-02    0.169E-01
RMM:   9    -0.710744849162E+03    0.58614E-04   -0.13209E-04  9208   0.172E-02    0.626E-02
RMM:  10    -0.710744847920E+03    0.12420E-05   -0.71034E-05  8446   0.115E-02
   8 F= -.71074485E+03 E0= -.71072767E+03  d E =-.147167E-01
       N       E                     dE             d eps       ncg     rms          rms(c)
DAV:   1    -0.710744816745E+03    0.32417E-04   -0.25574E-02 11704   0.237E-01    0.297E-02
RMM:   2    -0.710745080249E+03   -0.26350E-03   -0.93825E-04 13424   0.661E-02    0.286E-01
RMM:   3    -0.710744956974E+03    0.12327E-03   -0.23866E-04 11776   0.317E-02    0.106E-01
RMM:   4    -0.710744942019E+03    0.14955E-04   -0.53811E-05  7485   0.165E-02    0.729E-02
RMM:   5    -0.710744924300E+03    0.17719E-04   -0.13913E-05  6085   0.847E-03    0.107E-02
RMM:   6    -0.710744921647E+03    0.26523E-05   -0.88261E-06  6000   0.665E-03
   9 F= -.71074492E+03 E0= -.71072774E+03  d E =-.147904E-01
       N       E                     dE             d eps       ncg     rms          rms(c)
DAV:   1    -0.710720603010E+03    0.24321E-01   -0.91070E+00 10625   0.440E+00    0.511E-01
RMM:   2    -0.710756700558E+03   -0.36098E-01   -0.30560E-01 13269   0.115E+00    0.182E+00
RMM:   3    -0.710762292817E+03   -0.55923E-02   -0.74000E-02 14680   0.513E-01    0.147E+00
RMM:   4    -0.710758085534E+03    0.42073E-02   -0.11098E-02 15249   0.185E-01    0.538E-01
RMM:   5    -0.710756764088E+03    0.13214E-02   -0.22489E-03 14290   0.842E-02    0.283E-01
RMM:   6    -0.710756182384E+03    0.58170E-03   -0.19239E-03 12735   0.567E-02    0.256E-01
RMM:   7    -0.710756065709E+03    0.11667E-03   -0.49667E-04 12624   0.347E-02    0.632E-02
RMM:   8    -0.710756049157E+03    0.16552E-04   -0.13911E-04  9186   0.195E-02    0.833E-02
RMM:   9    -0.710756034672E+03    0.14485E-04   -0.84910E-05  8547   0.112E-02    0.320E-02
RMM:  10    -0.710756034064E+03    0.60815E-06   -0.31839E-05  7146   0.794E-03
  10 F= -.71075603E+03 E0= -.71073888E+03  d E =-.111124E-01
       N       E                     dE             d eps       ncg     rms          rms(c)
DAV:   1    -0.710755467809E+03    0.56686E-03   -0.23443E-01 11488   0.706E-01    0.851E-02
RMM:   2    -0.710756763759E+03   -0.12959E-02   -0.78106E-03 13225   0.184E-01    0.512E-01
RMM:   3    -0.710756549304E+03    0.21445E-03   -0.19860E-03 14315   0.864E-02    0.250E-01
RMM:   4    -0.710756461063E+03    0.88241E-04   -0.33918E-04 12268   0.331E-02    0.138E-01
RMM:   5    -0.710756389551E+03    0.71512E-04   -0.77926E-05  8279   0.190E-02    0.325E-02
RMM:   6    -0.710756371309E+03    0.18242E-04   -0.72668E-05  9109   0.116E-02    0.131E-02
RMM:   7    -0.710756369898E+03    0.14109E-05   -0.14998E-05  6275   0.751E-03
  11 F= -.71075637E+03 E0= -.71073921E+03  d E =-.114483E-01
       N       E                     dE             d eps       ncg     rms          rms(c)
DAV:   1    -0.710734662409E+03    0.21709E-01   -0.78155E+00 10785   0.397E+00    0.472E-01
RMM:   2    -0.710762956620E+03   -0.28294E-01   -0.24578E-01 12831   0.101E+00    0.154E+00
RMM:   3    -0.710768437709E+03   -0.54811E-02   -0.61734E-02 14805   0.455E-01    0.136E+00
RMM:   4    -0.710764960164E+03    0.34775E-02   -0.83063E-03 15220   0.162E-01    0.487E-01
RMM:   5    -0.710763884102E+03    0.10761E-02   -0.17567E-03 14191   0.751E-02    0.264E-01
RMM:   6    -0.710763396783E+03    0.48732E-03   -0.15003E-03 12670   0.502E-02    0.215E-01
RMM:   7    -0.710763309579E+03    0.87203E-04   -0.49771E-04 12316   0.342E-02    0.562E-02
RMM:   8    -0.710763288060E+03    0.21519E-04   -0.10635E-04  8998   0.174E-02    0.701E-02
RMM:   9    -0.710763279449E+03    0.86114E-05   -0.57071E-05  8017   0.962E-03
  12 F= -.71076328E+03 E0= -.71074609E+03  d E =-.690955E-02
       N       E                     dE             d eps       ncg     rms          rms(c)
DAV:   1    -0.710763243199E+03    0.44862E-04   -0.22737E-02 11816   0.215E-01    0.277E-02
RMM:   2    -0.710763439768E+03   -0.19657E-03   -0.76705E-04 12685   0.574E-02    0.239E-01
RMM:   3    -0.710763353133E+03    0.86636E-04   -0.20757E-04 11686   0.276E-02    0.845E-02
RMM:   4    -0.710763346693E+03    0.64394E-05   -0.42171E-05  7348   0.147E-02
  13 F= -.71076335E+03 E0= -.71074615E+03  d E =-.697680E-02
       N       E                     dE             d eps       ncg     rms          rms(c)
DAV:   1    -0.710756397724E+03    0.69554E-02   -0.26356E+00 10762   0.231E+00    0.452E-01
RMM:   2    -0.710833190251E+03   -0.76793E-01   -0.93464E-02 12688   0.631E-01    0.430E+00
RMM:   3    -0.710772586069E+03    0.60604E-01   -0.31782E-02 13619   0.376E-01    0.124E+00
RMM:   4    -0.710771444626E+03    0.11414E-02   -0.69118E-03 14503   0.149E-01    0.139E+00
RMM:   5    -0.710766472207E+03    0.49724E-02   -0.18028E-03 13042   0.732E-02    0.147E-01
RMM:   6    -0.710765902055E+03    0.57015E-03   -0.75174E-04 10943   0.437E-02    0.173E-01
RMM:   7    -0.710765861361E+03    0.40693E-04   -0.40721E-04 10812   0.245E-02    0.588E-02
RMM:   8    -0.710765875572E+03   -0.14210E-04   -0.12052E-04  9421   0.178E-02    0.142E-02
RMM:   9    -0.710765874547E+03    0.10250E-05   -0.39386E-05  7440   0.935E-03
  14 F= -.71076587E+03 E0= -.71074866E+03  d E =-.252785E-02
       N       E                     dE             d eps       ncg     rms          rms(c)
DAV:   1    -0.710765872026E+03    0.35456E-05   -0.10570E-03 11352   0.481E-02    0.148E-02
RMM:   2    -0.710765981211E+03   -0.10919E-03   -0.63866E-05  8504   0.162E-02    0.216E-01
RMM:   3    -0.710765895783E+03    0.85428E-04   -0.24357E-05  6400   0.117E-02    0.737E-02
RMM:   4    -0.710765887137E+03    0.86458E-05   -0.94839E-06  5981   0.734E-03
  15 F= -.71076589E+03 E0= -.71074866E+03  d E =-.254044E-02
       N       E                     dE             d eps       ncg     rms          rms(c)
DAV:   1    -0.710761388382E+03    0.45074E-02   -0.16087E+00 10896   0.187E+00    0.200E-01
RMM:   2    -0.710766453592E+03   -0.50652E-02   -0.50727E-02 13206   0.485E-01    0.344E-01
RMM:   3    -0.710769049891E+03   -0.25963E-02   -0.12951E-02 14950   0.209E-01    0.826E-01
RMM:   4    -0.710767822529E+03    0.12274E-02   -0.17318E-03 14751   0.799E-02    0.285E-01
RMM:   5    -0.710767703536E+03    0.11899E-03   -0.39773E-04 12374   0.355E-02    0.289E-01
RMM:   6    -0.710767471781E+03    0.23175E-03   -0.19227E-04 10310   0.222E-02    0.684E-02
RMM:   7    -0.710767446228E+03    0.25553E-04   -0.12439E-04  9561   0.177E-02    0.326E-02
RMM:   8    -0.710767441352E+03    0.48767E-05   -0.31239E-05  6982   0.107E-02
  16 F= -.71076744E+03 E0= -.71075023E+03  d E =-.155421E-02
       N       E                     dE             d eps       ncg     rms          rms(c)
DAV:   1    -0.710767322863E+03    0.12337E-03   -0.36837E-02 11792   0.284E-01    0.404E-02
RMM:   2    -0.710767755231E+03   -0.43237E-03   -0.12603E-03 13152   0.765E-02    0.381E-01
RMM:   3    -0.710767537032E+03    0.21820E-03   -0.35732E-04 12265   0.385E-02    0.149E-01
RMM:   4    -0.710767513529E+03    0.23503E-04   -0.77836E-05  8781   0.205E-02    0.116E-01
RMM:   5    -0.710767476031E+03    0.37498E-04   -0.21024E-05  6320   0.100E-02    0.283E-02
RMM:   6    -0.710767469952E+03    0.60783E-05   -0.93540E-06  6025   0.690E-03
  17 F= -.71076747E+03 E0= -.71075027E+03  d E =-.158282E-02
       N       E                     dE             d eps       ncg     rms          rms(c)
DAV:   1    -0.710765039769E+03    0.24363E-02   -0.87666E-01 10856   0.139E+00    0.269E-01
RMM:   2    -0.710791939872E+03   -0.26900E-01   -0.32452E-02 13066   0.389E-01    0.252E+00
RMM:   3    -0.710770083263E+03    0.21857E-01   -0.11049E-02 13384   0.230E-01    0.740E-01
RMM:   4    -0.710770287287E+03   -0.20402E-03   -0.24143E-03 14328   0.901E-02    0.796E-01
RMM:   5    -0.710768555976E+03    0.17313E-02   -0.58621E-04 11717   0.446E-02    0.734E-02
RMM:   6    -0.710768450171E+03    0.10581E-03   -0.22552E-04  8977   0.256E-02    0.201E-01
RMM:   7    -0.710768355144E+03    0.95027E-04   -0.12361E-04  9818   0.143E-02    0.296E-02
RMM:   8    -0.710768359595E+03   -0.44515E-05   -0.52199E-05  8017   0.123E-02
  18 F= -.71076836E+03 E0= -.71075117E+03  d E =-.889643E-03
       N       E                     dE             d eps       ncg     rms          rms(c)
DAV:   1    -0.710768236711E+03    0.11843E-03   -0.33042E-02 11696   0.271E-01    0.442E-02
RMM:   2    -0.710768948174E+03   -0.71146E-03   -0.11987E-03 13267   0.736E-02    0.518E-01
RMM:   3    -0.710768467122E+03    0.48105E-03   -0.36204E-04 11904   0.404E-02    0.175E-01
RMM:   4    -0.710768442181E+03    0.24941E-04   -0.91891E-05  8948   0.223E-02    0.148E-01
RMM:   5    -0.710768377112E+03    0.65069E-04   -0.25319E-05  6467   0.106E-02    0.145E-02
RMM:   6    -0.710768374228E+03    0.28844E-05   -0.97108E-06  6048   0.701E-03
  19 F= -.71076837E+03 E0= -.71075118E+03  d E =-.904275E-03
       N       E                     dE             d eps       ncg     rms          rms(c)
DAV:   1    -0.710765679190E+03    0.26979E-02   -0.90249E-01 11112   0.142E+00    0.176E-01
RMM:   2    -0.710773923207E+03   -0.82440E-02   -0.27971E-02 12869   0.368E-01    0.160E+00
RMM:   3    -0.710770183950E+03    0.37393E-02   -0.88122E-03 13984   0.191E-01    0.593E-01
RMM:   4    -0.710769763101E+03    0.42085E-03   -0.16075E-03 14395   0.762E-02    0.458E-01
RMM:   5    -0.710769145768E+03    0.61733E-03   -0.34019E-04 11272   0.354E-02    0.683E-02
RMM:   6    -0.710769050688E+03    0.95080E-04   -0.18456E-04  9853   0.221E-02    0.285E-02
RMM:   7    -0.710769046616E+03    0.40719E-05   -0.77959E-05  8835   0.138E-02
  20 F= -.71076905E+03 E0= -.71075185E+03  d E =-.672389E-03
       N       E                     dE             d eps       ncg     rms          rms(c)
DAV:   1    -0.710768874906E+03    0.17578E-03   -0.47419E-02 11864   0.326E-01    0.400E-02
RMM:   2    -0.710769203215E+03   -0.32831E-03   -0.15265E-03 13083   0.839E-02    0.295E-01
RMM:   3    -0.710769096224E+03    0.10699E-03   -0.42055E-04 13269   0.404E-02    0.119E-01
RMM:   4    -0.710769082591E+03    0.13633E-04   -0.82096E-05  9098   0.186E-02    0.862E-02
RMM:   5    -0.710769059911E+03    0.22680E-04   -0.20435E-05  6457   0.102E-02    0.124E-02
RMM:   6    -0.710769056586E+03    0.33254E-05   -0.11128E-05  6048   0.686E-03
  21 F= -.71076906E+03 E0= -.71075187E+03  d E =-.682358E-03
       N       E                     dE             d eps       ncg     rms          rms(c)
DAV:   1    -0.710766188462E+03    0.28714E-02   -0.89527E-01 11217   0.143E+00    0.192E-01
RMM:   2    -0.710777553891E+03   -0.11365E-01   -0.28988E-02 13025   0.376E-01    0.179E+00
RMM:   3    -0.710770834340E+03    0.67196E-02   -0.90942E-03 13704   0.201E-01    0.653E-01
RMM:   4    -0.710770607212E+03    0.22713E-03   -0.17900E-03 14403   0.810E-02    0.554E-01
RMM:   5    -0.710769714737E+03    0.89248E-03   -0.40140E-04 11472   0.377E-02    0.888E-02
RMM:   6    -0.710769620035E+03    0.94701E-04   -0.17065E-04  9274   0.222E-02    0.943E-02
RMM:   7    -0.710769582919E+03    0.37116E-04   -0.96620E-05  9613   0.147E-02    0.222E-02
RMM:   8    -0.710769584860E+03   -0.19405E-05   -0.29490E-05  7056   0.939E-03
  22 F= -.71076958E+03 E0= -.71075239E+03  d E =-.528274E-03
       N       E                     dE             d eps       ncg     rms          rms(c)
DAV:   1    -0.710769581327E+03    0.15928E-05   -0.76648E-04 11456   0.430E-02    0.193E-02
RMM:   2    -0.710769785200E+03   -0.20387E-03   -0.69664E-05  8072   0.179E-02    0.303E-01
RMM:   3    -0.710769621795E+03    0.16340E-03   -0.32629E-05  6597   0.134E-02    0.103E-01
RMM:   4    -0.710769596882E+03    0.24913E-04   -0.11805E-05  6065   0.805E-03    0.517E-02
RMM:   5    -0.710769584951E+03    0.11931E-04   -0.29546E-06  5887   0.428E-03    0.990E-03
RMM:   6    -0.710769583735E+03    0.12158E-05   -0.11998E-06  5866   0.280E-03
  23 F= -.71076958E+03 E0= -.71075240E+03  d E =-.527149E-03
       N       E                     dE             d eps       ncg     rms          rms(c)
DAV:   1    -0.710768244643E+03    0.13403E-02   -0.45599E-01 11154   0.103E+00    0.131E-01
RMM:   2    -0.710773551106E+03   -0.53065E-02   -0.15065E-02 13251   0.274E-01    0.127E+00
RMM:   3    -0.710770652718E+03    0.28984E-02   -0.45952E-03 13730   0.142E-01    0.458E-01
RMM:   4    -0.710770508738E+03    0.14398E-03   -0.87139E-04 13943   0.576E-02    0.383E-01
RMM:   5    -0.710770081344E+03    0.42739E-03   -0.19403E-04 10086   0.281E-02    0.649E-02
RMM:   6    -0.710770029236E+03    0.52108E-04   -0.93572E-05  8578   0.166E-02    0.524E-02
RMM:   7    -0.710770013916E+03    0.15320E-04   -0.49672E-05  7997   0.112E-02    0.155E-02
RMM:   8    -0.710770014334E+03   -0.41841E-06   -0.13244E-05  6289   0.698E-03
  24 F= -.71077001E+03 E0= -.71075283E+03  d E =-.430599E-03
       N       E                     dE             d eps       ncg     rms          rms(c)
DAV:   1    -0.710769912747E+03    0.10117E-03   -0.30712E-02 11904   0.267E-01    0.285E-02
RMM:   2    -0.710770069261E+03   -0.15651E-03   -0.10361E-03 13429   0.695E-02    0.161E-01
RMM:   3    -0.710770054198E+03    0.15063E-04   -0.25481E-04 13067   0.294E-02    0.851E-02
RMM:   4    -0.710770047503E+03    0.66954E-05   -0.40949E-05  7354   0.160E-02
  25 F= -.71077005E+03 E0= -.71075286E+03  d E =-.463768E-03
       N       E                     dE             d eps       ncg     rms          rms(c)
DAV:   1    -0.710769998492E+03    0.55706E-04   -0.76660E-03 11369   0.136E-01    0.171E-02
RMM:   2    -0.710770049974E+03   -0.51481E-04   -0.27419E-04 12667   0.371E-02    0.112E-01
RMM:   3    -0.710770032417E+03    0.17557E-04   -0.75660E-05  9783   0.172E-02    0.307E-02
RMM:   4    -0.710770032144E+03    0.27264E-06   -0.14512E-05  6088   0.102E-02
  26 F= -.71077003E+03 E0= -.71075284E+03  d E =-.448409E-03
       N       E                     dE             d eps       ncg     rms          rms(c)
DAV:   1    -0.710770023099E+03    0.93178E-05   -0.24334E-03 11312   0.761E-02    0.886E-03
RMM:   2    -0.710770033574E+03   -0.10476E-04   -0.93806E-05 10282   0.212E-02    0.274E-02
RMM:   3    -0.710770034231E+03   -0.65662E-06   -0.20509E-05  6389   0.970E-03
  27 F= -.71077003E+03 E0= -.71075286E+03  d E =-.450496E-03
       N       E                     dE             d eps       ncg     rms          rms(c)
DAV:   1    -0.710768688300E+03    0.13453E-02   -0.45241E-01 11104   0.100E+00    0.104E-01
RMM:   2    -0.710770224170E+03   -0.15359E-02   -0.14088E-02 12971   0.256E-01    0.294E-01
RMM:   3    -0.710770693881E+03   -0.46971E-03   -0.37440E-03 15334   0.108E-01    0.365E-01
RMM:   4    -0.710770503404E+03    0.19048E-03   -0.47076E-04 13322   0.440E-02    0.157E-01
RMM:   5    -0.710770437527E+03    0.65877E-04   -0.12032E-04  9765   0.223E-02    0.103E-01
RMM:   6    -0.710770401326E+03    0.36201E-04   -0.98419E-05  9847   0.144E-02    0.599E-02
RMM:   7    -0.710770392551E+03    0.87752E-05   -0.24664E-05  6655   0.986E-03
  28 F= -.71077039E+03 E0= -.71075321E+03  d E =-.358320E-03
       N       E                     dE             d eps       ncg     rms          rms(c)
DAV:   1    -0.710770333351E+03    0.67975E-04   -0.16298E-02 11968   0.191E-01    0.219E-02
RMM:   2    -0.710770388233E+03   -0.54881E-04   -0.54468E-04 12879   0.504E-02    0.386E-02
RMM:   3    -0.710770415831E+03   -0.27598E-04   -0.15082E-04 11537   0.219E-02    0.881E-02
RMM:   4    -0.710770403402E+03    0.12429E-04   -0.24816E-05  6327   0.132E-02    0.332E-02
RMM:   5    -0.710770401163E+03    0.22389E-05   -0.74413E-06  5901   0.651E-03
  29 F= -.71077040E+03 E0= -.71075321E+03  d E =-.366932E-03
       N       E                     dE             d eps       ncg     rms          rms(c)
DAV:   1    -0.710769091208E+03    0.13122E-02   -0.44082E-01 11248   0.986E-01    0.208E-01
RMM:   2    -0.710788751568E+03   -0.19660E-01   -0.15784E-02 12775   0.267E-01    0.273E+00
RMM:   3    -0.710773483928E+03    0.15268E-01   -0.63330E-03 13352   0.174E-01    0.862E-01
RMM:   4    -0.710772359222E+03    0.11247E-02   -0.15988E-03 12561   0.796E-02    0.730E-01
RMM:   5    -0.710770799199E+03    0.15600E-02   -0.43538E-04 10615   0.418E-02    0.558E-02
RMM:   6    -0.710770660593E+03    0.13861E-03   -0.17778E-04  8931   0.223E-02    0.128E-01
RMM:   7    -0.710770628626E+03    0.31968E-04   -0.68508E-05  8567   0.117E-02    0.252E-02
RMM:   8    -0.710770633200E+03   -0.45747E-05   -0.24582E-05  6741   0.884E-03
  30 F= -.71077063E+03 E0= -.71075346E+03  d E =-.232037E-03
       N       E                     dE             d eps       ncg     rms          rms(c)
DAV:   1    -0.710770631912E+03   -0.32864E-05   -0.17822E-05  7904   0.101E-02    0.233E-02
RMM:   2    -0.710770927576E+03   -0.29566E-03   -0.67491E-05  7304   0.139E-02    0.362E-01
RMM:   3    -0.710770687512E+03    0.24006E-03   -0.43278E-05  6842   0.142E-02    0.125E-01
RMM:   4    -0.710770650047E+03    0.37465E-04   -0.14650E-05  6115   0.757E-03    0.563E-02
RMM:   5    -0.710770634295E+03    0.15752E-04   -0.32686E-06  4056   0.344E-03    0.138E-02
RMM:   6    -0.710770632473E+03    0.18225E-05   -0.11587E-06  4424   0.234E-03
  31 F= -.71077063E+03 E0= -.71075345E+03  d E =-.231310E-03
       N       E                     dE             d eps       ncg     rms          rms(c)
DAV:   1    -0.710770018374E+03    0.61592E-03   -0.20093E-01 11089   0.663E-01    0.925E-02
RMM:   2    -0.710772706841E+03   -0.26885E-02   -0.66779E-03 13028   0.173E-01    0.942E-01
RMM:   3    -0.710771135138E+03    0.15717E-02   -0.19412E-03 13802   0.913E-02    0.338E-01
RMM:   4    -0.710771033713E+03    0.10143E-03   -0.40350E-04 12153   0.393E-02    0.274E-01
RMM:   5    -0.710770812672E+03    0.22104E-03   -0.10583E-04  8749   0.215E-02    0.489E-02
RMM:   6    -0.710770786087E+03    0.26585E-04   -0.49314E-05  7621   0.118E-02    0.360E-02
RMM:   7    -0.710770778909E+03    0.71775E-05   -0.20368E-05  6447   0.821E-03
  32 F= -.71077078E+03 E0= -.71075360E+03  d E =-.146437E-03
       N       E                     dE             d eps       ncg     rms          rms(c)
DAV:   1    -0.710770764497E+03    0.21590E-04   -0.19885E-03 12032   0.671E-02    0.988E-03
RMM:   2    -0.710770787676E+03   -0.23179E-04   -0.85407E-05  9592   0.194E-02    0.835E-02
RMM:   3    -0.710770776255E+03    0.11421E-04   -0.19167E-05  6165   0.991E-03    0.323E-02
RMM:   4    -0.710770775631E+03    0.62421E-06   -0.68926E-06  5880   0.737E-03
  33 F= -.71077078E+03 E0= -.71075360E+03  d E =-.143158E-03
       N       E                     dE             d eps       ncg     rms          rms(c)
DAV:   1    -0.710770774705E+03    0.15503E-05   -0.11672E-03 10748   0.511E-02    0.125E-02
RMM:   2    -0.710770853205E+03   -0.78500E-04   -0.51626E-05  7961   0.154E-02    0.185E-01
RMM:   3    -0.710770789068E+03    0.64137E-04   -0.17324E-05  6090   0.103E-02    0.522E-02
RMM:   4    -0.710770786841E+03    0.22269E-05   -0.70168E-06  5901   0.681E-03
  34 F= -.71077079E+03 E0= -.71075361E+03  d E =-.154369E-03
       N       E                     dE             d eps       ncg     rms          rms(c)
DAV:   1    -0.710770777642E+03    0.11426E-04   -0.28753E-04 11464   0.268E-02    0.695E-03
RMM:   2    -0.710770789477E+03   -0.11835E-04   -0.12565E-05  5768   0.770E-03    0.729E-02
RMM:   3    -0.710770782147E+03    0.73303E-05   -0.52857E-06  5623   0.619E-03
  35 F= -.71077078E+03 E0= -.71075361E+03  d E =-.149674E-03
       N       E                     dE             d eps       ncg     rms          rms(c)
DAV:   1    -0.710770779265E+03    0.10212E-04   -0.88376E-05 10588   0.158E-02    0.114E-02
RMM:   2    -0.710770859566E+03   -0.80302E-04   -0.14530E-05  5892   0.753E-03    0.192E-01
RMM:   3    -0.710770788842E+03    0.70724E-04   -0.11609E-05  5534   0.779E-03    0.502E-02
RMM:   4    -0.710770786205E+03    0.26371E-05   -0.39684E-06  5265   0.412E-03
  36 F= -.71077079E+03 E0= -.71075361E+03  d E =-.153733E-03
       N       E                     dE             d eps       ncg     rms          rms(c)
DAV:   1    -0.710770225117E+03    0.56372E-03   -0.19348E-01 11032   0.659E-01    0.285E-01
RMM:   2    -0.710804774210E+03   -0.34549E-01   -0.12778E-02 12672   0.229E-01    0.271E+00
RMM:   3    -0.710772450583E+03    0.32324E-01   -0.62459E-03 12734   0.173E-01    0.671E-01
RMM:   4    -0.710772537868E+03   -0.87285E-04   -0.11891E-03 12149   0.644E-02    0.761E-01
RMM:   5    -0.710770969373E+03    0.15685E-02   -0.37925E-04 10166   0.369E-02    0.599E-02
RMM:   6    -0.710770925351E+03    0.44023E-04   -0.13823E-04  8392   0.207E-02    0.223E-01
RMM:   7    -0.710770824452E+03    0.10090E-03   -0.45051E-05  7702   0.963E-03    0.534E-02
RMM:   8    -0.710770817432E+03    0.70195E-05   -0.28362E-05  6740   0.888E-03
  37 F= -.71077082E+03 E0= -.71075363E+03  d E =-.312272E-04
       N       E                     dE             d eps       ncg     rms          rms(c)
DAV:   1    -0.710770696552E+03    0.12790E-03   -0.46146E-02 10976   0.322E-01    0.150E-01
RMM:   2    -0.710783137024E+03   -0.12440E-01   -0.34132E-03 12559   0.117E-01    0.228E+00
RMM:   3    -0.710772818869E+03    0.10318E-01   -0.20606E-03 11954   0.998E-02    0.717E-01
RMM:   4    -0.710771760742E+03    0.10581E-02   -0.65714E-04 10775   0.541E-02    0.497E-01
RMM:   5    -0.710770917772E+03    0.84297E-03   -0.15503E-04  8082   0.258E-02    0.337E-02
RMM:   6    -0.710770857430E+03    0.60342E-04   -0.59065E-05  7611   0.144E-02    0.108E-01
RMM:   7    -0.710770837718E+03    0.19712E-04   -0.13135E-05  6164   0.678E-03    0.494E-02
RMM:   8    -0.710770836142E+03    0.15753E-05   -0.60136E-06  5814   0.521E-03
  38 F= -.71077084E+03 E0= -.71075366E+03  d E =-.499372E-04
       N       E                     dE             d eps       ncg     rms          rms(c)
DAV:   1    -0.710770813761E+03    0.23957E-04   -0.99354E-03 11112   0.149E-01    0.901E-02
RMM:   2    -0.710775198697E+03   -0.43849E-02   -0.10572E-03 12200   0.609E-02    0.132E+00
RMM:   3    -0.710771475447E+03    0.37233E-02   -0.65502E-04 10134   0.549E-02    0.428E-01
RMM:   4    -0.710771135294E+03    0.34015E-03   -0.20557E-04  8158   0.302E-02    0.270E-01
RMM:   5    -0.710770864235E+03    0.27106E-03   -0.47308E-05  6979   0.140E-02    0.277E-02
RMM:   6    -0.710770845342E+03    0.18893E-04   -0.17759E-05  6232   0.936E-03    0.614E-02
RMM:   7    -0.710770837167E+03    0.81756E-05   -0.43359E-06  5877   0.501E-03
  39 F= -.71077084E+03 E0= -.71075365E+03  d E =-.509613E-04
       N       E                     dE             d eps       ncg     rms          rms(c)
DAV:   1    -0.710770835004E+03    0.10338E-04   -0.18575E-03 10784   0.653E-02    0.502E-02
RMM:   2    -0.710772280281E+03   -0.14453E-02   -0.29656E-04 10098   0.306E-02    0.810E-01
RMM:   3    -0.710771092674E+03    0.11876E-02   -0.20769E-04  8143   0.312E-02    0.265E-01
RMM:   4    -0.710770948340E+03    0.14433E-03   -0.76191E-05  7094   0.183E-02    0.164E-01
RMM:   5    -0.710770848193E+03    0.10015E-03   -0.16876E-05  5852   0.881E-03    0.152E-02
RMM:   6    -0.710770840868E+03    0.73243E-05   -0.64036E-06  5610   0.608E-03
  40 F= -.71077084E+03 E0= -.71075367E+03  d E =-.546630E-04
       N       E                     dE             d eps       ncg     rms          rms(c)
DAV:   1    -0.710770836352E+03    0.11840E-04   -0.52031E-04 10840   0.351E-02    0.287E-02
RMM:   2    -0.710771287492E+03   -0.45114E-03   -0.10620E-04  8096   0.183E-02    0.446E-01
RMM:   3    -0.710770916922E+03    0.37057E-03   -0.65789E-05  7135   0.177E-02    0.152E-01
RMM:   4    -0.710770867754E+03    0.49168E-04   -0.23246E-05  6133   0.100E-02    0.804E-02
RMM:   5    -0.710770840155E+03    0.27599E-04   -0.56381E-06  5534   0.515E-03    0.125E-02
RMM:   6    -0.710770837620E+03    0.25344E-05   -0.20541E-06  5474   0.338E-03
  41 F= -.71077084E+03 E0= -.71075365E+03  d E =-.514151E-04
       N       E                     dE             d eps       ncg     rms          rms(c)
DAV:   1    -0.710770287206E+03    0.55295E-03   -0.16054E-01 10872   0.601E-01    0.974E-02
RMM:   2    -0.710774204137E+03   -0.39169E-02   -0.56665E-03 13111   0.166E-01    0.125E+00
RMM:   3    -0.710771519714E+03    0.26844E-02   -0.19855E-03 13547   0.960E-02    0.414E-01
RMM:   4    -0.710771272311E+03    0.24740E-03   -0.46391E-04 12036   0.431E-02    0.323E-01
RMM:   5    -0.710770952421E+03    0.31989E-03   -0.11427E-04  8526   0.233E-02    0.284E-02
RMM:   6    -0.710770919211E+03    0.33209E-04   -0.51029E-05  7463   0.124E-02    0.438E-02
RMM:   7    -0.710770913976E+03    0.52352E-05   -0.21173E-05  6521   0.775E-03
  42 F= -.71077091E+03 E0= -.71075373E+03  d E =-.763559E-04
       N       E                     dE             d eps       ncg     rms          rms(c)
DAV:   1    -0.710770899987E+03    0.19224E-04   -0.61467E-03 10944   0.118E-01    0.332E-02
RMM:   2    -0.710771483099E+03   -0.58311E-03   -0.28551E-04 12371   0.339E-02    0.498E-01
RMM:   3    -0.710771015750E+03    0.46735E-03   -0.12073E-04  8501   0.248E-02    0.164E-01
RMM:   4    -0.710770969808E+03    0.45942E-04   -0.38506E-05  6702   0.145E-02    0.114E-01
RMM:   5    -0.710770925995E+03    0.43813E-04   -0.10820E-05  6027   0.785E-03    0.126E-02
RMM:   6    -0.710770922604E+03    0.33915E-05   -0.47741E-06  5923   0.553E-03
  43 F= -.71077092E+03 E0= -.71075374E+03  d E =-.849833E-04
       N       E                     dE             d eps       ncg     rms          rms(c)
DAV:   1    -0.710770825199E+03    0.10080E-03   -0.56184E-02 10809   0.357E-01    0.213E-01
RMM:   2    -0.710795787794E+03   -0.24963E-01   -0.60570E-03 12692   0.150E-01    0.309E+00
RMM:   3    -0.710774528315E+03    0.21259E-01   -0.38691E-03 12453   0.133E-01    0.930E-01
RMM:   4    -0.710772572486E+03    0.19558E-02   -0.11487E-03 11067   0.689E-02    0.654E-01
RMM:   5    -0.710771111168E+03    0.14613E-02   -0.25676E-04  8388   0.326E-02    0.620E-02
RMM:   6    -0.710771014603E+03    0.96565E-04   -0.93043E-05  8015   0.171E-02    0.161E-01
RMM:   7    -0.710770985753E+03    0.28850E-04   -0.22079E-05  6721   0.791E-03    0.978E-02
RMM:   8    -0.710770975332E+03    0.10421E-04   -0.96883E-06  6018   0.584E-03    0.719E-02
RMM:   9    -0.710770972375E+03    0.29570E-05   -0.45765E-06  5904   0.417E-03
  44 F= -.71077097E+03 E0= -.71075379E+03  d E =-.497710E-04
       N       E                     dE             d eps       ncg     rms          rms(c)
DAV:   1    -0.710770972548E+03    0.27833E-05   -0.58217E-03 10856   0.115E-01    0.113E-01
RMM:   2    -0.710777861421E+03   -0.68889E-02   -0.13830E-03 12139   0.631E-02    0.161E+00
RMM:   3    -0.710771896332E+03    0.59651E-02   -0.97499E-04  9659   0.645E-02    0.513E-01
RMM:   4    -0.710771386913E+03    0.50942E-03   -0.28985E-04  8242   0.346E-02    0.312E-01
RMM:   5    -0.710771009924E+03    0.37699E-03   -0.64046E-05  7125   0.156E-02    0.314E-02
RMM:   6    -0.710770984415E+03    0.25509E-04   -0.22658E-05  6303   0.102E-02    0.741E-02
RMM:   7    -0.710770973279E+03    0.11136E-04   -0.49523E-06  5796   0.513E-03    0.311E-02
RMM:   8    -0.710770973226E+03    0.52765E-07   -0.26652E-06  5744   0.363E-03
  45 F= -.71077097E+03 E0= -.71075378E+03  d E =-.506222E-04
       N       E                     dE             d eps       ncg     rms          rms(c)
DAV:   1    -0.710770974777E+03   -0.14986E-05   -0.97238E-04 11186   0.470E-02    0.500E-02
RMM:   2    -0.710772412771E+03   -0.14380E-02   -0.28004E-04  9432   0.279E-02    0.809E-01
RMM:   3    -0.710771233120E+03    0.11797E-02   -0.20449E-04  7953   0.304E-02    0.267E-01
RMM:   4    -0.710771075874E+03    0.15725E-03   -0.73492E-05  7048   0.174E-02    0.151E-01
RMM:   5    -0.710770983332E+03    0.92542E-04   -0.15465E-05  5874   0.811E-03    0.141E-02
RMM:   6    -0.710770976120E+03    0.72113E-05   -0.53879E-06  5659   0.537E-03
  46 F= -.71077098E+03 E0= -.71075379E+03  d E =-.535167E-04
       N       E                     dE             d eps       ncg     rms          rms(c)
DAV:   1    -0.710770973214E+03    0.10118E-04   -0.18585E-04 11424   0.217E-02    0.254E-02
RMM:   2    -0.710771330795E+03   -0.35758E-03   -0.75528E-05  7578   0.145E-02    0.398E-01
RMM:   3    -0.710771036474E+03    0.29432E-03   -0.52284E-05  6865   0.155E-02    0.135E-01
RMM:   4    -0.710770996295E+03    0.40179E-04   -0.17694E-05  5869   0.848E-03    0.690E-02
RMM:   5    -0.710770975088E+03    0.21207E-04   -0.40236E-06  5308   0.413E-03    0.109E-02
RMM:   6    -0.710770973133E+03    0.19551E-05   -0.13266E-06  4886   0.264E-03
  47 F= -.71077097E+03 E0= -.71075378E+03  d E =-.505289E-04
       N       E                     dE             d eps       ncg     rms          rms(c)
DAV:   1    -0.710770972642E+03    0.24457E-05   -0.19687E-05  6696   0.790E-03    0.760E-03
RMM:   2    -0.710771004341E+03   -0.31699E-04   -0.95097E-06  5555   0.624E-03    0.120E-01
RMM:   3    -0.710770978722E+03    0.25619E-04   -0.53159E-06  5290   0.531E-03    0.408E-02
RMM:   4    -0.710770974913E+03    0.38086E-05   -0.15997E-06  4610   0.277E-03
  48 F= -.71077097E+03 E0= -.71075379E+03  d E =-.523094E-04
       N       E                     dE             d eps       ncg     rms          rms(c)
DAV:   1    -0.710770972829E+03    0.58922E-05   -0.75240E-06  5608   0.640E-03    0.176E-03
RMM:   2    -0.710770973481E+03   -0.65163E-06   -0.14164E-06  5099   0.288E-03
  49 F= -.71077097E+03 E0= -.71075379E+03  d E =-.508774E-04
       N       E                     dE             d eps       ncg     rms          rms(c)
DAV:   1    -0.710770860808E+03    0.11202E-03   -0.39448E-02 10793   0.286E-01    0.411E-02
RMM:   2    -0.710771358733E+03   -0.49793E-03   -0.13086E-03 12907   0.751E-02    0.412E-01
RMM:   3    -0.710771087427E+03    0.27131E-03   -0.36956E-04 12166   0.387E-02    0.160E-01
RMM:   4    -0.710771057264E+03    0.30164E-04   -0.84594E-05  8425   0.205E-02    0.119E-01
RMM:   5    -0.710771015476E+03    0.41788E-04   -0.22571E-05  6405   0.101E-02    0.306E-02
RMM:   6    -0.710771009011E+03    0.64651E-05   -0.10211E-05  6029   0.707E-03
  50 F= -.71077101E+03 E0= -.71075382E+03  d E =-.355301E-04
       N       E                     dE             d eps       ncg     rms          rms(c)
DAV:   1    -0.710771006475E+03    0.90017E-05   -0.48814E-04 11144   0.342E-02    0.572E-03
RMM:   2    -0.710771020193E+03   -0.13718E-04   -0.17585E-05  6109   0.961E-03    0.745E-02
RMM:   3    -0.710771009921E+03    0.10272E-04   -0.63408E-06  5907   0.668E-03    0.218E-02
RMM:   4    -0.710771009780E+03    0.14067E-06   -0.22138E-06  5882   0.367E-03
  51 F= -.71077101E+03 E0= -.71075382E+03  d E =-.362991E-04
       N       E                     dE             d eps       ncg     rms          rms(c)
DAV:   1    -0.710770922405E+03    0.87516E-04   -0.31287E-02 10513   0.254E-01    0.604E-02
RMM:   2    -0.710772674482E+03   -0.17521E-02   -0.12336E-03 12662   0.714E-02    0.871E-01
RMM:   3    -0.710771332149E+03    0.13423E-02   -0.49285E-04 11528   0.478E-02    0.290E-01
RMM:   4    -0.710771192100E+03    0.14005E-03   -0.14489E-04  8794   0.259E-02    0.207E-01
RMM:   5    -0.710771050400E+03    0.14170E-03   -0.37395E-05  6932   0.127E-02    0.166E-02
RMM:   6    -0.710771038901E+03    0.11498E-04   -0.15670E-05  6237   0.855E-03    0.404E-02
RMM:   7    -0.710771035075E+03    0.38266E-05   -0.51907E-06  5897   0.502E-03
  52 F= -.71077104E+03 E0= -.71075384E+03  d E =-.252944E-04
       N       E                     dE             d eps       ncg     rms          rms(c)
DAV:   1    -0.710771033432E+03    0.54695E-05   -0.44021E-04 11448   0.314E-02    0.754E-03
RMM:   2    -0.710771056551E+03   -0.23119E-04   -0.18541E-05  6098   0.947E-03    0.983E-02
RMM:   3    -0.710771040051E+03    0.16500E-04   -0.79160E-06  5819   0.737E-03    0.372E-02
RMM:   4    -0.710771038307E+03    0.17437E-05   -0.30558E-06  5689   0.415E-03
  53 F= -.71077104E+03 E0= -.71075384E+03  d E =-.285272E-04
       N       E                     dE             d eps       ncg     rms          rms(c)
DAV:   1    -0.710771035536E+03    0.45145E-05   -0.14122E-04 10624   0.183E-02    0.989E-03
RMM:   2    -0.710771093004E+03   -0.57467E-04   -0.12904E-05  5868   0.737E-03    0.161E-01
RMM:   3    -0.710771043213E+03    0.49790E-04   -0.83351E-06  5580   0.684E-03    0.435E-02
RMM:   4    -0.710771040988E+03    0.22251E-05   -0.28403E-06  5332   0.363E-03
  54 F= -.71077104E+03 E0= -.71075384E+03  d E =-.312082E-04
       N       E                     dE             d eps       ncg     rms          rms(c)
DAV:   1    -0.710771035943E+03    0.72705E-05   -0.71880E-05  9632   0.144E-02    0.776E-03
RMM:   2    -0.710771061330E+03   -0.25387E-04   -0.94627E-06  5604   0.627E-03    0.108E-01
RMM:   3    -0.710771042261E+03    0.19069E-04   -0.54201E-06  5364   0.569E-03    0.451E-02
RMM:   4    -0.710771037357E+03    0.49043E-05   -0.14711E-06  5079   0.273E-03
  55 F= -.71077104E+03 E0= -.71075385E+03  d E =-.275766E-04
       N       E                     dE             d eps       ncg     rms          rms(c)
DAV:   1    -0.710771035726E+03    0.65346E-05   -0.17614E-05  6608   0.807E-03    0.836E-03
RMM:   2    -0.710771077601E+03   -0.41875E-04   -0.80344E-06  5441   0.567E-03    0.138E-01
RMM:   3    -0.710771042004E+03    0.35597E-04   -0.64461E-06  5261   0.568E-03    0.405E-02
RMM:   4    -0.710771039477E+03    0.25279E-05   -0.21660E-06  4143   0.300E-03
  56 F= -.71077104E+03 E0= -.71075385E+03  d E =-.296965E-04
       N       E                     dE             d eps       ncg     rms          rms(c)
DAV:   1    -0.710770951943E+03    0.90061E-04   -0.25456E-02 10561   0.232E-01    0.695E-02
RMM:   2    -0.710773338625E+03   -0.23867E-02   -0.11656E-03 12493   0.710E-02    0.987E-01
RMM:   3    -0.710771403312E+03    0.19353E-02   -0.52971E-04 11283   0.499E-02    0.325E-01
RMM:   4    -0.710771258597E+03    0.14472E-03   -0.16270E-04  8636   0.275E-02    0.248E-01
RMM:   5    -0.710771062746E+03    0.19585E-03   -0.43944E-05  7036   0.133E-02    0.247E-02
RMM:   6    -0.710771049145E+03    0.13601E-04   -0.17532E-05  6285   0.908E-03    0.547E-02
RMM:   7    -0.710771041968E+03    0.71765E-05   -0.48123E-06  5907   0.504E-03
  57 F= -.71077104E+03 E0= -.71075385E+03  d E =-.249156E-05
       N       E                     dE             d eps       ncg     rms          rms(c)
DAV:   1    -0.710771035496E+03    0.13649E-04   -0.21226E-03 10457   0.679E-02    0.295E-02
RMM:   2    -0.710771508042E+03   -0.47255E-03   -0.14968E-04  9954   0.239E-02    0.460E-01
RMM:   3    -0.710771126438E+03    0.38160E-03   -0.80026E-05  7588   0.201E-02    0.153E-01
RMM:   4    -0.710771083941E+03    0.42497E-04   -0.29754E-05  6400   0.123E-02    0.104E-01
RMM:   5    -0.710771047101E+03    0.36840E-04   -0.78725E-06  5842   0.665E-03    0.130E-02
RMM:   6    -0.710771044173E+03    0.29287E-05   -0.32651E-06  5759   0.462E-03
  58 F= -.71077104E+03 E0= -.71075385E+03  d E =-.469601E-05
       N       E                     dE             d eps       ncg     rms          rms(c)
DAV:   1    -0.710771041180E+03    0.59209E-05   -0.40240E-04 10488   0.297E-02    0.131E-02
RMM:   2    -0.710771126808E+03   -0.85628E-04   -0.30622E-05  6699   0.112E-02    0.194E-01
RMM:   3    -0.710771058590E+03    0.68218E-04   -0.14681E-05  5999   0.934E-03    0.686E-02
RMM:   4    -0.710771049602E+03    0.89888E-05   -0.50899E-06  5696   0.514E-03
  59 F= -.71077105E+03 E0= -.71075385E+03  d E =-.101250E-04
       N       E                     dE             d eps       ncg     rms          rms(c)
DAV:   1    -0.710771042848E+03    0.15743E-04   -0.18365E-04 10962   0.220E-02    0.361E-03
RMM:   2    -0.710771042798E+03    0.49942E-07   -0.66560E-06  5287   0.551E-03
  60 F= -.71077104E+03 E0= -.71075385E+03  d E =-.332126E-05
