       N       E                     dE             d eps       ncg     rms          ort
SDA:   1    -0.953291754522E+03   -0.95329E+03    0.00000E+00  5040   0.293E+02 0.000E+00
CGA:   2    -0.958554903312E+03   -0.52631E+01   -0.53421E+01  5040   0.689E+01 0.199E+01
CGA:   3    -0.961608632023E+03   -0.30537E+01   -0.29451E+01  5040   0.203E+01 0.516E+00
CGA:   4    -0.962117755244E+03   -0.50912E+00   -0.50791E+00  5040   0.114E+01 0.340E-01
CGA:   5    -0.962441805445E+03   -0.32405E+00   -0.32122E+00  5040   0.330E+00 0.310E-01
CGA:   6    -0.962530728373E+03   -0.88923E-01   -0.88769E-01  5040   0.146E+00 0.218E-02
CGA:   7    -0.962561437025E+03   -0.30709E-01   -0.30713E-01  5040   0.367E-01 0.464E-03
CGA:   8    -0.962569169122E+03   -0.77321E-02   -0.77327E-02  5040   0.151E-01 0.753E-04
CGA:   9    -0.962572476689E+03   -0.33076E-02   -0.33074E-02  5040   0.653E-02 0.567E-04
CGA:  10    -0.962574148424E+03   -0.16717E-02   -0.16689E-02  5040   0.319E-02 0.722E-04
CGA:  11    -0.962574968156E+03   -0.81973E-03   -0.81798E-03  5040   0.167E-02 0.472E-04
CGA:  12    -0.962575368059E+03   -0.39990E-03   -0.39950E-03  5040   0.761E-03 0.252E-04
CGA:  13    -0.962575550413E+03   -0.18235E-03   -0.18220E-03  5040   0.412E-03 0.974E-05
CGA:  14    -0.962575657955E+03   -0.10754E-03   -0.10737E-03  5040   0.229E-03 0.465E-05
CGA:  15    -0.962575719387E+03   -0.61431E-04   -0.61559E-04  5040   0.148E-03-0.299E-05
CGA:  16    -0.962575753238E+03   -0.33851E-04   -0.33888E-04  5040   0.840E-04-0.565E-05
CGA:  17    -0.962575772273E+03   -0.19035E-04   -0.19080E-04  5040   0.464E-04-0.401E-05
CGA:  18    -0.962575783134E+03   -0.10861E-04   -0.10935E-04  5040   0.300E-04-0.347E-05
CGA:  19    -0.962575788687E+03   -0.55526E-05   -0.54798E-05  5040   0.184E-04-0.248E-05
   1 F= -.96257579E+03 E0= -.96256562E+03  d E =-.203333E-01
