Ga8 O12                                 
    1.000000000000000     
     0.0000000000000000   12.2804737091000007    0.0000000000000000
     9.1427011490000005    0.0000000000000000    0.0000000000000000
     0.0000000000000000   -2.7682616411000001  -11.3006974810000003
   Ga   O    Fe
    47    72     1
Direct
  0.6586928325896328  0.0000375791232740  0.1567552079006541
  0.6585421501624084 -0.0000147939668337  0.6559821669033348
  0.6584355458777909  0.3332471935626468  0.1547793194720524
  0.6574413269087886  0.3311264036264479  0.6597060265693404
  0.6584538753085313  0.6668253795598196  0.1547686893921630
  0.6574286637687965  0.6688568111092977  0.6596977203700816
  0.8400030537554974  0.1668797799444788  0.3428761184129798
  0.8413726429971172  0.1663822880700069  0.8436993121275419
  0.8412199259993003  0.5000170148757607  0.3406183051983335
  0.8408999348268998  0.4999789369068946  0.8436304532692449
  0.8400053268349398  0.8331785771422970  0.3428576649887865
  0.8413837823945579  0.8335735046174590  0.8436840673573904
  0.5913092524937414  0.1696259842405249  0.3975676960758144
  0.5900940676918952  0.1663918626463648  0.8977602871720929
  0.5893742273026208  0.5000152190055988  0.8972681615071465
  0.5913114921762628  0.8303086418685718  0.3975664662052764
  0.5900983196221361  0.8336434878793546  0.8977528971540669
  0.9094601853246533  0.0000248606165999  0.1027610978902511
  0.9081118449492872 -0.0000010833117279  0.6021382555392671
  0.9100526724802923  0.3331183686665429  0.1025001326494017
  0.9074270707861323  0.3336377694902342  0.6012986799422494
  0.9100497583711492  0.6669401130131936  0.1024844994141645
  0.9074246561435964  0.6663669514847164  0.6012825290920975
  0.1603219836388694  0.1670504630219602  0.1578920462593092
  0.1578777890206561  0.1667031163315636  0.6562291414889955
  0.1598989202191942  0.5000143083275170  0.1569535972230933
  0.1584165173150407  0.5000001839622108  0.6560658337420766
  0.1603304375070949  0.8329666893585398  0.1578935678682705
  0.1578786944859248  0.8332937362885832  0.6562128391270102
  0.3430168439680691 -0.0000125985827670  0.3434972273544488
  0.3396036996678333  0.0000094837548089  0.8425540604531845
  0.3442726548110921  0.3358326047113961  0.3439168650658388
  0.3398524580635721  0.3336618688604759  0.8431064737633296
  0.3442790135520434  0.6641106774363520  0.3439344263341180
  0.3398598408245929  0.6663560979107530  0.8430714264296393
  0.0899431763091541  0.0000319464480986  0.3969853408299818
  0.0916480613957279 -0.0000103405144097  0.8987290227417830
  0.0916779463655350  0.3333839228422935  0.3971269683123175
  0.0910284501476673  0.3333416378968157  0.8978875322496898
  0.0916679922961374  0.6666723745148164  0.3971137792520669
  0.0910387632151150  0.6666308195621804  0.8978808191633313
  0.4084209480182275  0.1663934362111455  0.1011352149023382
  0.4083672708843526  0.1662402604778272  0.6030987194959192
  0.4101459422973131  0.5000421985384865  0.1029185472623820
  0.4092645414661246  0.4999184684431218  0.6022739074420274
  0.4084171858655863  0.8336778928742485  0.1011128678649747
  0.4083493665149447  0.8336018500887478  0.6030735132573745
  0.9973758715415258  0.1663655080096374  0.1281447455869639
  0.9950206345755338  0.1671873596732330  0.6259764408070376
  0.9972077256238575  0.5000263716558897  0.1280616697403957
  0.9952879324198806  0.5000022026005204  0.6258309791375541
  0.9973806332109802  0.8336900140917710  0.1281293843344993
  0.9950247584683802  0.8328136924865487  0.6259631439835458
  0.5056604910099813 -0.0000258116348241  0.3728279196405297
  0.5024734481916627  0.0000140866062136  0.8727320621714754
  0.5090799439653054  0.3430108900646611  0.3743230067877107
  0.5025192428805674  0.3328327413645726  0.8728889805219124
  0.5091013528345458  0.6569168185100640  0.3744588741484927
  0.5025233678382738  0.6671998758651044  0.8727829396491212
  0.6722320638184227  0.1667944482842538  0.2797218378261002
  0.6725413726852624  0.1660100552601127  0.7813872430066319
  0.6693236522779704  0.4999798262959568  0.2734134005884494
  0.6725792978393929  0.4999671023394824  0.7822395531338613
  0.6722258297250727  0.8332152078423744  0.2797101505629579
  0.6725446336439954  0.8339473091328915  0.7813806000023793
  0.8274579265800475  0.0000355932993873  0.2194888836099758
  0.8270291678028027 -0.0000315471671204  0.7195933746631522
  0.8279205224957371  0.3333979181692935  0.2193478599041205
  0.8265056216362280  0.3338584849106903  0.7190318043291203
  0.8279161252052227  0.6666436898564928  0.2193323713789471
  0.8265052090181856  0.6661025195151373  0.7190180132643899
  0.8313852429742961  0.0000167580792958  0.4454594797877766
  0.8328266092124456 -0.0000189043688377  0.9461603600634301
  0.8276329845902797  0.3354255964086136  0.4447326142924772
  0.8334411490562962  0.3329441974388471  0.9459696460002341
  0.8276610378152109  0.6646170083198171  0.4447091982502580
  0.8334345059981577  0.6670314632035221  0.9459566601520211
  0.6681895354180035  0.1662484569542449  0.0537861785800919
  0.6671460853727178  0.1671309654845221  0.5547078218301220
  0.6686315686865616  0.5000324817952341  0.0523476536615818
  0.6594506279388022  0.5000208853669096  0.5579384165114467
  0.6682052302014921  0.8338428099191870  0.0537764486674069
  0.6671609443049809  0.8328572194175464  0.5547008402549244
  0.4960816533652482  0.0000316601242393  0.1260942401517061
  0.4961448229650768 -0.0000862632344415  0.6284709784229381
  0.4960201422617372  0.3323836973502884  0.1257950435120129
  0.4954209694368643  0.3325378572196998  0.6295216944174030
  0.4960339534168800  0.6676916574969370  0.1257434974257601
  0.4954037999678639  0.6673243680401566  0.6294556670534436
  0.0028561794517096  0.1674137183267995  0.3729827890301415
  0.0038666893241671  0.1664099376464318  0.8727642463056268
  0.0036899545322026  0.5000217995545191  0.3730809479690327
  0.0035849536101571  0.4999903600332433  0.8725923372444331
  0.0028592160221561  0.8326489645096922  0.3729429267135886
  0.0038760568683634  0.8335630383678067  0.8727619242775247
  0.1739629565289998  0.0000111949207231  0.2817388979057597
  0.1709817002214370 -0.0000035782082573  0.7796224946753672
  0.1739235445615548  0.3331663027901520  0.2809190924095833
  0.1715477390424227  0.3335265165939930  0.7798703125139193
  0.1739299116418359  0.6668560254598415  0.2809220841256810
  0.1715486166189230  0.6664604899992604  0.7798568718784825
  0.3295541637842099  0.1676416372905037  0.2205364092789823
  0.3261097941987293  0.1662523051002073  0.7192544808755197
  0.3280534999759990  0.5000193817526757  0.2195485477350256
  0.3268444338766137  0.4999825171552712  0.7193211759807959
  0.3295697820958891  0.8323625799175431  0.2205314807057506
  0.3261031273287846  0.8337264442648253  0.7192374878262773
  0.3359684276837260  0.1678795758629234  0.4452852177141906
  0.3304167118225541  0.1664518530906791  0.9450472938428361
  0.3310330875708017  0.4999233372626513  0.4463502254876275
  0.3318749634808214  0.5000241624176459  0.9461702696573324
  0.3359497118925701  0.8320733089185621  0.4452656320384132
  0.3304073730633060  0.8335634443594131  0.9450258073707259
  0.1691119163057501  0.0000071858408754  0.0553803830901738
  0.1674254010985507  0.0000064281564517  0.5534843926832950
  0.1681462138323630  0.3331826516757616  0.0544576461524740
  0.1675962599428034  0.3330497996385962  0.5539254415533589
  0.1681455846285985  0.6668340643239750  0.0544541327371966
  0.1675972987457894  0.6669527601880957  0.5539125093129477
  0.6055859353605632  0.4999435718047197  0.4015453706063469
 
  0.00000000E+00  0.00000000E+00  0.00000000E+00
  0.00000000E+00  0.00000000E+00  0.00000000E+00
  0.00000000E+00  0.00000000E+00  0.00000000E+00
  0.00000000E+00  0.00000000E+00  0.00000000E+00
  0.00000000E+00  0.00000000E+00  0.00000000E+00
  0.00000000E+00  0.00000000E+00  0.00000000E+00
  0.00000000E+00  0.00000000E+00  0.00000000E+00
  0.00000000E+00  0.00000000E+00  0.00000000E+00
  0.00000000E+00  0.00000000E+00  0.00000000E+00
  0.00000000E+00  0.00000000E+00  0.00000000E+00
  0.00000000E+00  0.00000000E+00  0.00000000E+00
  0.00000000E+00  0.00000000E+00  0.00000000E+00
  0.00000000E+00  0.00000000E+00  0.00000000E+00
  0.00000000E+00  0.00000000E+00  0.00000000E+00
  0.00000000E+00  0.00000000E+00  0.00000000E+00
  0.00000000E+00  0.00000000E+00  0.00000000E+00
  0.00000000E+00  0.00000000E+00  0.00000000E+00
  0.00000000E+00  0.00000000E+00  0.00000000E+00
  0.00000000E+00  0.00000000E+00  0.00000000E+00
  0.00000000E+00  0.00000000E+00  0.00000000E+00
  0.00000000E+00  0.00000000E+00  0.00000000E+00
  0.00000000E+00  0.00000000E+00  0.00000000E+00
  0.00000000E+00  0.00000000E+00  0.00000000E+00
  0.00000000E+00  0.00000000E+00  0.00000000E+00
  0.00000000E+00  0.00000000E+00  0.00000000E+00
  0.00000000E+00  0.00000000E+00  0.00000000E+00
  0.00000000E+00  0.00000000E+00  0.00000000E+00
  0.00000000E+00  0.00000000E+00  0.00000000E+00
  0.00000000E+00  0.00000000E+00  0.00000000E+00
  0.00000000E+00  0.00000000E+00  0.00000000E+00
  0.00000000E+00  0.00000000E+00  0.00000000E+00
  0.00000000E+00  0.00000000E+00  0.00000000E+00
  0.00000000E+00  0.00000000E+00  0.00000000E+00
  0.00000000E+00  0.00000000E+00  0.00000000E+00
  0.00000000E+00  0.00000000E+00  0.00000000E+00
  0.00000000E+00  0.00000000E+00  0.00000000E+00
  0.00000000E+00  0.00000000E+00  0.00000000E+00
  0.00000000E+00  0.00000000E+00  0.00000000E+00
  0.00000000E+00  0.00000000E+00  0.00000000E+00
  0.00000000E+00  0.00000000E+00  0.00000000E+00
  0.00000000E+00  0.00000000E+00  0.00000000E+00
  0.00000000E+00  0.00000000E+00  0.00000000E+00
  0.00000000E+00  0.00000000E+00  0.00000000E+00
  0.00000000E+00  0.00000000E+00  0.00000000E+00
  0.00000000E+00  0.00000000E+00  0.00000000E+00
  0.00000000E+00  0.00000000E+00  0.00000000E+00
  0.00000000E+00  0.00000000E+00  0.00000000E+00
  0.00000000E+00  0.00000000E+00  0.00000000E+00
  0.00000000E+00  0.00000000E+00  0.00000000E+00
  0.00000000E+00  0.00000000E+00  0.00000000E+00
  0.00000000E+00  0.00000000E+00  0.00000000E+00
  0.00000000E+00  0.00000000E+00  0.00000000E+00
  0.00000000E+00  0.00000000E+00  0.00000000E+00
  0.00000000E+00  0.00000000E+00  0.00000000E+00
  0.00000000E+00  0.00000000E+00  0.00000000E+00
  0.00000000E+00  0.00000000E+00  0.00000000E+00
  0.00000000E+00  0.00000000E+00  0.00000000E+00
  0.00000000E+00  0.00000000E+00  0.00000000E+00
  0.00000000E+00  0.00000000E+00  0.00000000E+00
  0.00000000E+00  0.00000000E+00  0.00000000E+00
  0.00000000E+00  0.00000000E+00  0.00000000E+00
  0.00000000E+00  0.00000000E+00  0.00000000E+00
  0.00000000E+00  0.00000000E+00  0.00000000E+00
  0.00000000E+00  0.00000000E+00  0.00000000E+00
  0.00000000E+00  0.00000000E+00  0.00000000E+00
  0.00000000E+00  0.00000000E+00  0.00000000E+00
  0.00000000E+00  0.00000000E+00  0.00000000E+00
  0.00000000E+00  0.00000000E+00  0.00000000E+00
  0.00000000E+00  0.00000000E+00  0.00000000E+00
  0.00000000E+00  0.00000000E+00  0.00000000E+00
  0.00000000E+00  0.00000000E+00  0.00000000E+00
  0.00000000E+00  0.00000000E+00  0.00000000E+00
  0.00000000E+00  0.00000000E+00  0.00000000E+00
  0.00000000E+00  0.00000000E+00  0.00000000E+00
  0.00000000E+00  0.00000000E+00  0.00000000E+00
  0.00000000E+00  0.00000000E+00  0.00000000E+00
  0.00000000E+00  0.00000000E+00  0.00000000E+00
  0.00000000E+00  0.00000000E+00  0.00000000E+00
  0.00000000E+00  0.00000000E+00  0.00000000E+00
  0.00000000E+00  0.00000000E+00  0.00000000E+00
  0.00000000E+00  0.00000000E+00  0.00000000E+00
  0.00000000E+00  0.00000000E+00  0.00000000E+00
  0.00000000E+00  0.00000000E+00  0.00000000E+00
  0.00000000E+00  0.00000000E+00  0.00000000E+00
  0.00000000E+00  0.00000000E+00  0.00000000E+00
  0.00000000E+00  0.00000000E+00  0.00000000E+00
  0.00000000E+00  0.00000000E+00  0.00000000E+00
  0.00000000E+00  0.00000000E+00  0.00000000E+00
  0.00000000E+00  0.00000000E+00  0.00000000E+00
  0.00000000E+00  0.00000000E+00  0.00000000E+00
  0.00000000E+00  0.00000000E+00  0.00000000E+00
  0.00000000E+00  0.00000000E+00  0.00000000E+00
  0.00000000E+00  0.00000000E+00  0.00000000E+00
  0.00000000E+00  0.00000000E+00  0.00000000E+00
  0.00000000E+00  0.00000000E+00  0.00000000E+00
  0.00000000E+00  0.00000000E+00  0.00000000E+00
  0.00000000E+00  0.00000000E+00  0.00000000E+00
  0.00000000E+00  0.00000000E+00  0.00000000E+00
  0.00000000E+00  0.00000000E+00  0.00000000E+00
  0.00000000E+00  0.00000000E+00  0.00000000E+00
  0.00000000E+00  0.00000000E+00  0.00000000E+00
  0.00000000E+00  0.00000000E+00  0.00000000E+00
  0.00000000E+00  0.00000000E+00  0.00000000E+00
  0.00000000E+00  0.00000000E+00  0.00000000E+00
  0.00000000E+00  0.00000000E+00  0.00000000E+00
  0.00000000E+00  0.00000000E+00  0.00000000E+00
  0.00000000E+00  0.00000000E+00  0.00000000E+00
  0.00000000E+00  0.00000000E+00  0.00000000E+00
  0.00000000E+00  0.00000000E+00  0.00000000E+00
  0.00000000E+00  0.00000000E+00  0.00000000E+00
  0.00000000E+00  0.00000000E+00  0.00000000E+00
  0.00000000E+00  0.00000000E+00  0.00000000E+00
  0.00000000E+00  0.00000000E+00  0.00000000E+00
  0.00000000E+00  0.00000000E+00  0.00000000E+00
  0.00000000E+00  0.00000000E+00  0.00000000E+00
  0.00000000E+00  0.00000000E+00  0.00000000E+00
  0.00000000E+00  0.00000000E+00  0.00000000E+00
  0.00000000E+00  0.00000000E+00  0.00000000E+00
  0.00000000E+00  0.00000000E+00  0.00000000E+00
  0.00000000E+00  0.00000000E+00  0.00000000E+00
