Ga47 O72                                
    1.000000000000000     
     0.0000000000000000   12.2804734172212839    0.0000000000000000
     9.1427020537309431    0.0000000000000000    0.0000000000000000
     0.0000000000000000   -2.7682617730220320  -11.3006977184464645
   Ga   O 
    47    72
Direct
  0.6610606441464593  0.0001449577271138  0.1579272722505940
  0.6578091089983713  0.0003310364522382  0.6553022713180050
  0.6613928511583077  0.3333333333333357  0.1583503243365650
  0.6575350636185098  0.3333333333333357  0.6547443524634519
  0.6610606441464593  0.6665217089395502  0.1579272722505940
  0.6578091089983713  0.6663356302144263  0.6553022713180050
  0.8440022083317567  0.1672035578471223  0.3443078396256629
  0.8401624348371072  0.1672838842931863  0.8426342756944527
  0.8440022083317567  0.4994631088195420  0.3443078396256629
  0.8401624348371072  0.4993827823734778  0.8426342756944527
  0.8427402823920453  0.8333333333333357  0.3441989799547678
  0.8397033991150027  0.8333333333333357  0.8423485765091808
  0.5891766137448718  0.1704977247139961  0.3959425519120535
  0.5919899028402975  0.1665310504983628  0.8980450056463815
  0.5891766137448718  0.4961689419526680  0.3959425519120535
  0.5919899028402975  0.5001356161683006  0.8980450056463815
  0.5901990743342698  0.8333333333333357  0.3970867406886153
  0.5928282594945702  0.8333333333333357  0.8988679752066930
  0.9089853730575234  0.0003633610398162  0.1013940150788176
  0.9093185815018021  0.0002199396279886  0.6028423368438418
  0.9116553724291395  0.3333333333333357  0.1027669862844012
  0.9098196756712550  0.3333333333333357  0.6026419308297231
  0.9089853730575234  0.6663033056268479  0.1013940150788176
  0.9093185815018021  0.6664467270386755  0.6028423368438418
  0.1633455420772278  0.1698328743168533  0.1610317333554857
  0.1599796446360718  0.1669149991737159  0.6579925248115827
  0.1633455420772278  0.4968337923498109  0.1610317333554857
  0.1599796446360718  0.4997516674929484  0.6579925248115827
  0.1584988149141928  0.8333333333333357  0.1575476956629945
  0.1594640029890302  0.8333333333333357  0.6598157978903328
  0.3401729000594551  0.0046590470458351  0.3409567220737990
  0.3426691720280052  0.0002175330729967  0.8441065257561426
  0.3420760627529701  0.3333333333333357  0.8438616773796025
  0.3401729000594551  0.6620076196208290  0.3409567220737990
  0.3426691720280052  0.6664491335936680  0.8441065257561426
  0.0925996518872103  0.0006143317967908  0.3979970321356445
  0.0897313110110777  0.0001478306950819  0.8979225210421062
  0.0998475779106714  0.3333333333333357  0.3970782527913025
  0.0909528605767963  0.3333333333333357  0.8984667922123747
  0.0925996518872103  0.6660523348698735  0.3979970321356445
  0.0897313110110777  0.6665188359715821  0.8979225210421062
  0.4097388445967767  0.1657650658530061  0.1051540818330893
  0.4053491388639081  0.1662816209779306  0.5975798270697594
  0.4097388445967767  0.5009016008136583  0.1051540818330893
  0.4053491388639081  0.5003850456887343  0.5975798270697594
  0.4101189681725501  0.8333333333333357  0.1041668877597777
  0.4084210997124279  0.8333333333333357  0.6001192419178144
  0.9966679630723978  0.1655740750021148  0.1236963307953420
  0.9969428139702688  0.1665620657927877  0.6290975378791872
  0.9966679630723978  0.5010925916645499  0.1236963307953420
  0.9969428139702688  0.5001046008738769  0.6290975378791872
  0.9945671296737605  0.8333333333333357  0.1252355234119396
  0.9963354517294438  0.8333333333333357  0.6296430153830180
  0.5042801794840386  0.0010017164396582  0.3736434136140055
  0.5053489260676954 -0.0004267835663138  0.8732776165567681
  0.5013084198776995  0.3333333333333357  0.3719804583401812
  0.5049815321482284  0.3333333333333357  0.8724074393351186
  0.5042801794840386  0.6656649502270062  0.3736434136140055
  0.5053489260676954  0.6670934502329783  0.8732776165567681
  0.6746815889969463  0.1663026504169414  0.2808092433133557
  0.6718730657579973  0.1677337372724311  0.7796024773352536
  0.6746815889969463  0.5003640162497232  0.2808092433133557
  0.6718730657579973  0.4989329293942332  0.7796024773352536
  0.6742201845950300  0.8333333333333357  0.2815952272528691
  0.6722261025411532  0.8333333333333357  0.7798725947150599
  0.8292167756293684  0.0003963290908272  0.2202620830273397
  0.8264821103575827  0.0003961359513401  0.7187837763946184
  0.8297776798445501  0.3333333333333357  0.2200573183231756
  0.8267325524265972  0.3333333333333357  0.7186239541106443
  0.8292167756293684  0.6662703375758376  0.2202620830273397
  0.8264821103575827  0.6662705307153238  0.7187837763946184
  0.8336043644978391  0.0002699567947407  0.4462898993115212
  0.8307418066745184  0.0003094627276309  0.9446981526542448
  0.8326927132354687  0.3333333333333357  0.4464262888417843
  0.8320459521079094  0.3333333333333357  0.9458855554987596
  0.8336043644978391  0.6663967098719238  0.4462898993115212
  0.8307418066745184  0.6663572039390340  0.9446981526542448
  0.6689716409222933  0.1672508963211948  0.0545659745200788
  0.6675599540338910  0.1665143360083552  0.5535301361287454
  0.6689716409222933  0.4994157703454695  0.0545659745200788
  0.6675599540338910  0.5001523306583089  0.5535301361287454
  0.6711204335408812  0.8333333333333357  0.0550204274496142
  0.6676985780626131  0.8333333333333357  0.5537941412499473
  0.4993633560408354 -0.0007588386248762  0.1266144070373152
  0.4961432825146224  0.0006725160167074  0.6281414668884941
  0.4977594114140903  0.3333333333333357  0.1312721748545110
  0.4933475979684620  0.3333333333333357  0.6215396548235472
  0.4993633560408354  0.6674255052915408  0.1266144070373152
  0.4961432825146224  0.6659941506499567  0.6281414668884941
  0.0062699431371732  0.1682442125492952  0.3758359809778923
  0.0025527046901275  0.1671269974637047  0.8709266677233642
  0.0062699431371732  0.4984224541173692  0.3758359809778923
  0.0025527046901275  0.4995396692029596  0.8709266677233642
  0.0045282478480359  0.8333333333333357  0.3750668698870982
  0.0019366033927623  0.8333333333333357  0.8708159572901105
  0.1689891504406169 -0.0034542747455472  0.2783823467349837
  0.1734262244468656  0.0000304546892695  0.7824884340867232
  0.1612869487650497  0.3333333333333357  0.2695178403640382
  0.1733141366638181  0.3333333333333357  0.7819094358849367
  0.1689891504406169  0.6701209414122116  0.2783823467349837
  0.1734262244468656  0.6666362119773945  0.7824884340867232
  0.3249130636473895  0.1476760781728890  0.2132498546488343
  0.3284851248750865  0.1667504592047561  0.7205641328489215
  0.3249130636473895  0.5189905884937753  0.2132498546488343
  0.3284851248750865  0.4999162074619085  0.7205641328489215
  0.3277677498818860  0.8333333333333357  0.2192124882657133
  0.3282774051777532  0.8333333333333357  0.7197278229222998
  0.3138262418839854  0.1476810952398495  0.4509153729331034
  0.3362098563847470  0.1668976699343916  0.9466993358366558
  0.3138262418839854  0.5189855714268147  0.4509153729331034
  0.3362098563847470  0.4997689967322726  0.9466993358366558
  0.3325299127339970  0.8333333333333357  0.4437835662017580
  0.3345942047908572  0.8333333333333357  0.9465248065317635
  0.1647763667095512 -0.0005470605020657  0.0534972115472006
  0.1654782578884444 -0.0013027720463155  0.5565538087858072
  0.1710363365633807  0.3333333333333357  0.0522831619944498
  0.1677079802903421  0.3333333333333357  0.5565828391257130
  0.1647763667095512  0.6672137271687301  0.0534972115472006
  0.1654782578884444  0.6679694387129798  0.5565538087858072
 
  0.00000000E+00  0.00000000E+00  0.00000000E+00
  0.00000000E+00  0.00000000E+00  0.00000000E+00
  0.00000000E+00  0.00000000E+00  0.00000000E+00
  0.00000000E+00  0.00000000E+00  0.00000000E+00
  0.00000000E+00  0.00000000E+00  0.00000000E+00
  0.00000000E+00  0.00000000E+00  0.00000000E+00
  0.00000000E+00  0.00000000E+00  0.00000000E+00
  0.00000000E+00  0.00000000E+00  0.00000000E+00
  0.00000000E+00  0.00000000E+00  0.00000000E+00
  0.00000000E+00  0.00000000E+00  0.00000000E+00
  0.00000000E+00  0.00000000E+00  0.00000000E+00
  0.00000000E+00  0.00000000E+00  0.00000000E+00
  0.00000000E+00  0.00000000E+00  0.00000000E+00
  0.00000000E+00  0.00000000E+00  0.00000000E+00
  0.00000000E+00  0.00000000E+00  0.00000000E+00
  0.00000000E+00  0.00000000E+00  0.00000000E+00
  0.00000000E+00  0.00000000E+00  0.00000000E+00
  0.00000000E+00  0.00000000E+00  0.00000000E+00
  0.00000000E+00  0.00000000E+00  0.00000000E+00
  0.00000000E+00  0.00000000E+00  0.00000000E+00
  0.00000000E+00  0.00000000E+00  0.00000000E+00
  0.00000000E+00  0.00000000E+00  0.00000000E+00
  0.00000000E+00  0.00000000E+00  0.00000000E+00
  0.00000000E+00  0.00000000E+00  0.00000000E+00
  0.00000000E+00  0.00000000E+00  0.00000000E+00
  0.00000000E+00  0.00000000E+00  0.00000000E+00
  0.00000000E+00  0.00000000E+00  0.00000000E+00
  0.00000000E+00  0.00000000E+00  0.00000000E+00
  0.00000000E+00  0.00000000E+00  0.00000000E+00
  0.00000000E+00  0.00000000E+00  0.00000000E+00
  0.00000000E+00  0.00000000E+00  0.00000000E+00
  0.00000000E+00  0.00000000E+00  0.00000000E+00
  0.00000000E+00  0.00000000E+00  0.00000000E+00
  0.00000000E+00  0.00000000E+00  0.00000000E+00
  0.00000000E+00  0.00000000E+00  0.00000000E+00
  0.00000000E+00  0.00000000E+00  0.00000000E+00
  0.00000000E+00  0.00000000E+00  0.00000000E+00
  0.00000000E+00  0.00000000E+00  0.00000000E+00
  0.00000000E+00  0.00000000E+00  0.00000000E+00
  0.00000000E+00  0.00000000E+00  0.00000000E+00
  0.00000000E+00  0.00000000E+00  0.00000000E+00
  0.00000000E+00  0.00000000E+00  0.00000000E+00
  0.00000000E+00  0.00000000E+00  0.00000000E+00
  0.00000000E+00  0.00000000E+00  0.00000000E+00
  0.00000000E+00  0.00000000E+00  0.00000000E+00
  0.00000000E+00  0.00000000E+00  0.00000000E+00
  0.00000000E+00  0.00000000E+00  0.00000000E+00
  0.00000000E+00  0.00000000E+00  0.00000000E+00
  0.00000000E+00  0.00000000E+00  0.00000000E+00
  0.00000000E+00  0.00000000E+00  0.00000000E+00
  0.00000000E+00  0.00000000E+00  0.00000000E+00
  0.00000000E+00  0.00000000E+00  0.00000000E+00
  0.00000000E+00  0.00000000E+00  0.00000000E+00
  0.00000000E+00  0.00000000E+00  0.00000000E+00
  0.00000000E+00  0.00000000E+00  0.00000000E+00
  0.00000000E+00  0.00000000E+00  0.00000000E+00
  0.00000000E+00  0.00000000E+00  0.00000000E+00
  0.00000000E+00  0.00000000E+00  0.00000000E+00
  0.00000000E+00  0.00000000E+00  0.00000000E+00
  0.00000000E+00  0.00000000E+00  0.00000000E+00
  0.00000000E+00  0.00000000E+00  0.00000000E+00
  0.00000000E+00  0.00000000E+00  0.00000000E+00
  0.00000000E+00  0.00000000E+00  0.00000000E+00
  0.00000000E+00  0.00000000E+00  0.00000000E+00
  0.00000000E+00  0.00000000E+00  0.00000000E+00
  0.00000000E+00  0.00000000E+00  0.00000000E+00
  0.00000000E+00  0.00000000E+00  0.00000000E+00
  0.00000000E+00  0.00000000E+00  0.00000000E+00
  0.00000000E+00  0.00000000E+00  0.00000000E+00
  0.00000000E+00  0.00000000E+00  0.00000000E+00
  0.00000000E+00  0.00000000E+00  0.00000000E+00
  0.00000000E+00  0.00000000E+00  0.00000000E+00
  0.00000000E+00  0.00000000E+00  0.00000000E+00
  0.00000000E+00  0.00000000E+00  0.00000000E+00
  0.00000000E+00  0.00000000E+00  0.00000000E+00
  0.00000000E+00  0.00000000E+00  0.00000000E+00
  0.00000000E+00  0.00000000E+00  0.00000000E+00
  0.00000000E+00  0.00000000E+00  0.00000000E+00
  0.00000000E+00  0.00000000E+00  0.00000000E+00
  0.00000000E+00  0.00000000E+00  0.00000000E+00
  0.00000000E+00  0.00000000E+00  0.00000000E+00
  0.00000000E+00  0.00000000E+00  0.00000000E+00
  0.00000000E+00  0.00000000E+00  0.00000000E+00
  0.00000000E+00  0.00000000E+00  0.00000000E+00
  0.00000000E+00  0.00000000E+00  0.00000000E+00
  0.00000000E+00  0.00000000E+00  0.00000000E+00
  0.00000000E+00  0.00000000E+00  0.00000000E+00
  0.00000000E+00  0.00000000E+00  0.00000000E+00
  0.00000000E+00  0.00000000E+00  0.00000000E+00
  0.00000000E+00  0.00000000E+00  0.00000000E+00
  0.00000000E+00  0.00000000E+00  0.00000000E+00
  0.00000000E+00  0.00000000E+00  0.00000000E+00
  0.00000000E+00  0.00000000E+00  0.00000000E+00
  0.00000000E+00  0.00000000E+00  0.00000000E+00
  0.00000000E+00  0.00000000E+00  0.00000000E+00
  0.00000000E+00  0.00000000E+00  0.00000000E+00
  0.00000000E+00  0.00000000E+00  0.00000000E+00
  0.00000000E+00  0.00000000E+00  0.00000000E+00
  0.00000000E+00  0.00000000E+00  0.00000000E+00
  0.00000000E+00  0.00000000E+00  0.00000000E+00
  0.00000000E+00  0.00000000E+00  0.00000000E+00
  0.00000000E+00  0.00000000E+00  0.00000000E+00
  0.00000000E+00  0.00000000E+00  0.00000000E+00
  0.00000000E+00  0.00000000E+00  0.00000000E+00
  0.00000000E+00  0.00000000E+00  0.00000000E+00
  0.00000000E+00  0.00000000E+00  0.00000000E+00
  0.00000000E+00  0.00000000E+00  0.00000000E+00
  0.00000000E+00  0.00000000E+00  0.00000000E+00
  0.00000000E+00  0.00000000E+00  0.00000000E+00
  0.00000000E+00  0.00000000E+00  0.00000000E+00
  0.00000000E+00  0.00000000E+00  0.00000000E+00
  0.00000000E+00  0.00000000E+00  0.00000000E+00
  0.00000000E+00  0.00000000E+00  0.00000000E+00
  0.00000000E+00  0.00000000E+00  0.00000000E+00
  0.00000000E+00  0.00000000E+00  0.00000000E+00
  0.00000000E+00  0.00000000E+00  0.00000000E+00
  0.00000000E+00  0.00000000E+00  0.00000000E+00
  0.00000000E+00  0.00000000E+00  0.00000000E+00
  0.00000000E+00  0.00000000E+00  0.00000000E+00
