       N       E                     dE             d eps       ncg     rms          rms(c)
DAV:   1     0.373364414212E+03    0.37336E+03   -0.28782E+04   784   0.119E+03
DAV:   2    -0.534599621427E+02   -0.42682E+03   -0.41297E+03  1024   0.210E+02
DAV:   3    -0.859171379685E+02   -0.32457E+02   -0.32236E+02   952   0.625E+01
DAV:   4    -0.868747065308E+02   -0.95757E+00   -0.95387E+00  1064   0.119E+01
DAV:   5    -0.869012596736E+02   -0.26553E-01   -0.26530E-01   984   0.197E+00    0.243E+01
RMM:   6    -0.840548922761E+02    0.28464E+01   -0.70902E+00   784   0.648E+00    0.138E+01
RMM:   7    -0.840851772904E+02   -0.30285E-01   -0.79698E+00   784   0.707E+00    0.219E+00
RMM:   8    -0.840252281667E+02    0.59949E-01   -0.31002E+00   784   0.535E+00    0.113E+00
RMM:   9    -0.839229271001E+02    0.10230E+00   -0.39199E-01   784   0.197E+00    0.265E-01
RMM:  10    -0.839333145845E+02   -0.10387E-01   -0.10257E-01   784   0.941E-01    0.368E-01
RMM:  11    -0.839278900462E+02    0.54245E-02   -0.28230E-02   784   0.610E-01    0.197E-01
RMM:  12    -0.839281241675E+02   -0.23412E-03   -0.26816E-03   865   0.203E-01    0.740E-02
RMM:  13    -0.839281817324E+02   -0.57565E-04   -0.58970E-04   949   0.803E-02    0.832E-02
RMM:  14    -0.839281940203E+02   -0.12288E-04   -0.53648E-05   604   0.280E-02    0.777E-02
RMM:  15    -0.839282260434E+02   -0.32023E-04   -0.16994E-04   732   0.327E-02    0.557E-02
RMM:  16    -0.839282343755E+02   -0.83321E-05   -0.12553E-04   728   0.303E-02    0.535E-02
RMM:  17    -0.839282141492E+02    0.20226E-04   -0.11010E-05   464   0.155E-02    0.461E-02
RMM:  18    -0.839281943273E+02    0.19822E-04   -0.15508E-05   465   0.105E-02    0.354E-02
RMM:  19    -0.839281949444E+02   -0.61712E-06   -0.43484E-06   464   0.664E-03
   1 F= -.83928195E+02 E0= -.83928195E+02  d E =-.839282E+02
       N       E                     dE             d eps       ncg     rms          rms(c)
DAV:   1    -0.838714713385E+02    0.56723E-01   -0.75300E+00   938   0.909E+00    0.251E+00
RMM:   2    -0.839228173163E+02   -0.51346E-01   -0.60650E-01   784   0.310E+00    0.858E-01
RMM:   3    -0.839274588238E+02   -0.46415E-02   -0.11055E-01   784   0.152E+00    0.631E-01
RMM:   4    -0.839293399331E+02   -0.18811E-02   -0.26366E-02   836   0.693E-01    0.954E-01
RMM:   5    -0.839296147832E+02   -0.27485E-03   -0.44365E-03   850   0.294E-01    0.136E+00
RMM:   6    -0.839291586690E+02    0.45611E-03   -0.58103E-03   785   0.254E-01    0.742E-01
RMM:   7    -0.839294268362E+02   -0.26817E-03   -0.14242E-03   808   0.139E-01    0.971E-01
RMM:   8    -0.839295319924E+02   -0.10516E-03   -0.45592E-04   964   0.708E-02    0.104E+00
RMM:   9    -0.839292190205E+02    0.31297E-03   -0.35033E-04   784   0.594E-02    0.457E-01
RMM:  10    -0.839290948113E+02    0.12421E-03   -0.45687E-04   784   0.585E-02    0.977E-02
RMM:  11    -0.839290952270E+02   -0.41572E-06   -0.54972E-05   737   0.330E-02
   2 F= -.83929095E+02 E0= -.83929095E+02  d E =-.900283E-03
       N       E                     dE             d eps       ncg     rms          rms(c)
DAV:   1    -0.839597159657E+02   -0.30621E-01   -0.18539E+00   860   0.444E+00    0.134E+00
RMM:   2    -0.839715898761E+02   -0.11874E-01   -0.14122E-01   784   0.153E+00    0.412E-01
RMM:   3    -0.839725233728E+02   -0.93350E-03   -0.25147E-02   784   0.735E-01    0.203E-01
RMM:   4    -0.839729564716E+02   -0.43310E-03   -0.59021E-03   823   0.335E-01    0.340E-01
RMM:   5    -0.839730437506E+02   -0.87279E-04   -0.94205E-04   856   0.139E-01    0.481E-01
RMM:   6    -0.839729844407E+02    0.59310E-04   -0.58846E-04   785   0.886E-02    0.154E-01
RMM:   7    -0.839729964759E+02   -0.12035E-04   -0.13689E-04   817   0.464E-02    0.260E-01
RMM:   8    -0.839730001822E+02   -0.37063E-05   -0.29602E-05   526   0.208E-02
   3 F= -.83973000E+02 E0= -.83973000E+02  d E =-.448052E-01
       N       E                     dE             d eps       ncg     rms          rms(c)
DAV:   1    -0.839729981166E+02   -0.16407E-05   -0.42297E-05   766   0.240E-02    0.178E-01
RMM:   2    -0.839729841506E+02    0.13966E-04   -0.64422E-05   735   0.219E-02    0.106E-01
RMM:   3    -0.839729898982E+02   -0.57476E-05   -0.72311E-05   730   0.232E-02
   4 F= -.83972990E+02 E0= -.83972990E+02  d E =-.447950E-01
       N       E                     dE             d eps       ncg     rms          rms(c)
DAV:   1    -0.839732548355E+02   -0.27068E-03   -0.17139E-02   924   0.465E-01    0.104E-01
RMM:   2    -0.839733405422E+02   -0.85707E-04   -0.12236E-03   784   0.141E-01    0.310E-02
RMM:   3    -0.839733760926E+02   -0.35550E-04   -0.40491E-04   919   0.721E-02    0.226E-02
RMM:   4    -0.839733738309E+02    0.22616E-05   -0.43783E-05   533   0.278E-02
   5 F= -.83973374E+02 E0= -.83973374E+02  d E =-.383933E-03
       N       E                     dE             d eps       ncg     rms          rms(c)
DAV:   1    -0.839733728096E+02    0.32830E-05   -0.82629E-06   607   0.121E-02    0.129E-02
RMM:   2    -0.839733723994E+02    0.41013E-06   -0.23960E-06   427   0.718E-03
   6 F= -.83973372E+02 E0= -.83973372E+02  d E =-.382501E-03
       N       E                     dE             d eps       ncg     rms          rms(c)
DAV:   1    -0.839735006624E+02   -0.12785E-03   -0.32011E-03   833   0.194E-01    0.349E-02
RMM:   2    -0.839735171041E+02   -0.16442E-04   -0.18145E-04   776   0.571E-02    0.825E-03
RMM:   3    -0.839735214249E+02   -0.43208E-05   -0.42507E-05   523   0.283E-02
   7 F= -.83973521E+02 E0= -.83973521E+02  d E =-.149025E-03
       N       E                     dE             d eps       ncg     rms          rms(c)
DAV:   1    -0.839737410190E+02   -0.22391E-03   -0.29282E-02   786   0.582E-01    0.968E-02
RMM:   2    -0.839738878532E+02   -0.14683E-03   -0.16104E-03   784   0.172E-01    0.229E-02
RMM:   3    -0.839739235580E+02   -0.35705E-04   -0.37129E-04   835   0.848E-02    0.274E-02
RMM:   4    -0.839739253844E+02   -0.18263E-05   -0.67233E-05   684   0.363E-02
   8 F= -.83973925E+02 E0= -.83973925E+02  d E =-.552985E-03
       N       E                     dE             d eps       ncg     rms          rms(c)
DAV:   1    -0.839738082317E+02    0.11533E-03   -0.11616E-01   786   0.116E+00    0.191E-01
RMM:   2    -0.839743842255E+02   -0.57599E-03   -0.63666E-03   784   0.341E-01    0.457E-02
RMM:   3    -0.839745245494E+02   -0.14032E-03   -0.14802E-03   843   0.167E-01    0.592E-02
RMM:   4    -0.839745312833E+02   -0.67339E-05   -0.24778E-04   855   0.690E-02    0.544E-02
RMM:   5    -0.839745323833E+02   -0.11000E-05   -0.38133E-05   578   0.262E-02
   9 F= -.83974532E+02 E0= -.83974532E+02  d E =-.115998E-02
       N       E                     dE             d eps       ncg     rms          rms(c)
DAV:   1    -0.839721890971E+02    0.23422E-02   -0.45106E-01   784   0.230E+00    0.440E-01
RMM:   2    -0.839743002793E+02   -0.21112E-02   -0.25227E-02   784   0.670E-01    0.116E-01
RMM:   3    -0.839749671293E+02   -0.66685E-03   -0.68481E-03   880   0.338E-01    0.103E-01
RMM:   4    -0.839749435187E+02    0.23611E-04   -0.90873E-04   834   0.132E-01    0.812E-02
RMM:   5    -0.839749538024E+02   -0.10284E-04   -0.17151E-04   866   0.537E-02    0.598E-02
RMM:   6    -0.839749597814E+02   -0.59790E-05   -0.21362E-04   773   0.363E-02    0.414E-02
RMM:   7    -0.839749567809E+02    0.30005E-05   -0.28074E-05   528   0.198E-02
  10 F= -.83974957E+02 E0= -.83974957E+02  d E =-.158438E-02
       N       E                     dE             d eps       ncg     rms          rms(c)
DAV:   1    -0.839749720609E+02   -0.12279E-04   -0.13879E-04   863   0.432E-02    0.182E-02
RMM:   2    -0.839749715344E+02    0.52646E-06   -0.27499E-05   482   0.178E-02
  11 F= -.83974972E+02 E0= -.83974972E+02  d E =-.147535E-04
       N       E                     dE             d eps       ncg     rms          rms(c)
DAV:   1    -0.839750512164E+02   -0.79156E-04   -0.11501E-03   857   0.114E-01    0.176E-02
RMM:   2    -0.839750564870E+02   -0.52706E-05   -0.59555E-05   732   0.335E-02
  12 F= -.83975056E+02 E0= -.83975056E+02  d E =-.997061E-04
       N       E                     dE             d eps       ncg     rms          rms(c)
DAV:   1    -0.839752128938E+02   -0.16168E-03   -0.41509E-03   788   0.219E-01    0.273E-02
RMM:   2    -0.839752326253E+02   -0.19731E-04   -0.21890E-04   784   0.636E-02    0.757E-03
RMM:   3    -0.839752368437E+02   -0.42184E-05   -0.45519E-05   587   0.305E-02
  13 F= -.83975237E+02 E0= -.83975237E+02  d E =-.280063E-03
       N       E                     dE             d eps       ncg     rms          rms(c)
DAV:   1    -0.839754669002E+02   -0.23427E-03   -0.16490E-02   786   0.438E-01    0.588E-02
RMM:   2    -0.839755466964E+02   -0.79796E-04   -0.89815E-04   784   0.128E-01    0.152E-02
RMM:   3    -0.839755675330E+02   -0.20837E-04   -0.21903E-04   851   0.635E-02    0.246E-02
RMM:   4    -0.839755683165E+02   -0.78352E-06   -0.34776E-05   514   0.263E-02
  14 F= -.83975568E+02 E0= -.83975568E+02  d E =-.611536E-03
       N       E                     dE             d eps       ncg     rms          rms(c)
DAV:   1    -0.839757794424E+02   -0.21191E-03   -0.64982E-02   784   0.872E-01    0.124E-01
RMM:   2    -0.839760865237E+02   -0.30708E-03   -0.34988E-03   784   0.251E-01    0.316E-02
RMM:   3    -0.839761681886E+02   -0.81665E-04   -0.85587E-04   856   0.124E-01    0.466E-02
RMM:   4    -0.839761708776E+02   -0.26890E-05   -0.13667E-04   781   0.504E-02    0.438E-02
RMM:   5    -0.839761689570E+02    0.19206E-05   -0.17688E-05   473   0.196E-02
  15 F= -.83976169E+02 E0= -.83976169E+02  d E =-.121218E-02
       N       E                     dE             d eps       ncg     rms          rms(c)
DAV:   1    -0.839754358573E+02    0.73502E-03   -0.25336E-01   784   0.173E+00    0.294E-01
RMM:   2    -0.839765739220E+02   -0.11381E-02   -0.14119E-02   784   0.496E-01    0.805E-02
RMM:   3    -0.839769837066E+02   -0.40978E-03   -0.41567E-03   910   0.252E-01    0.801E-02
RMM:   4    -0.839769412920E+02    0.42415E-04   -0.52567E-04   827   0.960E-02    0.597E-02
RMM:   5    -0.839769515855E+02   -0.10294E-04   -0.89314E-05   720   0.395E-02    0.474E-02
RMM:   6    -0.839769538844E+02   -0.22988E-05   -0.13470E-04   715   0.281E-02    0.367E-02
RMM:   7    -0.839769574044E+02   -0.35201E-05   -0.34317E-05   550   0.165E-02
  16 F= -.83976957E+02 E0= -.83976957E+02  d E =-.200062E-02
       N       E                     dE             d eps       ncg     rms          rms(c)
DAV:   1    -0.839714515989E+02    0.55023E-02   -0.10321E+00   784   0.348E+00    0.575E-01
RMM:   2    -0.839763054169E+02   -0.48538E-02   -0.58621E-02   784   0.101E+00    0.151E-01
RMM:   3    -0.839779088855E+02   -0.16035E-02   -0.16297E-02   893   0.510E-01    0.162E-01
RMM:   4    -0.839777705586E+02    0.13833E-03   -0.21952E-03   826   0.200E-01    0.128E-01
RMM:   5    -0.839778180976E+02   -0.47539E-04   -0.40645E-04   929   0.822E-02    0.105E-01
RMM:   6    -0.839778184353E+02   -0.33771E-06   -0.54625E-04   817   0.569E-02    0.725E-02
RMM:   7    -0.839778446473E+02   -0.26212E-04   -0.20822E-04   814   0.368E-02    0.702E-02
RMM:   8    -0.839779050623E+02   -0.60415E-04   -0.97369E-05   724   0.213E-02    0.105E-01
RMM:   9    -0.839777992158E+02    0.10585E-03   -0.25157E-04   882   0.314E-02    0.248E-02
RMM:  10    -0.839777976069E+02    0.16090E-05   -0.17462E-05   468   0.141E-02
  17 F= -.83977798E+02 E0= -.83977798E+02  d E =-.284083E-02
       N       E                     dE             d eps       ncg     rms          rms(c)
DAV:   1    -0.839779962099E+02   -0.19699E-03   -0.17647E-03   926   0.145E-01    0.292E-02
RMM:   2    -0.839780048409E+02   -0.86310E-05   -0.12661E-04   780   0.451E-02    0.826E-03
RMM:   3    -0.839780072174E+02   -0.23765E-05   -0.32928E-05   516   0.230E-02
  18 F= -.83978007E+02 E0= -.83978007E+02  d E =-.209611E-03
       N       E                     dE             d eps       ncg     rms          rms(c)
DAV:   1    -0.839781813644E+02   -0.17652E-03   -0.69522E-03   888   0.286E-01    0.586E-02
RMM:   2    -0.839782202156E+02   -0.38851E-04   -0.49839E-04   783   0.912E-02    0.175E-02
RMM:   3    -0.839782305472E+02   -0.10332E-04   -0.13171E-04   839   0.460E-02    0.157E-02
RMM:   4    -0.839782308603E+02   -0.31311E-06   -0.19159E-05   481   0.191E-02
  19 F= -.83978231E+02 E0= -.83978231E+02  d E =-.433253E-03
       N       E                     dE             d eps       ncg     rms          rms(c)
DAV:   1    -0.839782428164E+02   -0.12269E-04   -0.10490E-03   926   0.111E-01    0.247E-02
RMM:   2    -0.839782470799E+02   -0.42635E-05   -0.69302E-05   730   0.348E-02
  20 F= -.83978247E+02 E0= -.83978247E+02  d E =-.449473E-03
       N       E                     dE             d eps       ncg     rms          rms(c)
DAV:   1    -0.839782465883E+02   -0.37719E-05   -0.58562E-05   773   0.300E-02    0.111E-02
RMM:   2    -0.839782465129E+02    0.75370E-07   -0.38360E-06   408   0.822E-03
  21 F= -.83978247E+02 E0= -.83978247E+02  d E =-.448906E-03
       N       E                     dE             d eps       ncg     rms          rms(c)
DAV:   1    -0.839782470196E+02   -0.43130E-06   -0.80972E-06   549   0.111E-02    0.195E-03
RMM:   2    -0.839782469618E+02    0.57777E-07   -0.12950E-06   325   0.487E-03
  22 F= -.83978247E+02 E0= -.83978247E+02  d E =-.449355E-03
       N       E                     dE             d eps       ncg     rms          rms(c)
DAV:   1    -0.839782697702E+02   -0.22751E-04   -0.36475E-04   865   0.645E-02    0.135E-02
RMM:   2    -0.839782727163E+02   -0.29461E-05   -0.26351E-05   452   0.206E-02
  23 F= -.83978273E+02 E0= -.83978273E+02  d E =-.257544E-04
       N       E                     dE             d eps       ncg     rms          rms(c)
DAV:   1    -0.839782830600E+02   -0.13290E-04   -0.30945E-04   927   0.590E-02    0.155E-02
RMM:   2    -0.839782854782E+02   -0.24181E-05   -0.21273E-05   446   0.190E-02
  24 F= -.83978285E+02 E0= -.83978285E+02  d E =-.385163E-04
       N       E                     dE             d eps       ncg     rms          rms(c)
DAV:   1    -0.839782690788E+02    0.13981E-04   -0.11293E-03   864   0.114E-01    0.260E-02
RMM:   2    -0.839782771031E+02   -0.80244E-05   -0.80628E-05   734   0.368E-02
  25 F= -.83978277E+02 E0= -.83978277E+02  d E =-.301413E-04
       N       E                     dE             d eps       ncg     rms          rms(c)
DAV:   1    -0.839782857043E+02   -0.16625E-04   -0.74562E-04   829   0.945E-02    0.207E-02
RMM:   2    -0.839782879382E+02   -0.22340E-05   -0.48945E-05   640   0.276E-02
  26 F= -.83978288E+02 E0= -.83978288E+02  d E =-.409764E-04
       N       E                     dE             d eps       ncg     rms          rms(c)
DAV:   1    -0.839782859280E+02   -0.22376E-06   -0.16082E-04   822   0.450E-02    0.649E-03
RMM:   2    -0.839782869377E+02   -0.10097E-05   -0.10843E-05   399   0.126E-02
  27 F= -.83978287E+02 E0= -.83978287E+02  d E =-.399759E-04
       N       E                     dE             d eps       ncg     rms          rms(c)
DAV:   1    -0.839782889740E+02   -0.30459E-05   -0.43795E-05   712   0.234E-02    0.351E-03
RMM:   2    -0.839782889666E+02    0.73766E-08   -0.34161E-06   396   0.737E-03
  28 F= -.83978289E+02 E0= -.83978289E+02  d E =-.420047E-04
       N       E                     dE             d eps       ncg     rms          rms(c)
DAV:   1    -0.839782983033E+02   -0.93293E-05   -0.23505E-04   830   0.526E-02    0.990E-03
RMM:   2    -0.839782989719E+02   -0.66863E-06   -0.15180E-05   402   0.160E-02
  29 F= -.83978299E+02 E0= -.83978299E+02  d E =-.100053E-04
       N       E                     dE             d eps       ncg     rms          rms(c)
DAV:   1    -0.839782999701E+02   -0.16668E-05   -0.12379E-04   891   0.378E-02    0.775E-03
RMM:   2    -0.839783002035E+02   -0.23336E-06   -0.78420E-06   400   0.118E-02
  30 F= -.83978300E+02 E0= -.83978300E+02  d E =-.112369E-04
       N       E                     dE             d eps       ncg     rms          rms(c)
DAV:   1    -0.839783004176E+02   -0.44753E-06   -0.44237E-04   834   0.721E-02    0.139E-02
RMM:   2    -0.839783020541E+02   -0.16365E-05   -0.27794E-05   472   0.220E-02
  31 F= -.83978302E+02 E0= -.83978302E+02  d E =-.130876E-04
       N       E                     dE             d eps       ncg     rms          rms(c)
DAV:   1    -0.839783140027E+02   -0.13585E-04   -0.28899E-04   837   0.583E-02    0.970E-03
RMM:   2    -0.839783149908E+02   -0.98807E-06   -0.15566E-05   411   0.170E-02
  32 F= -.83978315E+02 E0= -.83978315E+02  d E =-.129366E-04
       N       E                     dE             d eps       ncg     rms          rms(c)
DAV:   1    -0.839783319481E+02   -0.17945E-04   -0.24799E-03   784   0.170E-01    0.269E-02
RMM:   2    -0.839783432274E+02   -0.11279E-04   -0.13355E-04   784   0.497E-02    0.778E-03
RMM:   3    -0.839783456265E+02   -0.23992E-05   -0.28914E-05   487   0.244E-02
  33 F= -.83978346E+02 E0= -.83978346E+02  d E =-.435724E-04
       N       E                     dE             d eps       ncg     rms          rms(c)
DAV:   1    -0.839783660571E+02   -0.22830E-04   -0.48316E-04   877   0.761E-02    0.139E-02
RMM:   2    -0.839783685718E+02   -0.25147E-05   -0.24708E-05   437   0.214E-02
  34 F= -.83978369E+02 E0= -.83978369E+02  d E =-.229452E-04
