PREC=Normal
ENCUT=450
NELM=500
IBRION=-1
ISPIN=1
NSW=0
ISIF=2
EDIFF=1E-5
EDIFFG=-5E-3
ISTART=0
ICHARG=0
ISMEAR=0
SIGMA=0.05
LWAVE=.T.
LCHARG=.T.
LREAL=Auto
LPLANE=.TRUE.
NPAR=1
KPAR=4
NCORE=1

ALGO=All
LHFCALC=.TRUE.
HSE06=.TRUE.
HFSCREEN=0.2
TIME=0.4
AEXX=0.32
LMAXFOCK=4
PRECFOCK=Fast