Ga48 O72                                
    1.000000000000000     
     0.0000000000000000   12.2804734172212839    0.0000000000000000
     9.1427020537309431    0.0000000000000000    0.0000000000000000
     0.0000000000000000   -2.7682617730220320  -11.3006977184464645
   Ga   O    P 
    48    71     1
Direct
  0.6608313872200782  0.0000000000000000  0.1552454749755867
  0.6582520424552527  0.0000000000000000  0.6577333269437418
  0.6601024498766463  0.3350453144759484  0.1548924719589309
  0.6597147878359877  0.3336956626502214  0.6568794722718252
  0.6601024498766463  0.6649546855240516  0.1548924719589309
  0.6597147878359877  0.6663043373497786  0.6568794722718252
  0.8347643273576466  0.1698927946209992  0.3434419128729971
  0.8395164005652589  0.1668984119688730  0.8444982804795984
  0.8407130755610694  0.5000000000000000  0.3437707801684127
  0.8394464538565174  0.5000000000000000  0.8421349813579795
  0.8347643273576466  0.8301072053790008  0.3434419128729971
  0.8395164005652589  0.8331015880311270  0.8444982804795984
  0.5936943417432659  0.1697077506134619  0.3990148925643311
  0.5911616373068895  0.1667727169195246  0.8978140901478895
  0.5947841964386313  0.5000000000000000  0.3977818084878066
  0.5918687735212487  0.5000000000000000  0.8969529238761567
  0.5936943417432659  0.8302922493865381  0.3990148925643311
  0.5911616373068895  0.8332272830804754  0.8978140901478895
  0.9098695262620851  0.0000000000000000  0.1034459075868028
  0.9064209656355757  0.0000000000000000  0.6052094759252213
  0.9065944011279328  0.3342941460958642  0.1012366774557805
  0.9072801338458660  0.3337423941880644  0.6009243578256402
  0.9065944011279328  0.6657058539041358  0.1012366774557805
  0.9072801338458660  0.6662576058119356  0.6009243578256402
  0.1615429326175644  0.1723132584244169  0.1455212113125128
  0.1588627512006653  0.1687862521680259  0.6611277308673351
  0.1579899470115507  0.5000000000000000  0.1580967389545336
  0.1590743125490519  0.5000000000000000  0.6536839188776327
  0.1615429326175644  0.8276867415755831  0.1455212113125128
  0.1588627512006653  0.8312137478319741  0.6611277308673351
  0.3546513476039053  0.0000000000000000  0.3485298434231581
  0.3411987735505235  0.0000000000000000  0.8449910104078100
  0.3431327044945505  0.3344823417960683  0.3414379087019199
  0.3420371797773782  0.3340361980476416  0.8430328103401905
  0.3431327044945505  0.6655176582039317  0.3414379087019199
  0.3420371797773782  0.6659638019523584  0.8430328103401905
  0.0638919901248087  0.0000000000000000  0.4212238193500610
  0.0879960970077605  0.0000000000000000  0.8943676301075669
  0.0914128472336699  0.3332859193694659  0.3966056222044472
  0.0886330864843288  0.3341973634924500  0.8943852664684968
  0.0914128472336699  0.6667140806305341  0.3966056222044472
  0.0886330864843288  0.6658026365075500  0.8943852664684968
  0.4134828000290369  0.1679875800398491  0.1009291887711754
  0.4106320619087001  0.1682882757318183  0.6054837333396677
  0.4096015811654752  0.5000000000000000  0.1014192250296091
  0.4099457527952239  0.5000000000000000  0.6014681267276316
  0.4134828000290369  0.8320124199601509  0.1009291887711754
  0.4106320619087001  0.8317117242681817  0.6054837333396677
  0.9946874169724893  0.1691986660648368  0.1217071647164758
  0.9948127858100762  0.1667626870758028  0.6285859997011300
  0.9951472718351013  0.5000000000000000  0.1260380158939967
  0.9959488552689848  0.5000000000000000  0.6255976305531092
  0.9946874169724893  0.8308013339351632  0.1217071647164758
  0.9948127858100762  0.8332373129241972  0.6285859997011300
  0.5103248803080973  0.0000000000000000  0.3720089225847900
  0.5039079748165207  0.0000000000000000  0.8728285035393384
  0.5063340843196755  0.3349017262033556  0.3721535230054513
  0.5043310813183979  0.3336981647387347  0.8727535111684972
  0.5063340843196755  0.6650982737966444  0.3721535230054513
  0.5043310813183979  0.6663018352612653  0.8727535111684972
  0.6715173627046056  0.1666686872456253  0.2790951313039827
  0.6719567653925438  0.1665981352884742  0.7804842651935999
  0.6727877282748054  0.5000000000000000  0.2782549438509534
  0.6725513566866255  0.5000000000000000  0.7798138245001596
  0.6715173627046056  0.8333313127543747  0.2790951313039827
  0.6719567653925438  0.8334018647115258  0.7804842651935999
  0.8281494589207767  0.0000000000000000  0.2207015217898842
  0.8262282361902393  0.0000000000000000  0.7214845333977848
  0.8268480137017846  0.3343959340332745  0.2195347668566114
  0.8273077954330077  0.3330974863019236  0.7195513519866594
  0.8268480137017846  0.6656040659667255  0.2195347668566114
  0.8273077954330077  0.6669025136980764  0.7195513519866594
  0.8330198104309900  0.0000000000000000  0.4469999612779461
  0.8316270797168954  0.0000000000000000  0.9465224819852551
  0.8242466391307701  0.3362642691712310  0.4465612072387444
  0.8300233023651913  0.3343047659306819  0.9447075000320453
  0.8242466391307701  0.6637357308287690  0.4465612072387444
  0.8300233023651913  0.6656952340693181  0.9447075000320453
  0.6693626237446324  0.1670823470672218  0.0538188041366041
  0.6687948273383952  0.1661166119021615  0.5554162283028816
  0.6711903494030622  0.5000000000000000  0.0523498187828082
  0.6681596878785854  0.5000000000000000  0.5550385151109012
  0.6693626237446324  0.8329176529327782  0.0538188041366041
  0.6687948273383952  0.8338833880978385  0.5554162283028816
  0.4989432786557657  0.0000000000000000  0.1258262790456399
  0.4963433363137852  0.0000000000000000  0.6278416744150945
  0.4992089332434304  0.3355851947045920  0.1246556455501278
  0.4980449997928247  0.3343962954646216  0.6296674888736362
  0.4992089332434304  0.6644148052954080  0.1246556455501278
  0.4980449997928247  0.6656037045353784  0.6296674888736362
  0.9936094498928796  0.1769526223388880  0.3813579328230503
  0.0020382928694858  0.1673633823209215  0.8719148225357358
  0.0030507376170306  0.5000000000000000  0.3737147024260210
  0.0015899001388959  0.5000000000000000  0.8707330109416702
  0.9936094498928796  0.8230473776611120  0.3813579328230503
  0.0020382928694858  0.8326366176790785  0.8719148225357358
  0.1736558024200860  0.0000000000000000  0.7833057521359663
  0.1732318563561179  0.3380527097250408  0.2804026550760099
  0.1723716914282178  0.3342806712158577  0.7799502318419158
  0.1732318563561179  0.6619472902749592  0.2804026550760099
  0.1723716914282178  0.6657193287841423  0.7799502318419158
  0.3327683927141294  0.1744801453875482  0.2166697793473062
  0.3277814989960248  0.1670634148917856  0.7206320599706899
  0.3281015270444314  0.5000000000000000  0.2177284317117412
  0.3272416791472139  0.5000000000000000  0.7181961647808208
  0.3327683927141294  0.8255198546124518  0.2166697793473062
  0.3277814989960248  0.8329365851082144  0.7206320599706899
  0.3411909075388806  0.1709817508516949  0.4475686606164757
  0.3341330460004173  0.1681367740788033  0.9455731196931723
  0.3345174769982293  0.5000000000000000  0.4449751530981914
  0.3325503281978825  0.5000000000000000  0.9448150939291580
  0.3411909075388806  0.8290182491483051  0.4475686606164757
  0.3341330460004173  0.8318632259211967  0.9455731196931723
  0.1731036024937680  0.0000000000000000  0.0462500596309070
  0.1643782697968348  0.0000000000000000  0.5639121018423978
  0.1674763073425964  0.3379237339033168  0.0503641616067725
  0.1681218321370039  0.3316969232660654  0.5537646472683804
  0.1674763073425964  0.6620762660966832  0.0503641616067725
  0.1681218321370039  0.6683030767339346  0.5537646472683804
  0.1654156487886027  0.0000000000000000  0.2907753377184221
 
  0.00000000E+00  0.00000000E+00  0.00000000E+00
  0.00000000E+00  0.00000000E+00  0.00000000E+00
  0.00000000E+00  0.00000000E+00  0.00000000E+00
  0.00000000E+00  0.00000000E+00  0.00000000E+00
  0.00000000E+00  0.00000000E+00  0.00000000E+00
  0.00000000E+00  0.00000000E+00  0.00000000E+00
  0.00000000E+00  0.00000000E+00  0.00000000E+00
  0.00000000E+00  0.00000000E+00  0.00000000E+00
  0.00000000E+00  0.00000000E+00  0.00000000E+00
  0.00000000E+00  0.00000000E+00  0.00000000E+00
  0.00000000E+00  0.00000000E+00  0.00000000E+00
  0.00000000E+00  0.00000000E+00  0.00000000E+00
  0.00000000E+00  0.00000000E+00  0.00000000E+00
  0.00000000E+00  0.00000000E+00  0.00000000E+00
  0.00000000E+00  0.00000000E+00  0.00000000E+00
  0.00000000E+00  0.00000000E+00  0.00000000E+00
  0.00000000E+00  0.00000000E+00  0.00000000E+00
  0.00000000E+00  0.00000000E+00  0.00000000E+00
  0.00000000E+00  0.00000000E+00  0.00000000E+00
  0.00000000E+00  0.00000000E+00  0.00000000E+00
  0.00000000E+00  0.00000000E+00  0.00000000E+00
  0.00000000E+00  0.00000000E+00  0.00000000E+00
  0.00000000E+00  0.00000000E+00  0.00000000E+00
  0.00000000E+00  0.00000000E+00  0.00000000E+00
  0.00000000E+00  0.00000000E+00  0.00000000E+00
  0.00000000E+00  0.00000000E+00  0.00000000E+00
  0.00000000E+00  0.00000000E+00  0.00000000E+00
  0.00000000E+00  0.00000000E+00  0.00000000E+00
  0.00000000E+00  0.00000000E+00  0.00000000E+00
  0.00000000E+00  0.00000000E+00  0.00000000E+00
  0.00000000E+00  0.00000000E+00  0.00000000E+00
  0.00000000E+00  0.00000000E+00  0.00000000E+00
  0.00000000E+00  0.00000000E+00  0.00000000E+00
  0.00000000E+00  0.00000000E+00  0.00000000E+00
  0.00000000E+00  0.00000000E+00  0.00000000E+00
  0.00000000E+00  0.00000000E+00  0.00000000E+00
  0.00000000E+00  0.00000000E+00  0.00000000E+00
  0.00000000E+00  0.00000000E+00  0.00000000E+00
  0.00000000E+00  0.00000000E+00  0.00000000E+00
  0.00000000E+00  0.00000000E+00  0.00000000E+00
  0.00000000E+00  0.00000000E+00  0.00000000E+00
  0.00000000E+00  0.00000000E+00  0.00000000E+00
  0.00000000E+00  0.00000000E+00  0.00000000E+00
  0.00000000E+00  0.00000000E+00  0.00000000E+00
  0.00000000E+00  0.00000000E+00  0.00000000E+00
  0.00000000E+00  0.00000000E+00  0.00000000E+00
  0.00000000E+00  0.00000000E+00  0.00000000E+00
  0.00000000E+00  0.00000000E+00  0.00000000E+00
  0.00000000E+00  0.00000000E+00  0.00000000E+00
  0.00000000E+00  0.00000000E+00  0.00000000E+00
  0.00000000E+00  0.00000000E+00  0.00000000E+00
  0.00000000E+00  0.00000000E+00  0.00000000E+00
  0.00000000E+00  0.00000000E+00  0.00000000E+00
  0.00000000E+00  0.00000000E+00  0.00000000E+00
  0.00000000E+00  0.00000000E+00  0.00000000E+00
  0.00000000E+00  0.00000000E+00  0.00000000E+00
  0.00000000E+00  0.00000000E+00  0.00000000E+00
  0.00000000E+00  0.00000000E+00  0.00000000E+00
  0.00000000E+00  0.00000000E+00  0.00000000E+00
  0.00000000E+00  0.00000000E+00  0.00000000E+00
  0.00000000E+00  0.00000000E+00  0.00000000E+00
  0.00000000E+00  0.00000000E+00  0.00000000E+00
  0.00000000E+00  0.00000000E+00  0.00000000E+00
  0.00000000E+00  0.00000000E+00  0.00000000E+00
  0.00000000E+00  0.00000000E+00  0.00000000E+00
  0.00000000E+00  0.00000000E+00  0.00000000E+00
  0.00000000E+00  0.00000000E+00  0.00000000E+00
  0.00000000E+00  0.00000000E+00  0.00000000E+00
  0.00000000E+00  0.00000000E+00  0.00000000E+00
  0.00000000E+00  0.00000000E+00  0.00000000E+00
  0.00000000E+00  0.00000000E+00  0.00000000E+00
  0.00000000E+00  0.00000000E+00  0.00000000E+00
  0.00000000E+00  0.00000000E+00  0.00000000E+00
  0.00000000E+00  0.00000000E+00  0.00000000E+00
  0.00000000E+00  0.00000000E+00  0.00000000E+00
  0.00000000E+00  0.00000000E+00  0.00000000E+00
  0.00000000E+00  0.00000000E+00  0.00000000E+00
  0.00000000E+00  0.00000000E+00  0.00000000E+00
  0.00000000E+00  0.00000000E+00  0.00000000E+00
  0.00000000E+00  0.00000000E+00  0.00000000E+00
  0.00000000E+00  0.00000000E+00  0.00000000E+00
  0.00000000E+00  0.00000000E+00  0.00000000E+00
  0.00000000E+00  0.00000000E+00  0.00000000E+00
  0.00000000E+00  0.00000000E+00  0.00000000E+00
  0.00000000E+00  0.00000000E+00  0.00000000E+00
  0.00000000E+00  0.00000000E+00  0.00000000E+00
  0.00000000E+00  0.00000000E+00  0.00000000E+00
  0.00000000E+00  0.00000000E+00  0.00000000E+00
  0.00000000E+00  0.00000000E+00  0.00000000E+00
  0.00000000E+00  0.00000000E+00  0.00000000E+00
  0.00000000E+00  0.00000000E+00  0.00000000E+00
  0.00000000E+00  0.00000000E+00  0.00000000E+00
  0.00000000E+00  0.00000000E+00  0.00000000E+00
  0.00000000E+00  0.00000000E+00  0.00000000E+00
  0.00000000E+00  0.00000000E+00  0.00000000E+00
  0.00000000E+00  0.00000000E+00  0.00000000E+00
  0.00000000E+00  0.00000000E+00  0.00000000E+00
  0.00000000E+00  0.00000000E+00  0.00000000E+00
  0.00000000E+00  0.00000000E+00  0.00000000E+00
  0.00000000E+00  0.00000000E+00  0.00000000E+00
  0.00000000E+00  0.00000000E+00  0.00000000E+00
  0.00000000E+00  0.00000000E+00  0.00000000E+00
  0.00000000E+00  0.00000000E+00  0.00000000E+00
  0.00000000E+00  0.00000000E+00  0.00000000E+00
  0.00000000E+00  0.00000000E+00  0.00000000E+00
  0.00000000E+00  0.00000000E+00  0.00000000E+00
  0.00000000E+00  0.00000000E+00  0.00000000E+00
  0.00000000E+00  0.00000000E+00  0.00000000E+00
  0.00000000E+00  0.00000000E+00  0.00000000E+00
  0.00000000E+00  0.00000000E+00  0.00000000E+00
  0.00000000E+00  0.00000000E+00  0.00000000E+00
  0.00000000E+00  0.00000000E+00  0.00000000E+00
  0.00000000E+00  0.00000000E+00  0.00000000E+00
  0.00000000E+00  0.00000000E+00  0.00000000E+00
  0.00000000E+00  0.00000000E+00  0.00000000E+00
  0.00000000E+00  0.00000000E+00  0.00000000E+00
  0.00000000E+00  0.00000000E+00  0.00000000E+00
  0.00000000E+00  0.00000000E+00  0.00000000E+00
  0.00000000E+00  0.00000000E+00  0.00000000E+00
  0.00000000E+00  0.00000000E+00  0.00000000E+00
