Ga48 O72                                
    1.000000000000000     
     0.0000000000000000   12.2804734172212839    0.0000000000000000
     9.1427020537309431    0.0000000000000000    0.0000000000000000
     0.0000000000000000   -2.7682617730220320  -11.3006977184464645
   Ga   O    P 
    47    71     1
Direct
  0.6579566511361961  0.9981487643797351  0.1554078825036100
  0.6618815006551131  0.9985323321882902  0.6563055361272063
  0.6583907945566949  0.3303919026187359  0.1557782791120204
  0.6598624974687510  0.3316951578278378  0.6575624949476548
  0.6579487941070994  0.6648659606573020  0.1557468516198881
  0.6619388321940249  0.6648218824266365  0.6564537566433017
  0.8437836816887199  0.1637599139016714  0.3414461746295672
  0.8420491953910556  0.1623489513746534  0.8453248144451067
  0.8395318978051165  0.5007416681945713  0.3410632653709627
  0.8424432030843434  0.4974577313436015  0.8438929312453354
  0.8419279953558672  0.8338514090232110  0.3425865709788809
  0.8415678143701015  0.8300583152584124  0.8456222149060935
  0.5927157172234416  0.1640731620001432  0.3973282947428487
  0.5911688411349942  0.1639308053458137  0.8967474613450221
  0.5919960363983279  0.4969551364316303  0.3980679558887275
  0.5929216158958397  0.5015648632663527  0.8975328821718236
  0.5910126004989280  0.8312111143417766  0.3971071304329001
  0.5889655979324644  0.8322957819378942  0.8960571870255265
  0.9109978791740048  0.9963154572140311  0.1044476985885865
  0.9091267250371686  0.0086294777517608  0.6021276210005055
  0.9093310730413080  0.3305996829517639  0.1018365630793525
  0.8997763179388798  0.3508201546437633  0.5990982157879756
  0.9092664206155945  0.6631801783578624  0.1025265938946802
  0.9092696938616598  0.6798590373835509  0.6015338928208820
  0.1592999098877144  0.1599476844080385  0.1591076585546674
  0.1602907317147100  0.4965192951118951  0.1552163821284154
  0.1556310531313727  0.5200964458947936  0.6566061741231763
  0.1596931853247057  0.8302938923223877  0.1589784728838524
  0.1608979983629055  0.8669249091431226  0.6278463778140448
  0.3403150826006538  0.9969975528803943  0.3428481258338323
  0.3366045034139589  0.0012866256854096  0.8373745813455216
  0.3416260946081238  0.3292768967498390  0.3438629616448026
  0.3466963182433247  0.3294612390199845  0.8391824628398155
  0.3412764859866826  0.6628643609203166  0.3422513616066496
  0.3372932572203098  0.6665761351020763  0.8407231852091286
  0.1075250549557794  0.9860140020910535  0.4236859365395489
  0.0943660695517536  0.9887473493314047  0.8963272354762779
  0.0853486980952169  0.3258080667120709  0.3900835560830558
  0.0904965882114936  0.3230663100239326  0.8981521902236977
  0.0874420096251782  0.6649586039027042  0.3930272667007344
  0.0920866574469130  0.6601666305673106  0.8979595166324970
  0.4063771870689408  0.1642416109622857  0.0997436833639540
  0.4130076080957892  0.1649212716167341  0.6039278545084059
  0.4071492896699027  0.4960596331165732  0.0987745860550575
  0.4095328258733986  0.4985126690880435  0.6015526409601577
  0.4081020896039931  0.8307927344392994  0.1000552567140289
  0.4139404582246371  0.8308093792628242  0.6012670766732029
  0.9970274987430372  0.1642431228249137  0.1290343987473150
  0.9965985075386996  0.1857451572093538  0.6274818728817877
  0.9975245894769245  0.4967710041521514  0.1269402057125930
  0.9935527940310109  0.5105242176370055  0.6268371975389044
  0.9970034106603691  0.8290308917436633  0.1246140162240224
  0.9985196438286721  0.8447670321895018  0.6258768744500216
  0.5036987062850287  0.9984852544616274  0.3734436154667122
  0.5020302431662031  0.9988077964587276  0.8720687157514888
  0.5040665690372279  0.3303129540221263  0.3741874956348212
  0.5076734143496040  0.3338500403644602  0.8736273828011250
  0.5042763603491736  0.6633364155657020  0.3733343817105137
  0.5011221855571151  0.6649980349018705  0.8687789570334843
  0.6731751433884057  0.1650234348469226  0.2796254645350302
  0.6737162140170696  0.1647396727048189  0.7803074938733161
  0.6719537275465512  0.4976663409918274  0.2794990881329369
  0.6741679211478271  0.4995551333344181  0.7801108301096136
  0.6724012857665969  0.8319313575628016  0.2797410986854771
  0.6736554925655796  0.8324873136101019  0.7805701134284035
  0.8266552050911713  0.9981879567615763  0.2188825272503649
  0.8298034714710667  0.0015727184200713  0.7197447889974526
  0.8287984650518467  0.3298318606802724  0.2195253170107705
  0.8277916425623317  0.3328536055077151  0.7208622516207654
  0.8265173312777279  0.6637093216140002  0.2183260812584749
  0.8291275445471911  0.6677549084545689  0.7198566553568853
  0.8319247988234650  0.0023412671933301  0.4465444452073299
  0.8327811360583226  0.9966246731561910  0.9473437081659597
  0.8320585279676465  0.3331118188510445  0.4426516564113854
  0.8332864580483346  0.3298589239628456  0.9454588013996101
  0.8319818598351034  0.6679563565553721  0.4450526257876462
  0.8318176388000182  0.6619629858276070  0.9460903311161104
  0.6682312116557370  0.1644109139575463  0.0534084522513893
  0.6705067606515271  0.1660240916617823  0.5541245265071240
  0.6687110197812842  0.4981447439741018  0.0542882267718596
  0.6726109886934353  0.4973515804559909  0.5540235899589092
  0.6663513316546954  0.8309063680172102  0.0529107374926383
  0.6698799336759365  0.8314971418917594  0.5536519269871008
  0.4951935437452235  0.9984012071824750  0.1263616200077564
  0.5002363765236382  0.9980037891052760  0.6256948319554425
  0.4956467153134909  0.3300041899540673  0.1260422888737907
  0.4986778414630777  0.3335531075694078  0.6255684480976811
  0.4950990225494891  0.6628699846792543  0.1249174354784941
  0.4992248772337717  0.6629448860559890  0.6266981831104559
  0.0086660523704865  0.1533636982945552  0.3806782594482883
  0.0047072602042419  0.1565228347880137  0.8711130529515145
  0.0024521734309317  0.4954298738127960  0.3715078107542098
  0.0053490668604539  0.4917058317970628  0.8719039898015097
  0.0012062193974316  0.8313564601624748  0.3649893780002174
  0.0027876491613412  0.8254355414056107  0.8731880025773933
  0.1729932757671762  0.9954339507150252  0.2842213887402920
  0.1736389206953248  0.9849900282154138  0.7803069514320029
  0.1728908416392585  0.3299386390343599  0.2806072528132120
  0.1619299545876771  0.3183763754136990  0.7647466672044487
  0.1731263095009794  0.6621555885446213  0.2797702823612056
  0.1738408934637121  0.6587027566377728  0.7834853386619045
  0.3279987609021617  0.1638136039022413  0.2206666681932887
  0.3385657833529052  0.1699234226292745  0.7238225752004581
  0.3281326532450137  0.4952740310305401  0.2189167571922752
  0.3237835078875548  0.4958730747619811  0.7150701132753028
  0.3286370413620077  0.8292839565634509  0.2192400978026612
  0.3247823693508352  0.8359439048082820  0.7105162450618323
  0.3293912326992725  0.1635046226166921  0.4489272736171515
  0.3278239318560736  0.1675752022181314  0.9432465649161443
  0.3306832257820744  0.4960810882512519  0.4456942291775690
  0.3301784860356705  0.4930773087831142  0.9410616452884000
  0.3351429328752715  0.8298166939528429  0.4455996346329414
  0.3339794057609424  0.8322308830551322  0.9429166698737745
  0.1683872714545842  0.9954840492065244  0.0549035352016745
  0.1685841202196841  0.3274083038631019  0.0539128171110477
  0.1505099342802154  0.3392839276599418  0.5570112259105002
  0.1698273900954064  0.6633025143221190  0.0543747748380596
  0.1655069635952700  0.6710401153887062  0.5494279088733620
  0.1397501287521976  0.1983993362536438  0.6465422460714265
 
  0.00000000E+00  0.00000000E+00  0.00000000E+00
  0.00000000E+00  0.00000000E+00  0.00000000E+00
  0.00000000E+00  0.00000000E+00  0.00000000E+00
  0.00000000E+00  0.00000000E+00  0.00000000E+00
  0.00000000E+00  0.00000000E+00  0.00000000E+00
  0.00000000E+00  0.00000000E+00  0.00000000E+00
  0.00000000E+00  0.00000000E+00  0.00000000E+00
  0.00000000E+00  0.00000000E+00  0.00000000E+00
  0.00000000E+00  0.00000000E+00  0.00000000E+00
  0.00000000E+00  0.00000000E+00  0.00000000E+00
  0.00000000E+00  0.00000000E+00  0.00000000E+00
  0.00000000E+00  0.00000000E+00  0.00000000E+00
  0.00000000E+00  0.00000000E+00  0.00000000E+00
  0.00000000E+00  0.00000000E+00  0.00000000E+00
  0.00000000E+00  0.00000000E+00  0.00000000E+00
  0.00000000E+00  0.00000000E+00  0.00000000E+00
  0.00000000E+00  0.00000000E+00  0.00000000E+00
  0.00000000E+00  0.00000000E+00  0.00000000E+00
  0.00000000E+00  0.00000000E+00  0.00000000E+00
  0.00000000E+00  0.00000000E+00  0.00000000E+00
  0.00000000E+00  0.00000000E+00  0.00000000E+00
  0.00000000E+00  0.00000000E+00  0.00000000E+00
  0.00000000E+00  0.00000000E+00  0.00000000E+00
  0.00000000E+00  0.00000000E+00  0.00000000E+00
  0.00000000E+00  0.00000000E+00  0.00000000E+00
  0.00000000E+00  0.00000000E+00  0.00000000E+00
  0.00000000E+00  0.00000000E+00  0.00000000E+00
  0.00000000E+00  0.00000000E+00  0.00000000E+00
  0.00000000E+00  0.00000000E+00  0.00000000E+00
  0.00000000E+00  0.00000000E+00  0.00000000E+00
  0.00000000E+00  0.00000000E+00  0.00000000E+00
  0.00000000E+00  0.00000000E+00  0.00000000E+00
  0.00000000E+00  0.00000000E+00  0.00000000E+00
  0.00000000E+00  0.00000000E+00  0.00000000E+00
  0.00000000E+00  0.00000000E+00  0.00000000E+00
  0.00000000E+00  0.00000000E+00  0.00000000E+00
  0.00000000E+00  0.00000000E+00  0.00000000E+00
  0.00000000E+00  0.00000000E+00  0.00000000E+00
  0.00000000E+00  0.00000000E+00  0.00000000E+00
  0.00000000E+00  0.00000000E+00  0.00000000E+00
  0.00000000E+00  0.00000000E+00  0.00000000E+00
  0.00000000E+00  0.00000000E+00  0.00000000E+00
  0.00000000E+00  0.00000000E+00  0.00000000E+00
  0.00000000E+00  0.00000000E+00  0.00000000E+00
  0.00000000E+00  0.00000000E+00  0.00000000E+00
  0.00000000E+00  0.00000000E+00  0.00000000E+00
  0.00000000E+00  0.00000000E+00  0.00000000E+00
  0.00000000E+00  0.00000000E+00  0.00000000E+00
  0.00000000E+00  0.00000000E+00  0.00000000E+00
  0.00000000E+00  0.00000000E+00  0.00000000E+00
  0.00000000E+00  0.00000000E+00  0.00000000E+00
  0.00000000E+00  0.00000000E+00  0.00000000E+00
  0.00000000E+00  0.00000000E+00  0.00000000E+00
  0.00000000E+00  0.00000000E+00  0.00000000E+00
  0.00000000E+00  0.00000000E+00  0.00000000E+00
  0.00000000E+00  0.00000000E+00  0.00000000E+00
  0.00000000E+00  0.00000000E+00  0.00000000E+00
  0.00000000E+00  0.00000000E+00  0.00000000E+00
  0.00000000E+00  0.00000000E+00  0.00000000E+00
  0.00000000E+00  0.00000000E+00  0.00000000E+00
  0.00000000E+00  0.00000000E+00  0.00000000E+00
  0.00000000E+00  0.00000000E+00  0.00000000E+00
  0.00000000E+00  0.00000000E+00  0.00000000E+00
  0.00000000E+00  0.00000000E+00  0.00000000E+00
  0.00000000E+00  0.00000000E+00  0.00000000E+00
  0.00000000E+00  0.00000000E+00  0.00000000E+00
  0.00000000E+00  0.00000000E+00  0.00000000E+00
  0.00000000E+00  0.00000000E+00  0.00000000E+00
  0.00000000E+00  0.00000000E+00  0.00000000E+00
  0.00000000E+00  0.00000000E+00  0.00000000E+00
  0.00000000E+00  0.00000000E+00  0.00000000E+00
  0.00000000E+00  0.00000000E+00  0.00000000E+00
  0.00000000E+00  0.00000000E+00  0.00000000E+00
  0.00000000E+00  0.00000000E+00  0.00000000E+00
  0.00000000E+00  0.00000000E+00  0.00000000E+00
  0.00000000E+00  0.00000000E+00  0.00000000E+00
  0.00000000E+00  0.00000000E+00  0.00000000E+00
  0.00000000E+00  0.00000000E+00  0.00000000E+00
  0.00000000E+00  0.00000000E+00  0.00000000E+00
  0.00000000E+00  0.00000000E+00  0.00000000E+00
  0.00000000E+00  0.00000000E+00  0.00000000E+00
  0.00000000E+00  0.00000000E+00  0.00000000E+00
  0.00000000E+00  0.00000000E+00  0.00000000E+00
  0.00000000E+00  0.00000000E+00  0.00000000E+00
  0.00000000E+00  0.00000000E+00  0.00000000E+00
  0.00000000E+00  0.00000000E+00  0.00000000E+00
  0.00000000E+00  0.00000000E+00  0.00000000E+00
  0.00000000E+00  0.00000000E+00  0.00000000E+00
  0.00000000E+00  0.00000000E+00  0.00000000E+00
  0.00000000E+00  0.00000000E+00  0.00000000E+00
  0.00000000E+00  0.00000000E+00  0.00000000E+00
  0.00000000E+00  0.00000000E+00  0.00000000E+00
  0.00000000E+00  0.00000000E+00  0.00000000E+00
  0.00000000E+00  0.00000000E+00  0.00000000E+00
  0.00000000E+00  0.00000000E+00  0.00000000E+00
  0.00000000E+00  0.00000000E+00  0.00000000E+00
  0.00000000E+00  0.00000000E+00  0.00000000E+00
  0.00000000E+00  0.00000000E+00  0.00000000E+00
  0.00000000E+00  0.00000000E+00  0.00000000E+00
  0.00000000E+00  0.00000000E+00  0.00000000E+00
  0.00000000E+00  0.00000000E+00  0.00000000E+00
  0.00000000E+00  0.00000000E+00  0.00000000E+00
  0.00000000E+00  0.00000000E+00  0.00000000E+00
  0.00000000E+00  0.00000000E+00  0.00000000E+00
  0.00000000E+00  0.00000000E+00  0.00000000E+00
  0.00000000E+00  0.00000000E+00  0.00000000E+00
  0.00000000E+00  0.00000000E+00  0.00000000E+00
  0.00000000E+00  0.00000000E+00  0.00000000E+00
  0.00000000E+00  0.00000000E+00  0.00000000E+00
  0.00000000E+00  0.00000000E+00  0.00000000E+00
  0.00000000E+00  0.00000000E+00  0.00000000E+00
  0.00000000E+00  0.00000000E+00  0.00000000E+00
  0.00000000E+00  0.00000000E+00  0.00000000E+00
  0.00000000E+00  0.00000000E+00  0.00000000E+00
  0.00000000E+00  0.00000000E+00  0.00000000E+00
  0.00000000E+00  0.00000000E+00  0.00000000E+00
  0.00000000E+00  0.00000000E+00  0.00000000E+00
  0.00000000E+00  0.00000000E+00  0.00000000E+00
  0.00000000E+00  0.00000000E+00  0.00000000E+00
