       N       E                     dE             d eps       ncg     rms          ort
DAV:   1    -0.183869270455E+05   -0.18387E+05   -0.55150E+05   625   0.748E+03
DAV:   2    -0.626292429962E+05   -0.44242E+05   -0.42736E+05   625   0.122E+03
DAV:   3    -0.675928146584E+05   -0.49636E+04   -0.45137E+04   625   0.375E+02
DAV:   4    -0.683337644520E+05   -0.74095E+03   -0.66014E+03   625   0.120E+02
DAV:   5    -0.387427215169E+05    0.29591E+05   -0.67058E+02   625   0.566E+01
SDA:   6     0.284179282259E+05    0.67161E+05   -0.67058E+02   625   0.921E+05 0.000E+00
CGA:   7     0.998568252103E+04   -0.18432E+05   -0.18452E+05   625   0.557E+05-0.233E+05
CGA:   8     0.438582969054E+04   -0.55999E+04   -0.54485E+04   625   0.180E+05 0.258E+04
CGA:   9     0.282802548185E+04   -0.15578E+04   -0.21651E+04   625   0.132E+05 0.103E+04
CGA:  10     0.133689556763E+04   -0.14911E+04   -0.18000E+04   625   0.582E+04 0.949E+03
CGA:  11     0.318475846563E+03   -0.10184E+04   -0.10477E+04   625   0.276E+04 0.725E+03
CGA:  12    -0.307314255255E+03   -0.62579E+03   -0.61970E+03   625   0.105E+04 0.268E+03
CGA:  13    -0.651910028757E+03   -0.34460E+03   -0.33801E+03   625   0.555E+03 0.407E+02
CGA:  14    -0.808343355341E+03   -0.15643E+03   -0.16158E+03   625   0.300E+03-0.364E+02
CGA:  15    -0.878872171269E+03   -0.70529E+02   -0.70948E+02   625   0.136E+03-0.660E+01
CGA:  16    -0.911779044420E+03   -0.32907E+02   -0.32890E+02   625   0.635E+02-0.303E+00
CGA:  17    -0.928820954061E+03   -0.17042E+02   -0.17030E+02   625   0.313E+02-0.197E-02
CGA:  18    -0.937195740719E+03   -0.83748E+01   -0.83751E+01   625   0.162E+02-0.302E-01
CGA:  19    -0.941858293085E+03   -0.46626E+01   -0.46653E+01   625   0.858E+01-0.309E-01
CGA:  20    -0.944229671987E+03   -0.23714E+01   -0.23721E+01   625   0.407E+01-0.472E-02
CGA:  21    -0.945455808782E+03   -0.12261E+01   -0.12252E+01   625   0.205E+01 0.128E-01
CGA:  22    -0.946029613936E+03   -0.57381E+00   -0.57314E+00   625   0.106E+01 0.105E-01
CGA:  23    -0.946321684007E+03   -0.29207E+00   -0.29190E+00   625   0.545E+00 0.283E-02
CGA:  24    -0.946457685274E+03   -0.13600E+00   -0.13600E+00   625   0.247E+00-0.164E-03
CGA:  25    -0.946530008836E+03   -0.72324E-01   -0.72356E-01   625   0.133E+00-0.431E-03
CGA:  26    -0.946570575180E+03   -0.40566E-01   -0.40575E-01   625   0.665E-01-0.819E-04
CGA:  27    -0.946590739637E+03   -0.20164E-01   -0.20167E-01   625   0.376E-01-0.325E-04
CGA:  28    -0.946601601142E+03   -0.10862E-01   -0.10865E-01   625   0.189E-01-0.615E-04
CGA:  29    -0.946606542190E+03   -0.49410E-02   -0.49415E-02   625   0.854E-02-0.216E-04
CGA:  30    -0.946609078679E+03   -0.25365E-02   -0.25348E-02   625   0.449E-02 0.309E-04
CGA:  31    -0.946610453544E+03   -0.13749E-02   -0.13724E-02   625   0.225E-02 0.408E-04
CGA:  32    -0.946611177656E+03   -0.72411E-03   -0.72264E-03   625   0.132E-02 0.208E-04
CGA:  33    -0.946611582112E+03   -0.40446E-03   -0.40441E-03   625   0.686E-03 0.839E-06
CGA:  34    -0.946611775426E+03   -0.19331E-03   -0.19343E-03   625   0.338E-03-0.428E-05
CGA:  35    -0.946611874198E+03   -0.98772E-04   -0.98803E-04   625   0.174E-03-0.764E-06
CGA:  36    -0.946611925942E+03   -0.51744E-04   -0.51724E-04   625   0.894E-04 0.493E-06
SDA:  37    -0.946611954043E+03   -0.28101E-04   -0.28151E-04   625   0.534E-04-0.916E-06
CGA:  38    -0.946611975490E+03   -0.21446E-04   -0.21714E-04   625   0.250E-04-0.185E-05
CGA:  39    -0.946611982948E+03   -0.74583E-05   -0.74700E-05   625   0.977E-05-0.293E-06
   1 F= -.94661198E+03 E0= -.94661198E+03  d E =-.310393E-21
