       N       E                     dE             d eps       ncg     rms          ort
DAV:   1    -0.184138540509E+05   -0.18414E+05   -0.54171E+05  5040   0.743E+03
DAV:   2    -0.620904427654E+05   -0.43677E+05   -0.42334E+05  5040   0.120E+03
DAV:   3    -0.666908629199E+05   -0.46004E+04   -0.41463E+04  5040   0.356E+02
DAV:   4    -0.672398199605E+05   -0.54896E+03   -0.46441E+03  5040   0.105E+02
DAV:   5    -0.373082190991E+05    0.29932E+05   -0.73603E+02  5040   0.546E+01
SDA:   6     0.196864402409E+05    0.56995E+05   -0.73603E+02  5040   0.957E+05 0.000E+00
CGA:   7     0.509880239241E+04   -0.14588E+05   -0.13666E+05  5040   0.560E+05-0.273E+05
CGA:   8     0.210624747681E+04   -0.29926E+04   -0.38896E+04  5040   0.105E+05 0.386E+04
CGA:   9     0.961829554793E+03   -0.11444E+04   -0.90272E+03  5040   0.638E+04-0.784E+02
CGA:  10     0.522034018549E+03   -0.43980E+03   -0.49659E+03  5040   0.886E+04-0.122E+04
CGA:  11     0.240528253470E+03   -0.28151E+03   -0.46636E+03  5040   0.641E+04-0.887E+03
CGA:  12    -0.881645167946E+02   -0.32869E+03   -0.49680E+03  5040   0.317E+04-0.113E+03
CGA:  13    -0.435559060304E+03   -0.34739E+03   -0.38370E+03  5040   0.123E+04 0.186E+03
CGA:  14    -0.651006655193E+03   -0.21545E+03   -0.21581E+03  5040   0.540E+03 0.577E+02
CGA:  15    -0.767886773233E+03   -0.11688E+03   -0.11708E+03  5040   0.363E+03 0.140E+01
CGA:  16    -0.840929852169E+03   -0.73043E+02   -0.72607E+02  5040   0.190E+03 0.623E+01
CGA:  17    -0.881146233580E+03   -0.40216E+02   -0.40095E+02  5040   0.156E+03 0.164E+01
CGA:  18    -0.909665846809E+03   -0.28520E+02   -0.28586E+02  5040   0.997E+02-0.605E+01
CGA:  19    -0.931160482880E+03   -0.21495E+02   -0.24522E+02  5040   0.633E+02-0.242E+02
CGA:  20    -0.939107812525E+03   -0.79473E+01   -0.77074E+01  5040   0.552E+02-0.379E+01
CGA:  21    -0.946001173957E+03   -0.68934E+01   -0.71112E+01  5040   0.348E+02 0.258E+01
CGA:  22    -0.951663310479E+03   -0.56621E+01   -0.57033E+01  5040   0.195E+02 0.126E+01
CGA:  23    -0.955623858405E+03   -0.39605E+01   -0.39446E+01  5040   0.140E+02 0.515E+00
CGA:  24    -0.958251734457E+03   -0.26279E+01   -0.26283E+01  5040   0.881E+01 0.120E+00
CGA:  25    -0.960017528535E+03   -0.17658E+01   -0.17619E+01  5040   0.718E+01 0.246E+00
CGA:  26    -0.961336724376E+03   -0.13192E+01   -0.13188E+01  5040   0.418E+01 0.170E+00
CGA:  27    -0.962087216999E+03   -0.75049E+00   -0.75056E+00  5040   0.289E+01 0.293E-01
CGA:  28    -0.962644407570E+03   -0.55719E+00   -0.55710E+00  5040   0.192E+01 0.704E-02
CGA:  29    -0.962968273918E+03   -0.32387E+00   -0.32398E+00  5040   0.120E+01 0.167E-01
CGA:  30    -0.963204759965E+03   -0.23649E+00   -0.23619E+00  5040   0.875E+00 0.173E-01
CGA:  31    -0.963360014181E+03   -0.15525E+00   -0.15528E+00  5040   0.531E+00 0.710E-02
CGA:  32    -0.963468013711E+03   -0.10800E+00   -0.10794E+00  5040   0.423E+00 0.530E-03
CGA:  33    -0.963549545280E+03   -0.81532E-01   -0.81562E-01  5040   0.245E+00-0.162E-02
CGA:  34    -0.963597089774E+03   -0.47544E-01   -0.47564E-01  5040   0.179E+00-0.363E-03
CGA:  35    -0.963634334165E+03   -0.37244E-01   -0.37225E-01  5040   0.117E+00 0.622E-03
CGA:  36    -0.963656116490E+03   -0.21782E-01   -0.21781E-01  5040   0.762E-01 0.154E-03
SDA:  37    -0.963672761686E+03   -0.16645E-01   -0.16641E-01  5040   0.566E-01 0.654E-04
CGA:  38    -0.963691905353E+03   -0.19144E-01   -0.19101E-01  5040   0.374E-01 0.251E-03
CGA:  39    -0.963703081205E+03   -0.11176E-01   -0.11171E-01  5040   0.112E-01 0.588E-04
CGA:  40    -0.963708089265E+03   -0.50081E-02   -0.49820E-02  5040   0.332E-02 0.105E-03
CGA:  41    -0.963709389416E+03   -0.13002E-02   -0.12926E-02  5040   0.131E-02 0.432E-04
CGA:  42    -0.963709924356E+03   -0.53494E-03   -0.53244E-03  5040   0.775E-03 0.136E-04
CGA:  43    -0.963710180250E+03   -0.25589E-03   -0.25502E-03  5040   0.439E-03 0.893E-05
CGA:  44    -0.963710407135E+03   -0.22689E-03   -0.22466E-03  5040   0.349E-03 0.822E-05
CGA:  45    -0.963710569948E+03   -0.16281E-03   -0.16271E-03  5040   0.225E-03 0.524E-06
CGA:  46    -0.963710684145E+03   -0.11420E-03   -0.11434E-03  5040   0.167E-03-0.560E-06
CGA:  47    -0.963710749348E+03   -0.65203E-04   -0.65244E-04  5040   0.110E-03-0.403E-06
CGA:  48    -0.963710801998E+03   -0.52650E-04   -0.53220E-04  5040   0.944E-04-0.267E-05
CGA:  49    -0.963710839154E+03   -0.37156E-04   -0.37497E-04  5040   0.723E-04-0.286E-05
CGA:  50    -0.963710866480E+03   -0.27325E-04   -0.27473E-04  5040   0.484E-04-0.143E-05
CGA:  51    -0.963710884607E+03   -0.18127E-04   -0.18165E-04  5040   0.292E-04-0.442E-06
CGA:  52    -0.963710896130E+03   -0.11523E-04   -0.11569E-04  5040   0.187E-04-0.469E-06
CGA:  53    -0.963710903434E+03   -0.73045E-05   -0.73066E-05  5040   0.142E-04-0.207E-07
   1 F= -.96371090E+03 E0= -.96371090E+03  d E =-.154613E-16
