Ga8 O12                                 
    1.000000000000000     
     0.0000000000000000   12.2804737091000007    0.0000000000000000
     9.1427011490000005    0.0000000000000000    0.0000000000000000
     0.0000000000000000   -2.7682616411000001  -11.3006974810000003
   Ga   O    N    Fe
    47    71     1     1
Direct
  0.6591460888433769  0.0009856477515133  0.1581211538186286
  0.6596673248577977  0.0000649216044751  0.6572192894923614
  0.6591460888433769  0.3323473522484900  0.1581211538186286
  0.6596673248577977  0.3332680783955280  0.6572192894923614
  0.6587907069550050  0.6666669999999968  0.1567217640516673
  0.6599324465456323  0.6666669999999968  0.6571189916791983
  0.8416440535894123  0.1666669999999968  0.8431084238728515
  0.8400276964430187  0.4996402787352709  0.3434989515741599
  0.8418389469868380  0.4999358625720601  0.8437523728446469
  0.8400276964430187  0.8336927212647322  0.3434989515741599
  0.8418389469868380  0.8333971374279431  0.8437523728446469
  0.5944532427578314  0.1666669999999968  0.3974860485136553
  0.5913875880118125  0.1666669999999968  0.8981418025111279
  0.5909678109979616  0.4996613864221959  0.3979817453632202
  0.5915851973328198  0.4997918127394528  0.8982729750009523
  0.5909678109979616  0.8336716135778076  0.3979817453632202
  0.5915851973328198  0.8335411872605503  0.8982729750009523
  0.9087042697933936  0.0002174236909484  0.1037215831779144
  0.9074470781271250  0.0013088130758522  0.5994899154463561
  0.9087042697933936  0.3331155763090548  0.1037215831779144
  0.9074470781271250  0.3320241869241509  0.5994899154463561
  0.9088119425443619  0.6666669999999968  0.1030265370214984
  0.9085227247859056  0.6666669999999968  0.6020546672328169
  0.1599616683992592  0.1666669999999968  0.1576654820090480
  0.1596724090019484  0.1666669999999968  0.6553236374584477
  0.1590571707957747  0.4997124039874449  0.1572937143136504
  0.1582837657905583  0.4995107722071465  0.6557391861061210
  0.1590571707957747  0.8336205960125581  0.1572937143136504
  0.1582837657905583  0.8338222277928569  0.6557391861061210
  0.3414345571955198  0.0002171534511742  0.3442404386395372
  0.3410003527982820 -0.0000795286507788  0.8430437799429081
  0.3414345571955198  0.3331158465488290  0.3442404386395372
  0.3410003527982820  0.3334125286507819  0.8430437799429081
  0.3414832875115046  0.6666669999999968  0.3434266533385568
  0.3407712755032064  0.6666669999999968  0.8429648334029010
  0.0860284488516870 -0.0000599425823565  0.3954671926474445
  0.0914807983729825 -0.0000810774903060  0.8973429975512104
  0.0860284488516870  0.3333929425823598  0.3954671926474445
  0.0914807983729825  0.3334140774903093  0.8973429975512104
  0.0916462716986036  0.6666669999999968  0.3978504237159493
  0.0916575150888795  0.6666669999999968  0.8979028342971576
  0.4086254901272774  0.1666669999999968  0.1022129352973016
  0.4100971003105331  0.1666669999999968  0.6025268174074295
  0.4088704281447492  0.4998037660486589  0.1022829715902189
  0.4096182201784083  0.5001400392230448  0.6028498464650400
  0.4088704281447492  0.8335292339513437  0.1022829715902189
  0.4096182201784083  0.8331929607769584  0.6028498464650400
  0.9969925369382026  0.1666669999999968  0.1332778100322795
  0.9966225426303305  0.1666669999999968  0.6245654160305162
  0.9961456157803158  0.4997932925827404  0.1280833563780613
  0.9950981721379423  0.4990859048375537  0.6256638285849883
  0.9961456157803158  0.8335397074172627  0.1280833563780613
  0.9950981721379423  0.8342470951624501  0.6256638285849883
  0.5046357100168294  0.0011513308650270  0.3728400727422459
  0.5037360236926710  0.0000123373507702  0.8728533071318569
  0.5046357100168294  0.3321816691349762  0.3728400727422459
  0.5037360236926710  0.3333206626492330  0.8728533071318569
  0.5039706881140633  0.6666669999999968  0.3730779062368552
  0.5040143754325048  0.6666669999999968  0.8733301532273623
  0.6756016411662180  0.1666669999999968  0.2801888354162282
  0.6733140938461856  0.1666669999999968  0.7812340137274812
  0.6717341325672032  0.5001536642993919  0.2802348803224918
  0.6734191427094685  0.4996519709838559  0.7812040101257780
  0.6717341325672032  0.8331793357006113  0.2802348803224918
  0.6734191427094685  0.8336810290161469  0.7812040101257780
  0.8279253287802054  0.0018589196429419  0.2223182597913602
  0.8282651030954582  0.0002838477056106  0.7192201230003407
  0.8279253287802054  0.3314740803570615  0.2223182597913602
  0.8282651030954582  0.3330491522943925  0.7192201230003407
  0.8266151615808383  0.6666669999999968  0.2194418646257992
  0.8279696874312936  0.6666669999999968  0.7200664314369248
  0.8302189155119186  0.0052702882432255  0.4420683305073191
  0.8338957893031061  0.0004636945686235  0.9464780587098518
  0.8302189155119186  0.3280627117567776  0.4420683305073191
  0.8338957893031061  0.3328693054313797  0.9464780587098518
  0.8299535407283972  0.6666669999999968  0.4459320257910420
  0.8328251795407964  0.6666669999999968  0.9461463069165977
  0.6687671720746829  0.1666669999999968  0.0544028279694412
  0.6684416347619850  0.1666669999999968  0.5550323297633916
  0.6687780982393454  0.4990616444802408  0.0549376119428016
  0.6688151991273948  0.4996830076691701  0.5544865127303383
  0.6687780982393454  0.8342713555197623  0.0549376119428016
  0.6688151991273948  0.8336499923308334  0.5544865127303383
  0.4962743883654041  0.0002792041775247  0.1269340398155945
  0.4971409672519963 -0.0002350501313106  0.6280402632037212
  0.4962743883654041  0.3330537958224786  0.1269340398155945
  0.4971409672519963  0.3335680501313141  0.6280402632037212
  0.4961413332582433  0.6666669999999968  0.1267390054350356
  0.4973614358823565  0.6666669999999968  0.6282278201204452
  0.0041806542492838  0.1666669999999968  0.8728347017671109
  0.0022202526932554  0.5028943976961187  0.3727158645085055
  0.0042089558728613  0.5000932997209792  0.8725368016081636
  0.0022202526932554  0.8304386023038846  0.3727158645085055
  0.0042089558728613  0.8332397002790239  0.8725368016081636
  0.1724359734841882 -0.0004033196028178  0.2813981917590180
  0.1724439355270890  0.0001493726767735  0.7796263982399163
  0.1724359734841882  0.3337363196028209  0.2813981917590180
  0.1724439355270890  0.3331836273232298  0.7796263982399163
  0.1731388748121719  0.6666669999999968  0.2808446927225010
  0.1720670241644433  0.6666669999999968  0.7797964839398157
  0.3274797489818237  0.1666669999999968  0.2197669207781628
  0.3275769108773310  0.1666669999999968  0.7189778732442439
  0.3276274959700236  0.4995192280967528  0.2196740683707584
  0.3272654418144345  0.4997861527773255  0.7192425960394453
  0.3276274959700236  0.8338137719032498  0.2196740683707584
  0.3272654418144345  0.8335468472226782  0.7192425960394453
  0.3329569679922740  0.1666669999999968  0.4463108310679980
  0.3317148445571617  0.1666669999999968  0.9454551317589789
  0.3335829630320506  0.5001643797999606  0.4461649481859296
  0.3317692154454245  0.4999933969303419  0.9455970081418472
  0.3335829630320506  0.8331686202000426  0.4461649481859296
  0.3317692154454245  0.8333396030696614  0.9455970081418472
  0.1670708777471123  0.0003311699819069  0.0544451661987762
  0.1664236583519552  0.0000255658565850  0.5521931516621988
  0.1670708777471123  0.3330018300180962  0.0544451661987762
  0.1664236583519552  0.3333074341434185  0.5521931516621988
  0.1676134768499081  0.6666669999999968  0.0547788225344006
  0.1681931000781201  0.6666669999999968  0.5544166613354976
 -0.0095420873006544  0.1666669999999968  0.3695160590122162
  0.8459927144649698  0.1666669999999968  0.3395572959487154
 
  0.00000000E+00  0.00000000E+00  0.00000000E+00
  0.00000000E+00  0.00000000E+00  0.00000000E+00
  0.00000000E+00  0.00000000E+00  0.00000000E+00
  0.00000000E+00  0.00000000E+00  0.00000000E+00
  0.00000000E+00  0.00000000E+00  0.00000000E+00
  0.00000000E+00  0.00000000E+00  0.00000000E+00
  0.00000000E+00  0.00000000E+00  0.00000000E+00
  0.00000000E+00  0.00000000E+00  0.00000000E+00
  0.00000000E+00  0.00000000E+00  0.00000000E+00
  0.00000000E+00  0.00000000E+00  0.00000000E+00
  0.00000000E+00  0.00000000E+00  0.00000000E+00
  0.00000000E+00  0.00000000E+00  0.00000000E+00
  0.00000000E+00  0.00000000E+00  0.00000000E+00
  0.00000000E+00  0.00000000E+00  0.00000000E+00
  0.00000000E+00  0.00000000E+00  0.00000000E+00
  0.00000000E+00  0.00000000E+00  0.00000000E+00
  0.00000000E+00  0.00000000E+00  0.00000000E+00
  0.00000000E+00  0.00000000E+00  0.00000000E+00
  0.00000000E+00  0.00000000E+00  0.00000000E+00
  0.00000000E+00  0.00000000E+00  0.00000000E+00
  0.00000000E+00  0.00000000E+00  0.00000000E+00
  0.00000000E+00  0.00000000E+00  0.00000000E+00
  0.00000000E+00  0.00000000E+00  0.00000000E+00
  0.00000000E+00  0.00000000E+00  0.00000000E+00
  0.00000000E+00  0.00000000E+00  0.00000000E+00
  0.00000000E+00  0.00000000E+00  0.00000000E+00
  0.00000000E+00  0.00000000E+00  0.00000000E+00
  0.00000000E+00  0.00000000E+00  0.00000000E+00
  0.00000000E+00  0.00000000E+00  0.00000000E+00
  0.00000000E+00  0.00000000E+00  0.00000000E+00
  0.00000000E+00  0.00000000E+00  0.00000000E+00
  0.00000000E+00  0.00000000E+00  0.00000000E+00
  0.00000000E+00  0.00000000E+00  0.00000000E+00
  0.00000000E+00  0.00000000E+00  0.00000000E+00
  0.00000000E+00  0.00000000E+00  0.00000000E+00
  0.00000000E+00  0.00000000E+00  0.00000000E+00
  0.00000000E+00  0.00000000E+00  0.00000000E+00
  0.00000000E+00  0.00000000E+00  0.00000000E+00
  0.00000000E+00  0.00000000E+00  0.00000000E+00
  0.00000000E+00  0.00000000E+00  0.00000000E+00
  0.00000000E+00  0.00000000E+00  0.00000000E+00
  0.00000000E+00  0.00000000E+00  0.00000000E+00
  0.00000000E+00  0.00000000E+00  0.00000000E+00
  0.00000000E+00  0.00000000E+00  0.00000000E+00
  0.00000000E+00  0.00000000E+00  0.00000000E+00
  0.00000000E+00  0.00000000E+00  0.00000000E+00
  0.00000000E+00  0.00000000E+00  0.00000000E+00
  0.00000000E+00  0.00000000E+00  0.00000000E+00
  0.00000000E+00  0.00000000E+00  0.00000000E+00
  0.00000000E+00  0.00000000E+00  0.00000000E+00
  0.00000000E+00  0.00000000E+00  0.00000000E+00
  0.00000000E+00  0.00000000E+00  0.00000000E+00
  0.00000000E+00  0.00000000E+00  0.00000000E+00
  0.00000000E+00  0.00000000E+00  0.00000000E+00
  0.00000000E+00  0.00000000E+00  0.00000000E+00
  0.00000000E+00  0.00000000E+00  0.00000000E+00
  0.00000000E+00  0.00000000E+00  0.00000000E+00
  0.00000000E+00  0.00000000E+00  0.00000000E+00
  0.00000000E+00  0.00000000E+00  0.00000000E+00
  0.00000000E+00  0.00000000E+00  0.00000000E+00
  0.00000000E+00  0.00000000E+00  0.00000000E+00
  0.00000000E+00  0.00000000E+00  0.00000000E+00
  0.00000000E+00  0.00000000E+00  0.00000000E+00
  0.00000000E+00  0.00000000E+00  0.00000000E+00
  0.00000000E+00  0.00000000E+00  0.00000000E+00
  0.00000000E+00  0.00000000E+00  0.00000000E+00
  0.00000000E+00  0.00000000E+00  0.00000000E+00
  0.00000000E+00  0.00000000E+00  0.00000000E+00
  0.00000000E+00  0.00000000E+00  0.00000000E+00
  0.00000000E+00  0.00000000E+00  0.00000000E+00
  0.00000000E+00  0.00000000E+00  0.00000000E+00
  0.00000000E+00  0.00000000E+00  0.00000000E+00
  0.00000000E+00  0.00000000E+00  0.00000000E+00
  0.00000000E+00  0.00000000E+00  0.00000000E+00
  0.00000000E+00  0.00000000E+00  0.00000000E+00
  0.00000000E+00  0.00000000E+00  0.00000000E+00
  0.00000000E+00  0.00000000E+00  0.00000000E+00
  0.00000000E+00  0.00000000E+00  0.00000000E+00
  0.00000000E+00  0.00000000E+00  0.00000000E+00
  0.00000000E+00  0.00000000E+00  0.00000000E+00
  0.00000000E+00  0.00000000E+00  0.00000000E+00
  0.00000000E+00  0.00000000E+00  0.00000000E+00
  0.00000000E+00  0.00000000E+00  0.00000000E+00
  0.00000000E+00  0.00000000E+00  0.00000000E+00
  0.00000000E+00  0.00000000E+00  0.00000000E+00
  0.00000000E+00  0.00000000E+00  0.00000000E+00
  0.00000000E+00  0.00000000E+00  0.00000000E+00
  0.00000000E+00  0.00000000E+00  0.00000000E+00
  0.00000000E+00  0.00000000E+00  0.00000000E+00
  0.00000000E+00  0.00000000E+00  0.00000000E+00
  0.00000000E+00  0.00000000E+00  0.00000000E+00
  0.00000000E+00  0.00000000E+00  0.00000000E+00
  0.00000000E+00  0.00000000E+00  0.00000000E+00
  0.00000000E+00  0.00000000E+00  0.00000000E+00
  0.00000000E+00  0.00000000E+00  0.00000000E+00
  0.00000000E+00  0.00000000E+00  0.00000000E+00
  0.00000000E+00  0.00000000E+00  0.00000000E+00
  0.00000000E+00  0.00000000E+00  0.00000000E+00
  0.00000000E+00  0.00000000E+00  0.00000000E+00
  0.00000000E+00  0.00000000E+00  0.00000000E+00
  0.00000000E+00  0.00000000E+00  0.00000000E+00
  0.00000000E+00  0.00000000E+00  0.00000000E+00
  0.00000000E+00  0.00000000E+00  0.00000000E+00
  0.00000000E+00  0.00000000E+00  0.00000000E+00
  0.00000000E+00  0.00000000E+00  0.00000000E+00
  0.00000000E+00  0.00000000E+00  0.00000000E+00
  0.00000000E+00  0.00000000E+00  0.00000000E+00
  0.00000000E+00  0.00000000E+00  0.00000000E+00
  0.00000000E+00  0.00000000E+00  0.00000000E+00
  0.00000000E+00  0.00000000E+00  0.00000000E+00
  0.00000000E+00  0.00000000E+00  0.00000000E+00
  0.00000000E+00  0.00000000E+00  0.00000000E+00
  0.00000000E+00  0.00000000E+00  0.00000000E+00
  0.00000000E+00  0.00000000E+00  0.00000000E+00
  0.00000000E+00  0.00000000E+00  0.00000000E+00
  0.00000000E+00  0.00000000E+00  0.00000000E+00
  0.00000000E+00  0.00000000E+00  0.00000000E+00
  0.00000000E+00  0.00000000E+00  0.00000000E+00
  0.00000000E+00  0.00000000E+00  0.00000000E+00
  0.00000000E+00  0.00000000E+00  0.00000000E+00
