Ga8 O12                                 
    1.000000000000000     
     0.0000000000000000   12.2804737091000007    0.0000000000000000
     9.1427011490000005    0.0000000000000000    0.0000000000000000
     0.0000000000000000   -2.7682616411000001  -11.3006974810000003
   Ga   O    Cu
    47    72     1
Direct
  0.6593321384862563  0.9999993349492158  0.1574170796721006
  0.6585238637297905  0.9999983216117627  0.6561864512517275
  0.6578147935105321  0.3327011253842684  0.1543319914874246
  0.6559492282619246  0.3298192991551048  0.6598769226810290
  0.6578112994785386  0.6672924511150740  0.1543296829652263
  0.6559475929820451  0.6701819565676033  0.6598806753890045
  0.8404746666295040  0.1668210680563149  0.3428674754650842
  0.8411368146636917  0.1663187443157881  0.8437954672566619
  0.8427533589929439  0.4999981755482779  0.3402282011716267
  0.8402646842835679  0.5000012483613219  0.8430241040044493
  0.8404773184877996  0.8331836852385663  0.3428619613779347
  0.8411410873282108  0.8336843827750755  0.8437954125652070
  0.5923756590765237  0.1679511866864445  0.3981667346179307
  0.5897382898794419  0.1662461155101624  0.8980886943541861
  0.5888931620195592  0.5000017320361678  0.8973057027991871
  0.5923638969529748  0.8320344025314910  0.3981620758192079
  0.5897421256103357  0.8337602082249944  0.8980952117826746
  0.9099692324659472  0.9999962106244666  0.1028157073284390
  0.9077647586498401  0.0000044962756292  0.6024259395512743
  0.9099655649790961  0.3334958323719590  0.1021223439969390
  0.9074311830343618  0.3337925518442546  0.6012738003964486
  0.9099672361744382  0.6665048965821541  0.1021220501440396
  0.9074357608766945  0.6662143717472304  0.6012752538956505
  0.1602860736534311  0.1671875679473658  0.1579160151147221
  0.1575543565682267  0.1667166933660980  0.6564267861633297
  0.1606617807053539  0.5000038903638568  0.1576518037539927
  0.1585365298636319  0.5000032456825991  0.6562068663930773
  0.1602877040748609  0.8328041540797457  0.1579195426995099
  0.1575535923456926  0.8332791983569194  0.6564292674385683
  0.3432558928516656  0.9999922331672977  0.3433024150605135
  0.3391970489069962  0.9999971520601321  0.8426547132972289
  0.3465714617336815  0.3352319633942429  0.3442855297461946
  0.3396719759657714  0.3335818818396632  0.8432525206703687
  0.3465913418747988  0.6647757634576834  0.3442832461454373
  0.3396732783241916  0.6664241441100884  0.8432548275796705
  0.0900908060337144  0.0000045710739087  0.3969001177697606
  0.0909242753265218  0.0000023460650311  0.8984397723939921
  0.0928410633915036  0.3331818951421468  0.3970546717099666
  0.0908533387135790  0.3336066038223677  0.8979916169510034
  0.0928431193085757  0.6668153167926434  0.3970492737931650
  0.0908503745884133  0.6663919577118307  0.8979903715104882
  0.4084176870967440  0.1660040946642027  0.1013454909570655
  0.4072818951884543  0.1657407769746087  0.6025482841219372
  0.4104012240007151  0.4999985600917896  0.1031069148782038
  0.4092560884801841  0.5000010522771632  0.6020904119388604
  0.4084180117611140  0.8339965531606524  0.1013473996937080
  0.4072864033963128  0.8342612936561906  0.6025512036517071
  0.9972170146162256  0.1668523561183761  0.1281348616751359
  0.9946643854645316  0.1672420621986177  0.6261594762849612
  0.9973813147111841  0.5000009760444541  0.1279755879347775
  0.9953801702278540  0.5000024133355367  0.6260367798155784
  0.9972208201855182  0.8331438010962273  0.1281364081430425
  0.9946675523630404  0.8327661073425148  0.6261655577618157
  0.5056007650437238  0.0000021386346702  0.3732051951726092
  0.5021852301910741  0.0000006358440459  0.8726741285124007
  0.5083905441079324  0.3340279310956547  0.3740399325254273
  0.5023028893105206  0.3326720067409497  0.8730323355062453
  0.5083432513217758  0.6660208076187217  0.3740136038377528
  0.5023054597732326  0.6673356035022735  0.8730308527094692
  0.6734618477611249  0.1661734196972233  0.2798181059829545
  0.6723782844265713  0.1658405655106421  0.7818782507279565
  0.6672012543284325  0.4999761041906652  0.2695452737763304
  0.6722561306551853  0.5000051750025420  0.7827289199614000
  0.6734629862717227  0.8338281611808327  0.2798185974105181
  0.6723838108401026  0.8341618002258926  0.7818860127650495
  0.8284396650507517  0.0000037482536399  0.2196544004960970
  0.8273128356100656  0.0000016876796707  0.7204020231769093
  0.8276686077626962  0.3344826834066481  0.2190932997310355
  0.8254411150219170  0.3348220775216504  0.7181225575670496
  0.8276638127929417  0.6655092598471697  0.2190909985738330
  0.8254394921681225  0.6651803087067947  0.7181199762223045
  0.8319322563767173  0.0000006591814667  0.4455803916295622
  0.8330412306385853  0.9999995676381843  0.9464069378158513
  0.8287761012121067  0.3361157389006237  0.4443237708556396
  0.8333790546886490  0.3329882875617542  0.9456035772474252
  0.8287755753922497  0.6638889597787951  0.4443226093810679
  0.8333808390634942  0.6670154644449084  0.9456073423374605
  0.6685955361905727  0.1659889686366682  0.0538088849864451
  0.6687809243243308  0.1664528911898557  0.5556466364544477
  0.6690828058214677  0.4999967513573864  0.0517429076907945
  0.6555090455664256  0.4999878642538889  0.5604368660612948
  0.6686052953161123  0.8340113579315585  0.0538087685570261
  0.6687824296860754  0.8335446422059647  0.5556450387394705
  0.4964932634318160  0.0000000976429035  0.1259193845183830
  0.4958722075868494  0.0000023542309577  0.6280938211979219
  0.4957856258477804  0.3320000606248925  0.1245504574592928
  0.4943581412671278  0.3317170353265695  0.6303045779291878
  0.4957860136001031  0.6679983953804154  0.1245462534068480
  0.4943615735823528  0.6682837734874667  0.6302962008493367
  0.0032414702230383  0.1677245965851881  0.3729244445058768
  0.0035016407337167  0.1668047920012015  0.8724484755075537
  0.0048581073761582  0.4999985712407238  0.3730387424228283
  0.0031092040324125  0.4999982855187000  0.8721035857893469
  0.0032440927687460  0.8322769379165749  0.3729248913469831
  0.0035020544570372  0.8331978357272831  0.8724450907626604
  0.1734830429448664  0.9999949952681177  0.2813314687634119
  0.1704179832038548  0.0000012917810324  0.7796268865103784
  0.1748244359248119  0.3333153225708330  0.2808991418777609
  0.1714058079709417  0.3335590933639878  0.7799939372786255
  0.1748180737295897  0.6666851850947566  0.2808893539887549
  0.1714046808204301  0.6664412141893976  0.7799950034521501
  0.3288348657687195  0.1666404095382532  0.2198704927730049
  0.3256997771227788  0.1658857459190841  0.7193846636161254
  0.3288648391916951  0.4999952713887694  0.2197727675857237
  0.3268175569346141  0.5000046898122434  0.7193812513914466
  0.3288137808519735  0.8333621590737081  0.2198487610243589
  0.3256955241508592  0.8341059414953094  0.7193812555904628
  0.3335554731672090  0.1672056280263376  0.4452105079913338
  0.3302243622266872  0.1662744363875248  0.9451573989398554
  0.3318856161260655  0.5000022998937368  0.4460981653739466
  0.3318570172790487  0.5000030002262150  0.9462446171259202
  0.3335621995033264  0.8327941095949782  0.4452134153683076
  0.3302248206761575  0.8337260739250993  0.9451587527075063
  0.1679196071737650  0.9999954873710806  0.0550114136736184
  0.1667141972166277  0.9999994548233104  0.5536586812591295
  0.1679727739558672  0.3333852351203674  0.0544201176972336
  0.1675923727140898  0.3330021812136295  0.5542096263213168
  0.1679766085421832  0.6666138898217611  0.0544119413381807
  0.1675912200333016  0.6669976341521249  0.5542048846634771
  0.6137405928722117  0.4999588236174333  0.4028846965587149
 
  0.00000000E+00  0.00000000E+00  0.00000000E+00
  0.00000000E+00  0.00000000E+00  0.00000000E+00
  0.00000000E+00  0.00000000E+00  0.00000000E+00
  0.00000000E+00  0.00000000E+00  0.00000000E+00
  0.00000000E+00  0.00000000E+00  0.00000000E+00
  0.00000000E+00  0.00000000E+00  0.00000000E+00
  0.00000000E+00  0.00000000E+00  0.00000000E+00
  0.00000000E+00  0.00000000E+00  0.00000000E+00
  0.00000000E+00  0.00000000E+00  0.00000000E+00
  0.00000000E+00  0.00000000E+00  0.00000000E+00
  0.00000000E+00  0.00000000E+00  0.00000000E+00
  0.00000000E+00  0.00000000E+00  0.00000000E+00
  0.00000000E+00  0.00000000E+00  0.00000000E+00
  0.00000000E+00  0.00000000E+00  0.00000000E+00
  0.00000000E+00  0.00000000E+00  0.00000000E+00
  0.00000000E+00  0.00000000E+00  0.00000000E+00
  0.00000000E+00  0.00000000E+00  0.00000000E+00
  0.00000000E+00  0.00000000E+00  0.00000000E+00
  0.00000000E+00  0.00000000E+00  0.00000000E+00
  0.00000000E+00  0.00000000E+00  0.00000000E+00
  0.00000000E+00  0.00000000E+00  0.00000000E+00
  0.00000000E+00  0.00000000E+00  0.00000000E+00
  0.00000000E+00  0.00000000E+00  0.00000000E+00
  0.00000000E+00  0.00000000E+00  0.00000000E+00
  0.00000000E+00  0.00000000E+00  0.00000000E+00
  0.00000000E+00  0.00000000E+00  0.00000000E+00
  0.00000000E+00  0.00000000E+00  0.00000000E+00
  0.00000000E+00  0.00000000E+00  0.00000000E+00
  0.00000000E+00  0.00000000E+00  0.00000000E+00
  0.00000000E+00  0.00000000E+00  0.00000000E+00
  0.00000000E+00  0.00000000E+00  0.00000000E+00
  0.00000000E+00  0.00000000E+00  0.00000000E+00
  0.00000000E+00  0.00000000E+00  0.00000000E+00
  0.00000000E+00  0.00000000E+00  0.00000000E+00
  0.00000000E+00  0.00000000E+00  0.00000000E+00
  0.00000000E+00  0.00000000E+00  0.00000000E+00
  0.00000000E+00  0.00000000E+00  0.00000000E+00
  0.00000000E+00  0.00000000E+00  0.00000000E+00
  0.00000000E+00  0.00000000E+00  0.00000000E+00
  0.00000000E+00  0.00000000E+00  0.00000000E+00
  0.00000000E+00  0.00000000E+00  0.00000000E+00
  0.00000000E+00  0.00000000E+00  0.00000000E+00
  0.00000000E+00  0.00000000E+00  0.00000000E+00
  0.00000000E+00  0.00000000E+00  0.00000000E+00
  0.00000000E+00  0.00000000E+00  0.00000000E+00
  0.00000000E+00  0.00000000E+00  0.00000000E+00
  0.00000000E+00  0.00000000E+00  0.00000000E+00
  0.00000000E+00  0.00000000E+00  0.00000000E+00
  0.00000000E+00  0.00000000E+00  0.00000000E+00
  0.00000000E+00  0.00000000E+00  0.00000000E+00
  0.00000000E+00  0.00000000E+00  0.00000000E+00
  0.00000000E+00  0.00000000E+00  0.00000000E+00
  0.00000000E+00  0.00000000E+00  0.00000000E+00
  0.00000000E+00  0.00000000E+00  0.00000000E+00
  0.00000000E+00  0.00000000E+00  0.00000000E+00
  0.00000000E+00  0.00000000E+00  0.00000000E+00
  0.00000000E+00  0.00000000E+00  0.00000000E+00
  0.00000000E+00  0.00000000E+00  0.00000000E+00
  0.00000000E+00  0.00000000E+00  0.00000000E+00
  0.00000000E+00  0.00000000E+00  0.00000000E+00
  0.00000000E+00  0.00000000E+00  0.00000000E+00
  0.00000000E+00  0.00000000E+00  0.00000000E+00
  0.00000000E+00  0.00000000E+00  0.00000000E+00
  0.00000000E+00  0.00000000E+00  0.00000000E+00
  0.00000000E+00  0.00000000E+00  0.00000000E+00
  0.00000000E+00  0.00000000E+00  0.00000000E+00
  0.00000000E+00  0.00000000E+00  0.00000000E+00
  0.00000000E+00  0.00000000E+00  0.00000000E+00
  0.00000000E+00  0.00000000E+00  0.00000000E+00
  0.00000000E+00  0.00000000E+00  0.00000000E+00
  0.00000000E+00  0.00000000E+00  0.00000000E+00
  0.00000000E+00  0.00000000E+00  0.00000000E+00
  0.00000000E+00  0.00000000E+00  0.00000000E+00
  0.00000000E+00  0.00000000E+00  0.00000000E+00
  0.00000000E+00  0.00000000E+00  0.00000000E+00
  0.00000000E+00  0.00000000E+00  0.00000000E+00
  0.00000000E+00  0.00000000E+00  0.00000000E+00
  0.00000000E+00  0.00000000E+00  0.00000000E+00
  0.00000000E+00  0.00000000E+00  0.00000000E+00
  0.00000000E+00  0.00000000E+00  0.00000000E+00
  0.00000000E+00  0.00000000E+00  0.00000000E+00
  0.00000000E+00  0.00000000E+00  0.00000000E+00
  0.00000000E+00  0.00000000E+00  0.00000000E+00
  0.00000000E+00  0.00000000E+00  0.00000000E+00
  0.00000000E+00  0.00000000E+00  0.00000000E+00
  0.00000000E+00  0.00000000E+00  0.00000000E+00
  0.00000000E+00  0.00000000E+00  0.00000000E+00
  0.00000000E+00  0.00000000E+00  0.00000000E+00
  0.00000000E+00  0.00000000E+00  0.00000000E+00
  0.00000000E+00  0.00000000E+00  0.00000000E+00
  0.00000000E+00  0.00000000E+00  0.00000000E+00
  0.00000000E+00  0.00000000E+00  0.00000000E+00
  0.00000000E+00  0.00000000E+00  0.00000000E+00
  0.00000000E+00  0.00000000E+00  0.00000000E+00
  0.00000000E+00  0.00000000E+00  0.00000000E+00
  0.00000000E+00  0.00000000E+00  0.00000000E+00
  0.00000000E+00  0.00000000E+00  0.00000000E+00
  0.00000000E+00  0.00000000E+00  0.00000000E+00
  0.00000000E+00  0.00000000E+00  0.00000000E+00
  0.00000000E+00  0.00000000E+00  0.00000000E+00
  0.00000000E+00  0.00000000E+00  0.00000000E+00
  0.00000000E+00  0.00000000E+00  0.00000000E+00
  0.00000000E+00  0.00000000E+00  0.00000000E+00
  0.00000000E+00  0.00000000E+00  0.00000000E+00
  0.00000000E+00  0.00000000E+00  0.00000000E+00
  0.00000000E+00  0.00000000E+00  0.00000000E+00
  0.00000000E+00  0.00000000E+00  0.00000000E+00
  0.00000000E+00  0.00000000E+00  0.00000000E+00
  0.00000000E+00  0.00000000E+00  0.00000000E+00
  0.00000000E+00  0.00000000E+00  0.00000000E+00
  0.00000000E+00  0.00000000E+00  0.00000000E+00
  0.00000000E+00  0.00000000E+00  0.00000000E+00
  0.00000000E+00  0.00000000E+00  0.00000000E+00
  0.00000000E+00  0.00000000E+00  0.00000000E+00
  0.00000000E+00  0.00000000E+00  0.00000000E+00
  0.00000000E+00  0.00000000E+00  0.00000000E+00
  0.00000000E+00  0.00000000E+00  0.00000000E+00
  0.00000000E+00  0.00000000E+00  0.00000000E+00
  0.00000000E+00  0.00000000E+00  0.00000000E+00
  0.00000000E+00  0.00000000E+00  0.00000000E+00
