Ga8 O12                                 
    1.000000000000000     
     0.0000000000000000   12.2804737091000007    0.0000000000000000
     9.1427011490000005    0.0000000000000000    0.0000000000000000
     0.0000000000000000   -2.7682616411000001  -11.3006974810000003
   Ga   O    N    Fe
    47    71     1     1
Direct
  0.6595775783145197 -0.0004276369565555  0.1576660884745104
  0.6585032162478152 -0.0000554302002051  0.6552200622469857
  0.6593496281116281  0.3328212719373400  0.1562653741444482
  0.6577429779178563  0.3318044197228336  0.6567540968113690
  0.6586156473246844  0.6658503659762497  0.1565728895368239
  0.6566341121994455  0.6681708608443280  0.6572488330130360
  0.8411560647369704  0.1661668937525301  0.3431145007925396
  0.8406161956432022  0.1665090019566101  0.8431360374608652
  0.8406647695301106  0.4996222391327970  0.3421423794541550
  0.8400388710470641  0.5000076245412761  0.8429911026399721
  0.8409731680329273  0.8326515972287000  0.3433503811312069
  0.8405470942367859  0.8333348027414561  0.8431315335663219
  0.5900915945252866  0.1714858460959746  0.3966396208492288
  0.5909499539232902  0.1662885578880306  0.8979406020566909
  0.5903053356286531  0.4995215208776841  0.8975224581447707
  0.5900420995744750  0.8283728671534719  0.3972682454641049
  0.5909618340470058  0.8331801558427949  0.8983002144887413
  0.9094412710855587  0.0001674937162458  0.1023373388515555
  0.9084738982774140 -0.0001590240315748  0.6025362696866448
  0.9096929412253630  0.3332594896879605  0.1022373967924935
  0.9084064236611098  0.3333270658194097  0.6018942277300697
  0.9093509164470266  0.6669155719503179  0.1023807123799526
  0.9082581911955020  0.6662762048892586  0.6021058125601723
  0.1605120385760547  0.1673309336982453  0.1577268179907818
  0.1585452473219642  0.1666250147981769  0.6566902047216215
  0.1596677224080239  0.5010275328077987  0.1565679278816110
  0.1591414782318247  0.5000522225361278  0.6565095052695310
  0.1599617373944129  0.8334936433135737  0.1577103511152398
  0.1583088763722574  0.8333966795577762  0.6568725084298992
  0.3431198022547896  0.0010823486932695  0.3433815180530260
  0.3403995986894476 -0.0000779305771949  0.8430892152081143
  0.3446147642105746  0.3379121176915278  0.3454992879582692
  0.3405852869399137  0.3336350019837298  0.8437557119038269
  0.3445847748998309  0.6655423090575430  0.3441040203403051
  0.3406439244181406  0.6661050281147926  0.8437510501151172
  0.0911515923682235 -0.0000755264327974  0.3973097780386551
  0.0910544245125351  0.0001011082346835  0.8983165886945345
  0.0924748545130797  0.3336597881423228  0.3972304684490987
  0.0907287341444393  0.3335393249428544  0.8977545393124211
  0.0922542953186716  0.6664122546328328  0.3973428571880167
  0.0904179735621431  0.6668912486599925  0.8974565981058489
  0.4087582573080204  0.1659125518655480  0.1020120747863665
  0.4079890914342937  0.1666652437410009  0.6021649880796232
  0.4103016977973533  0.4997326319432517  0.1042764760930341
  0.4083674322291780  0.5006929496411199  0.6008142174636854
  0.4087262501669727  0.8334611713606289  0.1019427706637202
  0.4077156555854922  0.8343347778660155  0.6022302225367235
  0.9972594938092144  0.1666637388462946  0.1273138670979195
  0.9958109258243313  0.1667183923268053  0.6270268581210560
  0.9968794672125205  0.5001810893108919  0.1271863088097249
  0.9961048482124172  0.4998256978709639  0.6270555155977688
  0.9968177723428032  0.8335710108516068  0.1269926098112645
  0.9956766168423973  0.8329519469461536  0.6272630820271470
  0.5056659815177149 -0.0006620141876022  0.3734033865341176
  0.5032561471059088 -0.0002869306979482  0.8730079130611148
  0.5030371974183387  0.3325521494240428  0.8724777588866888
  0.5066220399955031  0.6587904307769796  0.3750093045311432
  0.5032386849110622  0.6667804692954364  0.8732664668445667
  0.6741275297954937  0.1646035783344980  0.2796880031893202
  0.6723533822309051  0.1663279248534605  0.7806781791970252
  0.6706554605348871  0.5005394792452214  0.2755925242955672
  0.6722658798590831  0.4994949382029403  0.7812259451730201
  0.6729668503269348  0.8328358492952448  0.2805917046339353
  0.6722121968381499  0.8336390061991326  0.7807932062687162
  0.8286736321102003 -0.0009307117273450  0.2197833300136865
  0.8273439211343283 -0.0003957717761757  0.7198323295369253
  0.8286402612625972  0.3330629033046180  0.2196440584401976
  0.8268309317827395  0.3337302586913296  0.7189688367032308
  0.8283517353924568  0.6663518129188978  0.2198376073015189
  0.8264910322418700  0.6659485617534180  0.7189933602779328
  0.8332472176873066 -0.0004512663173256  0.4457934244907246
  0.8322014256048036  0.0000273451867523  0.9458366386685878
  0.8307781033672471  0.3338186688808158  0.4453249192786939
  0.8327255809041003  0.3330302597675918  0.9456889779310288
  0.8310283813635625  0.6653411069870320  0.4455265925604039
  0.8324746988823041  0.6668927983784871  0.9457399054079405
  0.6689243081543612  0.1658942863466581  0.0540165082967136
  0.6689197325393276  0.1656390559635579  0.5546228022755706
  0.6689757624641886  0.4994077244398600  0.0529856039890050
  0.6609095050013241  0.5013135662959231  0.5560413102563844
  0.6687191136353254  0.8330478173038812  0.0545305855450844
  0.6678027465274415  0.8330893030328098  0.5543360017747582
  0.4967207840241976 -0.0003320840219374  0.1260937348327667
  0.4960216225353196  0.0003814316108421  0.6282247221182352
  0.4964833108893187  0.3319880018932816  0.1244682174964343
  0.4951760425151994  0.3332371089204499  0.6283767091995074
  0.4962475514961490  0.6674261724296101  0.1255847903506866
  0.4946692404268644  0.6679492546100014  0.6297394048321798
  0.0040377057780828  0.1672352372082002  0.3729986213664842
  0.0033252767559789  0.1666765306630915  0.8725002730389978
  0.0040451561926399  0.4998712279314496  0.3731183800518899
  0.0029956221854857  0.5000808564920903  0.8723781070636929
  0.0038597291780013  0.8328337147839102  0.3731202583868152
  0.0031095283371052  0.8337279875636696  0.8721735542151473
  0.1731833218363678  0.0002892549379923  0.2807544124527452
  0.1714986521701513  0.0000471690659139  0.7802079135153701
  0.1741749479356314  0.3336123249276304  0.2805499406683961
  0.1720294532825823  0.3334757311666038  0.7804323322437574
  0.1729196325009706  0.6682263074721697  0.2800479326514162
  0.1720630360173560  0.6664444399073103  0.7805025561115339
  0.3282871021515477  0.1660098547329868  0.2194480590032522
  0.3267295591278182  0.1663297323271060  0.7196650593432835
  0.3255460993146332  0.5033518299172425  0.2176877347706875
  0.3272916426260702  0.4999361789648001  0.7196831821999747
  0.3286996588907615  0.8337476306205189  0.2199898190409069
  0.3265227392197238  0.8338234056908781  0.7197149325592335
  0.3318038164929620  0.1669981826972851  0.4456674935855300
  0.3311284975063822  0.1662272052502769  0.9454750638619769
  0.3248260861844579  0.5034581628182689  0.4469605133687142
  0.3326931843749844  0.4998231592619959  0.9467652224155186
  0.3330982388468713  0.8339321859548139  0.4452153705120348
  0.3311912551678176  0.8334861230733913  0.9454711345179915
  0.1682860575686534  0.0001702763638616  0.0546151853058611
  0.1674693835090996 -0.0000955589527703  0.5542187793912258
  0.1677916216155035  0.3335495097138859  0.0540907068301136
  0.1674615096284638  0.3329661858720370  0.5545114902716141
  0.1672405190635737  0.6677768567191078  0.0536319409530906
  0.1669861721262521  0.6672943318884509  0.5546532270022791
  0.5066427745234924  0.3464400162739038  0.3722264990342328
  0.5993356095790491  0.4897154000850170  0.3996954219322096
 
  0.00000000E+00  0.00000000E+00  0.00000000E+00
  0.00000000E+00  0.00000000E+00  0.00000000E+00
  0.00000000E+00  0.00000000E+00  0.00000000E+00
  0.00000000E+00  0.00000000E+00  0.00000000E+00
  0.00000000E+00  0.00000000E+00  0.00000000E+00
  0.00000000E+00  0.00000000E+00  0.00000000E+00
  0.00000000E+00  0.00000000E+00  0.00000000E+00
  0.00000000E+00  0.00000000E+00  0.00000000E+00
  0.00000000E+00  0.00000000E+00  0.00000000E+00
  0.00000000E+00  0.00000000E+00  0.00000000E+00
  0.00000000E+00  0.00000000E+00  0.00000000E+00
  0.00000000E+00  0.00000000E+00  0.00000000E+00
  0.00000000E+00  0.00000000E+00  0.00000000E+00
  0.00000000E+00  0.00000000E+00  0.00000000E+00
  0.00000000E+00  0.00000000E+00  0.00000000E+00
  0.00000000E+00  0.00000000E+00  0.00000000E+00
  0.00000000E+00  0.00000000E+00  0.00000000E+00
  0.00000000E+00  0.00000000E+00  0.00000000E+00
  0.00000000E+00  0.00000000E+00  0.00000000E+00
  0.00000000E+00  0.00000000E+00  0.00000000E+00
  0.00000000E+00  0.00000000E+00  0.00000000E+00
  0.00000000E+00  0.00000000E+00  0.00000000E+00
  0.00000000E+00  0.00000000E+00  0.00000000E+00
  0.00000000E+00  0.00000000E+00  0.00000000E+00
  0.00000000E+00  0.00000000E+00  0.00000000E+00
  0.00000000E+00  0.00000000E+00  0.00000000E+00
  0.00000000E+00  0.00000000E+00  0.00000000E+00
  0.00000000E+00  0.00000000E+00  0.00000000E+00
  0.00000000E+00  0.00000000E+00  0.00000000E+00
  0.00000000E+00  0.00000000E+00  0.00000000E+00
  0.00000000E+00  0.00000000E+00  0.00000000E+00
  0.00000000E+00  0.00000000E+00  0.00000000E+00
  0.00000000E+00  0.00000000E+00  0.00000000E+00
  0.00000000E+00  0.00000000E+00  0.00000000E+00
  0.00000000E+00  0.00000000E+00  0.00000000E+00
  0.00000000E+00  0.00000000E+00  0.00000000E+00
  0.00000000E+00  0.00000000E+00  0.00000000E+00
  0.00000000E+00  0.00000000E+00  0.00000000E+00
  0.00000000E+00  0.00000000E+00  0.00000000E+00
  0.00000000E+00  0.00000000E+00  0.00000000E+00
  0.00000000E+00  0.00000000E+00  0.00000000E+00
  0.00000000E+00  0.00000000E+00  0.00000000E+00
  0.00000000E+00  0.00000000E+00  0.00000000E+00
  0.00000000E+00  0.00000000E+00  0.00000000E+00
  0.00000000E+00  0.00000000E+00  0.00000000E+00
  0.00000000E+00  0.00000000E+00  0.00000000E+00
  0.00000000E+00  0.00000000E+00  0.00000000E+00
  0.00000000E+00  0.00000000E+00  0.00000000E+00
  0.00000000E+00  0.00000000E+00  0.00000000E+00
  0.00000000E+00  0.00000000E+00  0.00000000E+00
  0.00000000E+00  0.00000000E+00  0.00000000E+00
  0.00000000E+00  0.00000000E+00  0.00000000E+00
  0.00000000E+00  0.00000000E+00  0.00000000E+00
  0.00000000E+00  0.00000000E+00  0.00000000E+00
  0.00000000E+00  0.00000000E+00  0.00000000E+00
  0.00000000E+00  0.00000000E+00  0.00000000E+00
  0.00000000E+00  0.00000000E+00  0.00000000E+00
  0.00000000E+00  0.00000000E+00  0.00000000E+00
  0.00000000E+00  0.00000000E+00  0.00000000E+00
  0.00000000E+00  0.00000000E+00  0.00000000E+00
  0.00000000E+00  0.00000000E+00  0.00000000E+00
  0.00000000E+00  0.00000000E+00  0.00000000E+00
  0.00000000E+00  0.00000000E+00  0.00000000E+00
  0.00000000E+00  0.00000000E+00  0.00000000E+00
  0.00000000E+00  0.00000000E+00  0.00000000E+00
  0.00000000E+00  0.00000000E+00  0.00000000E+00
  0.00000000E+00  0.00000000E+00  0.00000000E+00
  0.00000000E+00  0.00000000E+00  0.00000000E+00
  0.00000000E+00  0.00000000E+00  0.00000000E+00
  0.00000000E+00  0.00000000E+00  0.00000000E+00
  0.00000000E+00  0.00000000E+00  0.00000000E+00
  0.00000000E+00  0.00000000E+00  0.00000000E+00
  0.00000000E+00  0.00000000E+00  0.00000000E+00
  0.00000000E+00  0.00000000E+00  0.00000000E+00
  0.00000000E+00  0.00000000E+00  0.00000000E+00
  0.00000000E+00  0.00000000E+00  0.00000000E+00
  0.00000000E+00  0.00000000E+00  0.00000000E+00
  0.00000000E+00  0.00000000E+00  0.00000000E+00
  0.00000000E+00  0.00000000E+00  0.00000000E+00
  0.00000000E+00  0.00000000E+00  0.00000000E+00
  0.00000000E+00  0.00000000E+00  0.00000000E+00
  0.00000000E+00  0.00000000E+00  0.00000000E+00
  0.00000000E+00  0.00000000E+00  0.00000000E+00
  0.00000000E+00  0.00000000E+00  0.00000000E+00
  0.00000000E+00  0.00000000E+00  0.00000000E+00
  0.00000000E+00  0.00000000E+00  0.00000000E+00
  0.00000000E+00  0.00000000E+00  0.00000000E+00
  0.00000000E+00  0.00000000E+00  0.00000000E+00
  0.00000000E+00  0.00000000E+00  0.00000000E+00
  0.00000000E+00  0.00000000E+00  0.00000000E+00
  0.00000000E+00  0.00000000E+00  0.00000000E+00
  0.00000000E+00  0.00000000E+00  0.00000000E+00
  0.00000000E+00  0.00000000E+00  0.00000000E+00
  0.00000000E+00  0.00000000E+00  0.00000000E+00
  0.00000000E+00  0.00000000E+00  0.00000000E+00
  0.00000000E+00  0.00000000E+00  0.00000000E+00
  0.00000000E+00  0.00000000E+00  0.00000000E+00
  0.00000000E+00  0.00000000E+00  0.00000000E+00
  0.00000000E+00  0.00000000E+00  0.00000000E+00
  0.00000000E+00  0.00000000E+00  0.00000000E+00
  0.00000000E+00  0.00000000E+00  0.00000000E+00
  0.00000000E+00  0.00000000E+00  0.00000000E+00
  0.00000000E+00  0.00000000E+00  0.00000000E+00
  0.00000000E+00  0.00000000E+00  0.00000000E+00
  0.00000000E+00  0.00000000E+00  0.00000000E+00
  0.00000000E+00  0.00000000E+00  0.00000000E+00
  0.00000000E+00  0.00000000E+00  0.00000000E+00
  0.00000000E+00  0.00000000E+00  0.00000000E+00
  0.00000000E+00  0.00000000E+00  0.00000000E+00
  0.00000000E+00  0.00000000E+00  0.00000000E+00
  0.00000000E+00  0.00000000E+00  0.00000000E+00
  0.00000000E+00  0.00000000E+00  0.00000000E+00
  0.00000000E+00  0.00000000E+00  0.00000000E+00
  0.00000000E+00  0.00000000E+00  0.00000000E+00
  0.00000000E+00  0.00000000E+00  0.00000000E+00
  0.00000000E+00  0.00000000E+00  0.00000000E+00
  0.00000000E+00  0.00000000E+00  0.00000000E+00
  0.00000000E+00  0.00000000E+00  0.00000000E+00
  0.00000000E+00  0.00000000E+00  0.00000000E+00
  0.00000000E+00  0.00000000E+00  0.00000000E+00
