       N       E                     dE             d eps       ncg     rms          rms(c)
DAV:   1     0.218419896955E+05    0.21842E+05   -0.32069E+05 10080   0.281E+03
DAV:   2     0.486301837200E+04   -0.16979E+05   -0.16004E+05 10080   0.816E+02
DAV:   3    -0.136654086825E+03   -0.49997E+04   -0.46958E+04 12768   0.321E+02
DAV:   4    -0.785314245624E+03   -0.64866E+03   -0.63118E+03 12440   0.123E+02
DAV:   5    -0.832283686431E+03   -0.46969E+02   -0.46456E+02 14568   0.357E+01    0.758E+01
RMM:   6    -0.844973127750E+03   -0.12689E+02   -0.84704E+02 13870   0.341E+01    0.225E+02
RMM:   7    -0.805034528526E+03    0.39939E+02   -0.86532E+01 15361   0.117E+01    0.142E+02
RMM:   8    -0.718100225692E+03    0.86934E+02   -0.49562E+01 13154   0.670E+00    0.420E+01
RMM:   9    -0.716246684026E+03    0.18535E+01   -0.73091E+00 12878   0.345E+00    0.239E+01
RMM:  10    -0.712769146763E+03    0.34775E+01   -0.62449E+00 13067   0.283E+00    0.169E+01
RMM:  11    -0.712163591502E+03    0.60556E+00   -0.29668E+00 13585   0.184E+00    0.150E+01
RMM:  12    -0.711498577510E+03    0.66501E+00   -0.76508E-01 13706   0.128E+00    0.949E+00
RMM:  13    -0.711048307522E+03    0.45027E+00   -0.36470E-01 15322   0.770E-01    0.720E+00
RMM:  14    -0.710807090610E+03    0.24122E+00   -0.37462E-01 13316   0.651E-01    0.457E+00
RMM:  15    -0.710741349412E+03    0.65741E-01   -0.11837E-01 14004   0.416E-01    0.302E+00
RMM:  16    -0.710724693054E+03    0.16656E-01   -0.48736E-02 15389   0.237E-01    0.259E+00
RMM:  17    -0.710703271052E+03    0.21422E-01   -0.53348E-02 13377   0.256E-01    0.122E+00
RMM:  18    -0.710699439574E+03    0.38315E-02   -0.20160E-02 14811   0.150E-01    0.846E-01
RMM:  19    -0.710697900475E+03    0.15391E-02   -0.95715E-03 13577   0.927E-02    0.488E-01
RMM:  20    -0.710697921627E+03   -0.21152E-04   -0.33402E-03 12411   0.554E-02    0.366E-01
RMM:  21    -0.710697829045E+03    0.92582E-04   -0.16291E-03 10848   0.320E-02    0.241E-01
RMM:  22    -0.710697830474E+03   -0.14284E-05   -0.73234E-04 10701   0.239E-02    0.192E-01
RMM:  23    -0.710697798316E+03    0.32158E-04   -0.36998E-04  9648   0.163E-02    0.112E-01
RMM:  24    -0.710697806224E+03   -0.79086E-05   -0.21074E-04  9179   0.124E-02    0.925E-02
RMM:  25    -0.710697808873E+03   -0.26493E-05   -0.92703E-05  8007   0.890E-03
   1 F= -.71069781E+03 E0= -.71068876E+03  d E =-.710698E+03
       N       E                     dE             d eps       ncg     rms          rms(c)
DAV:   1    -0.710409218992E+03    0.28859E+00   -0.22192E+02 10856   0.171E+01    0.679E+00
RMM:   2    -0.711664638187E+03   -0.12554E+01   -0.79712E+00 12703   0.537E+00    0.124E+01
RMM:   3    -0.711084650065E+03    0.57999E+00   -0.30242E+00 14782   0.259E+00    0.542E+00
RMM:   4    -0.710926263357E+03    0.15839E+00   -0.44195E-01 14820   0.997E-01    0.350E+00
RMM:   5    -0.710902033305E+03    0.24230E-01   -0.15614E-01 15177   0.427E-01    0.204E+00
RMM:   6    -0.710898424766E+03    0.36085E-02   -0.82363E-02 12800   0.296E-01    0.106E+00
RMM:   7    -0.710891712836E+03    0.67119E-02   -0.17323E-02 15087   0.174E-01    0.561E-01
RMM:   8    -0.710891067438E+03    0.64540E-03   -0.68053E-03 14348   0.781E-02    0.302E-01
RMM:   9    -0.710890333548E+03    0.73389E-03   -0.25420E-03 13038   0.496E-02    0.153E-01
RMM:  10    -0.710890253744E+03    0.79804E-04   -0.13491E-03 12355   0.332E-02    0.466E-02
RMM:  11    -0.710890291574E+03   -0.37830E-04   -0.44882E-04 10054   0.215E-02    0.334E-02
RMM:  12    -0.710890306114E+03   -0.14540E-04   -0.17497E-04  8927   0.127E-02    0.161E-02
RMM:  13    -0.710890312650E+03   -0.65356E-05   -0.71429E-05  7806   0.793E-03
   2 F= -.71089031E+03 E0= -.71088032E+03  d E =-.192504E+00
       N       E                     dE             d eps       ncg     rms          rms(c)
DAV:   1    -0.711033542440E+03   -0.14324E+00   -0.31906E+01 11000   0.684E+00    0.376E+00
RMM:   2    -0.711611477856E+03   -0.57794E+00   -0.16817E+00 12775   0.236E+00    0.920E+00
RMM:   3    -0.711129809604E+03    0.48167E+00   -0.49531E-01 13732   0.110E+00    0.315E+00
RMM:   4    -0.711074606438E+03    0.55203E-01   -0.91208E-02 14574   0.416E-01    0.224E+00
RMM:   5    -0.711065888610E+03    0.87178E-02   -0.22270E-02 14514   0.180E-01    0.164E+00
RMM:   6    -0.711067429792E+03   -0.15412E-02   -0.20016E-02 12816   0.133E-01    0.121E+00
RMM:   7    -0.711061641628E+03    0.57882E-02   -0.10839E-02 14171   0.108E-01    0.755E-01
RMM:   8    -0.711058319187E+03    0.33224E-02   -0.22932E-03 12802   0.450E-02    0.245E-01
RMM:   9    -0.711057972036E+03    0.34715E-03   -0.71294E-04 10573   0.233E-02    0.179E-01
RMM:  10    -0.711057822314E+03    0.14972E-03   -0.39078E-04 10526   0.201E-02    0.247E-02
RMM:  11    -0.711057833875E+03   -0.11561E-04   -0.85184E-05  8525   0.123E-02    0.562E-02
RMM:  12    -0.711057827243E+03    0.66319E-05   -0.26697E-05  6589   0.694E-03
   3 F= -.71105783E+03 E0= -.71104821E+03  d E =-.360018E+00
       N       E                     dE             d eps       ncg     rms          rms(c)
DAV:   1    -0.711033583340E+03    0.24251E-01   -0.31596E+01 10768   0.757E+00    0.157E+00
RMM:   2    -0.711129395186E+03   -0.95812E-01   -0.99697E-01 13153   0.205E+00    0.168E+00
RMM:   3    -0.711161129395E+03   -0.31734E-01   -0.27840E-01 14508   0.899E-01    0.191E+00
RMM:   4    -0.711147086600E+03    0.14043E-01   -0.48319E-02 14685   0.349E-01    0.865E-01
RMM:   5    -0.711143049214E+03    0.40374E-02   -0.11289E-02 15057   0.132E-01    0.425E-01
RMM:   6    -0.711142162273E+03    0.88694E-03   -0.53452E-03 12715   0.852E-02    0.246E-01
RMM:   7    -0.711142254313E+03   -0.92040E-04   -0.22794E-03 13482   0.598E-02    0.116E-01
RMM:   8    -0.711142193447E+03    0.60865E-04   -0.51328E-04 11717   0.308E-02    0.576E-02
RMM:   9    -0.711142178260E+03    0.15187E-04   -0.24023E-04  9580   0.139E-02    0.295E-02
RMM:  10    -0.711142167099E+03    0.11161E-04   -0.93987E-05  9142   0.112E-02    0.122E-02
RMM:  11    -0.711142169552E+03   -0.24535E-05   -0.39098E-05  7480   0.778E-03
   4 F= -.71114217E+03 E0= -.71113261E+03  d E =-.843423E-01
       N       E                     dE             d eps       ncg     rms          rms(c)
DAV:   1    -0.711136737970E+03    0.54291E-02   -0.35389E+00 11416   0.253E+00    0.528E-01
RMM:   2    -0.711147848693E+03   -0.11111E-01   -0.10949E-01 13144   0.678E-01    0.669E-01
RMM:   3    -0.711150832580E+03   -0.29839E-02   -0.29607E-02 14437   0.294E-01    0.665E-01
RMM:   4    -0.711148959106E+03    0.18735E-02   -0.51716E-03 14342   0.114E-01    0.285E-01
RMM:   5    -0.711148512990E+03    0.44612E-03   -0.12692E-03 13771   0.455E-02    0.138E-01
RMM:   6    -0.711148436950E+03    0.76040E-04   -0.62954E-04 11728   0.294E-02    0.813E-02
RMM:   7    -0.711148433894E+03    0.30560E-05   -0.24545E-04 10872   0.205E-02    0.285E-02
RMM:   8    -0.711148431167E+03    0.27267E-05   -0.60842E-05  7849   0.113E-02
   5 F= -.71114843E+03 E0= -.71113887E+03  d E =-.906039E-01
       N       E                     dE             d eps       ncg     rms          rms(c)
DAV:   1    -0.711069125523E+03    0.79308E-01   -0.37284E+01 10404   0.817E+00    0.123E+00
RMM:   2    -0.711178191472E+03   -0.10907E+00   -0.11860E+00 13033   0.211E+00    0.639E-01
RMM:   3    -0.711203539358E+03   -0.25348E-01   -0.25663E-01 14962   0.853E-01    0.688E-01
RMM:   4    -0.711206407046E+03   -0.28677E-02   -0.33930E-02 14955   0.300E-01    0.791E-01
RMM:   5    -0.711202848857E+03    0.35582E-02   -0.81656E-03 15059   0.129E-01    0.302E-01
RMM:   6    -0.711202080948E+03    0.76791E-03   -0.61995E-03 12508   0.876E-02    0.256E-01
RMM:   7    -0.711202084399E+03   -0.34513E-05   -0.17922E-03 13241   0.512E-02    0.126E-01
RMM:   8    -0.711201911334E+03    0.17306E-03   -0.39732E-04 11703   0.274E-02    0.682E-02
RMM:   9    -0.711201887669E+03    0.23666E-04   -0.22547E-04 10274   0.162E-02    0.233E-02
RMM:  10    -0.711201888106E+03   -0.43763E-06   -0.62470E-05  7947   0.991E-03
   6 F= -.71120189E+03 E0= -.71119257E+03  d E =-.534569E-01
       N       E                     dE             d eps       ncg     rms          rms(c)
DAV:   1    -0.711199607831E+03    0.22798E-02   -0.11219E+00 11304   0.142E+00    0.212E-01
RMM:   2    -0.711202776959E+03   -0.31691E-02   -0.34384E-02 12949   0.360E-01    0.115E-01
RMM:   3    -0.711203745259E+03   -0.96830E-03   -0.81177E-03 14838   0.150E-01    0.211E-01
RMM:   4    -0.711203588488E+03    0.15677E-03   -0.11164E-03 13440   0.546E-02    0.101E-01
RMM:   5    -0.711203530710E+03    0.57778E-04   -0.29965E-04 11656   0.248E-02    0.544E-02
RMM:   6    -0.711203503089E+03    0.27621E-04   -0.13046E-04  9863   0.149E-02    0.427E-02
RMM:   7    -0.711203504277E+03   -0.11876E-05   -0.83335E-05  9379   0.119E-02
   7 F= -.71120350E+03 E0= -.71119421E+03  d E =-.550731E-01
       N       E                     dE             d eps       ncg     rms          rms(c)
DAV:   1    -0.711147363028E+03    0.56140E-01   -0.21649E+01 10416   0.647E+00    0.101E+00
RMM:   2    -0.711215089457E+03   -0.67726E-01   -0.71776E-01 13045   0.167E+00    0.683E-01
RMM:   3    -0.711230517623E+03   -0.15428E-01   -0.16292E-01 15380   0.672E-01    0.612E-01
RMM:   4    -0.711231580842E+03   -0.10632E-02   -0.19867E-02 15121   0.234E-01    0.567E-01
RMM:   5    -0.711229876825E+03    0.17040E-02   -0.55627E-03 14687   0.110E-01    0.314E-01
RMM:   6    -0.711228839865E+03    0.10370E-02   -0.50925E-03 12513   0.854E-02    0.123E-01
RMM:   7    -0.711228802271E+03    0.37594E-04   -0.10062E-03 13298   0.439E-02    0.580E-02
RMM:   8    -0.711228788158E+03    0.14113E-04   -0.34497E-04 10195   0.201E-02    0.401E-02
RMM:   9    -0.711228770170E+03    0.17988E-04   -0.14893E-04  9790   0.138E-02    0.170E-02
RMM:  10    -0.711228772983E+03   -0.28136E-05   -0.72044E-05  7936   0.918E-03
   8 F= -.71122877E+03 E0= -.71121969E+03  d E =-.252687E-01
       N       E                     dE             d eps       ncg     rms          rms(c)
DAV:   1    -0.711228694570E+03    0.75600E-04   -0.53139E-02 11432   0.320E-01    0.503E-02
RMM:   2    -0.711228862233E+03   -0.16766E-03   -0.17764E-03 13093   0.819E-02    0.375E-02
RMM:   3    -0.711228898335E+03   -0.36102E-04   -0.39519E-04 13483   0.327E-02    0.347E-02
RMM:   4    -0.711228898808E+03   -0.47260E-06   -0.56566E-05  7662   0.145E-02
   9 F= -.71122890E+03 E0= -.71121977E+03  d E =-.253945E-01
       N       E                     dE             d eps       ncg     rms          rms(c)
DAV:   1    -0.711197191832E+03    0.31707E-01   -0.11703E+01 10536   0.489E+00    0.616E-01
RMM:   2    -0.711235112549E+03   -0.37921E-01   -0.39510E-01 13125   0.127E+00    0.415E-01
RMM:   3    -0.711246797951E+03   -0.11685E-01   -0.89147E-02 15322   0.509E-01    0.782E-01
RMM:   4    -0.711243642140E+03    0.31558E-02   -0.11707E-02 14858   0.188E-01    0.278E-01
RMM:   5    -0.711243036120E+03    0.60602E-03   -0.28894E-03 14971   0.725E-02    0.169E-01
RMM:   6    -0.711242851835E+03    0.18429E-03   -0.12950E-03 12344   0.444E-02    0.994E-02
RMM:   7    -0.711242857654E+03   -0.58196E-05   -0.58934E-04 12664   0.310E-02    0.600E-02
RMM:   8    -0.711242826483E+03    0.31171E-04   -0.12028E-04  9756   0.173E-02    0.361E-02
RMM:   9    -0.711242814349E+03    0.12134E-04   -0.88713E-05  9106   0.104E-02    0.182E-02
RMM:  10    -0.711242813506E+03    0.84320E-06   -0.24746E-05  6740   0.719E-03
  10 F= -.71124281E+03 E0= -.71123368E+03  d E =-.139147E-01
       N       E                     dE             d eps       ncg     rms          rms(c)
DAV:   1    -0.711242434386E+03    0.37996E-03   -0.17356E-01 11560   0.595E-01    0.734E-02
RMM:   2    -0.711242999724E+03   -0.56534E-03   -0.58100E-03 13155   0.152E-01    0.621E-02
RMM:   3    -0.711243159852E+03   -0.16013E-03   -0.12984E-03 15155   0.611E-02    0.955E-02
RMM:   4    -0.711243110277E+03    0.49575E-04   -0.17074E-04 11610   0.228E-02    0.324E-02
RMM:   5    -0.711243100133E+03    0.10144E-04   -0.54253E-05  8216   0.122E-02    0.202E-02
RMM:   6    -0.711243098254E+03    0.18788E-05   -0.21514E-05  6726   0.750E-03
  11 F= -.71124310E+03 E0= -.71123395E+03  d E =-.141994E-01
       N       E                     dE             d eps       ncg     rms          rms(c)
DAV:   1    -0.711227734185E+03    0.15366E-01   -0.58075E+00 10584   0.347E+00    0.483E-01
RMM:   2    -0.711247613777E+03   -0.19880E-01   -0.19408E-01 13160   0.898E-01    0.596E-01
RMM:   3    -0.711252211205E+03   -0.45974E-02   -0.46641E-02 15028   0.377E-01    0.557E-01
RMM:   4    -0.711250591464E+03    0.16197E-02   -0.61140E-03 14624   0.139E-01    0.226E-01
RMM:   5    -0.711250205714E+03    0.38575E-03   -0.14193E-03 14939   0.549E-02    0.112E-01
RMM:   6    -0.711250051763E+03    0.15395E-03   -0.73597E-04 12402   0.337E-02    0.747E-02
RMM:   7    -0.711250054972E+03   -0.32093E-05   -0.29731E-04 11685   0.224E-02    0.319E-02
RMM:   8    -0.711250044881E+03    0.10092E-04   -0.69957E-05  8623   0.131E-02    0.189E-02
RMM:   9    -0.711250044863E+03    0.17419E-07   -0.31274E-05  7355   0.657E-03
  12 F= -.71125004E+03 E0= -.71124091E+03  d E =-.694661E-02
       N       E                     dE             d eps       ncg     rms          rms(c)
DAV:   1    -0.711249855988E+03    0.18889E-03   -0.80116E-02 11544   0.408E-01    0.578E-02
RMM:   2    -0.711250152155E+03   -0.29617E-03   -0.27830E-03 13183   0.107E-01    0.857E-02
RMM:   3    -0.711250201375E+03   -0.49220E-04   -0.66981E-04 14534   0.457E-02    0.634E-02
RMM:   4    -0.711250179877E+03    0.21499E-04   -0.91297E-05  9656   0.168E-02    0.254E-02
RMM:   5    -0.711250174350E+03    0.55264E-05   -0.23099E-05  6593   0.894E-03
  13 F= -.71125017E+03 E0= -.71124101E+03  d E =-.707610E-02
       N       E                     dE             d eps       ncg     rms          rms(c)
DAV:   1    -0.711243542231E+03    0.66376E-02   -0.25626E+00 10576   0.231E+00    0.321E-01
RMM:   2    -0.711251916418E+03   -0.83742E-02   -0.84500E-02 13108   0.594E-01    0.347E-01
RMM:   3    -0.711253991306E+03   -0.20749E-02   -0.20383E-02 15127   0.246E-01    0.356E-01
RMM:   4    -0.711253474016E+03    0.51729E-03   -0.26113E-03 14555   0.928E-02    0.171E-01
RMM:   5    -0.711253237208E+03    0.23681E-03   -0.59830E-04 13509   0.378E-02    0.835E-02
RMM:   6    -0.711253132503E+03    0.10470E-03   -0.34446E-04 11127   0.236E-02    0.585E-02
RMM:   7    -0.711253127186E+03    0.53169E-05   -0.18039E-04 10515   0.179E-02    0.258E-02
RMM:   8    -0.711253122226E+03    0.49597E-05   -0.40411E-05  7718   0.114E-02
  14 F= -.71125312E+03 E0= -.71124394E+03  d E =-.294788E-02
       N       E                     dE             d eps       ncg     rms          rms(c)
DAV:   1    -0.711253096997E+03    0.30190E-04   -0.12039E-02 11624   0.159E-01    0.249E-02
RMM:   2    -0.711253139977E+03   -0.42980E-04   -0.45229E-04 12942   0.434E-02    0.198E-02
RMM:   3    -0.711253150843E+03   -0.10867E-04   -0.12104E-04 11660   0.185E-02    0.190E-02
RMM:   4    -0.711253151205E+03   -0.36133E-06   -0.17225E-05  6151   0.979E-03
  15 F= -.71125315E+03 E0= -.71124395E+03  d E =-.297685E-02
       N       E                     dE             d eps       ncg     rms          rms(c)
DAV:   1    -0.711249757880E+03    0.33930E-02   -0.12975E+00 10664   0.166E+00    0.211E-01
RMM:   2    -0.711253686749E+03   -0.39289E-02   -0.41392E-02 12948   0.426E-01    0.154E-01
RMM:   3    -0.711254706949E+03   -0.10202E-02   -0.10409E-02 15239   0.175E-01    0.125E-01
RMM:   4    -0.711254825572E+03   -0.11862E-03   -0.12229E-03 14930   0.614E-02    0.151E-01
RMM:   5    -0.711254693265E+03    0.13231E-03   -0.28608E-04 12122   0.278E-02    0.613E-02
RMM:   6    -0.711254648925E+03    0.44341E-04   -0.29856E-04 10945   0.218E-02    0.449E-02
RMM:   7    -0.711254647732E+03    0.11922E-05   -0.59944E-05  8495   0.120E-02
  16 F= -.71125465E+03 E0= -.71124551E+03  d E =-.149653E-02
       N       E                     dE             d eps       ncg     rms          rms(c)
DAV:   1    -0.711254577866E+03    0.71059E-04   -0.22800E-02 11664   0.220E-01    0.360E-02
RMM:   2    -0.711254652685E+03   -0.74820E-04   -0.80209E-04 12962   0.565E-02    0.206E-02
RMM:   3    -0.711254678062E+03   -0.25377E-04   -0.20583E-04 12684   0.240E-02    0.362E-02
RMM:   4    -0.711254672790E+03    0.52723E-05   -0.29222E-05  6657   0.117E-02
  17 F= -.71125467E+03 E0= -.71124561E+03  d E =-.152158E-02
       N       E                     dE             d eps       ncg     rms          rms(c)
DAV:   1    -0.711252496063E+03    0.21820E-02   -0.80623E-01 10968   0.132E+00    0.187E-01
RMM:   2    -0.711255066183E+03   -0.25701E-02   -0.25606E-02 12914   0.339E-01    0.226E-01
RMM:   3    -0.711255732165E+03   -0.66598E-03   -0.68106E-03 14898   0.147E-01    0.212E-01
RMM:   4    -0.711255547902E+03    0.18426E-03   -0.95782E-04 14496   0.558E-02    0.928E-02
RMM:   5    -0.711255477681E+03    0.70221E-04   -0.19847E-04 11295   0.226E-02    0.534E-02
RMM:   6    -0.711255446219E+03    0.31462E-04   -0.13390E-04 10422   0.155E-02    0.296E-02
RMM:   7    -0.711255445784E+03    0.43439E-06   -0.52516E-05  8564   0.105E-02
  18 F= -.71125545E+03 E0= -.71124635E+03  d E =-.772995E-03
       N       E                     dE             d eps       ncg     rms          rms(c)
DAV:   1    -0.711255431039E+03    0.15180E-04   -0.34993E-03 12072   0.880E-02    0.159E-02
RMM:   2    -0.711255444974E+03   -0.13935E-04   -0.15327E-04 12010   0.250E-02    0.120E-02
RMM:   3    -0.711255448413E+03   -0.34387E-05   -0.38303E-05  7215   0.118E-02
  19 F= -.71125545E+03 E0= -.71124639E+03  d E =-.775623E-03
       N       E                     dE             d eps       ncg     rms          rms(c)
DAV:   1    -0.711253756529E+03    0.16884E-02   -0.59595E-01 10908   0.115E+00    0.149E-01
RMM:   2    -0.711255827588E+03   -0.20711E-02   -0.19197E-02 12966   0.298E-01    0.236E-01
RMM:   3    -0.711256182488E+03   -0.35490E-03   -0.52553E-03 14648   0.132E-01    0.159E-01
RMM:   4    -0.711256067813E+03    0.11467E-03   -0.72024E-04 14489   0.482E-02    0.664E-02
RMM:   5    -0.711256035005E+03    0.32808E-04   -0.15285E-04 10291   0.199E-02    0.370E-02
RMM:   6    -0.711256017910E+03    0.17095E-04   -0.81392E-05  9428   0.128E-02    0.208E-02
RMM:   7    -0.711256018063E+03   -0.15298E-06   -0.39527E-05  7879   0.946E-03
  20 F= -.71125602E+03 E0= -.71124694E+03  d E =-.569651E-03
       N       E                     dE             d eps       ncg     rms          rms(c)
DAV:   1    -0.711255962972E+03    0.54938E-04   -0.16343E-02 11984   0.191E-01    0.265E-02
RMM:   2    -0.711256021064E+03   -0.58092E-04   -0.58092E-04 12922   0.516E-02    0.298E-02
RMM:   3    -0.711256037944E+03   -0.16880E-04   -0.16642E-04 11844   0.232E-02    0.316E-02
RMM:   4    -0.711256033261E+03    0.46830E-05   -0.25853E-05  6390   0.120E-02
  21 F= -.71125603E+03 E0= -.71124697E+03  d E =-.584849E-03
       N       E                     dE             d eps       ncg     rms          rms(c)
DAV:   1    -0.711256016775E+03    0.21169E-04   -0.29618E-03 10732   0.815E-02    0.125E-02
RMM:   2    -0.711256027942E+03   -0.11167E-04   -0.11658E-04 10801   0.217E-02    0.794E-03
RMM:   3    -0.711256029455E+03   -0.15125E-05   -0.23264E-05  6537   0.100E-02
  22 F= -.71125603E+03 E0= -.71124692E+03  d E =-.581042E-03
       N       E                     dE             d eps       ncg     rms          rms(c)
DAV:   1    -0.711256026413E+03    0.15296E-05   -0.11868E-03 10896   0.521E-02    0.102E-02
RMM:   2    -0.711256035563E+03   -0.91501E-05   -0.58070E-05  8510   0.162E-02
  23 F= -.71125604E+03 E0= -.71124690E+03  d E =-.587150E-03
       N       E                     dE             d eps       ncg     rms          rms(c)
DAV:   1    -0.711256029726E+03   -0.33136E-05   -0.28933E-04 10698   0.269E-02    0.754E-03
RMM:   2    -0.711256035166E+03   -0.54399E-05   -0.16069E-05  5938   0.894E-03
  24 F= -.71125604E+03 E0= -.71124690E+03  d E =-.586754E-03
       N       E                     dE             d eps       ncg     rms          rms(c)
DAV:   1    -0.711256030722E+03   -0.99589E-06   -0.82048E-05  9912   0.168E-02    0.395E-03
RMM:   2    -0.711256032774E+03   -0.20518E-05   -0.10089E-05  5392   0.806E-03
  25 F= -.71125603E+03 E0= -.71124692E+03  d E =-.584361E-03
       N       E                     dE             d eps       ncg     rms          rms(c)
DAV:   1    -0.711254822842E+03    0.12079E-02   -0.41832E-01 10944   0.965E-01    0.113E-01
RMM:   2    -0.711256136192E+03   -0.13133E-02   -0.13387E-02 13080   0.250E-01    0.108E-01
RMM:   3    -0.711256527719E+03   -0.39153E-03   -0.34393E-03 15055   0.103E-01    0.134E-01
RMM:   4    -0.711256453900E+03    0.73819E-04   -0.47314E-04 13724   0.398E-02    0.599E-02
RMM:   5    -0.711256428792E+03    0.25108E-04   -0.11107E-04 10082   0.183E-02    0.305E-02
RMM:   6    -0.711256417870E+03    0.10922E-04   -0.76722E-05  9378   0.121E-02    0.224E-02
RMM:   7    -0.711256417883E+03   -0.12798E-07   -0.22095E-05  6695   0.803E-03
  26 F= -.71125642E+03 E0= -.71124734E+03  d E =-.385109E-03
       N       E                     dE             d eps       ncg     rms          rms(c)
DAV:   1    -0.711256348033E+03    0.69837E-04   -0.17845E-02 11720   0.200E-01    0.267E-02
RMM:   2    -0.711256407913E+03   -0.59880E-04   -0.62562E-04 13069   0.542E-02    0.177E-02
RMM:   3    -0.711256430654E+03   -0.22741E-04   -0.17439E-04 12129   0.233E-02    0.348E-02
RMM:   4    -0.711256424271E+03    0.63836E-05   -0.28163E-05  6293   0.126E-02
  27 F= -.71125642E+03 E0= -.71124734E+03  d E =-.391497E-03
       N       E                     dE             d eps       ncg     rms          rms(c)
DAV:   1    -0.711256393949E+03    0.36706E-04   -0.69097E-03 10870   0.124E-01    0.158E-02
RMM:   2    -0.711256417982E+03   -0.24033E-04   -0.24838E-04 13106   0.317E-02    0.726E-03
RMM:   3    -0.711256421903E+03   -0.39207E-05   -0.47024E-05  8438   0.126E-02
  28 F= -.71125642E+03 E0= -.71124734E+03  d E =-.389129E-03
       N       E                     dE             d eps       ncg     rms          rms(c)
DAV:   1    -0.711256416903E+03    0.10788E-05   -0.17978E-03 11240   0.639E-02    0.133E-02
RMM:   2    -0.711256435352E+03   -0.18449E-04   -0.81874E-05  9098   0.185E-02    0.428E-02
RMM:   3    -0.711256424240E+03    0.11112E-04   -0.18104E-05  6206   0.941E-03    0.609E-03
RMM:   4    -0.711256423833E+03    0.40734E-06   -0.48453E-06  5860   0.585E-03
  29 F= -.71125642E+03 E0= -.71124734E+03  d E =-.391059E-03
       N       E                     dE             d eps       ncg     rms          rms(c)
DAV:   1    -0.711255337995E+03    0.10862E-02   -0.36414E-01 10972   0.905E-01    0.927E-02
RMM:   2    -0.711256419056E+03   -0.10811E-02   -0.11283E-02 13036   0.231E-01    0.408E-02
RMM:   3    -0.711256718853E+03   -0.29980E-03   -0.29172E-03 15070   0.944E-02    0.622E-02
RMM:   4    -0.711256741290E+03   -0.22437E-04   -0.37237E-04 13752   0.348E-02    0.457E-02
RMM:   5    -0.711256731011E+03    0.10279E-04   -0.85946E-05  9610   0.176E-02    0.266E-02
RMM:   6    -0.711256720944E+03    0.10067E-04   -0.69166E-05  9173   0.113E-02    0.157E-02
RMM:   7    -0.711256720945E+03   -0.10696E-08   -0.18118E-05  6370   0.769E-03
  30 F= -.71125672E+03 E0= -.71124762E+03  d E =-.297112E-03
       N       E                     dE             d eps       ncg     rms          rms(c)
DAV:   1    -0.711256421528E+03    0.29942E-03   -0.79532E-02 11392   0.423E-01    0.476E-02
RMM:   2    -0.711256665887E+03   -0.24436E-03   -0.25532E-03 13155   0.110E-01    0.196E-02
RMM:   3    -0.711256735651E+03   -0.69764E-04   -0.66315E-04 14846   0.447E-02    0.312E-02
RMM:   4    -0.711256738788E+03   -0.31372E-05   -0.91318E-05 10268   0.174E-02
  31 F= -.71125674E+03 E0= -.71124767E+03  d E =-.314956E-03
       N       E                     dE             d eps       ncg     rms          rms(c)
DAV:   1    -0.711256613877E+03    0.12177E-03   -0.28418E-02 11248   0.253E-01    0.325E-02
RMM:   2    -0.711256711755E+03   -0.97878E-04   -0.10146E-03 13676   0.678E-02    0.189E-02
RMM:   3    -0.711256742795E+03   -0.31040E-04   -0.24228E-04 12696   0.277E-02    0.377E-02
RMM:   4    -0.711256737384E+03    0.54108E-05   -0.40044E-05  7341   0.143E-02
  32 F= -.71125674E+03 E0= -.71124766E+03  d E =-.313551E-03
       N       E                     dE             d eps       ncg     rms          rms(c)
DAV:   1    -0.711256709279E+03    0.33516E-04   -0.70231E-03 11120   0.126E-01    0.164E-02
RMM:   2    -0.711256735662E+03   -0.26383E-04   -0.25726E-04 13063   0.342E-02    0.201E-02
RMM:   3    -0.711256741183E+03   -0.55216E-05   -0.65723E-05  8943   0.154E-02
  33 F= -.71125674E+03 E0= -.71124760E+03  d E =-.317351E-03
       N       E                     dE             d eps       ncg     rms          rms(c)
DAV:   1    -0.711256732160E+03    0.35014E-05   -0.16269E-03 11140   0.612E-02    0.945E-03
RMM:   2    -0.711256738109E+03   -0.59485E-05   -0.59688E-05  8390   0.170E-02
  34 F= -.71125674E+03 E0= -.71124762E+03  d E =-.314276E-03
       N       E                     dE             d eps       ncg     rms          rms(c)
DAV:   1    -0.711256738495E+03   -0.63343E-05   -0.49891E-04 10720   0.337E-02    0.118E-02
RMM:   2    -0.711256757197E+03   -0.18703E-04   -0.33846E-05  6372   0.117E-02    0.504E-02
RMM:   3    -0.711256740545E+03    0.16653E-04   -0.79534E-06  5745   0.605E-03    0.407E-03
RMM:   4    -0.711256739793E+03    0.75114E-06   -0.22859E-06  5702   0.351E-03
  35 F= -.71125674E+03 E0= -.71124763E+03  d E =-.315961E-03
       N       E                     dE             d eps       ncg     rms          rms(c)
DAV:   1    -0.711256739334E+03    0.12105E-05   -0.73945E-05 10036   0.130E-02    0.289E-03
RMM:   2    -0.711256739759E+03   -0.42465E-06   -0.37045E-06  5229   0.419E-03
  36 F= -.71125674E+03 E0= -.71124765E+03  d E =-.315926E-03
       N       E                     dE             d eps       ncg     rms          rms(c)
DAV:   1    -0.711256082984E+03    0.65635E-03   -0.22522E-01 11040   0.720E-01    0.778E-02
RMM:   2    -0.711256784239E+03   -0.70125E-03   -0.72761E-03 13230   0.188E-01    0.558E-02
RMM:   3    -0.711256983213E+03   -0.19897E-03   -0.19006E-03 14934   0.781E-02    0.663E-02
RMM:   4    -0.711256983253E+03   -0.40643E-07   -0.25412E-04 12522   0.295E-02    0.461E-02
RMM:   5    -0.711256971559E+03    0.11694E-04   -0.62143E-05  8662   0.158E-02    0.222E-02
RMM:   6    -0.711256963238E+03    0.83213E-05   -0.23413E-05  6572   0.798E-03
  37 F= -.71125696E+03 E0= -.71124789E+03  d E =-.223479E-03
       N       E                     dE             d eps       ncg     rms          rms(c)
DAV:   1    -0.711256878647E+03    0.92912E-04   -0.23848E-02 11656   0.236E-01    0.301E-02
RMM:   2    -0.711256956643E+03   -0.77996E-04   -0.77769E-04 13248   0.610E-02    0.328E-02
RMM:   3    -0.711256978285E+03   -0.21643E-04   -0.20362E-04 12517   0.259E-02    0.365E-02
RMM:   4    -0.711256971355E+03    0.69308E-05   -0.28705E-05  6313   0.121E-02
  38 F= -.71125697E+03 E0= -.71124788E+03  d E =-.231596E-03
       N       E                     dE             d eps       ncg     rms          rms(c)
DAV:   1    -0.711256937202E+03    0.41083E-04   -0.74920E-03 11160   0.132E-01    0.163E-02
RMM:   2    -0.711256965345E+03   -0.28143E-04   -0.27649E-04 13224   0.370E-02    0.190E-02
RMM:   3    -0.711256972267E+03   -0.69215E-05   -0.71535E-05  9591   0.164E-02
  39 F= -.71125697E+03 E0= -.71124793E+03  d E =-.232508E-03
       N       E                     dE             d eps       ncg     rms          rms(c)
DAV:   1    -0.711256961121E+03    0.42247E-05   -0.23547E-03 11386   0.747E-02    0.112E-02
RMM:   2    -0.711256972125E+03   -0.11004E-04   -0.10046E-04 10912   0.218E-02    0.179E-02
RMM:   3    -0.711256972170E+03   -0.44907E-07   -0.22782E-05  6710   0.979E-03
  40 F= -.71125697E+03 E0= -.71124788E+03  d E =-.232411E-03
       N       E                     dE             d eps       ncg     rms          rms(c)
DAV:   1    -0.711256968137E+03    0.39882E-05   -0.56650E-04 10588   0.370E-02    0.682E-03
RMM:   2    -0.711256971141E+03   -0.30042E-05   -0.27654E-05  6746   0.124E-02
  41 F= -.71125697E+03 E0= -.71124788E+03  d E =-.231382E-03
       N       E                     dE             d eps       ncg     rms          rms(c)
DAV:   1    -0.711256970930E+03   -0.27935E-05   -0.15009E-04 11608   0.198E-02    0.793E-03
RMM:   2    -0.711256979099E+03   -0.81691E-05   -0.14223E-05  5634   0.734E-03
  42 F= -.71125698E+03 E0= -.71124784E+03  d E =-.239341E-03
       N       E                     dE             d eps       ncg     rms          rms(c)
DAV:   1    -0.711256970752E+03    0.17813E-06   -0.93219E-05 11024   0.190E-02    0.376E-03
RMM:   2    -0.711256971694E+03   -0.94152E-06   -0.72825E-06  5276   0.640E-03
  43 F= -.71125697E+03 E0= -.71124788E+03  d E =-.231935E-03
       N       E                     dE             d eps       ncg     rms          rms(c)
DAV:   1    -0.711256970884E+03   -0.13147E-06   -0.21751E-05  6248   0.870E-03    0.196E-03
RMM:   2    -0.711256971506E+03   -0.62287E-06   -0.36298E-06  5146   0.503E-03
  44 F= -.71125697E+03 E0= -.71124788E+03  d E =-.231748E-03
       N       E                     dE             d eps       ncg     rms          rms(c)
DAV:   1    -0.711256971106E+03   -0.22281E-06   -0.33991E-06  5346   0.402E-03    0.108E-03
RMM:   2    -0.711256971169E+03   -0.62457E-07   -0.10070E-06  4715   0.235E-03
  45 F= -.71125697E+03 E0= -.71124789E+03  d E =-.231410E-03
       N       E                     dE             d eps       ncg     rms          rms(c)
DAV:   1    -0.711256971233E+03   -0.12613E-06   -0.47154E-07  5346   0.155E-03    0.182E-03
RMM:   2    -0.711256971249E+03   -0.16058E-07   -0.11333E-07  2528   0.100E-03
  46 F= -.71125697E+03 E0= -.71124789E+03  d E =-.231490E-03
       N       E                     dE             d eps       ncg     rms          rms(c)
DAV:   1    -0.711256265201E+03    0.70603E-03   -0.24236E-01 11160   0.743E-01    0.871E-02
RMM:   2    -0.711256988172E+03   -0.72297E-03   -0.74164E-03 13014   0.190E-01    0.732E-02
RMM:   3    -0.711257191188E+03   -0.20302E-03   -0.19936E-03 14877   0.800E-02    0.788E-02
RMM:   4    -0.711257192298E+03   -0.11099E-05   -0.27991E-04 12755   0.306E-02    0.534E-02
RMM:   5    -0.711257174747E+03    0.17551E-04   -0.70256E-05  8781   0.167E-02    0.268E-02
RMM:   6    -0.711257166597E+03    0.81505E-05   -0.49815E-05  8348   0.974E-03
  47 F= -.71125717E+03 E0= -.71124806E+03  d E =-.195348E-03
       N       E                     dE             d eps       ncg     rms          rms(c)
DAV:   1    -0.711257067173E+03    0.10757E-03   -0.28244E-02 11712   0.254E-01    0.327E-02
RMM:   2    -0.711257155840E+03   -0.88667E-04   -0.89981E-04 13138   0.638E-02    0.278E-02
RMM:   3    -0.711257179733E+03   -0.23893E-04   -0.22690E-04 12791   0.271E-02    0.337E-02
RMM:   4    -0.711257175216E+03    0.45172E-05   -0.35202E-05  6640   0.129E-02
  48 F= -.71125718E+03 E0= -.71124811E+03  d E =-.203967E-03
       N       E                     dE             d eps       ncg     rms          rms(c)
DAV:   1    -0.711257128872E+03    0.50861E-04   -0.10840E-02 11288   0.158E-01    0.221E-02
RMM:   2    -0.711257167390E+03   -0.38518E-04   -0.37427E-04 13099   0.424E-02    0.263E-02
RMM:   3    -0.711257177313E+03   -0.99232E-05   -0.99744E-05 10784   0.188E-02
  49 F= -.71125718E+03 E0= -.71124804E+03  d E =-.206064E-03
       N       E                     dE             d eps       ncg     rms          rms(c)
DAV:   1    -0.711257158398E+03    0.89913E-05   -0.39623E-03 11344   0.964E-02    0.172E-02
RMM:   2    -0.711257183095E+03   -0.24696E-04   -0.16135E-04 11434   0.280E-02    0.412E-02
RMM:   3    -0.711257176378E+03    0.67165E-05   -0.42575E-05  7942   0.126E-02
  50 F= -.71125718E+03 E0= -.71124811E+03  d E =-.205129E-03
       N       E                     dE             d eps       ncg     rms          rms(c)
DAV:   1    -0.711257170691E+03    0.12403E-04   -0.95911E-04 10770   0.474E-02    0.109E-02
RMM:   2    -0.711257176339E+03   -0.56483E-05   -0.41851E-05  7915   0.143E-02
  51 F= -.71125718E+03 E0= -.71124812E+03  d E =-.205091E-03
       N       E                     dE             d eps       ncg     rms          rms(c)
DAV:   1    -0.711257175008E+03   -0.43173E-05   -0.28754E-04 11424   0.270E-02    0.107E-02
RMM:   2    -0.711257191219E+03   -0.16211E-04   -0.27332E-05  6098   0.102E-02    0.479E-02
RMM:   3    -0.711257176202E+03    0.15017E-04   -0.69707E-06  5478   0.546E-03    0.380E-03
RMM:   4    -0.711257175509E+03    0.69327E-06   -0.16553E-06  5393   0.275E-03
  52 F= -.71125718E+03 E0= -.71124810E+03  d E =-.204260E-03
       N       E                     dE             d eps       ncg     rms          rms(c)
DAV:   1    -0.711256664676E+03    0.51153E-03   -0.18309E-01 11046   0.641E-01    0.790E-02
RMM:   2    -0.711257266913E+03   -0.60224E-03   -0.55553E-03 12807   0.162E-01    0.124E-01
RMM:   3    -0.711257374806E+03   -0.10789E-03   -0.15625E-03 14639   0.720E-02    0.829E-02
RMM:   4    -0.711257345696E+03    0.29111E-04   -0.21808E-04 12249   0.270E-02    0.369E-02
RMM:   5    -0.711257336939E+03    0.87569E-05   -0.53672E-05  8227   0.139E-02
  53 F= -.71125734E+03 E0= -.71124822E+03  d E =-.161430E-03
       N       E                     dE             d eps       ncg     rms          rms(c)
DAV:   1    -0.711257333696E+03    0.12000E-04   -0.11954E-04 11928   0.207E-02    0.115E-02
RMM:   2    -0.711257337790E+03   -0.40943E-05   -0.16208E-05  5960   0.921E-03
  54 F= -.71125734E+03 E0= -.71124828E+03  d E =-.162281E-03
       N       E                     dE             d eps       ncg     rms          rms(c)
DAV:   1    -0.711257334506E+03   -0.81073E-06   -0.50672E-04 12060   0.368E-02    0.139E-02
RMM:   2    -0.711257353877E+03   -0.19370E-04   -0.37137E-05  6638   0.130E-02    0.524E-02
RMM:   3    -0.711257337058E+03    0.16819E-04   -0.12085E-05  5793   0.725E-03    0.585E-03
RMM:   4    -0.711257336240E+03    0.81734E-06   -0.26321E-06  5700   0.402E-03
  55 F= -.71125734E+03 E0= -.71124825E+03  d E =-.160732E-03
       N       E                     dE             d eps       ncg     rms          rms(c)
DAV:   1    -0.711257194433E+03    0.14263E-03   -0.56415E-02 11040   0.358E-01    0.439E-02
RMM:   2    -0.711257374170E+03   -0.17974E-03   -0.18909E-03 13233   0.960E-02    0.351E-02
RMM:   3    -0.711257417893E+03   -0.43724E-04   -0.48680E-04 14556   0.393E-02    0.247E-02
RMM:   4    -0.711257422011E+03   -0.41180E-05   -0.61136E-05  8619   0.151E-02
  56 F= -.71125742E+03 E0= -.71124827E+03  d E =-.857708E-04
       N       E                     dE             d eps       ncg     rms          rms(c)
DAV:   1    -0.711257401314E+03    0.16580E-04   -0.20685E-03 11122   0.711E-02    0.232E-02
RMM:   2    -0.711257449819E+03   -0.48506E-04   -0.15207E-04 10801   0.263E-02    0.758E-02
RMM:   3    -0.711257411960E+03    0.37859E-04   -0.37727E-05  6721   0.119E-02    0.107E-02
RMM:   4    -0.711257410030E+03    0.19299E-05   -0.82012E-06  5921   0.737E-03
  57 F= -.71125741E+03 E0= -.71124830E+03  d E =-.737897E-04
       N       E                     dE             d eps       ncg     rms          rms(c)
DAV:   1    -0.711257410839E+03    0.11211E-05   -0.11604E-03 11080   0.515E-02    0.773E-03
RMM:   2    -0.711257415239E+03   -0.44003E-05   -0.45181E-05  7972   0.146E-02
  58 F= -.71125742E+03 E0= -.71124832E+03  d E =-.789987E-04
       N       E                     dE             d eps       ncg     rms          rms(c)
DAV:   1    -0.711257411731E+03   -0.89158E-06   -0.28340E-04 10484   0.259E-02    0.919E-03
RMM:   2    -0.711257419706E+03   -0.79753E-05   -0.18940E-05  5888   0.917E-03
  59 F= -.71125742E+03 E0= -.71124837E+03  d E =-.834654E-04
       N       E                     dE             d eps       ncg     rms          rms(c)
DAV:   1    -0.711257414122E+03   -0.23915E-05   -0.12860E-04 11408   0.209E-02    0.579E-03
RMM:   2    -0.711257416527E+03   -0.24048E-05   -0.12893E-05  5540   0.843E-03
  60 F= -.71125742E+03 E0= -.71124835E+03  d E =-.802863E-04
       N       E                     dE             d eps       ncg     rms          rms(c)
DAV:   1    -0.711257412770E+03    0.13524E-05   -0.44169E-05  8008   0.125E-02    0.381E-03
RMM:   2    -0.711257414125E+03   -0.13559E-05   -0.66498E-06  5178   0.673E-03
  61 F= -.71125741E+03 E0= -.71124833E+03  d E =-.778850E-04
       N       E                     dE             d eps       ncg     rms          rms(c)
DAV:   1    -0.711257414395E+03   -0.16257E-05   -0.21410E-05  6288   0.883E-03    0.227E-03
RMM:   2    -0.711257415042E+03   -0.64712E-06   -0.43222E-06  5161   0.529E-03
  62 F= -.71125742E+03 E0= -.71124833E+03  d E =-.788020E-04
       N       E                     dE             d eps       ncg     rms          rms(c)
DAV:   1    -0.711257412849E+03    0.15468E-05   -0.38735E-06  5312   0.446E-03    0.179E-03
RMM:   2    -0.711257412990E+03   -0.14172E-06   -0.11069E-06  4691   0.246E-03
  63 F= -.71125741E+03 E0= -.71124832E+03  d E =-.767498E-04
       N       E                     dE             d eps       ncg     rms          rms(c)
DAV:   1    -0.711257414657E+03   -0.18082E-05   -0.16693E-06  5256   0.292E-03    0.131E-03
RMM:   2    -0.711257414794E+03   -0.13729E-06   -0.72773E-07  4572   0.203E-03
  64 F= -.71125741E+03 E0= -.71124832E+03  d E =-.785536E-04
       N       E                     dE             d eps       ncg     rms          rms(c)
DAV:   1    -0.711257299158E+03    0.11550E-03   -0.43046E-02 11122   0.315E-01    0.352E-02
RMM:   2    -0.711257442862E+03   -0.14370E-03   -0.14076E-03 13209   0.833E-02    0.505E-02
RMM:   3    -0.711257476114E+03   -0.33251E-04   -0.38766E-04 13972   0.361E-02    0.409E-02
RMM:   4    -0.711257468848E+03    0.72655E-05   -0.50423E-05  7650   0.144E-02
  65 F= -.71125747E+03 E0= -.71124839E+03  d E =-.540540E-04
       N       E                     dE             d eps       ncg     rms          rms(c)
DAV:   1    -0.711257443159E+03    0.32954E-04   -0.35876E-03 11400   0.925E-02    0.160E-02
RMM:   2    -0.711257457831E+03   -0.14671E-04   -0.15946E-04 12766   0.280E-02    0.128E-02
RMM:   3    -0.711257462398E+03   -0.45677E-05   -0.38272E-05  6785   0.130E-02
  66 F= -.71125746E+03 E0= -.71124832E+03  d E =-.476042E-04
       N       E                     dE             d eps       ncg     rms          rms(c)
DAV:   1    -0.711257454573E+03    0.32579E-05   -0.20668E-03 11432   0.706E-02    0.123E-02
RMM:   2    -0.711257465542E+03   -0.10969E-04   -0.93864E-05 10297   0.217E-02    0.197E-02
RMM:   3    -0.711257464630E+03    0.91221E-06   -0.20744E-05  6464   0.974E-03
  67 F= -.71125746E+03 E0= -.71124838E+03  d E =-.498355E-04
       N       E                     dE             d eps       ncg     rms          rms(c)
DAV:   1    -0.711257460081E+03    0.54608E-05   -0.49708E-04 10552   0.357E-02    0.668E-03
RMM:   2    -0.711257462774E+03   -0.26931E-05   -0.29162E-05  6498   0.136E-02
  68 F= -.71125746E+03 E0= -.71124837E+03  d E =-.479800E-04
       N       E                     dE             d eps       ncg     rms          rms(c)
DAV:   1    -0.711257463624E+03   -0.35427E-05   -0.25193E-04 10824   0.255E-02    0.109E-02
RMM:   2    -0.711257479143E+03   -0.15519E-04   -0.30573E-05  6292   0.116E-02    0.462E-02
RMM:   3    -0.711257465339E+03    0.13804E-04   -0.73768E-06  5513   0.569E-03    0.433E-03
RMM:   4    -0.711257464614E+03    0.72470E-06   -0.14855E-06  5453   0.299E-03
  69 F= -.71125746E+03 E0= -.71124837E+03  d E =-.498200E-04
       N       E                     dE             d eps       ncg     rms          rms(c)
DAV:   1    -0.711257387468E+03    0.77870E-04   -0.29080E-02 11074   0.257E-01    0.338E-02
RMM:   2    -0.711257479652E+03   -0.92184E-04   -0.92715E-04 13016   0.668E-02    0.371E-02
RMM:   3    -0.711257503396E+03   -0.23744E-04   -0.25027E-04 12799   0.285E-02    0.351E-02
RMM:   4    -0.711257499153E+03    0.42429E-05   -0.38555E-05  6823   0.140E-02
  70 F= -.71125750E+03 E0= -.71124836E+03  d E =-.345389E-04
       N       E                     dE             d eps       ncg     rms          rms(c)
DAV:   1    -0.711257474167E+03    0.29228E-04   -0.34085E-03 11048   0.890E-02    0.161E-02
RMM:   2    -0.711257488952E+03   -0.14785E-04   -0.14091E-04 11415   0.251E-02    0.194E-02
RMM:   3    -0.711257490695E+03   -0.17424E-05   -0.32508E-05  6801   0.117E-02
  71 F= -.71125749E+03 E0= -.71124842E+03  d E =-.260807E-04
       N       E                     dE             d eps       ncg     rms          rms(c)
DAV:   1    -0.711257485932E+03    0.30199E-05   -0.19953E-03 11128   0.683E-02    0.113E-02
RMM:   2    -0.711257495332E+03   -0.93992E-05   -0.85333E-05  9591   0.201E-02
  72 F= -.71125750E+03 E0= -.71124842E+03  d E =-.307176E-04
       N       E                     dE             d eps       ncg     rms          rms(c)
DAV:   1    -0.711257491603E+03   -0.56703E-05   -0.48002E-04 10448   0.340E-02    0.125E-02
RMM:   2    -0.711257509406E+03   -0.17803E-04   -0.31728E-05  6292   0.115E-02    0.502E-02
RMM:   3    -0.711257493562E+03    0.15844E-04   -0.90356E-06  5609   0.607E-03    0.508E-03
RMM:   4    -0.711257492724E+03    0.83784E-06   -0.20326E-06  5553   0.341E-03
  73 F= -.71125749E+03 E0= -.71124840E+03  d E =-.281101E-04
       N       E                     dE             d eps       ncg     rms          rms(c)
DAV:   1    -0.711257493717E+03   -0.15455E-06   -0.11829E-04 10624   0.165E-02    0.345E-03
RMM:   2    -0.711257494347E+03   -0.63079E-06   -0.51176E-06  5296   0.493E-03
  74 F= -.71125749E+03 E0= -.71124838E+03  d E =-.297333E-04
