Ga48 O72                                
    1.000000000000000     
     0.0000000000000000   12.2804734172212839    0.0000000000000000
     9.1427020537309431    0.0000000000000000    0.0000000000000000
     0.0000000000000000   -2.7682617730220320  -11.3006977184464645
   Ga   O    P 
    47    71     1
Direct
  0.6632717470831295  0.9935413661775598  0.1524445157938104
  0.6598116623662733  0.9992234850321324  0.6585916819375939
  0.6632717470831295  0.3397919671557759  0.1524445157938104
  0.6598116623662733  0.3341098483012033  0.6585916819375939
  0.6599177750786893  0.6666666666666643  0.1557656172204460
  0.6613199457667349  0.6666666666666643  0.6552642863357718
  0.8418927217168815  0.1666666666666643  0.8459786467905488
  0.8453794408230948  0.5009127492856180  0.3354949293703982
  0.8426356047094927  0.4998865997071604  0.8439396416625939
  0.8453794408230948  0.8324205840477177  0.3354949293703982
  0.8426356047094927  0.8334467336261753  0.8439396416625939
  0.5903289841177468  0.1666666666666643  0.4025050753038926
  0.5922378964212101  0.1666666666666643  0.8999230472030746
  0.5927200960943253  0.5003930564592878  0.3974598238961207
  0.5893475258016494  0.5012882290555822  0.8939922941188740
  0.5927200960943253  0.8329402768740479  0.3974598238961207
  0.5893475258016494  0.8320451042777464  0.8939922941188740
  0.9121315357344173  0.9987863027387007  0.1035515468019454
  0.9114176487243597  0.0009617006646963  0.6072990789753732
  0.9121315357344173  0.3345470305946350  0.1035515468019454
  0.9114176487243597  0.3323716326686394  0.6072990789753732
  0.9121394432690764  0.6666666666666643  0.0997195362054271
  0.9084517343196765  0.6666666666666643  0.6001757940176304
  0.1622880207885089  0.1666666666666643  0.1587232380717793
  0.1632509318949928  0.1666666666666643  0.6559093850576687
  0.1617034165191527  0.4995120338609951  0.1584597451209717
  0.1595479516016169  0.4989365814837399  0.6532778285900491
  0.1617034165191527  0.8338212994723406  0.1584597451209717
  0.1595479516016169  0.8343967518495958  0.6532778285900491
  0.3409255407788550  0.9994924283642561  0.3440802654340587
  0.3413484647423815  0.9999467608173660  0.8439951929514464
  0.3409255407788550  0.3338409049690796  0.3440802654340587
  0.3413484647423815  0.3333865725159697  0.8439951929514464
  0.3419059358016767  0.6666666666666643  0.3443558692211965
  0.3393419645802425  0.6666666666666643  0.8431368872596678
  0.0866355370609000  0.0314308924606550  0.3956981302486966
  0.0928351824458034  0.0000100234032061  0.8982929533967905
  0.0866355370609000  0.3019024408726807  0.3956981302486966
  0.0928351824458034  0.3333233099301296  0.8982929533967905
  0.0871938944054449  0.6666666666666643  0.3955005941698388
  0.0930185984442957  0.6666666666666643  0.8984078309156516
  0.4126034344983935  0.1666666666666643  0.1039320999801205
  0.4107137013672286  0.1666666666666643  0.6036039184271047
  0.4115424613291836  0.4990955271415274  0.1035068637400656
  0.4100343367976365  0.5006445977322116  0.6031413489358144
  0.4115424613291836  0.8342378061918083  0.1035068637400656
  0.4100343367976365  0.8326887356011241  0.6031413489358144
  0.9978896781104467  0.1666666666666643  0.1376084846154981
  0.9984955341512105  0.1666666666666643  0.6223329877549162
  0.9997379484453148  0.5009859545666302  0.1253250783264548
  0.9953313068322771  0.4992829950767685  0.6244142342789445
  0.9997379484453148  0.8323473787667055  0.1253250783264548
  0.9953313068322771  0.8340503382565672  0.6244142342789445
  0.5054374230081891  0.0000032306940625  0.3721014615574703
  0.5043617847814801  0.0005267496357391  0.8737416150807249
  0.5054374230081891  0.3333301026392732  0.3721014615574703
  0.5043617847814801  0.3328065836975966  0.8737416150807249
  0.5053238046802235  0.6666666666666643  0.3733983889243717
  0.5012940340623757  0.6666666666666643  0.8685841338276461
  0.6915346730042486  0.1666666666666643  0.2981805877965940
  0.6739735118185735  0.1666666666666643  0.7831796550158856
  0.6754317761297415  0.5008574428337411  0.2815890954544784
  0.6739502797304198  0.5000944032872496  0.7797042580873494
  0.6754317761297415  0.8324758904995946  0.2815890954544784
  0.6739502797304198  0.8332389300460861  0.7797042580873494
  0.8242232811683081  0.9806361264532271  0.2109458911145410
  0.8284070458173431  0.0010400438680023  0.7210254060964090
  0.8242232811683081  0.3526972068801086  0.2109458911145410
  0.8284070458173431  0.3322932894653334  0.7210254060964090
  0.8302213676339605  0.6666666666666643  0.2162607246801684
  0.8288987575171802  0.6666666666666643  0.7187675342859379
  0.8263281913388454  0.0172047056805837  0.4487860099200773
  0.8342642702906744  0.9999952749300434  0.9469876739865484
  0.8263281913388454  0.3161286276527520  0.4487860099200773
  0.8342642702906744  0.3333380584032923  0.9469876739865484
  0.8373496653513399  0.6666666666666643  0.4414890449146043
  0.8327644467096462  0.6666666666666643  0.9445236618455937
  0.6688095678798689  0.1666666666666643  0.0582648621344219
  0.6676655978939010  0.1666666666666643  0.5579213144302884
  0.6651524411696172  0.5044409711120466  0.0500426421501956
  0.6718035672964007  0.4989473854137927  0.5537151309653439
  0.6651524411696172  0.8288923622212891  0.0500426421501956
  0.6718035672964007  0.8343859479195430  0.5537151309653439
  0.5018762953492200  0.0006152857007109  0.1311892745812671
  0.4978379929533006  0.9993569278485950  0.6283395516567154
  0.5018762953492200  0.3327180476326248  0.1311892745812671
  0.4978379929533006  0.3339764054847407  0.6283395516567154
  0.4980143907495034  0.6666666666666643  0.1283626967010889
  0.4990280593871006  0.6666666666666643  0.6269245373702006
  0.0043350225440761  0.1666666666666643  0.8725895529658843
  0.0062804996694297  0.4873225409955921  0.3746817191183212
  0.0047701700659744  0.4999742757173493  0.8714367549816515
  0.0062804996694297  0.8460107923377436  0.3746817191183212
  0.0047701700659744  0.8333590576159864  0.8714367549816515
  0.1748370488582580  0.9988790775260696  0.2797757534086145
  0.1734176744248117  0.0005045296385333  0.7805464328731304
  0.1748370488582580  0.3344542558072661  0.2797757534086145
  0.1734176744248117  0.3328288036948024  0.7805464328731304
  0.1728676844833785  0.6666666666666643  0.2813795748430010
  0.1722429984154843  0.6666666666666643  0.7789371060172812
  0.3310584022522036  0.1666666666666643  0.2204897800593599
  0.3302524400099287  0.1666666666666643  0.7212950492683206
  0.3301633913980737  0.5004295459996584  0.2205214204280281
  0.3279634970341263  0.5001247015256283  0.7195644399620207
  0.3301633913980737  0.8329037873336773  0.2205214204280281
  0.3279634970341263  0.8332086318077074  0.7195644399620207
  0.3359175808085340  0.1666666666666643  0.4466866198837707
  0.3348985898676631  0.1666666666666643  0.9476135904013958
  0.3353639175290439  0.5003925304203349  0.4464961647650654
  0.3338402378363057  0.4994264184018746  0.9469794818082917
  0.3353639175290439  0.8329408029130008  0.4464961647650654
  0.3338402378363057  0.8339069149314611  0.9469794818082917
  0.1689685155458704  0.0009612411545774  0.0544779559603299
  0.1690692020483482  0.9999781724197163  0.5541651547544433
  0.1689685155458704  0.3323720921787583  0.0544779559603299
  0.1690692020483482  0.3333551609136194  0.5541651547544433
  0.1705729358777717  0.6666666666666643  0.0548566287924217
  0.1653006966187931  0.6666666666666643  0.5521884166651176
  0.8333120550344546  0.1666666666666643  0.3630715260443935
 
  0.00000000E+00  0.00000000E+00  0.00000000E+00
  0.00000000E+00  0.00000000E+00  0.00000000E+00
  0.00000000E+00  0.00000000E+00  0.00000000E+00
  0.00000000E+00  0.00000000E+00  0.00000000E+00
  0.00000000E+00  0.00000000E+00  0.00000000E+00
  0.00000000E+00  0.00000000E+00  0.00000000E+00
  0.00000000E+00  0.00000000E+00  0.00000000E+00
  0.00000000E+00  0.00000000E+00  0.00000000E+00
  0.00000000E+00  0.00000000E+00  0.00000000E+00
  0.00000000E+00  0.00000000E+00  0.00000000E+00
  0.00000000E+00  0.00000000E+00  0.00000000E+00
  0.00000000E+00  0.00000000E+00  0.00000000E+00
  0.00000000E+00  0.00000000E+00  0.00000000E+00
  0.00000000E+00  0.00000000E+00  0.00000000E+00
  0.00000000E+00  0.00000000E+00  0.00000000E+00
  0.00000000E+00  0.00000000E+00  0.00000000E+00
  0.00000000E+00  0.00000000E+00  0.00000000E+00
  0.00000000E+00  0.00000000E+00  0.00000000E+00
  0.00000000E+00  0.00000000E+00  0.00000000E+00
  0.00000000E+00  0.00000000E+00  0.00000000E+00
  0.00000000E+00  0.00000000E+00  0.00000000E+00
  0.00000000E+00  0.00000000E+00  0.00000000E+00
  0.00000000E+00  0.00000000E+00  0.00000000E+00
  0.00000000E+00  0.00000000E+00  0.00000000E+00
  0.00000000E+00  0.00000000E+00  0.00000000E+00
  0.00000000E+00  0.00000000E+00  0.00000000E+00
  0.00000000E+00  0.00000000E+00  0.00000000E+00
  0.00000000E+00  0.00000000E+00  0.00000000E+00
  0.00000000E+00  0.00000000E+00  0.00000000E+00
  0.00000000E+00  0.00000000E+00  0.00000000E+00
  0.00000000E+00  0.00000000E+00  0.00000000E+00
  0.00000000E+00  0.00000000E+00  0.00000000E+00
  0.00000000E+00  0.00000000E+00  0.00000000E+00
  0.00000000E+00  0.00000000E+00  0.00000000E+00
  0.00000000E+00  0.00000000E+00  0.00000000E+00
  0.00000000E+00  0.00000000E+00  0.00000000E+00
  0.00000000E+00  0.00000000E+00  0.00000000E+00
  0.00000000E+00  0.00000000E+00  0.00000000E+00
  0.00000000E+00  0.00000000E+00  0.00000000E+00
  0.00000000E+00  0.00000000E+00  0.00000000E+00
  0.00000000E+00  0.00000000E+00  0.00000000E+00
  0.00000000E+00  0.00000000E+00  0.00000000E+00
  0.00000000E+00  0.00000000E+00  0.00000000E+00
  0.00000000E+00  0.00000000E+00  0.00000000E+00
  0.00000000E+00  0.00000000E+00  0.00000000E+00
  0.00000000E+00  0.00000000E+00  0.00000000E+00
  0.00000000E+00  0.00000000E+00  0.00000000E+00
  0.00000000E+00  0.00000000E+00  0.00000000E+00
  0.00000000E+00  0.00000000E+00  0.00000000E+00
  0.00000000E+00  0.00000000E+00  0.00000000E+00
  0.00000000E+00  0.00000000E+00  0.00000000E+00
  0.00000000E+00  0.00000000E+00  0.00000000E+00
  0.00000000E+00  0.00000000E+00  0.00000000E+00
  0.00000000E+00  0.00000000E+00  0.00000000E+00
  0.00000000E+00  0.00000000E+00  0.00000000E+00
  0.00000000E+00  0.00000000E+00  0.00000000E+00
  0.00000000E+00  0.00000000E+00  0.00000000E+00
  0.00000000E+00  0.00000000E+00  0.00000000E+00
  0.00000000E+00  0.00000000E+00  0.00000000E+00
  0.00000000E+00  0.00000000E+00  0.00000000E+00
  0.00000000E+00  0.00000000E+00  0.00000000E+00
  0.00000000E+00  0.00000000E+00  0.00000000E+00
  0.00000000E+00  0.00000000E+00  0.00000000E+00
  0.00000000E+00  0.00000000E+00  0.00000000E+00
  0.00000000E+00  0.00000000E+00  0.00000000E+00
  0.00000000E+00  0.00000000E+00  0.00000000E+00
  0.00000000E+00  0.00000000E+00  0.00000000E+00
  0.00000000E+00  0.00000000E+00  0.00000000E+00
  0.00000000E+00  0.00000000E+00  0.00000000E+00
  0.00000000E+00  0.00000000E+00  0.00000000E+00
  0.00000000E+00  0.00000000E+00  0.00000000E+00
  0.00000000E+00  0.00000000E+00  0.00000000E+00
  0.00000000E+00  0.00000000E+00  0.00000000E+00
  0.00000000E+00  0.00000000E+00  0.00000000E+00
  0.00000000E+00  0.00000000E+00  0.00000000E+00
  0.00000000E+00  0.00000000E+00  0.00000000E+00
  0.00000000E+00  0.00000000E+00  0.00000000E+00
  0.00000000E+00  0.00000000E+00  0.00000000E+00
  0.00000000E+00  0.00000000E+00  0.00000000E+00
  0.00000000E+00  0.00000000E+00  0.00000000E+00
  0.00000000E+00  0.00000000E+00  0.00000000E+00
  0.00000000E+00  0.00000000E+00  0.00000000E+00
  0.00000000E+00  0.00000000E+00  0.00000000E+00
  0.00000000E+00  0.00000000E+00  0.00000000E+00
  0.00000000E+00  0.00000000E+00  0.00000000E+00
  0.00000000E+00  0.00000000E+00  0.00000000E+00
  0.00000000E+00  0.00000000E+00  0.00000000E+00
  0.00000000E+00  0.00000000E+00  0.00000000E+00
  0.00000000E+00  0.00000000E+00  0.00000000E+00
  0.00000000E+00  0.00000000E+00  0.00000000E+00
  0.00000000E+00  0.00000000E+00  0.00000000E+00
  0.00000000E+00  0.00000000E+00  0.00000000E+00
  0.00000000E+00  0.00000000E+00  0.00000000E+00
  0.00000000E+00  0.00000000E+00  0.00000000E+00
  0.00000000E+00  0.00000000E+00  0.00000000E+00
  0.00000000E+00  0.00000000E+00  0.00000000E+00
  0.00000000E+00  0.00000000E+00  0.00000000E+00
  0.00000000E+00  0.00000000E+00  0.00000000E+00
  0.00000000E+00  0.00000000E+00  0.00000000E+00
  0.00000000E+00  0.00000000E+00  0.00000000E+00
  0.00000000E+00  0.00000000E+00  0.00000000E+00
  0.00000000E+00  0.00000000E+00  0.00000000E+00
  0.00000000E+00  0.00000000E+00  0.00000000E+00
  0.00000000E+00  0.00000000E+00  0.00000000E+00
  0.00000000E+00  0.00000000E+00  0.00000000E+00
  0.00000000E+00  0.00000000E+00  0.00000000E+00
  0.00000000E+00  0.00000000E+00  0.00000000E+00
  0.00000000E+00  0.00000000E+00  0.00000000E+00
  0.00000000E+00  0.00000000E+00  0.00000000E+00
  0.00000000E+00  0.00000000E+00  0.00000000E+00
  0.00000000E+00  0.00000000E+00  0.00000000E+00
  0.00000000E+00  0.00000000E+00  0.00000000E+00
  0.00000000E+00  0.00000000E+00  0.00000000E+00
  0.00000000E+00  0.00000000E+00  0.00000000E+00
  0.00000000E+00  0.00000000E+00  0.00000000E+00
  0.00000000E+00  0.00000000E+00  0.00000000E+00
  0.00000000E+00  0.00000000E+00  0.00000000E+00
  0.00000000E+00  0.00000000E+00  0.00000000E+00
  0.00000000E+00  0.00000000E+00  0.00000000E+00
