Ga48 O72                                
    1.000000000000000     
     0.0000000000000000   12.2804734172212839    0.0000000000000000
     9.1427020537309431    0.0000000000000000    0.0000000000000000
     0.0000000000000000   -2.7682617730220320  -11.3006977184464645
   Ga   O    P 
    47    71     1
Direct
  0.6657183400931572  0.0015417688511405  0.1555585546735614
  0.6620658819928096  0.9992761868164095  0.6638709712143012
  0.6657183400931572  0.3317915644821952  0.1555585546735614
  0.6620658819928096  0.3340571465169262  0.6638709712143012
  0.6586834847815624  0.6666666666666643  0.1479608852987297
  0.6559930994952765  0.6666666666666643  0.6685577611709022
  0.8415751299970253  0.1666666666666643  0.8436820631429214
  0.8377063692631026  0.4960940892884267  0.3384867040209940
  0.8426096906592164  0.4985138037543209  0.8444846651841260
  0.8377063692631026  0.8372392440449090  0.3384867040209940
  0.8426096906592164  0.8348195295790148  0.8444846651841260
  0.6182625169157276  0.1666666666666643  0.3980561052596201
  0.5874819594841441  0.1666666666666643  0.8997912379490103
  0.6210376051924626  0.4928216585521739  0.4054212378021802
  0.5810078983696769  0.4991877605924415  0.8952948680168973
  0.6210376051924626  0.8405116747811618  0.4054212378021802
  0.5810078983696769  0.8341455727408942  0.8952948680168973
  0.9148759151548234  0.0012577281258999  0.1068976676501308
  0.8879611010712765  0.0381560635501685  0.5750626677784183
  0.9148759151548234  0.3320756052074358  0.1068976676501308
  0.8879611010712765  0.2951772697831672  0.5750626677784183
  0.9147336343824861  0.6666666666666643  0.1062679480309399
  0.9062117794300093  0.6666666666666643  0.5964310353682336
  0.1689937476328538  0.1666666666666643  0.1641115366404478
  0.1628049075962110  0.1666666666666643  0.6391330350432796
  0.1686142350099615  0.4997640789605171  0.1642234442979742
  0.1430939780110663  0.4964500979195208  0.6517656634480105
  0.1686142350099615  0.8335692543728186  0.1642234442979742
  0.1430939780110663  0.8368832354138220  0.6517656634480105
  0.3573434371326414  0.9994274895919375  0.3486204503081254
  0.3322356594447200  0.9975887049993517  0.8421121894569623
  0.3573434371326414  0.3339058437413982  0.3486204503081254
  0.3322356594447200  0.3357446283339840  0.8421121894569623
  0.3660322350990697  0.6666666666666643  0.3481658573069950
  0.3303745709983090  0.6666666666666643  0.8376586395615462
  0.0855908044104368  0.0045461735045151  0.3956272041671625
  0.0939559189151353  0.0023844738878793  0.8999575484564062
  0.0855908044104368  0.3287871598288206  0.3956272041671625
  0.0939559189151353  0.3309488594454564  0.8999575484564062
  0.0950185791186655  0.6666666666666643  0.3958725364537941
  0.0929617402292635  0.6666666666666643  0.9029467798469781
  0.4101107463928457  0.1666666666666643  0.0982412347427299
  0.4117768881140194  0.1666666666666643  0.6073112446455085
  0.4105458881427140  0.4976223544472731  0.0987919030636562
  0.4071264953971863  0.4980070944057218  0.6071663192411378
  0.4105458881427140  0.8357109788860626  0.0987919030636562
  0.4071264953971863  0.8353262389276139  0.6071663192411378
  0.0057630239861126  0.1666666666666643  0.1259613611673913
  0.0252785215051574  0.1666666666666643  0.6636433280621006
  0.0049961147516484  0.5002076711730510  0.1273101555275460
  0.9803238711445985  0.4818999809127931  0.6092363367111204
  0.0049961147516484  0.8331256621602847  0.1273101555275460
  0.9803238711445985  0.8514333524205426  0.6092363367111204
  0.5203025581787628  0.0008006835453287  0.3769976929530330
  0.4940512816557572  0.0022239729122902  0.8721781068004262
  0.5203025581787628  0.3325326497880070  0.3769976929530330
  0.4940512816557572  0.3311093604210456  0.8721781068004262
  0.5281763668952024  0.6666666666666643  0.3807431078012229
  0.4935008339256868  0.6666666666666643  0.8721741419812261
  0.6638465286106054  0.1666666666666643  0.2606803070519206
  0.6726506700341019  0.1666666666666643  0.7858820821438641
  0.6613247056854661  0.5077398540709055  0.2598401018585506
  0.6725425439459869  0.5025698954874258  0.7894630471732000
  0.6613247056854661  0.8255934792624302  0.2598401018585506
  0.6725425439459869  0.8307634378459099  0.7894630471732000
  0.8239491910319146  0.9701589238451547  0.2068400181462664
  0.8261496206548244  0.9963785610479050  0.7254493142703424
  0.8239491910319146  0.3631744094881810  0.2068400181462664
  0.8261496206548244  0.3369547722854307  0.7254493142703424
  0.8283036547398837  0.6666666666666643  0.2171217585270639
  0.8272933789243808  0.6666666666666643  0.7218767663471795
  0.7721547503569752  0.9568416749671869  0.4390055815816680
  0.8365029929261709  0.9994818502389791  0.9497542241380401
  0.7721547503569752  0.3764916583661488  0.4390055815816680
  0.8365029929261709  0.3338514830943566  0.9497542241380401
  0.8196385563060744  0.6666666666666643  0.4383004677060924
  0.8387892050195873  0.6666666666666643  0.9487571657179927
  0.6790115628178484  0.1666666666666643  0.0494764437866024
  0.6554441691089323  0.1666666666666643  0.5616287474327279
  0.6667829979836668  0.5018879588808218  0.0450864043889609
  0.6552268907400318  0.5049468659372067  0.5688675316242424
  0.6667829979836668  0.8314453744525139  0.0450864043889609
  0.6552268907400318  0.8283864673961290  0.5688675316242424
  0.5000489692516439  0.0009015394540199  0.1143598281988005
  0.4992553066498786  0.9991326916519228  0.6394244931984616
  0.5000489692516439  0.3324317938793158  0.1143598281988005
  0.4992553066498786  0.3342006416814129  0.6394244931984616
  0.4944452091927616  0.6666666666666643  0.1147360637291257
  0.4930455919626979  0.6666666666666643  0.6389856387383261
  0.0032185116997070  0.1666666666666643  0.8871733793781331
  0.0018717511277160  0.5060048424471688  0.3702015221135113
  0.0049068157838192  0.4990602934754449  0.8752002135948942
  0.0018717511277160  0.8273284908861669  0.3702015221135113
  0.0049068157838192  0.8342730398578908  0.8752002135948942
  0.1814130800962275  0.9969477412652807  0.2864295168749678
  0.1719931594661901  0.9847747657707018  0.7817179981554361
  0.1814130800962275  0.3363855920680550  0.2864295168749678
  0.1719931594661901  0.3485585675626339  0.7817179981554361
  0.1817522813603247  0.6666666666666643  0.2829136279911353
  0.1617572125917519  0.6666666666666643  0.7748952963046420
  0.3387883007907391  0.1666666666666643  0.2251792055696171
  0.3220486599249810  0.1666666666666643  0.7206429876121163
  0.3398594329119362  0.4998899951941240  0.2247928754353552
  0.3223970237141316  0.5027984211239485  0.7204061098486818
  0.3398594329119362  0.8334433381392117  0.2247928754353552
  0.3223970237141316  0.8305349122093872  0.7204061098486818
  0.3434597915348050  0.1666666666666643  0.4475355605991993
  0.3214876457488387  0.1666666666666643  0.9433693100682206
  0.3447009423063605  0.5023706822079532  0.4472080300017183
  0.3250502959071184  0.5030816396143152  0.9448267735065485
  0.3447009423063605  0.8309626511253825  0.4472080300017183
  0.3250502959071184  0.8302516937190205  0.9448267735065485
  0.1756947692026998  0.9986699246848900  0.0588582544846830
  0.1807780412797939  0.9915503817292759  0.5500761753579724
  0.1756947692026998  0.3346634086484457  0.0588582544846830
  0.1807780412797939  0.3417829516040598  0.5500761753579724
  0.1761664284028157  0.6666666666666643  0.0588268573083823
  0.1652195040839430  0.6666666666666643  0.5550487537568642
  0.9512050211381080  0.1666666666666643  0.3738801813083086
 
  0.00000000E+00  0.00000000E+00  0.00000000E+00
  0.00000000E+00  0.00000000E+00  0.00000000E+00
  0.00000000E+00  0.00000000E+00  0.00000000E+00
  0.00000000E+00  0.00000000E+00  0.00000000E+00
  0.00000000E+00  0.00000000E+00  0.00000000E+00
  0.00000000E+00  0.00000000E+00  0.00000000E+00
  0.00000000E+00  0.00000000E+00  0.00000000E+00
  0.00000000E+00  0.00000000E+00  0.00000000E+00
  0.00000000E+00  0.00000000E+00  0.00000000E+00
  0.00000000E+00  0.00000000E+00  0.00000000E+00
  0.00000000E+00  0.00000000E+00  0.00000000E+00
  0.00000000E+00  0.00000000E+00  0.00000000E+00
  0.00000000E+00  0.00000000E+00  0.00000000E+00
  0.00000000E+00  0.00000000E+00  0.00000000E+00
  0.00000000E+00  0.00000000E+00  0.00000000E+00
  0.00000000E+00  0.00000000E+00  0.00000000E+00
  0.00000000E+00  0.00000000E+00  0.00000000E+00
  0.00000000E+00  0.00000000E+00  0.00000000E+00
  0.00000000E+00  0.00000000E+00  0.00000000E+00
  0.00000000E+00  0.00000000E+00  0.00000000E+00
  0.00000000E+00  0.00000000E+00  0.00000000E+00
  0.00000000E+00  0.00000000E+00  0.00000000E+00
  0.00000000E+00  0.00000000E+00  0.00000000E+00
  0.00000000E+00  0.00000000E+00  0.00000000E+00
  0.00000000E+00  0.00000000E+00  0.00000000E+00
  0.00000000E+00  0.00000000E+00  0.00000000E+00
  0.00000000E+00  0.00000000E+00  0.00000000E+00
  0.00000000E+00  0.00000000E+00  0.00000000E+00
  0.00000000E+00  0.00000000E+00  0.00000000E+00
  0.00000000E+00  0.00000000E+00  0.00000000E+00
  0.00000000E+00  0.00000000E+00  0.00000000E+00
  0.00000000E+00  0.00000000E+00  0.00000000E+00
  0.00000000E+00  0.00000000E+00  0.00000000E+00
  0.00000000E+00  0.00000000E+00  0.00000000E+00
  0.00000000E+00  0.00000000E+00  0.00000000E+00
  0.00000000E+00  0.00000000E+00  0.00000000E+00
  0.00000000E+00  0.00000000E+00  0.00000000E+00
  0.00000000E+00  0.00000000E+00  0.00000000E+00
  0.00000000E+00  0.00000000E+00  0.00000000E+00
  0.00000000E+00  0.00000000E+00  0.00000000E+00
  0.00000000E+00  0.00000000E+00  0.00000000E+00
  0.00000000E+00  0.00000000E+00  0.00000000E+00
  0.00000000E+00  0.00000000E+00  0.00000000E+00
  0.00000000E+00  0.00000000E+00  0.00000000E+00
  0.00000000E+00  0.00000000E+00  0.00000000E+00
  0.00000000E+00  0.00000000E+00  0.00000000E+00
  0.00000000E+00  0.00000000E+00  0.00000000E+00
  0.00000000E+00  0.00000000E+00  0.00000000E+00
  0.00000000E+00  0.00000000E+00  0.00000000E+00
  0.00000000E+00  0.00000000E+00  0.00000000E+00
  0.00000000E+00  0.00000000E+00  0.00000000E+00
  0.00000000E+00  0.00000000E+00  0.00000000E+00
  0.00000000E+00  0.00000000E+00  0.00000000E+00
  0.00000000E+00  0.00000000E+00  0.00000000E+00
  0.00000000E+00  0.00000000E+00  0.00000000E+00
  0.00000000E+00  0.00000000E+00  0.00000000E+00
  0.00000000E+00  0.00000000E+00  0.00000000E+00
  0.00000000E+00  0.00000000E+00  0.00000000E+00
  0.00000000E+00  0.00000000E+00  0.00000000E+00
  0.00000000E+00  0.00000000E+00  0.00000000E+00
  0.00000000E+00  0.00000000E+00  0.00000000E+00
  0.00000000E+00  0.00000000E+00  0.00000000E+00
  0.00000000E+00  0.00000000E+00  0.00000000E+00
  0.00000000E+00  0.00000000E+00  0.00000000E+00
  0.00000000E+00  0.00000000E+00  0.00000000E+00
  0.00000000E+00  0.00000000E+00  0.00000000E+00
  0.00000000E+00  0.00000000E+00  0.00000000E+00
  0.00000000E+00  0.00000000E+00  0.00000000E+00
  0.00000000E+00  0.00000000E+00  0.00000000E+00
  0.00000000E+00  0.00000000E+00  0.00000000E+00
  0.00000000E+00  0.00000000E+00  0.00000000E+00
  0.00000000E+00  0.00000000E+00  0.00000000E+00
  0.00000000E+00  0.00000000E+00  0.00000000E+00
  0.00000000E+00  0.00000000E+00  0.00000000E+00
  0.00000000E+00  0.00000000E+00  0.00000000E+00
  0.00000000E+00  0.00000000E+00  0.00000000E+00
  0.00000000E+00  0.00000000E+00  0.00000000E+00
  0.00000000E+00  0.00000000E+00  0.00000000E+00
  0.00000000E+00  0.00000000E+00  0.00000000E+00
  0.00000000E+00  0.00000000E+00  0.00000000E+00
  0.00000000E+00  0.00000000E+00  0.00000000E+00
  0.00000000E+00  0.00000000E+00  0.00000000E+00
  0.00000000E+00  0.00000000E+00  0.00000000E+00
  0.00000000E+00  0.00000000E+00  0.00000000E+00
  0.00000000E+00  0.00000000E+00  0.00000000E+00
  0.00000000E+00  0.00000000E+00  0.00000000E+00
  0.00000000E+00  0.00000000E+00  0.00000000E+00
  0.00000000E+00  0.00000000E+00  0.00000000E+00
  0.00000000E+00  0.00000000E+00  0.00000000E+00
  0.00000000E+00  0.00000000E+00  0.00000000E+00
  0.00000000E+00  0.00000000E+00  0.00000000E+00
  0.00000000E+00  0.00000000E+00  0.00000000E+00
  0.00000000E+00  0.00000000E+00  0.00000000E+00
  0.00000000E+00  0.00000000E+00  0.00000000E+00
  0.00000000E+00  0.00000000E+00  0.00000000E+00
  0.00000000E+00  0.00000000E+00  0.00000000E+00
  0.00000000E+00  0.00000000E+00  0.00000000E+00
  0.00000000E+00  0.00000000E+00  0.00000000E+00
  0.00000000E+00  0.00000000E+00  0.00000000E+00
  0.00000000E+00  0.00000000E+00  0.00000000E+00
  0.00000000E+00  0.00000000E+00  0.00000000E+00
  0.00000000E+00  0.00000000E+00  0.00000000E+00
  0.00000000E+00  0.00000000E+00  0.00000000E+00
  0.00000000E+00  0.00000000E+00  0.00000000E+00
  0.00000000E+00  0.00000000E+00  0.00000000E+00
  0.00000000E+00  0.00000000E+00  0.00000000E+00
  0.00000000E+00  0.00000000E+00  0.00000000E+00
  0.00000000E+00  0.00000000E+00  0.00000000E+00
  0.00000000E+00  0.00000000E+00  0.00000000E+00
  0.00000000E+00  0.00000000E+00  0.00000000E+00
  0.00000000E+00  0.00000000E+00  0.00000000E+00
  0.00000000E+00  0.00000000E+00  0.00000000E+00
  0.00000000E+00  0.00000000E+00  0.00000000E+00
  0.00000000E+00  0.00000000E+00  0.00000000E+00
  0.00000000E+00  0.00000000E+00  0.00000000E+00
  0.00000000E+00  0.00000000E+00  0.00000000E+00
  0.00000000E+00  0.00000000E+00  0.00000000E+00
  0.00000000E+00  0.00000000E+00  0.00000000E+00
  0.00000000E+00  0.00000000E+00  0.00000000E+00
