Ga48 O72                                
    1.000000000000000     
     0.0000000000000000   12.2804734172212839    0.0000000000000000
     9.1427020537309431    0.0000000000000000    0.0000000000000000
     0.0000000000000000   -2.7682617730220320  -11.3006977184464645
   Ga   O    P 
    47    71     1
Direct
  0.6632717470831271 -0.0064586338224369  0.1524445157938072
  0.6598116623662722 -0.0007765149678647  0.6585916819375967
  0.6632717470831271  0.3397919671557725  0.1524445157938072
  0.6598116623662722  0.3341098483012006  0.6585916819375967
  0.6599177750786869  0.6666666666666643  0.1557656172204440
  0.6613199457667319  0.6666666666666643  0.6552642863357702
  0.8418927217168839  0.1666666666666643  0.8459786467905466
  0.8453794408230919  0.5009127492856198  0.3354949293704012
  0.8426356047094897  0.4998865997071590  0.8439396416625932
  0.8453794408230919  0.8324205840477159  0.3354949293704012
  0.8426356047094897  0.8334467336261764  0.8439396416625932
  0.5903289841177484  0.1666666666666643  0.4025050753038920
  0.5922378964212113  0.1666666666666643  0.8999230472030720
  0.5927200960943269  0.5003930564592897  0.3974598238961190
  0.5893475258016476  0.5012882290555857  0.8939922941188716
  0.5927200960943269  0.8329402768740459  0.3974598238961190
  0.5893475258016476  0.8320451042777498  0.8939922941188716
  0.9121315357344207 -0.0012136972613021  0.1035515468019488
  0.9114176487243572  0.0009617006646947  0.6072990789753713
  0.9121315357344207  0.3345470305946380  0.1035515468019488
  0.9114176487243572  0.3323716326686408  0.6072990789753713
  0.9121394432690787  0.6666666666666643  0.0997195362054304
  0.9084517343196784  0.6666666666666643  0.6001757940176325
  0.1622880207885088  0.1666666666666643  0.1587232380717820
  0.1632509318949903  0.1666666666666643  0.6559093850576714
  0.1617034165191553  0.4995120338609920  0.1584597451209718
  0.1595479516016166  0.4989365814837376  0.6532778285900457
  0.1617034165191553  0.8338212994723435  0.1584597451209718
  0.1595479516016166  0.8343967518495983  0.6532778285900457
  0.3409255407788519 -0.0005075716357409  0.3440802654340563
  0.3413484647423847 -0.0000532391826347  0.8439951929514441
  0.3409255407788519  0.3338409049690765  0.3440802654340563
  0.3413484647423847  0.3333865725159702  0.8439951929514441
  0.3419059358016737  0.6666666666666643  0.3443558692211999
  0.3393419645802442  0.6666666666666643  0.8431368872596667
  0.0866355370608971  0.0314308924606526  0.3956981302486972
  0.0928351824458009  0.0000100234032082  0.8982929533967882
  0.0866355370608971  0.3019024408726831  0.3956981302486972
  0.0928351824458009  0.3333233099301275  0.8982929533967882
  0.0871938944054478  0.6666666666666643  0.3955005941698394
  0.0930185984442983  0.6666666666666643  0.8984078309156543
  0.4126034344983912  0.1666666666666643  0.1039320999801185
  0.4107137013672262  0.1666666666666643  0.6036039184271061
  0.4115424613291836  0.4990955271415276  0.1035068637400656
  0.4100343367976373  0.5006445977322096  0.6031413489358118
  0.4115424613291836  0.8342378061918078  0.1035068637400656
  0.4100343367976373  0.8326887356011260  0.6031413489358118
  0.9978896781104449  0.1666666666666643  0.1376084846154985
 -0.0015044658487917  0.1666666666666643  0.6223329877549173
 -0.0002620515546844  0.5009859545666291  0.1253250783264546
  0.9953313068322773  0.4992829950767708  0.6244142342789473
 -0.0002620515546844  0.8323473787667065  0.1253250783264546
  0.9953313068322773  0.8340503382565647  0.6244142342789473
  0.5054374230081865  0.0000032306940633  0.3721014615574715
  0.5043617847814786  0.0005267496357360  0.8737416150807252
  0.5054374230081865  0.3333301026392723  0.3721014615574715
  0.5043617847814786  0.3328065836975996  0.8737416150807252
  0.5053238046802262  0.6666666666666643  0.3733983889243697
  0.5012940340623733  0.6666666666666643  0.8685841338276434
  0.6915346730042455  0.1666666666666643  0.2981805877965950
  0.6739735118185713  0.1666666666666643  0.7831796550158837
  0.6754317761297436  0.5008574428337426  0.2815890954544796
  0.6739502797304174  0.5000944032872504  0.7797042580873500
  0.6754317761297436  0.8324758904995930  0.2815890954544796
  0.6739502797304174  0.8332389300460854  0.7797042580873500
  0.8242232811683072 -0.0193638735467760  0.2109458911145433
  0.8284070458173451  0.0010400438679998  0.7210254060964124
  0.8242232811683072  0.3526972068801117  0.2109458911145433
  0.8284070458173451  0.3322932894653359  0.7210254060964124
  0.8302213676339582  0.6666666666666643  0.2162607246801671
  0.8288987575171815  0.6666666666666643  0.7187675342859400
  0.8263281913388459  0.0172047056805810  0.4487860099200762
  0.8342642702906764 -0.0000047250699535  0.9469876739865457
  0.8263281913388459  0.3161286276527546  0.4487860099200762
  0.8342642702906764  0.3333380584032895  0.9469876739865457
  0.8373496653513379  0.6666666666666643  0.4414890449146053
  0.8327644467096481  0.6666666666666643  0.9445236618455966
  0.6688095678798655  0.1666666666666643  0.0582648621344246
  0.6676655978938983  0.1666666666666643  0.5579213144302866
  0.6651524411696181  0.5044409711120476  0.0500426421501962
  0.6718035672964011  0.4989473854137900  0.5537151309653434
  0.6651524411696181  0.8288923622212880  0.0500426421501962
  0.6718035672964011  0.8343859479195450  0.5537151309653434
  0.5018762953492215  0.0006152857007126  0.1311892745812658
  0.4978379929533003 -0.0006430721514072  0.6283395516567155
  0.5018762953492215  0.3327180476326232  0.1311892745812658
  0.4978379929533002  0.3339764054847429  0.6283395516567155
  0.4980143907495068  0.6666666666666643  0.1283626967010904
  0.4990280593871028  0.6666666666666643  0.6269245373701973
  0.0043350225440747  0.1666666666666643  0.8725895529658811
  0.0062804996694274  0.4873225409955896  0.3746817191183207
  0.0047701700659714  0.4999742757173460  0.8714367549816482
  0.0062804996694274  0.8460107923377463  0.3746817191183207
  0.0047701700659714  0.8333590576159898  0.8714367549816482
  0.1748370488582558 -0.0011209224739274  0.2797757534086165
  0.1734176744248114  0.0005045296385350  0.7805464328731314
  0.1748370488582558  0.3344542558072630  0.2797757534086165
  0.1734176744248114  0.3328288036948011  0.7805464328731314
  0.1728676844833811  0.6666666666666643  0.2813795748430020
  0.1722429984154872  0.6666666666666643  0.7789371060172825
  0.3310584022522054  0.1666666666666643  0.2204897800593600
  0.3302524400099322  0.1666666666666643  0.7212950492683227
  0.3301633913980732  0.5004295459996565  0.2205214204280283
  0.3279634970341247  0.5001247015256297  0.7195644399620195
  0.3301633913980732  0.8329037873336793  0.2205214204280283
  0.3279634970341247  0.8332086318077060  0.7195644399620195
  0.3359175808085360  0.1666666666666643  0.4466866198837687
  0.3348985898676651  0.1666666666666643  0.9476135904013940
  0.3353639175290452  0.5003925304203374  0.4464961647650649
  0.3338402378363040  0.4994264184018715  0.9469794818082884
  0.3353639175290452  0.8329408029129983  0.4464961647650649
  0.3338402378363040  0.8339069149314644  0.9469794818082884
  0.1689685155458687  0.0009612411545750  0.0544779559603313
  0.1690692020483459 -0.0000218275802816  0.5541651547544398
  0.1689685155458687  0.3323720921787606  0.0544779559603313
  0.1690692020483459  0.3333551609136172  0.5541651547544398
  0.1705729358777708  0.6666666666666643  0.0548566287924239
  0.1653006966187956  0.6666666666666643  0.5521884166651204
 -0.1666879449655478  0.1666666666666643  0.3630715260443943
 
  0.00000000E+00  0.00000000E+00  0.00000000E+00
  0.00000000E+00  0.00000000E+00  0.00000000E+00
  0.00000000E+00  0.00000000E+00  0.00000000E+00
  0.00000000E+00  0.00000000E+00  0.00000000E+00
  0.00000000E+00  0.00000000E+00  0.00000000E+00
  0.00000000E+00  0.00000000E+00  0.00000000E+00
  0.00000000E+00  0.00000000E+00  0.00000000E+00
  0.00000000E+00  0.00000000E+00  0.00000000E+00
  0.00000000E+00  0.00000000E+00  0.00000000E+00
  0.00000000E+00  0.00000000E+00  0.00000000E+00
  0.00000000E+00  0.00000000E+00  0.00000000E+00
  0.00000000E+00  0.00000000E+00  0.00000000E+00
  0.00000000E+00  0.00000000E+00  0.00000000E+00
  0.00000000E+00  0.00000000E+00  0.00000000E+00
  0.00000000E+00  0.00000000E+00  0.00000000E+00
  0.00000000E+00  0.00000000E+00  0.00000000E+00
  0.00000000E+00  0.00000000E+00  0.00000000E+00
  0.00000000E+00  0.00000000E+00  0.00000000E+00
  0.00000000E+00  0.00000000E+00  0.00000000E+00
  0.00000000E+00  0.00000000E+00  0.00000000E+00
  0.00000000E+00  0.00000000E+00  0.00000000E+00
  0.00000000E+00  0.00000000E+00  0.00000000E+00
  0.00000000E+00  0.00000000E+00  0.00000000E+00
  0.00000000E+00  0.00000000E+00  0.00000000E+00
  0.00000000E+00  0.00000000E+00  0.00000000E+00
  0.00000000E+00  0.00000000E+00  0.00000000E+00
  0.00000000E+00  0.00000000E+00  0.00000000E+00
  0.00000000E+00  0.00000000E+00  0.00000000E+00
  0.00000000E+00  0.00000000E+00  0.00000000E+00
  0.00000000E+00  0.00000000E+00  0.00000000E+00
  0.00000000E+00  0.00000000E+00  0.00000000E+00
  0.00000000E+00  0.00000000E+00  0.00000000E+00
  0.00000000E+00  0.00000000E+00  0.00000000E+00
  0.00000000E+00  0.00000000E+00  0.00000000E+00
  0.00000000E+00  0.00000000E+00  0.00000000E+00
  0.00000000E+00  0.00000000E+00  0.00000000E+00
  0.00000000E+00  0.00000000E+00  0.00000000E+00
  0.00000000E+00  0.00000000E+00  0.00000000E+00
  0.00000000E+00  0.00000000E+00  0.00000000E+00
  0.00000000E+00  0.00000000E+00  0.00000000E+00
  0.00000000E+00  0.00000000E+00  0.00000000E+00
  0.00000000E+00  0.00000000E+00  0.00000000E+00
  0.00000000E+00  0.00000000E+00  0.00000000E+00
  0.00000000E+00  0.00000000E+00  0.00000000E+00
  0.00000000E+00  0.00000000E+00  0.00000000E+00
  0.00000000E+00  0.00000000E+00  0.00000000E+00
  0.00000000E+00  0.00000000E+00  0.00000000E+00
  0.00000000E+00  0.00000000E+00  0.00000000E+00
  0.00000000E+00  0.00000000E+00  0.00000000E+00
  0.00000000E+00  0.00000000E+00  0.00000000E+00
  0.00000000E+00  0.00000000E+00  0.00000000E+00
  0.00000000E+00  0.00000000E+00  0.00000000E+00
  0.00000000E+00  0.00000000E+00  0.00000000E+00
  0.00000000E+00  0.00000000E+00  0.00000000E+00
  0.00000000E+00  0.00000000E+00  0.00000000E+00
  0.00000000E+00  0.00000000E+00  0.00000000E+00
  0.00000000E+00  0.00000000E+00  0.00000000E+00
  0.00000000E+00  0.00000000E+00  0.00000000E+00
  0.00000000E+00  0.00000000E+00  0.00000000E+00
  0.00000000E+00  0.00000000E+00  0.00000000E+00
  0.00000000E+00  0.00000000E+00  0.00000000E+00
  0.00000000E+00  0.00000000E+00  0.00000000E+00
  0.00000000E+00  0.00000000E+00  0.00000000E+00
  0.00000000E+00  0.00000000E+00  0.00000000E+00
  0.00000000E+00  0.00000000E+00  0.00000000E+00
  0.00000000E+00  0.00000000E+00  0.00000000E+00
  0.00000000E+00  0.00000000E+00  0.00000000E+00
  0.00000000E+00  0.00000000E+00  0.00000000E+00
  0.00000000E+00  0.00000000E+00  0.00000000E+00
  0.00000000E+00  0.00000000E+00  0.00000000E+00
  0.00000000E+00  0.00000000E+00  0.00000000E+00
  0.00000000E+00  0.00000000E+00  0.00000000E+00
  0.00000000E+00  0.00000000E+00  0.00000000E+00
  0.00000000E+00  0.00000000E+00  0.00000000E+00
  0.00000000E+00  0.00000000E+00  0.00000000E+00
  0.00000000E+00  0.00000000E+00  0.00000000E+00
  0.00000000E+00  0.00000000E+00  0.00000000E+00
  0.00000000E+00  0.00000000E+00  0.00000000E+00
  0.00000000E+00  0.00000000E+00  0.00000000E+00
  0.00000000E+00  0.00000000E+00  0.00000000E+00
  0.00000000E+00  0.00000000E+00  0.00000000E+00
  0.00000000E+00  0.00000000E+00  0.00000000E+00
  0.00000000E+00  0.00000000E+00  0.00000000E+00
  0.00000000E+00  0.00000000E+00  0.00000000E+00
  0.00000000E+00  0.00000000E+00  0.00000000E+00
  0.00000000E+00  0.00000000E+00  0.00000000E+00
  0.00000000E+00  0.00000000E+00  0.00000000E+00
  0.00000000E+00  0.00000000E+00  0.00000000E+00
  0.00000000E+00  0.00000000E+00  0.00000000E+00
  0.00000000E+00  0.00000000E+00  0.00000000E+00
  0.00000000E+00  0.00000000E+00  0.00000000E+00
  0.00000000E+00  0.00000000E+00  0.00000000E+00
  0.00000000E+00  0.00000000E+00  0.00000000E+00
  0.00000000E+00  0.00000000E+00  0.00000000E+00
  0.00000000E+00  0.00000000E+00  0.00000000E+00
  0.00000000E+00  0.00000000E+00  0.00000000E+00
  0.00000000E+00  0.00000000E+00  0.00000000E+00
  0.00000000E+00  0.00000000E+00  0.00000000E+00
  0.00000000E+00  0.00000000E+00  0.00000000E+00
  0.00000000E+00  0.00000000E+00  0.00000000E+00
  0.00000000E+00  0.00000000E+00  0.00000000E+00
  0.00000000E+00  0.00000000E+00  0.00000000E+00
  0.00000000E+00  0.00000000E+00  0.00000000E+00
  0.00000000E+00  0.00000000E+00  0.00000000E+00
  0.00000000E+00  0.00000000E+00  0.00000000E+00
  0.00000000E+00  0.00000000E+00  0.00000000E+00
  0.00000000E+00  0.00000000E+00  0.00000000E+00
  0.00000000E+00  0.00000000E+00  0.00000000E+00
  0.00000000E+00  0.00000000E+00  0.00000000E+00
  0.00000000E+00  0.00000000E+00  0.00000000E+00
  0.00000000E+00  0.00000000E+00  0.00000000E+00
  0.00000000E+00  0.00000000E+00  0.00000000E+00
  0.00000000E+00  0.00000000E+00  0.00000000E+00
  0.00000000E+00  0.00000000E+00  0.00000000E+00
  0.00000000E+00  0.00000000E+00  0.00000000E+00
  0.00000000E+00  0.00000000E+00  0.00000000E+00
  0.00000000E+00  0.00000000E+00  0.00000000E+00
  0.00000000E+00  0.00000000E+00  0.00000000E+00
  0.00000000E+00  0.00000000E+00  0.00000000E+00
