Ga48 O72                                
    1.000000000000000     
     0.0000000000000000   12.2804734172212839    0.0000000000000000
     9.1427020537309431    0.0000000000000000    0.0000000000000000
     0.0000000000000000   -2.7682617730220320  -11.3006977184464645
   Ga   O    P 
    48    71     1
Direct
  0.6589159916029572  0.0000000000000000  0.1559714153965508
  0.6594187939819091  0.0000000000000000  0.6560213379878217
  0.6587403050569756  0.3339269151464691  0.1562886505907900
  0.6581543322174693  0.3333763279925451  0.6561708450014531
  0.6587403050569756  0.6660730848535305  0.1562886505907900
  0.6581543322174693  0.6666236720074554  0.6561708450014531
  0.8367562550381235  0.1679904913032720  0.3427087894571674
  0.8399972849064627  0.1672295347880190  0.8421759546457561
  0.8400912637120999  0.5000000000000000  0.3427053281733347
  0.8403163118639501  0.5000000000000000  0.8430310191437040
  0.8367562550381235  0.8320095086967283  0.3427087894571674
  0.8399972849064627  0.8327704652119814  0.8421759546457561
  0.5898455552574777  0.1671590493729458  0.3977928610458885
  0.5920911073787670  0.1665560877035252  0.8980113597553596
  0.5907569781629438  0.5000000000000000  0.3978933760345357
  0.5947671575529303  0.5000000000000000  0.8990711357107339
  0.5898455552574777  0.8328409506270541  0.3977928610458885
  0.5920911073787670  0.8334439122964751  0.8980113597553596
  0.9060756061221898  0.0000000000000000  0.0995675757958551
  0.9095240620838871  0.0000000000000000  0.6016491505214488
  0.9077652034099065  0.3329261960879544  0.1026479206078618
  0.9076753806449397  0.3335962154319472  0.6017972854181516
  0.9077652034099065  0.6670738039120454  0.1026479206078618
  0.9076753806449397  0.6664037845680527  0.6017972854181516
  0.1587495919656906  0.1663323985995649  0.1525042799318164
  0.1609805159189957  0.1779396858695594  0.6631916317797872
  0.1572667976128028  0.5000000000000000  0.1589598913515910
  0.1587960463044458  0.5000000000000000  0.6589083963964685
  0.1587495919656906  0.8336676014004349  0.1525042799318164
  0.1609805159189957  0.8220603141304405  0.6631916317797872
  0.3412167938220425  0.0000000000000000  0.3398332587182069
  0.3423968652955654  0.0000000000000000  0.8475653524668406
  0.3399493105155185  0.3345492670501123  0.3433718125050032
  0.3451390494926956  0.3345458444878531  0.8476106639693927
  0.3399493105155185  0.6654507329498875  0.3433718125050032
  0.3451390494926956  0.6654541555121470  0.8476106639693927
  0.0758291600957279  0.0000000000000000  0.3722985385968576
  0.0896034294439226  0.0000000000000000  0.8955587729945306
  0.0899438422769857  0.3330512100582475  0.3991053919187899
  0.0894763746366373  0.3334748283550248  0.8987584128625036
  0.0899438422769857  0.6669487899417529  0.3991053919187899
  0.0894763746366373  0.6665251716449752  0.8987584128625036
  0.4104288316238536  0.1668573282448509  0.1042549653683838
  0.4091624383725215  0.1659279705217536  0.6062516257683069
  0.4092333291659788  0.5000000000000000  0.1047170343394404
  0.4078787358851858  0.5000000000000000  0.6038310971049928
  0.4104288316238536  0.8331426717551491  0.1042549653683838
  0.4091624383725215  0.8340720294782463  0.6062516257683069
  0.9952202355530358  0.1658402113102425  0.1238077301254676
  0.9966011533476420  0.1673230033508665  0.6259110036593282
  0.9951369076432137  0.5000000000000000  0.1274448783896677
  0.9952991089912810  0.5000000000000000  0.6288973026261722
  0.9952202355530358  0.8341597886897577  0.1238077301254676
  0.9966011533476420  0.8326769966491334  0.6259110036593282
  0.5034122666548702  0.0000000000000000  0.3723332496704236
  0.5049806749199486  0.0000000000000000  0.8759190852806330
  0.5026585895369969  0.3337767670005164  0.3727097895725383
  0.5071492546377226  0.3347145587884023  0.8767235705069210
  0.5026585895369969  0.6662232329994833  0.3727097895725383
  0.5071492546377226  0.6652854412115973  0.8767235705069210
  0.6709734245299729  0.1666472128528271  0.2802740055054344
  0.6721208559849152  0.1668127995673793  0.7797514584615008
  0.6715971323057425  0.5000000000000000  0.2806492840860277
  0.6728807356584487  0.5000000000000000  0.7797766266890919
  0.6709734245299729  0.8333527871471734  0.2802740055054344
  0.6721208559849152  0.8331872004326204  0.7797514584615008
  0.8263863195528506  0.0000000000000000  0.2184577464281612
  0.8275185091994840  0.0000000000000000  0.7184164816842992
  0.8254833096584563  0.3343675898214671  0.2187563752915297
  0.8268362429592259  0.3331243617039397  0.7193076375820480
  0.8254833096584563  0.6656324101785326  0.2187563752915297
  0.8268362429592259  0.6668756382960601  0.7193076375820480
  0.8320238074660631  0.0000000000000000  0.4452982021433801
  0.8299532020240423  0.0000000000000000  0.9434383156609536
  0.8301358004950243  0.3341258609158836  0.4457768833581338
  0.8315695841254315  0.3333310583066393  0.9455222367666120
  0.8301358004950243  0.6658741390841161  0.4457768833581338
  0.8315695841254315  0.6666689416933608  0.9455222367666120
  0.6685924505366301  0.1667517114756739  0.0547060620504887
  0.6676466439853328  0.1668754876077556  0.5537921232602256
  0.6701099292319701  0.5000000000000000  0.0553830177296129
  0.6676165500488506  0.5000000000000000  0.5542462923186642
  0.6685924505366301  0.8332482885243260  0.0547060620504887
  0.6676466439853328  0.8331245123922444  0.5537921232602256
  0.4971113261244276  0.0000000000000000  0.1288922694827900
  0.4975938812657004  0.0000000000000000  0.6290031424047011
  0.4968536402589286  0.3339750082003591  0.1287703756546326
  0.4958887076124384  0.3335717406657624  0.6269933631271675
  0.4968536402589286  0.6660249917996405  0.1287703756546326
  0.4958887076124384  0.6664282593342375  0.6269933631271675
 -0.0035555493623043  0.1718678003360253  0.3634592458126251
  0.0025458910408134  0.1669192586457736  0.8708281288300501
  0.0023275508972280  0.5000000000000000  0.3726106855270203
  0.0026556467111526  0.5000000000000000  0.8731293717908164
 -0.0035555493623043  0.8281321996639746  0.3634592458126251
  0.0025458910408134  0.8330807413542266  0.8708281288300501
  0.1706897316349134  0.0000000000000000  0.2681157757765360
  0.1746289773860131  0.0000000000000000  0.7828116692950676
  0.1718489220083234  0.3319697629331031  0.2814621586001605
  0.1728625554082293  0.3352350081581806  0.7831647386931306
  0.1718489220083234  0.6680302370668969  0.2814621586001605
  0.1728625554082293  0.6647649918418190  0.7831647386931306
  0.3276546153302616  0.1676704270656741  0.2198730571295950
  0.3357702612151838  0.1736831098633982  0.7303157612862277
  0.3261368189528737  0.5000000000000000  0.2200867657655270
  0.3286450081321756  0.5000000000000000  0.7227751512302049
  0.3276546153302616  0.8323295729343262  0.2198730571295950
  0.3357702612151838  0.8263168901366016  0.7303157612862277
  0.3357416580516352  0.1657188731313572  0.4460210113109485
  0.3323468139014867  0.1676907739832337  0.9491849754482504
  0.3323571148385353  0.5000000000000000  0.4465043943304720
  0.3326950306208453  0.5000000000000000  0.9483045598283077
  0.3357416580516352  0.8342811268686434  0.4460210113109485
  0.3323468139014867  0.8323092260167663  0.9491849754482504
  0.1689442257616975  0.0000000000000000  0.0498049037737338
  0.1671089247845747  0.3348426150818062  0.0546364902294145
  0.1680410862011920  0.3405932925699128  0.5548284387890058
  0.1671089247845747  0.6651573849181935  0.0546364902294145
  0.1680410862011920  0.6594067074300866  0.5548284387890058
  0.2013113202407051  0.0000000000000000  0.5416800039991284
 
  0.00000000E+00  0.00000000E+00  0.00000000E+00
  0.00000000E+00  0.00000000E+00  0.00000000E+00
  0.00000000E+00  0.00000000E+00  0.00000000E+00
  0.00000000E+00  0.00000000E+00  0.00000000E+00
  0.00000000E+00  0.00000000E+00  0.00000000E+00
  0.00000000E+00  0.00000000E+00  0.00000000E+00
  0.00000000E+00  0.00000000E+00  0.00000000E+00
  0.00000000E+00  0.00000000E+00  0.00000000E+00
  0.00000000E+00  0.00000000E+00  0.00000000E+00
  0.00000000E+00  0.00000000E+00  0.00000000E+00
  0.00000000E+00  0.00000000E+00  0.00000000E+00
  0.00000000E+00  0.00000000E+00  0.00000000E+00
  0.00000000E+00  0.00000000E+00  0.00000000E+00
  0.00000000E+00  0.00000000E+00  0.00000000E+00
  0.00000000E+00  0.00000000E+00  0.00000000E+00
  0.00000000E+00  0.00000000E+00  0.00000000E+00
  0.00000000E+00  0.00000000E+00  0.00000000E+00
  0.00000000E+00  0.00000000E+00  0.00000000E+00
  0.00000000E+00  0.00000000E+00  0.00000000E+00
  0.00000000E+00  0.00000000E+00  0.00000000E+00
  0.00000000E+00  0.00000000E+00  0.00000000E+00
  0.00000000E+00  0.00000000E+00  0.00000000E+00
  0.00000000E+00  0.00000000E+00  0.00000000E+00
  0.00000000E+00  0.00000000E+00  0.00000000E+00
  0.00000000E+00  0.00000000E+00  0.00000000E+00
  0.00000000E+00  0.00000000E+00  0.00000000E+00
  0.00000000E+00  0.00000000E+00  0.00000000E+00
  0.00000000E+00  0.00000000E+00  0.00000000E+00
  0.00000000E+00  0.00000000E+00  0.00000000E+00
  0.00000000E+00  0.00000000E+00  0.00000000E+00
  0.00000000E+00  0.00000000E+00  0.00000000E+00
  0.00000000E+00  0.00000000E+00  0.00000000E+00
  0.00000000E+00  0.00000000E+00  0.00000000E+00
  0.00000000E+00  0.00000000E+00  0.00000000E+00
  0.00000000E+00  0.00000000E+00  0.00000000E+00
  0.00000000E+00  0.00000000E+00  0.00000000E+00
  0.00000000E+00  0.00000000E+00  0.00000000E+00
  0.00000000E+00  0.00000000E+00  0.00000000E+00
  0.00000000E+00  0.00000000E+00  0.00000000E+00
  0.00000000E+00  0.00000000E+00  0.00000000E+00
  0.00000000E+00  0.00000000E+00  0.00000000E+00
  0.00000000E+00  0.00000000E+00  0.00000000E+00
  0.00000000E+00  0.00000000E+00  0.00000000E+00
  0.00000000E+00  0.00000000E+00  0.00000000E+00
  0.00000000E+00  0.00000000E+00  0.00000000E+00
  0.00000000E+00  0.00000000E+00  0.00000000E+00
  0.00000000E+00  0.00000000E+00  0.00000000E+00
  0.00000000E+00  0.00000000E+00  0.00000000E+00
  0.00000000E+00  0.00000000E+00  0.00000000E+00
  0.00000000E+00  0.00000000E+00  0.00000000E+00
  0.00000000E+00  0.00000000E+00  0.00000000E+00
  0.00000000E+00  0.00000000E+00  0.00000000E+00
  0.00000000E+00  0.00000000E+00  0.00000000E+00
  0.00000000E+00  0.00000000E+00  0.00000000E+00
  0.00000000E+00  0.00000000E+00  0.00000000E+00
  0.00000000E+00  0.00000000E+00  0.00000000E+00
  0.00000000E+00  0.00000000E+00  0.00000000E+00
  0.00000000E+00  0.00000000E+00  0.00000000E+00
  0.00000000E+00  0.00000000E+00  0.00000000E+00
  0.00000000E+00  0.00000000E+00  0.00000000E+00
  0.00000000E+00  0.00000000E+00  0.00000000E+00
  0.00000000E+00  0.00000000E+00  0.00000000E+00
  0.00000000E+00  0.00000000E+00  0.00000000E+00
  0.00000000E+00  0.00000000E+00  0.00000000E+00
  0.00000000E+00  0.00000000E+00  0.00000000E+00
  0.00000000E+00  0.00000000E+00  0.00000000E+00
  0.00000000E+00  0.00000000E+00  0.00000000E+00
  0.00000000E+00  0.00000000E+00  0.00000000E+00
  0.00000000E+00  0.00000000E+00  0.00000000E+00
  0.00000000E+00  0.00000000E+00  0.00000000E+00
  0.00000000E+00  0.00000000E+00  0.00000000E+00
  0.00000000E+00  0.00000000E+00  0.00000000E+00
  0.00000000E+00  0.00000000E+00  0.00000000E+00
  0.00000000E+00  0.00000000E+00  0.00000000E+00
  0.00000000E+00  0.00000000E+00  0.00000000E+00
  0.00000000E+00  0.00000000E+00  0.00000000E+00
  0.00000000E+00  0.00000000E+00  0.00000000E+00
  0.00000000E+00  0.00000000E+00  0.00000000E+00
  0.00000000E+00  0.00000000E+00  0.00000000E+00
  0.00000000E+00  0.00000000E+00  0.00000000E+00
  0.00000000E+00  0.00000000E+00  0.00000000E+00
  0.00000000E+00  0.00000000E+00  0.00000000E+00
  0.00000000E+00  0.00000000E+00  0.00000000E+00
  0.00000000E+00  0.00000000E+00  0.00000000E+00
  0.00000000E+00  0.00000000E+00  0.00000000E+00
  0.00000000E+00  0.00000000E+00  0.00000000E+00
  0.00000000E+00  0.00000000E+00  0.00000000E+00
  0.00000000E+00  0.00000000E+00  0.00000000E+00
  0.00000000E+00  0.00000000E+00  0.00000000E+00
  0.00000000E+00  0.00000000E+00  0.00000000E+00
  0.00000000E+00  0.00000000E+00  0.00000000E+00
  0.00000000E+00  0.00000000E+00  0.00000000E+00
  0.00000000E+00  0.00000000E+00  0.00000000E+00
  0.00000000E+00  0.00000000E+00  0.00000000E+00
  0.00000000E+00  0.00000000E+00  0.00000000E+00
  0.00000000E+00  0.00000000E+00  0.00000000E+00
  0.00000000E+00  0.00000000E+00  0.00000000E+00
  0.00000000E+00  0.00000000E+00  0.00000000E+00
  0.00000000E+00  0.00000000E+00  0.00000000E+00
  0.00000000E+00  0.00000000E+00  0.00000000E+00
  0.00000000E+00  0.00000000E+00  0.00000000E+00
  0.00000000E+00  0.00000000E+00  0.00000000E+00
  0.00000000E+00  0.00000000E+00  0.00000000E+00
  0.00000000E+00  0.00000000E+00  0.00000000E+00
  0.00000000E+00  0.00000000E+00  0.00000000E+00
  0.00000000E+00  0.00000000E+00  0.00000000E+00
  0.00000000E+00  0.00000000E+00  0.00000000E+00
  0.00000000E+00  0.00000000E+00  0.00000000E+00
  0.00000000E+00  0.00000000E+00  0.00000000E+00
  0.00000000E+00  0.00000000E+00  0.00000000E+00
  0.00000000E+00  0.00000000E+00  0.00000000E+00
  0.00000000E+00  0.00000000E+00  0.00000000E+00
  0.00000000E+00  0.00000000E+00  0.00000000E+00
  0.00000000E+00  0.00000000E+00  0.00000000E+00
  0.00000000E+00  0.00000000E+00  0.00000000E+00
  0.00000000E+00  0.00000000E+00  0.00000000E+00
  0.00000000E+00  0.00000000E+00  0.00000000E+00
  0.00000000E+00  0.00000000E+00  0.00000000E+00
  0.00000000E+00  0.00000000E+00  0.00000000E+00
  0.00000000E+00  0.00000000E+00  0.00000000E+00
