Ga8 O12                                 
    1.000000000000000     
     0.0000000000000000   12.2804737091000007    0.0000000000000000
     9.1427011490000005    0.0000000000000000    0.0000000000000000
     0.0000000000000000   -2.7682616411000001  -11.3006974810000003
   Ga   O    Cu
    47    72     1
Direct
  0.6607900864068341  0.0006511120323012  0.1577890878409534
  0.6593442528228763  0.0000242475542933  0.6563110785893684
  0.6607820142895235  0.3326399116412304  0.1578275579595854
  0.6593463328942875  0.3333164064320968  0.6563139997659562
  0.6588534302908613  0.6666494095099651  0.1571856426565077
  0.6584778767604718  0.6666785498391263  0.6574685322152263
  0.8412278459242444  0.1666787702356416  0.8431393639955047
  0.8411183070922306  0.4982590508479490  0.3432169598389123
  0.8412034726807178  0.4998794170924654  0.8432759767234188
  0.8411231037217206  0.8351446484320775  0.3431435378917129
  0.8412057721105910  0.8334465646783187  0.8432371636566813
  0.5934714244791621  0.1666644856595170  0.3965114160840386
  0.5913383160402361  0.1666613531319427  0.8977035578298072
  0.5917764562658903  0.4998265139920335  0.3976791959622972
  0.5904740162420126  0.4999904772155617  0.8975772694983064
  0.5917635142226985  0.8334933959139050  0.3976712822196049
  0.5904406720291462  0.8332999748792176  0.8975380160307935
  0.9086476952232161  0.9992316326600417  0.1031991395833103
  0.9079406525622957  0.9992967424815475  0.5999829934300891
  0.9086360454182980  0.3340492584531560  0.1032544314916350
  0.9079607676900991  0.3341162560586213  0.6000387424184837
  0.9091452187468718  0.6666511226573490  0.1032149979347778
  0.9091472071283420  0.6666852817547024  0.6014329522230213
  0.1586988161023584  0.1666640795039740  0.1572467558691741
  0.1581978902834535  0.1666713697011275  0.6558601552258807
  0.1596227232710845  0.4998637376551542  0.1568066613088703
  0.1591084500002040  0.4999530039729976  0.6567378551204754
  0.1596385374366136  0.8334559853964123  0.1568058934948056
  0.1590891520962501  0.8333924576379061  0.6567379042472581
  0.3417536056251222  0.0002365282666545  0.3433701413580650
  0.3408758727969854  0.0003932840175835  0.8433870378461776
  0.3417554167282972  0.3330983965200929  0.3433708554706740
  0.3408779575374083  0.3329411929095230  0.8433890327393812
  0.3416187065206131  0.6666627904397302  0.3434920930442971
  0.3408777466475570  0.6666625631669731  0.8434488553645494
  0.0913735490605205  0.0011842144535876  0.3979123967395850
  0.0911547734334732  0.0000409521009459  0.8977759825818055
  0.0913718142155062  0.3321545205328391  0.3979157203324775
  0.0911556906217399  0.3332941516851378  0.8977815524551502
  0.0915615556510829  0.6666696418773768  0.3978740036668569
  0.0914807797394559  0.6666651456248687  0.8980071308075210
  0.4100019942980424  0.1666618852480966  0.1028452385751066
  0.4088984180800992  0.1666671864932781  0.6024346190290970
  0.4092660758579783  0.4996974402802365  0.1022059696354276
  0.4087169012554526  0.4997605280585091  0.6023856478502410
  0.4092782719760280  0.8336290192943494  0.1022060626052266
  0.4087031844361775  0.8335796009580037  0.6023821113674117
  0.9960027121706290  0.1666516639055047  0.1267182337223218
  0.9956437228457773  0.1666898874935825  0.6272280309218701
  0.9975788974283120  0.5004476358435497  0.1260836744031337
  0.9973890728070529  0.5003093631321889  0.6291552989451290
  0.9976013063350351  0.8328422946968388  0.1260579043326473
  0.9973553036639515  0.8330888909454330  0.6291120773552734
  0.5040901643042375  0.0002826865282657  0.3739114770610570
  0.5033212720464419  0.0003233680321273  0.8718351321592124
  0.5040943016619792  0.3330469442295012  0.3739089089954746
  0.5033214208882697  0.3329982477158211  0.8718466747756466
  0.5036479070038880  0.6666585751199392  0.3737620649631737
  0.5029156093403770  0.6666404104678421  0.8714213212101924
  0.6674255341578714  0.1666494372681413  0.2754508494377816
  0.6725802088566937  0.1666678877331833  0.7803342587521485
  0.6705798774976444  0.5019363255298188  0.2794289135258197
  0.6725004154543512  0.5001029404363777  0.7809074663757727
  0.6705788383981783  0.8313853226228574  0.2794316118223037
  0.6724845628684690  0.8332286466652405  0.7808868350065907
  0.8259438267115300  0.9902495901702295  0.2163475676219520
  0.8277228043933178  0.9999298920811839  0.7196798466867307
  0.8259840249461234  0.3428163064289507  0.2165451668744183
  0.8277221376851216  0.3334117656416780  0.7197442497124484
  0.8276484291993071  0.6665901961961751  0.2195332979077520
  0.8276002763002950  0.6666650634087574  0.7193366861510668
  0.8256767389970747  0.9911046329383595  0.4481064428669583
  0.8332059904990174  0.9999592748026842  0.9455451299495010
  0.8256021860126666  0.3425106373726692  0.4482915619268155
  0.8332059814421982  0.3333687660460640  0.9455998231575578
  0.8329615235028953  0.6667519465784579  0.4452320635306748
  0.8328364207160917  0.6666751673498510  0.9458791481619073
  0.6689845094259823  0.1666648508737723  0.0530761615257092
  0.6666175452935548  0.1666694397330986  0.5544113196842702
  0.6657539860812491  0.5006584805215155  0.0535496658244696
  0.6655635704635259  0.5009785469270582  0.5551546326490282
  0.6657026650064637  0.8326006831034647  0.0535161417915901
  0.6656022053753645  0.8323877896214782  0.5551356146119488
  0.4964446234481628  0.9997418927463144  0.1259038900670291
  0.4962182511366748  0.0000586075017210  0.6277769234045110
  0.4964368358999138  0.3335864525569789  0.1259048005238270
  0.4962213508640687  0.3332735364151631  0.6277816432387127
  0.4954188451901942  0.6666590838130517  0.1263902573066176
  0.4955214261185006  0.6666761362697216  0.6280245439991035
  0.0066570880083887  0.1666658193500226  0.3748203385493554
  0.0039638852444170  0.1666689484690096  0.8729129664204223
  0.0050421896402710  0.4998581025599975  0.3734338205144567
  0.0041184564764407  0.5001542608631055  0.8731645913203749
  0.0050483481029744  0.8334782682909463  0.3734136612205887
  0.0041282667935150  0.8331809879019261  0.8731541687427438
  0.1734968408646651  0.9995234669005981  0.2801966093008019
  0.1727245429573045  0.0004127032306513  0.7808315191690625
  0.1734918782193375  0.3338067661723798  0.2801988413868983
  0.1727262402856411  0.3329248030997576  0.7808341917940425
  0.1733848404300886  0.6666620424602101  0.2805600592991198
  0.1730881106145503  0.6666757612816951  0.7809719879206511
  0.3280369900272575  0.1666666346828691  0.2196404068693738
  0.3273162240564460  0.1666665509615726  0.7196150239779087
  0.3281236266775451  0.4998676495542611  0.2196760330037293
  0.3275575234002517  0.4998481338669194  0.7198624776650604
  0.3281299293090925  0.8334593489875957  0.2196729626502716
  0.3275566229641811  0.8334857149802559  0.7198645401413657
  0.3319319230896340  0.1666676353715246  0.4459253884721122
  0.3323943775256737  0.1666648840036729  0.9461234795451148
  0.3321219372833397  0.4998707918479113  0.4458166268134676
  0.3319354583409222  0.4997927049124655  0.9456337031714739
  0.3321190315897198  0.8334611884527519  0.4458106614289363
  0.3319415499031635  0.8335381081517141  0.9456346064731633
  0.1684594142457101  0.0003577648867861  0.0542008585543599
  0.1693094855272150  0.9993635395371427  0.5550272938498395
  0.1684590042491223  0.3329626100609175  0.0542014416904451
  0.1693090777169317  0.3339769471900311  0.5550265996135906
  0.1694341840103561  0.6666566354194643  0.0542665489880889
  0.1689748279218364  0.6666744863976248  0.5546460398619573
  0.8400184773714372  0.1667332137411393  0.3438226660755532
 
  0.00000000E+00  0.00000000E+00  0.00000000E+00
  0.00000000E+00  0.00000000E+00  0.00000000E+00
  0.00000000E+00  0.00000000E+00  0.00000000E+00
  0.00000000E+00  0.00000000E+00  0.00000000E+00
  0.00000000E+00  0.00000000E+00  0.00000000E+00
  0.00000000E+00  0.00000000E+00  0.00000000E+00
  0.00000000E+00  0.00000000E+00  0.00000000E+00
  0.00000000E+00  0.00000000E+00  0.00000000E+00
  0.00000000E+00  0.00000000E+00  0.00000000E+00
  0.00000000E+00  0.00000000E+00  0.00000000E+00
  0.00000000E+00  0.00000000E+00  0.00000000E+00
  0.00000000E+00  0.00000000E+00  0.00000000E+00
  0.00000000E+00  0.00000000E+00  0.00000000E+00
  0.00000000E+00  0.00000000E+00  0.00000000E+00
  0.00000000E+00  0.00000000E+00  0.00000000E+00
  0.00000000E+00  0.00000000E+00  0.00000000E+00
  0.00000000E+00  0.00000000E+00  0.00000000E+00
  0.00000000E+00  0.00000000E+00  0.00000000E+00
  0.00000000E+00  0.00000000E+00  0.00000000E+00
  0.00000000E+00  0.00000000E+00  0.00000000E+00
  0.00000000E+00  0.00000000E+00  0.00000000E+00
  0.00000000E+00  0.00000000E+00  0.00000000E+00
  0.00000000E+00  0.00000000E+00  0.00000000E+00
  0.00000000E+00  0.00000000E+00  0.00000000E+00
  0.00000000E+00  0.00000000E+00  0.00000000E+00
  0.00000000E+00  0.00000000E+00  0.00000000E+00
  0.00000000E+00  0.00000000E+00  0.00000000E+00
  0.00000000E+00  0.00000000E+00  0.00000000E+00
  0.00000000E+00  0.00000000E+00  0.00000000E+00
  0.00000000E+00  0.00000000E+00  0.00000000E+00
  0.00000000E+00  0.00000000E+00  0.00000000E+00
  0.00000000E+00  0.00000000E+00  0.00000000E+00
  0.00000000E+00  0.00000000E+00  0.00000000E+00
  0.00000000E+00  0.00000000E+00  0.00000000E+00
  0.00000000E+00  0.00000000E+00  0.00000000E+00
  0.00000000E+00  0.00000000E+00  0.00000000E+00
  0.00000000E+00  0.00000000E+00  0.00000000E+00
  0.00000000E+00  0.00000000E+00  0.00000000E+00
  0.00000000E+00  0.00000000E+00  0.00000000E+00
  0.00000000E+00  0.00000000E+00  0.00000000E+00
  0.00000000E+00  0.00000000E+00  0.00000000E+00
  0.00000000E+00  0.00000000E+00  0.00000000E+00
  0.00000000E+00  0.00000000E+00  0.00000000E+00
  0.00000000E+00  0.00000000E+00  0.00000000E+00
  0.00000000E+00  0.00000000E+00  0.00000000E+00
  0.00000000E+00  0.00000000E+00  0.00000000E+00
  0.00000000E+00  0.00000000E+00  0.00000000E+00
  0.00000000E+00  0.00000000E+00  0.00000000E+00
  0.00000000E+00  0.00000000E+00  0.00000000E+00
  0.00000000E+00  0.00000000E+00  0.00000000E+00
  0.00000000E+00  0.00000000E+00  0.00000000E+00
  0.00000000E+00  0.00000000E+00  0.00000000E+00
  0.00000000E+00  0.00000000E+00  0.00000000E+00
  0.00000000E+00  0.00000000E+00  0.00000000E+00
  0.00000000E+00  0.00000000E+00  0.00000000E+00
  0.00000000E+00  0.00000000E+00  0.00000000E+00
  0.00000000E+00  0.00000000E+00  0.00000000E+00
  0.00000000E+00  0.00000000E+00  0.00000000E+00
  0.00000000E+00  0.00000000E+00  0.00000000E+00
  0.00000000E+00  0.00000000E+00  0.00000000E+00
  0.00000000E+00  0.00000000E+00  0.00000000E+00
  0.00000000E+00  0.00000000E+00  0.00000000E+00
  0.00000000E+00  0.00000000E+00  0.00000000E+00
  0.00000000E+00  0.00000000E+00  0.00000000E+00
  0.00000000E+00  0.00000000E+00  0.00000000E+00
  0.00000000E+00  0.00000000E+00  0.00000000E+00
  0.00000000E+00  0.00000000E+00  0.00000000E+00
  0.00000000E+00  0.00000000E+00  0.00000000E+00
  0.00000000E+00  0.00000000E+00  0.00000000E+00
  0.00000000E+00  0.00000000E+00  0.00000000E+00
  0.00000000E+00  0.00000000E+00  0.00000000E+00
  0.00000000E+00  0.00000000E+00  0.00000000E+00
  0.00000000E+00  0.00000000E+00  0.00000000E+00
  0.00000000E+00  0.00000000E+00  0.00000000E+00
  0.00000000E+00  0.00000000E+00  0.00000000E+00
  0.00000000E+00  0.00000000E+00  0.00000000E+00
  0.00000000E+00  0.00000000E+00  0.00000000E+00
  0.00000000E+00  0.00000000E+00  0.00000000E+00
  0.00000000E+00  0.00000000E+00  0.00000000E+00
  0.00000000E+00  0.00000000E+00  0.00000000E+00
  0.00000000E+00  0.00000000E+00  0.00000000E+00
  0.00000000E+00  0.00000000E+00  0.00000000E+00
  0.00000000E+00  0.00000000E+00  0.00000000E+00
  0.00000000E+00  0.00000000E+00  0.00000000E+00
  0.00000000E+00  0.00000000E+00  0.00000000E+00
  0.00000000E+00  0.00000000E+00  0.00000000E+00
  0.00000000E+00  0.00000000E+00  0.00000000E+00
  0.00000000E+00  0.00000000E+00  0.00000000E+00
  0.00000000E+00  0.00000000E+00  0.00000000E+00
  0.00000000E+00  0.00000000E+00  0.00000000E+00
  0.00000000E+00  0.00000000E+00  0.00000000E+00
  0.00000000E+00  0.00000000E+00  0.00000000E+00
  0.00000000E+00  0.00000000E+00  0.00000000E+00
  0.00000000E+00  0.00000000E+00  0.00000000E+00
  0.00000000E+00  0.00000000E+00  0.00000000E+00
  0.00000000E+00  0.00000000E+00  0.00000000E+00
  0.00000000E+00  0.00000000E+00  0.00000000E+00
  0.00000000E+00  0.00000000E+00  0.00000000E+00
  0.00000000E+00  0.00000000E+00  0.00000000E+00
  0.00000000E+00  0.00000000E+00  0.00000000E+00
  0.00000000E+00  0.00000000E+00  0.00000000E+00
  0.00000000E+00  0.00000000E+00  0.00000000E+00
  0.00000000E+00  0.00000000E+00  0.00000000E+00
  0.00000000E+00  0.00000000E+00  0.00000000E+00
  0.00000000E+00  0.00000000E+00  0.00000000E+00
  0.00000000E+00  0.00000000E+00  0.00000000E+00
  0.00000000E+00  0.00000000E+00  0.00000000E+00
  0.00000000E+00  0.00000000E+00  0.00000000E+00
  0.00000000E+00  0.00000000E+00  0.00000000E+00
  0.00000000E+00  0.00000000E+00  0.00000000E+00
  0.00000000E+00  0.00000000E+00  0.00000000E+00
  0.00000000E+00  0.00000000E+00  0.00000000E+00
  0.00000000E+00  0.00000000E+00  0.00000000E+00
  0.00000000E+00  0.00000000E+00  0.00000000E+00
  0.00000000E+00  0.00000000E+00  0.00000000E+00
  0.00000000E+00  0.00000000E+00  0.00000000E+00
  0.00000000E+00  0.00000000E+00  0.00000000E+00
  0.00000000E+00  0.00000000E+00  0.00000000E+00
  0.00000000E+00  0.00000000E+00  0.00000000E+00
  0.00000000E+00  0.00000000E+00  0.00000000E+00
