 running    4 mpi-ranks, on    1 nodes
 distrk:  each k-point on    1 cores,    4 groups
 distr:  one band on    1 cores,    1 groups
 OpenACC runtime initialized ...    4 GPUs detected
 vasp.6.4.2 20Jul23 (build Nov 12 2023 22:16:35) complex                         
 POSCAR found type information on POSCAR GaO Cu
 POSCAR found :  3 types and     120 ions
 scaLAPACK will be used selectively (only on CPU)
 LDA part: xc-table for Pade appr. of Perdew
 POSCAR, INCAR and KPOINTS ok, starting setup
 FFT: planning ... GRIDC
 FFT: planning ... GRID_SOFT
 FFT: planning ... GRID
 WAVECAR not read
 initial charge from wavefunction
 entering main loop
       N       E                     dE             d eps       ncg     rms          rms(c)
DAV:   1     0.124515599511E+05    0.12452E+05   -0.58403E+05 10624   0.705E+03
DAV:   2    -0.309952668606E+05   -0.43447E+05   -0.42065E+05 13496   0.119E+03
DAV:   3    -0.354701758541E+05   -0.44749E+04   -0.40132E+04 14412   0.348E+02
DAV:   4    -0.359459627657E+05   -0.47579E+03   -0.40769E+03 17056   0.996E+01
DAV:   5    -0.359939332185E+05   -0.47970E+02   -0.43434E+02 19736   0.290E+01BRMIX: very serious problems
 the old and the new charge density differ
 old charge density:  1054.49994 new 1054.99978
BRMIX: very serious problems
 the old and the new charge density differ
 old charge density:  1054.49994 new 1054.99978
BRMIX: very serious problems
 the old and the new charge density differ
 old charge density:  1054.49994 new 1054.99978
BRMIX: very serious problems
 the old and the new charge density differ
 old charge density:  1054.49994 new 1054.99978
    0.710E+02
DAV:   6    -0.110470311967E+05    0.24947E+05   -0.18164E+04 14360   0.247E+02    0.422E+02
DAV:   7    -0.306949999390E+04    0.79775E+04   -0.96027E+03 15448   0.206E+02    0.208E+02
DAV:   8    -0.969970668479E+03    0.20995E+04   -0.73136E+03 15401   0.210E+02    0.137E+02
DAV:   9    -0.770827371887E+03    0.19914E+03   -0.95929E+02 12776   0.122E+02    0.744E+01
DAV:  10    -0.739584299160E+03    0.31243E+02   -0.10932E+03 14832   0.621E+01    0.418E+01
DAV:  11    -0.710914723966E+03    0.28670E+02   -0.13834E+02 15456   0.511E+01    0.203E+01
DAV:  12    -0.705994891281E+03    0.49198E+01   -0.46431E+01 15112   0.281E+01    0.918E+00
DAV:  13    -0.706499430140E+03   -0.50454E+00   -0.18411E+01 13144   0.123E+01    0.575E+00
DAV:  14    -0.706734517007E+03   -0.23509E+00   -0.72421E+00 15136   0.105E+01    0.437E+00
DAV:  15    -0.706583906233E+03    0.15061E+00   -0.17639E+00 14312   0.513E+00    0.294E+00
DAV:  16    -0.706610148045E+03   -0.26242E-01   -0.19776E+00 14824   0.308E+00    0.260E+00
DAV:  17    -0.706590611157E+03    0.19537E-01   -0.10254E+00 15056   0.360E+00    0.235E+00
DAV:  18    -0.706601453983E+03   -0.10843E-01   -0.10134E+00 15095   0.246E+00    0.213E+00
DAV:  19    -0.706587621959E+03    0.13832E-01   -0.62631E-01 14351   0.101E+00    0.190E+00
DAV:  20    -0.706582359556E+03    0.52624E-02   -0.46286E-01 13494   0.956E-01    0.159E+00
DAV:  21    -0.706578155425E+03    0.42041E-02   -0.38772E-01 15807   0.988E-01    0.157E+00
DAV:  22    -0.706574681812E+03    0.34736E-02   -0.30617E-01 14144   0.677E-01    0.130E+00
DAV:  23    -0.706571396128E+03    0.32857E-02   -0.25147E-01 14758   0.656E-01    0.123E+00
DAV:  24    -0.706574200554E+03   -0.28044E-02   -0.23949E-01 12872   0.455E-01    0.150E+00
DAV:  25    -0.706570712413E+03    0.34881E-02   -0.20825E-01 12384   0.434E-01    0.113E+00
DAV:  26    -0.706576368830E+03   -0.56564E-02   -0.21251E-01 13464   0.380E-01    0.170E+00
DAV:  27    -0.706571905098E+03    0.44637E-02   -0.18647E-01 13696   0.369E-01    0.117E+00
DAV:  28    -0.706577357103E+03   -0.54520E-02   -0.18340E-01 13920   0.375E-01    0.176E+00
DAV:  29    -0.706573159164E+03    0.41979E-02   -0.17300E-01 12352   0.364E-01    0.125E+00
DAV:  30    -0.706576786807E+03   -0.36276E-02   -0.15866E-01 13768   0.377E-01    0.172E+00
DAV:  31    -0.706574008519E+03    0.27783E-02   -0.16477E-01 12544   0.352E-01    0.135E+00
DAV:  32    -0.706575495333E+03   -0.14868E-02   -0.14380E-01 12544   0.351E-01    0.162E+00
DAV:  33    -0.706574597023E+03    0.89831E-03   -0.16380E-01 13176   0.349E-01    0.143E+00
DAV:  34    -0.706573975707E+03    0.62132E-03   -0.13928E-01 12328   0.341E-01    0.149E+00
DAV:  35    -0.706574888531E+03   -0.91282E-03   -0.16515E-01 12936   0.337E-01    0.149E+00
DAV:  36    -0.706572397294E+03    0.24912E-02   -0.13759E-01 12208   0.333E-01    0.136E+00
DAV:  37    -0.706574929271E+03   -0.25320E-02   -0.16501E-01 12600   0.325E-01    0.154E+00
DAV:  38    -0.706570885186E+03    0.40441E-02   -0.13472E-01 12296   0.323E-01    0.122E+00
DAV:  39    -0.706574754603E+03   -0.38694E-02   -0.16180E-01 12448   0.313E-01    0.157E+00
DAV:  40    -0.706569502167E+03    0.52524E-02   -0.12979E-01 12208   0.311E-01    0.109E+00
DAV:  41    -0.706574413926E+03   -0.49118E-02   -0.15568E-01 12400   0.301E-01    0.159E+00
DAV:  42    -0.706568288222E+03    0.61257E-02   -0.12338E-01 12176   0.299E-01    0.971E-01
DAV:  43    -0.706573949757E+03   -0.56615E-02   -0.14732E-01 12240   0.289E-01    0.160E+00
DAV:  44    -0.706567262088E+03    0.66877E-02   -0.11617E-01 12120   0.287E-01    0.862E-01
DAV:  45    -0.706573402837E+03   -0.61407E-02   -0.13763E-01 12184   0.278E-01    0.160E+00
DAV:  46    -0.706566427655E+03    0.69752E-02   -0.10877E-01 12104   0.275E-01    0.772E-01
DAV:  47    -0.706572800083E+03   -0.63724E-02   -0.12733E-01 12104   0.268E-01    0.159E+00
DAV:  48    -0.706565778106E+03    0.70220E-02   -0.10157E-01 12064   0.264E-01    0.703E-01
DAV:  49    -0.706572166644E+03   -0.63885E-02   -0.11702E-01 12080   0.259E-01    0.157E+00
DAV:  50    -0.706565303243E+03    0.68634E-02   -0.94820E-02 12016   0.255E-01    0.660E-01
DAV:  51    -0.706571531856E+03   -0.62286E-02   -0.10723E-01 12120   0.253E-01    0.155E+00
DAV:  52    -0.706565022203E+03    0.65097E-02   -0.89022E-02 12136   0.249E-01    0.649E-01
DAV:  53    -0.706570927794E+03   -0.59056E-02   -0.98625E-02 12216   0.250E-01    0.151E+00
DAV:  54    -0.706564910392E+03    0.60174E-02   -0.84053E-02 11944   0.243E-01    0.666E-01
DAV:  55    -0.706570371714E+03   -0.54613E-02   -0.91461E-02 12064   0.246E-01    0.147E+00
DAV:  56    -0.706564936801E+03    0.54349E-02   -0.80049E-02 11944   0.240E-01    0.702E-01
DAV:  57    -0.706570068859E+03   -0.51321E-02   -0.89042E-02 12080   0.245E-01    0.144E+00
DAV:  58    -0.706565132196E+03    0.49367E-02   -0.79868E-02 11952   0.241E-01    0.753E-01
DAV:  59    -0.706569864470E+03   -0.47323E-02   -0.89361E-02 12008   0.247E-01    0.141E+00
DAV:  60    -0.706565436403E+03    0.44281E-02   -0.82062E-02 11960   0.243E-01    0.813E-01
DAV:  61    -0.706569673649E+03   -0.42372E-02   -0.89536E-02 11896   0.249E-01    0.137E+00
DAV:  62    -0.706565745811E+03    0.39278E-02   -0.83271E-02 11824   0.245E-01    0.871E-01
DAV:  63    -0.706569615132E+03   -0.38693E-02   -0.91569E-02 11880   0.252E-01    0.135E+00
DAV:  64    -0.706566171433E+03    0.34437E-02   -0.86631E-02 11896   0.249E-01    0.935E-01
DAV:  65    -0.706569669394E+03   -0.34980E-02   -0.94975E-02 11848   0.256E-01    0.132E+00
DAV:  66    -0.706566701109E+03    0.29683E-02   -0.91093E-02 11864   0.254E-01    0.100E+00
DAV:  67    -0.706569845203E+03   -0.31441E-02   -0.99821E-02 11896   0.262E-01    0.131E+00
DAV:  68    -0.706567310013E+03    0.25352E-02   -0.96598E-02 11752   0.260E-01    0.107E+00
DAV:  69    -0.706570044541E+03   -0.27345E-02   -0.10460E-01 11816   0.268E-01    0.129E+00
DAV:  70    -0.706567950688E+03    0.20939E-02   -0.10199E-01 11760   0.266E-01    0.113E+00
DAV:  71    -0.706570362049E+03   -0.24114E-02   -0.11041E-01 11776   0.274E-01    0.129E+00
DAV:  72    -0.706568595546E+03    0.17665E-02   -0.10787E-01 11776   0.274E-01    0.119E+00
DAV:  73    -0.706570613444E+03   -0.20179E-02   -0.11462E-01 11832   0.281E-01    0.128E+00
DAV:  74    -0.706569212877E+03    0.14006E-02   -0.11247E-01 11800   0.280E-01    0.125E+00
DAV:  75    -0.706570808118E+03   -0.15952E-02   -0.11741E-01 11872   0.287E-01    0.126E+00
DAV:  76    -0.706569648660E+03    0.11595E-02   -0.11444E-01 11792   0.286E-01    0.129E+00
DAV:  77    -0.706570999736E+03   -0.13511E-02   -0.12042E-01 11872   0.291E-01    0.126E+00
DAV:  78    -0.706570062254E+03    0.93748E-03   -0.11742E-01 11784   0.289E-01    0.132E+00
DAV:  79    -0.706571146186E+03   -0.10839E-02   -0.12222E-01 11824   0.294E-01    0.126E+00
DAV:  80    -0.706570430209E+03    0.71598E-03   -0.11929E-01 11720   0.292E-01    0.135E+00
DAV:  81    -0.706571202177E+03   -0.77197E-03   -0.12381E-01 11832   0.296E-01    0.125E+00
DAV:  82    -0.706570697125E+03    0.50505E-03   -0.12028E-01 11752   0.295E-01    0.137E+00
DAV:  83    -0.706571300130E+03   -0.60300E-03   -0.12516E-01 11792   0.299E-01    0.125E+00
DAV:  84    -0.706570973930E+03    0.32620E-03   -0.12131E-01 11792   0.298E-01    0.139E+00
DAV:  85    -0.706571370935E+03   -0.39700E-03   -0.12565E-01 11824   0.302E-01    0.125E+00
DAV:  86    -0.706571129718E+03    0.24122E-03   -0.12107E-01 11728   0.301E-01    0.140E+00
DAV:  87    -0.706571478906E+03   -0.34919E-03   -0.12625E-01 11872   0.304E-01    0.125E+00
DAV:  88    -0.706571287019E+03    0.19189E-03   -0.12143E-01 11824   0.303E-01    0.140E+00
DAV:  89    -0.706571566798E+03   -0.27978E-03   -0.12635E-01 11832   0.305E-01    0.126E+00
DAV:  90    -0.706571418650E+03    0.14815E-03   -0.12133E-01 11816   0.304E-01    0.141E+00
DAV:  91    -0.706571659938E+03   -0.24129E-03   -0.12647E-01 11856   0.306E-01    0.127E+00
DAV:  92    -0.706571507845E+03    0.15209E-03   -0.12116E-01 11736   0.305E-01    0.142E+00
DAV:  93    -0.706571751220E+03   -0.24338E-03   -0.12641E-01 11856   0.307E-01    0.127E+00
DAV:  94    -0.706571582997E+03    0.16822E-03   -0.12080E-01 11808   0.306E-01    0.142E+00
DAV:  95    -0.706571824466E+03   -0.24147E-03   -0.12605E-01 11808   0.308E-01    0.128E+00
DAV:  96    -0.706571664449E+03    0.16002E-03   -0.12093E-01 11976   0.307E-01    0.142E+00
DAV:  97    -0.706571981582E+03   -0.31713E-03   -0.12574E-01 11824   0.308E-01    0.129E+00
DAV:  98    -0.706571726117E+03    0.25546E-03   -0.12040E-01 11824   0.307E-01    0.143E+00
DAV:  99    -0.706572121121E+03   -0.39500E-03   -0.12509E-01 11872   0.309E-01    0.130E+00
DAV: 100    -0.706571767766E+03    0.35335E-03   -0.11954E-01 11832   0.306E-01    0.143E+00
DAV: 101    -0.706572410615E+03   -0.64285E-03   -0.12825E-01 11936   0.309E-01    0.132E+00
DAV: 102    -0.706571566363E+03    0.84425E-03   -0.11985E-01 11784   0.307E-01    0.141E+00
DAV: 103    -0.706572474081E+03   -0.90772E-03   -0.12837E-01 11872   0.308E-01    0.133E+00
DAV: 104    -0.706571355833E+03    0.11182E-02   -0.11963E-01 11744   0.305E-01    0.139E+00
DAV: 105    -0.706572481349E+03   -0.11255E-02   -0.12806E-01 11960   0.307E-01    0.134E+00
DAV: 106    -0.706571403483E+03    0.10779E-02   -0.12030E-01 12184   0.304E-01    0.139E+00
DAV: 107    -0.706572179678E+03   -0.77619E-03   -0.12376E-01 12000   0.309E-01    0.132E+00
DAV: 108    -0.706571431905E+03    0.74777E-03   -0.11682E-01 11832   0.303E-01    0.140E+00
DAV: 109    -0.706571936562E+03   -0.50466E-03   -0.12097E-01 11944   0.308E-01    0.130E+00
DAV: 110    -0.706571539416E+03    0.39715E-03   -0.11454E-01 11752   0.303E-01    0.141E+00
DAV: 111    -0.706571785401E+03   -0.24598E-03   -0.11897E-01 11936   0.307E-01    0.128E+00
DAV: 112    -0.706571683938E+03    0.10146E-03   -0.11305E-01 11768   0.303E-01    0.142E+00
DAV: 113    -0.706571688069E+03   -0.41313E-05   -0.11770E-01 11864   0.308E-01    0.128E+00
DAV: 114    -0.706571842359E+03   -0.15429E-03   -0.11186E-01 11696   0.304E-01    0.143E+00
DAV: 115    -0.706571614664E+03    0.22769E-03   -0.11651E-01 11864   0.309E-01    0.127E+00
DAV: 116    -0.706571953127E+03   -0.33846E-03   -0.11050E-01 11800   0.307E-01    0.144E+00
DAV: 117    -0.706571591273E+03    0.36185E-03   -0.11612E-01 11744   0.309E-01    0.127E+00
DAV: 118    -0.706572079720E+03   -0.48845E-03   -0.11000E-01 11824   0.307E-01    0.145E+00
DAV: 119    -0.706571570191E+03    0.50953E-03   -0.11541E-01 11808   0.310E-01    0.126E+00
DAV: 120    -0.706572191734E+03   -0.62154E-03   -0.10930E-01 11752   0.308E-01    0.145E+00
DAV: 121    -0.706571541257E+03    0.65048E-03   -0.11444E-01 11896   0.312E-01    0.126E+00
DAV: 122    -0.706572307310E+03   -0.76605E-03   -0.10849E-01 11712   0.308E-01    0.146E+00
DAV: 123    -0.706571522813E+03    0.78450E-03   -0.11356E-01 11872   0.312E-01    0.126E+00
DAV: 124    -0.706572412415E+03   -0.88960E-03   -0.10756E-01 11832   0.309E-01    0.147E+00
DAV: 125    -0.706571500689E+03    0.91173E-03   -0.11254E-01 11808   0.312E-01    0.126E+00
DAV: 126    -0.706572478942E+03   -0.97825E-03   -0.10641E-01 11904   0.310E-01    0.147E+00
DAV: 127    -0.706571479761E+03    0.99918E-03   -0.11155E-01 12000   0.314E-01    0.126E+00
DAV: 128    -0.706572541103E+03   -0.10613E-02   -0.10545E-01 11976   0.311E-01    0.148E+00
DAV: 129    -0.706571461251E+03    0.10799E-02   -0.11054E-01 12048   0.315E-01    0.125E+00
DAV: 130    -0.706572595522E+03   -0.11343E-02   -0.10446E-01 11880   0.311E-01    0.148E+00
DAV: 131    -0.706571435602E+03    0.11599E-02   -0.10952E-01 12040   0.315E-01    0.125E+00
DAV: 132    -0.706572649004E+03   -0.12134E-02   -0.10340E-01 11808   0.311E-01    0.148E+00
DAV: 133    -0.706571408385E+03    0.12406E-02   -0.10840E-01 12048   0.314E-01    0.125E+00
DAV: 134    -0.706572698084E+03   -0.12897E-02   -0.10236E-01 11800   0.310E-01    0.148E+00
DAV: 135    -0.706571384755E+03    0.13133E-02   -0.10739E-01 11968   0.313E-01    0.125E+00
DAV: 136    -0.706572744590E+03   -0.13598E-02   -0.10130E-01 11792   0.309E-01    0.149E+00
DAV: 137    -0.706571357443E+03    0.13871E-02   -0.10632E-01 11864   0.313E-01    0.125E+00
DAV: 138    -0.706572784445E+03   -0.14270E-02   -0.10028E-01 11776   0.310E-01    0.149E+00
DAV: 139    -0.706571334058E+03    0.14504E-02   -0.10536E-01 11952   0.313E-01    0.125E+00
DAV: 140    -0.706572822028E+03   -0.14880E-02   -0.99336E-02 11888   0.311E-01    0.149E+00
DAV: 141    -0.706571314184E+03    0.15078E-02   -0.10444E-01 11936   0.314E-01    0.125E+00
DAV: 142    -0.706572855935E+03   -0.15418E-02   -0.98442E-02 12032   0.311E-01    0.149E+00
DAV: 143    -0.706571297110E+03    0.15588E-02   -0.10355E-01 12112   0.314E-01    0.125E+00
DAV: 144    -0.706572884918E+03   -0.15878E-02   -0.97620E-02 12096   0.312E-01    0.150E+00
DAV: 145    -0.706571282381E+03    0.16025E-02   -0.10276E-01 12088   0.314E-01    0.125E+00
DAV: 146    -0.706572911881E+03   -0.16295E-02   -0.96853E-02 12072   0.312E-01    0.150E+00
DAV: 147    -0.706571272995E+03    0.16389E-02   -0.10208E-01 12080   0.315E-01    0.125E+00
DAV: 148    -0.706572934454E+03   -0.16615E-02   -0.96167E-02 12016   0.312E-01    0.150E+00
DAV: 149    -0.706571263346E+03    0.16711E-02   -0.10145E-01 12032   0.314E-01    0.125E+00
DAV: 150    -0.706572953471E+03   -0.16901E-02   -0.95519E-02 11960   0.311E-01    0.150E+00
DAV: 151    -0.706571251349E+03    0.17021E-02   -0.10083E-01 12088   0.314E-01    0.124E+00
DAV: 152    -0.706572971353E+03   -0.17200E-02   -0.94927E-02 11888   0.311E-01    0.150E+00
DAV: 153    -0.706571243555E+03    0.17278E-02   -0.10033E-01 12064   0.314E-01    0.124E+00
DAV: 154    -0.706572986590E+03   -0.17430E-02   -0.94337E-02 11912   0.311E-01    0.150E+00
DAV: 155    -0.706571235026E+03    0.17516E-02   -0.99814E-02 12016   0.314E-01    0.124E+00
DAV: 156    -0.706572973319E+03   -0.17383E-02   -0.93713E-02 11776   0.311E-01    0.150E+00
DAV: 157    -0.706571232959E+03    0.17404E-02   -0.99513E-02 11840   0.314E-01    0.125E+00
DAV: 158    -0.706572963935E+03   -0.17310E-02   -0.93302E-02 11816   0.311E-01    0.150E+00
DAV: 159    -0.706571232636E+03    0.17313E-02   -0.99184E-02 11840   0.313E-01    0.125E+00
DAV: 160    -0.706572956714E+03   -0.17241E-02   -0.92982E-02 11792   0.311E-01    0.150E+00
DAV: 161    -0.706571231324E+03    0.17254E-02   -0.98874E-02 11864   0.313E-01    0.125E+00
DAV: 162    -0.706572955270E+03   -0.17239E-02   -0.92701E-02 11880   0.311E-01    0.150E+00
DAV: 163    -0.706571233564E+03    0.17217E-02   -0.98623E-02 11984   0.313E-01    0.125E+00
DAV: 164    -0.706572954879E+03   -0.17213E-02   -0.92475E-02 11976   0.311E-01    0.150E+00
DAV: 165    -0.706571237016E+03    0.17179E-02   -0.98419E-02 12127   0.314E-01    0.125E+00
DAV: 166    -0.706572944851E+03   -0.17078E-02   -0.92255E-02 12144   0.313E-01    0.150E+00
DAV: 167    -0.706571245084E+03    0.16998E-02   -0.98312E-02 12087   0.314E-01    0.125E+00
DAV: 168    -0.706572935588E+03   -0.16905E-02   -0.92149E-02 12000   0.311E-01    0.149E+00
DAV: 169    -0.706571254781E+03    0.16808E-02   -0.98271E-02 12079   0.314E-01    0.125E+00
DAV: 170    -0.706572925164E+03   -0.16704E-02   -0.92068E-02 11976   0.310E-01    0.149E+00
DAV: 171    -0.706571261753E+03    0.16634E-02   -0.98231E-02 12071   0.314E-01    0.125E+00
DAV: 172    -0.706572914824E+03   -0.16531E-02   -0.91964E-02 11840   0.310E-01    0.149E+00
DAV: 173    -0.706571269124E+03    0.16457E-02   -0.98201E-02 11991   0.313E-01    0.126E+00
DAV: 174    -0.706572905565E+03   -0.16364E-02   -0.91914E-02 11864   0.310E-01    0.149E+00
DAV: 175    -0.706571277207E+03    0.16284E-02   -0.98201E-02 11951   0.312E-01    0.126E+00
DAV: 176    -0.706572886469E+03   -0.16093E-02   -0.91847E-02 11784   0.309E-01    0.149E+00
DAV: 177    -0.706571290243E+03    0.15962E-02   -0.98307E-02 11903   0.312E-01    0.126E+00
DAV: 178    -0.706572868861E+03   -0.15786E-02   -0.91907E-02 11872   0.310E-01    0.149E+00
DAV: 179    -0.706571304349E+03    0.15645E-02   -0.98439E-02 12007   0.313E-01    0.126E+00
DAV: 180    -0.706572851504E+03   -0.15472E-02   -0.91983E-02 11880   0.310E-01    0.149E+00
DAV: 181    -0.706571314891E+03    0.15366E-02   -0.98565E-02 11895   0.312E-01    0.126E+00
DAV: 182    -0.706572836197E+03   -0.15213E-02   -0.92028E-02 11984   0.310E-01    0.148E+00
DAV: 183    -0.706571325055E+03    0.15111E-02   -0.98681E-02 11975   0.313E-01    0.126E+00
DAV: 184    -0.706572821604E+03   -0.14965E-02   -0.92069E-02 11992   0.310E-01    0.148E+00
DAV: 185    -0.706571335002E+03    0.14866E-02   -0.98791E-02 12063   0.313E-01    0.127E+00
DAV: 186    -0.706572796790E+03   -0.14618E-02   -0.92033E-02 12216   0.313E-01    0.148E+00
DAV: 187    -0.706571344926E+03    0.14519E-02   -0.98961E-02 12023   0.313E-01    0.127E+00
DAV: 188    -0.706572778438E+03   -0.14335E-02   -0.92125E-02 11960   0.311E-01    0.148E+00
DAV: 189    -0.706571356557E+03    0.14219E-02   -0.99110E-02 12071   0.314E-01    0.127E+00
DAV: 190    -0.706572761304E+03   -0.14047E-02   -0.92237E-02 11888   0.310E-01    0.148E+00
DAV: 191    -0.706571364512E+03    0.13968E-02   -0.99247E-02 12127   0.313E-01    0.127E+00
DAV: 192    -0.706572750930E+03   -0.13864E-02   -0.92352E-02 11816   0.309E-01    0.147E+00
DAV: 193    -0.706571373882E+03    0.13770E-02   -0.99407E-02 12087   0.313E-01    0.127E+00
DAV: 194    -0.706572739044E+03   -0.13652E-02   -0.92402E-02 11832   0.310E-01    0.147E+00
DAV: 195    -0.706571380984E+03    0.13581E-02   -0.99519E-02 12055   0.313E-01    0.127E+00
DAV: 196    -0.706572722603E+03   -0.13416E-02   -0.92324E-02 12111   0.312E-01    0.147E+00
DAV: 197    -0.706571379969E+03    0.13426E-02   -0.99579E-02 11911   0.314E-01    0.127E+00
DAV: 198    -0.706572710243E+03   -0.13303E-02   -0.92287E-02 11967   0.311E-01    0.147E+00
DAV: 199    -0.706571379618E+03    0.13306E-02   -0.99569E-02 12103   0.314E-01    0.128E+00
DAV: 200    -0.706572700777E+03   -0.13212E-02   -0.92297E-02 11831   0.310E-01    0.147E+00
DAV: 201    -0.706571376786E+03    0.13240E-02   -0.99638E-02 11967   0.313E-01    0.128E+00
DAV: 202    -0.706572685394E+03   -0.13086E-02   -0.92247E-02 11863   0.311E-01    0.147E+00
DAV: 203    -0.706571372171E+03    0.13132E-02   -0.99602E-02 12015   0.313E-01    0.128E+00
DAV: 204    -0.706572678617E+03   -0.13064E-02   -0.92314E-02 11903   0.311E-01    0.146E+00
DAV: 205    -0.706571373399E+03    0.13052E-02   -0.99642E-02 12103   0.313E-01    0.128E+00
DAV: 206    -0.706572675025E+03   -0.13016E-02   -0.92290E-02 12263   0.313E-01    0.146E+00
DAV: 207    -0.706571368871E+03    0.13062E-02   -0.99620E-02 12047   0.313E-01    0.128E+00
DAV: 208    -0.706572672599E+03   -0.13037E-02   -0.92339E-02 11999   0.311E-01    0.146E+00
DAV: 209    -0.706571367762E+03    0.13048E-02   -0.99668E-02 12207   0.314E-01    0.128E+00
DAV: 210    -0.706572669736E+03   -0.13020E-02   -0.92332E-02 11791   0.311E-01    0.146E+00
DAV: 211    -0.706571364773E+03    0.13050E-02   -0.99768E-02 12119   0.314E-01    0.128E+00
DAV: 212    -0.706572664936E+03   -0.13002E-02   -0.92311E-02 11951   0.312E-01    0.146E+00
DAV: 213    -0.706571359998E+03    0.13049E-02   -0.99723E-02 12055   0.314E-01    0.128E+00
DAV: 214    -0.706572661456E+03   -0.13015E-02   -0.92242E-02 11950   0.312E-01    0.146E+00
DAV: 215    -0.706571356090E+03    0.13054E-02   -0.99630E-02 11967   0.313E-01    0.128E+00
DAV: 216    -0.706572659906E+03   -0.13038E-02   -0.92094E-02 12006   0.313E-01    0.146E+00
DAV: 217    -0.706571349871E+03    0.13100E-02   -0.99464E-02 11919   0.313E-01    0.128E+00
DAV: 218    -0.706572660406E+03   -0.13105E-02   -0.91968E-02 11943   0.312E-01    0.146E+00
DAV: 219    -0.706571346181E+03    0.13142E-02   -0.99291E-02 12007   0.313E-01    0.128E+00
DAV: 220    -0.706572661842E+03   -0.13157E-02   -0.91833E-02 11886   0.312E-01    0.146E+00
DAV: 221    -0.706571344548E+03    0.13173E-02   -0.99156E-02 11991   0.313E-01    0.128E+00
DAV: 222    -0.706572662003E+03   -0.13175E-02   -0.91697E-02 11958   0.312E-01    0.146E+00
DAV: 223    -0.706571342281E+03    0.13197E-02   -0.98977E-02 12039   0.313E-01    0.128E+00
DAV: 224    -0.706572662111E+03   -0.13198E-02   -0.91534E-02 11846   0.312E-01    0.146E+00
DAV: 225    -0.706571340909E+03    0.13212E-02   -0.98803E-02 12031   0.313E-01    0.128E+00
DAV: 226    -0.706572662901E+03   -0.13220E-02   -0.91356E-02 12023   0.312E-01    0.146E+00
DAV: 227    -0.706571339016E+03    0.13239E-02   -0.98616E-02 12039   0.313E-01    0.128E+00
DAV: 228    -0.706572663510E+03   -0.13245E-02   -0.91171E-02 11911   0.312E-01    0.146E+00
DAV: 229    -0.706571337382E+03    0.13261E-02   -0.98432E-02 12014   0.313E-01    0.128E+00
DAV: 230    -0.706572663991E+03   -0.13266E-02   -0.90996E-02 11911   0.312E-01    0.146E+00
DAV: 231    -0.706571336099E+03    0.13279E-02   -0.98263E-02 11982   0.312E-01    0.128E+00
DAV: 232    -0.706572663591E+03   -0.13275E-02   -0.90826E-02 11855   0.312E-01    0.146E+00
DAV: 233    -0.706571334366E+03    0.13292E-02   -0.98084E-02 11950   0.312E-01    0.128E+00
DAV: 234    -0.706572663537E+03   -0.13292E-02   -0.90669E-02 11838   0.312E-01    0.146E+00
DAV: 235    -0.706571333454E+03    0.13301E-02   -0.97929E-02 11967   0.312E-01    0.128E+00
DAV: 236    -0.706572664126E+03   -0.13307E-02   -0.90524E-02 11958   0.312E-01    0.146E+00
DAV: 237    -0.706571332858E+03    0.13313E-02   -0.97789E-02 11918   0.313E-01    0.128E+00
DAV: 238    -0.706572664409E+03   -0.13316E-02   -0.90386E-02 11958   0.312E-01    0.146E+00
DAV: 239    -0.706571332308E+03    0.13321E-02   -0.97663E-02 11998   0.313E-01    0.128E+00
DAV: 240    -0.706572664583E+03   -0.13323E-02   -0.90263E-02 11942   0.312E-01    0.146E+00
DAV: 241    -0.706571331808E+03    0.13328E-02   -0.97552E-02 12006   0.313E-01    0.128E+00
DAV: 242    -0.706572665270E+03   -0.13335E-02   -0.90155E-02 12022   0.312E-01    0.146E+00
DAV: 243    -0.706571331554E+03    0.13337E-02   -0.97438E-02 11950   0.312E-01    0.128E+00
DAV: 244    -0.706572667018E+03   -0.13355E-02   -0.90082E-02 11926   0.311E-01    0.146E+00
DAV: 245    -0.706571332463E+03    0.13346E-02   -0.97363E-02 11950   0.312E-01    0.128E+00
DAV: 246    -0.706572668824E+03   -0.13364E-02   -0.90026E-02 11982   0.311E-01    0.146E+00
DAV: 247    -0.706571333504E+03    0.13353E-02   -0.97306E-02 11958   0.312E-01    0.128E+00
DAV: 248    -0.706572670220E+03   -0.13367E-02   -0.89981E-02 11926   0.310E-01    0.146E+00
DAV: 249    -0.706571334429E+03    0.13358E-02   -0.97270E-02 11894   0.312E-01    0.128E+00
DAV: 250    -0.706572670463E+03   -0.13360E-02   -0.89940E-02 11902   0.310E-01    0.146E+00
DAV: 251    -0.706571334673E+03    0.13358E-02   -0.97246E-02 11958   0.312E-01    0.128E+00
DAV: 252    -0.706572669613E+03   -0.13349E-02   -0.89896E-02 11958   0.311E-01    0.146E+00
DAV: 253    -0.706571334103E+03    0.13355E-02   -0.97231E-02 11902   0.312E-01    0.128E+00
DAV: 254    -0.706572667434E+03   -0.13333E-02   -0.89844E-02 11966   0.311E-01    0.146E+00
DAV: 255    -0.706571332530E+03    0.13349E-02   -0.97208E-02 11894   0.312E-01    0.128E+00
DAV: 256    -0.706572665144E+03   -0.13326E-02   -0.89804E-02 11966   0.311E-01    0.146E+00
DAV: 257    -0.706571330936E+03    0.13342E-02   -0.97189E-02 11966   0.312E-01    0.128E+00
DAV: 258    -0.706572663381E+03   -0.13324E-02   -0.89784E-02 11902   0.311E-01    0.146E+00
DAV: 259    -0.706571329786E+03    0.13336E-02   -0.97178E-02 11982   0.312E-01    0.128E+00
DAV: 260    -0.706572662510E+03   -0.13327E-02   -0.89786E-02 12062   0.311E-01    0.146E+00
DAV: 261    -0.706571329471E+03    0.13330E-02   -0.97181E-02 11918   0.312E-01    0.128E+00
DAV: 262    -0.706572662371E+03   -0.13329E-02   -0.89795E-02 12062   0.312E-01    0.146E+00
DAV: 263    -0.706571329481E+03    0.13329E-02   -0.97189E-02 12006   0.312E-01    0.128E+00
DAV: 264    -0.706572662719E+03   -0.13332E-02   -0.89818E-02 11926   0.311E-01    0.146E+00
DAV: 265    -0.706571330070E+03    0.13326E-02   -0.97210E-02 12022   0.312E-01    0.128E+00
DAV: 266    -0.706572662765E+03   -0.13327E-02   -0.89841E-02 12046   0.312E-01    0.146E+00
DAV: 267    -0.706571330576E+03    0.13322E-02   -0.97237E-02 11998   0.312E-01    0.128E+00
DAV: 268    -0.706572662540E+03   -0.13320E-02   -0.89864E-02 11958   0.312E-01    0.146E+00
DAV: 269    -0.706571330849E+03    0.13317E-02   -0.97265E-02 11974   0.312E-01    0.128E+00
DAV: 270    -0.706572661829E+03   -0.13310E-02   -0.89887E-02 11950   0.312E-01    0.146E+00
DAV: 271    -0.706571330813E+03    0.13310E-02   -0.97285E-02 12014   0.312E-01    0.128E+00
DAV: 272    -0.706572661204E+03   -0.13304E-02   -0.89895E-02 11998   0.312E-01    0.146E+00
DAV: 273    -0.706571330662E+03    0.13305E-02   -0.97307E-02 11982   0.312E-01    0.128E+00
DAV: 274    -0.706572660616E+03   -0.13300E-02   -0.89915E-02 11958   0.312E-01    0.146E+00
DAV: 275    -0.706571330585E+03    0.13300E-02   -0.97334E-02 12038   0.312E-01    0.128E+00
DAV: 276    -0.706572660005E+03   -0.13294E-02   -0.89932E-02 12174   0.313E-01    0.146E+00
DAV: 277    -0.706571330353E+03    0.13297E-02   -0.97361E-02 12086   0.313E-01    0.128E+00
DAV: 278    -0.706572659501E+03   -0.13291E-02   -0.89961E-02 12038   0.312E-01    0.146E+00
DAV: 279    -0.706571330295E+03    0.13292E-02   -0.97397E-02 12110   0.313E-01    0.128E+00
DAV: 280    -0.706572659177E+03   -0.13289E-02   -0.90001E-02 11998   0.312E-01    0.146E+00
DAV: 281    -0.706571330510E+03    0.13287E-02   -0.97440E-02 12062   0.312E-01    0.128E+00
DAV: 282    -0.706572659194E+03   -0.13287E-02   -0.90041E-02 12054   0.312E-01    0.146E+00
DAV: 283    -0.706571330746E+03    0.13284E-02   -0.97492E-02 12006   0.312E-01    0.128E+00
DAV: 284    -0.706572659560E+03   -0.13288E-02   -0.90103E-02 11998   0.312E-01    0.146E+00
DAV: 285    -0.706571331407E+03    0.13282E-02   -0.97558E-02 12022   0.312E-01    0.128E+00
DAV: 286    -0.706572659850E+03   -0.13284E-02   -0.90168E-02 12014   0.312E-01    0.146E+00
DAV: 287    -0.706571332101E+03    0.13277E-02   -0.97646E-02 11982   0.312E-01    0.128E+00
DAV: 288    -0.706572659860E+03   -0.13278E-02   -0.90253E-02 11934   0.312E-01    0.146E+00
DAV: 289    -0.706571332525E+03    0.13273E-02   -0.97737E-02 11990   0.312E-01    0.128E+00
DAV: 290    -0.706572659465E+03   -0.13269E-02   -0.90338E-02 11846   0.312E-01    0.146E+00
DAV: 291    -0.706571332644E+03    0.13268E-02   -0.97837E-02 11966   0.312E-01    0.128E+00
DAV: 292    -0.706572658537E+03   -0.13259E-02   -0.90428E-02 12046   0.313E-01    0.146E+00
DAV: 293    -0.706571332406E+03    0.13261E-02   -0.97945E-02 11990   0.312E-01    0.128E+00
DAV: 294    -0.706572657193E+03   -0.13248E-02   -0.90515E-02 12014   0.313E-01    0.146E+00
DAV: 295    -0.706571331788E+03    0.13254E-02   -0.98037E-02 12038   0.312E-01    0.128E+00
DAV: 296    -0.706572656400E+03   -0.13246E-02   -0.90607E-02 12014   0.313E-01    0.146E+00
DAV: 297    -0.706571331480E+03    0.13249E-02   -0.98145E-02 12006   0.312E-01    0.128E+00
DAV: 298    -0.706572656101E+03   -0.13246E-02   -0.90723E-02 12006   0.313E-01    0.146E+00
DAV: 299    -0.706571331487E+03    0.13246E-02   -0.98250E-02 11934   0.312E-01    0.128E+00
DAV: 300    -0.706572656050E+03   -0.13246E-02   -0.90838E-02 11894   0.312E-01
 -----------------------------------------------------------------------------
|                                                                             |
|           W    W    AA    RRRRR   N    N  II  N    N   GGGG   !!!           |
|           W    W   A  A   R    R  NN   N  II  NN   N  G    G  !!!           |
|           W    W  A    A  R    R  N N  N  II  N N  N  G       !!!           |
|           W WW W  AAAAAA  RRRRR   N  N N  II  N  N N  G  GGG   !            |
|           WW  WW  A    A  R   R   N   NN  II  N   NN  G    G                |
|           W    W  A    A  R    R  N    N  II  N    N   GGGG   !!!           |
|                                                                             |
|     The electronic self-consistency was not achieved in the given           |
|     number of steps (NELM). The forces and other quantities evaluated       |
|     might not be reliable so examine the results carefully. If you find     |
|     spurious results, we suggest increasing NELM, if you were close to      |
|     convergence or switching to a different ALGO or adjusting the           |
|     density mixing parameters otherwise.                                    |
|                                                                             |
 -----------------------------------------------------------------------------

   1 F= -.70657266E+03 E0= -.70655943E+03  d E =-.264612E-01
 writing wavefunctions
Warning: ieee_invalid is signaling
Warning: ieee_divide_by_zero is signaling
Warning: ieee_underflow is signaling
Warning: ieee_inexact is signaling
FORTRAN STOP
Warning: ieee_invalid is signaling
Warning: ieee_divide_by_zero is signaling
Warning: ieee_underflow is signaling
Warning: ieee_inexact is signaling
FORTRAN STOP
Warning: ieee_invalid is signaling
Warning: ieee_divide_by_zero is signaling
Warning: ieee_underflow is signaling
Warning: ieee_inexact is signaling
FORTRAN STOP
Warning: ieee_invalid is signaling
Warning: ieee_divide_by_zero is signaling
Warning: ieee_underflow is signaling
Warning: ieee_inexact is signaling
FORTRAN STOP
