 running    4 mpi-ranks, on    1 nodes
 distrk:  each k-point on    1 cores,    4 groups
 distr:  one band on    1 cores,    1 groups
 OpenACC runtime initialized ...    4 GPUs detected
 vasp.6.4.2 20Jul23 (build Nov 12 2023 22:16:35) complex                         
 POSCAR found type information on POSCAR GaO Cu
 POSCAR found :  3 types and     120 ions
 scaLAPACK will be used selectively (only on CPU)
 LDA part: xc-table for Pade appr. of Perdew
 POSCAR, INCAR and KPOINTS ok, starting setup
 FFT: planning ... GRIDC
 FFT: planning ... GRID_SOFT
 FFT: planning ... GRID
 WAVECAR not read
 initial charge from wavefunction
 entering main loop
       N       E                     dE             d eps       ncg     rms          rms(c)
DAV:   1     0.124547918833E+05    0.12455E+05   -0.58408E+05 10624   0.705E+03
DAV:   2    -0.309974291443E+05   -0.43452E+05   -0.42100E+05 13488   0.118E+03
DAV:   3    -0.353868300549E+05   -0.43894E+04   -0.39312E+04 14442   0.343E+02
DAV:   4    -0.358217028641E+05   -0.43487E+03   -0.38696E+03 16872   0.978E+01
DAV:   5    -0.358650379508E+05   -0.43335E+02   -0.39721E+02 19824   0.283E+01BRMIX: very serious problems
 the old and the new charge density differ
 old charge density:  1054.49994 new 1054.99979
BRMIX: very serious problems
 the old and the new charge density differ
BRMIX: very serious problems
 the old and the new charge density differ
 old charge density:  1054.49994 new 1054.99979
 old charge density:  1054.49994 new 1054.99979
BRMIX: very serious problems
 the old and the new charge density differ
 old charge density:  1054.49994 new 1054.99979
    0.706E+02
DAV:   6    -0.107377680839E+05    0.25127E+05   -0.16137E+04 13856   0.237E+02    0.416E+02
DAV:   7    -0.251496185474E+04    0.82228E+04   -0.11507E+04 15136   0.225E+02    0.183E+02
DAV:   8    -0.913096071799E+03    0.16019E+04   -0.61780E+03 16007   0.207E+02    0.127E+02
DAV:   9    -0.773786604519E+03    0.13931E+03   -0.84352E+02 11984   0.104E+02    0.739E+01
DAV:  10    -0.742462453790E+03    0.31324E+02   -0.10025E+03 14448   0.524E+01    0.397E+01
DAV:  11    -0.715357369952E+03    0.27105E+02   -0.12048E+02 15336   0.432E+01    0.233E+01
DAV:  12    -0.705899398075E+03    0.94580E+01   -0.46387E+01 15168   0.331E+01    0.912E+00
DAV:  13    -0.706822190457E+03   -0.92279E+00   -0.21464E+01 13624   0.162E+01    0.649E+00
DAV:  14    -0.706770876045E+03    0.51314E-01   -0.61395E+00 14104   0.824E+00    0.481E+00
DAV:  15    -0.706590548847E+03    0.18033E+00   -0.19531E+00 14336   0.347E+00    0.322E+00
DAV:  16    -0.706621857338E+03   -0.31308E-01   -0.22466E+00 14792   0.340E+00    0.260E+00
DAV:  17    -0.706583882985E+03    0.37974E-01   -0.80336E-01 14848   0.393E+00    0.207E+00
DAV:  18    -0.706601915875E+03   -0.18033E-01   -0.85143E-01 13936   0.198E+00    0.219E+00
DAV:  19    -0.706580409649E+03    0.21506E-01   -0.38690E-01 13344   0.948E-01    0.166E+00
DAV:  20    -0.706579397347E+03    0.10123E-02   -0.25690E-01 15136   0.859E-01    0.165E+00
DAV:  21    -0.706575262179E+03    0.41352E-02   -0.24950E-01 14032   0.123E+00    0.155E+00
DAV:  22    -0.706575743960E+03   -0.48178E-03   -0.27572E-01 13136   0.582E-01    0.150E+00
DAV:  23    -0.706573690362E+03    0.20536E-02   -0.27145E-01 13016   0.635E-01    0.134E+00
DAV:  24    -0.706575051584E+03   -0.13612E-02   -0.30211E-01 12248   0.424E-01    0.148E+00
DAV:  25    -0.706574025814E+03    0.10258E-02   -0.29940E-01 12272   0.417E-01    0.130E+00
DAV:  26    -0.706574848066E+03   -0.82225E-03   -0.31001E-01 11808   0.373E-01    0.146E+00
DAV:  27    -0.706574004779E+03    0.84329E-03   -0.29960E-01 11592   0.372E-01    0.129E+00
DAV:  28    -0.706573763087E+03    0.24169E-03   -0.28889E-01 11200   0.354E-01    0.140E+00
DAV:  29    -0.706573544916E+03    0.21817E-03   -0.28332E-01 11032   0.332E-01    0.130E+00
DAV:  30    -0.706572450738E+03    0.10942E-02   -0.26154E-01 11416   0.332E-01    0.131E+00
DAV:  31    -0.706573070445E+03   -0.61971E-03   -0.26454E-01  9856   0.324E-01    0.132E+00
DAV:  32    -0.706571359726E+03    0.17107E-02   -0.23803E-01  9824   0.314E-01    0.122E+00
DAV:  33    -0.706572585426E+03   -0.12257E-02   -0.24547E-01  9896   0.314E-01    0.134E+00
DAV:  34    -0.706570410006E+03    0.21754E-02   -0.21642E-01  9904   0.308E-01    0.114E+00
DAV:  35    -0.706572099253E+03   -0.16892E-02   -0.22670E-01  9888   0.304E-01    0.136E+00
DAV:  36    -0.706569584422E+03    0.25148E-02   -0.19677E-01  9920   0.301E-01    0.107E+00
DAV:  37    -0.706571600793E+03   -0.20164E-02   -0.20830E-01 10080   0.296E-01    0.137E+00
DAV:  38    -0.706568858145E+03    0.27426E-02   -0.17873E-01 10112   0.293E-01    0.100E+00
DAV:  39    -0.706571091232E+03   -0.22331E-02   -0.19040E-01 10368   0.288E-01    0.137E+00
DAV:  40    -0.706568222602E+03    0.28686E-02   -0.16222E-01 10192   0.285E-01    0.941E-01
DAV:  41    -0.706570577601E+03   -0.23550E-02   -0.17320E-01 10528   0.280E-01    0.137E+00
DAV:  42    -0.706567675443E+03    0.29022E-02   -0.14716E-01 10320   0.277E-01    0.892E-01
DAV:  43    -0.706570066457E+03   -0.23910E-02   -0.15685E-01 10600   0.273E-01    0.136E+00
DAV:  44    -0.706567216645E+03    0.28498E-02   -0.13346E-01 10448   0.270E-01    0.856E-01
DAV:  45    -0.706569564718E+03   -0.23481E-02   -0.14146E-01 10656   0.266E-01    0.134E+00
DAV:  46    -0.706566847756E+03    0.27170E-02   -0.12099E-01 10608   0.263E-01    0.835E-01
DAV:  47    -0.706569079943E+03   -0.22322E-02   -0.12707E-01 10664   0.260E-01    0.132E+00
DAV:  48    -0.706566570599E+03    0.25093E-02   -0.10960E-01 10664   0.257E-01    0.829E-01
DAV:  49    -0.706568619436E+03   -0.20488E-02   -0.11369E-01 10720   0.254E-01    0.129E+00
DAV:  50    -0.706566389210E+03    0.22302E-02   -0.99156E-02 10720   0.252E-01    0.839E-01
DAV:  51    -0.706568232629E+03   -0.18434E-02   -0.10180E-01 10808   0.250E-01    0.126E+00
DAV:  52    -0.706566321925E+03    0.19107E-02   -0.89601E-02 10856   0.249E-01    0.863E-01
DAV:  53    -0.706567883839E+03   -0.15619E-02   -0.90427E-02 10952   0.248E-01    0.123E+00
DAV:  54    -0.706566351927E+03    0.15319E-02   -0.80569E-02 10896   0.246E-01    0.900E-01
DAV:  55    -0.706567622968E+03   -0.12710E-02   -0.80445E-02 10960   0.246E-01    0.120E+00
DAV:  56    -0.706566528845E+03    0.10941E-02   -0.72864E-02 11040   0.245E-01    0.950E-01
DAV:  57    -0.706567897573E+03   -0.13687E-02   -0.78934E-02 10968   0.246E-01    0.121E+00
DAV:  58    -0.706567021298E+03    0.87627E-03   -0.72403E-02 10992   0.250E-01    0.101E+00
DAV:  59    -0.706568219384E+03   -0.11981E-02   -0.78128E-02 11176   0.252E-01    0.122E+00
DAV:  60    -0.706567522945E+03    0.69644E-03   -0.71896E-02 11176   0.256E-01    0.106E+00
DAV:  61    -0.706568521800E+03   -0.99886E-03   -0.77716E-02 11240   0.257E-01    0.122E+00
DAV:  62    -0.706567981243E+03    0.54056E-03   -0.71792E-02 11184   0.259E-01    0.111E+00
DAV:  63    -0.706568802295E+03   -0.82105E-03   -0.77857E-02 11272   0.262E-01    0.123E+00
DAV:  64    -0.706568448536E+03    0.35376E-03   -0.72226E-02 11264   0.265E-01    0.115E+00
DAV:  65    -0.706569083209E+03   -0.63467E-03   -0.78538E-02 11376   0.267E-01    0.123E+00
DAV:  66    -0.706568903345E+03    0.17986E-03   -0.73024E-02 11296   0.271E-01    0.120E+00
DAV:  67    -0.706569310549E+03   -0.40720E-03   -0.78868E-02 11376   0.273E-01    0.123E+00
DAV:  68    -0.706569330439E+03   -0.19891E-04   -0.73547E-02 11360   0.276E-01    0.123E+00
DAV:  69    -0.706569508821E+03   -0.17838E-03   -0.79225E-02 11416   0.278E-01    0.123E+00
DAV:  70    -0.706569739230E+03   -0.23041E-03   -0.74107E-02 11304   0.280E-01    0.127E+00
DAV:  71    -0.706569712965E+03    0.26265E-04   -0.80211E-02 11400   0.282E-01    0.123E+00
DAV:  72    -0.706570138125E+03   -0.42516E-03   -0.75223E-02 11384   0.284E-01    0.130E+00
DAV:  73    -0.706569884224E+03    0.25390E-03   -0.81068E-02 11368   0.286E-01    0.123E+00
DAV:  74    -0.706570505807E+03   -0.62158E-03   -0.76190E-02 11424   0.287E-01    0.133E+00
DAV:  75    -0.706570020941E+03    0.48487E-03   -0.81765E-02 11424   0.290E-01    0.123E+00
DAV:  76    -0.706570825760E+03   -0.80482E-03   -0.76960E-02 11344   0.290E-01    0.136E+00
DAV:  77    -0.706570177127E+03    0.64863E-03   -0.83239E-02 11392   0.293E-01    0.123E+00
DAV:  78    -0.706571119972E+03   -0.94285E-03   -0.78455E-02 11384   0.293E-01    0.138E+00
DAV:  79    -0.706570292375E+03    0.82760E-03   -0.84258E-02 11440   0.295E-01    0.123E+00
DAV:  80    -0.706571373254E+03   -0.10809E-02   -0.79551E-02 11368   0.295E-01    0.140E+00
DAV:  81    -0.706570445643E+03    0.92761E-03   -0.86182E-02 11424   0.297E-01    0.123E+00
DAV:  82    -0.706571607636E+03   -0.11620E-02   -0.81468E-02 11392   0.297E-01    0.142E+00
DAV:  83    -0.706570567865E+03    0.10398E-02   -0.87678E-02 11432   0.299E-01    0.124E+00
DAV:  84    -0.706571803010E+03   -0.12351E-02   -0.82987E-02 11392   0.298E-01    0.143E+00
DAV:  85    -0.706570661970E+03    0.11410E-02   -0.88845E-02 11384   0.301E-01    0.124E+00
DAV:  86    -0.706571964728E+03   -0.13028E-02   -0.84179E-02 11384   0.300E-01    0.144E+00
DAV:  87    -0.706570802485E+03    0.11622E-02   -0.90895E-02 11464   0.302E-01    0.124E+00
DAV:  88    -0.706572121243E+03   -0.13188E-02   -0.86168E-02 11352   0.301E-01    0.145E+00
DAV:  89    -0.706570923410E+03    0.11978E-02   -0.92602E-02 11392   0.304E-01    0.125E+00
DAV:  90    -0.706572246754E+03   -0.13233E-02   -0.87834E-02 11400   0.303E-01    0.146E+00
DAV:  91    -0.706571082419E+03    0.11643E-02   -0.95042E-02 11448   0.305E-01    0.125E+00
DAV:  92    -0.706572346112E+03   -0.12637E-02   -0.90102E-02 11368   0.304E-01    0.147E+00
DAV:  93    -0.706571224845E+03    0.11213E-02   -0.97220E-02 11415   0.305E-01    0.126E+00
DAV:  94    -0.706572418357E+03   -0.11935E-02   -0.92160E-02 11528   0.305E-01    0.147E+00
DAV:  95    -0.706571358195E+03    0.10602E-02   -0.99239E-02 11295   0.305E-01    0.127E+00
DAV:  96    -0.706572479856E+03   -0.11217E-02   -0.94119E-02 11456   0.305E-01    0.147E+00
DAV:  97    -0.706571474337E+03    0.10055E-02   -0.10092E-01 11400   0.306E-01    0.128E+00
DAV:  98    -0.706572525516E+03   -0.10512E-02   -0.95771E-02 11480   0.306E-01    0.148E+00
DAV:  99    -0.706571592948E+03    0.93257E-03   -0.10256E-01 11335   0.305E-01    0.128E+00
DAV: 100    -0.706572565052E+03   -0.97210E-03   -0.97402E-02 11568   0.305E-01    0.148E+00
DAV: 101    -0.706571808683E+03    0.75637E-03   -0.10575E-01 11503   0.305E-01    0.130E+00
DAV: 102    -0.706572542086E+03   -0.73340E-03   -0.99964E-02 11438   0.305E-01    0.148E+00
DAV: 103    -0.706572014338E+03    0.52775E-03   -0.10853E-01 11360   0.303E-01    0.132E+00
DAV: 104    -0.706572506484E+03   -0.49215E-03   -0.10244E-01 11504   0.304E-01    0.147E+00
DAV: 105    -0.706572234459E+03    0.27203E-03   -0.11124E-01 11320   0.302E-01    0.133E+00
DAV: 106    -0.706572428014E+03   -0.19356E-03   -0.10460E-01 11343   0.302E-01    0.147E+00
DAV: 107    -0.706572493060E+03   -0.65046E-04   -0.11431E-01 11320   0.300E-01    0.135E+00
DAV: 108    -0.706572350451E+03    0.14261E-03   -0.10714E-01 11351   0.301E-01    0.146E+00
DAV: 109    -0.706572758565E+03   -0.40811E-03   -0.11702E-01 11287   0.299E-01    0.138E+00
DAV: 110    -0.706572263807E+03    0.49476E-03   -0.10925E-01 11423   0.300E-01    0.145E+00
DAV: 111    -0.706573061549E+03   -0.79774E-03   -0.12018E-01 12687   0.307E-01    0.140E+00
DAV: 112    -0.706572010825E+03    0.10507E-02   -0.11055E-01 11327   0.297E-01    0.144E+00
DAV: 113    -0.706573295101E+03   -0.12843E-02   -0.12176E-01 11559   0.296E-01    0.142E+00
DAV: 114    -0.706571771958E+03    0.15231E-02   -0.11165E-01 11551   0.296E-01    0.142E+00
DAV: 115    -0.706573517247E+03   -0.17453E-02   -0.12282E-01 11575   0.293E-01    0.144E+00
DAV: 116    -0.706571488662E+03    0.20286E-02   -0.11212E-01 12151   0.291E-01    0.140E+00
DAV: 117    -0.706573436623E+03   -0.19480E-02   -0.12085E-01 11447   0.288E-01    0.144E+00
DAV: 118    -0.706571072750E+03    0.23639E-02   -0.10966E-01 11399   0.289E-01    0.137E+00
DAV: 119    -0.706573339239E+03   -0.22665E-02   -0.11889E-01 11599   0.287E-01    0.144E+00
DAV: 120    -0.706570739510E+03    0.25997E-02   -0.10778E-01 11655   0.288E-01    0.135E+00
DAV: 121    -0.706572860278E+03   -0.21208E-02   -0.11200E-01 12175   0.292E-01    0.141E+00
DAV: 122    -0.706570331560E+03    0.25287E-02   -0.10222E-01 11735   0.289E-01    0.133E+00
DAV: 123    -0.706572560017E+03   -0.22285E-02   -0.10893E-01 11191   0.282E-01    0.140E+00
DAV: 124    -0.706570136429E+03    0.24236E-02   -0.10006E-01 11871   0.286E-01    0.132E+00
DAV: 125    -0.706572424625E+03   -0.22882E-02   -0.10798E-01 11279   0.281E-01    0.139E+00
DAV: 126    -0.706570041045E+03    0.23836E-02   -0.99603E-02 12431   0.288E-01    0.131E+00
DAV: 127    -0.706572274244E+03   -0.22332E-02   -0.10691E-01 11247   0.282E-01    0.138E+00
DAV: 128    -0.706569984150E+03    0.22901E-02   -0.98784E-02 11390   0.284E-01    0.130E+00
DAV: 129    -0.706572211800E+03   -0.22277E-02   -0.10692E-01 11439   0.285E-01    0.138E+00
DAV: 130    -0.706569968482E+03    0.22433E-02   -0.98878E-02 11638   0.287E-01    0.130E+00
DAV: 131    -0.706572139236E+03   -0.21708E-02   -0.10669E-01 11799   0.289E-01    0.137E+00
DAV: 132    -0.706569961373E+03    0.21779E-02   -0.98761E-02 11414   0.286E-01    0.130E+00
DAV: 133    -0.706572114820E+03   -0.21534E-02   -0.10729E-01 11535   0.287E-01    0.137E+00
DAV: 134    -0.706569988794E+03    0.21260E-02   -0.99354E-02 11550   0.288E-01    0.130E+00
DAV: 135    -0.706572122094E+03   -0.21333E-02   -0.10835E-01 11399   0.288E-01    0.137E+00
DAV: 136    -0.706570044719E+03    0.20774E-02   -0.10044E-01 11414   0.288E-01    0.130E+00
DAV: 137    -0.706572134598E+03   -0.20899E-02   -0.10949E-01 11375   0.290E-01    0.137E+00
DAV: 138    -0.706570102380E+03    0.20322E-02   -0.10150E-01 11430   0.289E-01    0.131E+00
DAV: 139    -0.706572158965E+03   -0.20566E-02   -0.11093E-01 11359   0.291E-01    0.136E+00
DAV: 140    -0.706570158713E+03    0.20003E-02   -0.10283E-01 11342   0.290E-01    0.131E+00
DAV: 141    -0.706572136661E+03   -0.19779E-02   -0.11196E-01 11511   0.293E-01    0.136E+00
DAV: 142    -0.706570212308E+03    0.19244E-02   -0.10391E-01 11502   0.291E-01    0.131E+00
DAV: 143    -0.706572134725E+03   -0.19224E-02   -0.11353E-01 11455   0.295E-01    0.136E+00
DAV: 144    -0.706570281192E+03    0.18535E-02   -0.10535E-01 11574   0.294E-01    0.131E+00
DAV: 145    -0.706572141637E+03   -0.18604E-02   -0.11508E-01 11487   0.296E-01    0.136E+00
DAV: 146    -0.706570354945E+03    0.17867E-02   -0.10685E-01 11406   0.295E-01    0.132E+00
DAV: 147    -0.706572166864E+03   -0.18119E-02   -0.11671E-01 11575   0.298E-01    0.136E+00
DAV: 148    -0.706570433155E+03    0.17337E-02   -0.10840E-01 11582   0.297E-01    0.132E+00
DAV: 149    -0.706572192369E+03   -0.17592E-02   -0.11808E-01 11399   0.298E-01    0.136E+00
DAV: 150    -0.706570500681E+03    0.16917E-02   -0.10969E-01 11558   0.298E-01    0.132E+00
DAV: 151    -0.706572167911E+03   -0.16672E-02   -0.11929E-01 11719   0.301E-01    0.136E+00
DAV: 152    -0.706570558508E+03    0.16094E-02   -0.11085E-01 11454   0.298E-01    0.133E+00
DAV: 153    -0.706572155853E+03   -0.15973E-02   -0.12066E-01 11407   0.300E-01    0.135E+00
DAV: 154    -0.706570631089E+03    0.15248E-02   -0.11205E-01 11630   0.300E-01    0.133E+00
DAV: 155    -0.706572149955E+03   -0.15189E-02   -0.12185E-01 11447   0.302E-01    0.135E+00
DAV: 156    -0.706570591898E+03    0.15581E-02   -0.11231E-01 11646   0.303E-01    0.132E+00
DAV: 157    -0.706572220205E+03   -0.16283E-02   -0.12479E-01 11407   0.301E-01    0.136E+00
DAV: 158    -0.706570604504E+03    0.16157E-02   -0.11492E-01 11470   0.302E-01    0.132E+00
DAV: 159    -0.706572294628E+03   -0.16901E-02   -0.12715E-01 11343   0.303E-01    0.137E+00
DAV: 160    -0.706570596262E+03    0.16984E-02   -0.11692E-01 11502   0.302E-01    0.131E+00
DAV: 161    -0.706572341444E+03   -0.17452E-02   -0.12938E-01 11550   0.304E-01    0.137E+00
DAV: 162    -0.706570599932E+03    0.17415E-02   -0.11881E-01 11406   0.303E-01    0.131E+00
DAV: 163    -0.706572355765E+03   -0.17558E-02   -0.13059E-01 11622   0.306E-01    0.138E+00
DAV: 164    -0.706570599767E+03    0.17560E-02   -0.11989E-01 11582   0.304E-01    0.131E+00
DAV: 165    -0.706572369794E+03   -0.17700E-02   -0.13164E-01 11390   0.305E-01    0.138E+00
DAV: 166    -0.706570518403E+03    0.18514E-02   -0.11926E-01 11806   0.306E-01    0.129E+00
DAV: 167    -0.706572286336E+03   -0.17679E-02   -0.13277E-01 11270   0.305E-01    0.138E+00
DAV: 168    -0.706570503128E+03    0.17832E-02   -0.12026E-01 11454   0.305E-01    0.129E+00
DAV: 169    -0.706572231656E+03   -0.17285E-02   -0.13365E-01 11430   0.306E-01    0.138E+00
DAV: 170    -0.706570505335E+03    0.17263E-02   -0.12109E-01 11534   0.305E-01    0.128E+00
DAV: 171    -0.706572150692E+03   -0.16454E-02   -0.13580E-01 12254   0.310E-01    0.138E+00
DAV: 172    -0.706570525677E+03    0.16250E-02   -0.12213E-01 11270   0.304E-01    0.127E+00
DAV: 173    -0.706572048478E+03   -0.15228E-02   -0.13582E-01 11358   0.306E-01    0.138E+00
DAV: 174    -0.706570581252E+03    0.14672E-02   -0.12238E-01 11422   0.306E-01    0.127E+00
DAV: 175    -0.706571987639E+03   -0.14064E-02   -0.13479E-01 11878   0.310E-01    0.138E+00
DAV: 176    -0.706570653801E+03    0.13338E-02   -0.12070E-01 11534   0.306E-01    0.127E+00
DAV: 177    -0.706571958519E+03   -0.13047E-02   -0.13161E-01 12599   0.314E-01    0.138E+00
DAV: 178    -0.706570720358E+03    0.12382E-02   -0.11808E-01 11494   0.306E-01    0.128E+00
DAV: 179    -0.706571982076E+03   -0.12617E-02   -0.12879E-01 11639   0.309E-01    0.138E+00
DAV: 180    -0.706570781048E+03    0.12010E-02   -0.11558E-01 11470   0.307E-01    0.128E+00
DAV: 181    -0.706572028044E+03   -0.12470E-02   -0.12661E-01 11423   0.307E-01    0.139E+00
DAV: 182    -0.706570841839E+03    0.11862E-02   -0.11367E-01 11350   0.306E-01    0.128E+00
DAV: 183    -0.706572079544E+03   -0.12377E-02   -0.12496E-01 11367   0.307E-01    0.139E+00
DAV: 184    -0.706570894544E+03    0.11850E-02   -0.11218E-01 11334   0.306E-01    0.129E+00
DAV: 185    -0.706572125679E+03   -0.12311E-02   -0.12365E-01 11358   0.308E-01    0.139E+00
DAV: 186    -0.706570935528E+03    0.11902E-02   -0.11096E-01 11534   0.308E-01    0.129E+00
DAV: 187    -0.706572161183E+03   -0.12257E-02   -0.12256E-01 11638   0.309E-01    0.140E+00
DAV: 188    -0.706570966311E+03    0.11949E-02   -0.10991E-01 11542   0.308E-01    0.129E+00
DAV: 189    -0.706572188250E+03   -0.12219E-02   -0.12162E-01 11526   0.308E-01    0.140E+00
DAV: 190    -0.706570989764E+03    0.11985E-02   -0.10901E-01 11574   0.308E-01    0.130E+00
DAV: 191    -0.706572208220E+03   -0.12185E-02   -0.12080E-01 11494   0.308E-01    0.140E+00
DAV: 192    -0.706571006780E+03    0.12014E-02   -0.10823E-01 11470   0.307E-01    0.130E+00
DAV: 193    -0.706572222520E+03   -0.12157E-02   -0.12011E-01 11502   0.308E-01    0.140E+00
DAV: 194    -0.706571019399E+03    0.12031E-02   -0.10757E-01 11462   0.307E-01    0.130E+00
DAV: 195    -0.706572232985E+03   -0.12136E-02   -0.11952E-01 11502   0.308E-01    0.140E+00
DAV: 196    -0.706571027034E+03    0.12060E-02   -0.10702E-01 11494   0.307E-01    0.130E+00
DAV: 197    -0.706572237978E+03   -0.12109E-02   -0.11901E-01 11502   0.308E-01    0.140E+00
DAV: 198    -0.706571031915E+03    0.12061E-02   -0.10654E-01 11518   0.308E-01    0.130E+00
DAV: 199    -0.706572241158E+03   -0.12092E-02   -0.11860E-01 11646   0.309E-01    0.140E+00
DAV: 200    -0.706571035205E+03    0.12060E-02   -0.10617E-01 11606   0.308E-01    0.130E+00
DAV: 201    -0.706572242009E+03   -0.12068E-02   -0.11827E-01 11622   0.308E-01    0.140E+00
DAV: 202    -0.706571036647E+03    0.12054E-02   -0.10587E-01 11566   0.307E-01    0.130E+00
DAV: 203    -0.706572241156E+03   -0.12045E-02   -0.11802E-01 11550   0.308E-01    0.140E+00
DAV: 204    -0.706571036521E+03    0.12046E-02   -0.10565E-01 11550   0.307E-01    0.130E+00
DAV: 205    -0.706572238866E+03   -0.12023E-02   -0.11782E-01 11606   0.308E-01    0.140E+00
DAV: 206    -0.706571033180E+03    0.12057E-02   -0.10548E-01 11534   0.307E-01    0.130E+00
DAV: 207    -0.706572232790E+03   -0.11996E-02   -0.11763E-01 11510   0.308E-01    0.140E+00
DAV: 208    -0.706571029398E+03    0.12034E-02   -0.10533E-01 11550   0.307E-01    0.130E+00
DAV: 209    -0.706572226842E+03   -0.11974E-02   -0.11749E-01 11494   0.308E-01    0.140E+00
DAV: 210    -0.706571025512E+03    0.12013E-02   -0.10521E-01 11518   0.306E-01    0.130E+00
DAV: 211    -0.706572219092E+03   -0.11936E-02   -0.11734E-01 11446   0.307E-01    0.140E+00
DAV: 212    -0.706571021397E+03    0.11977E-02   -0.10510E-01 11502   0.306E-01    0.130E+00
DAV: 213    -0.706572212378E+03   -0.11910E-02   -0.11723E-01 11430   0.307E-01    0.140E+00
DAV: 214    -0.706571018098E+03    0.11943E-02   -0.10504E-01 11422   0.306E-01    0.130E+00
DAV: 215    -0.706572206479E+03   -0.11884E-02   -0.11715E-01 11486   0.307E-01    0.140E+00
DAV: 216    -0.706571004932E+03    0.12015E-02   -0.10494E-01 11438   0.306E-01    0.130E+00
DAV: 217    -0.706572185320E+03   -0.11804E-02   -0.11679E-01 11462   0.307E-01    0.140E+00
DAV: 218    -0.706570991702E+03    0.11936E-02   -0.10464E-01 11510   0.306E-01    0.130E+00
DAV: 219    -0.706572168419E+03   -0.11767E-02   -0.11651E-01 11510   0.307E-01    0.140E+00
DAV: 220    -0.706570982608E+03    0.11858E-02   -0.10440E-01 11598   0.306E-01    0.130E+00
DAV: 221    -0.706572154526E+03   -0.11719E-02   -0.11628E-01 11582   0.307E-01    0.140E+00
DAV: 222    -0.706570975839E+03    0.11787E-02   -0.10420E-01 11582   0.306E-01    0.130E+00
DAV: 223    -0.706572142952E+03   -0.11671E-02   -0.11609E-01 11590   0.307E-01    0.139E+00
DAV: 224    -0.706570971561E+03    0.11714E-02   -0.10403E-01 11566   0.306E-01    0.130E+00
DAV: 225    -0.706572133285E+03   -0.11617E-02   -0.11592E-01 11534   0.307E-01    0.139E+00
DAV: 226    -0.706570969078E+03    0.11642E-02   -0.10389E-01 11646   0.306E-01    0.130E+00
DAV: 227    -0.706572124442E+03   -0.11554E-02   -0.11576E-01 11606   0.307E-01    0.139E+00
DAV: 228    -0.706570968317E+03    0.11561E-02   -0.10376E-01 11470   0.306E-01    0.130E+00
DAV: 229    -0.706572116944E+03   -0.11486E-02   -0.11562E-01 11654   0.307E-01    0.139E+00
DAV: 230    -0.706570969331E+03    0.11476E-02   -0.10365E-01 11526   0.306E-01    0.130E+00
DAV: 231    -0.706572109476E+03   -0.11401E-02   -0.11548E-01 11526   0.307E-01    0.139E+00
DAV: 232    -0.706570971345E+03    0.11381E-02   -0.10354E-01 11542   0.306E-01    0.130E+00
DAV: 233    -0.706572102981E+03   -0.11316E-02   -0.11534E-01 11510   0.307E-01    0.139E+00
DAV: 234    -0.706570975016E+03    0.11280E-02   -0.10344E-01 11486   0.305E-01    0.130E+00
DAV: 235    -0.706572097358E+03   -0.11223E-02   -0.11522E-01 11518   0.307E-01    0.139E+00
DAV: 236    -0.706570980249E+03    0.11171E-02   -0.10335E-01 11454   0.305E-01    0.130E+00
DAV: 237    -0.706572090490E+03   -0.11102E-02   -0.11507E-01 11422   0.306E-01    0.139E+00
DAV: 238    -0.706570986701E+03    0.11038E-02   -0.10324E-01 11550   0.306E-01    0.130E+00
DAV: 239    -0.706572084390E+03   -0.10977E-02   -0.11493E-01 11630   0.307E-01    0.139E+00
DAV: 240    -0.706570994723E+03    0.10897E-02   -0.10313E-01 11542   0.306E-01    0.130E+00
DAV: 241    -0.706572076039E+03   -0.10813E-02   -0.11474E-01 11702   0.308E-01    0.139E+00
DAV: 242    -0.706571004969E+03    0.10711E-02   -0.10300E-01 11654   0.306E-01    0.130E+00
DAV: 243    -0.706572068847E+03   -0.10639E-02   -0.11457E-01 11590   0.308E-01    0.139E+00
DAV: 244    -0.706571016968E+03    0.10519E-02   -0.10288E-01 11686   0.307E-01    0.130E+00
DAV: 245    -0.706572061871E+03   -0.10449E-02   -0.11440E-01 11606   0.308E-01    0.139E+00
DAV: 246    -0.706571031252E+03    0.10306E-02   -0.10276E-01 11614   0.306E-01    0.131E+00
DAV: 247    -0.706572052276E+03   -0.10210E-02   -0.11421E-01 11678   0.308E-01    0.139E+00
DAV: 248    -0.706571046695E+03    0.10056E-02   -0.10263E-01 11606   0.307E-01    0.131E+00
DAV: 249    -0.706572043714E+03   -0.99702E-03   -0.11402E-01 11582   0.307E-01    0.138E+00
DAV: 250    -0.706571063407E+03    0.98031E-03   -0.10251E-01 11678   0.307E-01    0.131E+00
DAV: 251    -0.706572034935E+03   -0.97153E-03   -0.11394E-01 11590   0.307E-01    0.138E+00
DAV: 252    -0.706571079970E+03    0.95496E-03   -0.10251E-01 11694   0.307E-01    0.131E+00
DAV: 253    -0.706572028649E+03   -0.94868E-03   -0.11390E-01 11486   0.307E-01    0.138E+00
DAV: 254    -0.706571094023E+03    0.93463E-03   -0.10251E-01 11702   0.307E-01    0.131E+00
DAV: 255    -0.706572022884E+03   -0.92886E-03   -0.11387E-01 11526   0.307E-01    0.138E+00
DAV: 256    -0.706571103301E+03    0.91958E-03   -0.10248E-01 11686   0.307E-01    0.131E+00
DAV: 257    -0.706572020909E+03   -0.91761E-03   -0.11405E-01 11534   0.306E-01    0.138E+00
DAV: 258    -0.706571111429E+03    0.90948E-03   -0.10266E-01 11646   0.307E-01    0.131E+00
DAV: 259    -0.706572019025E+03   -0.90760E-03   -0.11420E-01 11566   0.307E-01    0.138E+00
DAV: 260    -0.706571116781E+03    0.90224E-03   -0.10281E-01 11702   0.308E-01    0.131E+00
DAV: 261    -0.706572017920E+03   -0.90114E-03   -0.11442E-01 11686   0.308E-01    0.138E+00
DAV: 262    -0.706571119928E+03    0.89799E-03   -0.10302E-01 11774   0.308E-01    0.131E+00
DAV: 263    -0.706572016424E+03   -0.89650E-03   -0.11461E-01 11646   0.308E-01    0.138E+00
DAV: 264    -0.706571122160E+03    0.89426E-03   -0.10320E-01 11662   0.308E-01    0.131E+00
DAV: 265    -0.706572014964E+03   -0.89280E-03   -0.11476E-01 11526   0.307E-01    0.138E+00
DAV: 266    -0.706571124050E+03    0.89091E-03   -0.10337E-01 11662   0.307E-01    0.131E+00
DAV: 267    -0.706572014433E+03   -0.89038E-03   -0.11494E-01 11574   0.307E-01    0.138E+00
DAV: 268    -0.706571125247E+03    0.88919E-03   -0.10354E-01 11558   0.307E-01    0.131E+00
DAV: 269    -0.706572013719E+03   -0.88847E-03   -0.11508E-01 11574   0.307E-01    0.138E+00
DAV: 270    -0.706571125961E+03    0.88776E-03   -0.10367E-01 11502   0.307E-01    0.131E+00
DAV: 271    -0.706572013370E+03   -0.88741E-03   -0.11522E-01 11502   0.307E-01    0.138E+00
DAV: 272    -0.706571126526E+03    0.88684E-03   -0.10381E-01 11510   0.307E-01    0.131E+00
DAV: 273    -0.706572012832E+03   -0.88631E-03   -0.11534E-01 11502   0.307E-01    0.138E+00
DAV: 274    -0.706571126735E+03    0.88610E-03   -0.10392E-01 11494   0.307E-01    0.131E+00
DAV: 275    -0.706572012143E+03   -0.88541E-03   -0.11542E-01 11510   0.307E-01    0.138E+00
DAV: 276    -0.706571126789E+03    0.88535E-03   -0.10400E-01 11478   0.307E-01    0.131E+00
DAV: 277    -0.706572011477E+03   -0.88469E-03   -0.11550E-01 11526   0.307E-01    0.138E+00
DAV: 278    -0.706571126475E+03    0.88500E-03   -0.10407E-01 11550   0.307E-01    0.131E+00
DAV: 279    -0.706572010647E+03   -0.88417E-03   -0.11555E-01 11510   0.307E-01    0.138E+00
DAV: 280    -0.706571126048E+03    0.88460E-03   -0.10412E-01 11510   0.307E-01    0.131E+00
DAV: 281    -0.706572010059E+03   -0.88401E-03   -0.11560E-01 11574   0.308E-01    0.138E+00
DAV: 282    -0.706571125607E+03    0.88445E-03   -0.10416E-01 11622   0.307E-01    0.131E+00
DAV: 283    -0.706572009441E+03   -0.88383E-03   -0.11563E-01 11558   0.307E-01    0.138E+00
DAV: 284    -0.706571125319E+03    0.88412E-03   -0.10419E-01 11582   0.307E-01    0.131E+00
DAV: 285    -0.706572008868E+03   -0.88355E-03   -0.11565E-01 11486   0.307E-01    0.138E+00
DAV: 286    -0.706571125025E+03    0.88384E-03   -0.10420E-01 11606   0.307E-01    0.131E+00
DAV: 287    -0.706572008238E+03   -0.88321E-03   -0.11565E-01 11574   0.307E-01    0.138E+00
DAV: 288    -0.706571124882E+03    0.88336E-03   -0.10421E-01 11526   0.307E-01    0.131E+00
DAV: 289    -0.706572007853E+03   -0.88297E-03   -0.11565E-01 11542   0.307E-01    0.138E+00
DAV: 290    -0.706571124822E+03    0.88303E-03   -0.10420E-01 11534   0.307E-01    0.131E+00
DAV: 291    -0.706572007951E+03   -0.88313E-03   -0.11565E-01 11542   0.307E-01    0.138E+00
DAV: 292    -0.706571125139E+03    0.88281E-03   -0.10421E-01 11550   0.307E-01    0.131E+00
DAV: 293    -0.706572008159E+03   -0.88302E-03   -0.11563E-01 11574   0.307E-01    0.138E+00
DAV: 294    -0.706571125420E+03    0.88274E-03   -0.10420E-01 11470   0.307E-01    0.131E+00
DAV: 295    -0.706572008289E+03   -0.88287E-03   -0.11562E-01 11558   0.307E-01    0.138E+00
DAV: 296    -0.706571125443E+03    0.88285E-03   -0.10418E-01 11462   0.307E-01    0.131E+00
DAV: 297    -0.706572008057E+03   -0.88261E-03   -0.11560E-01 11542   0.307E-01    0.138E+00
DAV: 298    -0.706571125231E+03    0.88283E-03   -0.10415E-01 11502   0.307E-01    0.131E+00
DAV: 299    -0.706572007664E+03   -0.88243E-03   -0.11557E-01 11494   0.307E-01    0.138E+00
DAV: 300    -0.706571124966E+03    0.88270E-03   -0.10412E-01 11470   0.307E-01
 -----------------------------------------------------------------------------
|                                                                             |
|           W    W    AA    RRRRR   N    N  II  N    N   GGGG   !!!           |
|           W    W   A  A   R    R  NN   N  II  NN   N  G    G  !!!           |
|           W    W  A    A  R    R  N N  N  II  N N  N  G       !!!           |
|           W WW W  AAAAAA  RRRRR   N  N N  II  N  N N  G  GGG   !            |
|           WW  WW  A    A  R   R   N   NN  II  N   NN  G    G                |
|           W    W  A    A  R    R  N    N  II  N    N   GGGG   !!!           |
|                                                                             |
|     The electronic self-consistency was not achieved in the given           |
|     number of steps (NELM). The forces and other quantities evaluated       |
|     might not be reliable so examine the results carefully. If you find     |
|     spurious results, we suggest increasing NELM, if you were close to      |
|     convergence or switching to a different ALGO or adjusting the           |
|     density mixing parameters otherwise.                                    |
|                                                                             |
 -----------------------------------------------------------------------------

   1 F= -.70657112E+03 E0= -.70655729E+03  d E =-.276722E-01
 writing wavefunctions
Warning: ieee_invalid is signaling
Warning: ieee_divide_by_zero is signaling
Warning: ieee_overflow is signaling
Warning: ieee_underflow is signaling
Warning: ieee_inexact is signaling
FORTRAN STOP
Warning: ieee_invalid is signaling
Warning: ieee_divide_by_zero is signaling
Warning: ieee_overflow is signaling
Warning: ieee_underflow is signaling
Warning: ieee_inexact is signaling
FORTRAN STOP
Warning: ieee_invalid is signaling
Warning: ieee_divide_by_zero is signaling
Warning: ieee_overflow is signaling
Warning: ieee_underflow is signaling
Warning: ieee_inexact is signaling
FORTRAN STOP
Warning: ieee_invalid is signaling
Warning: ieee_divide_by_zero is signaling
Warning: ieee_overflow is signaling
Warning: ieee_underflow is signaling
Warning: ieee_inexact is signaling
FORTRAN STOP
