Ga8 O12                                 
    1.000000000000000     
     0.0000000000000000   12.2804737091000007    0.0000000000000000
     9.1427011490000005    0.0000000000000000    0.0000000000000000
     0.0000000000000000   -2.7682616411000001  -11.3006974810000003
   Ga   O    Cu
    47    72     1
Direct
  0.6607900864068360  0.0006511120322996  0.1577890878409550
  0.6593442528228735  0.0000242475542941  0.6563110785893694
  0.6607820142895223  0.3326399116412312  0.1578275579595851
  0.6593463328942882  0.3333164064320978  0.6563139997659549
  0.6588534302908585  0.6666494095099658  0.1571856426565098
  0.6584778767604722  0.6666785498391284  0.6574685322152296
  0.8412278459242413  0.1666787702356405  0.8431393639955075
  0.8411183070922328  0.4982590508479464  0.3432169598389145
  0.8412034726807154  0.4998794170924679  0.8432759767234161
  0.8411231037217213  0.8351446484320805  0.3431435378917151
  0.8412057721105907  0.8334465646783180  0.8432371636566819
  0.5934714244791619  0.1666644856595184  0.3965114160840371
  0.5913383160402395  0.1666613531319460  0.8977035578298056
  0.5917764562658921  0.4998265139920312  0.3976791959622967
  0.5904740162420152  0.4999904772155614  0.8975772694983082
  0.5917635142226959  0.8334933959139075  0.3976712822196047
  0.5904406720291435  0.8332999748792187  0.8975380160307959
  0.9086476952232178 -0.0007683673399593  0.1031991395833120
  0.9079406525622967 -0.0007032575184518  0.5999829934300915
  0.9086360454182983  0.3340492584531567  0.1032544314916339
  0.9079607676900978  0.3341162560586190  0.6000387424184852
  0.9091452187468734  0.6666511226573486  0.1032149979347749
  0.9091472071283431  0.6666852817547024  0.6014329522230225
  0.1586988161023595  0.1666640795039705  0.1572467558691752
  0.1581978902834501  0.1666713697011291  0.6558601552258779
  0.1596227232710846  0.4998637376551546  0.1568066613088728
  0.1591084500002069  0.4999530039729982  0.6567378551204770
  0.1596385374366134  0.8334559853964151  0.1568058934948084
  0.1590891520962504  0.8333924576379081  0.6567379042472584
  0.3417536056251200  0.0002365282666550  0.3433701413580656
  0.3408758727969828  0.0003932840175869  0.8433870378461754
  0.3417554167282979  0.3330983965200930  0.3433708554706731
  0.3408779575374090  0.3329411929095206  0.8433890327393821
  0.3416187065206155  0.6666627904397324  0.3434920930442982
  0.3408777466475590  0.6666625631669756  0.8434488553645493
  0.0913735490605238  0.0011842144535880  0.3979123967395861
  0.0911547734334697  0.0000409521009443  0.8977759825818088
  0.0913718142155050  0.3321545205328404  0.3979157203324739
  0.0911556906217388  0.3332941516851388  0.8977815524551528
  0.0915615556510825  0.6666696418773774  0.3978740036668538
  0.0914807797394529  0.6666651456248701  0.8980071308075196
  0.4100019942980389  0.1666618852480951  0.1028452385751095
  0.4088984180800969  0.1666671864932808  0.6024346190291001
  0.4092660758579802  0.4996974402802331  0.1022059696354276
  0.4087169012554505  0.4997605280585066  0.6023856478502423
  0.4092782719760254  0.8336290192943463  0.1022060626052281
  0.4087031844361754  0.8335796009580024  0.6023821113674118
  0.9960027121706299  0.1666516639055068  0.1267182337223196
  0.9956437228457750  0.1666898874935850  0.6272280309218713
  0.9975788974283147  0.5004476358435465  0.1260836744031359
  0.9973890728070502  0.5003093631321910  0.6291552989451269
  0.9976013063350320  0.8328422946968386  0.1260579043326439
  0.9973553036639498  0.8330888909454316  0.6291120773552716
  0.5040901643042397  0.0002826865282647  0.3739114770610571
  0.5033212720464417  0.0003233680321307  0.8718351321592137
  0.5040943016619767  0.3330469442294998  0.3739089089954714
  0.5033214208882709  0.3329982477158207  0.8718466747756476
  0.5036479070038877  0.6666585751199408  0.3737620649631763
  0.5029156093403759  0.6666404104678417  0.8714213212101951
  0.6674255341578745  0.1666494372681421  0.2754508494377841
  0.6725802088566919  0.1666678877331848  0.7803342587521475
  0.6705798774976474  0.5019363255298164  0.2794289135258163
  0.6725004154543536  0.5001029404363794  0.7809074663757720
  0.6705788383981802  0.8313853226228608  0.2794316118223013
  0.6724845628684705  0.8332286466652377  0.7808868350065875
  0.8259438267115331 -0.0097504098297716  0.2163475676219488
  0.8277228043933210 -0.0000701079188170  0.7196798466867332
  0.8259840249461238  0.3428163064289503  0.2165451668744154
  0.8277221376851220  0.3334117656416805  0.7197442497124462
  0.8276484291993050  0.6665901961961724  0.2195332979077486
  0.8276002763002922  0.6666650634087559  0.7193366861510658
  0.8256767389970766 -0.0088953670616397  0.4481064428669586
  0.8332059904990180 -0.0000407251973140  0.9455451299495040
  0.8256021860126679  0.3425106373726696  0.4482915619268170
  0.8332059814421953  0.3333687660460674  0.9455998231575572
  0.8329615235028929  0.6667519465784604  0.4452320635306781
  0.8328364207160895  0.6666751673498524  0.9458791481619105
  0.6689845094259830  0.1666648508737713  0.0530761615257114
  0.6666175452935544  0.1666694397330981  0.5544113196842668
  0.6657539860812477  0.5006584805215163  0.0535496658244730
  0.6655635704635270  0.5009785469270609  0.5551546326490311
  0.6657026650064614  0.8326006831034665  0.0535161417915921
  0.6656022053753650  0.8323877896214757  0.5551356146119456
  0.4964446234481614 -0.0002581072536846  0.1259038900670319
  0.4962182511366731  0.0000586075017210  0.6277769234045107
  0.4964368358999137  0.3335864525569762  0.1259048005238262
  0.4962213508640680  0.3332735364151604  0.6277816432387111
  0.4954188451901951  0.6666590838130537  0.1263902573066149
  0.4955214261184998  0.6666761362697187  0.6280245439991013
  0.0066570880083911  0.1666658193500248  0.3748203385493557
  0.0039638852444182  0.1666689484690120  0.8729129664204214
  0.0050421896402738  0.4998581025600005  0.3734338205144594
  0.0041184564764437  0.5001542608631060  0.8731645913203725
  0.0050483481029719  0.8334782682909485  0.3734136612205853
  0.0041282667935137  0.8331809879019256  0.8731541687427463
  0.1734968408646654 -0.0004765330994039  0.2801966093008000
  0.1727245429573030  0.0004127032306507  0.7808315191690649
  0.1734918782193380  0.3338067661723831  0.2801988413869009
  0.1727262402856393  0.3329248030997611  0.7808341917940407
  0.1733848404300854  0.6666620424602101  0.2805600592991189
  0.1730881106145521  0.6666757612816945  0.7809719879206515
  0.3280369900272561  0.1666666346828710  0.2196404068693703
  0.3273162240564494  0.1666665509615724  0.7196150239779092
  0.3281236266775471  0.4998676495542629  0.2196760330037287
  0.3275575234002534  0.4998481338669227  0.7198624776650573
  0.3281299293090908  0.8334593489875985  0.2196729626502693
  0.3275566229641820  0.8334857149802536  0.7198645401413681
  0.3319319230896319  0.1666676353715247  0.4459253884721138
  0.3323943775256738  0.1666648840036717  0.9461234795451144
  0.3321219372833383  0.4998707918479138  0.4458166268134653
  0.3319354583409220  0.4997927049124688  0.9456337031714765
  0.3321190315897173  0.8334611884527537  0.4458106614289375
  0.3319415499031655  0.8335381081517134  0.9456346064731628
  0.1684594142457084  0.0003577648867867  0.0542008585543580
  0.1693094855272139 -0.0006364604628586  0.5550272938498401
  0.1684590042491200  0.3329626100609174  0.0542014416904478
  0.1693090777169303  0.3339769471900320  0.5550265996135895
  0.1694341840103587  0.6666566354194651  0.0542665489880879
  0.1689748279218384  0.6666744863976275  0.5546460398619573
  0.8400184773714406  0.1667332137411373  0.3438226660755542
 
  0.00000000E+00  0.00000000E+00  0.00000000E+00
  0.00000000E+00  0.00000000E+00  0.00000000E+00
  0.00000000E+00  0.00000000E+00  0.00000000E+00
  0.00000000E+00  0.00000000E+00  0.00000000E+00
  0.00000000E+00  0.00000000E+00  0.00000000E+00
  0.00000000E+00  0.00000000E+00  0.00000000E+00
  0.00000000E+00  0.00000000E+00  0.00000000E+00
  0.00000000E+00  0.00000000E+00  0.00000000E+00
  0.00000000E+00  0.00000000E+00  0.00000000E+00
  0.00000000E+00  0.00000000E+00  0.00000000E+00
  0.00000000E+00  0.00000000E+00  0.00000000E+00
  0.00000000E+00  0.00000000E+00  0.00000000E+00
  0.00000000E+00  0.00000000E+00  0.00000000E+00
  0.00000000E+00  0.00000000E+00  0.00000000E+00
  0.00000000E+00  0.00000000E+00  0.00000000E+00
  0.00000000E+00  0.00000000E+00  0.00000000E+00
  0.00000000E+00  0.00000000E+00  0.00000000E+00
  0.00000000E+00  0.00000000E+00  0.00000000E+00
  0.00000000E+00  0.00000000E+00  0.00000000E+00
  0.00000000E+00  0.00000000E+00  0.00000000E+00
  0.00000000E+00  0.00000000E+00  0.00000000E+00
  0.00000000E+00  0.00000000E+00  0.00000000E+00
  0.00000000E+00  0.00000000E+00  0.00000000E+00
  0.00000000E+00  0.00000000E+00  0.00000000E+00
  0.00000000E+00  0.00000000E+00  0.00000000E+00
  0.00000000E+00  0.00000000E+00  0.00000000E+00
  0.00000000E+00  0.00000000E+00  0.00000000E+00
  0.00000000E+00  0.00000000E+00  0.00000000E+00
  0.00000000E+00  0.00000000E+00  0.00000000E+00
  0.00000000E+00  0.00000000E+00  0.00000000E+00
  0.00000000E+00  0.00000000E+00  0.00000000E+00
  0.00000000E+00  0.00000000E+00  0.00000000E+00
  0.00000000E+00  0.00000000E+00  0.00000000E+00
  0.00000000E+00  0.00000000E+00  0.00000000E+00
  0.00000000E+00  0.00000000E+00  0.00000000E+00
  0.00000000E+00  0.00000000E+00  0.00000000E+00
  0.00000000E+00  0.00000000E+00  0.00000000E+00
  0.00000000E+00  0.00000000E+00  0.00000000E+00
  0.00000000E+00  0.00000000E+00  0.00000000E+00
  0.00000000E+00  0.00000000E+00  0.00000000E+00
  0.00000000E+00  0.00000000E+00  0.00000000E+00
  0.00000000E+00  0.00000000E+00  0.00000000E+00
  0.00000000E+00  0.00000000E+00  0.00000000E+00
  0.00000000E+00  0.00000000E+00  0.00000000E+00
  0.00000000E+00  0.00000000E+00  0.00000000E+00
  0.00000000E+00  0.00000000E+00  0.00000000E+00
  0.00000000E+00  0.00000000E+00  0.00000000E+00
  0.00000000E+00  0.00000000E+00  0.00000000E+00
  0.00000000E+00  0.00000000E+00  0.00000000E+00
  0.00000000E+00  0.00000000E+00  0.00000000E+00
  0.00000000E+00  0.00000000E+00  0.00000000E+00
  0.00000000E+00  0.00000000E+00  0.00000000E+00
  0.00000000E+00  0.00000000E+00  0.00000000E+00
  0.00000000E+00  0.00000000E+00  0.00000000E+00
  0.00000000E+00  0.00000000E+00  0.00000000E+00
  0.00000000E+00  0.00000000E+00  0.00000000E+00
  0.00000000E+00  0.00000000E+00  0.00000000E+00
  0.00000000E+00  0.00000000E+00  0.00000000E+00
  0.00000000E+00  0.00000000E+00  0.00000000E+00
  0.00000000E+00  0.00000000E+00  0.00000000E+00
  0.00000000E+00  0.00000000E+00  0.00000000E+00
  0.00000000E+00  0.00000000E+00  0.00000000E+00
  0.00000000E+00  0.00000000E+00  0.00000000E+00
  0.00000000E+00  0.00000000E+00  0.00000000E+00
  0.00000000E+00  0.00000000E+00  0.00000000E+00
  0.00000000E+00  0.00000000E+00  0.00000000E+00
  0.00000000E+00  0.00000000E+00  0.00000000E+00
  0.00000000E+00  0.00000000E+00  0.00000000E+00
  0.00000000E+00  0.00000000E+00  0.00000000E+00
  0.00000000E+00  0.00000000E+00  0.00000000E+00
  0.00000000E+00  0.00000000E+00  0.00000000E+00
  0.00000000E+00  0.00000000E+00  0.00000000E+00
  0.00000000E+00  0.00000000E+00  0.00000000E+00
  0.00000000E+00  0.00000000E+00  0.00000000E+00
  0.00000000E+00  0.00000000E+00  0.00000000E+00
  0.00000000E+00  0.00000000E+00  0.00000000E+00
  0.00000000E+00  0.00000000E+00  0.00000000E+00
  0.00000000E+00  0.00000000E+00  0.00000000E+00
  0.00000000E+00  0.00000000E+00  0.00000000E+00
  0.00000000E+00  0.00000000E+00  0.00000000E+00
  0.00000000E+00  0.00000000E+00  0.00000000E+00
  0.00000000E+00  0.00000000E+00  0.00000000E+00
  0.00000000E+00  0.00000000E+00  0.00000000E+00
  0.00000000E+00  0.00000000E+00  0.00000000E+00
  0.00000000E+00  0.00000000E+00  0.00000000E+00
  0.00000000E+00  0.00000000E+00  0.00000000E+00
  0.00000000E+00  0.00000000E+00  0.00000000E+00
  0.00000000E+00  0.00000000E+00  0.00000000E+00
  0.00000000E+00  0.00000000E+00  0.00000000E+00
  0.00000000E+00  0.00000000E+00  0.00000000E+00
  0.00000000E+00  0.00000000E+00  0.00000000E+00
  0.00000000E+00  0.00000000E+00  0.00000000E+00
  0.00000000E+00  0.00000000E+00  0.00000000E+00
  0.00000000E+00  0.00000000E+00  0.00000000E+00
  0.00000000E+00  0.00000000E+00  0.00000000E+00
  0.00000000E+00  0.00000000E+00  0.00000000E+00
  0.00000000E+00  0.00000000E+00  0.00000000E+00
  0.00000000E+00  0.00000000E+00  0.00000000E+00
  0.00000000E+00  0.00000000E+00  0.00000000E+00
  0.00000000E+00  0.00000000E+00  0.00000000E+00
  0.00000000E+00  0.00000000E+00  0.00000000E+00
  0.00000000E+00  0.00000000E+00  0.00000000E+00
  0.00000000E+00  0.00000000E+00  0.00000000E+00
  0.00000000E+00  0.00000000E+00  0.00000000E+00
  0.00000000E+00  0.00000000E+00  0.00000000E+00
  0.00000000E+00  0.00000000E+00  0.00000000E+00
  0.00000000E+00  0.00000000E+00  0.00000000E+00
  0.00000000E+00  0.00000000E+00  0.00000000E+00
  0.00000000E+00  0.00000000E+00  0.00000000E+00
  0.00000000E+00  0.00000000E+00  0.00000000E+00
  0.00000000E+00  0.00000000E+00  0.00000000E+00
  0.00000000E+00  0.00000000E+00  0.00000000E+00
  0.00000000E+00  0.00000000E+00  0.00000000E+00
  0.00000000E+00  0.00000000E+00  0.00000000E+00
  0.00000000E+00  0.00000000E+00  0.00000000E+00
  0.00000000E+00  0.00000000E+00  0.00000000E+00
  0.00000000E+00  0.00000000E+00  0.00000000E+00
  0.00000000E+00  0.00000000E+00  0.00000000E+00
  0.00000000E+00  0.00000000E+00  0.00000000E+00
  0.00000000E+00  0.00000000E+00  0.00000000E+00
