Ga8 O12                                 
    1.000000000000000     
     0.0000000000000000   12.2804737091000007    0.0000000000000000
     9.1427011490000005    0.0000000000000000    0.0000000000000000
     0.0000000000000000   -2.7682616411000001  -11.3006974810000003
   Ga   O    Cu   N 
    47    71     1     1
Direct
  0.6586230542659024  0.0009687787358459  0.1576590517467054
  0.6592419662348945  0.9993996035702182  0.6566203123930023
  0.6592590803595257  0.3340923985939028  0.1573888846183777
  0.6598202775899864  0.3325801739974708  0.6567671681714984
  0.6595202899749921  0.6675040696043908  0.1570642124834833
  0.6586912569173791  0.6657878490571747  0.6567709369118973
  0.8413328454739144  0.1673942714427099  0.3444110122320225
  0.8412648836052554  0.1664902724646069  0.8434299760427777
  0.8414865342976299  0.5000864062987347  0.3440451856102413
  0.8412488756547418  0.4999341888902720  0.8434407897997644
  0.8412297516444198  0.8338243707300492  0.3439519101742974
  0.8410445106324218  0.8332126378446745  0.8432409917533903
  0.5886737802846795  0.1689966133620970  0.3980850220166730
  0.5919907046117672  0.1666710644335367  0.8981798155566310
  0.5905973455982974  0.5020337799308692  0.3979464547552496
  0.5917679006491596  0.4999279326421586  0.8976741954365011
  0.5907434473257851  0.8349577120222875  0.3977552243418359
  0.5918975945999492  0.8335990509268640  0.8982156956377665
  0.9077186582710866  0.0008874636487164  0.1024246255834598
  0.9099107921380423  0.9989942486119077  0.6029094278333318
  0.9085050764339826  0.3339300919739614  0.1025890047525806
  0.9102093667321682  0.3329432639954817  0.6029433451711839
  0.9087758628497724  0.6674330380881912  0.1023593645406038
  0.9093072978904928  0.6659686663506577  0.6026198317650753
  0.1583147658561685  0.1671916523149122  0.1563736048032780
  0.1596926689509885  0.1651503675201056  0.6577447241545045
  0.1585020814647748  0.5016258254464674  0.1546519082798739
  0.1604297722319359  0.4989222181221820  0.6571184275678519
  0.1581947346831072  0.8343243660951387  0.1563396362813947
  0.1603650462285415  0.8322259643001360  0.6562792869948595
  0.3401243617398251  0.0003243158386681  0.3441634284083008
  0.3418889312982571  0.9999478826270831  0.8441107775224665
  0.3418716852608981  0.3329642351234057  0.8430688976246046
  0.3398874778544823  0.6652009006490687  0.3418370260879442
  0.3422964424717918  0.6663209158433645  0.8423451901187562
  0.0910096157954285  0.0007189527523579  0.3976379374204768
  0.0915054442937517  0.0002117863426605  0.8976444865965121
  0.0936356929791913  0.3341237307267022  0.3988928944956598
  0.0910871387977892  0.3333577540474337  0.8972517586424686
  0.0910683754598196  0.6665497488906027  0.3963266934501135
  0.0910066374892864  0.6671043069407929  0.8958959085760725
  0.4088643009569921  0.1684172613312001  0.1035807764626639
  0.4092604931882704  0.1643513239631531  0.6023424777174284
  0.4100492464974366  0.5012610866625380  0.1008900852553580
  0.4079926335367858  0.4936253350187698  0.5983377825770120
  0.4086579981790806  0.8340861133554682  0.1025175432103183
  0.4096963452066475  0.8300472797375491  0.6020398456689264
  0.9957947598928669  0.1671127049316610  0.1268914778914478
  0.9970149148162832  0.1657824347453243  0.6282549846380334
  0.9959785207614829  0.5004685455499143  0.1266121590842673
  0.9974555863961143  0.4999373860362297  0.6274679571373198
  0.9953921143804010  0.8346714015407102  0.1263073103089383
  0.9975620658490172  0.8321229352326540  0.6270902153021325
  0.5027665660040199  0.0012436566260021  0.3733385462520928
  0.5044063697466328  0.0001176954034534  0.8734787817836889
  0.5012611290134146  0.3367759302474269  0.3764873865936664
  0.5045651652523730  0.3331770547266046  0.8745830609467689
  0.5034912180253457  0.6683392591984259  0.3716042045403896
  0.5047344308052786  0.6668451158760931  0.8729891982147535
  0.6716744067893643  0.1685282496465135  0.2818624065487327
  0.6733224982848398  0.1656821924207819  0.7808668219085106
  0.6726236570775654  0.5006971911808265  0.2811439508804128
  0.6732530275052468  0.4993999207869777  0.7806745792709719
  0.6727445736399176  0.8346290034366177  0.2809929250452115
  0.6726381639437449  0.8325208520940421  0.7804050020444819
  0.8271788016987003  0.0014597096791462  0.2203883331234948
  0.8277217181712757  0.9992841324041564  0.7194003824139870
  0.8274525434815487  0.3338650179505507  0.2201396281200445
  0.8281135704113325  0.3329547812248137  0.7196653608291186
  0.8277145195543483  0.6672214291935958  0.2200039734861150
  0.8276713065492132  0.6664068371035583  0.7195009584886378
  0.8329548024731039  0.0002267486526435  0.4464371325290557
  0.8317398501572129  0.9999911852630277  0.9456053512247706
  0.8328098543136591  0.3336793442075034  0.4466090965455933
  0.8321482783972840  0.3333250536333168  0.9458373568104506
  0.8324866392245056  0.6667925948484026  0.4460928795564669
  0.8320898926424221  0.6667522364443812  0.9457231504738459
  0.6681461278846967  0.1671314875149861  0.0551932385761233
  0.6678512130677490  0.1662369194325350  0.5540308426051865
  0.6680844971170004  0.5005286153217909  0.0546932571258409
  0.6682857481854469  0.4995980527053447  0.5543526118644593
  0.6684120904666955  0.8345052999297593  0.0549521706538769
  0.6676391310747505  0.8326861359450035  0.5542652312126322
  0.4958635621142093  0.0011869731879415  0.1284147127708195
  0.4967268499742801  0.9974201968499656  0.6276132464285737
  0.4967232228843130  0.3344179452850753  0.1292814333504637
  0.4980718956599688  0.3295247934610614  0.6307298166984197
  0.4970925163557567  0.6680961967768866  0.1269893063958492
  0.4958776981567468  0.6623200053438651  0.6268222345363696
  0.0044038067705188  0.1680182900589742  0.3731751312721912
  0.0037626694543249  0.1665270473946592  0.8728894259245834
  0.0041932838816905  0.4995917586644509  0.3729949470612510
  0.0037885498744501  0.5001943756577987  0.8722162848516604
  0.0037957201013796  0.8335897912743775  0.3731865052560650
  0.0037108561654478  0.8338759324003817  0.8720129761702680
  0.1717034927377483  0.0003701968158722  0.2797899372041144
  0.1733875521831507  0.9991815017098773  0.7809563129755404
  0.1703510749804380  0.3335041534046184  0.2775298803085349
  0.1732179021248257  0.3326391197633924  0.7810278311239003
  0.1696387369657870  0.6692883158491583  0.2771299929572564
  0.1732131182763084  0.6662222109317639  0.7793639386779248
  0.3272022818535092  0.1688255994925854  0.2217024523075963
  0.3282003498060604  0.1655659567866721  0.7204167618663959
  0.3254491611300097  0.5055778419437544  0.2145131295618512
  0.3288087038443592  0.4985113427758989  0.7193267143797186
  0.3271386424282454  0.8346167124289181  0.2196190818966670
  0.3282942260305006  0.8326039248572954  0.7194611406485194
  0.3274926657110910  0.1630671409350768  0.4477151461988740
  0.3328806216309630  0.1669501137678253  0.9467148720996690
  0.3327871624927070  0.5002310295840857  0.9447974661213792
  0.3314718681813957  0.8322863488358578  0.4457170098110481
  0.3328759105843844  0.8328696021143713  0.9455702866137017
  0.1686598049775725  0.0010333018943882  0.0543198444736959
  0.1677820572672317  0.9990605907656445  0.5544134977627735
  0.1676712704298637  0.3334901046417968  0.0536690226624685
  0.1671891886290311  0.3317154101551552  0.5558381887415536
  0.1670469561559358  0.6684898759332185  0.0525066682836908
  0.1704098477658604  0.6646505981421384  0.5527848059884803
  0.3380361598718338  0.3350117460704709  0.3389206245463328
  0.3216378150357713  0.4931055720433903  0.4400439107950476
 
  0.00000000E+00  0.00000000E+00  0.00000000E+00
  0.00000000E+00  0.00000000E+00  0.00000000E+00
  0.00000000E+00  0.00000000E+00  0.00000000E+00
  0.00000000E+00  0.00000000E+00  0.00000000E+00
  0.00000000E+00  0.00000000E+00  0.00000000E+00
  0.00000000E+00  0.00000000E+00  0.00000000E+00
  0.00000000E+00  0.00000000E+00  0.00000000E+00
  0.00000000E+00  0.00000000E+00  0.00000000E+00
  0.00000000E+00  0.00000000E+00  0.00000000E+00
  0.00000000E+00  0.00000000E+00  0.00000000E+00
  0.00000000E+00  0.00000000E+00  0.00000000E+00
  0.00000000E+00  0.00000000E+00  0.00000000E+00
  0.00000000E+00  0.00000000E+00  0.00000000E+00
  0.00000000E+00  0.00000000E+00  0.00000000E+00
  0.00000000E+00  0.00000000E+00  0.00000000E+00
  0.00000000E+00  0.00000000E+00  0.00000000E+00
  0.00000000E+00  0.00000000E+00  0.00000000E+00
  0.00000000E+00  0.00000000E+00  0.00000000E+00
  0.00000000E+00  0.00000000E+00  0.00000000E+00
  0.00000000E+00  0.00000000E+00  0.00000000E+00
  0.00000000E+00  0.00000000E+00  0.00000000E+00
  0.00000000E+00  0.00000000E+00  0.00000000E+00
  0.00000000E+00  0.00000000E+00  0.00000000E+00
  0.00000000E+00  0.00000000E+00  0.00000000E+00
  0.00000000E+00  0.00000000E+00  0.00000000E+00
  0.00000000E+00  0.00000000E+00  0.00000000E+00
  0.00000000E+00  0.00000000E+00  0.00000000E+00
  0.00000000E+00  0.00000000E+00  0.00000000E+00
  0.00000000E+00  0.00000000E+00  0.00000000E+00
  0.00000000E+00  0.00000000E+00  0.00000000E+00
  0.00000000E+00  0.00000000E+00  0.00000000E+00
  0.00000000E+00  0.00000000E+00  0.00000000E+00
  0.00000000E+00  0.00000000E+00  0.00000000E+00
  0.00000000E+00  0.00000000E+00  0.00000000E+00
  0.00000000E+00  0.00000000E+00  0.00000000E+00
  0.00000000E+00  0.00000000E+00  0.00000000E+00
  0.00000000E+00  0.00000000E+00  0.00000000E+00
  0.00000000E+00  0.00000000E+00  0.00000000E+00
  0.00000000E+00  0.00000000E+00  0.00000000E+00
  0.00000000E+00  0.00000000E+00  0.00000000E+00
  0.00000000E+00  0.00000000E+00  0.00000000E+00
  0.00000000E+00  0.00000000E+00  0.00000000E+00
  0.00000000E+00  0.00000000E+00  0.00000000E+00
  0.00000000E+00  0.00000000E+00  0.00000000E+00
  0.00000000E+00  0.00000000E+00  0.00000000E+00
  0.00000000E+00  0.00000000E+00  0.00000000E+00
  0.00000000E+00  0.00000000E+00  0.00000000E+00
  0.00000000E+00  0.00000000E+00  0.00000000E+00
  0.00000000E+00  0.00000000E+00  0.00000000E+00
  0.00000000E+00  0.00000000E+00  0.00000000E+00
  0.00000000E+00  0.00000000E+00  0.00000000E+00
  0.00000000E+00  0.00000000E+00  0.00000000E+00
  0.00000000E+00  0.00000000E+00  0.00000000E+00
  0.00000000E+00  0.00000000E+00  0.00000000E+00
  0.00000000E+00  0.00000000E+00  0.00000000E+00
  0.00000000E+00  0.00000000E+00  0.00000000E+00
  0.00000000E+00  0.00000000E+00  0.00000000E+00
  0.00000000E+00  0.00000000E+00  0.00000000E+00
  0.00000000E+00  0.00000000E+00  0.00000000E+00
  0.00000000E+00  0.00000000E+00  0.00000000E+00
  0.00000000E+00  0.00000000E+00  0.00000000E+00
  0.00000000E+00  0.00000000E+00  0.00000000E+00
  0.00000000E+00  0.00000000E+00  0.00000000E+00
  0.00000000E+00  0.00000000E+00  0.00000000E+00
  0.00000000E+00  0.00000000E+00  0.00000000E+00
  0.00000000E+00  0.00000000E+00  0.00000000E+00
  0.00000000E+00  0.00000000E+00  0.00000000E+00
  0.00000000E+00  0.00000000E+00  0.00000000E+00
  0.00000000E+00  0.00000000E+00  0.00000000E+00
  0.00000000E+00  0.00000000E+00  0.00000000E+00
  0.00000000E+00  0.00000000E+00  0.00000000E+00
  0.00000000E+00  0.00000000E+00  0.00000000E+00
  0.00000000E+00  0.00000000E+00  0.00000000E+00
  0.00000000E+00  0.00000000E+00  0.00000000E+00
  0.00000000E+00  0.00000000E+00  0.00000000E+00
  0.00000000E+00  0.00000000E+00  0.00000000E+00
  0.00000000E+00  0.00000000E+00  0.00000000E+00
  0.00000000E+00  0.00000000E+00  0.00000000E+00
  0.00000000E+00  0.00000000E+00  0.00000000E+00
  0.00000000E+00  0.00000000E+00  0.00000000E+00
  0.00000000E+00  0.00000000E+00  0.00000000E+00
  0.00000000E+00  0.00000000E+00  0.00000000E+00
  0.00000000E+00  0.00000000E+00  0.00000000E+00
  0.00000000E+00  0.00000000E+00  0.00000000E+00
  0.00000000E+00  0.00000000E+00  0.00000000E+00
  0.00000000E+00  0.00000000E+00  0.00000000E+00
  0.00000000E+00  0.00000000E+00  0.00000000E+00
  0.00000000E+00  0.00000000E+00  0.00000000E+00
  0.00000000E+00  0.00000000E+00  0.00000000E+00
  0.00000000E+00  0.00000000E+00  0.00000000E+00
  0.00000000E+00  0.00000000E+00  0.00000000E+00
  0.00000000E+00  0.00000000E+00  0.00000000E+00
  0.00000000E+00  0.00000000E+00  0.00000000E+00
  0.00000000E+00  0.00000000E+00  0.00000000E+00
  0.00000000E+00  0.00000000E+00  0.00000000E+00
  0.00000000E+00  0.00000000E+00  0.00000000E+00
  0.00000000E+00  0.00000000E+00  0.00000000E+00
  0.00000000E+00  0.00000000E+00  0.00000000E+00
  0.00000000E+00  0.00000000E+00  0.00000000E+00
  0.00000000E+00  0.00000000E+00  0.00000000E+00
  0.00000000E+00  0.00000000E+00  0.00000000E+00
  0.00000000E+00  0.00000000E+00  0.00000000E+00
  0.00000000E+00  0.00000000E+00  0.00000000E+00
  0.00000000E+00  0.00000000E+00  0.00000000E+00
  0.00000000E+00  0.00000000E+00  0.00000000E+00
  0.00000000E+00  0.00000000E+00  0.00000000E+00
  0.00000000E+00  0.00000000E+00  0.00000000E+00
  0.00000000E+00  0.00000000E+00  0.00000000E+00
  0.00000000E+00  0.00000000E+00  0.00000000E+00
  0.00000000E+00  0.00000000E+00  0.00000000E+00
  0.00000000E+00  0.00000000E+00  0.00000000E+00
  0.00000000E+00  0.00000000E+00  0.00000000E+00
  0.00000000E+00  0.00000000E+00  0.00000000E+00
  0.00000000E+00  0.00000000E+00  0.00000000E+00
  0.00000000E+00  0.00000000E+00  0.00000000E+00
  0.00000000E+00  0.00000000E+00  0.00000000E+00
  0.00000000E+00  0.00000000E+00  0.00000000E+00
  0.00000000E+00  0.00000000E+00  0.00000000E+00
  0.00000000E+00  0.00000000E+00  0.00000000E+00
  0.00000000E+00  0.00000000E+00  0.00000000E+00
