Ga48 O72                                
    1.000000000000000     
     0.0000000000000000   12.2804734172212839    0.0000000000000000
     9.1427020537309431    0.0000000000000000    0.0000000000000000
     0.0000000000000000   -2.7682617730220320  -11.3006977184464645
   Ga   O    P 
    48    71     1
Direct
  0.6591716442916535  0.9963748167946775  0.1541642592042649
  0.6597206682206860  0.9999054295128360  0.6584647349365227
  0.6591716442916535  0.3369585165386582  0.1541642592042649
  0.6597206682206860  0.3334279038204997  0.6584647349365227
  0.6579670875512349  0.6666666666666643  0.1563947472885729
  0.6590937977450935  0.6666666666666643  0.6590941060673501
  0.8219860863660458  0.1666666666666643  0.3721177505891475
  0.8430403432856011  0.1666666666666643  0.8491381840000400
  0.8409492115693880  0.5011518582041603  0.3407340112887596
  0.8414442775756470  0.4994784467162461  0.8468500828221721
  0.8409492115693880  0.8321814751291754  0.3407340112887596
  0.8414442775756470  0.8338548866170896  0.8468500828221721
  0.5849536257189811  0.1666666666666643  0.3991872122891849
  0.5915583299927931  0.1666666666666643  0.8985442235418404
  0.5932592691417540  0.5011984644727505  0.3994678901362789
  0.5878928492614790  0.5005817361090408  0.8954490282917575
  0.5932592691417540  0.8321348688605852  0.3994678901362789
  0.5878928492614790  0.8327515972242949  0.8954490282917575
  0.9138748348855117  0.0035828739529578  0.1082836803186780
  0.9093503032290400  0.9970254643773160  0.6062628651618667
  0.9138748348855117  0.3297504593803779  0.1082836803186780
  0.9093503032290400  0.3363078689560197  0.6062628651618667
  0.9122524749045482  0.6666666666666643  0.1055488596672021
  0.9073686646407282  0.6666666666666643  0.6010680016060164
  0.1631304584984505  0.1666666666666643  0.1549984592209910
  0.1589756425083735  0.1666666666666643  0.6551692611810793
  0.1622577109706569  0.5000109161903055  0.1568995937768491
  0.1600395995891049  0.5004625152862090  0.6581336009952494
  0.1622577109706569  0.8333224171430302  0.1568995937768491
  0.1600395995891049  0.8328708180471267  0.6581336009952494
  0.3420842226782881  0.9986887318016571  0.3434473298981828
  0.3404309240710361  0.0002036931347860  0.8429829182850810
  0.3420842226782881  0.3346446015316786  0.3434473298981828
  0.3404309240710361  0.3331296401985497  0.8429829182850810
  0.3428295013644700  0.6666666666666643  0.3438935976981270
  0.3403444548634198  0.6666666666666643  0.8442021310833780
  0.0947455515119273  0.9945985484958868  0.3992481933226415
  0.0914655896242991  0.0013612167897890  0.8988525553111586
  0.0947455515119273  0.3387347848374489  0.3992481933226415
  0.0914655896242991  0.3319721165435467  0.8988525553111586
  0.0946788773495797  0.6666666666666643  0.3999750351431359
  0.0907023143550703  0.6666666666666643  0.8988028629914240
  0.4097242587300727  0.1666666666666643  0.1014089329452261
  0.4090364277352876  0.1666666666666643  0.6031040978020457
  0.4100330919752224  0.4996962580059829  0.1023400625683308
  0.4089389804851606  0.5000450070866407  0.6031005226264838
  0.4100330919752224  0.8336370753273528  0.1023400625683308
  0.4089389804851606  0.8332883262466950  0.6031005226264838
  0.0018620238928975  0.1666666666666643  0.0872511779826510
  0.9939614963832426  0.1666666666666643  0.6139066991763968
  0.0002905917233704  0.4995255105038225  0.1284005397411292
  0.9973794280264983  0.5014559843671904  0.6290334677207525
  0.0002905917233704  0.8338078228295132  0.1284005397411292
  0.9973794280264983  0.8318773489661453  0.6290334677207525
  0.5034449695041943  0.9973747799876307  0.3740958589143020
  0.5029101247014509  0.0012807582213057  0.8718891645515043
  0.5034449695041943  0.3359585533457050  0.3740958589143020
  0.5029101247014509  0.3320525751120300  0.8718891645515043
  0.5044669202996346  0.6666666666666643  0.3758908780930241
  0.5008260072717476  0.6666666666666643  0.8683131653475158
  0.6701007153649243  0.1666666666666643  0.2836351518249245
  0.6735166879630654  0.1666666666666643  0.7820720698218793
  0.6695394570317816  0.5030165155304260  0.2798874283776343
  0.6730126972370272  0.5003892473454243  0.7821830944670722
  0.6695394570317816  0.8303168178029097  0.2798874283776343
  0.6730126972370272  0.8329440859879114  0.7821830944670722
  0.8189630953112470  0.9764369344143162  0.2098885826972321
  0.8274783371147691  0.9999140672169702  0.7220400312861130
  0.8189630953112470  0.3568963989190195  0.2098885826972321
  0.8274783371147691  0.3334192661163655  0.7220400312861130
  0.8270622111365356  0.6666666666666643  0.2187498852744341
  0.8280775512882315  0.6666666666666643  0.7208362378963358
  0.8188573502868124  0.9864414063454774  0.4543055051035836
  0.8332712300198608  0.9992683700087355  0.9489199825629200
  0.8188573502868124  0.3468919269878583  0.4543055051035836
  0.8332712300198608  0.3340649633246002  0.9489199825629200
  0.8293572950427546  0.6666666666666643  0.4452236762909081
  0.8350150863100083  0.6666666666666643  0.9484013737525814
  0.6667688594704160  0.1666666666666643  0.0554343831230568
  0.6664479950001621  0.1666666666666643  0.5547318531297165
  0.6609418321765759  0.5035973234124924  0.0508773369472308
  0.6655757152911121  0.5008545392087740  0.5571104249445185
  0.6609418321765759  0.8297360099208433  0.0508773369472308
  0.6655757152911121  0.8324787941245617  0.5571104249445185
  0.4970446050112542  0.0005785739954831  0.1277313384596113
  0.4966326919330228  0.0000699950062568  0.6286647245198367
  0.4970446050112542  0.3327547593378526  0.1277313384596113
  0.4966326919330228  0.3332633383270789  0.6286647245198367
  0.4953877779237956  0.6666666666666643  0.1266786079819227
  0.4960519535415386  0.6666666666666643  0.6288052788498604
  0.0039346325316956  0.1666666666666643  0.8568501281445080
  0.0045200087290169  0.5055112048495261  0.3787002381876334
  0.0043459675105595  0.4992129644073131  0.8738654305079336
  0.0045200087290169  0.8278221284838096  0.3787002381876334
  0.0043459675105595  0.8341203689260226  0.8738654305079336
  0.1786021265791859  0.9958501191859170  0.2791728760398726
  0.1720398087419639  0.0004455952820805  0.7799503773497278
  0.1786021265791859  0.3374832141474187  0.2791728760398726
  0.1720398087419639  0.3328877380512552  0.7799503773497278
  0.1749987436706135  0.6666666666666643  0.2817184174132663
  0.1729514849892126  0.6666666666666643  0.7821340987816967
  0.3305884846021740  0.1666666666666643  0.2198671975840227
  0.3272147503257372  0.1666666666666643  0.7195694276761273
  0.3306047651760480  0.5021916895554028  0.2202479992084676
  0.3281289961690277  0.4997276308936875  0.7208278192070168
  0.3306047651760480  0.8311416437779329  0.2202479992084676
  0.3281289961690277  0.8336057024396482  0.7208278192070168
  0.3350024959862949  0.1666666666666643  0.4458936510473492
  0.3324891561775516  0.1666666666666643  0.9452421441072971
  0.3324801777409405  0.5004396775826407  0.4468059953059011
  0.3331510774785471  0.4994158867579088  0.9458619811481910
  0.3324801777409405  0.8328936557506950  0.4468059953059011
  0.3331510774785471  0.8339174465754269  0.9458619811481910
  0.1751173787712901  0.9984313344360416  0.0526764437483322
  0.1722392825173671  0.9975952836872466  0.5562564740319331
  0.1751173787712901  0.3349019988972941  0.0526764437483322
  0.1722392825173671  0.3357380496460891  0.5562564740319331
  0.1702529160316786  0.6666666666666643  0.0543266133335507
  0.1718489406426471  0.6666666666666643  0.5569635389537311
  0.9797125808159848  0.1666666666666643  0.3167079933529777
 
  0.00000000E+00  0.00000000E+00  0.00000000E+00
  0.00000000E+00  0.00000000E+00  0.00000000E+00
  0.00000000E+00  0.00000000E+00  0.00000000E+00
  0.00000000E+00  0.00000000E+00  0.00000000E+00
  0.00000000E+00  0.00000000E+00  0.00000000E+00
  0.00000000E+00  0.00000000E+00  0.00000000E+00
  0.00000000E+00  0.00000000E+00  0.00000000E+00
  0.00000000E+00  0.00000000E+00  0.00000000E+00
  0.00000000E+00  0.00000000E+00  0.00000000E+00
  0.00000000E+00  0.00000000E+00  0.00000000E+00
  0.00000000E+00  0.00000000E+00  0.00000000E+00
  0.00000000E+00  0.00000000E+00  0.00000000E+00
  0.00000000E+00  0.00000000E+00  0.00000000E+00
  0.00000000E+00  0.00000000E+00  0.00000000E+00
  0.00000000E+00  0.00000000E+00  0.00000000E+00
  0.00000000E+00  0.00000000E+00  0.00000000E+00
  0.00000000E+00  0.00000000E+00  0.00000000E+00
  0.00000000E+00  0.00000000E+00  0.00000000E+00
  0.00000000E+00  0.00000000E+00  0.00000000E+00
  0.00000000E+00  0.00000000E+00  0.00000000E+00
  0.00000000E+00  0.00000000E+00  0.00000000E+00
  0.00000000E+00  0.00000000E+00  0.00000000E+00
  0.00000000E+00  0.00000000E+00  0.00000000E+00
  0.00000000E+00  0.00000000E+00  0.00000000E+00
  0.00000000E+00  0.00000000E+00  0.00000000E+00
  0.00000000E+00  0.00000000E+00  0.00000000E+00
  0.00000000E+00  0.00000000E+00  0.00000000E+00
  0.00000000E+00  0.00000000E+00  0.00000000E+00
  0.00000000E+00  0.00000000E+00  0.00000000E+00
  0.00000000E+00  0.00000000E+00  0.00000000E+00
  0.00000000E+00  0.00000000E+00  0.00000000E+00
  0.00000000E+00  0.00000000E+00  0.00000000E+00
  0.00000000E+00  0.00000000E+00  0.00000000E+00
  0.00000000E+00  0.00000000E+00  0.00000000E+00
  0.00000000E+00  0.00000000E+00  0.00000000E+00
  0.00000000E+00  0.00000000E+00  0.00000000E+00
  0.00000000E+00  0.00000000E+00  0.00000000E+00
  0.00000000E+00  0.00000000E+00  0.00000000E+00
  0.00000000E+00  0.00000000E+00  0.00000000E+00
  0.00000000E+00  0.00000000E+00  0.00000000E+00
  0.00000000E+00  0.00000000E+00  0.00000000E+00
  0.00000000E+00  0.00000000E+00  0.00000000E+00
  0.00000000E+00  0.00000000E+00  0.00000000E+00
  0.00000000E+00  0.00000000E+00  0.00000000E+00
  0.00000000E+00  0.00000000E+00  0.00000000E+00
  0.00000000E+00  0.00000000E+00  0.00000000E+00
  0.00000000E+00  0.00000000E+00  0.00000000E+00
  0.00000000E+00  0.00000000E+00  0.00000000E+00
  0.00000000E+00  0.00000000E+00  0.00000000E+00
  0.00000000E+00  0.00000000E+00  0.00000000E+00
  0.00000000E+00  0.00000000E+00  0.00000000E+00
  0.00000000E+00  0.00000000E+00  0.00000000E+00
  0.00000000E+00  0.00000000E+00  0.00000000E+00
  0.00000000E+00  0.00000000E+00  0.00000000E+00
  0.00000000E+00  0.00000000E+00  0.00000000E+00
  0.00000000E+00  0.00000000E+00  0.00000000E+00
  0.00000000E+00  0.00000000E+00  0.00000000E+00
  0.00000000E+00  0.00000000E+00  0.00000000E+00
  0.00000000E+00  0.00000000E+00  0.00000000E+00
  0.00000000E+00  0.00000000E+00  0.00000000E+00
  0.00000000E+00  0.00000000E+00  0.00000000E+00
  0.00000000E+00  0.00000000E+00  0.00000000E+00
  0.00000000E+00  0.00000000E+00  0.00000000E+00
  0.00000000E+00  0.00000000E+00  0.00000000E+00
  0.00000000E+00  0.00000000E+00  0.00000000E+00
  0.00000000E+00  0.00000000E+00  0.00000000E+00
  0.00000000E+00  0.00000000E+00  0.00000000E+00
  0.00000000E+00  0.00000000E+00  0.00000000E+00
  0.00000000E+00  0.00000000E+00  0.00000000E+00
  0.00000000E+00  0.00000000E+00  0.00000000E+00
  0.00000000E+00  0.00000000E+00  0.00000000E+00
  0.00000000E+00  0.00000000E+00  0.00000000E+00
  0.00000000E+00  0.00000000E+00  0.00000000E+00
  0.00000000E+00  0.00000000E+00  0.00000000E+00
  0.00000000E+00  0.00000000E+00  0.00000000E+00
  0.00000000E+00  0.00000000E+00  0.00000000E+00
  0.00000000E+00  0.00000000E+00  0.00000000E+00
  0.00000000E+00  0.00000000E+00  0.00000000E+00
  0.00000000E+00  0.00000000E+00  0.00000000E+00
  0.00000000E+00  0.00000000E+00  0.00000000E+00
  0.00000000E+00  0.00000000E+00  0.00000000E+00
  0.00000000E+00  0.00000000E+00  0.00000000E+00
  0.00000000E+00  0.00000000E+00  0.00000000E+00
  0.00000000E+00  0.00000000E+00  0.00000000E+00
  0.00000000E+00  0.00000000E+00  0.00000000E+00
  0.00000000E+00  0.00000000E+00  0.00000000E+00
  0.00000000E+00  0.00000000E+00  0.00000000E+00
  0.00000000E+00  0.00000000E+00  0.00000000E+00
  0.00000000E+00  0.00000000E+00  0.00000000E+00
  0.00000000E+00  0.00000000E+00  0.00000000E+00
  0.00000000E+00  0.00000000E+00  0.00000000E+00
  0.00000000E+00  0.00000000E+00  0.00000000E+00
  0.00000000E+00  0.00000000E+00  0.00000000E+00
  0.00000000E+00  0.00000000E+00  0.00000000E+00
  0.00000000E+00  0.00000000E+00  0.00000000E+00
  0.00000000E+00  0.00000000E+00  0.00000000E+00
  0.00000000E+00  0.00000000E+00  0.00000000E+00
  0.00000000E+00  0.00000000E+00  0.00000000E+00
  0.00000000E+00  0.00000000E+00  0.00000000E+00
  0.00000000E+00  0.00000000E+00  0.00000000E+00
  0.00000000E+00  0.00000000E+00  0.00000000E+00
  0.00000000E+00  0.00000000E+00  0.00000000E+00
  0.00000000E+00  0.00000000E+00  0.00000000E+00
  0.00000000E+00  0.00000000E+00  0.00000000E+00
  0.00000000E+00  0.00000000E+00  0.00000000E+00
  0.00000000E+00  0.00000000E+00  0.00000000E+00
  0.00000000E+00  0.00000000E+00  0.00000000E+00
  0.00000000E+00  0.00000000E+00  0.00000000E+00
  0.00000000E+00  0.00000000E+00  0.00000000E+00
  0.00000000E+00  0.00000000E+00  0.00000000E+00
  0.00000000E+00  0.00000000E+00  0.00000000E+00
  0.00000000E+00  0.00000000E+00  0.00000000E+00
  0.00000000E+00  0.00000000E+00  0.00000000E+00
  0.00000000E+00  0.00000000E+00  0.00000000E+00
  0.00000000E+00  0.00000000E+00  0.00000000E+00
  0.00000000E+00  0.00000000E+00  0.00000000E+00
  0.00000000E+00  0.00000000E+00  0.00000000E+00
  0.00000000E+00  0.00000000E+00  0.00000000E+00
  0.00000000E+00  0.00000000E+00  0.00000000E+00
  0.00000000E+00  0.00000000E+00  0.00000000E+00
