Ga8 O12                                 
    1.000000000000000     
     0.0000000000000000   12.2804737091000007    0.0000000000000000
     9.1427011490000005    0.0000000000000000    0.0000000000000000
     0.0000000000000000   -2.7682616411000001  -11.3006974810000003
   Ga   O    Cu
    47    72     1
Direct
  0.6594737407386972  0.9999985212798350  0.1581188598451746
  0.6580964955674915  0.9999939197104268  0.6551839316931733
  0.6596888560622318  0.3347810503511113  0.1562201506680125
  0.6571227176977175  0.3328530261782916  0.6571113144414724
  0.6596859393107692  0.6652134367631390  0.1562227872549329
  0.6571191124552556  0.6671367018174053  0.6571057681488597
  0.8412593958394581  0.1668825440519583  0.3430077079787424
  0.8406145598968209  0.1666766614567834  0.8429456784691638
  0.8394844581034206  0.4999956098237561  0.3412533668873081
  0.8396906674969173  0.4999949728198274  0.8436352473932658
  0.8412570735271316  0.8331090969770258  0.3430084478149311
  0.8406122990302975  0.8333170664994825  0.8429433256499550
  0.5900505820841389  0.1700287548757515  0.3972748511265536
  0.5907156227358570  0.1667057965261307  0.8981728167430560
  0.5893113936682042  0.5000005395553160  0.8974232135664266
  0.5900396582726941  0.8299674944604902  0.3972715756137006
  0.5907155141538141  0.8332945887250034  0.8981724801356066
  0.9095266217543809  0.9999994720296925  0.1022930099355932
  0.9083960131419460  0.9999992552121952  0.6024448491362193
  0.9105824786303316  0.3331112196895489  0.1024532252325585
  0.9077031724566922  0.3337171186820882  0.6021464357492974
  0.9105793204150530  0.6668927708083956  0.1024534756081934
  0.9076999482863854  0.6662806137909740  0.6021427371957273
  0.1601923881055356  0.1666384638641389  0.1571964335603298
  0.1580034946557163  0.1667707714361910  0.6567315684173565
  0.1607658615772039  0.5000032651721398  0.1573184142037363
  0.1586873352350793  0.5000006831898460  0.6564976391611523
  0.1601900158855116  0.8333756681891842  0.1571974237561804
  0.1580030650091899  0.8332318628043467  0.6567322472827328
  0.3425801538517845  0.0000091751646423  0.3433907654062693
  0.3403267688669445  0.0000012025303278  0.8431291716174769
  0.3446533774068214  0.3340328163569239  0.3447556170000752
  0.3403599923323100  0.3336874246651860  0.8437475377112307
  0.3446518875074460  0.6659800470355535  0.3447606949733384
  0.3403598592011718  0.6663154101538282  0.8437475281649540
  0.0917897377012196  0.0000006594833266  0.3973190349461504
  0.0908877256413021  0.0000000372161821  0.8979734905072689
  0.0918215514624308  0.3336800619795710  0.3969524927491861
  0.0903412675193991  0.3334601980781216  0.8977607607925790
  0.0918197431044732  0.6663237409959848  0.3969544721852500
  0.0903425003627021  0.6665414620365695  0.8977632278166681
  0.4091480905452229  0.1665962687540130  0.1024847019280912
  0.4071191620474579  0.1661720517867735  0.6014630094894002
  0.4109257835428437  0.5000012314585902  0.1046172147070266
  0.4091345976871352  0.5000009371064351  0.6009328988482423
  0.4091479749209981  0.8334052241695389  0.1024864388456805
  0.4071189623327669  0.8338310467029828  0.6014642759752533
  0.9975093561718253  0.1661085837480556  0.1269563614714215
  0.9954626056458338  0.1670349696100359  0.6275770465618820
  0.9977374174979445  0.5000039705764934  0.1271102459587325
  0.9957829701831429  0.5000000511351104  0.6276440493949309
  0.9975101739483279  0.8338916345903158  0.1269583893387392
  0.9954614310990948  0.8329620776042788  0.6275754534867488
  0.5046019069075669  0.9999984066638703  0.3737091983469440
  0.5031450083967712  0.0000005095813265  0.8728063700782656
  0.5018374623610171  0.3304788355906823  0.3720637675054093
  0.5025112271530645  0.3326314825092922  0.8725987493364187
  0.5018506701903007  0.6694922025071008  0.3720779889648540
  0.5025108665807707  0.6673688247954175  0.8726015691197233
  0.6736410748691029  0.1661350235193808  0.2805948051255029
  0.6721369131969723  0.1663676714723934  0.7809286583642390
  0.6733588269553081  0.4999943911067959  0.2702983193822348
  0.6731035474375986  0.4999979405036754  0.7842281963185300
  0.6736386422726213  0.8338619120711215  0.2805938020773482
  0.6721355814605019  0.8336288966601799  0.7809273594008701
  0.8285971463503046  0.9999979220152113  0.2194544841080273
  0.8272056868359812  0.9999980140404716  0.7197803102333964
  0.8298109101527515  0.3314373026115973  0.2192995258525059
  0.8274471270087815  0.3329754354385415  0.7201992217826003
  0.8298083266465142  0.6685583592888946  0.2192989059123960
  0.8274442554488672  0.6670197305977652  0.7201961256183225
  0.8336357179827161  0.9999969765974726  0.4456427315136153
  0.8325221402516192  0.9999987939389356  0.9457732459250963
  0.8324276423878985  0.3339977651623798  0.4452485235046595
  0.8338591070700403  0.3325096303373556  0.9461928508753914
  0.8324212322332727  0.6659865839876389  0.4452450601672027
  0.8338590491629105  0.6674874659246370  0.9461921356696337
  0.6683023653198532  0.1664428360415258  0.0543479033717134
  0.6683178583202647  0.1664838154569708  0.5547364468582572
  0.6700902564489510  0.4999996848696853  0.0509341286699083
  0.6640077446028556  0.4999912695687954  0.5624210441171940
  0.6683009816009999  0.8335537634272185  0.0543481544204454
  0.6683154786094860  0.8335094502251081  0.5547354827291002
  0.4966326963074295  0.0000005933494194  0.1265611334317640
  0.4953384536284844  0.0000006931489622  0.6276910770355357
  0.4966263966625206  0.3324510247972867  0.1244114526422990
  0.4944753079107542  0.3320368082558787  0.6295628687624912
  0.4966246631740816  0.6675510634182373  0.1244169396720238
  0.4944722363178755  0.6679675178955478  0.6295659882455737
  0.0043572679547736  0.1667761685883846  0.3729652954408280
  0.0034703256833524  0.1664441755122326  0.8724682598648315
  0.0036763468620222  0.5000019116858780  0.3724600225431942
  0.0029895423568860  0.5000009021652332  0.8725539951391497
  0.0043547914583613  0.8332252629726540  0.3729657822666965
  0.0034693774579253  0.8335563204144805  0.8724676786217245
  0.1726279001823769  0.0000056348409458  0.2800589166607921
  0.1714959076198070  0.0000008384126033  0.7803327828994853
  0.1736186620202673  0.3331354923110439  0.2803179322464757
  0.1719062689794413  0.3335538629902075  0.7806581078551105
  0.1736222082478847  0.6668881451429911  0.2803238385222571
  0.1719070338891058  0.6664478340493645  0.7806585003265099
  0.3270900856690275  0.1651910771217189  0.2186294909258706
  0.3260995625381469  0.1661675704534744  0.7194530013554328
  0.3271794721703074  0.5000037536541200  0.2189905495741300
  0.3269108607443414  0.5000002799314132  0.7192869494422851
  0.3270918639600282  0.8348215816663398  0.2186324077472221
  0.3260988553828099  0.8338336146683005  0.7194539167428644
  0.3289166133210628  0.1655367994924859  0.4456180391998714
  0.3314724466641081  0.1662976211594582  0.9456938456509789
  0.3283933126990135  0.5000042947260681  0.4461121623400643
  0.3327471245799458  0.5000016728145411  0.9468931715874049
  0.3289090835869644  0.8344771617966202  0.4456203212496774
  0.3314716029530658  0.8337096951946563  0.9456953479101813
  0.1678683481615266  0.0000032340828113  0.0539016390971554
  0.1663279905397346  0.0000010042507057  0.5546248474293094
  0.1677167690458532  0.3332217819984322  0.0538621973817541
  0.1665077020021286  0.3332038000658386  0.5544154733110602
  0.1677194710898817  0.6667885451965248  0.0538655623516391
  0.1665087201464814  0.6667984311391777  0.5544158763308289
  0.6051990814420378  0.4999817044452044  0.4007157002997559
 
  0.00000000E+00  0.00000000E+00  0.00000000E+00
  0.00000000E+00  0.00000000E+00  0.00000000E+00
  0.00000000E+00  0.00000000E+00  0.00000000E+00
  0.00000000E+00  0.00000000E+00  0.00000000E+00
  0.00000000E+00  0.00000000E+00  0.00000000E+00
  0.00000000E+00  0.00000000E+00  0.00000000E+00
  0.00000000E+00  0.00000000E+00  0.00000000E+00
  0.00000000E+00  0.00000000E+00  0.00000000E+00
  0.00000000E+00  0.00000000E+00  0.00000000E+00
  0.00000000E+00  0.00000000E+00  0.00000000E+00
  0.00000000E+00  0.00000000E+00  0.00000000E+00
  0.00000000E+00  0.00000000E+00  0.00000000E+00
  0.00000000E+00  0.00000000E+00  0.00000000E+00
  0.00000000E+00  0.00000000E+00  0.00000000E+00
  0.00000000E+00  0.00000000E+00  0.00000000E+00
  0.00000000E+00  0.00000000E+00  0.00000000E+00
  0.00000000E+00  0.00000000E+00  0.00000000E+00
  0.00000000E+00  0.00000000E+00  0.00000000E+00
  0.00000000E+00  0.00000000E+00  0.00000000E+00
  0.00000000E+00  0.00000000E+00  0.00000000E+00
  0.00000000E+00  0.00000000E+00  0.00000000E+00
  0.00000000E+00  0.00000000E+00  0.00000000E+00
  0.00000000E+00  0.00000000E+00  0.00000000E+00
  0.00000000E+00  0.00000000E+00  0.00000000E+00
  0.00000000E+00  0.00000000E+00  0.00000000E+00
  0.00000000E+00  0.00000000E+00  0.00000000E+00
  0.00000000E+00  0.00000000E+00  0.00000000E+00
  0.00000000E+00  0.00000000E+00  0.00000000E+00
  0.00000000E+00  0.00000000E+00  0.00000000E+00
  0.00000000E+00  0.00000000E+00  0.00000000E+00
  0.00000000E+00  0.00000000E+00  0.00000000E+00
  0.00000000E+00  0.00000000E+00  0.00000000E+00
  0.00000000E+00  0.00000000E+00  0.00000000E+00
  0.00000000E+00  0.00000000E+00  0.00000000E+00
  0.00000000E+00  0.00000000E+00  0.00000000E+00
  0.00000000E+00  0.00000000E+00  0.00000000E+00
  0.00000000E+00  0.00000000E+00  0.00000000E+00
  0.00000000E+00  0.00000000E+00  0.00000000E+00
  0.00000000E+00  0.00000000E+00  0.00000000E+00
  0.00000000E+00  0.00000000E+00  0.00000000E+00
  0.00000000E+00  0.00000000E+00  0.00000000E+00
  0.00000000E+00  0.00000000E+00  0.00000000E+00
  0.00000000E+00  0.00000000E+00  0.00000000E+00
  0.00000000E+00  0.00000000E+00  0.00000000E+00
  0.00000000E+00  0.00000000E+00  0.00000000E+00
  0.00000000E+00  0.00000000E+00  0.00000000E+00
  0.00000000E+00  0.00000000E+00  0.00000000E+00
  0.00000000E+00  0.00000000E+00  0.00000000E+00
  0.00000000E+00  0.00000000E+00  0.00000000E+00
  0.00000000E+00  0.00000000E+00  0.00000000E+00
  0.00000000E+00  0.00000000E+00  0.00000000E+00
  0.00000000E+00  0.00000000E+00  0.00000000E+00
  0.00000000E+00  0.00000000E+00  0.00000000E+00
  0.00000000E+00  0.00000000E+00  0.00000000E+00
  0.00000000E+00  0.00000000E+00  0.00000000E+00
  0.00000000E+00  0.00000000E+00  0.00000000E+00
  0.00000000E+00  0.00000000E+00  0.00000000E+00
  0.00000000E+00  0.00000000E+00  0.00000000E+00
  0.00000000E+00  0.00000000E+00  0.00000000E+00
  0.00000000E+00  0.00000000E+00  0.00000000E+00
  0.00000000E+00  0.00000000E+00  0.00000000E+00
  0.00000000E+00  0.00000000E+00  0.00000000E+00
  0.00000000E+00  0.00000000E+00  0.00000000E+00
  0.00000000E+00  0.00000000E+00  0.00000000E+00
  0.00000000E+00  0.00000000E+00  0.00000000E+00
  0.00000000E+00  0.00000000E+00  0.00000000E+00
  0.00000000E+00  0.00000000E+00  0.00000000E+00
  0.00000000E+00  0.00000000E+00  0.00000000E+00
  0.00000000E+00  0.00000000E+00  0.00000000E+00
  0.00000000E+00  0.00000000E+00  0.00000000E+00
  0.00000000E+00  0.00000000E+00  0.00000000E+00
  0.00000000E+00  0.00000000E+00  0.00000000E+00
  0.00000000E+00  0.00000000E+00  0.00000000E+00
  0.00000000E+00  0.00000000E+00  0.00000000E+00
  0.00000000E+00  0.00000000E+00  0.00000000E+00
  0.00000000E+00  0.00000000E+00  0.00000000E+00
  0.00000000E+00  0.00000000E+00  0.00000000E+00
  0.00000000E+00  0.00000000E+00  0.00000000E+00
  0.00000000E+00  0.00000000E+00  0.00000000E+00
  0.00000000E+00  0.00000000E+00  0.00000000E+00
  0.00000000E+00  0.00000000E+00  0.00000000E+00
  0.00000000E+00  0.00000000E+00  0.00000000E+00
  0.00000000E+00  0.00000000E+00  0.00000000E+00
  0.00000000E+00  0.00000000E+00  0.00000000E+00
  0.00000000E+00  0.00000000E+00  0.00000000E+00
  0.00000000E+00  0.00000000E+00  0.00000000E+00
  0.00000000E+00  0.00000000E+00  0.00000000E+00
  0.00000000E+00  0.00000000E+00  0.00000000E+00
  0.00000000E+00  0.00000000E+00  0.00000000E+00
  0.00000000E+00  0.00000000E+00  0.00000000E+00
  0.00000000E+00  0.00000000E+00  0.00000000E+00
  0.00000000E+00  0.00000000E+00  0.00000000E+00
  0.00000000E+00  0.00000000E+00  0.00000000E+00
  0.00000000E+00  0.00000000E+00  0.00000000E+00
  0.00000000E+00  0.00000000E+00  0.00000000E+00
  0.00000000E+00  0.00000000E+00  0.00000000E+00
  0.00000000E+00  0.00000000E+00  0.00000000E+00
  0.00000000E+00  0.00000000E+00  0.00000000E+00
  0.00000000E+00  0.00000000E+00  0.00000000E+00
  0.00000000E+00  0.00000000E+00  0.00000000E+00
  0.00000000E+00  0.00000000E+00  0.00000000E+00
  0.00000000E+00  0.00000000E+00  0.00000000E+00
  0.00000000E+00  0.00000000E+00  0.00000000E+00
  0.00000000E+00  0.00000000E+00  0.00000000E+00
  0.00000000E+00  0.00000000E+00  0.00000000E+00
  0.00000000E+00  0.00000000E+00  0.00000000E+00
  0.00000000E+00  0.00000000E+00  0.00000000E+00
  0.00000000E+00  0.00000000E+00  0.00000000E+00
  0.00000000E+00  0.00000000E+00  0.00000000E+00
  0.00000000E+00  0.00000000E+00  0.00000000E+00
  0.00000000E+00  0.00000000E+00  0.00000000E+00
  0.00000000E+00  0.00000000E+00  0.00000000E+00
  0.00000000E+00  0.00000000E+00  0.00000000E+00
  0.00000000E+00  0.00000000E+00  0.00000000E+00
  0.00000000E+00  0.00000000E+00  0.00000000E+00
  0.00000000E+00  0.00000000E+00  0.00000000E+00
  0.00000000E+00  0.00000000E+00  0.00000000E+00
  0.00000000E+00  0.00000000E+00  0.00000000E+00
  0.00000000E+00  0.00000000E+00  0.00000000E+00
  0.00000000E+00  0.00000000E+00  0.00000000E+00
