Ga48 O72                                
    1.000000000000000     
     0.0000000000000000   12.2804734172212839    0.0000000000000000
     9.1427020537309431    0.0000000000000000    0.0000000000000000
     0.0000000000000000   -2.7682617730220320  -11.3006977184464645
   Ga   O    P 
    47    71     1
Direct
  0.6580567065641659 -0.0019629498791196  0.1555378873908700
  0.6616004806906560 -0.0013311609445729  0.6562180190295589
  0.6584798435342172  0.3302942726184339  0.1559633722286114
  0.6595561481756885  0.3318805601942630  0.6574473479094546
  0.6580508491174162  0.6646519342926547  0.1559297700627556
  0.6616338579573185  0.6649566483896475  0.6563958183861747
  0.8438852738045275  0.1639022668882563  0.3414508164638682
  0.8418981490498131  0.1623036110199212  0.8450268445807140
  0.8398458654555024  0.5008219877180318  0.3411339547276155
  0.8422868644126531  0.4975174374454013  0.8436291571788843
  0.8419880669703335  0.8339164771847690  0.3425879573229660
  0.8414181451657889  0.8299866878753361  0.8454208790799900
  0.5925894819033695  0.1642378924352958  0.3972716869612206
  0.5912485612571913  0.1638758293576928  0.8968125692443497
  0.5918621598985577  0.4970863363138339  0.3979140509050852
  0.5929997715035106  0.5014346421586764  0.8976443409349856
  0.5908293754510711  0.8312873489347180  0.3970217800126546
  0.5889246007153360  0.8322498973693099  0.8961353283812575
  0.9110320322159811 -0.0038896182652849  0.1043723745806716
  0.9092300262456793  0.0088620052488088  0.6020560048598053
  0.9093067920948767  0.3303540325773134  0.1017872983574839
  0.8999953961258235  0.3509416693722935  0.5991045242193662
  0.9092517803655293  0.6630098811643693  0.1024477053770314
  0.9094208360035936  0.6799826775185789  0.6015175983390137
  0.1590422823074329  0.1598859528941171  0.1590306785502025
  0.1599316035065884  0.4964512696030124  0.1552665816757281
  0.1557436098295754  0.5203073726175775  0.6566757746079934
  0.1595103178009584  0.8301815277115514  0.1586885543757048
  0.1609595903858378  0.8667503529105972  0.6281934422377512
  0.3404122183052680 -0.0029213721702363  0.3425756658462791
  0.3369079058292871  0.0012774602707359  0.8376123962136959
  0.3417009905046713  0.3293971921423606  0.3436116191797944
  0.3472002369882425  0.3294798520091211  0.8394608458143251
  0.3412852886728240  0.6629715824814683  0.3419513661220734
  0.3376186050440997  0.6664428962179630  0.8408544853438776
  0.1072990821712446 -0.0142082194236492  0.4230175493863016
  0.0939409451915234 -0.0114426563688467  0.8961633414842067
  0.0856264381270391  0.3257675682530410  0.3906671885878636
  0.0896532048682138  0.3230970872065542  0.8981093697930551
  0.0875824964464447  0.6650364574991500  0.3931167298806004
  0.0918412581104036  0.6602196288133143  0.8977310338622650
  0.4068777859262117  0.1640433269556709  0.0999892308102411
  0.4128978586282590  0.1651008507941191  0.6039120158422211
  0.4075338510054872  0.4957955659978118  0.0989554449786819
  0.4095058840052059  0.4987072953635298  0.6014809112528062
  0.4085718659063329  0.8305022441160800  0.1001461827987814
  0.4138249888865371  0.8310316955997558  0.6010489457839377
  0.9967701984836191  0.1640716463762372  0.1291110411765015
 -0.0035120229934773  0.1857607503927374  0.6278300444030172
  0.9971882119125588  0.4965475735563606  0.1270388511643364
  0.9935911304393822  0.5106998700514607  0.6270529902110317
  0.9967685228868538  0.8288427771721627  0.1246358308765008
  0.9984868261932607  0.8450245810164698  0.6258038394004619
  0.5038049229644502 -0.0013880454687331  0.3730949326460813
  0.5023575019648070 -0.0012188328648651  0.8720996637274826
  0.5041348231002891  0.3304753430662722  0.3737939837018948
  0.5080628365767874  0.3337787125470628  0.8737018964785155
  0.5043015503837373  0.6634152068183151  0.3728839771132125
  0.5014703541825475  0.6648829728721379  0.8689491657342834
  0.6733112316858638  0.1650050069444667  0.2798162834485314
  0.6737938990914339  0.1648210018000147  0.7804371723826163
  0.6721476820485368  0.4976019992840807  0.2796819111557272
  0.6741844482662626  0.4997879873291690  0.7802873124615389
  0.6725128208935497  0.8318892717618478  0.2799106123748261
  0.6736472151140223  0.8325968949568251  0.7807619257530788
  0.8265762014408549 -0.0019089265540759  0.2186466287030016
  0.8295115651577336  0.0016870167755033  0.7193829384841174
  0.8286730472321445  0.3297634292491647  0.2192535320646059
  0.8274276254964467  0.3331293272056469  0.7205180890055146
  0.8264269403570333  0.6634716499550715  0.2180750364667725
  0.8288149679027180  0.6679158772801915  0.7195435849718005
  0.8320736960342173  0.0025023454372974  0.4465291056753843
  0.8330553682789323 -0.0034071876198513  0.9472412123341651
  0.8322667997789003  0.3333184861999282  0.4426759017940451
  0.8336690768807795  0.3297995932412965  0.9453546569476260
  0.8321965293702250  0.6680351630671948  0.4450389443146852
  0.8319499160408441  0.6618597429701084  0.9460326860854223
  0.6680265636274529  0.1642929768871135  0.0535044185608332
  0.6700326015841697  0.1661771537754861  0.5540624211294424
  0.6685356615337378  0.4979763488680562  0.0543791980538459
  0.6719550815650076  0.4975675652735747  0.5539304657274736
  0.6661045163590347  0.8307047286628525  0.0529935363760173
  0.6693339537644838  0.8316201344742772  0.5535757462133091
  0.4953288381064263 -0.0018419340760811  0.1266235329780909
  0.5000260859010229 -0.0018132374374371  0.6257189121054603
  0.4957850488942501  0.3298557323151485  0.1263406955371481
  0.4984604267207104  0.3337297683394346  0.6256470159918665
  0.4952136831229751  0.6625370700376184  0.1251264515892668
  0.4989877632592610  0.6631862397345639  0.6267796521996786
  0.0087700021032475  0.1535176612288190  0.3809000201517346
  0.0044940977558519  0.1563821714154274  0.8708152534615050
  0.0027872808868334  0.4953639405286900  0.3716985611652855
  0.0051548893614430  0.4918580509538791  0.8717042743955853
  0.0011479738216620  0.8311997427441045  0.3648589496824236
  0.0025380207139221  0.8252763501326142  0.8728078666072638
  0.1731662640085051 -0.0046005042518106  0.2838438143355965
  0.1738934147468482 -0.0150766231569974  0.7808429992181689
  0.1729042904981842  0.3298861616460699  0.2807489149832853
  0.1621108395921021  0.3183084893507834  0.7658197728113512
  0.1731898176512427  0.6621319927945701  0.2796634364168508
  0.1742097194154412  0.6584218834418082  0.7839292050160088
  0.3278351973063867  0.1639172549837240  0.2201872595225809
  0.3384799499863311  0.1701826264638668  0.7239205514380183
  0.3278470297056261  0.4951440182847297  0.2183815915994217
  0.3239936370348441  0.4959753957544685  0.7152744026114748
  0.3285173461645148  0.8291198133648449  0.2186769058734533
  0.3248585544333949  0.8361852102120451  0.7105378312501920
  0.3298130892264129  0.1637089954252045  0.4486312597380852
  0.3285760989900736  0.1675555372033354  0.9436154761502493
  0.3309824712098199  0.4962325402333440  0.4454790214792019
  0.3308297960639252  0.4929653139378001  0.9413576924297420
  0.3353843268253838  0.8299502897123213  0.4452571232599674
  0.3345361531189655  0.8320106477654755  0.9431234096874527
  0.1676775147998286 -0.0045049637953629  0.0546391271151327
  0.1676414775910699  0.3273811436642717  0.0536935557684017
  0.1507566052353400  0.3389011268495160  0.5577392103157927
  0.1691302508205066  0.6630499789608103  0.0542034269985842
  0.1656722995466198  0.6713618377831592  0.5495516630160875
  0.1399498066554556  0.1985281695442876  0.6477800150191215
 
  0.00000000E+00  0.00000000E+00  0.00000000E+00
  0.00000000E+00  0.00000000E+00  0.00000000E+00
  0.00000000E+00  0.00000000E+00  0.00000000E+00
  0.00000000E+00  0.00000000E+00  0.00000000E+00
  0.00000000E+00  0.00000000E+00  0.00000000E+00
  0.00000000E+00  0.00000000E+00  0.00000000E+00
  0.00000000E+00  0.00000000E+00  0.00000000E+00
  0.00000000E+00  0.00000000E+00  0.00000000E+00
  0.00000000E+00  0.00000000E+00  0.00000000E+00
  0.00000000E+00  0.00000000E+00  0.00000000E+00
  0.00000000E+00  0.00000000E+00  0.00000000E+00
  0.00000000E+00  0.00000000E+00  0.00000000E+00
  0.00000000E+00  0.00000000E+00  0.00000000E+00
  0.00000000E+00  0.00000000E+00  0.00000000E+00
  0.00000000E+00  0.00000000E+00  0.00000000E+00
  0.00000000E+00  0.00000000E+00  0.00000000E+00
  0.00000000E+00  0.00000000E+00  0.00000000E+00
  0.00000000E+00  0.00000000E+00  0.00000000E+00
  0.00000000E+00  0.00000000E+00  0.00000000E+00
  0.00000000E+00  0.00000000E+00  0.00000000E+00
  0.00000000E+00  0.00000000E+00  0.00000000E+00
  0.00000000E+00  0.00000000E+00  0.00000000E+00
  0.00000000E+00  0.00000000E+00  0.00000000E+00
  0.00000000E+00  0.00000000E+00  0.00000000E+00
  0.00000000E+00  0.00000000E+00  0.00000000E+00
  0.00000000E+00  0.00000000E+00  0.00000000E+00
  0.00000000E+00  0.00000000E+00  0.00000000E+00
  0.00000000E+00  0.00000000E+00  0.00000000E+00
  0.00000000E+00  0.00000000E+00  0.00000000E+00
  0.00000000E+00  0.00000000E+00  0.00000000E+00
  0.00000000E+00  0.00000000E+00  0.00000000E+00
  0.00000000E+00  0.00000000E+00  0.00000000E+00
  0.00000000E+00  0.00000000E+00  0.00000000E+00
  0.00000000E+00  0.00000000E+00  0.00000000E+00
  0.00000000E+00  0.00000000E+00  0.00000000E+00
  0.00000000E+00  0.00000000E+00  0.00000000E+00
  0.00000000E+00  0.00000000E+00  0.00000000E+00
  0.00000000E+00  0.00000000E+00  0.00000000E+00
  0.00000000E+00  0.00000000E+00  0.00000000E+00
  0.00000000E+00  0.00000000E+00  0.00000000E+00
  0.00000000E+00  0.00000000E+00  0.00000000E+00
  0.00000000E+00  0.00000000E+00  0.00000000E+00
  0.00000000E+00  0.00000000E+00  0.00000000E+00
  0.00000000E+00  0.00000000E+00  0.00000000E+00
  0.00000000E+00  0.00000000E+00  0.00000000E+00
  0.00000000E+00  0.00000000E+00  0.00000000E+00
  0.00000000E+00  0.00000000E+00  0.00000000E+00
  0.00000000E+00  0.00000000E+00  0.00000000E+00
  0.00000000E+00  0.00000000E+00  0.00000000E+00
  0.00000000E+00  0.00000000E+00  0.00000000E+00
  0.00000000E+00  0.00000000E+00  0.00000000E+00
  0.00000000E+00  0.00000000E+00  0.00000000E+00
  0.00000000E+00  0.00000000E+00  0.00000000E+00
  0.00000000E+00  0.00000000E+00  0.00000000E+00
  0.00000000E+00  0.00000000E+00  0.00000000E+00
  0.00000000E+00  0.00000000E+00  0.00000000E+00
  0.00000000E+00  0.00000000E+00  0.00000000E+00
  0.00000000E+00  0.00000000E+00  0.00000000E+00
  0.00000000E+00  0.00000000E+00  0.00000000E+00
  0.00000000E+00  0.00000000E+00  0.00000000E+00
  0.00000000E+00  0.00000000E+00  0.00000000E+00
  0.00000000E+00  0.00000000E+00  0.00000000E+00
  0.00000000E+00  0.00000000E+00  0.00000000E+00
  0.00000000E+00  0.00000000E+00  0.00000000E+00
  0.00000000E+00  0.00000000E+00  0.00000000E+00
  0.00000000E+00  0.00000000E+00  0.00000000E+00
  0.00000000E+00  0.00000000E+00  0.00000000E+00
  0.00000000E+00  0.00000000E+00  0.00000000E+00
  0.00000000E+00  0.00000000E+00  0.00000000E+00
  0.00000000E+00  0.00000000E+00  0.00000000E+00
  0.00000000E+00  0.00000000E+00  0.00000000E+00
  0.00000000E+00  0.00000000E+00  0.00000000E+00
  0.00000000E+00  0.00000000E+00  0.00000000E+00
  0.00000000E+00  0.00000000E+00  0.00000000E+00
  0.00000000E+00  0.00000000E+00  0.00000000E+00
  0.00000000E+00  0.00000000E+00  0.00000000E+00
  0.00000000E+00  0.00000000E+00  0.00000000E+00
  0.00000000E+00  0.00000000E+00  0.00000000E+00
  0.00000000E+00  0.00000000E+00  0.00000000E+00
  0.00000000E+00  0.00000000E+00  0.00000000E+00
  0.00000000E+00  0.00000000E+00  0.00000000E+00
  0.00000000E+00  0.00000000E+00  0.00000000E+00
  0.00000000E+00  0.00000000E+00  0.00000000E+00
  0.00000000E+00  0.00000000E+00  0.00000000E+00
  0.00000000E+00  0.00000000E+00  0.00000000E+00
  0.00000000E+00  0.00000000E+00  0.00000000E+00
  0.00000000E+00  0.00000000E+00  0.00000000E+00
  0.00000000E+00  0.00000000E+00  0.00000000E+00
  0.00000000E+00  0.00000000E+00  0.00000000E+00
  0.00000000E+00  0.00000000E+00  0.00000000E+00
  0.00000000E+00  0.00000000E+00  0.00000000E+00
  0.00000000E+00  0.00000000E+00  0.00000000E+00
  0.00000000E+00  0.00000000E+00  0.00000000E+00
  0.00000000E+00  0.00000000E+00  0.00000000E+00
  0.00000000E+00  0.00000000E+00  0.00000000E+00
  0.00000000E+00  0.00000000E+00  0.00000000E+00
  0.00000000E+00  0.00000000E+00  0.00000000E+00
  0.00000000E+00  0.00000000E+00  0.00000000E+00
  0.00000000E+00  0.00000000E+00  0.00000000E+00
  0.00000000E+00  0.00000000E+00  0.00000000E+00
  0.00000000E+00  0.00000000E+00  0.00000000E+00
  0.00000000E+00  0.00000000E+00  0.00000000E+00
  0.00000000E+00  0.00000000E+00  0.00000000E+00
  0.00000000E+00  0.00000000E+00  0.00000000E+00
  0.00000000E+00  0.00000000E+00  0.00000000E+00
  0.00000000E+00  0.00000000E+00  0.00000000E+00
  0.00000000E+00  0.00000000E+00  0.00000000E+00
  0.00000000E+00  0.00000000E+00  0.00000000E+00
  0.00000000E+00  0.00000000E+00  0.00000000E+00
  0.00000000E+00  0.00000000E+00  0.00000000E+00
  0.00000000E+00  0.00000000E+00  0.00000000E+00
  0.00000000E+00  0.00000000E+00  0.00000000E+00
  0.00000000E+00  0.00000000E+00  0.00000000E+00
  0.00000000E+00  0.00000000E+00  0.00000000E+00
  0.00000000E+00  0.00000000E+00  0.00000000E+00
  0.00000000E+00  0.00000000E+00  0.00000000E+00
  0.00000000E+00  0.00000000E+00  0.00000000E+00
  0.00000000E+00  0.00000000E+00  0.00000000E+00
  0.00000000E+00  0.00000000E+00  0.00000000E+00
