Ga48 O72                                
    1.000000000000000     
     0.0000000000000000   12.2804734172212839    0.0000000000000000
     9.1427020537309431    0.0000000000000000    0.0000000000000000
     0.0000000000000000   -2.7682617730220320  -11.3006977184464645
   Ga   O    P 
    48    71     1
Direct
  0.6605080018451019  0.0000000000000000  0.1555157922403652
  0.6587448745702815  0.0000000000000000  0.6574619309608707
  0.6601602982294708  0.3349422521019463  0.1551103744903131
  0.6602775318842546  0.3337028220266731  0.6567640477233709
  0.6601602982294708  0.6650577478980537  0.1551103744903131
  0.6602775318842546  0.6662971779733269  0.6567640477233709
  0.8347855276653675  0.1691674416769970  0.3437689910916149
  0.8397273975609920  0.1666318686510238  0.8446580719486292
  0.8406533910320846  0.5000000000000000  0.3436936318752828
  0.8396117353270824  0.5000000000000000  0.8412997624941099
  0.8347855276653675  0.8308325583230030  0.3437689910916149
  0.8397273975609920  0.8333681313489762  0.8446580719486292
  0.5915367368511468  0.1687926593185836  0.3982979000933327
  0.5914707802900736  0.1667918591798809  0.8979438432973978
  0.5957068406438495  0.5000000000000000  0.3981261868701722
  0.5929601644922116  0.5000000000000000  0.8970533944592560
  0.5915367368511468  0.8312073406814164  0.3982979000933327
  0.5914707802900736  0.8332081408201191  0.8979438432973978
  0.9099985606115979  0.0000000000000000  0.1033433928726879
  0.9069353910537075  0.0000000000000000  0.6042468903268201
  0.9045511216091242  0.3347171825485944  0.0998915529013900
  0.9074875539657299  0.3334946096428908  0.6004614182348078
  0.9045511216091242  0.6652828174514056  0.0998915529013900
  0.9074875539657299  0.6665053903571092  0.6004614182348078
  0.1607183273268902  0.1707674642901509  0.1476493333756110
  0.1589382854159425  0.1683946795862425  0.6600984016812532
  0.1573439767966960  0.5000000000000000  0.1596093098165881
  0.1589529528607372  0.5000000000000000  0.6539156877981682
  0.1607183273268902  0.8292325357098491  0.1476493333756110
  0.1589382854159425  0.8316053204137575  0.6600984016812532
  0.3503433094944057  0.0000000000000000  0.3537678450264679
  0.3410257753656580  0.0000000000000000  0.8455849743353738
  0.3429201521787490  0.3342914916844393  0.3408293213997737
  0.3421720486055335  0.3340995086622627  0.8432359606810635
  0.3429201521787490  0.6657085083155607  0.3408293213997737
  0.3421720486055335  0.6659004913377373  0.8432359606810635
  0.0683928431837444  0.0000000000000000  0.4160953275943911
  0.0884576080817752  0.0000000000000000  0.8943393416730530
  0.0910041944523670  0.3328556578788593  0.3957566140044264
  0.0888478181095707  0.3337804240561510  0.8955248230139645
  0.0910041944523670  0.6671443421211407  0.3957566140044264
  0.0888478181095707  0.6662195759438490  0.8955248230139645
  0.4131404015504430  0.1684846164788638  0.1018707914592980
  0.4125889809005585  0.1693529758200185  0.6072780799410609
  0.4098243573496561  0.5000000000000000  0.1020234594030569
  0.4105152047882257  0.5000000000000000  0.6013893753039952
  0.4131404015504430  0.8315153835211362  0.1018707914592980
  0.4125889809005585  0.8306470241799815  0.6072780799410609
  0.9910106874498155  0.1707421279116588  0.1175455967722243
  0.9948552185718142  0.1668087237438911  0.6289097485943529
  0.9932463630245891  0.5000000000000000  0.1253464404771947
  0.9956655151227238  0.5000000000000000  0.6259558515321615
  0.9910106874498155  0.8292578720883412  0.1175455967722243
  0.9948552185718142  0.8331912762561089  0.6289097485943529
  0.5073918256371854  0.0000000000000000  0.3716087260807441
  0.5042128721309922  0.0000000000000000  0.8727890508210194
  0.5072591001812512  0.3359249479945348  0.3722559140163284
  0.5049205003706305  0.3340181848584578  0.8732323911165025
  0.5072591001812512  0.6640750520054652  0.3722559140163284
  0.5049205003706305  0.6659818151415422  0.8732323911165025
  0.6708749090975985  0.1662920120504126  0.2791919595799470
  0.6721542355008552  0.1664923427088567  0.7804102741741232
  0.6730401562593684  0.5000000000000000  0.2781127036825026
  0.6730639386097721  0.5000000000000000  0.7795403907243355
  0.6708749090975985  0.8337079879495874  0.2791919595799470
  0.6721542355008552  0.8335076572911433  0.7804102741741232
  0.8278227233171407  0.0000000000000000  0.2210070948019762
  0.8262301207036700  0.0000000000000000  0.7205992644260988
  0.8263520367392232  0.3340652813751248  0.2198457527976601
  0.8273981209339354  0.3327196704910165  0.7189086107394260
  0.8263520367392232  0.6659347186248752  0.2198457527976601
  0.8273981209339354  0.6672803295089835  0.7189086107394260
  0.8303696279471282  0.0000000000000000  0.4472048131801785
  0.8304004838058887  0.0000000000000000  0.9458019054418756
  0.8236253503699587  0.3361763294899802  0.4465632359323806
  0.8281996028620142  0.3350640244805803  0.9430648405256363
  0.8236253503699587  0.6638236705100198  0.4465632359323806
  0.8281996028620142  0.6649359755194197  0.9430648405256363
  0.6699159206419623  0.1669214491194637  0.0538556980472151
  0.6676891812823271  0.1661075809445549  0.5548231269190609
  0.6727880980523651  0.5000000000000000  0.0524200670054924
  0.6691629121009015  0.5000000000000000  0.5553005961186486
  0.6699159206419623  0.8330785508805363  0.0538556980472151
  0.6676891812823271  0.8338924190554380  0.5548231269190609
  0.4988005847466539  0.0000000000000000  0.1246399093768673
  0.4972068279582231  0.0000000000000000  0.6296775549924121
  0.5000384192019496  0.3360168381062039  0.1230154814481210
  0.4996971195696673  0.3356953304474288  0.6328257590207116
  0.5000384192019496  0.6639831618937961  0.1230154814481210
  0.4996971195696673  0.6643046695525712  0.6328257590207116
  0.9933283710999987  0.1763452353734465  0.3834083422960006
  0.0016731407090234  0.1672846253459213  0.8703279438646518
  0.0022232600734569  0.5000000000000000  0.3746230515181850
  0.0016311991010483  0.5000000000000000  0.8703992501803484
  0.9933283710999987  0.8236547646265535  0.3834083422960006
  0.0016731407090234  0.8327153746540787  0.8703279438646518
  0.1737664621573458  0.0000000000000000  0.7822812547643778
  0.1733692656324877  0.3421792094636231  0.2817186544151582
  0.1723648097621435  0.3341388812541908  0.7803580958759824
  0.1733692656324877  0.6578207905363698  0.2817186544151582
  0.1723648097621435  0.6658611187458092  0.7803580958759824
  0.3343921032448449  0.1798046190103548  0.2166871474799663
  0.3280725847926078  0.1674335417022164  0.7209305507862283
  0.3287409703846507  0.5000000000000000  0.2176207413682718
  0.3273344805338709  0.5000000000000000  0.7181589236261274
  0.3343921032448449  0.8201953809896452  0.2166871474799663
  0.3280725847926078  0.8325664582977836  0.7209305507862283
  0.3446568378965793  0.1746932445000198  0.4507507086308280
  0.3354279214135758  0.1685182794868041  0.9455484593116026
  0.3363767901590151  0.5000000000000000  0.4454085082304218
  0.3327072732569505  0.5000000000000000  0.9450138585612819
  0.3446568378965793  0.8253067554999802  0.4507507086308280
  0.3354279214135758  0.8314817205131959  0.9455484593116026
  0.1754724111891406  0.0000000000000000  0.0434236282595819
  0.1638526571117964  0.0000000000000000  0.5628508595876127
  0.1661363699478571  0.3375195311920649  0.0514181833989866
  0.1671615386838710  0.3320892650487366  0.5537689985799616
  0.1661363699478571  0.6624804688079351  0.0514181833989866
  0.1671615386838710  0.6679107349512634  0.5537689985799616
  0.1667164540148178  0.0000000000000000  0.2857392528708900
 
  0.00000000E+00  0.00000000E+00  0.00000000E+00
  0.00000000E+00  0.00000000E+00  0.00000000E+00
  0.00000000E+00  0.00000000E+00  0.00000000E+00
  0.00000000E+00  0.00000000E+00  0.00000000E+00
  0.00000000E+00  0.00000000E+00  0.00000000E+00
  0.00000000E+00  0.00000000E+00  0.00000000E+00
  0.00000000E+00  0.00000000E+00  0.00000000E+00
  0.00000000E+00  0.00000000E+00  0.00000000E+00
  0.00000000E+00  0.00000000E+00  0.00000000E+00
  0.00000000E+00  0.00000000E+00  0.00000000E+00
  0.00000000E+00  0.00000000E+00  0.00000000E+00
  0.00000000E+00  0.00000000E+00  0.00000000E+00
  0.00000000E+00  0.00000000E+00  0.00000000E+00
  0.00000000E+00  0.00000000E+00  0.00000000E+00
  0.00000000E+00  0.00000000E+00  0.00000000E+00
  0.00000000E+00  0.00000000E+00  0.00000000E+00
  0.00000000E+00  0.00000000E+00  0.00000000E+00
  0.00000000E+00  0.00000000E+00  0.00000000E+00
  0.00000000E+00  0.00000000E+00  0.00000000E+00
  0.00000000E+00  0.00000000E+00  0.00000000E+00
  0.00000000E+00  0.00000000E+00  0.00000000E+00
  0.00000000E+00  0.00000000E+00  0.00000000E+00
  0.00000000E+00  0.00000000E+00  0.00000000E+00
  0.00000000E+00  0.00000000E+00  0.00000000E+00
  0.00000000E+00  0.00000000E+00  0.00000000E+00
  0.00000000E+00  0.00000000E+00  0.00000000E+00
  0.00000000E+00  0.00000000E+00  0.00000000E+00
  0.00000000E+00  0.00000000E+00  0.00000000E+00
  0.00000000E+00  0.00000000E+00  0.00000000E+00
  0.00000000E+00  0.00000000E+00  0.00000000E+00
  0.00000000E+00  0.00000000E+00  0.00000000E+00
  0.00000000E+00  0.00000000E+00  0.00000000E+00
  0.00000000E+00  0.00000000E+00  0.00000000E+00
  0.00000000E+00  0.00000000E+00  0.00000000E+00
  0.00000000E+00  0.00000000E+00  0.00000000E+00
  0.00000000E+00  0.00000000E+00  0.00000000E+00
  0.00000000E+00  0.00000000E+00  0.00000000E+00
  0.00000000E+00  0.00000000E+00  0.00000000E+00
  0.00000000E+00  0.00000000E+00  0.00000000E+00
  0.00000000E+00  0.00000000E+00  0.00000000E+00
  0.00000000E+00  0.00000000E+00  0.00000000E+00
  0.00000000E+00  0.00000000E+00  0.00000000E+00
  0.00000000E+00  0.00000000E+00  0.00000000E+00
  0.00000000E+00  0.00000000E+00  0.00000000E+00
  0.00000000E+00  0.00000000E+00  0.00000000E+00
  0.00000000E+00  0.00000000E+00  0.00000000E+00
  0.00000000E+00  0.00000000E+00  0.00000000E+00
  0.00000000E+00  0.00000000E+00  0.00000000E+00
  0.00000000E+00  0.00000000E+00  0.00000000E+00
  0.00000000E+00  0.00000000E+00  0.00000000E+00
  0.00000000E+00  0.00000000E+00  0.00000000E+00
  0.00000000E+00  0.00000000E+00  0.00000000E+00
  0.00000000E+00  0.00000000E+00  0.00000000E+00
  0.00000000E+00  0.00000000E+00  0.00000000E+00
  0.00000000E+00  0.00000000E+00  0.00000000E+00
  0.00000000E+00  0.00000000E+00  0.00000000E+00
  0.00000000E+00  0.00000000E+00  0.00000000E+00
  0.00000000E+00  0.00000000E+00  0.00000000E+00
  0.00000000E+00  0.00000000E+00  0.00000000E+00
  0.00000000E+00  0.00000000E+00  0.00000000E+00
  0.00000000E+00  0.00000000E+00  0.00000000E+00
  0.00000000E+00  0.00000000E+00  0.00000000E+00
  0.00000000E+00  0.00000000E+00  0.00000000E+00
  0.00000000E+00  0.00000000E+00  0.00000000E+00
  0.00000000E+00  0.00000000E+00  0.00000000E+00
  0.00000000E+00  0.00000000E+00  0.00000000E+00
  0.00000000E+00  0.00000000E+00  0.00000000E+00
  0.00000000E+00  0.00000000E+00  0.00000000E+00
  0.00000000E+00  0.00000000E+00  0.00000000E+00
  0.00000000E+00  0.00000000E+00  0.00000000E+00
  0.00000000E+00  0.00000000E+00  0.00000000E+00
  0.00000000E+00  0.00000000E+00  0.00000000E+00
  0.00000000E+00  0.00000000E+00  0.00000000E+00
  0.00000000E+00  0.00000000E+00  0.00000000E+00
  0.00000000E+00  0.00000000E+00  0.00000000E+00
  0.00000000E+00  0.00000000E+00  0.00000000E+00
  0.00000000E+00  0.00000000E+00  0.00000000E+00
  0.00000000E+00  0.00000000E+00  0.00000000E+00
  0.00000000E+00  0.00000000E+00  0.00000000E+00
  0.00000000E+00  0.00000000E+00  0.00000000E+00
  0.00000000E+00  0.00000000E+00  0.00000000E+00
  0.00000000E+00  0.00000000E+00  0.00000000E+00
  0.00000000E+00  0.00000000E+00  0.00000000E+00
  0.00000000E+00  0.00000000E+00  0.00000000E+00
  0.00000000E+00  0.00000000E+00  0.00000000E+00
  0.00000000E+00  0.00000000E+00  0.00000000E+00
  0.00000000E+00  0.00000000E+00  0.00000000E+00
  0.00000000E+00  0.00000000E+00  0.00000000E+00
  0.00000000E+00  0.00000000E+00  0.00000000E+00
  0.00000000E+00  0.00000000E+00  0.00000000E+00
  0.00000000E+00  0.00000000E+00  0.00000000E+00
  0.00000000E+00  0.00000000E+00  0.00000000E+00
  0.00000000E+00  0.00000000E+00  0.00000000E+00
  0.00000000E+00  0.00000000E+00  0.00000000E+00
  0.00000000E+00  0.00000000E+00  0.00000000E+00
  0.00000000E+00  0.00000000E+00  0.00000000E+00
  0.00000000E+00  0.00000000E+00  0.00000000E+00
  0.00000000E+00  0.00000000E+00  0.00000000E+00
  0.00000000E+00  0.00000000E+00  0.00000000E+00
  0.00000000E+00  0.00000000E+00  0.00000000E+00
  0.00000000E+00  0.00000000E+00  0.00000000E+00
  0.00000000E+00  0.00000000E+00  0.00000000E+00
  0.00000000E+00  0.00000000E+00  0.00000000E+00
  0.00000000E+00  0.00000000E+00  0.00000000E+00
  0.00000000E+00  0.00000000E+00  0.00000000E+00
  0.00000000E+00  0.00000000E+00  0.00000000E+00
  0.00000000E+00  0.00000000E+00  0.00000000E+00
  0.00000000E+00  0.00000000E+00  0.00000000E+00
  0.00000000E+00  0.00000000E+00  0.00000000E+00
  0.00000000E+00  0.00000000E+00  0.00000000E+00
  0.00000000E+00  0.00000000E+00  0.00000000E+00
  0.00000000E+00  0.00000000E+00  0.00000000E+00
  0.00000000E+00  0.00000000E+00  0.00000000E+00
  0.00000000E+00  0.00000000E+00  0.00000000E+00
  0.00000000E+00  0.00000000E+00  0.00000000E+00
  0.00000000E+00  0.00000000E+00  0.00000000E+00
  0.00000000E+00  0.00000000E+00  0.00000000E+00
  0.00000000E+00  0.00000000E+00  0.00000000E+00
  0.00000000E+00  0.00000000E+00  0.00000000E+00
  0.00000000E+00  0.00000000E+00  0.00000000E+00
