Ga47 Cu1 N1 O71
1.0
   0.0000000000000000   12.2804737091000007    0.0000000000000000
   9.1427011490000005    0.0000000000000000    0.0000000000000000
   0.0000000000000000   -2.7682616411000001  -11.3006974810000003
Ga Cu N O
47 1 1 71
direct
   0.6588380000000000    0.0000000000000000    0.1573650000000000 Ga
   0.6588380000000000    0.0000000000000000    0.6573650000000000 Ga
   0.6588380000000000    0.3333330000000000    0.1573650000000000 Ga
   0.6588380000000000    0.3333330000000000    0.6573650000000000 Ga
   0.6588380000000000    0.6666670000000000    0.1573650000000000 Ga
   0.6588380000000000    0.6666670000000000    0.6573650000000000 Ga
   0.8411620000000000    0.1666670000000000    0.3426350000000000 Ga
   0.8411620000000000    0.1666670000000000    0.8426350000000000 Ga
   0.8411620000000000    0.5000000000000000    0.3426350000000000 Ga
   0.8411620000000000    0.5000000000000000    0.8426350000000000 Ga
   0.8411620000000000    0.8333330000000000    0.3426350000000000 Ga
   0.8411620000000000    0.8333330000000000    0.8426350000000000 Ga
   0.5904740000000001    0.1666670000000000    0.3973930000000000 Ga
   0.5904740000000001    0.1666670000000000    0.8973930000000000 Ga
   0.5904740000000001    0.5000000000000000    0.3973930000000000 Ga
   0.5904740000000001    0.5000000000000000    0.8973930000000000 Ga
   0.5904740000000001    0.8333330000000000    0.3973930000000000 Ga
   0.5904740000000001    0.8333330000000000    0.8973930000000000 Ga
   0.9095259999999999    0.0000000000000000    0.1026070000000000 Ga
   0.9095259999999999    0.0000000000000000    0.6026070000000000 Ga
   0.9095259999999999    0.3333330000000000    0.1026070000000000 Ga
   0.9095259999999999    0.3333330000000000    0.6026070000000000 Ga
   0.9095259999999999    0.6666670000000000    0.1026070000000000 Ga
   0.9095259999999999    0.6666670000000000    0.6026070000000000 Ga
   0.1588380000000000    0.1666670000000000    0.1573650000000000 Ga
   0.1588380000000000    0.1666670000000000    0.6573650000000000 Ga
   0.1588380000000000    0.5000000000000000    0.1573650000000000 Ga
   0.1588380000000000    0.5000000000000000    0.6573650000000000 Ga
   0.1588380000000000    0.8333330000000000    0.1573650000000000 Ga
   0.1588380000000000    0.8333330000000000    0.6573650000000000 Ga
   0.3411620000000000    0.0000000000000000    0.3426350000000000 Ga
   0.3411620000000000    0.0000000000000000    0.8426350000000000 Ga
   0.3411620000000000    0.3333330000000000    0.8426350000000000 Ga
   0.3411620000000000    0.6666670000000000    0.3426350000000000 Ga
   0.3411620000000000    0.6666670000000000    0.8426350000000000 Ga
   0.0904740000000000    0.0000000000000000    0.3973930000000000 Ga
   0.0904740000000000    0.0000000000000000    0.8973930000000000 Ga
   0.0904740000000000    0.3333330000000000    0.3973930000000000 Ga
   0.0904740000000000    0.3333330000000000    0.8973930000000000 Ga
   0.0904740000000000    0.6666670000000000    0.3973930000000000 Ga
   0.0904740000000000    0.6666670000000000    0.8973930000000000 Ga
   0.4095260000000000    0.1666670000000000    0.1026070000000000 Ga
   0.4095260000000000    0.1666670000000000    0.6026070000000000 Ga
   0.4095260000000000    0.5000000000000000    0.1026070000000000 Ga
   0.4095260000000000    0.5000000000000000    0.6026070000000000 Ga
   0.4095260000000000    0.8333330000000000    0.1026070000000000 Ga
   0.4095260000000000    0.8333330000000000    0.6026070000000000 Ga
   0.3411620000000000    0.3333330000000000    0.3426350000000000 Cu
   0.3266290000000000    0.5000000000000000    0.2183850000000000 N
   0.9964690000000000    0.1666670000000000    0.1283320000000000 O
   0.9964690000000000    0.1666670000000000    0.6283320000000000 O
   0.9964690000000000    0.5000000000000000    0.1283320000000000 O
   0.9964690000000000    0.5000000000000000    0.6283320000000000 O
   0.9964690000000000    0.8333330000000000    0.1283320000000000 O
   0.9964690000000000    0.8333330000000000    0.6283320000000000 O
   0.5035310000000000    0.0000000000000000    0.3716680000000000 O
   0.5035310000000000    0.0000000000000000    0.8716680000000000 O
   0.5035310000000000    0.3333330000000000    0.3716680000000000 O
   0.5035310000000000    0.3333330000000000    0.8716680000000000 O
   0.5035310000000000    0.6666670000000000    0.3716680000000000 O
   0.5035310000000000    0.6666670000000000    0.8716680000000000 O
   0.6733710000000001    0.1666670000000000    0.2816150000000000 O
   0.6733710000000001    0.1666670000000000    0.7816149999999999 O
   0.6733710000000001    0.5000000000000000    0.2816150000000000 O
   0.6733710000000001    0.5000000000000000    0.7816149999999999 O
   0.6733710000000001    0.8333330000000000    0.2816150000000000 O
   0.6733710000000001    0.8333330000000000    0.7816149999999999 O
   0.8266289999999999    0.0000000000000000    0.2183850000000000 O
   0.8266289999999999    0.0000000000000000    0.7183850000000001 O
   0.8266289999999999    0.3333330000000000    0.2183850000000000 O
   0.8266289999999999    0.3333330000000000    0.7183850000000001 O
   0.8266289999999999    0.6666670000000000    0.2183850000000000 O
   0.8266289999999999    0.6666670000000000    0.7183850000000001 O
   0.8354950000000000    0.0000000000000000    0.4454230000000000 O
   0.8354950000000000    0.0000000000000000    0.9454230000000000 O
   0.8354950000000000    0.3333330000000000    0.4454230000000000 O
   0.8354950000000000    0.3333330000000000    0.9454230000000000 O
   0.8354950000000000    0.6666670000000000    0.4454230000000000 O
   0.8354950000000000    0.6666670000000000    0.9454230000000000 O
   0.6645050000000000    0.1666670000000000    0.0545770000000000 O
   0.6645050000000000    0.1666670000000000    0.5545770000000000 O
   0.6645050000000000    0.5000000000000000    0.0545770000000000 O
   0.6645050000000000    0.5000000000000000    0.5545770000000000 O
   0.6645050000000000    0.8333330000000000    0.0545770000000000 O
   0.6645050000000000    0.8333330000000000    0.5545770000000000 O
   0.4964690000000000    0.0000000000000000    0.1283320000000000 O
   0.4964690000000000    0.0000000000000000    0.6283320000000000 O
   0.4964690000000000    0.3333330000000000    0.1283320000000000 O
   0.4964690000000000    0.3333330000000000    0.6283320000000000 O
   0.4964690000000000    0.6666670000000000    0.1283320000000000 O
   0.4964690000000000    0.6666670000000000    0.6283320000000000 O
   0.0035310000000000    0.1666670000000000    0.3716680000000000 O
   0.0035310000000000    0.1666670000000000    0.8716680000000000 O
   0.0035310000000000    0.5000000000000000    0.3716680000000000 O
   0.0035310000000000    0.5000000000000000    0.8716680000000000 O
   0.0035310000000000    0.8333330000000000    0.3716680000000000 O
   0.0035310000000000    0.8333330000000000    0.8716680000000000 O
   0.1733710000000000    0.0000000000000000    0.2816150000000000 O
   0.1733710000000000    0.0000000000000000    0.7816149999999999 O
   0.1733710000000000    0.3333330000000000    0.2816150000000000 O
   0.1733710000000000    0.3333330000000000    0.7816149999999999 O
   0.1733710000000000    0.6666670000000000    0.2816150000000000 O
   0.1733710000000000    0.6666670000000000    0.7816149999999999 O
   0.3266290000000000    0.1666670000000000    0.2183850000000000 O
   0.3266290000000000    0.1666670000000000    0.7183850000000001 O
   0.3266290000000000    0.5000000000000000    0.7183850000000001 O
   0.3266290000000000    0.8333330000000000    0.2183850000000000 O
   0.3266290000000000    0.8333330000000000    0.7183850000000001 O
   0.3354950000000000    0.1666670000000000    0.4454230000000000 O
   0.3354950000000000    0.1666670000000000    0.9454230000000000 O
   0.3354950000000000    0.5000000000000000    0.4454230000000000 O
   0.3354950000000000    0.5000000000000000    0.9454230000000000 O
   0.3354950000000000    0.8333330000000000    0.4454230000000000 O
   0.3354950000000000    0.8333330000000000    0.9454230000000000 O
   0.1645050000000000    0.0000000000000000    0.0545770000000000 O
   0.1645050000000000    0.0000000000000000    0.5545770000000000 O
   0.1645050000000000    0.3333330000000000    0.0545770000000000 O
   0.1645050000000000    0.3333330000000000    0.5545770000000000 O
   0.1645050000000000    0.6666670000000000    0.0545770000000000 O
   0.1645050000000000    0.6666670000000000    0.5545770000000000 O
