Ga48 O72                                
    1.000000000000000     
     0.0000000000000000   12.2804734172212839    0.0000000000000000
     9.1427020537309431    0.0000000000000000    0.0000000000000000
     0.0000000000000000   -2.7682617730220320  -11.3006977184464645
   Ga   O    P 
    47    71     1
Direct
  0.6467755548860481  0.0047765470987287  0.1548594308631763
  0.6654508971002286  0.0049581221833677  0.6626134517565774
  0.6464816299961527  0.3337637653482517  0.1560878178210316
  0.6648951315884943  0.3276183402585247  0.6596836557903174
  0.6443981949835802  0.6718445127112318  0.1579555161477018
  0.6651675300810282  0.6642419124431314  0.6616315965977293
  0.8307978803280207  0.1710217865530410  0.3412992442191083
  0.8562405122687053  0.1609034623596699  0.8575547944690101
  0.8309351275889370  0.4990447118058938  0.3406272984754821
  0.8488117808161348  0.4948737666146030  0.8408677696894529
  0.8287780150080479  0.8346030305571617  0.3447569672852353
  0.8427734178848354  0.8273609850675712  0.8490800566665229
  0.5739653228202002  0.1671004469288491  0.3935140627835594
  0.5835260680609622  0.1711755283682379  0.8966717206899091
  0.5948165237616863  0.5068972904923399  0.4056966190177320
  0.6000065484293984  0.5045170883548309  0.8979206368472958
  0.5873102405055093  0.8337084230163683  0.4031018421162216
  0.5941901233090405  0.8373001067716572  0.8981095323196868
  0.9053389041278876  0.9898317256416505  0.1101487652360760
  0.9005566934169025  0.9675047121875266  0.6020400025714139
  0.9095136205214018  0.3605291245442501  0.1022226832474971
  0.9130645043148746  0.3343267617715924  0.6018525528247096
  0.8925461288159084  0.6223925399796215  0.1052252460936600
  0.8990231546119105  0.7041860893401122  0.5976215302789782
  0.1492327093603194  0.1623678546235681  0.6678233247830292
  0.1779544534975486  0.4768277314912694  0.1574850159197467
  0.1478137287985604  0.5026013099325013  0.6557855936807542
  0.1337153763818861  0.8281592016948522  0.1299773581637211
  0.1762822415134195  0.8327958448551840  0.6471010241428132
  0.3305613396878329  0.0040955350257335  0.3329106485703264
  0.3401625974835412  0.0070651614353139  0.8487720041970377
  0.3408899162017747  0.3323782497126331  0.3505149695109111
  0.3404806173737853  0.3410267402380995  0.8339480169910303
  0.3340051209439849  0.6708012490225883  0.3402840255899093
  0.3470431856085483  0.6668980325489002  0.8330727373226736
  0.0851404098448540  0.0014122340097771  0.3977846764040862
  0.1179868732845080  0.9814526054427475  0.9452613812261248
  0.0868100075371885  0.3301626245126954  0.3950298513891042
  0.1048563568499432  0.3301903791690677  0.9322995425824487
  0.0853911342486384  0.6663521853458505  0.3894824626395277
  0.0910022036657949  0.6644354918366773  0.8921721438675050
  0.3677358514333875  0.1836628772379143  0.0944489123505861
  0.4100023775143455  0.1659852647962765  0.6056370437091587
  0.4017576784539472  0.5053579713111773  0.0967054983129287
  0.4132845826196245  0.4988841962416970  0.6009346473435642
  0.3891833016007666  0.8607688353962573  0.0956003783889656
  0.4163972346723313  0.8338209520734523  0.5948275002055254
  0.9551863518925074  0.1725104935892929  0.1331761515396792
  0.9868386076037652  0.1538252911060383  0.6314187388155901
  0.0492862880557894  0.4029447563502586  0.0634299732872989
  0.9851580177587351  0.5167396764039438  0.6116867073386700
  0.9712787222108474  0.8018806832149750  0.1248880892274471
  0.0298640398786105  0.8337173646850999  0.6384031653332798
  0.4969230362344916  0.9934658576273421  0.3910899071371148
  0.5031251951196722  0.9982119088330776  0.8616761132580848
  0.5065048727055199  0.3460691896185182  0.3961371939413070
  0.5079480796295783  0.3458795390041587  0.8598342082628676
  0.5015478936725302  0.6671825773376696  0.3849938438264928
  0.5103046387258630  0.6685029470713175  0.8632542302386526
  0.6586231187573190  0.1693871964484472  0.2795592220382872
  0.6714012131835005  0.1677913846348815  0.7827678155889970
  0.6573812732439777  0.5023306328217032  0.2766405452780774
  0.6744278751663444  0.4956144303131396  0.7774802041468263
  0.6584956980009551  0.8370061381267888  0.2801347423573546
  0.6753971347702787  0.8327104684539393  0.7807161772024855
  0.8145186762502377  0.9934018221670584  0.2208357868934883
  0.8293461281438539  0.0102958412186354  0.7330292823553037
  0.8123672584000587  0.3348308960501001  0.2257252515595951
  0.8322319983932118  0.3273688775171664  0.7203506887789857
  0.8103003652413747  0.6724750226557532  0.2219738370537883
  0.8269981283298975  0.6555422930901358  0.7246069272765823
  0.8188402424609222  0.0084159562300243  0.4394186167163454
  0.8289994825273510  0.9907004323362401  0.9511412943330129
  0.8223318845872143  0.3364968537190691  0.4490004296692902
  0.8276745661570644  0.3334249153125555  0.9404530882283879
  0.8146682536900371  0.6598493933802345  0.4385278403670441
  0.8220295840044756  0.6582382039647428  0.9425241919395120
  0.6632747177113814  0.1709377843137077  0.0527998395910672
  0.6646812670757427  0.1647015567288079  0.5511267250998486
  0.6617365558730768  0.5041691902889340  0.0570739758652152
  0.6744551536618175  0.4990452927771472  0.5598005291504506
  0.6630310081926254  0.8355586577143939  0.0559423382253357
  0.6627654791964943  0.8339058876462957  0.5596606889539473
  0.4916272803128123  0.0123226254476307  0.1244504140702034
  0.5010670167893707  0.0015650094743762  0.6302067623071181
  0.4881873435569233  0.3390336497225448  0.1234322248265585
  0.5005763869219351  0.3319428376170777  0.6282916306268405
  0.4844209530036068  0.6793740195055804  0.1206163524444150
  0.5022461742595610  0.6649964223399820  0.6280641647173439
  0.9917121431513465  0.1706024555129559  0.3893183019770561
  0.0219192360314224  0.1556376534923416  0.8980052955808944
  0.9946458808317686  0.4987046622272473  0.3596677631652057
  0.0087775723814190  0.4928898731435112  0.8525681423404379
  0.9926955445687824  0.8303848608959967  0.3825055465031255
  0.9955232334824089  0.8209993237668058  0.8590275934488218
  0.1800308268421134  0.0073656522481471  0.7952930320105338
  0.1800493041800735  0.3531235293976422  0.2938806126578157
  0.1714929978485173  0.3335739930134238  0.7881737431630000
  0.1644721504368718  0.6585824746006423  0.2705097644177101
  0.1803671162537697  0.6600417002475965  0.7802657190312630
  0.3775742317422086  0.1794795257616357  0.2559235869545162
  0.3232797794910809  0.1712383089362106  0.7142171003367466
  0.3385574370605084  0.5071232880614502  0.2295280047499517
  0.3262769518570252  0.4993947895476651  0.7111242780885902
  0.3380387083357093  0.8232337145455304  0.2291015035051984
  0.3339789515366434  0.8321819614594617  0.7119755508075016
  0.3287136698581392  0.1711163522376467  0.4548654361091167
  0.3748060025449291  0.1818146246355212  0.9346516846314898
  0.3324797400852475  0.5053637450219739  0.4485367743388551
  0.3473402228418152  0.5088207404775318  0.9354258155994870
  0.3241046831819645  0.8328315139554050  0.4465488840974601
  0.3458517655056497  0.8259278571586748  0.9336859398976429
  0.2731074840641625  0.0206348071574993  0.0528433722005133
  0.1703271428089437  0.0094640735114666  0.5546934234843448
  0.2452934508059670  0.3368844788541949  0.0543115415070758
  0.1522731839992346  0.3319958270957599  0.5575594340223731
  0.1756667749244443  0.6489688611006414  0.0495216589813623
  0.1716259574365750  0.6585246683121895  0.5447763351788240
  0.1490587907574223  0.0400807317453484  0.2387875302453324
 
  0.00000000E+00  0.00000000E+00  0.00000000E+00
  0.00000000E+00  0.00000000E+00  0.00000000E+00
  0.00000000E+00  0.00000000E+00  0.00000000E+00
  0.00000000E+00  0.00000000E+00  0.00000000E+00
  0.00000000E+00  0.00000000E+00  0.00000000E+00
  0.00000000E+00  0.00000000E+00  0.00000000E+00
  0.00000000E+00  0.00000000E+00  0.00000000E+00
  0.00000000E+00  0.00000000E+00  0.00000000E+00
  0.00000000E+00  0.00000000E+00  0.00000000E+00
  0.00000000E+00  0.00000000E+00  0.00000000E+00
  0.00000000E+00  0.00000000E+00  0.00000000E+00
  0.00000000E+00  0.00000000E+00  0.00000000E+00
  0.00000000E+00  0.00000000E+00  0.00000000E+00
  0.00000000E+00  0.00000000E+00  0.00000000E+00
  0.00000000E+00  0.00000000E+00  0.00000000E+00
  0.00000000E+00  0.00000000E+00  0.00000000E+00
  0.00000000E+00  0.00000000E+00  0.00000000E+00
  0.00000000E+00  0.00000000E+00  0.00000000E+00
  0.00000000E+00  0.00000000E+00  0.00000000E+00
  0.00000000E+00  0.00000000E+00  0.00000000E+00
  0.00000000E+00  0.00000000E+00  0.00000000E+00
  0.00000000E+00  0.00000000E+00  0.00000000E+00
  0.00000000E+00  0.00000000E+00  0.00000000E+00
  0.00000000E+00  0.00000000E+00  0.00000000E+00
  0.00000000E+00  0.00000000E+00  0.00000000E+00
  0.00000000E+00  0.00000000E+00  0.00000000E+00
  0.00000000E+00  0.00000000E+00  0.00000000E+00
  0.00000000E+00  0.00000000E+00  0.00000000E+00
  0.00000000E+00  0.00000000E+00  0.00000000E+00
  0.00000000E+00  0.00000000E+00  0.00000000E+00
  0.00000000E+00  0.00000000E+00  0.00000000E+00
  0.00000000E+00  0.00000000E+00  0.00000000E+00
  0.00000000E+00  0.00000000E+00  0.00000000E+00
  0.00000000E+00  0.00000000E+00  0.00000000E+00
  0.00000000E+00  0.00000000E+00  0.00000000E+00
  0.00000000E+00  0.00000000E+00  0.00000000E+00
  0.00000000E+00  0.00000000E+00  0.00000000E+00
  0.00000000E+00  0.00000000E+00  0.00000000E+00
  0.00000000E+00  0.00000000E+00  0.00000000E+00
  0.00000000E+00  0.00000000E+00  0.00000000E+00
  0.00000000E+00  0.00000000E+00  0.00000000E+00
  0.00000000E+00  0.00000000E+00  0.00000000E+00
  0.00000000E+00  0.00000000E+00  0.00000000E+00
  0.00000000E+00  0.00000000E+00  0.00000000E+00
  0.00000000E+00  0.00000000E+00  0.00000000E+00
  0.00000000E+00  0.00000000E+00  0.00000000E+00
  0.00000000E+00  0.00000000E+00  0.00000000E+00
  0.00000000E+00  0.00000000E+00  0.00000000E+00
  0.00000000E+00  0.00000000E+00  0.00000000E+00
  0.00000000E+00  0.00000000E+00  0.00000000E+00
  0.00000000E+00  0.00000000E+00  0.00000000E+00
  0.00000000E+00  0.00000000E+00  0.00000000E+00
  0.00000000E+00  0.00000000E+00  0.00000000E+00
  0.00000000E+00  0.00000000E+00  0.00000000E+00
  0.00000000E+00  0.00000000E+00  0.00000000E+00
  0.00000000E+00  0.00000000E+00  0.00000000E+00
  0.00000000E+00  0.00000000E+00  0.00000000E+00
  0.00000000E+00  0.00000000E+00  0.00000000E+00
  0.00000000E+00  0.00000000E+00  0.00000000E+00
  0.00000000E+00  0.00000000E+00  0.00000000E+00
  0.00000000E+00  0.00000000E+00  0.00000000E+00
  0.00000000E+00  0.00000000E+00  0.00000000E+00
  0.00000000E+00  0.00000000E+00  0.00000000E+00
  0.00000000E+00  0.00000000E+00  0.00000000E+00
  0.00000000E+00  0.00000000E+00  0.00000000E+00
  0.00000000E+00  0.00000000E+00  0.00000000E+00
  0.00000000E+00  0.00000000E+00  0.00000000E+00
  0.00000000E+00  0.00000000E+00  0.00000000E+00
  0.00000000E+00  0.00000000E+00  0.00000000E+00
  0.00000000E+00  0.00000000E+00  0.00000000E+00
  0.00000000E+00  0.00000000E+00  0.00000000E+00
  0.00000000E+00  0.00000000E+00  0.00000000E+00
  0.00000000E+00  0.00000000E+00  0.00000000E+00
  0.00000000E+00  0.00000000E+00  0.00000000E+00
  0.00000000E+00  0.00000000E+00  0.00000000E+00
  0.00000000E+00  0.00000000E+00  0.00000000E+00
  0.00000000E+00  0.00000000E+00  0.00000000E+00
  0.00000000E+00  0.00000000E+00  0.00000000E+00
  0.00000000E+00  0.00000000E+00  0.00000000E+00
  0.00000000E+00  0.00000000E+00  0.00000000E+00
  0.00000000E+00  0.00000000E+00  0.00000000E+00
  0.00000000E+00  0.00000000E+00  0.00000000E+00
  0.00000000E+00  0.00000000E+00  0.00000000E+00
  0.00000000E+00  0.00000000E+00  0.00000000E+00
  0.00000000E+00  0.00000000E+00  0.00000000E+00
  0.00000000E+00  0.00000000E+00  0.00000000E+00
  0.00000000E+00  0.00000000E+00  0.00000000E+00
  0.00000000E+00  0.00000000E+00  0.00000000E+00
  0.00000000E+00  0.00000000E+00  0.00000000E+00
  0.00000000E+00  0.00000000E+00  0.00000000E+00
  0.00000000E+00  0.00000000E+00  0.00000000E+00
  0.00000000E+00  0.00000000E+00  0.00000000E+00
  0.00000000E+00  0.00000000E+00  0.00000000E+00
  0.00000000E+00  0.00000000E+00  0.00000000E+00
  0.00000000E+00  0.00000000E+00  0.00000000E+00
  0.00000000E+00  0.00000000E+00  0.00000000E+00
  0.00000000E+00  0.00000000E+00  0.00000000E+00
  0.00000000E+00  0.00000000E+00  0.00000000E+00
  0.00000000E+00  0.00000000E+00  0.00000000E+00
  0.00000000E+00  0.00000000E+00  0.00000000E+00
  0.00000000E+00  0.00000000E+00  0.00000000E+00
  0.00000000E+00  0.00000000E+00  0.00000000E+00
  0.00000000E+00  0.00000000E+00  0.00000000E+00
  0.00000000E+00  0.00000000E+00  0.00000000E+00
  0.00000000E+00  0.00000000E+00  0.00000000E+00
  0.00000000E+00  0.00000000E+00  0.00000000E+00
  0.00000000E+00  0.00000000E+00  0.00000000E+00
  0.00000000E+00  0.00000000E+00  0.00000000E+00
  0.00000000E+00  0.00000000E+00  0.00000000E+00
  0.00000000E+00  0.00000000E+00  0.00000000E+00
  0.00000000E+00  0.00000000E+00  0.00000000E+00
  0.00000000E+00  0.00000000E+00  0.00000000E+00
  0.00000000E+00  0.00000000E+00  0.00000000E+00
  0.00000000E+00  0.00000000E+00  0.00000000E+00
  0.00000000E+00  0.00000000E+00  0.00000000E+00
  0.00000000E+00  0.00000000E+00  0.00000000E+00
  0.00000000E+00  0.00000000E+00  0.00000000E+00
  0.00000000E+00  0.00000000E+00  0.00000000E+00
  0.00000000E+00  0.00000000E+00  0.00000000E+00
