Ga8 O12                                 
    1.000000000000000     
     0.0000000000000000   12.2804737091000007    0.0000000000000000
     9.1427011490000005    0.0000000000000000    0.0000000000000000
     0.0000000000000000   -2.7682616411000001  -11.3006974810000003
   Ga   O    N    Fe
    47    71     1     1
Direct
  0.6595775783145186  0.9995723630434412  0.1576660884745138
  0.6585032162478157  0.9999445697997942  0.6552200622469826
  0.6593496281116273  0.3328212719373411  0.1562653741444464
  0.6577429779178559  0.3318044197228360  0.6567540968113690
  0.6586156473246874  0.6658503659762474  0.1565728895368252
  0.6566341121994483  0.6681708608443273  0.6572488330130355
  0.8411560647369711  0.1661668937525320  0.3431145007925380
  0.8406161956432001  0.1665090019566122  0.8431360374608659
  0.8406647695301075  0.4996222391327976  0.3421423794541525
  0.8400388710470637  0.5000076245412757  0.8429911026399708
  0.8409731680329244  0.8326515972286970  0.3433503811312093
  0.8405470942367828  0.8333348027414544  0.8431315335663214
  0.5900915945252834  0.1714858460959761  0.3966396208492284
  0.5909499539232925  0.1662885578880307  0.8979406020566927
  0.5903053356286563  0.4995215208776855  0.8975224581447705
  0.5900420995744753  0.8283728671534689  0.3972682454641046
  0.5909618340470075  0.8331801558427969  0.8983002144887422
  0.9094412710855622  0.0001674937162477  0.1023373388515552
  0.9084738982774141  0.9998409759684250  0.6025362696866452
  0.9096929412253658  0.3332594896879613  0.1022373967924963
  0.9084064236611127  0.3333270658194110  0.6018942277300710
  0.9093509164470248  0.6669155719503195  0.1023807123799543
  0.9082581911955003  0.6662762048892574  0.6021058125601755
  0.1605120385760515  0.1673309336982456  0.1577268179907847
  0.1585452473219675  0.1666250147981785  0.6566902047216203
  0.1596677224080238  0.5010275328077967  0.1565679278816106
  0.1591414782318239  0.5000522225361266  0.6565095052695327
  0.1599617373944113  0.8334936433135738  0.1577103511152416
  0.1583088763722600  0.8333966795577794  0.6568725084298990
  0.3431198022547903  0.0010823486932665  0.3433815180530289
  0.3403995986894444  0.9999220694228086  0.8430892152081171
  0.3446147642105757  0.3379121176915305  0.3454992879582690
  0.3405852869399126  0.3336350019837298  0.8437557119038246
  0.3445847748998290  0.6655423090575425  0.3441040203403034
  0.3406439244181385  0.6661050281147922  0.8437510501151166
  0.0911515923682202  0.9999244735672050  0.3973097780386539
  0.0910544245125351  0.0001011082346807  0.8983165886945343
  0.0924748545130782  0.3336597881423202  0.3972304684491021
  0.0907287341444416  0.3335393249428549  0.8977545393124231
  0.0922542953186749  0.6664122546328315  0.3973428571880149
  0.0904179735621398  0.6668912486599936  0.8974565981058475
  0.4087582573080226  0.1659125518655458  0.1020120747863658
  0.4079890914342954  0.1666652437410008  0.6021649880796218
  0.4103016977973510  0.4997326319432531  0.1042764760930339
  0.4083674322291770  0.5006929496411203  0.6008142174636859
  0.4087262501669713  0.8334611713606321  0.1019427706637188
  0.4077156555854913  0.8343347778660188  0.6022302225367255
  0.9972594938092172  0.1666637388462959  0.1273138670979179
  0.9958109258243297  0.1667183923268070  0.6270268581210559
  0.9968794672125227  0.5001810893108924  0.1271863088097263
  0.9961048482124184  0.4998256978709605  0.6270555155977675
  0.9968177723428013  0.8335710108516068  0.1269926098112677
  0.9956766168423954  0.8329519469461530  0.6272630820271488
  0.5056659815177156  0.9993379858123959  0.3734033865341146
  0.5032561471059083  0.9997130693020537  0.8730079130611159
  0.5030371974183367  0.3325521494240462  0.8724777588866885
  0.5066220399955057  0.6587904307769819  0.3750093045311402
  0.5032386849110608  0.6667804692954391  0.8732664668445693
  0.6741275297954914  0.1646035783344999  0.2796880031893210
  0.6723533822309022  0.1663279248534622  0.7806781791970252
  0.6706554605348884  0.5005394792452194  0.2755925242955684
  0.6722658798590828  0.4994949382029432  0.7812259451730199
  0.6729668503269366  0.8328358492952432  0.2805917046339346
  0.6722121968381529  0.8336390061991352  0.7807932062687186
  0.8286736321102026  0.9990692882726577  0.2197833300136836
  0.8273439211343288  0.9996042282238236  0.7198323295369278
  0.8286402612625992  0.3330629033046151  0.2196440584401955
  0.8268309317827374  0.3337302586913324  0.7189688367032332
  0.8283517353924594  0.6663518129188972  0.2198376073015211
  0.8264910322418686  0.6659485617534173  0.7189933602779348
  0.8332472176873083  0.9995487336826727  0.4457934244907236
  0.8322014256048007  0.0000273451867514  0.9458366386685881
  0.8307781033672441  0.3338186688808165  0.4453249192786970
  0.8327255809041034  0.3330302597675896  0.9456889779310274
  0.8310283813635593  0.6653411069870288  0.4455265925604053
  0.8324746988823009  0.6668927983784840  0.9457399054079403
  0.6689243081543594  0.1658942863466564  0.0540165082967121
  0.6689197325393295  0.1656390559635597  0.5546228022755741
  0.6689757624641857  0.4994077244398625  0.0529856039890078
  0.6609095050013210  0.5013135662959201  0.5560413102563828
  0.6687191136353263  0.8330478173038784  0.0545305855450877
  0.6678027465274425  0.8330893030328070  0.5543360017747574
  0.4967207840241983  0.9996679159780655  0.1260937348327644
  0.4960216225353165  0.0003814316108404  0.6282247221182331
  0.4964833108893174  0.3319880018932793  0.1244682174964353
  0.4951760425151974  0.3332371089204500  0.6283767091995074
  0.4962475514961469  0.6674261724296073  0.1255847903506861
  0.4946692404268660  0.6679492546100008  0.6297394048321792
  0.0040377057780816  0.1672352372082031  0.3729986213664844
  0.0033252767559802  0.1666765306630893  0.8725002730389946
  0.0040451561926389  0.4998712279314503  0.3731183800518920
  0.0029956221854874  0.5000808564920902  0.8723781070636960
  0.0038597291780036  0.8328337147839093  0.3731202583868125
  0.0031095283371059  0.8337279875636696  0.8721735542151450
  0.1731833218363690  0.0002892549379894  0.2807544124527439
  0.1714986521701505  0.0000471690659154  0.7802079135153690
  0.1741749479356329  0.3336123249276284  0.2805499406683936
  0.1720294532825832  0.3334757311666010  0.7804323322437554
  0.1729196325009710  0.6682263074721675  0.2800479326514136
  0.1720630360173558  0.6664444399073091  0.7805025561115357
  0.3282871021515490  0.1660098547329838  0.2194480590032555
  0.3267295591278199  0.1663297323271067  0.7196650593432850
  0.3255460993146357  0.5033518299172428  0.2176877347706849
  0.3272916426260721  0.4999361789648020  0.7196831821999723
  0.3286996588907627  0.8337476306205218  0.2199898190409044
  0.3265227392197261  0.8338234056908789  0.7197149325592349
  0.3318038164929646  0.1669981826972844  0.4456674935855318
  0.3311284975063842  0.1662272052502800  0.9454750638619771
  0.3248260861844585  0.5034581628182693  0.4469605133687153
  0.3326931843749819  0.4998231592619931  0.9467652224155216
  0.3330982388468726  0.8339321859548150  0.4452153705120381
  0.3311912551678162  0.8334861230733921  0.9454711345179945
  0.1682860575686504  0.0001702763638605  0.0546151853058632
  0.1674693835091006  0.9999044410472280  0.5542187793912277
  0.1677916216155069  0.3335495097138832  0.0540907068301166
  0.1674615096284668  0.3329661858720385  0.5545114902716151
  0.1672405190635757  0.6677768567191080  0.0536319409530890
  0.1669861721262507  0.6672943318884492  0.5546532270022766
  0.5066427745234918  0.3464400162739025  0.3722264990342339
  0.5993356095790503  0.4897154000850179  0.3996954219322078
 
  0.00000000E+00  0.00000000E+00  0.00000000E+00
  0.00000000E+00  0.00000000E+00  0.00000000E+00
  0.00000000E+00  0.00000000E+00  0.00000000E+00
  0.00000000E+00  0.00000000E+00  0.00000000E+00
  0.00000000E+00  0.00000000E+00  0.00000000E+00
  0.00000000E+00  0.00000000E+00  0.00000000E+00
  0.00000000E+00  0.00000000E+00  0.00000000E+00
  0.00000000E+00  0.00000000E+00  0.00000000E+00
  0.00000000E+00  0.00000000E+00  0.00000000E+00
  0.00000000E+00  0.00000000E+00  0.00000000E+00
  0.00000000E+00  0.00000000E+00  0.00000000E+00
  0.00000000E+00  0.00000000E+00  0.00000000E+00
  0.00000000E+00  0.00000000E+00  0.00000000E+00
  0.00000000E+00  0.00000000E+00  0.00000000E+00
  0.00000000E+00  0.00000000E+00  0.00000000E+00
  0.00000000E+00  0.00000000E+00  0.00000000E+00
  0.00000000E+00  0.00000000E+00  0.00000000E+00
  0.00000000E+00  0.00000000E+00  0.00000000E+00
  0.00000000E+00  0.00000000E+00  0.00000000E+00
  0.00000000E+00  0.00000000E+00  0.00000000E+00
  0.00000000E+00  0.00000000E+00  0.00000000E+00
  0.00000000E+00  0.00000000E+00  0.00000000E+00
  0.00000000E+00  0.00000000E+00  0.00000000E+00
  0.00000000E+00  0.00000000E+00  0.00000000E+00
  0.00000000E+00  0.00000000E+00  0.00000000E+00
  0.00000000E+00  0.00000000E+00  0.00000000E+00
  0.00000000E+00  0.00000000E+00  0.00000000E+00
  0.00000000E+00  0.00000000E+00  0.00000000E+00
  0.00000000E+00  0.00000000E+00  0.00000000E+00
  0.00000000E+00  0.00000000E+00  0.00000000E+00
  0.00000000E+00  0.00000000E+00  0.00000000E+00
  0.00000000E+00  0.00000000E+00  0.00000000E+00
  0.00000000E+00  0.00000000E+00  0.00000000E+00
  0.00000000E+00  0.00000000E+00  0.00000000E+00
  0.00000000E+00  0.00000000E+00  0.00000000E+00
  0.00000000E+00  0.00000000E+00  0.00000000E+00
  0.00000000E+00  0.00000000E+00  0.00000000E+00
  0.00000000E+00  0.00000000E+00  0.00000000E+00
  0.00000000E+00  0.00000000E+00  0.00000000E+00
  0.00000000E+00  0.00000000E+00  0.00000000E+00
  0.00000000E+00  0.00000000E+00  0.00000000E+00
  0.00000000E+00  0.00000000E+00  0.00000000E+00
  0.00000000E+00  0.00000000E+00  0.00000000E+00
  0.00000000E+00  0.00000000E+00  0.00000000E+00
  0.00000000E+00  0.00000000E+00  0.00000000E+00
  0.00000000E+00  0.00000000E+00  0.00000000E+00
  0.00000000E+00  0.00000000E+00  0.00000000E+00
  0.00000000E+00  0.00000000E+00  0.00000000E+00
  0.00000000E+00  0.00000000E+00  0.00000000E+00
  0.00000000E+00  0.00000000E+00  0.00000000E+00
  0.00000000E+00  0.00000000E+00  0.00000000E+00
  0.00000000E+00  0.00000000E+00  0.00000000E+00
  0.00000000E+00  0.00000000E+00  0.00000000E+00
  0.00000000E+00  0.00000000E+00  0.00000000E+00
  0.00000000E+00  0.00000000E+00  0.00000000E+00
  0.00000000E+00  0.00000000E+00  0.00000000E+00
  0.00000000E+00  0.00000000E+00  0.00000000E+00
  0.00000000E+00  0.00000000E+00  0.00000000E+00
  0.00000000E+00  0.00000000E+00  0.00000000E+00
  0.00000000E+00  0.00000000E+00  0.00000000E+00
  0.00000000E+00  0.00000000E+00  0.00000000E+00
  0.00000000E+00  0.00000000E+00  0.00000000E+00
  0.00000000E+00  0.00000000E+00  0.00000000E+00
  0.00000000E+00  0.00000000E+00  0.00000000E+00
  0.00000000E+00  0.00000000E+00  0.00000000E+00
  0.00000000E+00  0.00000000E+00  0.00000000E+00
  0.00000000E+00  0.00000000E+00  0.00000000E+00
  0.00000000E+00  0.00000000E+00  0.00000000E+00
  0.00000000E+00  0.00000000E+00  0.00000000E+00
  0.00000000E+00  0.00000000E+00  0.00000000E+00
  0.00000000E+00  0.00000000E+00  0.00000000E+00
  0.00000000E+00  0.00000000E+00  0.00000000E+00
  0.00000000E+00  0.00000000E+00  0.00000000E+00
  0.00000000E+00  0.00000000E+00  0.00000000E+00
  0.00000000E+00  0.00000000E+00  0.00000000E+00
  0.00000000E+00  0.00000000E+00  0.00000000E+00
  0.00000000E+00  0.00000000E+00  0.00000000E+00
  0.00000000E+00  0.00000000E+00  0.00000000E+00
  0.00000000E+00  0.00000000E+00  0.00000000E+00
  0.00000000E+00  0.00000000E+00  0.00000000E+00
  0.00000000E+00  0.00000000E+00  0.00000000E+00
  0.00000000E+00  0.00000000E+00  0.00000000E+00
  0.00000000E+00  0.00000000E+00  0.00000000E+00
  0.00000000E+00  0.00000000E+00  0.00000000E+00
  0.00000000E+00  0.00000000E+00  0.00000000E+00
  0.00000000E+00  0.00000000E+00  0.00000000E+00
  0.00000000E+00  0.00000000E+00  0.00000000E+00
  0.00000000E+00  0.00000000E+00  0.00000000E+00
  0.00000000E+00  0.00000000E+00  0.00000000E+00
  0.00000000E+00  0.00000000E+00  0.00000000E+00
  0.00000000E+00  0.00000000E+00  0.00000000E+00
  0.00000000E+00  0.00000000E+00  0.00000000E+00
  0.00000000E+00  0.00000000E+00  0.00000000E+00
  0.00000000E+00  0.00000000E+00  0.00000000E+00
  0.00000000E+00  0.00000000E+00  0.00000000E+00
  0.00000000E+00  0.00000000E+00  0.00000000E+00
  0.00000000E+00  0.00000000E+00  0.00000000E+00
  0.00000000E+00  0.00000000E+00  0.00000000E+00
  0.00000000E+00  0.00000000E+00  0.00000000E+00
  0.00000000E+00  0.00000000E+00  0.00000000E+00
  0.00000000E+00  0.00000000E+00  0.00000000E+00
  0.00000000E+00  0.00000000E+00  0.00000000E+00
  0.00000000E+00  0.00000000E+00  0.00000000E+00
  0.00000000E+00  0.00000000E+00  0.00000000E+00
  0.00000000E+00  0.00000000E+00  0.00000000E+00
  0.00000000E+00  0.00000000E+00  0.00000000E+00
  0.00000000E+00  0.00000000E+00  0.00000000E+00
  0.00000000E+00  0.00000000E+00  0.00000000E+00
  0.00000000E+00  0.00000000E+00  0.00000000E+00
  0.00000000E+00  0.00000000E+00  0.00000000E+00
  0.00000000E+00  0.00000000E+00  0.00000000E+00
  0.00000000E+00  0.00000000E+00  0.00000000E+00
  0.00000000E+00  0.00000000E+00  0.00000000E+00
  0.00000000E+00  0.00000000E+00  0.00000000E+00
  0.00000000E+00  0.00000000E+00  0.00000000E+00
  0.00000000E+00  0.00000000E+00  0.00000000E+00
  0.00000000E+00  0.00000000E+00  0.00000000E+00
  0.00000000E+00  0.00000000E+00  0.00000000E+00
  0.00000000E+00  0.00000000E+00  0.00000000E+00
  0.00000000E+00  0.00000000E+00  0.00000000E+00
