       N       E                     dE             d eps       ncg     rms          rms(c)
DAV:   1     0.308838624905E+03    0.30884E+03   -0.19025E+04   464   0.277E+03
DAV:   2     0.222880096232E+01   -0.30661E+03   -0.30199E+03   416   0.410E+02
DAV:   3    -0.175966291756E+02   -0.19825E+02   -0.19071E+02   450   0.160E+02
DAV:   4    -0.180177067207E+02   -0.42108E+00   -0.42000E+00   522   0.288E+01
DAV:   5    -0.180231238332E+02   -0.54171E-02   -0.54165E-02   542   0.291E+00    0.151E+01
RMM:   6    -0.145814212733E+02    0.34417E+01   -0.35592E+01   416   0.987E+01    0.698E+00
RMM:   7    -0.141692275744E+02    0.41219E+00   -0.73102E+00   416   0.469E+01    0.312E+00
RMM:   8    -0.141859942899E+02   -0.16767E-01   -0.74861E-01   439   0.590E+00    0.367E+00
RMM:   9    -0.141386229943E+02    0.47371E-01   -0.64610E-01   452   0.873E+00    0.162E+00
RMM:  10    -0.141221385782E+02    0.16484E-01   -0.57727E-02   433   0.331E+00    0.151E+00
RMM:  11    -0.140934146096E+02    0.28724E-01   -0.74790E-02   434   0.434E+00    0.352E-01
RMM:  12    -0.140922851644E+02    0.11294E-02   -0.11480E-02   420   0.145E+00    0.228E-01
RMM:  13    -0.140925133221E+02   -0.22816E-03   -0.31960E-03   459   0.409E-01    0.141E-01
RMM:  14    -0.140926032954E+02   -0.89973E-04   -0.80560E-04   431   0.352E-01    0.165E-01
RMM:  15    -0.140923121020E+02    0.29119E-03   -0.47535E-04   414   0.345E-01    0.528E-02
RMM:  16    -0.140922755131E+02    0.36589E-04   -0.21300E-04   414   0.183E-01    0.206E-02
RMM:  17    -0.140922798946E+02   -0.43815E-05   -0.62599E-05   330   0.550E-02
   1 F= -.14092280E+02 E0= -.14071586E+02  d E =-.140923E+02
