Ga47 O72                                
    1.000000000000000     
     0.0000000000000000   12.2804734172212839    0.0000000000000000
     9.1427020537309431    0.0000000000000000    0.0000000000000000
     0.0000000000000000   -2.7682617730220320  -11.3006977184464645
   Ga   O 
    47    72
Direct
  0.6611188171106563  0.0000616602972311  0.1579189029929979
  0.6581686166310046  0.0002825878991208  0.6554677914298884
  0.6617115576496950  0.3333333333333357  0.1583441211419361
  0.6580554331407451  0.3333333333333357  0.6550732610293903
  0.6611188171106563  0.6666050063694333  0.1579189029929979
  0.6581686166310046  0.6663840787675439  0.6554677914298884
  0.8434163215791110  0.1671009867762992  0.3444480367067054
  0.8402845426496433  0.1671961796673544  0.8425603311651789
  0.8434163215791110  0.4995656798903649  0.3444480367067054
  0.8402845426496433  0.4994704869993101  0.8425603311651789
  0.8421833835981003  0.8333333333333357  0.3442529600884257
  0.8398355652832294  0.8333333333333357  0.8424280472723603
  0.5891064272703783  0.1703304254592443  0.3958135773720503
  0.5921017331393548  0.1664943072926288  0.8978833431616262
  0.5891064272703783  0.4963362412074201  0.3958135773720503
  0.5921017331393548  0.5001723593740354  0.8978833431616262
  0.5903615787979505  0.8333333333333357  0.3971220197087418
  0.5927878381342504  0.8333333333333357  0.8986459800788499
  0.9087818200736956  0.0002860546061024  0.1017145291462327
  0.9095200398438364  0.0001319216704552  0.6029714602164763
  0.9110248017115414  0.3333333333333357  0.1027013497176345
  0.9100208301472131  0.3333333333333357  0.6027174879574925
  0.9087818200736956  0.6663806120605622  0.1017145291462327
  0.9095200398438364  0.6665347449962089  0.6029714602164763
  0.1631879174664563  0.1696013433953773  0.1610964447664482
  0.1601604041959872  0.1670349733245829  0.6581630254817670
  0.1631879174664563  0.4970653232712872  0.1610964447664482
  0.1601604041959872  0.4996316933420814  0.6581630254817670
  0.1584195705294087  0.8333333333333357  0.1579096602999918
  0.1601044323126776  0.8333333333333357  0.6597267260383185
  0.3399405304094588  0.0039157433452518  0.3407892048841585
  0.3427144684389051  0.0001634306935614  0.8440305502630602
  0.3420703446806250  0.3333333333333357  0.8437165650861281
  0.3399405304094588  0.6627509233214128  0.3407892048841585
  0.3427144684389051  0.6665032359731028  0.8440305502630602
  0.0919392627805411  0.0005179612319955  0.3976116745552800
  0.0899796353868610  0.0001914863667641  0.8974023071181680
  0.0987336982976023  0.3333333333333357  0.3970646721008458
  0.0910433692312450  0.3333333333333357  0.8982340209944333
  0.0919392627805411  0.6661487054346686  0.3976116745552800
  0.0899796353868610  0.6664751802999003  0.8974023071181680
  0.4098161573371362  0.1657953279708547  0.1049742670080314
  0.4057210376714356  0.1663441201960322  0.5982540740943355
  0.4098161573371362  0.5008713386958094  0.1049742670080314
  0.4057210376714356  0.5003225464706321  0.5982540740943355
  0.4099837273574113  0.8333333333333357  0.1039561507850371
  0.4087242643176406  0.8333333333333357  0.6005522516404809
  0.9969334044205845  0.1658036366328420  0.1244240598426353
  0.9973449873938586  0.1664937278253352  0.6289211753571496
  0.9969334044205845  0.5008630300338224  0.1244240598426353
  0.9973449873938586  0.5001729388413291  0.6289211753571496
  0.9948697108898101  0.8333333333333357  0.1257725281077443
  0.9970668151900305  0.8333333333333357  0.6295093420375979
  0.5038287827941472  0.0009060427498380  0.3731757811817469
  0.5051524220867141 -0.0003702551721404  0.8731852528074371
  0.5002045225216365  0.3333333333333357  0.3712253469323697
  0.5048804402914041  0.3333333333333357  0.8725219828086146
  0.5038287827941472  0.6657606239168263  0.3731757811817469
  0.5051524220867141  0.6670369218388049  0.8731852528074371
  0.6743243123700697  0.1663924598113181  0.2807782614721592
  0.6719880349821414  0.1676862621926683  0.7795024857576447
  0.6743243123700697  0.5002742068553464  0.2807782614721592
  0.6719880349821414  0.4989804044739960  0.7795024857576447
  0.6739102607302206  0.8333333333333357  0.2814529261211430
  0.6723881853992024  0.8333333333333357  0.7799015315081260
  0.8290333562805386  0.0004224750113799  0.2203786745298068
  0.8267474675763105  0.0003763136760876  0.7188834285114776
  0.8296569446396638  0.3333333333333357  0.2201931632369740
  0.8270113841906679  0.3333333333333357  0.7186846404178593
  0.8290333562805386  0.6662441916552844  0.2203786745298068
  0.8267474675763105  0.6662903529905768  0.7188834285114776
  0.8335031778589661  0.0002514100950201  0.4465026398095739
  0.8311702876288937  0.0003398807254689  0.9449611572120711
  0.8327060670930795  0.3333333333333357  0.4465435341059306
  0.8321541424208686  0.3333333333333357  0.9458931949529212
  0.8335031778589661  0.6664152565716436  0.4465026398095739
  0.8311702876288937  0.6663267859411953  0.9449611572120711
  0.6686172751512056  0.1672709550888914  0.0545922935985148
  0.6671531862333203  0.1666409513507369  0.5532489646354619
  0.6686172751512056  0.4993957115777726  0.0545922935985148
  0.6671531862333203  0.5000257153159275  0.5532489646354619
  0.6707452341793704  0.8333333333333357  0.0549354373000922
  0.6675390850732540  0.8333333333333357  0.5537623339689747
  0.4991708704773484 -0.0007239591425214  0.1269222872017867
  0.4962191986216739  0.0007459197326827  0.6280352077813576
  0.4977779484732572  0.3333333333333357  0.1331430990838981
  0.4935622140857413  0.3333333333333357  0.6208322959819457
  0.4991708704773484  0.6673906258091860  0.1269222872017867
  0.4962191986216739  0.6659207469339815  0.6280352077813576
  0.0058099188386234  0.1681497131540987  0.3751633513767259
  0.0028033463521366  0.1670767331138988  0.8711417333994904
  0.0058099188386234  0.4985169535125654  0.3751633513767259
  0.0028033463521366  0.4995899335527654  0.8711417333994904
  0.0041456368379016  0.8333333333333357  0.3747487914126307
  0.0023475539650232  0.8333333333333357  0.8707470326294631
  0.1691218750873696 -0.0032485224971323  0.2785582191937942
  0.1736588407182831  0.0001109997154171  0.7821024173905841
  0.1617982102821299  0.3333333333333357  0.2700992160345864
  0.1734398867911973  0.3333333333333357  0.7817994384726106
  0.1691218750873696  0.6699151891637966  0.2785582191937942
  0.1736588407182831  0.6665556669512473  0.7821024173905841
  0.3247707450381132  0.1475726423298215  0.2132769078057745
  0.3285613632979048  0.1669037247161604  0.7205735364043874
  0.3247707450381132  0.5190940243368425  0.2132769078057745
  0.3285613632979048  0.4997629419505040  0.7205735364043874
  0.3274605447857621  0.8333333333333357  0.2190653509628072
  0.3283678057963591  0.8333333333333357  0.7197284069063907
  0.3143837950797871  0.1482507788891746  0.4507610485962052
  0.3357481477867322  0.1670319087181598  0.9468588401551665
  0.3143837950797871  0.5184158877774896  0.4507610485962052
  0.3357481477867322  0.4996347579485044  0.9468588401551665
  0.3324890036463222  0.8333333333333357  0.4440114546558530
  0.3341082654921293  0.8333333333333357  0.9465580615272589
  0.1648212375435100 -0.0004294721841385  0.0535854296003981
  0.1663850537483709 -0.0009116280587561  0.5558534885813059
  0.1706724788721878  0.3333333333333357  0.0526657915882263
  0.1680579244612335  0.3333333333333357  0.5561526701757983
  0.1648212375435100  0.6670961388508027  0.0535854296003981
  0.1663850537483709  0.6675782947254204  0.5558534885813059
 
  0.00000000E+00  0.00000000E+00  0.00000000E+00
  0.00000000E+00  0.00000000E+00  0.00000000E+00
  0.00000000E+00  0.00000000E+00  0.00000000E+00
  0.00000000E+00  0.00000000E+00  0.00000000E+00
  0.00000000E+00  0.00000000E+00  0.00000000E+00
  0.00000000E+00  0.00000000E+00  0.00000000E+00
  0.00000000E+00  0.00000000E+00  0.00000000E+00
  0.00000000E+00  0.00000000E+00  0.00000000E+00
  0.00000000E+00  0.00000000E+00  0.00000000E+00
  0.00000000E+00  0.00000000E+00  0.00000000E+00
  0.00000000E+00  0.00000000E+00  0.00000000E+00
  0.00000000E+00  0.00000000E+00  0.00000000E+00
  0.00000000E+00  0.00000000E+00  0.00000000E+00
  0.00000000E+00  0.00000000E+00  0.00000000E+00
  0.00000000E+00  0.00000000E+00  0.00000000E+00
  0.00000000E+00  0.00000000E+00  0.00000000E+00
  0.00000000E+00  0.00000000E+00  0.00000000E+00
  0.00000000E+00  0.00000000E+00  0.00000000E+00
  0.00000000E+00  0.00000000E+00  0.00000000E+00
  0.00000000E+00  0.00000000E+00  0.00000000E+00
  0.00000000E+00  0.00000000E+00  0.00000000E+00
  0.00000000E+00  0.00000000E+00  0.00000000E+00
  0.00000000E+00  0.00000000E+00  0.00000000E+00
  0.00000000E+00  0.00000000E+00  0.00000000E+00
  0.00000000E+00  0.00000000E+00  0.00000000E+00
  0.00000000E+00  0.00000000E+00  0.00000000E+00
  0.00000000E+00  0.00000000E+00  0.00000000E+00
  0.00000000E+00  0.00000000E+00  0.00000000E+00
  0.00000000E+00  0.00000000E+00  0.00000000E+00
  0.00000000E+00  0.00000000E+00  0.00000000E+00
  0.00000000E+00  0.00000000E+00  0.00000000E+00
  0.00000000E+00  0.00000000E+00  0.00000000E+00
  0.00000000E+00  0.00000000E+00  0.00000000E+00
  0.00000000E+00  0.00000000E+00  0.00000000E+00
  0.00000000E+00  0.00000000E+00  0.00000000E+00
  0.00000000E+00  0.00000000E+00  0.00000000E+00
  0.00000000E+00  0.00000000E+00  0.00000000E+00
  0.00000000E+00  0.00000000E+00  0.00000000E+00
  0.00000000E+00  0.00000000E+00  0.00000000E+00
  0.00000000E+00  0.00000000E+00  0.00000000E+00
  0.00000000E+00  0.00000000E+00  0.00000000E+00
  0.00000000E+00  0.00000000E+00  0.00000000E+00
  0.00000000E+00  0.00000000E+00  0.00000000E+00
  0.00000000E+00  0.00000000E+00  0.00000000E+00
  0.00000000E+00  0.00000000E+00  0.00000000E+00
  0.00000000E+00  0.00000000E+00  0.00000000E+00
  0.00000000E+00  0.00000000E+00  0.00000000E+00
  0.00000000E+00  0.00000000E+00  0.00000000E+00
  0.00000000E+00  0.00000000E+00  0.00000000E+00
  0.00000000E+00  0.00000000E+00  0.00000000E+00
  0.00000000E+00  0.00000000E+00  0.00000000E+00
  0.00000000E+00  0.00000000E+00  0.00000000E+00
  0.00000000E+00  0.00000000E+00  0.00000000E+00
  0.00000000E+00  0.00000000E+00  0.00000000E+00
  0.00000000E+00  0.00000000E+00  0.00000000E+00
  0.00000000E+00  0.00000000E+00  0.00000000E+00
  0.00000000E+00  0.00000000E+00  0.00000000E+00
  0.00000000E+00  0.00000000E+00  0.00000000E+00
  0.00000000E+00  0.00000000E+00  0.00000000E+00
  0.00000000E+00  0.00000000E+00  0.00000000E+00
  0.00000000E+00  0.00000000E+00  0.00000000E+00
  0.00000000E+00  0.00000000E+00  0.00000000E+00
  0.00000000E+00  0.00000000E+00  0.00000000E+00
  0.00000000E+00  0.00000000E+00  0.00000000E+00
  0.00000000E+00  0.00000000E+00  0.00000000E+00
  0.00000000E+00  0.00000000E+00  0.00000000E+00
  0.00000000E+00  0.00000000E+00  0.00000000E+00
  0.00000000E+00  0.00000000E+00  0.00000000E+00
  0.00000000E+00  0.00000000E+00  0.00000000E+00
  0.00000000E+00  0.00000000E+00  0.00000000E+00
  0.00000000E+00  0.00000000E+00  0.00000000E+00
  0.00000000E+00  0.00000000E+00  0.00000000E+00
  0.00000000E+00  0.00000000E+00  0.00000000E+00
  0.00000000E+00  0.00000000E+00  0.00000000E+00
  0.00000000E+00  0.00000000E+00  0.00000000E+00
  0.00000000E+00  0.00000000E+00  0.00000000E+00
  0.00000000E+00  0.00000000E+00  0.00000000E+00
  0.00000000E+00  0.00000000E+00  0.00000000E+00
  0.00000000E+00  0.00000000E+00  0.00000000E+00
  0.00000000E+00  0.00000000E+00  0.00000000E+00
  0.00000000E+00  0.00000000E+00  0.00000000E+00
  0.00000000E+00  0.00000000E+00  0.00000000E+00
  0.00000000E+00  0.00000000E+00  0.00000000E+00
  0.00000000E+00  0.00000000E+00  0.00000000E+00
  0.00000000E+00  0.00000000E+00  0.00000000E+00
  0.00000000E+00  0.00000000E+00  0.00000000E+00
  0.00000000E+00  0.00000000E+00  0.00000000E+00
  0.00000000E+00  0.00000000E+00  0.00000000E+00
  0.00000000E+00  0.00000000E+00  0.00000000E+00
  0.00000000E+00  0.00000000E+00  0.00000000E+00
  0.00000000E+00  0.00000000E+00  0.00000000E+00
  0.00000000E+00  0.00000000E+00  0.00000000E+00
  0.00000000E+00  0.00000000E+00  0.00000000E+00
  0.00000000E+00  0.00000000E+00  0.00000000E+00
  0.00000000E+00  0.00000000E+00  0.00000000E+00
  0.00000000E+00  0.00000000E+00  0.00000000E+00
  0.00000000E+00  0.00000000E+00  0.00000000E+00
  0.00000000E+00  0.00000000E+00  0.00000000E+00
  0.00000000E+00  0.00000000E+00  0.00000000E+00
  0.00000000E+00  0.00000000E+00  0.00000000E+00
  0.00000000E+00  0.00000000E+00  0.00000000E+00
  0.00000000E+00  0.00000000E+00  0.00000000E+00
  0.00000000E+00  0.00000000E+00  0.00000000E+00
  0.00000000E+00  0.00000000E+00  0.00000000E+00
  0.00000000E+00  0.00000000E+00  0.00000000E+00
  0.00000000E+00  0.00000000E+00  0.00000000E+00
  0.00000000E+00  0.00000000E+00  0.00000000E+00
  0.00000000E+00  0.00000000E+00  0.00000000E+00
  0.00000000E+00  0.00000000E+00  0.00000000E+00
  0.00000000E+00  0.00000000E+00  0.00000000E+00
  0.00000000E+00  0.00000000E+00  0.00000000E+00
  0.00000000E+00  0.00000000E+00  0.00000000E+00
  0.00000000E+00  0.00000000E+00  0.00000000E+00
  0.00000000E+00  0.00000000E+00  0.00000000E+00
  0.00000000E+00  0.00000000E+00  0.00000000E+00
  0.00000000E+00  0.00000000E+00  0.00000000E+00
  0.00000000E+00  0.00000000E+00  0.00000000E+00
  0.00000000E+00  0.00000000E+00  0.00000000E+00
  0.00000000E+00  0.00000000E+00  0.00000000E+00
