Ga8 O12                                 
    1.000000000000000     
     0.0000000000000000   12.2804737091000007    0.0000000000000000
     9.1427011490000005    0.0000000000000000    0.0000000000000000
     0.0000000000000000   -2.7682616411000001  -11.3006974810000003
   Ga   O    N    Fe
    47    71     1     1
Direct
  0.6589747359797684  0.9998127372909593  0.1575194588576636
  0.6582979919633161  0.9976363685010554  0.6549692106205995
  0.6589747359797684  0.3335202627090439  0.1575194588576636
  0.6582979919633161  0.3356966314989478  0.6549692106205995
  0.6590624529461877  0.6666669999999968  0.1563388181577565
  0.6583812101355804  0.6666669999999968  0.6558649005320660
  0.8409752775408208  0.1666669999999968  0.3437944485004252
  0.8403548972713892  0.1666669999999968  0.8425424921441902
  0.8410674884652778  0.5001062707932888  0.3435185336013262
  0.8406330569870093  0.5001091756495910  0.8433230858539460
  0.8410674884652778  0.8332267292067144  0.3435185336013262
  0.8406330569870093  0.8332238243504122  0.8433230858539460
  0.5914470866357675  0.1666669999999968  0.8976347395959365
  0.5903155585151367  0.4967632058162792  0.3966800867435794
  0.5912828568793529  0.4999522937912815  0.8976580871752873
  0.5903155585151367  0.8365697941837240  0.3966800867435794
  0.5912828568793529  0.8333807062087217  0.8976580871752873
  0.9084920244577859  0.9999693703017343  0.1020496155667701
  0.9101728469311041  0.9998628916054884  0.6026416978649678
  0.9084920244577859  0.3333636296982689  0.1020496155667701
  0.9101728469311041  0.3334701083945149  0.6026416978649678
  0.9087772757011265  0.6666669999999968  0.1024133494814521
  0.9086161170992071  0.6666669999999968  0.6023690643916098
  0.1586247417742399  0.1666669999999968  0.1560306776174230
  0.1601607942903343  0.1666669999999968  0.6564098714012658
  0.1593427083953429  0.4998439039652851  0.1568925496166926
  0.1592479212540923  0.5001567693376359  0.6568856050973864
  0.1593427083953429  0.8334890960347181  0.1568925496166926
  0.1592479212540923  0.8331762306623673  0.6568856050973864
  0.3404779118343271  0.0018895205262339  0.3439943824296918
  0.3410634881238650  0.0003898591589646  0.8438150685256574
  0.3404779118343271  0.3314434794737693  0.3439943824296918
  0.3410634881238650  0.3329431408410386  0.8438150685256574
  0.3419671397507429  0.6666669999999968  0.3430437738655954
  0.3408156885773721  0.6666669999999968  0.8437472555939891
  0.0909592383889830  0.9999448121228554  0.3975925510819849
  0.0910242555259160  0.0000711383938778  0.8974483348870024
  0.0909592383889830  0.3333881878771479  0.3975925510819849
  0.0910242555259160  0.3332618616061254  0.8974483348870024
  0.0915202136626050  0.6666669999999968  0.3976583068237431
  0.0910124283130003  0.6666669999999968  0.8978978701563918
  0.4093846545049544  0.1666669999999968  0.1035734550634189
  0.4100508144275778  0.1666669999999968  0.6021589527293330
  0.4088637418822501  0.5000430694004336  0.1021763112053407
  0.4080425101098157  0.5005450038311423  0.6028081687995765
  0.4088637418822501  0.8332899305995696  0.1021763112053407
  0.4080425101098157  0.8327879961688609  0.6028081687995765
  0.9962117249585631  0.1666669999999968  0.1268873829856858
  0.9975294022159318  0.1666669999999968  0.6276958245319975
  0.9964356919460542  0.4999612375478577  0.1270078393595071
  0.9969139979812169  0.5005730297243645  0.6277207712688266
  0.9964356919460542  0.8333717624521455  0.1270078393595071
  0.9969139979812169  0.8327599702756388  0.6277207712688266
  0.5044412401127332  0.0081495024600713  0.3725015017104738
  0.5037270310572879  0.0000850299068773  0.8734138962561246
  0.5044412401127332  0.3251834975399319  0.3725015017104738
  0.5037270310572879  0.3332479700931259  0.8734138962561246
  0.5046700998723352  0.6666669999999968  0.3721618096962587
  0.5035757843599171  0.6666669999999968  0.8728191129405332
  0.6721174049991845  0.1666669999999968  0.2825194104266018
  0.6719867745469372  0.1666669999999968  0.7790860892975573
  0.6726750995435609  0.4994995805352573  0.2805866706165574
  0.6725953893970953  0.4999322620625009  0.7800263574231181
  0.6726750995435609  0.8338334194647459  0.2805866706165574
  0.6725953893970953  0.8334007379375024  0.7800263574231181
  0.8273735722280762  0.0002259705856034  0.2195630638028376
  0.8270379464624042  0.0006128153176661  0.7183742855946775
  0.8273735722280762  0.3331070294143998  0.2195630638028376
  0.8270379464624042  0.3327201846823371  0.7183742855946775
  0.8271105885171437  0.6666669999999968  0.2194637794177083
  0.8269415329645682  0.6666669999999968  0.7192603901355881
  0.8338550671623821  0.9997118280522628  0.4461540193237425
  0.8314699215139854  0.0001901991810769  0.9453198299674099
  0.8338550671623821  0.3336211719477404  0.4461540193237425
  0.8314699215139854  0.3331428008189263  0.9453198299674099
  0.8323578122807049  0.6666669999999968  0.4458495611629303
  0.8317351664847266  0.6666669999999968  0.9458063026995163
  0.6678561059514152  0.1666669999999968  0.0549041459309336
  0.6681235205563141  0.4997868202495752  0.0542309469809084
  0.6672146355355295  0.5018325063286966  0.5530014741756730
  0.6681235205563141  0.8335461797504280  0.0542309469809084
  0.6672146355355295  0.8315004936713066  0.5530014741756730
  0.4965709664692923  0.9996984312115416  0.1277156569327573
  0.4957851093567314  0.9986466811934065  0.6290258430251399
  0.4965709664692923  0.3336345687884616  0.1277156569327573
  0.4957851093567314  0.3346863188065967  0.6290258430251399
  0.4965943277182276  0.6666669999999968  0.1269749955032040
  0.4960739529875866  0.6666669999999968  0.6276988908904002
  0.0035809956605561  0.1666669999999968  0.3725655708525011
  0.0031114747406917  0.1666669999999968  0.8727217219056342
  0.0036307234618320  0.5003295052909493  0.3724715659746423
  0.0031610301701619  0.4999567501048006  0.8727454506795667
  0.0036307234618320  0.8330034947090539  0.3724715659746423
  0.0031610301701619  0.8333762498952026  0.8727454506795667
  0.1724377582176544  0.9996440094040295  0.2804507297323795
  0.1728394553905730  0.0001776259539383  0.7806752362553908
  0.1724377582176544  0.3336889905959737  0.2804507297323795
  0.1728394553905730  0.3331553740460649  0.7806752362553908
  0.1735380833726197  0.6666669999999968  0.2808437863330013
  0.1724735508921285  0.6666669999999968  0.7808016545189744
  0.3262581799906599  0.1666669999999968  0.2193204893944412
  0.3279001062661422  0.1666669999999968  0.7195835035195728
  0.3283107967348329  0.4992320525763532  0.2200988112007423
  0.3270003894329747  0.5002344258401550  0.7199486285103234
  0.3283107967348329  0.8341009474236500  0.2200988112007423
  0.3270003894329747  0.8330985741598482  0.7199486285103234
  0.3294553533176199  0.1666669999999968  0.4468318344975089
  0.3325704905897737  0.1666669999999968  0.9466464780112176
  0.3339713729217806  0.4996945852363766  0.4455386040193119
  0.3318735795659578  0.4999368332804792  0.9459079821187188
  0.3339713729217806  0.8336384147636267  0.4455386040193119
  0.3318735795659578  0.8333961667195240  0.9459079821187188
  0.1677970793483894  0.9997999515955343  0.0539991740829109
  0.1679603215153875  0.9994643925543301  0.5540963543481752
  0.1677970793483894  0.3335330484044690  0.0539991740829109
  0.1679603215153875  0.3338686074456731  0.5540963543481752
  0.1683383273720338  0.6666669999999968  0.0544521306715779
  0.1687463555014190  0.6666669999999968  0.5541426945614418
  0.6589032816907618  0.1666669999999968  0.5452694470370645
  0.5962922665663655  0.1666669999999968  0.4031201344487911
 
  0.00000000E+00  0.00000000E+00  0.00000000E+00
  0.00000000E+00  0.00000000E+00  0.00000000E+00
  0.00000000E+00  0.00000000E+00  0.00000000E+00
  0.00000000E+00  0.00000000E+00  0.00000000E+00
  0.00000000E+00  0.00000000E+00  0.00000000E+00
  0.00000000E+00  0.00000000E+00  0.00000000E+00
  0.00000000E+00  0.00000000E+00  0.00000000E+00
  0.00000000E+00  0.00000000E+00  0.00000000E+00
  0.00000000E+00  0.00000000E+00  0.00000000E+00
  0.00000000E+00  0.00000000E+00  0.00000000E+00
  0.00000000E+00  0.00000000E+00  0.00000000E+00
  0.00000000E+00  0.00000000E+00  0.00000000E+00
  0.00000000E+00  0.00000000E+00  0.00000000E+00
  0.00000000E+00  0.00000000E+00  0.00000000E+00
  0.00000000E+00  0.00000000E+00  0.00000000E+00
  0.00000000E+00  0.00000000E+00  0.00000000E+00
  0.00000000E+00  0.00000000E+00  0.00000000E+00
  0.00000000E+00  0.00000000E+00  0.00000000E+00
  0.00000000E+00  0.00000000E+00  0.00000000E+00
  0.00000000E+00  0.00000000E+00  0.00000000E+00
  0.00000000E+00  0.00000000E+00  0.00000000E+00
  0.00000000E+00  0.00000000E+00  0.00000000E+00
  0.00000000E+00  0.00000000E+00  0.00000000E+00
  0.00000000E+00  0.00000000E+00  0.00000000E+00
  0.00000000E+00  0.00000000E+00  0.00000000E+00
  0.00000000E+00  0.00000000E+00  0.00000000E+00
  0.00000000E+00  0.00000000E+00  0.00000000E+00
  0.00000000E+00  0.00000000E+00  0.00000000E+00
  0.00000000E+00  0.00000000E+00  0.00000000E+00
  0.00000000E+00  0.00000000E+00  0.00000000E+00
  0.00000000E+00  0.00000000E+00  0.00000000E+00
  0.00000000E+00  0.00000000E+00  0.00000000E+00
  0.00000000E+00  0.00000000E+00  0.00000000E+00
  0.00000000E+00  0.00000000E+00  0.00000000E+00
  0.00000000E+00  0.00000000E+00  0.00000000E+00
  0.00000000E+00  0.00000000E+00  0.00000000E+00
  0.00000000E+00  0.00000000E+00  0.00000000E+00
  0.00000000E+00  0.00000000E+00  0.00000000E+00
  0.00000000E+00  0.00000000E+00  0.00000000E+00
  0.00000000E+00  0.00000000E+00  0.00000000E+00
  0.00000000E+00  0.00000000E+00  0.00000000E+00
  0.00000000E+00  0.00000000E+00  0.00000000E+00
  0.00000000E+00  0.00000000E+00  0.00000000E+00
  0.00000000E+00  0.00000000E+00  0.00000000E+00
  0.00000000E+00  0.00000000E+00  0.00000000E+00
  0.00000000E+00  0.00000000E+00  0.00000000E+00
  0.00000000E+00  0.00000000E+00  0.00000000E+00
  0.00000000E+00  0.00000000E+00  0.00000000E+00
  0.00000000E+00  0.00000000E+00  0.00000000E+00
  0.00000000E+00  0.00000000E+00  0.00000000E+00
  0.00000000E+00  0.00000000E+00  0.00000000E+00
  0.00000000E+00  0.00000000E+00  0.00000000E+00
  0.00000000E+00  0.00000000E+00  0.00000000E+00
  0.00000000E+00  0.00000000E+00  0.00000000E+00
  0.00000000E+00  0.00000000E+00  0.00000000E+00
  0.00000000E+00  0.00000000E+00  0.00000000E+00
  0.00000000E+00  0.00000000E+00  0.00000000E+00
  0.00000000E+00  0.00000000E+00  0.00000000E+00
  0.00000000E+00  0.00000000E+00  0.00000000E+00
  0.00000000E+00  0.00000000E+00  0.00000000E+00
  0.00000000E+00  0.00000000E+00  0.00000000E+00
  0.00000000E+00  0.00000000E+00  0.00000000E+00
  0.00000000E+00  0.00000000E+00  0.00000000E+00
  0.00000000E+00  0.00000000E+00  0.00000000E+00
  0.00000000E+00  0.00000000E+00  0.00000000E+00
  0.00000000E+00  0.00000000E+00  0.00000000E+00
  0.00000000E+00  0.00000000E+00  0.00000000E+00
  0.00000000E+00  0.00000000E+00  0.00000000E+00
  0.00000000E+00  0.00000000E+00  0.00000000E+00
  0.00000000E+00  0.00000000E+00  0.00000000E+00
  0.00000000E+00  0.00000000E+00  0.00000000E+00
  0.00000000E+00  0.00000000E+00  0.00000000E+00
  0.00000000E+00  0.00000000E+00  0.00000000E+00
  0.00000000E+00  0.00000000E+00  0.00000000E+00
  0.00000000E+00  0.00000000E+00  0.00000000E+00
  0.00000000E+00  0.00000000E+00  0.00000000E+00
  0.00000000E+00  0.00000000E+00  0.00000000E+00
  0.00000000E+00  0.00000000E+00  0.00000000E+00
  0.00000000E+00  0.00000000E+00  0.00000000E+00
  0.00000000E+00  0.00000000E+00  0.00000000E+00
  0.00000000E+00  0.00000000E+00  0.00000000E+00
  0.00000000E+00  0.00000000E+00  0.00000000E+00
  0.00000000E+00  0.00000000E+00  0.00000000E+00
  0.00000000E+00  0.00000000E+00  0.00000000E+00
  0.00000000E+00  0.00000000E+00  0.00000000E+00
  0.00000000E+00  0.00000000E+00  0.00000000E+00
  0.00000000E+00  0.00000000E+00  0.00000000E+00
  0.00000000E+00  0.00000000E+00  0.00000000E+00
  0.00000000E+00  0.00000000E+00  0.00000000E+00
  0.00000000E+00  0.00000000E+00  0.00000000E+00
  0.00000000E+00  0.00000000E+00  0.00000000E+00
  0.00000000E+00  0.00000000E+00  0.00000000E+00
  0.00000000E+00  0.00000000E+00  0.00000000E+00
  0.00000000E+00  0.00000000E+00  0.00000000E+00
  0.00000000E+00  0.00000000E+00  0.00000000E+00
  0.00000000E+00  0.00000000E+00  0.00000000E+00
  0.00000000E+00  0.00000000E+00  0.00000000E+00
  0.00000000E+00  0.00000000E+00  0.00000000E+00
  0.00000000E+00  0.00000000E+00  0.00000000E+00
  0.00000000E+00  0.00000000E+00  0.00000000E+00
  0.00000000E+00  0.00000000E+00  0.00000000E+00
  0.00000000E+00  0.00000000E+00  0.00000000E+00
  0.00000000E+00  0.00000000E+00  0.00000000E+00
  0.00000000E+00  0.00000000E+00  0.00000000E+00
  0.00000000E+00  0.00000000E+00  0.00000000E+00
  0.00000000E+00  0.00000000E+00  0.00000000E+00
  0.00000000E+00  0.00000000E+00  0.00000000E+00
  0.00000000E+00  0.00000000E+00  0.00000000E+00
  0.00000000E+00  0.00000000E+00  0.00000000E+00
  0.00000000E+00  0.00000000E+00  0.00000000E+00
  0.00000000E+00  0.00000000E+00  0.00000000E+00
  0.00000000E+00  0.00000000E+00  0.00000000E+00
  0.00000000E+00  0.00000000E+00  0.00000000E+00
  0.00000000E+00  0.00000000E+00  0.00000000E+00
  0.00000000E+00  0.00000000E+00  0.00000000E+00
  0.00000000E+00  0.00000000E+00  0.00000000E+00
  0.00000000E+00  0.00000000E+00  0.00000000E+00
  0.00000000E+00  0.00000000E+00  0.00000000E+00
  0.00000000E+00  0.00000000E+00  0.00000000E+00
  0.00000000E+00  0.00000000E+00  0.00000000E+00
