Ga8 O12                                 
    1.000000000000000     
     0.0000000000000000   12.2804737091000007    0.0000000000000000
     9.1427011490000005    0.0000000000000000    0.0000000000000000
     0.0000000000000000   -2.7682616411000001  -11.3006974810000003
   Ga   O    N    Fe
    47    71     1     1
Direct
  0.6589747359797687 -0.0001872627090422  0.1575194588576612
  0.6582979919633173 -0.0023636314989473  0.6549692106205978
  0.6589747359797687  0.3335202627090453  0.1575194588576612
  0.6582979919633173  0.3356966314989506  0.6549692106205978
  0.6590624529461888  0.6666669999999968  0.1563388181577559
  0.6583812101355793  0.6666669999999968  0.6558649005320676
  0.8409752775408184  0.1666669999999968  0.3437944485004233
  0.8403548972713910  0.1666669999999968  0.8425424921441881
  0.8410674884652788  0.5001062707932871  0.3435185336013264
  0.8406330569870059  0.5001091756495881  0.8433230858539461
  0.8410674884652788  0.8332267292067161  0.3435185336013264
  0.8406330569870059  0.8332238243504151  0.8433230858539461
  0.5914470866357646  0.1666669999999968  0.8976347395959348
  0.5903155585151355  0.4967632058162805  0.3966800867435799
  0.5912828568793551  0.4999522937912786  0.8976580871752882
  0.5903155585151355  0.8365697941837227  0.3966800867435799
  0.5912828568793551  0.8333807062087246  0.8976580871752882
  0.9084920244577851 -0.0000306296982627  0.1020496155667705
  0.9101728469311066 -0.0001371083945142  0.6026416978649652
  0.9084920244577851  0.3333636296982660  0.1020496155667705
  0.9101728469311066  0.3334701083945174  0.6026416978649652
  0.9087772757011278  0.6666669999999968  0.1024133494814544
  0.9086161170992039  0.6666669999999968  0.6023690643916126
  0.1586247417742418  0.1666669999999968  0.1560306776174246
  0.1601607942903310  0.1666669999999968  0.6564098714012635
  0.1593427083953453  0.4998439039652859  0.1568925496166923
  0.1592479212540917  0.5001567693376358  0.6568856050973878
  0.1593427083953453  0.8334890960347171  0.1568925496166923
  0.1592479212540917  0.8331762306623675  0.6568856050973878
  0.3404779118343297  0.0018895205262309  0.3439943824296931
  0.3410634881238637  0.0003898591589679  0.8438150685256568
  0.3404779118343297  0.3314434794737725  0.3439943824296931
  0.3410634881238637  0.3329431408410352  0.8438150685256568
  0.3419671397507394  0.6666669999999968  0.3430437738655951
  0.3408156885773694  0.6666669999999968  0.8437472555939860
  0.0909592383889814 -0.0000551878771422  0.3975925510819849
  0.0910242555259193  0.0000711383938788  0.8974483348870043
  0.0909592383889814  0.3333881878771453  0.3975925510819849
  0.0910242555259193  0.3332618616061244  0.8974483348870043
  0.0915202136626085  0.6666669999999968  0.3976583068237459
  0.0910124283130018  0.6666669999999968  0.8978978701563940
  0.4093846545049513  0.1666669999999968  0.1035734550634185
  0.4100508144275811  0.1666669999999968  0.6021589527293318
  0.4088637418822467  0.5000430694004352  0.1021763112053397
  0.4080425101098146  0.5005450038311445  0.6028081687995782
  0.4088637418822467  0.8332899305995680  0.1021763112053397
  0.4080425101098146  0.8327879961688587  0.6028081687995782
  0.9962117249585601  0.1666669999999968  0.1268873829856856
  0.9975294022159312  0.1666669999999968  0.6276958245319982
  0.9964356919460569  0.4999612375478608  0.1270078393595070
  0.9969139979812196  0.5005730297243667  0.6277207712688286
  0.9964356919460569  0.8333717624521426  0.1270078393595070
  0.9969139979812196  0.8327599702756365  0.6277207712688286
  0.5044412401127314  0.0081495024600734  0.3725015017104727
  0.5037270310572902  0.0000850299068796  0.8734138962561251
  0.5044412401127314  0.3251834975399296  0.3725015017104727
  0.5037270310572902  0.3332479700931237  0.8734138962561251
  0.5046700998723340  0.6666669999999968  0.3721618096962586
  0.5035757843599158  0.6666669999999968  0.8728191129405319
  0.6721174049991813  0.1666669999999968  0.2825194104266029
  0.6719867745469382  0.1666669999999968  0.7790860892975594
  0.6726750995435624  0.4994995805352603  0.2805866706165600
  0.6725953893970971  0.4999322620624981  0.7800263574231148
  0.6726750995435624  0.8338334194647434  0.2805866706165600
  0.6725953893970971  0.8334007379375056  0.7800263574231148
  0.8273735722280771  0.0002259705856030  0.2195630638028378
  0.8270379464624035  0.0006128153176668  0.7183742855946810
  0.8273735722280771  0.3331070294144002  0.2195630638028378
  0.8270379464624035  0.3327201846823363  0.7183742855946810
  0.8271105885171407  0.6666669999999968  0.2194637794177054
  0.8269415329645714  0.6666669999999968  0.7192603901355852
  0.8338550671623798 -0.0002881719477380  0.4461540193237420
  0.8314699215139848  0.0001901991810793  0.9453198299674073
  0.8338550671623798  0.3336211719477412  0.4461540193237420
  0.8314699215139848  0.3331428008189238  0.9453198299674073
  0.8323578122807016  0.6666669999999968  0.4458495611629296
  0.8317351664847245  0.6666669999999968  0.9458063026995172
  0.6678561059514180  0.1666669999999968  0.0549041459309311
  0.6681235205563140  0.4997868202495781  0.0542309469809103
  0.6672146355355305  0.5018325063286992  0.5530014741756707
  0.6681235205563140  0.8335461797504248  0.0542309469809103
  0.6672146355355305  0.8315004936713040  0.5530014741756707
  0.4965709664692893 -0.0003015687884608  0.1277156569327555
  0.4957851093567322 -0.0013533188065914  0.6290258430251401
  0.4965709664692893  0.3336345687884641  0.1277156569327555
  0.4957851093567322  0.3346863188065943  0.6290258430251401
  0.4965943277182263  0.6666669999999968  0.1269749955032074
  0.4960739529875846  0.6666669999999968  0.6276988908903985
  0.0035809956605553  0.1666669999999968  0.3725655708525035
  0.0031114747406917  0.1666669999999968  0.8727217219056325
  0.0036307234618346  0.5003295052909463  0.3724715659746452
  0.0031610301701609  0.4999567501048003  0.8727454506795685
  0.0036307234618346  0.8330034947090569  0.3724715659746452
  0.0031610301701609  0.8333762498952028  0.8727454506795685
  0.1724377582176536 -0.0003559905959695  0.2804507297323818
  0.1728394553905702  0.0001776259539387  0.7806752362553878
  0.1724377582176536  0.3336889905959727  0.2804507297323818
  0.1728394553905702  0.3331553740460644  0.7806752362553878
  0.1735380833726202  0.6666669999999968  0.2808437863330003
  0.1724735508921290  0.6666669999999968  0.7808016545189745
  0.3262581799906589  0.1666669999999968  0.2193204893944415
  0.3279001062661397  0.1666669999999968  0.7195835035195705
  0.3283107967348318  0.4992320525763507  0.2200988112007404
  0.3270003894329744  0.5002344258401520  0.7199486285103264
  0.3283107967348318  0.8341009474236522  0.2200988112007404
  0.3270003894329744  0.8330985741598512  0.7199486285103264
  0.3294553533176171  0.1666669999999968  0.4468318344975079
  0.3325704905897704  0.1666669999999968  0.9466464780112176
  0.3339713729217811  0.4996945852363748  0.4455386040193116
  0.3318735795659570  0.4999368332804772  0.9459079821187215
  0.3339713729217811  0.8336384147636280  0.4455386040193116
  0.3318735795659570  0.8333961667195268  0.9459079821187215
  0.1677970793483896 -0.0002000484044646  0.0539991740829074
  0.1679603215153894 -0.0005356074456693  0.5540963543481718
  0.1677970793483896  0.3335330484044678  0.0539991740829074
  0.1679603215153894  0.3338686074456725  0.5540963543481718
  0.1683383273720312  0.6666669999999968  0.0544521306715779
  0.1687463555014203  0.6666669999999968  0.5541426945614417
  0.6589032816907618  0.1666669999999968  0.5452694470370625
  0.5962922665663678  0.1666669999999968  0.4031201344487894
 
  0.00000000E+00  0.00000000E+00  0.00000000E+00
  0.00000000E+00  0.00000000E+00  0.00000000E+00
  0.00000000E+00  0.00000000E+00  0.00000000E+00
  0.00000000E+00  0.00000000E+00  0.00000000E+00
  0.00000000E+00  0.00000000E+00  0.00000000E+00
  0.00000000E+00  0.00000000E+00  0.00000000E+00
  0.00000000E+00  0.00000000E+00  0.00000000E+00
  0.00000000E+00  0.00000000E+00  0.00000000E+00
  0.00000000E+00  0.00000000E+00  0.00000000E+00
  0.00000000E+00  0.00000000E+00  0.00000000E+00
  0.00000000E+00  0.00000000E+00  0.00000000E+00
  0.00000000E+00  0.00000000E+00  0.00000000E+00
  0.00000000E+00  0.00000000E+00  0.00000000E+00
  0.00000000E+00  0.00000000E+00  0.00000000E+00
  0.00000000E+00  0.00000000E+00  0.00000000E+00
  0.00000000E+00  0.00000000E+00  0.00000000E+00
  0.00000000E+00  0.00000000E+00  0.00000000E+00
  0.00000000E+00  0.00000000E+00  0.00000000E+00
  0.00000000E+00  0.00000000E+00  0.00000000E+00
  0.00000000E+00  0.00000000E+00  0.00000000E+00
  0.00000000E+00  0.00000000E+00  0.00000000E+00
  0.00000000E+00  0.00000000E+00  0.00000000E+00
  0.00000000E+00  0.00000000E+00  0.00000000E+00
  0.00000000E+00  0.00000000E+00  0.00000000E+00
  0.00000000E+00  0.00000000E+00  0.00000000E+00
  0.00000000E+00  0.00000000E+00  0.00000000E+00
  0.00000000E+00  0.00000000E+00  0.00000000E+00
  0.00000000E+00  0.00000000E+00  0.00000000E+00
  0.00000000E+00  0.00000000E+00  0.00000000E+00
  0.00000000E+00  0.00000000E+00  0.00000000E+00
  0.00000000E+00  0.00000000E+00  0.00000000E+00
  0.00000000E+00  0.00000000E+00  0.00000000E+00
  0.00000000E+00  0.00000000E+00  0.00000000E+00
  0.00000000E+00  0.00000000E+00  0.00000000E+00
  0.00000000E+00  0.00000000E+00  0.00000000E+00
  0.00000000E+00  0.00000000E+00  0.00000000E+00
  0.00000000E+00  0.00000000E+00  0.00000000E+00
  0.00000000E+00  0.00000000E+00  0.00000000E+00
  0.00000000E+00  0.00000000E+00  0.00000000E+00
  0.00000000E+00  0.00000000E+00  0.00000000E+00
  0.00000000E+00  0.00000000E+00  0.00000000E+00
  0.00000000E+00  0.00000000E+00  0.00000000E+00
  0.00000000E+00  0.00000000E+00  0.00000000E+00
  0.00000000E+00  0.00000000E+00  0.00000000E+00
  0.00000000E+00  0.00000000E+00  0.00000000E+00
  0.00000000E+00  0.00000000E+00  0.00000000E+00
  0.00000000E+00  0.00000000E+00  0.00000000E+00
  0.00000000E+00  0.00000000E+00  0.00000000E+00
  0.00000000E+00  0.00000000E+00  0.00000000E+00
  0.00000000E+00  0.00000000E+00  0.00000000E+00
  0.00000000E+00  0.00000000E+00  0.00000000E+00
  0.00000000E+00  0.00000000E+00  0.00000000E+00
  0.00000000E+00  0.00000000E+00  0.00000000E+00
  0.00000000E+00  0.00000000E+00  0.00000000E+00
  0.00000000E+00  0.00000000E+00  0.00000000E+00
  0.00000000E+00  0.00000000E+00  0.00000000E+00
  0.00000000E+00  0.00000000E+00  0.00000000E+00
  0.00000000E+00  0.00000000E+00  0.00000000E+00
  0.00000000E+00  0.00000000E+00  0.00000000E+00
  0.00000000E+00  0.00000000E+00  0.00000000E+00
  0.00000000E+00  0.00000000E+00  0.00000000E+00
  0.00000000E+00  0.00000000E+00  0.00000000E+00
  0.00000000E+00  0.00000000E+00  0.00000000E+00
  0.00000000E+00  0.00000000E+00  0.00000000E+00
  0.00000000E+00  0.00000000E+00  0.00000000E+00
  0.00000000E+00  0.00000000E+00  0.00000000E+00
  0.00000000E+00  0.00000000E+00  0.00000000E+00
  0.00000000E+00  0.00000000E+00  0.00000000E+00
  0.00000000E+00  0.00000000E+00  0.00000000E+00
  0.00000000E+00  0.00000000E+00  0.00000000E+00
  0.00000000E+00  0.00000000E+00  0.00000000E+00
  0.00000000E+00  0.00000000E+00  0.00000000E+00
  0.00000000E+00  0.00000000E+00  0.00000000E+00
  0.00000000E+00  0.00000000E+00  0.00000000E+00
  0.00000000E+00  0.00000000E+00  0.00000000E+00
  0.00000000E+00  0.00000000E+00  0.00000000E+00
  0.00000000E+00  0.00000000E+00  0.00000000E+00
  0.00000000E+00  0.00000000E+00  0.00000000E+00
  0.00000000E+00  0.00000000E+00  0.00000000E+00
  0.00000000E+00  0.00000000E+00  0.00000000E+00
  0.00000000E+00  0.00000000E+00  0.00000000E+00
  0.00000000E+00  0.00000000E+00  0.00000000E+00
  0.00000000E+00  0.00000000E+00  0.00000000E+00
  0.00000000E+00  0.00000000E+00  0.00000000E+00
  0.00000000E+00  0.00000000E+00  0.00000000E+00
  0.00000000E+00  0.00000000E+00  0.00000000E+00
  0.00000000E+00  0.00000000E+00  0.00000000E+00
  0.00000000E+00  0.00000000E+00  0.00000000E+00
  0.00000000E+00  0.00000000E+00  0.00000000E+00
  0.00000000E+00  0.00000000E+00  0.00000000E+00
  0.00000000E+00  0.00000000E+00  0.00000000E+00
  0.00000000E+00  0.00000000E+00  0.00000000E+00
  0.00000000E+00  0.00000000E+00  0.00000000E+00
  0.00000000E+00  0.00000000E+00  0.00000000E+00
  0.00000000E+00  0.00000000E+00  0.00000000E+00
  0.00000000E+00  0.00000000E+00  0.00000000E+00
  0.00000000E+00  0.00000000E+00  0.00000000E+00
  0.00000000E+00  0.00000000E+00  0.00000000E+00
  0.00000000E+00  0.00000000E+00  0.00000000E+00
  0.00000000E+00  0.00000000E+00  0.00000000E+00
  0.00000000E+00  0.00000000E+00  0.00000000E+00
  0.00000000E+00  0.00000000E+00  0.00000000E+00
  0.00000000E+00  0.00000000E+00  0.00000000E+00
  0.00000000E+00  0.00000000E+00  0.00000000E+00
  0.00000000E+00  0.00000000E+00  0.00000000E+00
  0.00000000E+00  0.00000000E+00  0.00000000E+00
  0.00000000E+00  0.00000000E+00  0.00000000E+00
  0.00000000E+00  0.00000000E+00  0.00000000E+00
  0.00000000E+00  0.00000000E+00  0.00000000E+00
  0.00000000E+00  0.00000000E+00  0.00000000E+00
  0.00000000E+00  0.00000000E+00  0.00000000E+00
  0.00000000E+00  0.00000000E+00  0.00000000E+00
  0.00000000E+00  0.00000000E+00  0.00000000E+00
  0.00000000E+00  0.00000000E+00  0.00000000E+00
  0.00000000E+00  0.00000000E+00  0.00000000E+00
  0.00000000E+00  0.00000000E+00  0.00000000E+00
  0.00000000E+00  0.00000000E+00  0.00000000E+00
  0.00000000E+00  0.00000000E+00  0.00000000E+00
  0.00000000E+00  0.00000000E+00  0.00000000E+00
  0.00000000E+00  0.00000000E+00  0.00000000E+00
