Ga8 O12                                 
    1.000000000000000     
     0.0000000000000000   12.2804737091000007    0.0000000000000000
     9.1427011490000005    0.0000000000000000    0.0000000000000000
     0.0000000000000000   -2.7682616411000001  -11.3006974810000003
   Ga   O    Fe
    47    72     1
Direct
  0.6603680411903445  0.0006594274371315  0.1579659225196328
  0.6595651624217322 -0.0000276726794651  0.6568765716654771
  0.6603681316631360  0.3326748510153338  0.1579629660057252
  0.6595658568676201  0.3333606969562593  0.6568768162923528
  0.6596583107638481  0.6666666256987228  0.1577174991350796
  0.6591255626200628  0.6666658583664870  0.6568272632182743
  0.8413587353860128  0.1666606073133108  0.8430153656749600
  0.8410236196637597  0.4977597820842850  0.3443598796744999
  0.8413389218042596  0.4996304278883954  0.8432862158440942
  0.8410236497125727  0.8355709154927996  0.3443623550920851
  0.8413386841116364  0.8337003322778763  0.8432877775985432
  0.5948503450913424  0.1666672289180290  0.3973517456074142
  0.5912738013164321  0.1666661447901020  0.8978373405503995
  0.5911454677514394  0.4995404496229036  0.3975614764423329
  0.5913784014599991  0.4998955733793883  0.8981597255974519
  0.5911455108230855  0.8337929030106265  0.3975618331522133
  0.5913788783127544  0.8334381408658148  0.8981603312708586
  0.9081058343592637  0.0003831476540018  0.1037464917134396
  0.9072556588549266  0.0014807363108652  0.5981489277086495
  0.9081052561008249  0.3329519213183891  0.1037457726062185
  0.9072541393552599  0.3318517721886193  0.5981452229857985
  0.9085661802629802  0.6666663984266517  0.1028400946104406
  0.9091730153874499  0.6666647122189221  0.6022493239098217
  0.1586497173055936  0.1666669215064847  0.1571839431416781
  0.1585045167153230  0.1666669978432113  0.6557485485006558
  0.1588090012866095  0.4995780697938679  0.1570049939276846
  0.1583579964670075  0.4996081177870088  0.6563042187840769
  0.1588084266267468  0.8337554618312009  0.1570061763663247
  0.1583605525755979  0.8337240343622695  0.6563059759784753
  0.3413681422389448  0.0003445307175243  0.3437121544276411
  0.3409000432538783  0.0000153751431304  0.8433522630226363
  0.3413682150683776  0.3329889714939984  0.3437115005503134
  0.3409000811079253  0.3333184045077708  0.8433521509758534
  0.3412840316771461  0.6666667294658497  0.3432283172542813
  0.3409900453288176  0.6666663063805749  0.8433146679369011
  0.0887185277679955  0.0016325376907243  0.3972622162796866
  0.0910947072946817  0.0000426426162875  0.8976301835287157
  0.0887181967839121  0.3317020020338113  0.3972614467658033
  0.0910940398973858  0.3332903233620529  0.8976291147182400
  0.0915891995235411  0.6666659507410500  0.3978421306661800
  0.0913783731501213  0.6666663334341202  0.8979892208596150
  0.4092319138689421  0.1666689937935892  0.1027796025879076
  0.4092768900794165  0.1666666680292638  0.6025646114968365
  0.4093797802792267  0.4997717760000250  0.1026443214824904
  0.4088672816374173  0.4999428186390496  0.6025756177796343
  0.4093814370555777  0.8335656029497505  0.1026453336586256
  0.4088676654088381  0.8333904988172764  0.6025757235163312
  0.9963735296749748  0.1666663938077100  0.1266298422561084
  0.9966042263724414  0.1666665071059461  0.6293958646167931
  0.9962782222467544  0.4998346513006713  0.1268601282460325
  0.9959175527628533  0.4991232661862710  0.6272692379384994
  0.9962777783769523  0.8335000734919560  0.1268607909526961
  0.9959176749738723  0.8342083357613660  0.6272707449977231
  0.5042509736061568  0.0011200270746527  0.3731756914058931
  0.5035515988052969 -0.0000259675662731  0.8724764681569493
  0.5042505691546296  0.3322134318148099  0.3731751237555160
  0.5035520484544194  0.3333585784739622  0.8724768275464675
  0.5036218453814126  0.6666669474699134  0.3732329722283161
  0.5037612053066409  0.6666672064867737  0.8726628938268515
  0.6736118914453404  0.1666663752990094  0.2791036071889420
  0.6727193098944728  0.1666660905612241  0.7807409474981107
  0.6713241643399621  0.5011500810264181  0.2799782841608238
  0.6726393949706599  0.4999097501492746  0.7807160305326908
  0.6713248186242345  0.8321855607615954  0.2799791448688439
  0.6726392786969378  0.8334229707700768  0.7807164079313506
  0.8271530769936148 -0.0005877166949128  0.2205056432050597
  0.8278635726098321 -0.0000277485727673  0.7190072716615705
  0.8271534462797244  0.3339212743381867  0.2205043439262584
  0.8278635746759291  0.3333591669335205  0.7190052294132524
  0.8275274622255223  0.6666688245011845  0.2198951161491486
  0.8275827469175150  0.6666666727663159  0.7197302283182018
  0.8293259707847183  0.0018651117888349  0.4431303808354143
  0.8327990074567665  0.0000101762448966  0.9459155011270530
  0.8293270235930843  0.3314809557869182  0.4431309714281809
  0.8327984885501690  0.3333216732747581  0.9459137013426538
  0.8321143156722562  0.6666680362005603  0.4459915464620933
  0.8324604058283093  0.6666652830409607  0.9456891186050069
  0.6684888008362224  0.1666666265356075  0.0536431265804411
  0.6673970612120081  0.1666662424963197  0.5551970790807086
  0.6679794694590985  0.5000056676215965  0.0544006675021822
  0.6673456985431976  0.5002554870932759  0.5545387737518238
  0.6679804345355339  0.8333282753424758  0.0544017205569726
  0.6673452027545239  0.8330777419264028  0.5545388584368699
  0.4966516637413708  0.0002102450787588  0.1270241862615955
  0.4965589495066605 -0.0001616815426487  0.6277880386775549
  0.4966508618141716  0.3331238298620380  0.1270233395289005
  0.4965591609629884  0.3334951321838194  0.6277880939594664
  0.4962980618120676  0.6666678914977037  0.1268360486104121
  0.4963459043795520  0.6666664864872901  0.6277619011138895
  0.0017878104484892  0.1666657394072288  0.3735850973188271
  0.0039173937976028  0.1666660647263588  0.8735043614068565
  0.0041651567410962  0.5005678315404151  0.3728272372914702
  0.0039342733286215  0.5001143177413864  0.8729011087808919
  0.0041643068506449  0.8327665593723190  0.3728277898598911
  0.0039342280343775  0.8332188424378945  0.8729013310449925
  0.1725415049916772  0.0000251343311586  0.2807737156323385
  0.1728489772954246 -0.0000300289889363  0.7807239895063809
  0.1725414053661947  0.3333081129770124  0.2807733660703761
  0.1728488546147171  0.3333634016254328  0.7807233894285357
  0.1730841812175031  0.6666668072048446  0.2804130073166673
  0.1724753592339320  0.6666661465955998  0.7805185243185954
  0.3274618191566048  0.1666665809281834  0.2197389632985024
  0.3275212188567325  0.1666669500933147  0.7195774293939596
  0.3277479677326550  0.4996359034205259  0.2197049783074172
  0.3274414597533978  0.5000822797554824  0.7197494833221469
  0.3277479702686454  0.8336980807521264  0.2197050730600044
  0.3274418993203880  0.8332505690343885  0.7197498508501888
  0.3321397546873674  0.1666668693438733  0.4461665258365062
  0.3323642668779790  0.1666667486994451  0.9460265336180212
  0.3326156882179930  0.5000011745698242  0.4458916566139876
  0.3323221839234597  0.5000539817832739  0.9459718022783077
  0.3326153856054825  0.8333321381827407  0.4458918272462608
  0.3323224992398796  0.8332798157256490  0.9459725019045547
  0.1682635766391436  0.0001026624993814  0.0542815018689590
  0.1682879762920850 -0.0002035992370456  0.5540099353301252
  0.1682632418071814  0.3332303960544969  0.0542806034620157
  0.1682879644067069  0.3335365552583662  0.5540094566425317
  0.1680782610367366  0.6666672971611126  0.0546073838386885
  0.1683972613243325  0.6666664777731128  0.5546139736596569
  0.8379837610203299  0.1666592055692391  0.3358243537666717
 
  0.00000000E+00  0.00000000E+00  0.00000000E+00
  0.00000000E+00  0.00000000E+00  0.00000000E+00
  0.00000000E+00  0.00000000E+00  0.00000000E+00
  0.00000000E+00  0.00000000E+00  0.00000000E+00
  0.00000000E+00  0.00000000E+00  0.00000000E+00
  0.00000000E+00  0.00000000E+00  0.00000000E+00
  0.00000000E+00  0.00000000E+00  0.00000000E+00
  0.00000000E+00  0.00000000E+00  0.00000000E+00
  0.00000000E+00  0.00000000E+00  0.00000000E+00
  0.00000000E+00  0.00000000E+00  0.00000000E+00
  0.00000000E+00  0.00000000E+00  0.00000000E+00
  0.00000000E+00  0.00000000E+00  0.00000000E+00
  0.00000000E+00  0.00000000E+00  0.00000000E+00
  0.00000000E+00  0.00000000E+00  0.00000000E+00
  0.00000000E+00  0.00000000E+00  0.00000000E+00
  0.00000000E+00  0.00000000E+00  0.00000000E+00
  0.00000000E+00  0.00000000E+00  0.00000000E+00
  0.00000000E+00  0.00000000E+00  0.00000000E+00
  0.00000000E+00  0.00000000E+00  0.00000000E+00
  0.00000000E+00  0.00000000E+00  0.00000000E+00
  0.00000000E+00  0.00000000E+00  0.00000000E+00
  0.00000000E+00  0.00000000E+00  0.00000000E+00
  0.00000000E+00  0.00000000E+00  0.00000000E+00
  0.00000000E+00  0.00000000E+00  0.00000000E+00
  0.00000000E+00  0.00000000E+00  0.00000000E+00
  0.00000000E+00  0.00000000E+00  0.00000000E+00
  0.00000000E+00  0.00000000E+00  0.00000000E+00
  0.00000000E+00  0.00000000E+00  0.00000000E+00
  0.00000000E+00  0.00000000E+00  0.00000000E+00
  0.00000000E+00  0.00000000E+00  0.00000000E+00
  0.00000000E+00  0.00000000E+00  0.00000000E+00
  0.00000000E+00  0.00000000E+00  0.00000000E+00
  0.00000000E+00  0.00000000E+00  0.00000000E+00
  0.00000000E+00  0.00000000E+00  0.00000000E+00
  0.00000000E+00  0.00000000E+00  0.00000000E+00
  0.00000000E+00  0.00000000E+00  0.00000000E+00
  0.00000000E+00  0.00000000E+00  0.00000000E+00
  0.00000000E+00  0.00000000E+00  0.00000000E+00
  0.00000000E+00  0.00000000E+00  0.00000000E+00
  0.00000000E+00  0.00000000E+00  0.00000000E+00
  0.00000000E+00  0.00000000E+00  0.00000000E+00
  0.00000000E+00  0.00000000E+00  0.00000000E+00
  0.00000000E+00  0.00000000E+00  0.00000000E+00
  0.00000000E+00  0.00000000E+00  0.00000000E+00
  0.00000000E+00  0.00000000E+00  0.00000000E+00
  0.00000000E+00  0.00000000E+00  0.00000000E+00
  0.00000000E+00  0.00000000E+00  0.00000000E+00
  0.00000000E+00  0.00000000E+00  0.00000000E+00
  0.00000000E+00  0.00000000E+00  0.00000000E+00
  0.00000000E+00  0.00000000E+00  0.00000000E+00
  0.00000000E+00  0.00000000E+00  0.00000000E+00
  0.00000000E+00  0.00000000E+00  0.00000000E+00
  0.00000000E+00  0.00000000E+00  0.00000000E+00
  0.00000000E+00  0.00000000E+00  0.00000000E+00
  0.00000000E+00  0.00000000E+00  0.00000000E+00
  0.00000000E+00  0.00000000E+00  0.00000000E+00
  0.00000000E+00  0.00000000E+00  0.00000000E+00
  0.00000000E+00  0.00000000E+00  0.00000000E+00
  0.00000000E+00  0.00000000E+00  0.00000000E+00
  0.00000000E+00  0.00000000E+00  0.00000000E+00
  0.00000000E+00  0.00000000E+00  0.00000000E+00
  0.00000000E+00  0.00000000E+00  0.00000000E+00
  0.00000000E+00  0.00000000E+00  0.00000000E+00
  0.00000000E+00  0.00000000E+00  0.00000000E+00
  0.00000000E+00  0.00000000E+00  0.00000000E+00
  0.00000000E+00  0.00000000E+00  0.00000000E+00
  0.00000000E+00  0.00000000E+00  0.00000000E+00
  0.00000000E+00  0.00000000E+00  0.00000000E+00
  0.00000000E+00  0.00000000E+00  0.00000000E+00
  0.00000000E+00  0.00000000E+00  0.00000000E+00
  0.00000000E+00  0.00000000E+00  0.00000000E+00
  0.00000000E+00  0.00000000E+00  0.00000000E+00
  0.00000000E+00  0.00000000E+00  0.00000000E+00
  0.00000000E+00  0.00000000E+00  0.00000000E+00
  0.00000000E+00  0.00000000E+00  0.00000000E+00
  0.00000000E+00  0.00000000E+00  0.00000000E+00
  0.00000000E+00  0.00000000E+00  0.00000000E+00
  0.00000000E+00  0.00000000E+00  0.00000000E+00
  0.00000000E+00  0.00000000E+00  0.00000000E+00
  0.00000000E+00  0.00000000E+00  0.00000000E+00
  0.00000000E+00  0.00000000E+00  0.00000000E+00
  0.00000000E+00  0.00000000E+00  0.00000000E+00
  0.00000000E+00  0.00000000E+00  0.00000000E+00
  0.00000000E+00  0.00000000E+00  0.00000000E+00
  0.00000000E+00  0.00000000E+00  0.00000000E+00
  0.00000000E+00  0.00000000E+00  0.00000000E+00
  0.00000000E+00  0.00000000E+00  0.00000000E+00
  0.00000000E+00  0.00000000E+00  0.00000000E+00
  0.00000000E+00  0.00000000E+00  0.00000000E+00
  0.00000000E+00  0.00000000E+00  0.00000000E+00
  0.00000000E+00  0.00000000E+00  0.00000000E+00
  0.00000000E+00  0.00000000E+00  0.00000000E+00
  0.00000000E+00  0.00000000E+00  0.00000000E+00
  0.00000000E+00  0.00000000E+00  0.00000000E+00
  0.00000000E+00  0.00000000E+00  0.00000000E+00
  0.00000000E+00  0.00000000E+00  0.00000000E+00
  0.00000000E+00  0.00000000E+00  0.00000000E+00
  0.00000000E+00  0.00000000E+00  0.00000000E+00
  0.00000000E+00  0.00000000E+00  0.00000000E+00
  0.00000000E+00  0.00000000E+00  0.00000000E+00
  0.00000000E+00  0.00000000E+00  0.00000000E+00
  0.00000000E+00  0.00000000E+00  0.00000000E+00
  0.00000000E+00  0.00000000E+00  0.00000000E+00
  0.00000000E+00  0.00000000E+00  0.00000000E+00
  0.00000000E+00  0.00000000E+00  0.00000000E+00
  0.00000000E+00  0.00000000E+00  0.00000000E+00
  0.00000000E+00  0.00000000E+00  0.00000000E+00
  0.00000000E+00  0.00000000E+00  0.00000000E+00
  0.00000000E+00  0.00000000E+00  0.00000000E+00
  0.00000000E+00  0.00000000E+00  0.00000000E+00
  0.00000000E+00  0.00000000E+00  0.00000000E+00
  0.00000000E+00  0.00000000E+00  0.00000000E+00
  0.00000000E+00  0.00000000E+00  0.00000000E+00
  0.00000000E+00  0.00000000E+00  0.00000000E+00
  0.00000000E+00  0.00000000E+00  0.00000000E+00
  0.00000000E+00  0.00000000E+00  0.00000000E+00
  0.00000000E+00  0.00000000E+00  0.00000000E+00
  0.00000000E+00  0.00000000E+00  0.00000000E+00
  0.00000000E+00  0.00000000E+00  0.00000000E+00
  0.00000000E+00  0.00000000E+00  0.00000000E+00
