 running    4 mpi-ranks, on    1 nodes
 distrk:  each k-point on    1 cores,    4 groups
 distr:  one band on    1 cores,    1 groups
 OpenACC runtime initialized ...    4 GPUs detected
 vasp.6.4.2 20Jul23 (build Nov 12 2023 22:16:35) complex                         
 POSCAR found type information on POSCAR GaO Fe
 POSCAR found :  3 types and     120 ions
 scaLAPACK will be used selectively (only on CPU)
 LDA part: xc-table for Pade appr. of Perdew
 POSCAR, INCAR and KPOINTS ok, starting setup
 FFT: planning ... GRIDC
 FFT: planning ... GRID_SOFT
 FFT: planning ... GRID
 WAVECAR not read
 entering main loop
       N       E                     dE             d eps       ncg     rms          rms(c)
DAV:   1     0.218642881122E+05    0.21864E+05   -0.32102E+05 10096   0.281E+03
DAV:   2     0.486202034950E+04   -0.17002E+05   -0.16021E+05 10096   0.815E+02
DAV:   3    -0.135238804446E+03   -0.49973E+04   -0.46886E+04 12784   0.321E+02
DAV:   4    -0.781916139765E+03   -0.64668E+03   -0.63000E+03 12408   0.123E+02
DAV:   5    -0.830480808376E+03   -0.48565E+02   -0.48020E+02 14648   0.362E+01BRMIX: very serious problems
 the old and the new charge density differ
 old charge density:  1051.00000 new 1051.99974
BRMIX: very serious problems
 the old and the new charge density differ
 old charge density:  1051.00000 new 1051.99974
BRMIX: very serious problems
 the old and the new charge density differ
 old charge density:  1051.00000 new 1051.99974
BRMIX: very serious problems
 the old and the new charge density differ
 old charge density:  1051.00000 new 1051.99974
    0.759E+01
DAV:   6    -0.842295439245E+03   -0.11815E+02   -0.74278E+02 16768   0.754E+01    0.252E+02
DAV:   7    -0.818772432528E+03    0.23523E+02   -0.23663E+02 12640   0.201E+01    0.148E+02
DAV:   8    -0.712571730901E+03    0.10620E+03   -0.13653E+02 12424   0.383E+01    0.180E+01
DAV:   9    -0.724625205122E+03   -0.12053E+02   -0.84027E+01 13576   0.208E+01    0.421E+01
DAV:  10    -0.713291949769E+03    0.11333E+02   -0.55385E+00 12776   0.117E+01    0.130E+01
DAV:  11    -0.712899528138E+03    0.39242E+00   -0.42459E+00 14872   0.998E+00    0.967E+00
DAV:  12    -0.712137667583E+03    0.76186E+00   -0.92710E-01 13736   0.409E+00    0.636E+00
DAV:  13    -0.711939467632E+03    0.19820E+00   -0.76181E-01 14592   0.218E+00    0.473E+00
DAV:  14    -0.711922903293E+03    0.16564E-01   -0.11335E-01 13216   0.113E+00    0.431E+00
DAV:  15    -0.711939442392E+03   -0.16539E-01   -0.81557E-02 13664   0.143E+00    0.420E+00
DAV:  16    -0.711820170151E+03    0.11927E+00   -0.37950E-01 14848   0.102E+00    0.251E+00
DAV:  17    -0.711743601345E+03    0.76569E-01   -0.95915E-02 17864   0.153E+00    0.128E+00
DAV:  18    -0.711745625693E+03   -0.20243E-02   -0.52407E-02 11088   0.506E-01    0.118E+00
DAV:  19    -0.711742575689E+03    0.30500E-02   -0.72422E-03 14296   0.204E-01    0.108E+00
DAV:  20    -0.711739686811E+03    0.28889E-02   -0.22791E-03 16440   0.560E-01    0.993E-01
DAV:  21    -0.711726978158E+03    0.12709E-01   -0.19338E-02 15360   0.104E+00    0.490E-01
DAV:  22    -0.711725249322E+03    0.17288E-02   -0.73715E-03 13728   0.223E-01    0.250E-01
DAV:  23    -0.711724951607E+03    0.29771E-03   -0.37510E-03 14848   0.135E-01    0.141E-01
DAV:  24    -0.711724982900E+03   -0.31293E-04   -0.18149E-03 12984   0.150E-01    0.129E-01
DAV:  25    -0.711724971409E+03    0.11491E-04   -0.15141E-04 11888   0.558E-02    0.111E-01
DAV:  26    -0.711724998147E+03   -0.26738E-04   -0.10262E-03  9280   0.134E-01    0.138E-01
DAV:  27    -0.711724907081E+03    0.91066E-04   -0.49649E-04 12704   0.774E-02    0.506E-02
DAV:  28    -0.711724909854E+03   -0.27733E-05   -0.13257E-04  9208   0.369E-02    0.548E-02
DAV:  29    -0.711724911064E+03   -0.12097E-05   -0.52054E-05  7632   0.259E-02
   1 F= -.71172491E+03 E0= -.71171637E+03  d E =-.711725E+03
 curvature:   0.00 expect dE= 0.000E+00 dE for cont linesearch  0.000E+00
 trial: gam= 0.00000 g(F)=  0.405E+00 g(S)=  0.000E+00 ort = 0.000E+00 (trialstep = 0.100E+01)
 search vector abs. value=  0.405E+00
 bond charge predicted
       N       E                     dE             d eps       ncg     rms          rms(c)
DAV:   1    -0.711410243730E+03    0.31467E+00   -0.81331E+01 11224   0.129E+01    0.184E+00
DAV:   2    -0.711853818071E+03   -0.44357E+00   -0.45149E+00 13912   0.461E+00    0.174E+00
DAV:   3    -0.711870648749E+03   -0.16831E-01   -0.48313E-01 13896   0.145E+00    0.129E+00
DAV:   4    -0.711850144380E+03    0.20504E-01   -0.45073E-02 16648   0.125E+00    0.724E-01
DAV:   5    -0.711843656617E+03    0.64878E-02   -0.42336E-02 15736   0.225E+00    0.484E-01
DAV:   6    -0.711844983812E+03   -0.13272E-02   -0.40736E-02 13192   0.659E-01    0.293E-01
DAV:   7    -0.711844669940E+03    0.31387E-03   -0.19347E-02 13752   0.656E-01    0.167E-01
DAV:   8    -0.711844349421E+03    0.32052E-03   -0.38341E-03 14776   0.250E-01    0.105E-01
DAV:   9    -0.711844269507E+03    0.79914E-04   -0.18798E-03 15680   0.132E-01    0.873E-02
DAV:  10    -0.711844297050E+03   -0.27542E-04   -0.18867E-03 12032   0.107E-01    0.658E-02
DAV:  11    -0.711844248607E+03    0.48443E-04   -0.68482E-04 11368   0.140E-01    0.478E-02
DAV:  12    -0.711844236778E+03    0.11829E-04   -0.54160E-04 15296   0.645E-02    0.394E-02
DAV:  13    -0.711844258216E+03   -0.21438E-04   -0.55539E-04 10872   0.569E-02    0.244E-02
DAV:  14    -0.711844251936E+03    0.62793E-05   -0.11931E-04  5896   0.208E-02    0.192E-02
DAV:  15    -0.711844250193E+03    0.17430E-05   -0.96846E-05  5712   0.224E-02
   2 F= -.71184425E+03 E0= -.71183675E+03  d E =-.119339E+00
 trial-energy change:   -0.119339  1 .order   -0.112389   -0.405192    0.180414
 step:   0.7067(harm=  0.6919)  dis= 0.04003  next Energy=  -711.870534 (dE=-0.146E+00)
 bond charge predicted
       N       E                     dE             d eps       ncg     rms          rms(c)
DAV:   1    -0.711838457172E+03    0.57948E-02   -0.69983E+00 11256   0.383E+00    0.538E-01
DAV:   2    -0.711869404640E+03   -0.30947E-01   -0.32113E-01 13720   0.143E+00    0.349E-01
DAV:   3    -0.711871806807E+03   -0.24022E-02   -0.41875E-02 13800   0.466E-01    0.252E-01
DAV:   4    -0.711871004497E+03    0.80231E-03   -0.50121E-03 15256   0.737E-01    0.182E-01
DAV:   5    -0.711870550861E+03    0.45364E-03   -0.35217E-03 15960   0.676E-01    0.920E-02
DAV:   6    -0.711870551753E+03   -0.89203E-06   -0.29473E-03 16608   0.165E-01    0.473E-02
DAV:   7    -0.711870592143E+03   -0.40390E-04   -0.14290E-03 14328   0.265E-01    0.361E-02
DAV:   8    -0.711870612127E+03   -0.19984E-04   -0.36420E-04 11736   0.394E-02    0.284E-02
DAV:   9    -0.711870599272E+03    0.12855E-04   -0.43177E-05  7008   0.466E-02    0.215E-02
DAV:  10    -0.711870597727E+03    0.15448E-05   -0.96279E-05 11232   0.973E-02
   3 F= -.71187060E+03 E0= -.71186316E+03  d E =-.145687E+00
 curvature:  -0.35 expect dE=-0.377E-01 dE for cont linesearch -0.238E-06
 trial: gam= 0.26798 g(F)=  0.109E+00 g(S)=  0.000E+00 ort = 0.528E-03 (trialstep = 0.941E+00)
 search vector abs. value=  0.138E+00
 bond charge predicted
       N       E                     dE             d eps       ncg     rms          rms(c)
DAV:   1    -0.711817796446E+03    0.52803E-01   -0.29009E+01 10464   0.711E+00    0.118E+00
DAV:   2    -0.711924319426E+03   -0.10652E+00   -0.10759E+00 14240   0.225E+00    0.778E-01
DAV:   3    -0.711927397675E+03   -0.30782E-02   -0.63823E-02 13056   0.702E-01    0.537E-01
DAV:   4    -0.711928611416E+03   -0.12137E-02   -0.23577E-02 14008   0.112E+00    0.502E-01
DAV:   5    -0.711927907003E+03    0.70441E-03   -0.27324E-02 17160   0.742E-01    0.194E-01
DAV:   6    -0.711927670303E+03    0.23670E-03   -0.45970E-03 13568   0.359E-01    0.928E-02
DAV:   7    -0.711927596889E+03    0.73414E-04   -0.12438E-03 16112   0.145E-01    0.653E-02
DAV:   8    -0.711927575206E+03    0.21683E-04   -0.56086E-04 13592   0.665E-02    0.401E-02
DAV:   9    -0.711927571249E+03    0.39569E-05   -0.36160E-04 12024   0.450E-02    0.346E-02
DAV:  10    -0.711927563558E+03    0.76909E-05   -0.19957E-04  8776   0.392E-02    0.191E-02
DAV:  11    -0.711927570343E+03   -0.67852E-05   -0.19373E-04  9736   0.210E-02    0.201E-02
DAV:  12    -0.711927569166E+03    0.11771E-05   -0.65630E-05  6800   0.181E-02
   4 F= -.71192757E+03 E0= -.71192010E+03  d E =-.569714E-01
 trial-energy change:   -0.056971  1 .order   -0.056801   -0.102844   -0.010759
 step:   1.0513(harm=  1.0513)  dis= 0.03666  next Energy=  -711.928028 (dE=-0.574E-01)
 bond charge predicted
       N       E                     dE             d eps       ncg     rms          rms(c)
DAV:   1    -0.711926742569E+03    0.82777E-03   -0.39604E-01 10521   0.829E-01    0.136E-01
DAV:   2    -0.711928171604E+03   -0.14290E-02   -0.14480E-02 14152   0.257E-01    0.959E-02
DAV:   3    -0.711928209747E+03   -0.38144E-04   -0.10792E-03 13376   0.869E-02    0.700E-02
DAV:   4    -0.711928202263E+03    0.74845E-05   -0.38035E-04 12704   0.839E-02    0.537E-02
DAV:   5    -0.711928200730E+03    0.15327E-05   -0.26741E-04 11528   0.950E-02    0.316E-02
DAV:   6    -0.711928206851E+03   -0.61211E-05   -0.26022E-04 12888   0.250E-02    0.224E-02
DAV:   7    -0.711928203058E+03    0.37934E-05   -0.89938E-05  5864   0.143E-02
   5 F= -.71192820E+03 E0= -.71192074E+03  d E =-.576053E-01
 curvature:  -0.67 expect dE=-0.343E-01 dE for cont linesearch -0.122E-05
 trial: gam= 0.46187 g(F)=  0.515E-01 g(S)=  0.000E+00 ort =-0.504E-03 (trialstep = 0.963E+00)
 search vector abs. value=  0.806E-01
 bond charge predicted
       N       E                     dE             d eps       ncg     rms          rms(c)
DAV:   1    -0.711888544951E+03    0.39662E-01   -0.18064E+01 10576   0.602E+00    0.718E-01
DAV:   2    -0.711958149954E+03   -0.69605E-01   -0.73595E-01 15640   0.176E+00    0.434E-01
DAV:   3    -0.711958851565E+03   -0.70161E-03   -0.37430E-02 13592   0.480E-01    0.331E-01
DAV:   4    -0.711957797441E+03    0.10541E-02   -0.81559E-03 13880   0.376E-01    0.252E-01
DAV:   5    -0.711956656468E+03    0.11410E-02   -0.48598E-03 17088   0.623E-01    0.916E-02
DAV:   6    -0.711956791862E+03   -0.13539E-03   -0.30169E-03 12256   0.117E-01    0.689E-02
DAV:   7    -0.711956787957E+03    0.39052E-05   -0.89209E-04 13864   0.909E-02    0.534E-02
DAV:   8    -0.711956760638E+03    0.27319E-04   -0.34431E-04 15696   0.706E-02    0.321E-02
DAV:   9    -0.711956748692E+03    0.11946E-04   -0.16235E-04  9272   0.680E-02    0.243E-02
DAV:  10    -0.711956748113E+03    0.57871E-06   -0.13954E-04 10056   0.374E-02    0.168E-02
DAV:  11    -0.711956750339E+03   -0.22259E-05   -0.96122E-05  7952   0.301E-02
   6 F= -.71195675E+03 E0= -.71194932E+03  d E =-.285473E-01
 trial-energy change:   -0.028547  1 .order   -0.028294   -0.049414   -0.007175
 step:   1.1204(harm=  1.1270)  dis= 0.01273  next Energy=  -711.957336 (dE=-0.291E-01)
 bond charge predicted
       N       E                     dE             d eps       ncg     rms          rms(c)
DAV:   1    -0.711955628193E+03    0.11199E-02   -0.48077E-01 10514   0.983E-01    0.115E-01
DAV:   2    -0.711957445373E+03   -0.18172E-02   -0.19256E-02 15296   0.289E-01    0.707E-02
DAV:   3    -0.711957477441E+03   -0.32068E-04   -0.11391E-03 13424   0.809E-02    0.544E-02
DAV:   4    -0.711957454379E+03    0.23062E-04   -0.27456E-04 11904   0.709E-02    0.449E-02
DAV:   5    -0.711957423398E+03    0.30981E-04   -0.18452E-04 11688   0.123E-01    0.216E-02
DAV:   6    -0.711957429776E+03   -0.63777E-05   -0.16730E-04 12768   0.213E-02    0.198E-02
DAV:   7    -0.711957427797E+03    0.19788E-05   -0.58884E-05  6088   0.153E-02
   7 F= -.71195743E+03 E0= -.71194999E+03  d E =-.292247E-01
 curvature:  -0.88 expect dE=-0.245E-01 dE for cont linesearch -0.214E-05
 trial: gam= 0.52409 g(F)=  0.277E-01 g(S)=  0.000E+00 ort = 0.442E-03 (trialstep = 0.995E+00)
 search vector abs. value=  0.503E-01
 bond charge predicted
       N       E                     dE             d eps       ncg     rms          rms(c)
DAV:   1    -0.711925168227E+03    0.32262E-01   -0.12021E+01 10504   0.490E+00    0.622E-01
DAV:   2    -0.711972249346E+03   -0.47081E-01   -0.49409E-01 15232   0.142E+00    0.294E-01
DAV:   3    -0.711973035424E+03   -0.78608E-03   -0.22093E-02 12912   0.366E-01    0.207E-01
DAV:   4    -0.711972803704E+03    0.23172E-03   -0.50651E-03 14232   0.507E-01    0.186E-01
DAV:   5    -0.711972460934E+03    0.34277E-03   -0.39472E-03 15920   0.369E-01    0.703E-02
DAV:   6    -0.711972473652E+03   -0.12718E-04   -0.13841E-03 13248   0.131E-01    0.465E-02
DAV:   7    -0.711972469489E+03    0.41629E-05   -0.39201E-04 14984   0.517E-02    0.353E-02
DAV:   8    -0.711972460832E+03    0.86570E-05   -0.14212E-04  9088   0.341E-02    0.228E-02
DAV:   9    -0.711972461936E+03   -0.11038E-05   -0.13353E-04  8960   0.232E-02    0.167E-02
DAV:  10    -0.711972459203E+03    0.27328E-05   -0.51077E-05  6456   0.338E-02
   8 F= -.71197246E+03 E0= -.71196508E+03  d E =-.150314E-01
 trial-energy change:   -0.015031  1 .order   -0.014863   -0.027746   -0.001980
 step:   1.0681(harm=  1.0712)  dis= 0.01077  next Energy=  -711.972532 (dE=-0.151E-01)
 bond charge predicted
       N       E                     dE             d eps       ncg     rms          rms(c)
DAV:   1    -0.711972307207E+03    0.15473E-03   -0.65832E-02 10522   0.363E-01    0.453E-02
DAV:   2    -0.711972558447E+03   -0.25124E-03   -0.26808E-03 14432   0.109E-01    0.271E-02
DAV:   3    -0.711972566070E+03   -0.76224E-05   -0.20741E-04 11748   0.358E-02    0.220E-02
DAV:   4    -0.711972564082E+03    0.19878E-05   -0.65798E-05  6944   0.257E-02
   9 F= -.71197256E+03 E0= -.71196519E+03  d E =-.151363E-01
 curvature:  -0.96 expect dE=-0.148E-01 dE for cont linesearch -0.374E-05
 trial: gam= 0.55658 g(F)=  0.154E-01 g(S)=  0.000E+00 ort = 0.442E-03 (trialstep = 0.101E+01)
 search vector abs. value=  0.314E-01
 bond charge predicted
       N       E                     dE             d eps       ncg     rms          rms(c)
DAV:   1    -0.711953724005E+03    0.18842E-01   -0.79901E+00 10408   0.395E+00    0.497E-01
DAV:   2    -0.711983156683E+03   -0.29433E-01   -0.30792E-01 14848   0.109E+00    0.227E-01
DAV:   3    -0.711983412799E+03   -0.25612E-03   -0.11854E-02 12696   0.293E-01    0.152E-01
DAV:   4    -0.711983195462E+03    0.21734E-03   -0.27782E-03 13560   0.418E-01    0.132E-01
DAV:   5    -0.711983108813E+03    0.86648E-04   -0.28319E-03 17632   0.220E-01    0.613E-02
DAV:   6    -0.711983096773E+03    0.12040E-04   -0.84869E-04 13456   0.117E-01    0.447E-02
DAV:   7    -0.711983102402E+03   -0.56288E-05   -0.34531E-04 12808   0.272E-02    0.329E-02
DAV:   8    -0.711983083189E+03    0.19212E-04   -0.95838E-05  6528   0.655E-02    0.190E-02
DAV:   9    -0.711983079567E+03    0.36220E-05   -0.68718E-05  6896   0.535E-02
  10 F= -.71198308E+03 E0= -.71197571E+03  d E =-.105155E-01
 trial-energy change:   -0.010515  1 .order   -0.010346   -0.015747   -0.004946
 step:   1.4177(harm=  1.4716)  dis= 0.00918  next Energy=  -711.984091 (dE=-0.115E-01)
 bond charge predicted
       N       E                     dE             d eps       ncg     rms          rms(c)
DAV:   1    -0.711979604029E+03    0.34792E-02   -0.13111E+00 10430   0.160E+00    0.200E-01
DAV:   2    -0.711984425961E+03   -0.48219E-02   -0.50422E-02 14696   0.443E-01    0.936E-02
DAV:   3    -0.711984477321E+03   -0.51360E-04   -0.20982E-03 12864   0.124E-01    0.637E-02
DAV:   4    -0.711984446344E+03    0.30977E-04   -0.51084E-04 13544   0.155E-01    0.585E-02
DAV:   5    -0.711984414861E+03    0.31483E-04   -0.43054E-04 13112   0.114E-01    0.245E-02
DAV:   6    -0.711984419513E+03   -0.46519E-05   -0.21717E-04 13376   0.512E-02    0.200E-02
DAV:   7    -0.711984422155E+03   -0.26421E-05   -0.80297E-05  8632   0.138E-02
  11 F= -.71198442E+03 E0= -.71197705E+03  d E =-.118581E-01
 curvature:  -1.46 expect dE=-0.141E-01 dE for cont linesearch -0.634E-04
 trial: gam= 0.58594 g(F)=  0.962E-02 g(S)=  0.000E+00 ort = 0.117E-02 (trialstep = 0.109E+01)
 search vector abs. value=  0.218E-01
 bond charge predicted
       N       E                     dE             d eps       ncg     rms          rms(c)
DAV:   1    -0.711965833849E+03    0.18586E-01   -0.65280E+00 10337   0.355E+00    0.458E-01
DAV:   2    -0.711989688172E+03   -0.23854E-01   -0.24936E-01 13624   0.102E+00    0.223E-01
DAV:   3    -0.711990187033E+03   -0.49886E-03   -0.13533E-02 12714   0.347E-01    0.150E-01
DAV:   4    -0.711989893310E+03    0.29372E-03   -0.25034E-03 12688   0.589E-01    0.984E-02
DAV:   5    -0.711990004868E+03   -0.11156E-03   -0.30290E-03 18360   0.212E-01    0.764E-02
DAV:   6    -0.711989976994E+03    0.27874E-04   -0.10360E-03 13808   0.124E-01    0.383E-02
DAV:   7    -0.711989954399E+03    0.22595E-04   -0.20394E-04 10760   0.760E-02    0.352E-02
DAV:   8    -0.711989944442E+03    0.99567E-05   -0.14632E-04  7920   0.545E-02    0.161E-02
DAV:   9    -0.711989949318E+03   -0.48752E-05   -0.13815E-04  9016   0.239E-02    0.159E-02
DAV:  10    -0.711989946951E+03    0.23666E-05   -0.37957E-05  5824   0.449E-02
  12 F= -.71198995E+03 E0= -.71198256E+03  d E =-.552480E-02
 trial-energy change:   -0.005525  1 .order   -0.005333   -0.011248    0.000582
 step:   1.0420(harm=  1.0374)  dis= 0.00592  next Energy=  -711.989960 (dE=-0.554E-02)
 bond charge predicted
       N       E                     dE             d eps       ncg     rms          rms(c)
DAV:   1    -0.711989899010E+03    0.50308E-04   -0.13050E-02 10408   0.159E-01    0.232E-02
DAV:   2    -0.711989949237E+03   -0.50227E-04   -0.54009E-04 14472   0.418E-02    0.160E-02
DAV:   3    -0.711989949520E+03   -0.28330E-06   -0.46602E-05  6640   0.116E-02
  13 F= -.71198995E+03 E0= -.71198256E+03  d E =-.552736E-02
 curvature:  -1.09 expect dE=-0.411E-02 dE for cont linesearch -0.513E-05
 trial: gam= 0.45517 g(F)=  0.378E-02 g(S)=  0.000E+00 ort = 0.320E-03 (trialstep = 0.108E+01)
 search vector abs. value=  0.858E-02
 bond charge predicted
       N       E                     dE             d eps       ncg     rms          rms(c)
DAV:   1    -0.711982738995E+03    0.72102E-02   -0.25158E+00 10423   0.222E+00    0.269E-01
DAV:   2    -0.711992240066E+03   -0.95011E-02   -0.99002E-02 14808   0.609E-01    0.123E-01
DAV:   3    -0.711992292258E+03   -0.52192E-04   -0.34308E-03 12928   0.148E-01    0.840E-02
DAV:   4    -0.711992189753E+03    0.10251E-03   -0.69630E-04 13880   0.228E-01    0.689E-02
DAV:   5    -0.711992160521E+03    0.29232E-04   -0.78218E-04 14408   0.123E-01    0.340E-02
DAV:   6    -0.711992159222E+03    0.12988E-05   -0.30029E-04 14216   0.687E-02    0.260E-02
DAV:   7    -0.711992160852E+03   -0.16300E-05   -0.11460E-04  8848   0.164E-02    0.191E-02
DAV:   8    -0.711992153989E+03    0.68625E-05   -0.32155E-05  5904   0.407E-02
  14 F= -.71199215E+03 E0= -.71198476E+03  d E =-.220447E-02
 trial-energy change:   -0.002204  1 .order   -0.002090   -0.004245    0.000065
 step:   1.0673(harm=  1.0651)  dis= 0.00418  next Energy=  -711.992154 (dE=-0.220E-02)
 bond charge predicted
       N       E                     dE             d eps       ncg     rms          rms(c)
DAV:   1    -0.711992147165E+03    0.13686E-04   -0.38021E-04 11192   0.485E-02    0.779E-03
DAV:   2    -0.711992150609E+03   -0.34433E-05   -0.52501E-05  6520   0.209E-02
  15 F= -.71199215E+03 E0= -.71198476E+03  d E =-.220109E-02
 curvature:  -1.14 expect dE=-0.145E-02 dE for cont linesearch -0.358E-04
 ZBRENT: interpolating
 opt :   1.0798  next Energy=  -711.992154 (dE=-0.220E-02)
 bond charge predicted
       N       E                     dE             d eps       ncg     rms          rms(c)
DAV:   1    -0.711992152316E+03   -0.51505E-05   -0.33235E-04 10184   0.261E-02    0.646E-03
DAV:   2    -0.711992153902E+03   -0.15863E-05   -0.32340E-05  5600   0.107E-02
  16 F= -.71199215E+03 E0= -.71198476E+03  d E =-.220438E-02
 curvature:  -0.00 expect dE=-0.179E-05 dE for cont linesearch -0.168E-09
 trial: gam= 0.31440 g(F)=  0.130E-02 g(S)=  0.000E+00 ort =-0.323E-04 (trialstep = 0.108E+01)
 search vector abs. value=  0.212E-02
 bond charge predicted
       N       E                     dE             d eps       ncg     rms          rms(c)
DAV:   1    -0.711990486906E+03    0.16654E-02   -0.59673E-01 10534   0.112E+00    0.131E-01
DAV:   2    -0.711992821153E+03   -0.23342E-02   -0.24363E-02 13552   0.343E-01    0.680E-02
DAV:   3    -0.711992898196E+03   -0.77043E-04   -0.16546E-03 12760   0.129E-01    0.465E-02
DAV:   4    -0.711992875701E+03    0.22495E-04   -0.30898E-04 12136   0.156E-01    0.365E-02
DAV:   5    -0.711992872827E+03    0.28739E-05   -0.23961E-04 12384   0.813E-02    0.243E-02
DAV:   6    -0.711992883800E+03   -0.10972E-04   -0.26120E-04 12672   0.495E-02    0.169E-02
DAV:   7    -0.711992881416E+03    0.23833E-05   -0.64684E-05  5912   0.266E-02
  17 F= -.71199288E+03 E0= -.71198550E+03  d E =-.727514E-03
 trial-energy change:   -0.000728  1 .order   -0.000637   -0.001389    0.000116
 step:   1.0187(harm=  0.9975)  dis= 0.00195  next Energy=  -711.992885 (dE=-0.731E-03)
 bond charge predicted
       N       E                     dE             d eps       ncg     rms          rms(c)
DAV:   1    -0.711992872400E+03    0.11400E-04   -0.19384E-03 10656   0.649E-02    0.104E-02
DAV:   2    -0.711992880478E+03   -0.80781E-05   -0.10827E-04  9944   0.201E-02    0.156E-02
DAV:   3    -0.711992880069E+03    0.40900E-06   -0.30935E-05  5568   0.916E-03
  18 F= -.71199288E+03 E0= -.71198549E+03  d E =-.726167E-03
 curvature:  -0.77 expect dE=-0.362E-03 dE for cont linesearch -0.723E-05
 trial: gam= 0.32148 g(F)=  0.470E-03 g(S)=  0.000E+00 ort = 0.141E-03 (trialstep = 0.107E+01)
 search vector abs. value=  0.780E-03
 reached required accuracy - stopping structural energy minimisation
Warning: ieee_invalid is signaling
Warning: ieee_divide_by_zero is signaling
Warning: ieee_underflow is signaling
Warning: ieee_inexact is signaling
FORTRAN STOP
Warning: ieee_invalid is signaling
Warning: ieee_divide_by_zero is signaling
Warning: ieee_underflow is signaling
Warning: ieee_inexact is signaling
FORTRAN STOP
Warning: ieee_invalid is signaling
Warning: ieee_divide_by_zero is signaling
Warning: ieee_underflow is signaling
Warning: ieee_inexact is signaling
FORTRAN STOP
Warning: ieee_invalid is signaling
Warning: ieee_divide_by_zero is signaling
Warning: ieee_underflow is signaling
Warning: ieee_inexact is signaling
FORTRAN STOP
