       N       E                     dE             d eps       ncg     rms          ort
SDA:   1    -0.105464794009E+03   -0.10546E+03    0.00000E+00   392   0.713E+00 0.000E+00
CGA:   2    -0.105738737832E+03   -0.27394E+00   -0.27342E+00   392   0.243E+00 0.300E-02
CGA:   3    -0.105811486100E+03   -0.72748E-01   -0.72630E-01   392   0.571E-01 0.986E-03
CGA:   4    -0.105831844259E+03   -0.20358E-01   -0.20327E-01   392   0.231E-01 0.185E-03
CGA:   5    -0.105839724539E+03   -0.78803E-02   -0.78639E-02   392   0.719E-02 0.118E-03
CGA:   6    -0.105842169345E+03   -0.24448E-02   -0.24429E-02   392   0.211E-02 0.145E-04
CGA:   7    -0.105842822460E+03   -0.65312E-03   -0.65077E-03   392   0.532E-03 0.299E-04
CGA:   8    -0.105842995186E+03   -0.17273E-03   -0.17203E-03   392   0.183E-03 0.810E-05
CGA:   9    -0.105843048168E+03   -0.52982E-04   -0.52853E-04   392   0.679E-04 0.290E-05
CGA:  10    -0.105843068235E+03   -0.20067E-04   -0.19985E-04   392   0.209E-04 0.173E-05
CGA:  11    -0.105843075402E+03   -0.71672E-05   -0.72405E-05   392   0.763E-05-0.783E-06
   1 F= -.10584308E+03 E0= -.10584308E+03  d E =-.436048E-13
