 vasp.6.4.2 20Jul23 (build Nov 12 2023 22:16:35) complex                         
 executed on              LinuxNV date 2025.05.31  20:12:30
 running    4 mpi-ranks, on    1 nodes
 distrk:  each k-point on    1 cores,    4 groups
 distr:  one band on NCORE=   1 cores,    1 groups
 OpenACC runtime initialized ...    4 GPUs detected


--------------------------------------------------------------------------------------------------------


 INCAR:
   PREC = Normal
   ENCUT = 450
   NELM = 500
   IBRION = -1
   ISPIN = 1
   NSW = 0
   ISIF = 2
   EDIFF = 1E-5
   EDIFFG = -5E-3
   ISTART = 1
   ICHARG = 1
   ISMEAR = 0
   SIGMA = 0.05
   LWAVE = .T.
   LCHARG = .T.
   LREAL = Auto
   LPLANE = .TRUE.
   NPAR = 1
   KPAR = 4
   NCORE = 1
   ALGO = All
   LHFCALC = .TRUE.
   HSE06 = .TRUE.
   HFSCREEN = 0.2
   TIME = 0.4
   AEXX = 0.32
   LMAXFOCK = 4
   PRECFOCK = Fast
   ICORELEVEL = 1
   ISYM = 0

 POTCAR:    PAW_PBE P 06Sep2000                   
 POTCAR:    PAW_PBE P 06Sep2000                   
   SHA256 =  df60c54a93efe35c9e85ae94c010c75e9f6960a95d5595d7cdba4096d109af88 P/POTCAR              
   COPYR  = (c) Copyright 06Sep2000 Georg Kresse                                                    
   COPYR  = This file is part of the software VASP. Any use, copying, and all other rights are regul
   COPYR  = If you do not have a valid VASP license, you may not use, copy or distribute this file. 
   VRHFIN =P : s2p3                                                                                 
   LEXCH  = PE                                                                                      
   EATOM  =   176.0430 eV,   12.9388 Ry                                                             
                                                                                                    
   TITEL  = PAW_PBE P 06Sep2000                                                                     
   LULTRA =        F    use ultrasoft PP ?                                                          
   IUNSCR =        1    unscreen: 0-lin 1-nonlin 2-no                                               
   RPACOR =    1.500    partial core radius                                                         
   POMASS =   30.974; ZVAL   =    5.000    mass and valenz                                          
   RCORE  =    1.900    outmost cutoff radius                                                       
   RWIGS  =    2.330; RWIGS  =    1.233    wigner-seitz radius (au A)                               
   ENMAX  =  255.040; ENMIN  =  191.280 eV                                                          
   ICORE  =        2    local potential                                                             
   LCOR   =        T    correct aug charges                                                         
   LPAW   =        T    paw PP                                                                      
   EAUG   =  342.924                                                                                
   DEXC   =    0.000                                                                                
   RMAX   =    1.935    core radius for proj-oper                                                   
   RAUG   =    1.300    factor for augmentation sphere                                              
   RDEP   =    1.931    radius for radial grids                                                     
   RDEPT  =    1.794    core radius for aug-charge                                                  
                                                                                                    
   Atomic configuration                                                                             
    6 entries                                                                                       
     n  l   j            E        occ.                                                              
     1  0  0.50     -2084.0982   2.0000                                                             
     2  0  0.50      -173.9859   2.0000                                                             
     2  1  1.50      -124.4865   6.0000                                                             
     3  0  0.50       -13.9692   2.0000                                                             
     3  1  0.50        -5.5067   3.0000                                                             
     3  2  1.50        -5.4423   0.0000                                                             
   Description                                                                                      
     l       E           TYP  RCUT    TYP  RCUT                                                     
     0    -13.9691527     23  1.900                                                                 
     0    -11.7794650     23  1.900                                                                 
     1     -5.5066937     23  1.900                                                                 
     1     -0.2556953     23  1.900                                                                 
     2     -5.4423304     23  1.900                                                                 
  local pseudopotential read in
  partial core-charges read in
  partial kinetic energy density read in
  atomic valenz-charges read in
  non local Contribution for L=            0  read in
    real space projection operators read in
  non local Contribution for L=            0  read in
    real space projection operators read in
  non local Contribution for L=            1  read in
    real space projection operators read in
  non local Contribution for L=            1  read in
    real space projection operators read in
    PAW grid and wavefunctions read in
 
   number of l-projection  operators is LMAX  =            4
   number of lm-projection operators is LMMAX =            8
 
 Optimization of the real space projectors (new method)

 maximal supplied QI-value         = 19.84
 optimisation between [QCUT,QGAM] = [ 10.71, 21.63] = [ 32.15,130.99] Ry 
 Optimized for a Real-space Cutoff    1.19 Angstroem

   l    n(q)    QCUT    max X(q) W(low)/X(q) W(high)/X(q)  e(spline) 
   0      8    10.715   160.924    0.37E-03    0.37E-04    0.63E-07
   0      8    10.715   130.086    0.37E-03    0.36E-04    0.63E-07
   1      7    10.715    74.434    0.19E-03    0.56E-03    0.65E-07
   1      7    10.715    49.120    0.19E-03    0.55E-03    0.63E-07
  PAW_PBE P 06Sep2000                   :
 energy of atom  1       EATOM= -176.0430
 kinetic energy error for atom=    0.0019 (will be added to EATOM!!)
 
 
 POSCAR: P16
  positions in direct lattice
  velocities in cartesian coordinates
 exchange correlation table for  LEXCH =        8
   RHO(1)=    0.500       N(1)  =     2000
   RHO(2)=  100.500       N(2)  =     4000
 


--------------------------------------------------------------------------------------------------------


 ion  position               nearest neighbor table
   1  0.652  0.500  0.751-   3 2.20   5 2.20   8 2.20
   2  0.348  0.500  0.249-   4 2.20   6 2.20   7 2.20
   3  0.782  0.500  0.429-   1 2.20   8 2.20   5 2.20
   4  0.218  0.500  0.571-   2 2.20   6 2.20   7 2.20
   5  0.849  0.372  0.750-   3 2.20   8 2.20   1 2.20
   6  0.151  0.372  0.250-   4 2.20   7 2.20   2 2.20
   7  0.151  0.628  0.250-   4 2.20   6 2.20   2 2.20
   8  0.849  0.628  0.750-   3 2.20   5 2.20   1 2.20
   9  0.152  0.000  0.751-  11 2.20  16 2.20  13 2.20
  10  0.848  1.000  0.249-  12 2.20  15 2.20  14 2.20
  11  0.282  1.000  0.429-   9 2.20  16 2.20  13 2.20
  12  0.718  0.000  0.571-  10 2.20  14 2.20  15 2.20
  13  0.349  0.872  0.750-  11 2.20  16 2.20   9 2.20
  14  0.651  0.872  0.250-  12 2.20  15 2.20  10 2.20
  15  0.651  0.128  0.250-  12 2.20  14 2.20  10 2.20
  16  0.349  0.128  0.750-  11 2.20  13 2.20   9 2.20
 

IMPORTANT INFORMATION: All symmetrisations will be switched off!
NOSYMM: (Re-)initialisation of all symmetry stuff for point group C_1.


----------------------------------------------------------------------------------------

                                     Primitive cell                                     

  volume of cell :     462.6094

  direct lattice vectors                    reciprocal lattice vectors
     0.000000000  9.655935788  0.000000000     0.000000000  0.103563240 -0.000440236
     8.584947329  0.000000000  0.000000000     0.116482951 -0.000000000  0.000000000
     0.000000000 -0.023722583 -5.580620493     0.000000000  0.000000000 -0.179191544

  length of vectors
     9.655935788  8.584947329  5.580670914     0.103564176  0.116482951  0.179191544

  position of ions in fractional coordinates (direct lattice)
     0.651533707  0.500000082  0.750567374
     0.348466096  0.499999776  0.249431921
     0.781811036  0.499999974  0.428891073
     0.218188477  0.500000076  0.571109069
     0.849224718  0.371712641  0.750156460
     0.150774664  0.371712767  0.249843758
     0.150774872  0.628287345  0.249843444
     0.849224849  0.628287384  0.750156243
     0.151534747  0.000000174  0.750569431
     0.848465412  0.999999926  0.249431186
     0.281812333  0.999999908  0.428893928
     0.718188219  0.000000007  0.571105956
     0.349225385  0.871712764  0.750157891
     0.650774902  0.871712707  0.249842455
     0.650775091  0.128287231  0.249842176
     0.349225491  0.128287238  0.750157634

  ion indices of the primitive-cell ions
   primitive index   ion index
                 1           1
                 2           2
                 3           3
                 4           4
                 5           5
                 6           6
                 7           7
                 8           8
                 9           9
                10          10
                11          11
                12          12
                13          13
                14          14
                15          15
                16          16

----------------------------------------------------------------------------------------

 
 
 KPOINTS: Automatic mesh                          

Automatic generation of k-mesh.
 Grid dimensions read from file:
 generate k-points for:    2    2    2

 Generating k-lattice:

  Cartesian coordinates                     Fractional coordinates (reciprocal lattice)
     0.000000000  0.051781620 -0.000220118     0.500000000  0.000000000 -0.000000000
     0.058241476 -0.000000000  0.000000000     0.000000000  0.500000000  0.000000000
     0.000000000  0.000000000 -0.089595772     0.000000000  0.000000000  0.500000000

  Length of vectors
     0.051782088  0.058241476  0.089595772

  Shift w.r.t. Gamma in fractional coordinates (k-lattice)
     0.000000000  0.000000000  0.000000000

 
 Subroutine IBZKPT returns following result:
 ===========================================
 
 Found      8 irreducible k-points:
 
 Following reciprocal coordinates:
            Coordinates               Weight
  0.000000  0.000000  0.000000      1.000000
  0.500000  0.000000  0.000000      1.000000
  0.000000  0.500000  0.000000      1.000000
  0.500000  0.500000  0.000000      1.000000
  0.000000  0.000000  0.500000      1.000000
  0.500000  0.000000  0.500000      1.000000
  0.000000  0.500000  0.500000      1.000000
  0.500000  0.500000  0.500000      1.000000
 
 Following cartesian coordinates:
            Coordinates               Weight
  0.000000  0.000000 -0.000000      1.000000
  0.000000  0.051782 -0.000220      1.000000
  0.058241  0.000000 -0.000000      1.000000
  0.058241  0.051782 -0.000220      1.000000
  0.000000  0.000000 -0.089596      1.000000
  0.000000  0.051782 -0.089816      1.000000
  0.058241  0.000000 -0.089596      1.000000
  0.058241  0.051782 -0.089816      1.000000
 
 
 Subroutine IBZKPT_HF returns following result:
 ==============================================
 
 Found      8 k-points in 1st BZ
 the following      8 k-points will be used (e.g. in the exchange kernel)
 Following reciprocal coordinates:   # in IRBZ
  0.000000  0.000000  0.000000    0.12500000   1 t-inv F
  0.500000  0.000000  0.000000    0.12500000   2 t-inv F
  0.000000  0.500000  0.000000    0.12500000   3 t-inv F
  0.500000  0.500000  0.000000    0.12500000   4 t-inv F
  0.000000  0.000000  0.500000    0.12500000   5 t-inv F
  0.500000  0.000000  0.500000    0.12500000   6 t-inv F
  0.000000  0.500000  0.500000    0.12500000   7 t-inv F
  0.500000  0.500000  0.500000    0.12500000   8 t-inv F


--------------------------------------------------------------------------------------------------------




 Dimension of arrays:
   k-points           NKPTS =      8   k-points in BZ     NKDIM =      8   number of bands    NBANDS=     49
   number of dos      NEDOS =    301   number of ions     NIONS =     16
   non local maximal  LDIM  =      4   non local SUM 2l+1 LMDIM =      8
   total plane-waves  NPLWV =  72000
   max r-space proj   IRMAX =   1151   max aug-charges    IRDMAX=   4935
   dimension x,y,z NGX =    50 NGY =   48 NGZ =   30
   dimension x,y,z NGXF=   100 NGYF=   96 NGZF=   60
   support grid    NGXF=   100 NGYF=   96 NGZF=   60
   ions per type =              16
   NGX,Y,Z   is equivalent  to a cutoff of   8.61,  9.30,  8.94 a.u.
   NGXF,Y,Z  is equivalent  to a cutoff of  17.22, 18.59, 17.87 a.u.

 SYSTEM =  unknown system                          
 POSCAR =  P16                                     

 Startparameter for this run:
   NWRITE =      2    write-flag & timer
   PREC   = normal    normal or accurate (medium, high low for compatibility)
   ISTART =      1    job   : 0-new  1-cont  2-samecut
   ICHARG =      1    charge: 1-file 2-atom 10-const
   ISPIN  =      1    spin polarized calculation?
   LNONCOLLINEAR =      F non collinear calculations
   LSORBIT =      F    spin-orbit coupling
   INIWAV =      1    electr: 0-lowe 1-rand  2-diag
   LASPH  =      F    aspherical Exc in radial PAW
 Electronic Relaxation 1
   ENCUT  =  450.0 eV  33.07 Ry    5.75 a.u.  16.70 14.85  9.65*2*pi/ulx,y,z
   ENINI  =  450.0     initial cutoff
   ENAUG  =  342.9 eV  augmentation charge cutoff
   NELM   =    500;   NELMIN=  2; NELMDL=  0     # of ELM steps 
   EDIFF  = 0.1E-04   stopping-criterion for ELM
   LREAL  =      T    real-space projection
   NLSPLINE    = F    spline interpolate recip. space projectors
   LCOMPAT=      F    compatible to vasp.4.4
   GGA_COMPAT  = T    GGA compatible to vasp.4.4-vasp.4.6
   LMAXPAW     = -100 max onsite density
   LMAXMIX     =    2 max onsite mixed and CHGCAR
   VOSKOWN=      0    Vosko Wilk Nusair interpolation
   ROPT   =   -0.00050
 Ionic relaxation
   EDIFFG = -.5E-02   stopping-criterion for IOM
   NSW    =      0    number of steps for IOM
   NBLOCK =      1;   KBLOCK =      1    inner block; outer block 
   IBRION =     -1    ionic relax: 0-MD 1-quasi-New 2-CG
   NFREE  =      0    steps in history (QN), initial steepest desc. (CG)
   ISIF   =      2    stress and relaxation
   IWAVPR =     10    prediction:  0-non 1-charg 2-wave 3-comb
   ISYM   =      0    0-nonsym 1-usesym 2-fastsym
   LCORR  =      T    Harris-Foulkes like correction to forces

   POTIM  = 0.5000    time-step for ionic-motion
   TEIN   =    0.0    initial temperature
   TEBEG  =    0.0;   TEEND  =   0.0 temperature during run
   SMASS  =  -3.00    Nose mass-parameter (am)
   estimated Nose-frequenzy (Omega)   =  0.10E-29 period in steps = 0.13E+47 mass=  -0.213E-26a.u.
   SCALEE = 1.0000    scale energy and forces
   NPACO  =    256;   APACO  = 10.0  distance and # of slots for P.C.
   PSTRESS=    0.0 pullay stress

  Mass of Ions in am
   POMASS =  30.97
  Ionic Valenz
   ZVAL   =   5.00
  Atomic Wigner-Seitz radii
   RWIGS  =  -1.00
  virtual crystal weights 
   VCA    =   1.00
   NELECT =      80.0000    total number of electrons
   NUPDOWN=      -1.0000    fix difference up-down

 DOS related values:
   EMIN   =  10.00;   EMAX   =-10.00  energy-range for DOS
   EFERMI =   0.00;   METHOD = LEGACY      
   ISMEAR =     0;   SIGMA  =   0.05  broadening in eV -4-tet -1-fermi 0-gaus

 Electronic relaxation 2 (details)
   IALGO  =     58    algorithm
   LDIAG  =      T    sub-space diagonalisation (order eigenvalues)
   LSUBROT=      F    optimize rotation matrix (better conditioning)
   TURBO    =      0    0=normal 1=particle mesh
   IRESTART =      0    0=no restart 2=restart with 2 vectors
   NREBOOT  =      0    no. of reboots
   NMIN     =      0    reboot dimension
   EREF     =   0.00    reference energy to select bands
   IMIX   =      4    mixing-type and parameters
     AMIX     =   0.40;   BMIX     =  1.00
     AMIX_MAG =   1.60;   BMIX_MAG =  1.00
     AMIN     =   0.10
     WC   =   100.;   INIMIX=   1;  MIXPRE=   1;  MAXMIX= -45

 Intra band minimization:
   WEIMIN = 0.0000     energy-eigenvalue tresh-hold
   EBREAK =  0.51E-07  absolut break condition
   DEPER  =   0.30     relativ break condition  

   TIME   =   0.40     timestep for ELM

  volume/ion in A,a.u.               =      28.91       195.12
  Fermi-wavevector in a.u.,A,eV,Ry     =   0.912081  1.723583 11.318570  0.831891
  Thomas-Fermi vector in A             =   2.036435
 
 Write flags
   LWAVE        =      T    write WAVECAR
   LDOWNSAMPLE  =      F    k-point downsampling of WAVECAR
   LCHARG       =      T    write CHGCAR
   LVTOT        =      F    write LOCPOT, total local potential
   LVHAR        =      F    write LOCPOT, Hartree potential only
   LELF         =      F    write electronic localiz. function (ELF)
   LORBIT       =      0    0 simple, 1 ext, 2 COOP (PROOUT), +10 PAW based schemes


 Dipole corrections
   LMONO  =      F    monopole corrections only (constant potential shift)
   LDIPOL =      F    correct potential (dipole corrections)
   IDIPOL =      0    1-x, 2-y, 3-z, 4-all directions 
   EPSILON=  1.0000000 bulk dielectric constant

 Core level calculations are selected ICORELEVEL =  1
 Exchange correlation treatment:
   GGA     =    --    GGA type
   LEXCH   =     8    internal setting for exchange type
   LIBXC   =     F    Libxc                    
   VOSKOWN =     0    Vosko Wilk Nusair interpolation
   EXXOEP  =     0    0=HF, 1=EXX-LHF (local Hartree Fock) 2=EXX OEP
   LHFCALC =     T    Hartree Fock is set to
   LSYMGRAD=     F    symmetrize gradient (conserves proper symmetry)
   PRECFOCK=fast      Normal, Fast or Accurate (Low or Medium for compatibility)
   LRHFCALC=     F    long range Hartree Fock
   LRSCOR  =     F    long range correlation only (use DFT for short range part)
   LTHOMAS =     F    Thomas Fermi screening in HF
   LMODELHF=     F    short range full HF, long range fraction AEXX
   FOCKCORR=     1    mode to apply convergence corrections
   LFOCKACE=     T    use Adeptively-Compressed-Exchange operator
   ENCUT4O =  -1.0   cutoff for four orbital integrals eV
   LMAXFOCK=     4    L truncation for augmentation on plane wave grid
   LMAXFOCKAE=  -1    L truncation for all-electron charge restoration on plane wave grid
   NMAXFOCKAE=   1    number of basis functions for all-electron charge restoration
   LFOCKAEDFT=     F  apply the AE augmentation even for DFT
   NKREDX  =     1    reduce k-point grid by
   NKREDY  =     1    reduce k-point grid by
   NKREDZ  =     1    reduce k-point grid by
   SHIFTRED=     F    shift reduced grid of Gamma
   HFKIDENT=     F    idential grid for each k-point
   ODDONLY =     F    use only odd q-grid points
   EVENONLY=     F    use only even q-grid points
   HFALPHA =   -1.0000 decay constant for conv. correction
   MCALPHA =    0.0000 extent of test-charge in conv. correction in multipole expansion
   AEXX    =    0.3200 exact exchange contribution
   HFSCREEN=    0.2000 screening length (either q_TF or 0.3 A-1)
   HFSCREENC=   0.2000 screening length for correlation (either q_TF or 0.3 A-1)
   HFRCUT  =    0.0000 spherical cutoff for potential kernel
   ALDAX   =    0.6800 LDA exchange part
   AGGAX   =    0.6800 GGA exchange part
   ALDAC   =    1.0000 LDA correlation
   AGGAC   =    1.0000 GGA correlation
   ENCUTFOCK=  -1.0 apply spherical cutoff to Coloumb kernel
   NBANDSGWLOW=     1    first orbital included in HF term
   NBLOCK_FOCK=    64    blocking factor in FOCK_ACC

 Linear response parameters
   LEPSILON=     F    determine dielectric tensor
   LRPA    =     F    only Hartree local field effects (RPA)
   LNABLA  =     F    use nabla operator in PAW spheres
   LVEL    =     F    velocity operator in full k-point grid
   CSHIFT  =0.1000    complex shift for real part using Kramers Kronig
   OMEGAMAX=  -1.0    maximum frequency
   DEG_THRESHOLD= 0.2000000E-02 threshold for treating states as degnerate
   RTIME   =   -0.100 relaxation time in fs
  (WPLASMAI=    0.000 imaginary part of plasma frequency in eV, 0.658/RTIME)
   DFIELD  = 0.0000000 0.0000000 0.0000000 field for delta impulse in time
 
  Optional k-point grid parameters
   LKPOINTS_OPT  =     F    use optional k-point grid
   KPOINTS_OPT_MODE=     1    mode for optional k-point grid
 
 Orbital magnetization related:
   ORBITALMAG=     F  switch on orbital magnetization
   LCHIMAG   =     F  perturbation theory with respect to B field
   DQ        =  0.001000  dq finite difference perturbation B field
   LLRAUG    =     F  two centre corrections for induced B field
   LBONE     =     F  B-component reconstruction in AE one-centre
   LVGVCALC  =     T  calculate vGv susceptibility
   LVGVAPPL  =     F  apply vGv susceptibility instead of pGv for G=0

 Random number generation:
   RANDOM_GENERATOR = DEFAULT
   PCG_SEED         = not used


--------------------------------------------------------------------------------------------------------


 Static calculation
 charge density and potential will be updated during run
 non-spin polarized calculation
 Conjugate gradient for all bands (Freysoldt, et al. PRB 79, 241103 (2009))
 preconditioned conjugated gradient                                        
 perform sub-space diagonalisation
    before iterative eigenvector-optimisation
 modified Broyden-mixing scheme, WC =      100.0
 initial mixing is a Kerker type mixing with AMIX =  0.4000 and BMIX =      1.0000
 Hartree-type preconditioning will be used
 using additional bands             9
 real space projection scheme for non local part
 use partial core corrections
 no Harris-corrections to forces 
 use gradient corrections 
 use of overlap-Matrix (Vanderbilt PP)
 Gauss-broadening in eV      SIGMA  =   0.05


--------------------------------------------------------------------------------------------------------


  energy-cutoff  :      450.00
  volume of cell :      462.61
      direct lattice vectors                 reciprocal lattice vectors
     0.000000000  9.655935788  0.000000000     0.000000000  0.103563240 -0.000440236
     8.584947329  0.000000000  0.000000000     0.116482951 -0.000000000  0.000000000
     0.000000000 -0.023722583 -5.580620493     0.000000000  0.000000000 -0.179191544

  length of vectors
     9.655935788  8.584947329  5.580670914     0.103564176  0.116482951  0.179191544


 
 old parameters found on file WAVECAR:
  energy-cutoff  :      450.00
  volume of cell :      462.61
      direct lattice vectors                 reciprocal lattice vectors
     0.000000000  9.655935788  0.000000000     0.000000000  0.103563240 -0.000440236
     8.584947329  0.000000000  0.000000000     0.116482951 -0.000000000  0.000000000
     0.000000000 -0.023722583 -5.580620493     0.000000000  0.000000000 -0.179191544

  length of vectors

 
 k-points in units of 2pi/SCALE and weight: Automatic mesh                          
   0.00000000  0.00000000 -0.00000000       0.125
   0.00000000  0.05178162 -0.00022012       0.125
   0.05824148  0.00000000 -0.00000000       0.125
   0.05824148  0.05178162 -0.00022012       0.125
   0.00000000  0.00000000 -0.08959577       0.125
   0.00000000  0.05178162 -0.08981589       0.125
   0.05824148  0.00000000 -0.08959577       0.125
   0.05824148  0.05178162 -0.08981589       0.125
 
 k-points in reciprocal lattice and weights: Automatic mesh                          
   0.00000000  0.00000000  0.00000000       0.125
   0.50000000  0.00000000  0.00000000       0.125
   0.00000000  0.50000000  0.00000000       0.125
   0.50000000  0.50000000  0.00000000       0.125
   0.00000000  0.00000000  0.50000000       0.125
   0.50000000  0.00000000  0.50000000       0.125
   0.00000000  0.50000000  0.50000000       0.125
   0.50000000  0.50000000  0.50000000       0.125
 
 position of ions in fractional coordinates (direct lattice) 
   0.65153371  0.50000008  0.75056737
   0.34846610  0.49999978  0.24943192
   0.78181104  0.49999997  0.42889107
   0.21818848  0.50000008  0.57110907
   0.84922472  0.37171264  0.75015646
   0.15077466  0.37171277  0.24984376
   0.15077487  0.62828735  0.24984344
   0.84922485  0.62828738  0.75015624
   0.15153475  0.00000017  0.75056943
   0.84846541  0.99999993  0.24943119
   0.28181233  0.99999991  0.42889393
   0.71818822  0.00000001  0.57110596
   0.34922538  0.87171276  0.75015789
   0.65077490  0.87171271  0.24984245
   0.65077509  0.12828723  0.24984218
   0.34922549  0.12828724  0.75015763
 
 position of ions in cartesian coordinates  (Angst):
   4.29247437  6.27336225 -4.18863167
   4.29247174  3.35884908 -1.39198489
   4.29247344  7.53894276 -2.39347831
   4.29247431  2.09326575 -3.18714298
   3.19113344  8.18226370 -4.18633851
   3.19113452  1.44994353 -1.39428320
   5.39381376  1.44994555 -1.39428145
   5.39381410  8.18226497 -4.18633730
   0.00000150  1.44540434 -4.18864315
   8.58494669  8.18681039 -1.39198079
   8.58494654  2.71098732 -2.39349424
   0.00000006  6.92123122 -3.18712560
   7.48360816  3.35430221 -4.18634650
   7.48360768  6.27791376 -1.39427592
   1.10133912  6.27791559 -1.39427437
   1.10133918  3.35430324 -4.18634506
 


--------------------------------------------------------------------------------------------------------


 k-point   1 :   0.0000 0.0000 0.0000  plane waves:   10085
 k-point   2 :   0.5000 0.0000 0.0000  plane waves:   10020
 k-point   3 :   0.0000 0.5000 0.0000  plane waves:   10026
 k-point   4 :   0.5000 0.5000 0.0000  plane waves:   10056
 k-point   5 :   0.0000 0.0000 0.5000  plane waves:   10030
 k-point   6 :   0.5000 0.0000 0.5000  plane waves:   10020
 k-point   7 :   0.0000 0.5000 0.5000  plane waves:   10012
 k-point   8 :   0.5000 0.5000 0.5000  plane waves:   10028

 maximum and minimum number of plane-waves per node :     10085    10012

 maximum number of plane-waves:     10085
 maximum index in each direction: 
   IXMAX=   16   IYMAX=   14   IZMAX=    9
   IXMIN=  -17   IYMIN=  -15   IZMIN=  -10


 serial   3D FFT for wavefunctions
 parallel 3D FFT for charge:
    minimum data exchange during FFTs selected (reduces bandwidth)


 FFT grid for exact exchange (Hartree Fock) 
  NGX = 40; NGY = 36; NGZ = 24

 
 Radii for the augmentation spheres in the non-local exchange
 for species   1 augmentation radius   1.294 (default was   0.959)
       energy cutoff for augmentation   1800.0
 Maximum index for augmentation-charges in exchange           697
  SETUP_FOCK is finished

 total amount of memory used by VASP MPI-rank0   276230. kBytes
=======================================================================

   base      :      30000. kBytes
   nonlr-proj:       2564. kBytes
   fftplans  :      20268. kBytes
   grid      :      31180. kBytes
   one-center:         49. kBytes
   HF        :          4. kBytes
   wavefun   :     192165. kBytes
 
     INWAV:  cpu time      0.1447: real time      0.1498
 Broyden mixing: mesh for mixing (old mesh)
   NGX = 33   NGY = 29   NGZ = 19
  (NGX  =100   NGY  = 96   NGZ  = 60)
  gives a total of  18183 points

 initial charge density was supplied:
 number of electron      79.9999992 magnetization 
 charge density for first step will be calculated from the start-wavefunctions


--------------------------------------------------------------------------------------------------------


 Maximum index for non-local projection operator          1072
 Maximum index for augmentation-charges          4603 (set IRDMAX)


--------------------------------------------------------------------------------------------------------


 initial charge from wavefunction
 First call to EWALD:  gamma=   0.229
 Maximum number of real-space cells 2x 3x 4
 Maximum number of reciprocal cells 3x 3x 2

    FEWALD:  cpu time      0.0026: real time      0.0026


--------------------------------------- Ionic step        1  -------------------------------------------




--------------------------------------- Iteration      1(   1)  ---------------------------------------


    POTLOK:  cpu time      0.6714: real time      0.6713
    SETDIJ:  cpu time      0.1009: real time      0.1010
    TRIAL :  cpu time      0.9018: real time      0.9110
    CORREC:  cpu time      1.4899: real time      1.4896
    CHARGE:  cpu time      0.0309: real time      0.0309
    --------------------------------------------
      LOOP:  cpu time      3.2312: real time      3.2402

 eigenvalue-minimisations  :     0
 total energy-change (2. order) :-0.1054648E+03  (-0.2734229E+00)
 number of electron      79.9999992 magnetization 
 augmentation part       -8.5492450 magnetization 

 Free energy of the ion-electron system (eV)
  ---------------------------------------------------
  alpha Z        PSCENC =        55.48217190
  Ewald energy   TEWEN  =     -2140.16248874
  -Hartree energ DENC   =      -710.97285957
  -exchange      EXHF   =       163.34176901
  -V(xc)+E(xc)   XCENC  =        33.18625399
  PAW double counting   =      8385.67367050    -8290.15071787
  entropy T*S    EENTRO =        -0.00000000
  eigenvalues    EBANDS =      -388.64195152
  atomic energy  EATOM  =      2786.77935828
  ---------------------------------------------------
  free energy    TOTEN  =      -105.46479401 eV

  energy without entropy =     -105.46479401  energy(sigma->0) =     -105.46479401
  exchange ACFDT corr.  =        -0.00000000  see jH, gK, PRB 81, 115126


--------------------------------------------------------------------------------------------------------




--------------------------------------- Iteration      1(   2)  ---------------------------------------


    POTLOK:  cpu time      0.5661: real time      0.5661
    SETDIJ:  cpu time      0.0847: real time      0.0847
    TRIAL :  cpu time      0.8358: real time      0.8357
    CORREC:  cpu time      1.4834: real time      1.4899
    CHARGE:  cpu time      0.0308: real time      0.0308
    --------------------------------------------
      LOOP:  cpu time      3.0012: real time      3.0085

 eigenvalue-minimisations  :     0
 total energy-change (2. order) :-0.2739438E+00  (-0.7263008E-01)
 number of electron      79.9999993 magnetization 
 augmentation part       -8.5392715 magnetization 

 Free energy of the ion-electron system (eV)
  ---------------------------------------------------
  alpha Z        PSCENC =        55.48217190
  Ewald energy   TEWEN  =     -2140.16248874
  -Hartree energ DENC   =      -701.42061094
  -exchange      EXHF   =       163.03951947
  -V(xc)+E(xc)   XCENC  =        33.07390532
  PAW double counting   =     10486.80839096   -10391.00175367
  entropy T*S    EENTRO =        -0.00000000
  eigenvalues    EBANDS =      -398.33723042
  atomic energy  EATOM  =      2786.77935828
  ---------------------------------------------------
  free energy    TOTEN  =      -105.73873783 eV

  energy without entropy =     -105.73873783  energy(sigma->0) =     -105.73873783
  exchange ACFDT corr.  =        -0.00000000  see jH, gK, PRB 81, 115126


--------------------------------------------------------------------------------------------------------




--------------------------------------- Iteration      1(   3)  ---------------------------------------


    POTLOK:  cpu time      0.6143: real time      0.6143
    SETDIJ:  cpu time      0.0688: real time      0.0687
    TRIAL :  cpu time      0.8339: real time      0.8338
    CORREC:  cpu time      1.6621: real time      1.6619
    CHARGE:  cpu time      0.0307: real time      0.0307
    --------------------------------------------
      LOOP:  cpu time      3.2103: real time      3.2103

 eigenvalue-minimisations  :     0
 total energy-change (2. order) :-0.7274827E-01  (-0.2032664E-01)
 number of electron      79.9999993 magnetization 
 augmentation part       -8.5394760 magnetization 

 Free energy of the ion-electron system (eV)
  ---------------------------------------------------
  alpha Z        PSCENC =        55.48217190
  Ewald energy   TEWEN  =     -2140.16248874
  -Hartree energ DENC   =      -708.60565328
  -exchange      EXHF   =       163.54043335
  -V(xc)+E(xc)   XCENC  =        33.37090230
  PAW double counting   =     11538.37304642   -11442.57615480
  entropy T*S    EENTRO =        -0.00000000
  eigenvalues    EBANDS =      -392.01310154
  atomic energy  EATOM  =      2786.77935828
  ---------------------------------------------------
  free energy    TOTEN  =      -105.81148610 eV

  energy without entropy =     -105.81148610  energy(sigma->0) =     -105.81148610
  exchange ACFDT corr.  =        -0.00000000  see jH, gK, PRB 81, 115126


--------------------------------------------------------------------------------------------------------




--------------------------------------- Iteration      1(   4)  ---------------------------------------


    POTLOK:  cpu time      0.5644: real time      0.5643
    SETDIJ:  cpu time      0.1014: real time      0.1013
    TRIAL :  cpu time      0.8362: real time      0.8438
    CORREC:  cpu time      1.5094: real time      1.5092
    CHARGE:  cpu time      0.0311: real time      0.0311
    --------------------------------------------
      LOOP:  cpu time      3.0427: real time      3.0525

 eigenvalue-minimisations  :     0
 total energy-change (2. order) :-0.2035816E-01  (-0.7863884E-02)
 number of electron      79.9999993 magnetization 
 augmentation part       -8.5336306 magnetization 

 Free energy of the ion-electron system (eV)
  ---------------------------------------------------
  alpha Z        PSCENC =        55.48217190
  Ewald energy   TEWEN  =     -2140.16248874
  -Hartree energ DENC   =      -708.66564182
  -exchange      EXHF   =       163.63688151
  -V(xc)+E(xc)   XCENC  =        33.41569216
  PAW double counting   =     11818.63908501   -11722.85843761
  entropy T*S    EENTRO =        -0.00000000
  eigenvalues    EBANDS =      -392.09846496
  atomic energy  EATOM  =      2786.77935828
  ---------------------------------------------------
  free energy    TOTEN  =      -105.83184426 eV

  energy without entropy =     -105.83184426  energy(sigma->0) =     -105.83184426
  exchange ACFDT corr.  =        -0.00000000  see jH, gK, PRB 81, 115126


--------------------------------------------------------------------------------------------------------




--------------------------------------- Iteration      1(   5)  ---------------------------------------


    POTLOK:  cpu time      0.5863: real time      0.5862
    SETDIJ:  cpu time      0.0728: real time      0.0728
    TRIAL :  cpu time      0.8330: real time      0.8329
    CORREC:  cpu time      1.4925: real time      1.4923
    CHARGE:  cpu time      0.0311: real time      0.0311
    --------------------------------------------
      LOOP:  cpu time      3.0161: real time      3.0162

 eigenvalue-minimisations  :     0
 total energy-change (2. order) :-0.7880280E-02  (-0.2442905E-02)
 number of electron      79.9999993 magnetization 
 augmentation part       -8.5333523 magnetization 

 Free energy of the ion-electron system (eV)
  ---------------------------------------------------
  alpha Z        PSCENC =        55.48217190
  Ewald energy   TEWEN  =     -2140.16248874
  -Hartree energ DENC   =      -707.90008250
  -exchange      EXHF   =       163.62653468
  -V(xc)+E(xc)   XCENC  =        33.39799318
  PAW double counting   =     11782.43215587   -11686.65977898
  entropy T*S    EENTRO =        -0.00000000
  eigenvalues    EBANDS =      -392.83558823
  atomic energy  EATOM  =      2786.77935828
  ---------------------------------------------------
  free energy    TOTEN  =      -105.83972454 eV

  energy without entropy =     -105.83972454  energy(sigma->0) =     -105.83972454
  exchange ACFDT corr.  =        -0.00000000  see jH, gK, PRB 81, 115126


--------------------------------------------------------------------------------------------------------




--------------------------------------- Iteration      1(   6)  ---------------------------------------


    POTLOK:  cpu time      0.5732: real time      0.5731
    SETDIJ:  cpu time      0.0813: real time      0.0813
    TRIAL :  cpu time      0.8368: real time      0.8367
    CORREC:  cpu time      1.4845: real time      1.4843
    CHARGE:  cpu time      0.0308: real time      0.0309
    --------------------------------------------
      LOOP:  cpu time      3.0068: real time      3.0069

 eigenvalue-minimisations  :     0
 total energy-change (2. order) :-0.2444806E-02  (-0.6507695E-03)
 number of electron      79.9999993 magnetization 
 augmentation part       -8.5323821 magnetization 

 Free energy of the ion-electron system (eV)
  ---------------------------------------------------
  alpha Z        PSCENC =        55.48217190
  Ewald energy   TEWEN  =     -2140.16248874
  -Hartree energ DENC   =      -708.38673807
  -exchange      EXHF   =       163.66026528
  -V(xc)+E(xc)   XCENC  =        33.40547571
  PAW double counting   =     11658.73066876   -11562.96755065
  entropy T*S    EENTRO =        -0.00000000
  eigenvalues    EBANDS =      -392.38333181
  atomic energy  EATOM  =      2786.77935828
  ---------------------------------------------------
  free energy    TOTEN  =      -105.84216934 eV

  energy without entropy =     -105.84216934  energy(sigma->0) =     -105.84216934
  exchange ACFDT corr.  =        -0.00000000  see jH, gK, PRB 81, 115126


--------------------------------------------------------------------------------------------------------




--------------------------------------- Iteration      1(   7)  ---------------------------------------


    POTLOK:  cpu time      0.5788: real time      0.5787
    SETDIJ:  cpu time      0.0688: real time      0.0688
    TRIAL :  cpu time      0.8345: real time      0.8345
    CORREC:  cpu time      1.4982: real time      1.4980
    CHARGE:  cpu time      0.0308: real time      0.0308
    --------------------------------------------
      LOOP:  cpu time      3.0113: real time      3.0114

 eigenvalue-minimisations  :     0
 total energy-change (2. order) :-0.6531155E-03  (-0.1720336E-03)
 number of electron      79.9999993 magnetization 
 augmentation part       -8.5325786 magnetization 

 Free energy of the ion-electron system (eV)
  ---------------------------------------------------
  alpha Z        PSCENC =        55.48217190
  Ewald energy   TEWEN  =     -2140.16248874
  -Hartree energ DENC   =      -708.27118718
  -exchange      EXHF   =       163.66115620
  -V(xc)+E(xc)   XCENC  =        33.39904756
  PAW double counting   =     11584.04652224   -11488.28305550
  entropy T*S    EENTRO =        -0.00000000
  eigenvalues    EBANDS =      -392.49434723
  atomic energy  EATOM  =      2786.77935828
  ---------------------------------------------------
  free energy    TOTEN  =      -105.84282246 eV

  energy without entropy =     -105.84282246  energy(sigma->0) =     -105.84282246
  exchange ACFDT corr.  =        -0.00000000  see jH, gK, PRB 81, 115126


--------------------------------------------------------------------------------------------------------




--------------------------------------- Iteration      1(   8)  ---------------------------------------


    POTLOK:  cpu time      0.5851: real time      0.5850
    SETDIJ:  cpu time      0.0872: real time      0.0871
    TRIAL :  cpu time      0.8356: real time      0.8355
    CORREC:  cpu time      1.4914: real time      1.4916
    CHARGE:  cpu time      0.0308: real time      0.0310
    --------------------------------------------
      LOOP:  cpu time      3.0307: real time      3.0312

 eigenvalue-minimisations  :     0
 total energy-change (2. order) :-0.1727257E-03  (-0.5285283E-04)
 number of electron      79.9999993 magnetization 
 augmentation part       -8.5327071 magnetization 

 Free energy of the ion-electron system (eV)
  ---------------------------------------------------
  alpha Z        PSCENC =        55.48217190
  Ewald energy   TEWEN  =     -2140.16248874
  -Hartree energ DENC   =      -708.31407597
  -exchange      EXHF   =       163.66524534
  -V(xc)+E(xc)   XCENC  =        33.39885266
  PAW double counting   =     11556.41212697   -11460.64835010
  entropy T*S    EENTRO =        -0.00000000
  eigenvalues    EBANDS =      -392.45583553
  atomic energy  EATOM  =      2786.77935828
  ---------------------------------------------------
  free energy    TOTEN  =      -105.84299519 eV

  energy without entropy =     -105.84299519  energy(sigma->0) =     -105.84299519
  exchange ACFDT corr.  =        -0.00000000  see jH, gK, PRB 81, 115126


--------------------------------------------------------------------------------------------------------




--------------------------------------- Iteration      1(   9)  ---------------------------------------


    POTLOK:  cpu time      0.5923: real time      0.5923
    SETDIJ:  cpu time      0.0808: real time      0.0808
    TRIAL :  cpu time      0.8352: real time      0.8351
    CORREC:  cpu time      1.4923: real time      1.4921
    CHARGE:  cpu time      0.0307: real time      0.0307
    --------------------------------------------
      LOOP:  cpu time      3.0318: real time      3.0316

 eigenvalue-minimisations  :     0
 total energy-change (2. order) :-0.5298178E-04  (-0.1998466E-04)
 number of electron      79.9999993 magnetization 
 augmentation part       -8.5326668 magnetization 

 Free energy of the ion-electron system (eV)
  ---------------------------------------------------
  alpha Z        PSCENC =        55.48217190
  Ewald energy   TEWEN  =     -2140.16248874
  -Hartree energ DENC   =      -708.32935983
  -exchange      EXHF   =       163.66648151
  -V(xc)+E(xc)   XCENC  =        33.39893575
  PAW double counting   =     11550.69835353   -11454.93405789
  entropy T*S    EENTRO =        -0.00000000
  eigenvalues    EBANDS =      -392.44244268
  atomic energy  EATOM  =      2786.77935828
  ---------------------------------------------------
  free energy    TOTEN  =      -105.84304817 eV

  energy without entropy =     -105.84304817  energy(sigma->0) =     -105.84304817
  exchange ACFDT corr.  =        -0.00000000  see jH, gK, PRB 81, 115126


--------------------------------------------------------------------------------------------------------




--------------------------------------- Iteration      1(  10)  ---------------------------------------


    POTLOK:  cpu time      0.5689: real time      0.5688
    SETDIJ:  cpu time      0.0914: real time      0.0914
    TRIAL :  cpu time      0.8345: real time      0.8344
    CORREC:  cpu time      1.4722: real time      1.5060
    CHARGE:  cpu time      0.0303: real time      0.0303
    --------------------------------------------
      LOOP:  cpu time      2.9979: real time      3.0319

 eigenvalue-minimisations  :     0
 total energy-change (2. order) :-0.2006713E-04  (-0.7240469E-05)
 number of electron      79.9999993 magnetization 
 augmentation part       -8.5326839 magnetization 

 Free energy of the ion-electron system (eV)
  ---------------------------------------------------
  alpha Z        PSCENC =        55.48217190
  Ewald energy   TEWEN  =     -2140.16248874
  -Hartree energ DENC   =      -708.31223078
  -exchange      EXHF   =       163.66579938
  -V(xc)+E(xc)   XCENC  =        33.39860558
  PAW double counting   =     11552.73510798   -11456.97030478
  entropy T*S    EENTRO =        -0.00000000
  eigenvalues    EBANDS =      -392.45908706
  atomic energy  EATOM  =      2786.77935828
  ---------------------------------------------------
  free energy    TOTEN  =      -105.84306823 eV

  energy without entropy =     -105.84306823  energy(sigma->0) =     -105.84306823
  exchange ACFDT corr.  =        -0.00000000  see jH, gK, PRB 81, 115126


--------------------------------------------------------------------------------------------------------




--------------------------------------- Iteration      1(  11)  ---------------------------------------


    POTLOK:  cpu time      0.5808: real time      0.5807
    SETDIJ:  cpu time      0.0689: real time      0.0689
    TRIAL :  cpu time      0.8336: real time      0.8335
    CORREC:  cpu time      1.5037: real time      1.5035
    EDDIAG:  cpu time      0.7232: real time      0.7307
    CHARGE:  cpu time      0.0311: real time      0.0311
    --------------------------------------------
      LOOP:  cpu time      3.8805: real time      3.8881

 eigenvalue-minimisations  :     0
 total energy-change (2. order) :-0.7167249E-05  (-0.2980916E-05)
 number of electron      79.9999993 magnetization 
 augmentation part       -8.5327053 magnetization 

 Free energy of the ion-electron system (eV)
  ---------------------------------------------------
  alpha Z        PSCENC =        55.48217190
  Ewald energy   TEWEN  =     -2140.16248874
  -Hartree energ DENC   =      -708.31273860
  -exchange      EXHF   =       163.66614948
  -V(xc)+E(xc)   XCENC  =        33.39888432
  PAW double counting   =     11557.02236461   -11461.25760131
  entropy T*S    EENTRO =        -0.00000000
  eigenvalues    EBANDS =      -392.45900664
  atomic energy  EATOM  =      2786.77935828
  ---------------------------------------------------
  free energy    TOTEN  =      -105.84307540 eV

  energy without entropy =     -105.84307540  energy(sigma->0) =     -105.84307540
  exchange ACFDT corr.  =        -0.00000000  see jH, gK, PRB 81, 115126


--------------------------------------------------------------------------------------------------------


  average scaling for gradient   0.9348


 the core state eigenenergies are
   1-  1s  -2076.6693  2s   -166.5695  2p   -117.0649
   2-  1s  -2076.6693  2s   -166.5696  2p   -117.0649
   3-  1s  -2076.6518  2s   -166.5602  2p   -117.0548
   4-  1s  -2076.6518  2s   -166.5602  2p   -117.0548
   5-  1s  -2076.6860  2s   -166.5838  2p   -117.0793
   6-  1s  -2076.6860  2s   -166.5838  2p   -117.0794
   7-  1s  -2076.6859  2s   -166.5838  2p   -117.0793
   8-  1s  -2076.6859  2s   -166.5838  2p   -117.0793
   9-  1s  -2076.6692  2s   -166.5695  2p   -117.0648
  10-  1s  -2076.6692  2s   -166.5695  2p   -117.0648
  11-  1s  -2076.6519  2s   -166.5603  2p   -117.0548
  12-  1s  -2076.6518  2s   -166.5602  2p   -117.0548
  13-  1s  -2076.6860  2s   -166.5838  2p   -117.0794
  14-  1s  -2076.6860  2s   -166.5838  2p   -117.0794
  15-  1s  -2076.6860  2s   -166.5838  2p   -117.0794
  16-  1s  -2076.6860  2s   -166.5838  2p   -117.0794
 
 E-fermi :   0.3666     XC(G=0):  -6.1639     alpha+bet : -7.6368

 Fermi energy:         0.3665726054

 k-point     1 :       0.0000    0.0000    0.0000
  band No.  band energies     occupation 
      1     -15.9374      2.00000
      2     -15.8336      2.00000
      3     -15.7806      2.00000
      4     -15.6953      2.00000
      5      -8.8751      2.00000
      6      -8.7924      2.00000
      7      -8.6319      2.00000
      8      -8.4969      2.00000
      9      -8.2693      2.00000
     10      -8.1571      2.00000
     11      -8.1346      2.00000
     12      -8.1131      2.00000
     13      -8.0712      2.00000
     14      -8.0536      2.00000
     15      -8.0241      2.00000
     16      -7.9099      2.00000
     17      -4.1799      2.00000
     18      -3.4624      2.00000
     19      -3.1807      2.00000
     20      -2.4298      2.00000
     21      -2.0145      2.00000
     22      -1.9705      2.00000
     23      -1.8272      2.00000
     24      -1.8180      2.00000
     25      -1.6100      2.00000
     26      -1.5631      2.00000
     27      -1.3961      2.00000
     28      -1.3634      2.00000
     29      -1.2566      2.00000
     30      -1.2297      2.00000
     31      -1.0512      2.00000
     32      -0.7071      2.00000
     33      -0.5943      2.00000
     34      -0.5227      2.00000
     35      -0.4882      2.00000
     36      -0.4775      2.00000
     37      -0.3167      2.00000
     38      -0.2978      2.00000
     39      -0.1918      2.00000
     40      -0.1121      2.00000
     41       4.2145      0.00000
     42       4.4795      0.00000
     43       4.7091      0.00000
     44       4.8774      0.00000
     45       4.8906      0.00000
     46       4.9780      0.00000
     47       4.9867      0.00000
     48       4.9900      0.00000
     49       5.0447      0.00000

 k-point     2 :       0.5000    0.0000    0.0000
  band No.  band energies     occupation 
      1     -15.8933      2.00000
      2     -15.8933      2.00000
      3     -15.7310      2.00000
      4     -15.7309      2.00000
      5      -8.7685      2.00000
      6      -8.7685      2.00000
      7      -8.5095      2.00000
      8      -8.5095      2.00000
      9      -8.3141      2.00000
     10      -8.3141      2.00000
     11      -8.1253      2.00000
     12      -8.1253      2.00000
     13      -8.1076      2.00000
     14      -8.1075      2.00000
     15      -7.9760      2.00000
     16      -7.9760      2.00000
     17      -3.7616      2.00000
     18      -3.7616      2.00000
     19      -2.7644      2.00000
     20      -2.7644      2.00000
     21      -1.9280      2.00000
     22      -1.9280      2.00000
     23      -1.7772      2.00000
     24      -1.7772      2.00000
     25      -1.6935      2.00000
     26      -1.6934      2.00000
     27      -1.4310      2.00000
     28      -1.4310      2.00000
     29      -1.2456      2.00000
     30      -1.2456      2.00000
     31      -1.0702      2.00000
     32      -1.0702      2.00000
     33      -0.6149      2.00000
     34      -0.6148      2.00000
     35      -0.4336      2.00000
     36      -0.4336      2.00000
     37      -0.2061      2.00000
     38      -0.2060      2.00000
     39      -0.1563      2.00000
     40      -0.1563      2.00000
     41       4.5487      0.00000
     42       4.5487      0.00000
     43       4.7964      0.00000
     44       4.7964      0.00000
     45       4.9566      0.00000
     46       4.9566      0.00000
     47       5.5180      0.00000
     48       5.5210      0.00000
     49       5.5669      0.00000

 k-point     3 :       0.0000    0.5000    0.0000
  band No.  band energies     occupation 
      1     -15.8609      2.00000
      2     -15.8608      2.00000
      3     -15.7659      2.00000
      4     -15.7658      2.00000
      5      -8.6809      2.00000
      6      -8.6808      2.00000
      7      -8.5026      2.00000
      8      -8.5026      2.00000
      9      -8.4023      2.00000
     10      -8.4022      2.00000
     11      -8.1091      2.00000
     12      -8.1091      2.00000
     13      -8.0976      2.00000
     14      -8.0976      2.00000
     15      -8.0136      2.00000
     16      -8.0136      2.00000
     17      -3.5783      2.00000
     18      -3.5782      2.00000
     19      -2.8389      2.00000
     20      -2.8388      2.00000
     21      -2.1351      2.00000
     22      -2.1351      2.00000
     23      -1.9945      2.00000
     24      -1.9944      2.00000
     25      -1.8220      2.00000
     26      -1.8220      2.00000
     27      -1.2236      2.00000
     28      -1.2236      2.00000
     29      -1.0967      2.00000
     30      -1.0967      2.00000
     31      -0.9745      2.00000
     32      -0.9745      2.00000
     33      -0.5632      2.00000
     34      -0.5632      2.00000
     35      -0.5347      2.00000
     36      -0.5347      2.00000
     37      -0.2161      2.00000
     38      -0.2161      2.00000
     39      -0.1248      2.00000
     40      -0.1247      2.00000
     41       4.6523      0.00000
     42       4.6523      0.00000
     43       4.8959      0.00000
     44       4.8959      0.00000
     45       5.1018      0.00000
     46       5.1019      0.00000
     47       5.3792      0.00000
     48       5.3888      0.00000
     49       5.3903      0.00000

 k-point     4 :       0.5000    0.5000    0.0000
  band No.  band energies     occupation 
      1     -15.8473      2.00000
      2     -15.8472      2.00000
      3     -15.7803      2.00000
      4     -15.7803      2.00000
      5      -8.5944      2.00000
      6      -8.5943      2.00000
      7      -8.4564      2.00000
      8      -8.4564      2.00000
      9      -8.3710      2.00000
     10      -8.3709      2.00000
     11      -8.2612      2.00000
     12      -8.2612      2.00000
     13      -8.1024      2.00000
     14      -8.1024      2.00000
     15      -8.0543      2.00000
     16      -8.0543      2.00000
     17      -3.2873      2.00000
     18      -3.2873      2.00000
     19      -3.0279      2.00000
     20      -3.0279      2.00000
     21      -2.1322      2.00000
     22      -2.1322      2.00000
     23      -2.0004      2.00000
     24      -2.0004      2.00000
     25      -1.7389      2.00000
     26      -1.7389      2.00000
     27      -1.5433      2.00000
     28      -1.5433      2.00000
     29      -1.0740      2.00000
     30      -1.0740      2.00000
     31      -0.9113      2.00000
     32      -0.9113      2.00000
     33      -0.5332      2.00000
     34      -0.5332      2.00000
     35      -0.3896      2.00000
     36      -0.3896      2.00000
     37      -0.2738      2.00000
     38      -0.2738      2.00000
     39      -0.2217      2.00000
     40      -0.2217      2.00000
     41       4.7853      0.00000
     42       4.7853      0.00000
     43       4.9146      0.00000
     44       4.9146      0.00000
     45       5.1986      0.00000
     46       5.1986      0.00000
     47       5.2506      0.00000
     48       5.2506      0.00000
     49       5.7600      0.00000

 k-point     5 :       0.0000    0.0000    0.5000
  band No.  band energies     occupation 
      1     -15.8630      2.00000
      2     -15.7922      2.00000
      3     -15.7547      2.00000
      4     -15.7051      2.00000
      5      -8.8165      2.00000
      6      -8.6261      2.00000
      7      -8.5970      2.00000
      8      -8.5328      2.00000
      9      -8.5230      2.00000
     10      -8.4699      2.00000
     11      -8.4657      2.00000
     12      -8.2506      2.00000
     13      -8.2308      2.00000
     14      -8.2026      2.00000
     15      -8.1843      2.00000
     16      -8.1752      2.00000
     17      -3.2449      2.00000
     18      -2.7960      2.00000
     19      -2.6198      2.00000
     20      -2.5205      2.00000
     21      -1.8783      2.00000
     22      -1.7009      2.00000
     23      -1.6674      2.00000
     24      -1.6605      2.00000
     25      -1.4912      2.00000
     26      -1.2798      2.00000
     27      -1.2719      2.00000
     28      -1.2532      2.00000
     29      -1.0869      2.00000
     30      -1.0846      2.00000
     31      -1.0055      2.00000
     32      -0.9130      2.00000
     33      -0.8491      2.00000
     34      -0.8334      2.00000
     35      -0.5729      2.00000
     36      -0.5504      2.00000
     37      -0.4579      2.00000
     38      -0.3733      2.00000
     39      -0.3096      2.00000
     40      -0.1448      2.00000
     41       4.8403      0.00000
     42       4.9075      0.00000
     43       5.0024      0.00000
     44       5.2484      0.00000
     45       5.3415      0.00000
     46       5.4147      0.00000
     47       5.4890      0.00000
     48       5.4959      0.00000
     49       5.8038      0.00000

 k-point     6 :       0.5000    0.0000    0.5000
  band No.  band energies     occupation 
      1     -15.8329      2.00000
      2     -15.8328      2.00000
      3     -15.7249      2.00000
      4     -15.7248      2.00000
      5      -8.7823      2.00000
      6      -8.7823      2.00000
      7      -8.5679      2.00000
      8      -8.5679      2.00000
      9      -8.5352      2.00000
     10      -8.5352      2.00000
     11      -8.2462      2.00000
     12      -8.2462      2.00000
     13      -8.1937      2.00000
     14      -8.1937      2.00000
     15      -8.1906      2.00000
     16      -8.1905      2.00000
     17      -3.0316      2.00000
     18      -3.0316      2.00000
     19      -2.8017      2.00000
     20      -2.8017      2.00000
     21      -1.7869      2.00000
     22      -1.7869      2.00000
     23      -1.6868      2.00000
     24      -1.6868      2.00000
     25      -1.2555      2.00000
     26      -1.2555      2.00000
     27      -1.2474      2.00000
     28      -1.2474      2.00000
     29      -1.0888      2.00000
     30      -1.0888      2.00000
     31      -1.0421      2.00000
     32      -1.0420      2.00000
     33      -0.8580      2.00000
     34      -0.8580      2.00000
     35      -0.6245      2.00000
     36      -0.6245      2.00000
     37      -0.1719      2.00000
     38      -0.1719      2.00000
     39      -0.0269      2.00000
     40      -0.0269      2.00000
     41       4.9391      0.00000
     42       4.9391      0.00000
     43       5.1438      0.00000
     44       5.1438      0.00000
     45       5.1667      0.00000
     46       5.1667      0.00000
     47       5.2572      0.00000
     48       5.2573      0.00000
     49       5.7633      0.00000

 k-point     7 :       0.0000    0.5000    0.5000
  band No.  band energies     occupation 
      1     -15.8095      2.00000
      2     -15.8094      2.00000
      3     -15.7489      2.00000
      4     -15.7488      2.00000
      5      -8.8386      2.00000
      6      -8.8386      2.00000
      7      -8.7157      2.00000
      8      -8.7157      2.00000
      9      -8.4671      2.00000
     10      -8.4671      2.00000
     11      -8.2613      2.00000
     12      -8.2612      2.00000
     13      -8.1018      2.00000
     14      -8.1018      2.00000
     15      -8.0760      2.00000
     16      -8.0759      2.00000
     17      -2.9631      2.00000
     18      -2.9631      2.00000
     19      -2.8806      2.00000
     20      -2.8806      2.00000
     21      -1.8574      2.00000
     22      -1.8574      2.00000
     23      -1.8270      2.00000
     24      -1.8270      2.00000
     25      -1.6124      2.00000
     26      -1.6123      2.00000
     27      -1.3396      2.00000
     28      -1.3396      2.00000
     29      -0.9427      2.00000
     30      -0.9427      2.00000
     31      -0.9301      2.00000
     32      -0.9301      2.00000
     33      -0.6832      2.00000
     34      -0.6832      2.00000
     35      -0.6044      2.00000
     36      -0.6044      2.00000
     37      -0.0783      2.00000
     38      -0.0783      2.00000
     39      -0.0079      2.00000
     40      -0.0079      2.00000
     41       4.9095      0.00000
     42       4.9095      0.00000
     43       5.1366      0.00000
     44       5.1367      0.00000
     45       5.4354      0.00000
     46       5.4358      0.00000
     47       5.6939      0.00000
     48       5.6946      0.00000
     49       5.7865      0.00000

 k-point     8 :       0.5000    0.5000    0.5000
  band No.  band energies     occupation 
      1     -15.8021      2.00000
      2     -15.8021      2.00000
      3     -15.7565      2.00000
      4     -15.7564      2.00000
      5      -8.8569      2.00000
      6      -8.8569      2.00000
      7      -8.7884      2.00000
      8      -8.7884      2.00000
      9      -8.3363      2.00000
     10      -8.3363      2.00000
     11      -8.2518      2.00000
     12      -8.2517      2.00000
     13      -8.1437      2.00000
     14      -8.1436      2.00000
     15      -8.0593      2.00000
     16      -8.0593      2.00000
     17      -3.0926      2.00000
     18      -3.0925      2.00000
     19      -2.9254      2.00000
     20      -2.9254      2.00000
     21      -2.0451      2.00000
     22      -2.0451      2.00000
     23      -1.7496      2.00000
     24      -1.7496      2.00000
     25      -1.6446      2.00000
     26      -1.6446      2.00000
     27      -1.2205      2.00000
     28      -1.2205      2.00000
     29      -0.9859      2.00000
     30      -0.9859      2.00000
     31      -0.8047      2.00000
     32      -0.8047      2.00000
     33      -0.7344      2.00000
     34      -0.7344      2.00000
     35      -0.2724      2.00000
     36      -0.2724      2.00000
     37      -0.1785      2.00000
     38      -0.1785      2.00000
     39       0.1136      2.00000
     40       0.1136      2.00000
     41       4.5936      0.00000
     42       4.5936      0.00000
     43       4.8259      0.00000
     44       4.8259      0.00000
     45       5.3658      0.00000
     46       5.3659      0.00000
     47       5.3755      0.00000
     48       5.3755      0.00000
     49       5.9211      0.00000


--------------------------------------------------------------------------------------------------------


 soft charge-density along one line, spin component            1
         0         1         2         3         4         5         6         7         8         9
 total charge-density along one line
 
 pseudopotential strength for first ion, spin component:            1
 28.057  34.999   0.031   0.011  -0.000   0.048   0.018  -0.000
 34.999  43.663   0.039   0.014  -0.000   0.060   0.022  -0.000
  0.031   0.039   6.242   0.002  -0.000   9.658   0.003  -0.000
  0.011   0.014   0.002   6.237   0.000   0.003   9.651   0.000
 -0.000  -0.000  -0.000   0.000   6.236  -0.000   0.000   9.650
  0.048   0.060   9.658   0.003  -0.000  14.963   0.004  -0.000
  0.018   0.022   0.003   9.651   0.000   0.004  14.951   0.000
 -0.000  -0.000  -0.000   0.000   9.650  -0.000   0.000  14.950
 total augmentation occupancy for first ion, spin component:            1
 10.907  -6.205   4.268   1.535  -0.000  -1.856  -0.667   0.000
 -6.205   4.129  -3.557  -1.279   0.000   1.408   0.506  -0.000
  4.268  -3.557   4.691   0.448  -0.000  -1.639  -0.223   0.000
  1.535  -1.279   0.448   3.636   0.000  -0.223  -1.105  -0.000
 -0.000   0.000  -0.000   0.000   3.460   0.000  -0.000  -1.020
 -1.856   1.408  -1.639  -0.223   0.000   0.616   0.106  -0.000
 -0.667   0.506  -0.223  -1.105  -0.000   0.106   0.361   0.000
  0.000  -0.000   0.000  -0.000  -1.020  -0.000   0.000   0.321


------------------------ aborting loop because EDIFF is reached ----------------------------------------


    FORLOC:  cpu time      0.0013: real time      0.0013
    FORHF :  cpu time      1.5443: real time      1.5441
    FORNL :  cpu time      0.0845: real time      0.0845
    STRESS:  cpu time      0.2620: real time      0.2620
    FORCOR:  cpu time      0.5769: real time      0.5768
    OFIELD:  cpu time      0.0010: real time      0.0010

  FORCE on cell =-STRESS in cart. coord.  units (eV):
  Direction    XX          YY          ZZ          XY          YZ          ZX
  --------------------------------------------------------------------------------------
  Alpha Z    55.48217    55.48217    55.48217
  Ewald    -652.10342  -786.60070  -701.46471     0.00004    10.30198     0.00014
  Hartree   276.89704   186.65899   244.75955    -0.00001     7.39269     0.00008
  E(xc)    -186.48062  -186.57516  -186.66843     0.00000    -0.00176     0.00000
  Local    -935.29857  -711.08409  -855.68072     0.00001   -17.88919    -0.00021
  n-local   857.03483   857.00400   858.55262    -0.00001     0.16469    -0.00002
  augment  -166.86049  -166.85482  -167.17991     0.00001    -0.02256     0.00000
  Kinetic   779.57533   780.06493   783.55237    -0.00010    -0.01244    -0.00000
  Fock      -33.53856   -33.53741   -33.47306    -0.00000     0.00869    -0.00000
  -------------------------------------------------------------------------------------
  Total      -5.29229    -5.44210    -2.12012    -0.00006    -0.05791     0.00000
  in kB     -18.32904   -18.84788    -7.34272    -0.00021    -0.20058     0.00001
  external pressure =      -14.84 kB  Pullay stress =        0.00 kB


 VOLUME and BASIS-vectors are now :
 -----------------------------------------------------------------------------
  energy-cutoff  :      450.00
  volume of cell :      462.61
      direct lattice vectors                 reciprocal lattice vectors
     0.000000000  9.655935788  0.000000000     0.000000000  0.103563240 -0.000440236
     8.584947329  0.000000000  0.000000000     0.116482951 -0.000000000  0.000000000
     0.000000000 -0.023722583 -5.580620493     0.000000000  0.000000000 -0.179191544

  length of vectors
     9.655935788  8.584947329  5.580670914     0.103564176  0.116482951  0.179191544


 FORCES acting on ions:
    Electron-Ion                     Ewald-Force                    Non-Local-Force
 -----------------------------------------------------------------------------------------------
   0.163E-03 0.121E+03 0.457E+02   0.620E-04 -.126E+03 -.473E+02   -.299E-04 0.449E+01 0.162E+01
   0.342E-03 -.121E+03 -.457E+02   -.123E-03 0.126E+03 0.473E+02   -.471E-04 -.449E+01 -.162E+01
   0.244E-03 0.105E+02 -.112E+03   -.445E-04 -.106E+02 0.117E+03   -.902E-05 0.350E-01 -.501E+01
   0.804E-04 -.105E+02 0.112E+03   0.805E-04 0.106E+02 -.117E+03   -.108E-04 -.348E-01 0.501E+01
   0.951E+02 -.536E+02 0.477E+02   -.987E+02 0.557E+02 -.492E+02   0.383E+01 -.230E+01 0.161E+01
   0.951E+02 0.536E+02 -.477E+02   -.987E+02 -.557E+02 0.492E+02   0.383E+01 0.230E+01 -.161E+01
   -.951E+02 0.536E+02 -.477E+02   0.987E+02 -.557E+02 0.492E+02   -.383E+01 0.230E+01 -.161E+01
   -.951E+02 -.536E+02 0.477E+02   0.987E+02 0.557E+02 -.492E+02   -.383E+01 -.230E+01 0.161E+01
   -.293E-03 0.121E+03 0.457E+02   0.837E-04 -.126E+03 -.473E+02   0.313E-04 0.449E+01 0.162E+01
   -.168E-03 -.121E+03 -.457E+02   -.841E-04 0.126E+03 0.473E+02   0.499E-04 -.449E+01 -.162E+01
   -.978E-04 0.105E+02 -.112E+03   -.608E-04 -.106E+02 0.117E+03   0.837E-05 0.347E-01 -.501E+01
   -.263E-03 -.105E+02 0.112E+03   0.487E-04 0.106E+02 -.117E+03   0.271E-04 -.348E-01 0.501E+01
   0.951E+02 -.536E+02 0.477E+02   -.987E+02 0.557E+02 -.492E+02   0.383E+01 -.230E+01 0.161E+01
   0.951E+02 0.536E+02 -.477E+02   -.987E+02 -.557E+02 0.492E+02   0.383E+01 0.230E+01 -.161E+01
   -.951E+02 0.536E+02 -.477E+02   0.987E+02 -.557E+02 0.492E+02   -.383E+01 0.230E+01 -.161E+01
   -.951E+02 -.536E+02 0.477E+02   0.987E+02 0.557E+02 -.492E+02   -.383E+01 -.230E+01 0.161E+01
 -----------------------------------------------------------------------------------------------
   -.247E-04 -.130E-03 -.523E-04   0.426E-13 -.639E-13 0.711E-14   0.667E-05 0.912E-04 0.307E-04
 
 
 POSITION                                       TOTAL-FORCE (eV/Angst)
 -----------------------------------------------------------------------------------
      4.29247      6.27336     -4.18863         0.000194      0.795113      0.280342
      4.29247      3.35885     -1.39198         0.000171     -0.795165     -0.280402
      4.29247      7.53894     -2.39348         0.000191      0.013858     -0.838433
      4.29247      2.09327     -3.18714         0.000150     -0.013831      0.838478
      3.19113      8.18226     -4.18634         0.707896     -0.399516      0.280257
      3.19113      1.44994     -1.39428         0.707819      0.399550     -0.280229
      5.39381      1.44995     -1.39428        -0.707625      0.399601     -0.280251
      5.39381      8.18226     -4.18634        -0.707663     -0.399580      0.280268
      0.00000      1.44540     -4.18864        -0.000175      0.795460      0.280172
      8.58495      8.18681     -1.39198        -0.000199     -0.795380     -0.280106
      8.58495      2.71099     -2.39349        -0.000148      0.014709     -0.838224
      0.00000      6.92123     -3.18713        -0.000184     -0.014734      0.838112
      7.48361      3.35430     -4.18635         0.707561     -0.398765      0.280293
      7.48361      6.27791     -1.39428         0.707536      0.398741     -0.280271
      1.10134      6.27792     -1.39427        -0.707760      0.398656     -0.280272
      1.10134      3.35430     -4.18635        -0.707763     -0.398715      0.280265
 -----------------------------------------------------------------------------------
    total drift:                               -0.000017     -0.000032     -0.000020


--------------------------------------------------------------------------------------------------------



  FREE ENERGIE OF THE ION-ELECTRON SYSTEM (eV)
  ---------------------------------------------------
  free  energy   TOTEN  =      -105.84307540 eV

  energy  without entropy=     -105.84307540  energy(sigma->0) =     -105.84307540
 


--------------------------------------------------------------------------------------------------------


    POTLOK:  cpu time      0.6600: real time      0.6600


--------------------------------------------------------------------------------------------------------


 writing wavefunctions
     LOOP+:  cpu time     38.0027: real time     38.1915
    4ORBIT:  cpu time      0.0000: real time      0.0000

 total amount of memory used by VASP MPI-rank0   348198. kBytes
=======================================================================

   base      :      30000. kBytes
   nonlr-proj:       4328. kBytes
   fftplans  :      20268. kBytes
   grid      :      31180. kBytes
   one-center:         49. kBytes
   HF        :          4. kBytes
   wavefun   :     192165. kBytes
   fock_wrk  :      70204. kBytes
 
  
  
 General timing and accounting informations for this job:
 ========================================================
  
                  Total CPU time used (sec):       46.822
                            User time (sec):       44.674
                          System time (sec):        2.148
                         Elapsed time (sec):       48.732
  
                   Maximum memory used (kb):     3725824.
                   Average memory used (kb):          N/A
  
                          Minor page faults:        96600
                          Major page faults:            5
                 Voluntary context switches:         5661
