P16                                     
    1.000000000000000     
     0.0000000000000000    9.6559357881997183    0.0000000000000000
     8.5849473287335414    0.0000000000000000    0.0000000000000000
     0.0000000000000000   -0.0237225833780770   -5.5806204931400440
   P 
    16
Direct
  0.6515337074826236  0.5000000822751760  0.7505673739631383
  0.3484660960219358  0.4999997762492379  0.2494319212260754
  0.7818110362682006  0.4999999735094049  0.4288910731519200
  0.2181884774498666  0.5000000756393919  0.5711090694028909
  0.8492247183814710  0.3717126409436395  0.7501564600946291
  0.1507746636686726  0.3717127667850846  0.2498437584146335
  0.1507748715298052  0.6282873450466560  0.2498434443960372
  0.8492248488214467  0.6282873840888177  0.7501562433053928
  0.1515347466660213  0.0000001744391889  0.7505694307099087
  0.8484654122261094 -0.0000000739567504  0.2494311856900100
  0.2818123330225790 -0.0000000915357808  0.4288939279866560
  0.7181882190635981  0.0000000068118999  0.5711059564332651
  0.3492253848297754  0.8717127638728370  0.7501578908901099
  0.6507749020428815  0.8717127072575014  0.2498424549565992
  0.6507750911949519  0.1282872308301931  0.2498421758048217
  0.3492254913300330  0.1282872377435023  0.7501576335739114
 
  0.00000000E+00  0.00000000E+00  0.00000000E+00
  0.00000000E+00  0.00000000E+00  0.00000000E+00
  0.00000000E+00  0.00000000E+00  0.00000000E+00
  0.00000000E+00  0.00000000E+00  0.00000000E+00
  0.00000000E+00  0.00000000E+00  0.00000000E+00
  0.00000000E+00  0.00000000E+00  0.00000000E+00
  0.00000000E+00  0.00000000E+00  0.00000000E+00
  0.00000000E+00  0.00000000E+00  0.00000000E+00
  0.00000000E+00  0.00000000E+00  0.00000000E+00
  0.00000000E+00  0.00000000E+00  0.00000000E+00
  0.00000000E+00  0.00000000E+00  0.00000000E+00
  0.00000000E+00  0.00000000E+00  0.00000000E+00
  0.00000000E+00  0.00000000E+00  0.00000000E+00
  0.00000000E+00  0.00000000E+00  0.00000000E+00
  0.00000000E+00  0.00000000E+00  0.00000000E+00
  0.00000000E+00  0.00000000E+00  0.00000000E+00
