<?xml version="1.0" encoding="ISO-8859-1"?>
<modeling>
 <generator>
  <i name="program" type="string">vasp </i>
  <i name="version" type="string">6.4.2  </i>
  <i name="subversion" type="string">20Jul23 (build Nov 12 2023 22:16:35) complex                          parallel </i>
  <i name="platform" type="string">LinuxNV </i>
  <i name="date" type="string">2025 05 31 </i>
  <i name="time" type="string">20:12:30 </i>
 </generator>
 <incar>
  <i type="int" name="ISTART">     1</i>
  <i type="string" name="PREC">Normal</i>
  <i type="string" name="ALGO">All</i>
  <i type="int" name="ISPIN">     1</i>
  <i type="int" name="ICHARG">     1</i>
  <i type="int" name="NELM">   500</i>
  <i type="int" name="IBRION">    -1</i>
  <i name="EDIFF">      0.00001000</i>
  <i name="EDIFFG">     -0.00500000</i>
  <i type="int" name="NSW">     0</i>
  <i type="int" name="ISIF">     2</i>
  <i type="int" name="ISYM">     0</i>
  <i name="ENCUT">    450.00000000</i>
  <i type="string" name="LREAL">Auto</i>
  <i type="logical" name="LPLANE"> T  </i>
  <i name="TIME">      0.40000000</i>
  <i type="int" name="ISMEAR">     0</i>
  <i name="SIGMA">      0.05000000</i>
  <i type="logical" name="LWAVE"> T  </i>
  <i type="logical" name="LCHARG"> T  </i>
  <i type="int" name="ICORELEVEL">     1</i>
  <i name="HFSCREEN">      0.20000000</i>
  <i type="logical" name="LHFCALC"> T  </i>
  <i type="int" name="LMAXFOCK">     4</i>
  <i name="AEXX">      0.32000000</i>
  <i type="string" name="PRECFOCK">Fast</i>
 </incar>
 <primitive_cell>
  <structure name="primitive_cell" >
   <crystal>
    <varray name="basis" >
     <v>       0.00000000       9.65593579       0.00000000 </v>
     <v>       8.58494733       0.00000000       0.00000000 </v>
     <v>       0.00000000      -0.02372258      -5.58062049 </v>
    </varray>
    <i name="volume">    462.60944306 </i>
    <varray name="rec_basis" >
     <v>       0.00000000       0.10356324      -0.00044024 </v>
     <v>       0.11648295      -0.00000000       0.00000000 </v>
     <v>       0.00000000       0.00000000      -0.17919154 </v>
    </varray>
   </crystal>
   <varray name="positions" >
    <v>       0.65153371       0.50000008       0.75056737 </v>
    <v>       0.34846610       0.49999978       0.24943192 </v>
    <v>       0.78181104       0.49999997       0.42889107 </v>
    <v>       0.21818848       0.50000008       0.57110907 </v>
    <v>       0.84922472       0.37171264       0.75015646 </v>
    <v>       0.15077466       0.37171277       0.24984376 </v>
    <v>       0.15077487       0.62828735       0.24984344 </v>
    <v>       0.84922485       0.62828738       0.75015624 </v>
    <v>       0.15153475       0.00000017       0.75056943 </v>
    <v>       0.84846541       0.99999993       0.24943119 </v>
    <v>       0.28181233       0.99999991       0.42889393 </v>
    <v>       0.71818822       0.00000001       0.57110596 </v>
    <v>       0.34922538       0.87171276       0.75015789 </v>
    <v>       0.65077490       0.87171271       0.24984245 </v>
    <v>       0.65077509       0.12828723       0.24984218 </v>
    <v>       0.34922549       0.12828724       0.75015763 </v>
   </varray>
  </structure>
  <varray name="primitive_index" >
   <v type="int" >        1 </v>
   <v type="int" >        2 </v>
   <v type="int" >        3 </v>
   <v type="int" >        4 </v>
   <v type="int" >        5 </v>
   <v type="int" >        6 </v>
   <v type="int" >        7 </v>
   <v type="int" >        8 </v>
   <v type="int" >        9 </v>
   <v type="int" >       10 </v>
   <v type="int" >       11 </v>
   <v type="int" >       12 </v>
   <v type="int" >       13 </v>
   <v type="int" >       14 </v>
   <v type="int" >       15 </v>
   <v type="int" >       16 </v>
  </varray>
 </primitive_cell>
 <kpoints>
  <generation param="Gamma">
   <v type="int" name="divisions">       2        2        2 </v>
   <v name="usershift">      0.00000000       0.00000000       0.00000000 </v>
   <v name="genvec1">      0.50000000       0.00000000      -0.00000000 </v>
   <v name="genvec2">      0.00000000       0.50000000       0.00000000 </v>
   <v name="genvec3">      0.00000000       0.00000000       0.50000000 </v>
   <v name="shift">      0.00000000       0.00000000       0.00000000 </v>
  </generation>
  <varray name="kpointlist" >
   <v>       0.00000000       0.00000000       0.00000000 </v>
   <v>       0.50000000       0.00000000       0.00000000 </v>
   <v>       0.00000000       0.50000000       0.00000000 </v>
   <v>       0.50000000       0.50000000       0.00000000 </v>
   <v>       0.00000000       0.00000000       0.50000000 </v>
   <v>       0.50000000       0.00000000       0.50000000 </v>
   <v>       0.00000000       0.50000000       0.50000000 </v>
   <v>       0.50000000       0.50000000       0.50000000 </v>
  </varray>
  <varray name="weights" >
   <v>       0.12500000 </v>
   <v>       0.12500000 </v>
   <v>       0.12500000 </v>
   <v>       0.12500000 </v>
   <v>       0.12500000 </v>
   <v>       0.12500000 </v>
   <v>       0.12500000 </v>
   <v>       0.12500000 </v>
  </varray>
 </kpoints>
 <parameters>
  <separator name="general" >
   <i type="string" name="SYSTEM">unknown system</i>
   <i type="logical" name="LCOMPAT"> F  </i>
  </separator>
  <separator name="electronic" >
   <i type="string" name="PREC">normal</i>
   <i name="ENMAX">    450.00000000</i>
   <i name="ENAUG">    342.92400000</i>
   <i name="EDIFF">      0.00001000</i>
   <i type="int" name="IALGO">    58</i>
   <i type="int" name="IWAVPR">    10</i>
   <i type="int" name="NBANDS">    49</i>
   <i type="int" name="NBANDSLOW">    -1</i>
   <i type="int" name="NBANDSHIGH">    -1</i>
   <i name="NELECT">     80.00000000</i>
   <i type="int" name="TURBO">     0</i>
   <i type="int" name="IRESTART">     0</i>
   <i type="int" name="NREBOOT">     0</i>
   <i type="int" name="NMIN">     0</i>
   <i name="EREF">      0.00000000</i>
   <separator name="electronic smearing" >
    <i type="int" name="ISMEAR">     0</i>
    <i name="SIGMA">      0.05000000</i>
    <i name="KSPACING">      0.50000000</i>
    <i type="logical" name="KGAMMA"> T  </i>
    <i type="logical" name="KBLOWUP"> T  </i>
   </separator>
   <separator name="electronic projectors" >
    <i type="logical" name="LREAL"> T  </i>
    <v name="ROPT">     -0.00050000</v>
    <i type="int" name="LMAXPAW">  -100</i>
    <i type="int" name="LMAXMIX">     2</i>
    <i type="logical" name="NLSPLINE"> F  </i>
   </separator>
   <separator name="electronic startup" >
    <i type="int" name="ISTART">     1</i>
    <i type="int" name="ICHARG">     1</i>
    <i type="int" name="INIWAV">     1</i>
   </separator>
   <separator name="electronic spin" >
    <i type="int" name="ISPIN">     1</i>
    <i type="logical" name="LNONCOLLINEAR"> F  </i>
    <v name="MAGMOM">      1.00000000      1.00000000      1.00000000      1.00000000      1.00000000      1.00000000      1.00000000      1.00000000      1.00000000      1.00000000      1.00000000      1.00000000      1.00000000      1.00000000      1.00000000      1.00000000</v>
    <i name="NUPDOWN">     -1.00000000</i>
    <i type="logical" name="LSORBIT"> F  </i>
    <v name="SAXIS">      0.00000000      0.00000000      1.00000000</v>
    <i type="logical" name="LSPIRAL"> F  </i>
    <v name="QSPIRAL">      0.00000000      0.00000000      0.00000000</v>
    <i type="logical" name="LZEROZ"> F  </i>
   </separator>
   <separator name="electronic exchange-correlation" >
    <i type="logical" name="LASPH"> F  </i>
    <i type="logical" name="LMETAGGA"> F  </i>
   </separator>
   <separator name="electronic convergence" >
    <i type="int" name="NELM">   500</i>
    <i type="int" name="NELMDL">     0</i>
    <i type="int" name="NELMIN">     2</i>
    <i name="ENINI">    450.00000000</i>
    <separator name="electronic convergence detail" >
     <i type="logical" name="LDIAG"> T  </i>
     <i type="logical" name="LSUBROT"> F  </i>
     <i name="WEIMIN">      0.00000000</i>
     <i name="EBREAK">      0.00000005</i>
     <i name="DEPER">      0.30000000</i>
     <i type="int" name="NRMM">     4</i>
     <i name="TIME">      0.40000000</i>
    </separator>
   </separator>
   <separator name="electronic mixer" >
    <i name="AMIX">      0.40000000</i>
    <i name="BMIX">      1.00000000</i>
    <i name="AMIN">      0.10000000</i>
    <i name="AMIX_MAG">      1.60000000</i>
    <i name="BMIX_MAG">      1.00000000</i>
    <separator name="electronic mixer details" >
     <i type="int" name="IMIX">     4</i>
     <i type="logical" name="MIXFIRST"> F  </i>
     <i type="int" name="MAXMIX">   -45</i>
     <i name="WC">    100.00000000</i>
     <i type="int" name="INIMIX">     1</i>
     <i type="int" name="MIXPRE">     1</i>
     <i type="int" name="MREMOVE">     5</i>
    </separator>
   </separator>
   <separator name="electronic dipolcorrection" >
    <i type="logical" name="LDIPOL"> F  </i>
    <i type="logical" name="LMONO"> F  </i>
    <i type="int" name="IDIPOL">     0</i>
    <i name="EPSILON">      1.00000000</i>
    <v name="DIPOL">   -100.00000000   -100.00000000   -100.00000000</v>
    <i name="EFIELD">      0.00000000</i>
   </separator>
  </separator>
  <separator name="grids" >
   <i type="int" name="NGX">    50</i>
   <i type="int" name="NGY">    48</i>
   <i type="int" name="NGZ">    30</i>
   <i type="int" name="NGXF">   100</i>
   <i type="int" name="NGYF">    96</i>
   <i type="int" name="NGZF">    60</i>
   <i type="logical" name="ADDGRID"> F  </i>
  </separator>
  <separator name="ionic" >
   <i type="int" name="NSW">     0</i>
   <i type="int" name="IBRION">    -1</i>
   <i type="int" name="MDALGO">     0</i>
   <i type="int" name="ISIF">     2</i>
   <i name="PSTRESS">      0.00000000</i>
   <i name="EDIFFG">     -0.00500000</i>
   <i type="int" name="NFREE">     0</i>
   <i name="POTIM">      0.50000000</i>
   <i name="SMASS">     -3.00000000</i>
   <i name="SCALEE">      1.00000000</i>
  </separator>
  <separator name="ionic md" >
   <i name="TEBEG">      0.00010000</i>
   <i name="TEEND">      0.00010000</i>
   <i type="int" name="NBLOCK">     1</i>
   <i type="int" name="KBLOCK">     1</i>
   <i type="int" name="NPACO">   256</i>
   <i name="APACO">     10.00000000</i>
  </separator>
  <separator name="symmetry" >
   <i type="int" name="ISYM">     0</i>
   <i name="SYMPREC">      0.00001000</i>
  </separator>
  <separator name="dos" >
   <i type="int" name="LORBIT">     0</i>
   <v name="RWIGS">     -1.00000000</v>
   <i type="int" name="NEDOS">   301</i>
   <i name="EMIN">     10.00000000</i>
   <i name="EMAX">    -10.00000000</i>
   <i name="EFERMI">      0.00000000</i>
  </separator>
  <separator name="writing" >
   <i type="int" name="NWRITE">     2</i>
   <i type="logical" name="LWAVE"> T  </i>
   <i type="logical" name="LDOWNSAMPLE"> F  </i>
   <i type="logical" name="LCHARG"> T  </i>
   <i type="logical" name="LPARD"> F  </i>
   <i type="logical" name="LVTOT"> F  </i>
   <i type="logical" name="LVHAR"> F  </i>
   <i type="logical" name="LELF"> F  </i>
   <i type="logical" name="LOPTICS"> F  </i>
   <v name="STM">      0.00000000      0.00000000      0.00000000      0.00000000      0.00000000      0.00000000      0.00000000</v>
  </separator>
  <separator name="performance" >
   <i type="int" name="NPAR">     1</i>
   <i type="int" name="NSIM">     4</i>
   <i type="int" name="NBLK">    -1</i>
   <i type="logical" name="LPLANE"> T  </i>
   <i type="logical" name="LSCALAPACK"> T  </i>
   <i type="logical" name="LSCAAWARE"> F  </i>
   <i type="logical" name="LSCALU"> F  </i>
   <i type="logical" name="LASYNC"> F  </i>
   <i type="logical" name="LORBITALREAL"> F  </i>
  </separator>
  <separator name="miscellaneous" >
   <i type="int" name="IDIOT">     3</i>
   <i type="int" name="PHON_NSTRUCT">    -1</i>
   <i type="logical" name="LMUSIC"> F  </i>
   <v name="POMASS">     30.97400000</v>
   <v name="DARWINR">      0.00000000</v>
   <v name="DARWINV">      1.00000000</v>
   <i type="logical" name="LCORR"> T  </i>
  </separator>
  <i type="logical" name="GGA_COMPAT"> T  </i>
  <i type="logical" name="LBERRY"> F  </i>
  <i type="int" name="ICORELEVEL">     1</i>
  <i type="int" name="CLNT">     1</i>
  <i type="int" name="CLN">     1</i>
  <i type="int" name="CLL">     0</i>
  <i name="CLZ">      0.00000000</i>
  <i type="logical" name="LDAU"> F  </i>
  <i type="int" name="I_CONSTRAINED_M">     0</i>
  <separator name="electronic exchange-correlation" >
   <i type="string" name="GGA">--</i>
   <i type="int" name="VOSKOWN">     0</i>
   <i type="logical" name="LHFCALC"> T  </i>
   <i type="string" name="PRECFOCK">fast</i>
   <i type="logical" name="LSYMGRAD"> F  </i>
   <i type="logical" name="LHFONE"> F  </i>
   <i type="logical" name="LRHFCALC"> F  </i>
   <i type="logical" name="LTHOMAS"> F  </i>
   <i type="logical" name="LMODELHF"> F  </i>
   <i type="logical" name="LFOCKACE"> T  </i>
   <i name="ENCUT4O">     -1.00000000</i>
   <i type="int" name="EXXOEP">     0</i>
   <i type="int" name="FOURORBIT">     0</i>
   <i name="AEXX">      0.32000000</i>
   <i name="HFALPHA">     -1.00000000</i>
   <i name="MCALPHA">      0.00000000</i>
   <i name="ALDAX">      0.68000000</i>
   <i name="AGGAX">      0.68000000</i>
   <i name="ALDAC">      1.00000000</i>
   <i name="AGGAC">      1.00000000</i>
   <i type="int" name="NKREDX">     1</i>
   <i type="int" name="NKREDY">     1</i>
   <i type="int" name="NKREDZ">     1</i>
   <i type="logical" name="SHIFTRED"> F  </i>
   <i type="logical" name="ODDONLY"> F  </i>
   <i type="logical" name="EVENONLY"> F  </i>
   <i type="int" name="LMAXFOCK">     4</i>
   <i type="int" name="NMAXFOCKAE">     1</i>
   <i type="logical" name="LFOCKAEDFT"> F  </i>
   <i name="HFSCREEN">      0.20000000</i>
   <i name="HFSCREENC">      0.20000000</i>
   <i type="int" name="NBANDSGWLOW">     1</i>
  </separator>
  <separator name="vdW DFT" >
   <i type="logical" name="LUSE_VDW"> F  </i>
   <i type="int" name="IVDW_NL">     1</i>
   <i type="logical" name="LSPIN_VDW"> F  </i>
   <i name="Zab_VDW">     -0.84910000</i>
   <i name="PARAM1">      0.12340000</i>
   <i name="PARAM2">      1.00000000</i>
   <i name="PARAM3">      0.00000000</i>
  </separator>
  <separator name="model GW" >
   <i type="int" name="MODEL_GW">     0</i>
   <i name="MODEL_EPS0">     17.34785411</i>
   <i name="MODEL_ALPHA">      1.00000000</i>
  </separator>
  <separator name="linear response parameters" >
   <i type="logical" name="LEPSILON"> F  </i>
   <i type="logical" name="LRPA"> F  </i>
   <i type="logical" name="LNABLA"> F  </i>
   <i type="logical" name="LVEL"> F  </i>
   <i name="CSHIFT">      0.10000000</i>
   <i name="OMEGAMAX">     -1.00000000</i>
   <i name="DEG_THRESHOLD">      0.00200000</i>
   <i name="RTIME">     -0.10000000</i>
   <i name="WPLASMAI">      0.00000000</i>
   <v name="DFIELD">      0.00000000      0.00000000      0.00000000</v>
   <v name="WPLASMA">      0.00000000      0.00000000      0.00000000      0.00000000      0.00000000      0.00000000      0.00000000      0.00000000      0.00000000</v>
  </separator>
  <separator name="orbital magnetization" >
   <i type="logical" name="NUCIND"> F  </i>
   <v name="MAGPOS">      0.00000000      0.00000000      0.00000000</v>
   <i type="logical" name="LNICSALL"> T  </i>
   <i type="logical" name="ORBITALMAG"> F  </i>
   <i type="logical" name="LMAGBLOCH"> F  </i>
   <i type="logical" name="LCHIMAG"> F  </i>
   <i type="logical" name="LGAUGE"> T  </i>
   <i type="int" name="MAGATOM">     0</i>
   <v name="MAGDIPOL">      0.00000000      0.00000000      0.00000000</v>
   <v name="AVECCONST">      0.00000000      0.00000000      0.00000000</v>
  </separator>
  <separator name="response functions" >
   <i type="logical" name="LALL_IN_ONE"> F  </i>
   <i type="int" name="IALL_IN_ONE">    -1</i>
   <i type="int" name="NBANDS_WAVE">    -1</i>
   <i type="logical" name="LFINITE_TEMPERATURE"> F  </i>
   <i type="logical" name="LADDER"> F  </i>
   <i type="logical" name="LRPAFORCE"> F  </i>
   <i type="logical" name="LFXC"> F  </i>
   <i type="logical" name="LHARTREE"> T  </i>
   <i type="int" name="IBSE">     0</i>
   <v type="int" name="KPOINT">    -1     0     0     0</v>
   <i type="logical" name="LTCTC"> F  </i>
   <i type="logical" name="LTCTE"> F  </i>
   <i type="logical" name="LTETE"> F  </i>
   <i type="logical" name="LTRIPLET"> F  </i>
   <i type="logical" name="LFXCEPS"> F  </i>
   <i type="logical" name="LFXHEG"> F  </i>
   <i type="int" name="NATURALO">     2</i>
   <i type="logical" name="LHOLEGF"> F  </i>
   <i type="logical" name="L2ORDER"> F  </i>
   <i type="logical" name="LDMP1"> F  </i>
   <i type="logical" name="LMP2LT"> F  </i>
   <i type="logical" name="LSMP2LT"> F  </i>
   <i type="logical" name="LGWLF"> F  </i>
   <i name="ENCUTGW">     -1.60000002</i>
   <i name="ENCUTGWSOFT">     -1.60000002</i>
   <i name="ENCUTLF">     -1.00000000</i>
   <i type="logical" name="LESF_SPLINES"> F  </i>
   <i type="int" name="LMAXMP2">    -1</i>
   <i name="SCISSOR">      0.00000000</i>
   <i type="int" name="NOMEGA">     0</i>
   <i type="int" name="NOMEGAR">     0</i>
   <i type="int" name="NBANDSGW">    -1</i>
   <i type="int" name="NBANDSO">    -1</i>
   <i type="int" name="NBANDSV">    -1</i>
   <i type="int" name="NELMGW">     1</i>
   <i type="int" name="NELMHF">     1</i>
   <i type="int" name="DIM">     3</i>
   <i type="int" name="IESPILON">     4</i>
   <i type="int" name="ANTIRES">     0</i>
   <i name="OMEGAMAX">    -30.00000000</i>
   <i name="OMEGAMIN">    -30.00000000</i>
   <i name="OMEGATL">   -200.00000000</i>
   <i type="int" name="OMEGAGRID">     0</i>
   <i name="CSHIFT">     -0.10000000</i>
   <i type="logical" name="LSELFENERGY"> F  </i>
   <i type="logical" name="LSPECTRAL"> F  </i>
   <i type="logical" name="LSPECTRALGW"> F  </i>
   <i type="logical" name="LSINGLES"> F  </i>
   <i type="logical" name="LFERMIGW"> F  </i>
   <i type="logical" name="ODDONLYGW"> F  </i>
   <i type="logical" name="EVENONLYGW"> F  </i>
   <i type="int" name="NKREDLFX">     1</i>
   <i type="int" name="NKREDLFY">     1</i>
   <i type="int" name="NKREDLFZ">     1</i>
   <i type="int" name="MAXMEM">  2800</i>
   <i type="int" name="TELESCOPE">     0</i>
   <i type="int" name="NTAUPAR">    -1</i>
   <i type="int" name="NOMEGAPAR">    -1</i>
   <i name="DAMP_NEWTON">      0.80000001</i>
   <i name="LAMBDA">      1.00000000</i>
  </separator>
  <separator name="External order field" >
   <i name="OFIELD_KAPPA">      0.00000000</i>
   <v name="OFIELD_K">      0.00000000      0.00000000      0.00000000</v>
   <i name="OFIELD_Q6_NEAR">      0.00000000</i>
   <i name="OFIELD_Q6_FAR">      0.00000000</i>
   <i name="OFIELD_A">      0.00000000</i>
  </separator>
  <separator name="optional k-points parameters" >
   <i type="int" name="KPOINTS_OPT_MODE">     1</i>
   <i type="logical" name="LKPOINTS_OPT"> F  </i>
  </separator>
 </parameters>
 <atominfo>
  <atoms>      16 </atoms>
  <types>       1 </types>
  <array name="atoms" >
   <dimension dim="1">ion</dimension>
   <field type="string">element</field>
   <field type="int">atomtype</field>
   <set>
    <rc><c>P </c><c>   1</c></rc>
    <rc><c>P </c><c>   1</c></rc>
    <rc><c>P </c><c>   1</c></rc>
    <rc><c>P </c><c>   1</c></rc>
    <rc><c>P </c><c>   1</c></rc>
    <rc><c>P </c><c>   1</c></rc>
    <rc><c>P </c><c>   1</c></rc>
    <rc><c>P </c><c>   1</c></rc>
    <rc><c>P </c><c>   1</c></rc>
    <rc><c>P </c><c>   1</c></rc>
    <rc><c>P </c><c>   1</c></rc>
    <rc><c>P </c><c>   1</c></rc>
    <rc><c>P </c><c>   1</c></rc>
    <rc><c>P </c><c>   1</c></rc>
    <rc><c>P </c><c>   1</c></rc>
    <rc><c>P </c><c>   1</c></rc>
   </set>
  </array>
  <array name="atomtypes" >
   <dimension dim="1">type</dimension>
   <field type="int">atomspertype</field>
   <field type="string">element</field>
   <field>mass</field>
   <field>valence</field>
   <field type="string">pseudopotential</field>
   <set>
    <rc><c>  16</c><c>P </c><c>     30.97400000</c><c>      5.00000000</c><c>  PAW_PBE P 06Sep2000                   </c></rc>
   </set>
  </array>
 </atominfo>
 <structure name="initialpos" >
  <crystal>
   <varray name="basis" >
    <v>       0.00000000       9.65593579       0.00000000 </v>
    <v>       8.58494733       0.00000000       0.00000000 </v>
    <v>       0.00000000      -0.02372258      -5.58062049 </v>
   </varray>
   <i name="volume">    462.60944306 </i>
   <varray name="rec_basis" >
    <v>       0.00000000       0.10356324      -0.00044024 </v>
    <v>       0.11648295      -0.00000000       0.00000000 </v>
    <v>       0.00000000       0.00000000      -0.17919154 </v>
   </varray>
  </crystal>
  <varray name="positions" >
   <v>       0.65153371       0.50000008       0.75056737 </v>
   <v>       0.34846610       0.49999978       0.24943192 </v>
   <v>       0.78181104       0.49999997       0.42889107 </v>
   <v>       0.21818848       0.50000008       0.57110907 </v>
   <v>       0.84922472       0.37171264       0.75015646 </v>
   <v>       0.15077466       0.37171277       0.24984376 </v>
   <v>       0.15077487       0.62828735       0.24984344 </v>
   <v>       0.84922485       0.62828738       0.75015624 </v>
   <v>       0.15153475       0.00000017       0.75056943 </v>
   <v>       0.84846541       0.99999993       0.24943119 </v>
   <v>       0.28181233       0.99999991       0.42889393 </v>
   <v>       0.71818822       0.00000001       0.57110596 </v>
   <v>       0.34922538       0.87171276       0.75015789 </v>
   <v>       0.65077490       0.87171271       0.24984245 </v>
   <v>       0.65077509       0.12828723       0.24984218 </v>
   <v>       0.34922549       0.12828724       0.75015763 </v>
  </varray>
 </structure>
 <calculation>
  <scstep>
   <time name="total">    3.23    3.24</time>
   <energy>
    <i name="alphaZ">     55.48217190 </i>
    <i name="ewald">  -2140.16248874 </i>
    <i name="hartreedc">   -710.97285957 </i>
    <i name="XCdc">     33.18625399 </i>
    <i name="pawpsdc">   8385.67367050 </i>
    <i name="pawaedc">  -8290.15071787 </i>
    <i name="eentropy">     -0.00000000 </i>
    <i name="bandstr">   -388.64195152 </i>
    <i name="atom">   2786.77935828 </i>
    <i name="e_fr_energy">   -105.46479401 </i>
    <i name="e_wo_entrp">   -105.46479401 </i>
    <i name="e_0_energy">   -105.46479401 </i>
   </energy>
  </scstep>
  <scstep>
   <time name="total">    3.00    3.01</time>
   <energy>
    <i name="e_fr_energy">   -105.73873783 </i>
    <i name="e_wo_entrp">   -105.73873783 </i>
    <i name="e_0_energy">   -105.73873783 </i>
   </energy>
  </scstep>
  <scstep>
   <time name="total">    3.21    3.21</time>
   <energy>
    <i name="e_fr_energy">   -105.81148610 </i>
    <i name="e_wo_entrp">   -105.81148610 </i>
    <i name="e_0_energy">   -105.81148610 </i>
   </energy>
  </scstep>
  <scstep>
   <time name="total">    3.04    3.05</time>
   <energy>
    <i name="e_fr_energy">   -105.83184426 </i>
    <i name="e_wo_entrp">   -105.83184426 </i>
    <i name="e_0_energy">   -105.83184426 </i>
   </energy>
  </scstep>
  <scstep>
   <time name="total">    3.02    3.02</time>
   <energy>
    <i name="e_fr_energy">   -105.83972454 </i>
    <i name="e_wo_entrp">   -105.83972454 </i>
    <i name="e_0_energy">   -105.83972454 </i>
   </energy>
  </scstep>
  <scstep>
   <time name="total">    3.01    3.01</time>
   <energy>
    <i name="e_fr_energy">   -105.84216934 </i>
    <i name="e_wo_entrp">   -105.84216934 </i>
    <i name="e_0_energy">   -105.84216934 </i>
   </energy>
  </scstep>
  <scstep>
   <time name="total">    3.01    3.01</time>
   <energy>
    <i name="e_fr_energy">   -105.84282246 </i>
    <i name="e_wo_entrp">   -105.84282246 </i>
    <i name="e_0_energy">   -105.84282246 </i>
   </energy>
  </scstep>
  <scstep>
   <time name="total">    3.03    3.03</time>
   <energy>
    <i name="e_fr_energy">   -105.84299519 </i>
    <i name="e_wo_entrp">   -105.84299519 </i>
    <i name="e_0_energy">   -105.84299519 </i>
   </energy>
  </scstep>
  <scstep>
   <time name="total">    3.03    3.03</time>
   <energy>
    <i name="e_fr_energy">   -105.84304817 </i>
    <i name="e_wo_entrp">   -105.84304817 </i>
    <i name="e_0_energy">   -105.84304817 </i>
   </energy>
  </scstep>
  <scstep>
   <time name="total">    3.00    3.03</time>
   <energy>
    <i name="e_fr_energy">   -105.84306823 </i>
    <i name="e_wo_entrp">   -105.84306823 </i>
    <i name="e_0_energy">   -105.84306823 </i>
   </energy>
  </scstep>
  <scstep>
   <time name="total">    3.88    3.89</time>
   <energy>
    <i name="alphaZ">     55.48217190 </i>
    <i name="ewald">  -2140.16248874 </i>
    <i name="hartreedc">   -708.31273860 </i>
    <i name="XCdc">     33.39888432 </i>
    <i name="pawpsdc">  11557.02236461 </i>
    <i name="pawaedc"> -11461.25760131 </i>
    <i name="eentropy">     -0.00000000 </i>
    <i name="bandstr">   -392.45900664 </i>
    <i name="atom">   2786.77935828 </i>
    <i name="e_fr_energy">   -105.84307540 </i>
    <i name="e_wo_entrp">   -105.84307540 </i>
    <i name="e_0_energy">   -105.84307540 </i>
   </energy>
  </scstep>
  <structure>
   <crystal>
    <varray name="basis" >
     <v>       0.00000000       9.65593579       0.00000000 </v>
     <v>       8.58494733       0.00000000       0.00000000 </v>
     <v>       0.00000000      -0.02372258      -5.58062049 </v>
    </varray>
    <i name="volume">    462.60944306 </i>
    <varray name="rec_basis" >
     <v>       0.00000000       0.10356324      -0.00044024 </v>
     <v>       0.11648295      -0.00000000       0.00000000 </v>
     <v>       0.00000000       0.00000000      -0.17919154 </v>
    </varray>
   </crystal>
   <varray name="positions" >
    <v>       0.65153371       0.50000008       0.75056737 </v>
    <v>       0.34846610       0.49999978       0.24943192 </v>
    <v>       0.78181104       0.49999997       0.42889107 </v>
    <v>       0.21818848       0.50000008       0.57110907 </v>
    <v>       0.84922472       0.37171264       0.75015646 </v>
    <v>       0.15077466       0.37171277       0.24984376 </v>
    <v>       0.15077487       0.62828735       0.24984344 </v>
    <v>       0.84922485       0.62828738       0.75015624 </v>
    <v>       0.15153475       0.00000017       0.75056943 </v>
    <v>       0.84846541       0.99999993       0.24943119 </v>
    <v>       0.28181233       0.99999991       0.42889393 </v>
    <v>       0.71818822       0.00000001       0.57110596 </v>
    <v>       0.34922538       0.87171276       0.75015789 </v>
    <v>       0.65077490       0.87171271       0.24984245 </v>
    <v>       0.65077509       0.12828723       0.24984218 </v>
    <v>       0.34922549       0.12828724       0.75015763 </v>
   </varray>
  </structure>
  <varray name="forces" >
   <v>       0.00019448       0.79511291       0.28034213 </v>
   <v>       0.00017056      -0.79516496      -0.28040195 </v>
   <v>       0.00019105       0.01385759      -0.83843252 </v>
   <v>       0.00014958      -0.01383070       0.83847827 </v>
   <v>       0.70789641      -0.39951590       0.28025735 </v>
   <v>       0.70781907       0.39954987      -0.28022881 </v>
   <v>      -0.70762548       0.39960087      -0.28025076 </v>
   <v>      -0.70766335      -0.39958021       0.28026828 </v>
   <v>      -0.00017484       0.79545985       0.28017150 </v>
   <v>      -0.00019907      -0.79538047      -0.28010645 </v>
   <v>      -0.00014793       0.01470895      -0.83822426 </v>
   <v>      -0.00018442      -0.01473413       0.83811230 </v>
   <v>       0.70756098      -0.39876508       0.28029300 </v>
   <v>       0.70753575       0.39874105      -0.28027109 </v>
   <v>      -0.70776006       0.39865571      -0.28027245 </v>
   <v>      -0.70776275      -0.39871534       0.28026545 </v>
  </varray>
  <varray name="stress" >
   <v>     -18.32903610      -0.00020641       0.00000606 </v>
   <v>      -0.00020649     -18.84787690      -0.20057655 </v>
   <v>       0.00000606      -0.20057648      -7.34271603 </v>
  </varray>
  <energy>
   <i name="e_fr_energy">   -105.84307540 </i>
   <i name="e_wo_entrp">   -105.84307540 </i>
   <i name="e_0_energy">   -105.84307540 </i>
  </energy>
  <time name="totalsc">   38.00   38.19</time>
  <eigenvalues>
   <array>
    <dimension dim="1">band</dimension>
    <dimension dim="2">kpoint</dimension>
    <dimension dim="3">spin</dimension>
    <field>eigene</field>
    <field>occ</field>
    <set>
     <set comment="spin 1">
      <set comment="kpoint 1">
       <r>  -15.9374    1.0000 </r>
       <r>  -15.8336    1.0000 </r>
       <r>  -15.7806    1.0000 </r>
       <r>  -15.6953    1.0000 </r>
       <r>   -8.8751    1.0000 </r>
       <r>   -8.7924    1.0000 </r>
       <r>   -8.6319    1.0000 </r>
       <r>   -8.4969    1.0000 </r>
       <r>   -8.2693    1.0000 </r>
       <r>   -8.1571    1.0000 </r>
       <r>   -8.1346    1.0000 </r>
       <r>   -8.1131    1.0000 </r>
       <r>   -8.0712    1.0000 </r>
       <r>   -8.0536    1.0000 </r>
       <r>   -8.0241    1.0000 </r>
       <r>   -7.9099    1.0000 </r>
       <r>   -4.1799    1.0000 </r>
       <r>   -3.4624    1.0000 </r>
       <r>   -3.1807    1.0000 </r>
       <r>   -2.4298    1.0000 </r>
       <r>   -2.0145    1.0000 </r>
       <r>   -1.9705    1.0000 </r>
       <r>   -1.8272    1.0000 </r>
       <r>   -1.8180    1.0000 </r>
       <r>   -1.6100    1.0000 </r>
       <r>   -1.5631    1.0000 </r>
       <r>   -1.3961    1.0000 </r>
       <r>   -1.3634    1.0000 </r>
       <r>   -1.2566    1.0000 </r>
       <r>   -1.2297    1.0000 </r>
       <r>   -1.0512    1.0000 </r>
       <r>   -0.7071    1.0000 </r>
       <r>   -0.5943    1.0000 </r>
       <r>   -0.5227    1.0000 </r>
       <r>   -0.4882    1.0000 </r>
       <r>   -0.4775    1.0000 </r>
       <r>   -0.3167    1.0000 </r>
       <r>   -0.2978    1.0000 </r>
       <r>   -0.1918    1.0000 </r>
       <r>   -0.1121    1.0000 </r>
       <r>    4.2145    0.0000 </r>
       <r>    4.4795    0.0000 </r>
       <r>    4.7091    0.0000 </r>
       <r>    4.8774    0.0000 </r>
       <r>    4.8906    0.0000 </r>
       <r>    4.9780    0.0000 </r>
       <r>    4.9867    0.0000 </r>
       <r>    4.9900    0.0000 </r>
       <r>    5.0447    0.0000 </r>
      </set>
      <set comment="kpoint 2">
       <r>  -15.8933    1.0000 </r>
       <r>  -15.8933    1.0000 </r>
       <r>  -15.7310    1.0000 </r>
       <r>  -15.7309    1.0000 </r>
       <r>   -8.7685    1.0000 </r>
       <r>   -8.7685    1.0000 </r>
       <r>   -8.5095    1.0000 </r>
       <r>   -8.5095    1.0000 </r>
       <r>   -8.3141    1.0000 </r>
       <r>   -8.3141    1.0000 </r>
       <r>   -8.1253    1.0000 </r>
       <r>   -8.1253    1.0000 </r>
       <r>   -8.1076    1.0000 </r>
       <r>   -8.1075    1.0000 </r>
       <r>   -7.9760    1.0000 </r>
       <r>   -7.9760    1.0000 </r>
       <r>   -3.7616    1.0000 </r>
       <r>   -3.7616    1.0000 </r>
       <r>   -2.7644    1.0000 </r>
       <r>   -2.7644    1.0000 </r>
       <r>   -1.9280    1.0000 </r>
       <r>   -1.9280    1.0000 </r>
       <r>   -1.7772    1.0000 </r>
       <r>   -1.7772    1.0000 </r>
       <r>   -1.6935    1.0000 </r>
       <r>   -1.6934    1.0000 </r>
       <r>   -1.4310    1.0000 </r>
       <r>   -1.4310    1.0000 </r>
       <r>   -1.2456    1.0000 </r>
       <r>   -1.2456    1.0000 </r>
       <r>   -1.0702    1.0000 </r>
       <r>   -1.0702    1.0000 </r>
       <r>   -0.6149    1.0000 </r>
       <r>   -0.6148    1.0000 </r>
       <r>   -0.4336    1.0000 </r>
       <r>   -0.4336    1.0000 </r>
       <r>   -0.2061    1.0000 </r>
       <r>   -0.2060    1.0000 </r>
       <r>   -0.1563    1.0000 </r>
       <r>   -0.1563    1.0000 </r>
       <r>    4.5487    0.0000 </r>
       <r>    4.5487    0.0000 </r>
       <r>    4.7964    0.0000 </r>
       <r>    4.7964    0.0000 </r>
       <r>    4.9566    0.0000 </r>
       <r>    4.9566    0.0000 </r>
       <r>    5.5180    0.0000 </r>
       <r>    5.5210    0.0000 </r>
       <r>    5.5669    0.0000 </r>
      </set>
      <set comment="kpoint 3">
       <r>  -15.8609    1.0000 </r>
       <r>  -15.8608    1.0000 </r>
       <r>  -15.7659    1.0000 </r>
       <r>  -15.7658    1.0000 </r>
       <r>   -8.6809    1.0000 </r>
       <r>   -8.6808    1.0000 </r>
       <r>   -8.5026    1.0000 </r>
       <r>   -8.5026    1.0000 </r>
       <r>   -8.4023    1.0000 </r>
       <r>   -8.4022    1.0000 </r>
       <r>   -8.1091    1.0000 </r>
       <r>   -8.1091    1.0000 </r>
       <r>   -8.0976    1.0000 </r>
       <r>   -8.0976    1.0000 </r>
       <r>   -8.0136    1.0000 </r>
       <r>   -8.0136    1.0000 </r>
       <r>   -3.5783    1.0000 </r>
       <r>   -3.5782    1.0000 </r>
       <r>   -2.8389    1.0000 </r>
       <r>   -2.8388    1.0000 </r>
       <r>   -2.1351    1.0000 </r>
       <r>   -2.1351    1.0000 </r>
       <r>   -1.9945    1.0000 </r>
       <r>   -1.9944    1.0000 </r>
       <r>   -1.8220    1.0000 </r>
       <r>   -1.8220    1.0000 </r>
       <r>   -1.2236    1.0000 </r>
       <r>   -1.2236    1.0000 </r>
       <r>   -1.0967    1.0000 </r>
       <r>   -1.0967    1.0000 </r>
       <r>   -0.9745    1.0000 </r>
       <r>   -0.9745    1.0000 </r>
       <r>   -0.5632    1.0000 </r>
       <r>   -0.5632    1.0000 </r>
       <r>   -0.5347    1.0000 </r>
       <r>   -0.5347    1.0000 </r>
       <r>   -0.2161    1.0000 </r>
       <r>   -0.2161    1.0000 </r>
       <r>   -0.1248    1.0000 </r>
       <r>   -0.1247    1.0000 </r>
       <r>    4.6523    0.0000 </r>
       <r>    4.6523    0.0000 </r>
       <r>    4.8959    0.0000 </r>
       <r>    4.8959    0.0000 </r>
       <r>    5.1018    0.0000 </r>
       <r>    5.1019    0.0000 </r>
       <r>    5.3792    0.0000 </r>
       <r>    5.3888    0.0000 </r>
       <r>    5.3903    0.0000 </r>
      </set>
      <set comment="kpoint 4">
       <r>  -15.8473    1.0000 </r>
       <r>  -15.8472    1.0000 </r>
       <r>  -15.7803    1.0000 </r>
       <r>  -15.7803    1.0000 </r>
       <r>   -8.5944    1.0000 </r>
       <r>   -8.5943    1.0000 </r>
       <r>   -8.4564    1.0000 </r>
       <r>   -8.4564    1.0000 </r>
       <r>   -8.3710    1.0000 </r>
       <r>   -8.3709    1.0000 </r>
       <r>   -8.2612    1.0000 </r>
       <r>   -8.2612    1.0000 </r>
       <r>   -8.1024    1.0000 </r>
       <r>   -8.1024    1.0000 </r>
       <r>   -8.0543    1.0000 </r>
       <r>   -8.0543    1.0000 </r>
       <r>   -3.2873    1.0000 </r>
       <r>   -3.2873    1.0000 </r>
       <r>   -3.0279    1.0000 </r>
       <r>   -3.0279    1.0000 </r>
       <r>   -2.1322    1.0000 </r>
       <r>   -2.1322    1.0000 </r>
       <r>   -2.0004    1.0000 </r>
       <r>   -2.0004    1.0000 </r>
       <r>   -1.7389    1.0000 </r>
       <r>   -1.7389    1.0000 </r>
       <r>   -1.5433    1.0000 </r>
       <r>   -1.5433    1.0000 </r>
       <r>   -1.0740    1.0000 </r>
       <r>   -1.0740    1.0000 </r>
       <r>   -0.9113    1.0000 </r>
       <r>   -0.9113    1.0000 </r>
       <r>   -0.5332    1.0000 </r>
       <r>   -0.5332    1.0000 </r>
       <r>   -0.3896    1.0000 </r>
       <r>   -0.3896    1.0000 </r>
       <r>   -0.2738    1.0000 </r>
       <r>   -0.2738    1.0000 </r>
       <r>   -0.2217    1.0000 </r>
       <r>   -0.2217    1.0000 </r>
       <r>    4.7853    0.0000 </r>
       <r>    4.7853    0.0000 </r>
       <r>    4.9146    0.0000 </r>
       <r>    4.9146    0.0000 </r>
       <r>    5.1986    0.0000 </r>
       <r>    5.1986    0.0000 </r>
       <r>    5.2506    0.0000 </r>
       <r>    5.2506    0.0000 </r>
       <r>    5.7600    0.0000 </r>
      </set>
      <set comment="kpoint 5">
       <r>  -15.8630    1.0000 </r>
       <r>  -15.7922    1.0000 </r>
       <r>  -15.7547    1.0000 </r>
       <r>  -15.7051    1.0000 </r>
       <r>   -8.8165    1.0000 </r>
       <r>   -8.6261    1.0000 </r>
       <r>   -8.5970    1.0000 </r>
       <r>   -8.5328    1.0000 </r>
       <r>   -8.5230    1.0000 </r>
       <r>   -8.4699    1.0000 </r>
       <r>   -8.4657    1.0000 </r>
       <r>   -8.2506    1.0000 </r>
       <r>   -8.2308    1.0000 </r>
       <r>   -8.2026    1.0000 </r>
       <r>   -8.1843    1.0000 </r>
       <r>   -8.1752    1.0000 </r>
       <r>   -3.2449    1.0000 </r>
       <r>   -2.7960    1.0000 </r>
       <r>   -2.6198    1.0000 </r>
       <r>   -2.5205    1.0000 </r>
       <r>   -1.8783    1.0000 </r>
       <r>   -1.7009    1.0000 </r>
       <r>   -1.6674    1.0000 </r>
       <r>   -1.6605    1.0000 </r>
       <r>   -1.4912    1.0000 </r>
       <r>   -1.2798    1.0000 </r>
       <r>   -1.2719    1.0000 </r>
       <r>   -1.2532    1.0000 </r>
       <r>   -1.0869    1.0000 </r>
       <r>   -1.0846    1.0000 </r>
       <r>   -1.0055    1.0000 </r>
       <r>   -0.9130    1.0000 </r>
       <r>   -0.8491    1.0000 </r>
       <r>   -0.8334    1.0000 </r>
       <r>   -0.5729    1.0000 </r>
       <r>   -0.5504    1.0000 </r>
       <r>   -0.4579    1.0000 </r>
       <r>   -0.3733    1.0000 </r>
       <r>   -0.3096    1.0000 </r>
       <r>   -0.1448    1.0000 </r>
       <r>    4.8403    0.0000 </r>
       <r>    4.9075    0.0000 </r>
       <r>    5.0024    0.0000 </r>
       <r>    5.2484    0.0000 </r>
       <r>    5.3415    0.0000 </r>
       <r>    5.4147    0.0000 </r>
       <r>    5.4890    0.0000 </r>
       <r>    5.4959    0.0000 </r>
       <r>    5.8038    0.0000 </r>
      </set>
      <set comment="kpoint 6">
       <r>  -15.8329    1.0000 </r>
       <r>  -15.8328    1.0000 </r>
       <r>  -15.7249    1.0000 </r>
       <r>  -15.7248    1.0000 </r>
       <r>   -8.7823    1.0000 </r>
       <r>   -8.7823    1.0000 </r>
       <r>   -8.5679    1.0000 </r>
       <r>   -8.5679    1.0000 </r>
       <r>   -8.5352    1.0000 </r>
       <r>   -8.5352    1.0000 </r>
       <r>   -8.2462    1.0000 </r>
       <r>   -8.2462    1.0000 </r>
       <r>   -8.1937    1.0000 </r>
       <r>   -8.1937    1.0000 </r>
       <r>   -8.1906    1.0000 </r>
       <r>   -8.1905    1.0000 </r>
       <r>   -3.0316    1.0000 </r>
       <r>   -3.0316    1.0000 </r>
       <r>   -2.8017    1.0000 </r>
       <r>   -2.8017    1.0000 </r>
       <r>   -1.7869    1.0000 </r>
       <r>   -1.7869    1.0000 </r>
       <r>   -1.6868    1.0000 </r>
       <r>   -1.6868    1.0000 </r>
       <r>   -1.2555    1.0000 </r>
       <r>   -1.2555    1.0000 </r>
       <r>   -1.2474    1.0000 </r>
       <r>   -1.2474    1.0000 </r>
       <r>   -1.0888    1.0000 </r>
       <r>   -1.0888    1.0000 </r>
       <r>   -1.0421    1.0000 </r>
       <r>   -1.0420    1.0000 </r>
       <r>   -0.8580    1.0000 </r>
       <r>   -0.8580    1.0000 </r>
       <r>   -0.6245    1.0000 </r>
       <r>   -0.6245    1.0000 </r>
       <r>   -0.1719    1.0000 </r>
       <r>   -0.1719    1.0000 </r>
       <r>   -0.0269    1.0000 </r>
       <r>   -0.0269    1.0000 </r>
       <r>    4.9391    0.0000 </r>
       <r>    4.9391    0.0000 </r>
       <r>    5.1438    0.0000 </r>
       <r>    5.1438    0.0000 </r>
       <r>    5.1667    0.0000 </r>
       <r>    5.1667    0.0000 </r>
       <r>    5.2572    0.0000 </r>
       <r>    5.2573    0.0000 </r>
       <r>    5.7633    0.0000 </r>
      </set>
      <set comment="kpoint 7">
       <r>  -15.8095    1.0000 </r>
       <r>  -15.8094    1.0000 </r>
       <r>  -15.7489    1.0000 </r>
       <r>  -15.7488    1.0000 </r>
       <r>   -8.8386    1.0000 </r>
       <r>   -8.8386    1.0000 </r>
       <r>   -8.7157    1.0000 </r>
       <r>   -8.7157    1.0000 </r>
       <r>   -8.4671    1.0000 </r>
       <r>   -8.4671    1.0000 </r>
       <r>   -8.2613    1.0000 </r>
       <r>   -8.2612    1.0000 </r>
       <r>   -8.1018    1.0000 </r>
       <r>   -8.1018    1.0000 </r>
       <r>   -8.0760    1.0000 </r>
       <r>   -8.0759    1.0000 </r>
       <r>   -2.9631    1.0000 </r>
       <r>   -2.9631    1.0000 </r>
       <r>   -2.8806    1.0000 </r>
       <r>   -2.8806    1.0000 </r>
       <r>   -1.8574    1.0000 </r>
       <r>   -1.8574    1.0000 </r>
       <r>   -1.8270    1.0000 </r>
       <r>   -1.8270    1.0000 </r>
       <r>   -1.6124    1.0000 </r>
       <r>   -1.6123    1.0000 </r>
       <r>   -1.3396    1.0000 </r>
       <r>   -1.3396    1.0000 </r>
       <r>   -0.9427    1.0000 </r>
       <r>   -0.9427    1.0000 </r>
       <r>   -0.9301    1.0000 </r>
       <r>   -0.9301    1.0000 </r>
       <r>   -0.6832    1.0000 </r>
       <r>   -0.6832    1.0000 </r>
       <r>   -0.6044    1.0000 </r>
       <r>   -0.6044    1.0000 </r>
       <r>   -0.0783    1.0000 </r>
       <r>   -0.0783    1.0000 </r>
       <r>   -0.0079    1.0000 </r>
       <r>   -0.0079    1.0000 </r>
       <r>    4.9095    0.0000 </r>
       <r>    4.9095    0.0000 </r>
       <r>    5.1366    0.0000 </r>
       <r>    5.1367    0.0000 </r>
       <r>    5.4354    0.0000 </r>
       <r>    5.4358    0.0000 </r>
       <r>    5.6939    0.0000 </r>
       <r>    5.6946    0.0000 </r>
       <r>    5.7865    0.0000 </r>
      </set>
      <set comment="kpoint 8">
       <r>  -15.8021    1.0000 </r>
       <r>  -15.8021    1.0000 </r>
       <r>  -15.7565    1.0000 </r>
       <r>  -15.7564    1.0000 </r>
       <r>   -8.8569    1.0000 </r>
       <r>   -8.8569    1.0000 </r>
       <r>   -8.7884    1.0000 </r>
       <r>   -8.7884    1.0000 </r>
       <r>   -8.3363    1.0000 </r>
       <r>   -8.3363    1.0000 </r>
       <r>   -8.2518    1.0000 </r>
       <r>   -8.2517    1.0000 </r>
       <r>   -8.1437    1.0000 </r>
       <r>   -8.1436    1.0000 </r>
       <r>   -8.0593    1.0000 </r>
       <r>   -8.0593    1.0000 </r>
       <r>   -3.0926    1.0000 </r>
       <r>   -3.0925    1.0000 </r>
       <r>   -2.9254    1.0000 </r>
       <r>   -2.9254    1.0000 </r>
       <r>   -2.0451    1.0000 </r>
       <r>   -2.0451    1.0000 </r>
       <r>   -1.7496    1.0000 </r>
       <r>   -1.7496    1.0000 </r>
       <r>   -1.6446    1.0000 </r>
       <r>   -1.6446    1.0000 </r>
       <r>   -1.2205    1.0000 </r>
       <r>   -1.2205    1.0000 </r>
       <r>   -0.9859    1.0000 </r>
       <r>   -0.9859    1.0000 </r>
       <r>   -0.8047    1.0000 </r>
       <r>   -0.8047    1.0000 </r>
       <r>   -0.7344    1.0000 </r>
       <r>   -0.7344    1.0000 </r>
       <r>   -0.2724    1.0000 </r>
       <r>   -0.2724    1.0000 </r>
       <r>   -0.1785    1.0000 </r>
       <r>   -0.1785    1.0000 </r>
       <r>    0.1136    1.0000 </r>
       <r>    0.1136    1.0000 </r>
       <r>    4.5936    0.0000 </r>
       <r>    4.5936    0.0000 </r>
       <r>    4.8259    0.0000 </r>
       <r>    4.8259    0.0000 </r>
       <r>    5.3658    0.0000 </r>
       <r>    5.3659    0.0000 </r>
       <r>    5.3755    0.0000 </r>
       <r>    5.3755    0.0000 </r>
       <r>    5.9211    0.0000 </r>
      </set>
     </set>
    </set>
   </array>
  </eigenvalues>
  <separator name="orbital magnetization" >
   <v name="MAGDIPOLOUT">      0.00000000      0.00000000      0.00000000</v>
  </separator>
  <dos>
   <i name="efermi">      0.36674090 </i>
   <total>
    <array>
     <dimension dim="1">gridpoints</dimension>
     <dimension dim="2">spin</dimension>
     <field>energy</field>
     <field>total</field>
     <field>integrated</field>
     <set>
      <set comment="spin 1">
       <r>   -17.0303     0.0000     0.0000 </r>
       <r>   -16.9501     0.0000     0.0000 </r>
       <r>   -16.8700     0.0000     0.0000 </r>
       <r>   -16.7898     0.0000     0.0000 </r>
       <r>   -16.7097     0.0000     0.0000 </r>
       <r>   -16.6295     0.0000     0.0000 </r>
       <r>   -16.5494     0.0000     0.0000 </r>
       <r>   -16.4692     0.0000     0.0000 </r>
       <r>   -16.3891     0.0000     0.0000 </r>
       <r>   -16.3089     0.0000     0.0000 </r>
       <r>   -16.2288     0.0000     0.0000 </r>
       <r>   -16.1487     0.0000     0.0000 </r>
       <r>   -16.0685     0.0003     0.0000 </r>
       <r>   -15.9884     0.2565     0.0206 </r>
       <r>   -15.9082     5.6502     0.4734 </r>
       <r>   -15.8281    25.7885     2.5403 </r>
       <r>   -15.7479    41.9982     5.9064 </r>
       <r>   -15.6678    24.2738     7.8519 </r>
       <r>   -15.5876     1.8429     7.9996 </r>
       <r>   -15.5075     0.0055     8.0000 </r>
       <r>   -15.4273     0.0000     8.0000 </r>
       <r>   -15.3472     0.0000     8.0000 </r>
       <r>   -15.2670     0.0000     8.0000 </r>
       <r>   -15.1869     0.0000     8.0000 </r>
       <r>   -15.1067     0.0000     8.0000 </r>
       <r>   -15.0266     0.0000     8.0000 </r>
       <r>   -14.9464     0.0000     8.0000 </r>
       <r>   -14.8663     0.0000     8.0000 </r>
       <r>   -14.7861     0.0000     8.0000 </r>
       <r>   -14.7060     0.0000     8.0000 </r>
       <r>   -14.6258     0.0000     8.0000 </r>
       <r>   -14.5457     0.0000     8.0000 </r>
       <r>   -14.4656     0.0000     8.0000 </r>
       <r>   -14.3854     0.0000     8.0000 </r>
       <r>   -14.3053     0.0000     8.0000 </r>
       <r>   -14.2251     0.0000     8.0000 </r>
       <r>   -14.1450     0.0000     8.0000 </r>
       <r>   -14.0648     0.0000     8.0000 </r>
       <r>   -13.9847     0.0000     8.0000 </r>
       <r>   -13.9045     0.0000     8.0000 </r>
       <r>   -13.8244     0.0000     8.0000 </r>
       <r>   -13.7442     0.0000     8.0000 </r>
       <r>   -13.6641     0.0000     8.0000 </r>
       <r>   -13.5839     0.0000     8.0000 </r>
       <r>   -13.5038     0.0000     8.0000 </r>
       <r>   -13.4236     0.0000     8.0000 </r>
       <r>   -13.3435     0.0000     8.0000 </r>
       <r>   -13.2633     0.0000     8.0000 </r>
       <r>   -13.1832     0.0000     8.0000 </r>
       <r>   -13.1030     0.0000     8.0000 </r>
       <r>   -13.0229     0.0000     8.0000 </r>
       <r>   -12.9428     0.0000     8.0000 </r>
       <r>   -12.8626     0.0000     8.0000 </r>
       <r>   -12.7825     0.0000     8.0000 </r>
       <r>   -12.7023     0.0000     8.0000 </r>
       <r>   -12.6222     0.0000     8.0000 </r>
       <r>   -12.5420     0.0000     8.0000 </r>
       <r>   -12.4619     0.0000     8.0000 </r>
       <r>   -12.3817     0.0000     8.0000 </r>
       <r>   -12.3016     0.0000     8.0000 </r>
       <r>   -12.2214     0.0000     8.0000 </r>
       <r>   -12.1413     0.0000     8.0000 </r>
       <r>   -12.0611     0.0000     8.0000 </r>
       <r>   -11.9810     0.0000     8.0000 </r>
       <r>   -11.9008     0.0000     8.0000 </r>
       <r>   -11.8207     0.0000     8.0000 </r>
       <r>   -11.7405     0.0000     8.0000 </r>
       <r>   -11.6604     0.0000     8.0000 </r>
       <r>   -11.5802     0.0000     8.0000 </r>
       <r>   -11.5001     0.0000     8.0000 </r>
       <r>   -11.4199     0.0000     8.0000 </r>
       <r>   -11.3398     0.0000     8.0000 </r>
       <r>   -11.2597     0.0000     8.0000 </r>
       <r>   -11.1795     0.0000     8.0000 </r>
       <r>   -11.0994     0.0000     8.0000 </r>
       <r>   -11.0192     0.0000     8.0000 </r>
       <r>   -10.9391     0.0000     8.0000 </r>
       <r>   -10.8589     0.0000     8.0000 </r>
       <r>   -10.7788     0.0000     8.0000 </r>
       <r>   -10.6986     0.0000     8.0000 </r>
       <r>   -10.6185     0.0000     8.0000 </r>
       <r>   -10.5383     0.0000     8.0000 </r>
       <r>   -10.4582     0.0000     8.0000 </r>
       <r>   -10.3780     0.0000     8.0000 </r>
       <r>   -10.2979     0.0000     8.0000 </r>
       <r>   -10.2177     0.0000     8.0000 </r>
       <r>   -10.1376     0.0000     8.0000 </r>
       <r>   -10.0574     0.0000     8.0000 </r>
       <r>    -9.9773     0.0000     8.0000 </r>
       <r>    -9.8971     0.0000     8.0000 </r>
       <r>    -9.8170     0.0000     8.0000 </r>
       <r>    -9.7369     0.0000     8.0000 </r>
       <r>    -9.6567     0.0000     8.0000 </r>
       <r>    -9.5766     0.0000     8.0000 </r>
       <r>    -9.4964     0.0000     8.0000 </r>
       <r>    -9.4163     0.0000     8.0000 </r>
       <r>    -9.3361     0.0000     8.0000 </r>
       <r>    -9.2560     0.0000     8.0000 </r>
       <r>    -9.1758     0.0000     8.0000 </r>
       <r>    -9.0957     0.0000     8.0000 </r>
       <r>    -9.0155     0.0001     8.0000 </r>
       <r>    -8.9354     0.2412     8.0193 </r>
       <r>    -8.8552     8.1093     8.6693 </r>
       <r>    -8.7751    22.4657    10.4699 </r>
       <r>    -8.6949    16.4141    11.7854 </r>
       <r>    -8.6148    13.1094    12.8361 </r>
       <r>    -8.5346    22.3313    14.6259 </r>
       <r>    -8.4545    30.5602    17.0752 </r>
       <r>    -8.3743    17.2516    18.4579 </r>
       <r>    -8.2942    18.2011    19.9167 </r>
       <r>    -8.2140    33.3868    22.5925 </r>
       <r>    -8.1339    37.2659    25.5793 </r>
       <r>    -8.0538    50.0468    29.5904 </r>
       <r>    -7.9736    22.8804    31.4242 </r>
       <r>    -7.8935     6.1201    31.9147 </r>
       <r>    -7.8133     1.0541    31.9992 </r>
       <r>    -7.7332     0.0098    32.0000 </r>
       <r>    -7.6530     0.0000    32.0000 </r>
       <r>    -7.5729     0.0000    32.0000 </r>
       <r>    -7.4927     0.0000    32.0000 </r>
       <r>    -7.4126     0.0000    32.0000 </r>
       <r>    -7.3324     0.0000    32.0000 </r>
       <r>    -7.2523     0.0000    32.0000 </r>
       <r>    -7.1721     0.0000    32.0000 </r>
       <r>    -7.0920     0.0000    32.0000 </r>
       <r>    -7.0118     0.0000    32.0000 </r>
       <r>    -6.9317     0.0000    32.0000 </r>
       <r>    -6.8515     0.0000    32.0000 </r>
       <r>    -6.7714     0.0000    32.0000 </r>
       <r>    -6.6912     0.0000    32.0000 </r>
       <r>    -6.6111     0.0000    32.0000 </r>
       <r>    -6.5310     0.0000    32.0000 </r>
       <r>    -6.4508     0.0000    32.0000 </r>
       <r>    -6.3707     0.0000    32.0000 </r>
       <r>    -6.2905     0.0000    32.0000 </r>
       <r>    -6.2104     0.0000    32.0000 </r>
       <r>    -6.1302     0.0000    32.0000 </r>
       <r>    -6.0501     0.0000    32.0000 </r>
       <r>    -5.9699     0.0000    32.0000 </r>
       <r>    -5.8898     0.0000    32.0000 </r>
       <r>    -5.8096     0.0000    32.0000 </r>
       <r>    -5.7295     0.0000    32.0000 </r>
       <r>    -5.6493     0.0000    32.0000 </r>
       <r>    -5.5692     0.0000    32.0000 </r>
       <r>    -5.4890     0.0000    32.0000 </r>
       <r>    -5.4089     0.0000    32.0000 </r>
       <r>    -5.3287     0.0000    32.0000 </r>
       <r>    -5.2486     0.0000    32.0000 </r>
       <r>    -5.1684     0.0000    32.0000 </r>
       <r>    -5.0883     0.0000    32.0000 </r>
       <r>    -5.0082     0.0000    32.0000 </r>
       <r>    -4.9280     0.0000    32.0000 </r>
       <r>    -4.8479     0.0000    32.0000 </r>
       <r>    -4.7677     0.0000    32.0000 </r>
       <r>    -4.6876     0.0000    32.0000 </r>
       <r>    -4.6074     0.0000    32.0000 </r>
       <r>    -4.5273     0.0000    32.0000 </r>
       <r>    -4.4471     0.0000    32.0000 </r>
       <r>    -4.3670     0.0000    32.0000 </r>
       <r>    -4.2868     0.0039    32.0003 </r>
       <r>    -4.2067     0.6966    32.0561 </r>
       <r>    -4.1265     2.2144    32.2336 </r>
       <r>    -4.0464     0.2041    32.2500 </r>
       <r>    -3.9662     0.0002    32.2500 </r>
       <r>    -3.8861     0.0013    32.2501 </r>
       <r>    -3.8059     0.6524    32.3024 </r>
       <r>    -3.7258     4.6134    32.6721 </r>
       <r>    -3.6456     1.1447    32.7639 </r>
       <r>    -3.5655     3.8297    33.0708 </r>
       <r>    -3.4853     3.0152    33.3125 </r>
       <r>    -3.4052     2.1778    33.4870 </r>
       <r>    -3.3251     1.0880    33.5742 </r>
       <r>    -3.2449     6.2596    34.0759 </r>
       <r>    -3.1648     4.3645    34.4257 </r>
       <r>    -3.0846     5.3476    34.8543 </r>
       <r>    -3.0045    12.1257    35.8262 </r>
       <r>    -2.9243    11.4597    36.7446 </r>
       <r>    -2.8442    12.2165    37.7238 </r>
       <r>    -2.7640    14.3725    38.8757 </r>
       <r>    -2.6839     4.7029    39.2526 </r>
       <r>    -2.6037     2.1015    39.4210 </r>
       <r>    -2.5236     2.4406    39.6166 </r>
       <r>    -2.4434     2.7106    39.8339 </r>
       <r>    -2.3633     1.9793    39.9925 </r>
       <r>    -2.2831     0.0935    40.0000 </r>
       <r>    -2.2030     0.3125    40.0251 </r>
       <r>    -2.1228     7.5179    40.6276 </r>
       <r>    -2.0427     9.8659    41.4183 </r>
       <r>    -1.9625    17.2044    42.7972 </r>
       <r>    -1.8824    11.9995    43.7589 </r>
       <r>    -1.8023    23.5713    45.6481 </r>
       <r>    -1.7221    25.8210    47.7176 </r>
       <r>    -1.6420    24.4903    49.6804 </r>
       <r>    -1.5618    16.0734    50.9687 </r>
       <r>    -1.4817     8.7333    51.6686 </r>
       <r>    -1.4015     8.0338    52.3125 </r>
       <r>    -1.3214    10.6519    53.1662 </r>
       <r>    -1.2412    26.2004    55.2661 </r>
       <r>    -1.1611    21.3974    56.9811 </r>
       <r>    -1.0809    18.1192    58.4333 </r>
       <r>    -1.0008    27.0454    60.6009 </r>
       <r>    -0.9206    23.0355    62.4471 </r>
       <r>    -0.8405    18.2205    63.9075 </r>
       <r>    -0.7603    11.5027    64.8294 </r>
       <r>    -0.6802    11.3043    65.7354 </r>
       <r>    -0.6000    19.1718    67.2720 </r>
       <r>    -0.5199    27.7328    69.4947 </r>
       <r>    -0.4397    17.1911    70.8725 </r>
       <r>    -0.3596    12.4321    71.8689 </r>
       <r>    -0.2794    15.0246    73.0731 </r>
       <r>    -0.1993    26.0776    75.1631 </r>
       <r>    -0.1192    29.1732    77.5013 </r>
       <r>    -0.0390    14.9781    78.7018 </r>
       <r>     0.0411     9.3970    79.4549 </r>
       <r>     0.1213     4.2150    79.7927 </r>
       <r>     0.2014     2.5454    79.9967 </r>
       <r>     0.2816     0.0406    80.0000 </r>
       <r>     0.3617     0.0000    80.0000 </r>
       <r>     0.4419     0.0000    80.0000 </r>
       <r>     0.5220     0.0000    80.0000 </r>
       <r>     0.6022     0.0000    80.0000 </r>
       <r>     0.6823     0.0000    80.0000 </r>
       <r>     0.7625     0.0000    80.0000 </r>
       <r>     0.8426     0.0000    80.0000 </r>
       <r>     0.9228     0.0000    80.0000 </r>
       <r>     1.0029     0.0000    80.0000 </r>
       <r>     1.0831     0.0000    80.0000 </r>
       <r>     1.1632     0.0000    80.0000 </r>
       <r>     1.2434     0.0000    80.0000 </r>
       <r>     1.3235     0.0000    80.0000 </r>
       <r>     1.4036     0.0000    80.0000 </r>
       <r>     1.4838     0.0000    80.0000 </r>
       <r>     1.5639     0.0000    80.0000 </r>
       <r>     1.6441     0.0000    80.0000 </r>
       <r>     1.7242     0.0000    80.0000 </r>
       <r>     1.8044     0.0000    80.0000 </r>
       <r>     1.8845     0.0000    80.0000 </r>
       <r>     1.9647     0.0000    80.0000 </r>
       <r>     2.0448     0.0000    80.0000 </r>
       <r>     2.1250     0.0000    80.0000 </r>
       <r>     2.2051     0.0000    80.0000 </r>
       <r>     2.2853     0.0000    80.0000 </r>
       <r>     2.3654     0.0000    80.0000 </r>
       <r>     2.4456     0.0000    80.0000 </r>
       <r>     2.5257     0.0000    80.0000 </r>
       <r>     2.6059     0.0000    80.0000 </r>
       <r>     2.6860     0.0000    80.0000 </r>
       <r>     2.7662     0.0000    80.0000 </r>
       <r>     2.8463     0.0000    80.0000 </r>
       <r>     2.9265     0.0000    80.0000 </r>
       <r>     3.0066     0.0000    80.0000 </r>
       <r>     3.0867     0.0000    80.0000 </r>
       <r>     3.1669     0.0000    80.0000 </r>
       <r>     3.2470     0.0000    80.0000 </r>
       <r>     3.3272     0.0000    80.0000 </r>
       <r>     3.4073     0.0000    80.0000 </r>
       <r>     3.4875     0.0000    80.0000 </r>
       <r>     3.5676     0.0000    80.0000 </r>
       <r>     3.6478     0.0000    80.0000 </r>
       <r>     3.7279     0.0000    80.0000 </r>
       <r>     3.8081     0.0000    80.0000 </r>
       <r>     3.8882     0.0000    80.0000 </r>
       <r>     3.9684     0.0000    80.0000 </r>
       <r>     4.0485     0.0000    80.0000 </r>
       <r>     4.1287     0.0236    80.0019 </r>
       <r>     4.2088     1.3350    80.1089 </r>
       <r>     4.2890     1.7055    80.2456 </r>
       <r>     4.3691     0.0579    80.2502 </r>
       <r>     4.4493     0.6236    80.3002 </r>
       <r>     4.5294     4.2900    80.6440 </r>
       <r>     4.6095     9.0936    81.3729 </r>
       <r>     4.6897     7.8399    82.0012 </r>
       <r>     4.7698     6.8767    82.5524 </r>
       <r>     4.8500    17.0655    83.9201 </r>
       <r>     4.9301    27.3252    86.1102 </r>
       <r>     5.0103    23.1437    87.9651 </r>
       <r>     5.0904     9.7727    88.7483 </r>
       <r>     5.1706    17.8937    90.1825 </r>
       <r>     5.2507    17.1508    91.5571 </r>
       <r>     5.3309    11.8771    92.5090 </r>
       <r>     5.4110    20.7890    94.1752 </r>
       <r>     5.4912    14.2645    95.3184 </r>
       <r>     5.5713     9.6917    96.0952 </r>
       <r>     5.6515     2.6156    96.3048 </r>
       <r>     5.7316     6.1336    96.7964 </r>
       <r>     5.8118     9.3853    97.5486 </r>
       <r>     5.8919     3.1264    97.7992 </r>
       <r>     5.9721     2.2726    97.9814 </r>
       <r>     6.0522     0.2323    98.0000 </r>
       <r>     6.1324     0.0003    98.0000 </r>
       <r>     6.2125     0.0000    98.0000 </r>
       <r>     6.2926     0.0000    98.0000 </r>
       <r>     6.3728     0.0000    98.0000 </r>
       <r>     6.4529     0.0000    98.0000 </r>
       <r>     6.5331     0.0000    98.0000 </r>
       <r>     6.6132     0.0000    98.0000 </r>
       <r>     6.6934     0.0000    98.0000 </r>
       <r>     6.7735     0.0000    98.0000 </r>
       <r>     6.8537     0.0000    98.0000 </r>
       <r>     6.9338     0.0000    98.0000 </r>
       <r>     7.0140     0.0000    98.0000 </r>
      </set>
     </set>
    </array>
   </total>
  </dos>
 </calculation>
 <structure name="finalpos" >
  <crystal>
   <varray name="basis" >
    <v>       0.00000000       9.65593579       0.00000000 </v>
    <v>       8.58494733       0.00000000       0.00000000 </v>
    <v>       0.00000000      -0.02372258      -5.58062049 </v>
   </varray>
   <i name="volume">    462.60944306 </i>
   <varray name="rec_basis" >
    <v>       0.00000000       0.10356324      -0.00044024 </v>
    <v>       0.11648295      -0.00000000       0.00000000 </v>
    <v>       0.00000000       0.00000000      -0.17919154 </v>
   </varray>
  </crystal>
  <varray name="positions" >
   <v>       0.65153371       0.50000008       0.75056737 </v>
   <v>       0.34846610       0.49999978       0.24943192 </v>
   <v>       0.78181104       0.49999997       0.42889107 </v>
   <v>       0.21818848       0.50000008       0.57110907 </v>
   <v>       0.84922472       0.37171264       0.75015646 </v>
   <v>       0.15077466       0.37171277       0.24984376 </v>
   <v>       0.15077487       0.62828735       0.24984344 </v>
   <v>       0.84922485       0.62828738       0.75015624 </v>
   <v>       0.15153475       0.00000017       0.75056943 </v>
   <v>       0.84846541       0.99999993       0.24943119 </v>
   <v>       0.28181233       0.99999991       0.42889393 </v>
   <v>       0.71818822       0.00000001       0.57110596 </v>
   <v>       0.34922538       0.87171276       0.75015789 </v>
   <v>       0.65077490       0.87171271       0.24984245 </v>
   <v>       0.65077509       0.12828723       0.24984218 </v>
   <v>       0.34922549       0.12828724       0.75015763 </v>
  </varray>
 </structure>
</modeling>
