Ga48 O72                                
    1.000000000000000     
     0.0000000000000000   12.2804734172212839    0.0000000000000000
     9.1427020537309431    0.0000000000000000    0.0000000000000000
     0.0000000000000000   -2.7682617730220320  -11.3006977184464645
   Ga   O    P 
    47    71     1
Direct
  0.6561870076318002  0.9973171544597790  0.1551252548936972
  0.6602753562097377  0.0017868244456523  0.6568547515991554
  0.6569436734155261  0.3322089190164590  0.1569658309275468
  0.6593490678343201  0.3353782054031598  0.6570470768263164
  0.6589192198515121  0.6657695713375276  0.1580920006688160
  0.6598385046082669  0.6682711255600324  0.6567206182912599
  0.8334896078868894  0.1564200630575598  0.3408375011536009
  0.8412786337232490  0.1682111762003871  0.8438615328091572
  0.8469425393805778  0.4942078767970415  0.3426467297460718
  0.8407170385182781  0.5019080974164893  0.8435531837402266
  0.8461933098293031  0.8289917735993768  0.3441642911007747
  0.8417242420257125  0.8356743192938012  0.8441042393027587
  0.5883555260829638  0.1673245540568047  0.3983100944505509
  0.5901153612157515  0.1673634328892390  0.8973430047132140
  0.5913812742590210  0.5023240506440985  0.3971210357621473
  0.5887770474019760  0.5013159980161248  0.8968572197311886
  0.5925733028573248  0.8350071755138018  0.3973312955946966
  0.5909095386189165  0.8342786620380025  0.8973948053297676
  0.9100513751516885  0.0021002075744505  0.1045428845549736
  0.9086425153802367  0.0008705723228672  0.6015428070088262
  0.9090296856645281  0.3358668651729246  0.1030789545753095
  0.9093899808218424  0.3345064216090989  0.6026145661830355
  0.9078613964241100  0.6669534501017296  0.1015832910050491
  0.9078497865049613  0.6662964753789709  0.6013269813200282
  0.1580405676425229  0.1736670164246732  0.1579969289947343
  0.1587008679350745  0.1741753836213604  0.6555581727056818
  0.1600461110427815  0.5022466885535408  0.1570632782010932
  0.1592231827545589  0.5047242650917383  0.6557922493848878
  0.1549234406042075  0.8300074239628188  0.1563265515686894
  0.1551017942534969  0.8351022780408925  0.6488492907313699
  0.3393084964121940  0.0034249682320180  0.3477972713725990
  0.3395840988892402  0.0013888281075509  0.8400460049459753
  0.3416790299232204  0.3380405741621217  0.3434291743703781
  0.3394500701633021  0.3355819875311141  0.8442762071296457
  0.3404657186577893  0.6698135922834183  0.3441885027547400
  0.3388488494312369  0.6687037619481018  0.8426889751522211
  0.0926599955056346  0.0017884821958347  0.8974765196186567
  0.0987593912086950  0.3115587023447475  0.4006559345308673
  0.0906601312164454  0.3358627441985576  0.8975000705479061
  0.0876025710872241  0.6643307820000430  0.3951839988688519
  0.0909529497938451  0.6680669000920645  0.8961886240649264
  0.4057642035671165  0.1658059529433444  0.1019855359580220
  0.4111433547310384  0.1700779676754607  0.6035849468163761
  0.4094108229695408  0.5018122325703160  0.1021797483609603
  0.4083804028250242  0.5029091449135308  0.6032151496713425
  0.4042110798521534  0.8348075214327082  0.1022757601688866
  0.4111734391572739  0.8357343619227180  0.6023303417784120
  0.9966526351270204  0.1697889608675993  0.1388852659895647
  0.9964762541958336  0.1678234474258247  0.6227711162480247
  0.9965731301933189  0.5017570589120481  0.1255758177386781
  0.9963895565885608  0.5008352174024182  0.6277886299427422
  0.9948552729326181  0.8337009748648398  0.1267978278441717
  0.9949809818156510  0.8337535330775694  0.6270890461216183
  0.5026517528666758  0.9999124912802841  0.3729143880663912
  0.5024154137984880  0.0004555321138113  0.8720872623725739
  0.5032916442830526  0.3356013124685404  0.3719777936713200
  0.5016962961608229  0.3335619498106084  0.8721372884754857
  0.5036891478393883  0.6692327176483275  0.3721710478154421
  0.5016129251282493  0.6691359211511454  0.8718686728785627
  0.6690380215183183  0.1651248586598015  0.2800293956235222
  0.6729312911679202  0.1686821469281838  0.7811860163690412
  0.6739090610914076  0.4965316216326201  0.2808601695241535
  0.6723844829217711  0.5016657319187843  0.7810440715026061
  0.6741451309050674  0.8316169077712274  0.2803981121173109
  0.6733898679045325  0.8359682164481512  0.7810842337052364
  0.8247913509160156  0.9988750091501046  0.2182887519247103
  0.8284374269204022  0.0026443743897531  0.7199928526680779
  0.8282909141096866  0.3266751232542831  0.2205402185080985
  0.8278052842776091  0.3347844706680831  0.7194704382173924
  0.8276405761412491  0.6618435746497013  0.2188691896605945
  0.8276321633456405  0.6686068804106071  0.7196313244312549
  0.8274696213616579  0.9956545101567116  0.4463945847817072
  0.8344050558213851  0.0026318810525296  0.9474199179295155
  0.8404269112514200  0.3235094540486187  0.4435618159681738
  0.8332838948727499  0.3345142898358588  0.9463776834741040
  0.8325757223233126  0.6602226102654782  0.4446319831403471
  0.8315188100904933  0.6685200674956064  0.9451990149601031
  0.6656269145950162  0.1660308587172494  0.0542714008076928
  0.6678453570951461  0.1689796262519820  0.5541225668052903
  0.6650221713812670  0.4990174133731387  0.0540940299383692
  0.6690541552907092  0.5010263964537742  0.5538702619393803
  0.6677796106381848  0.8319578861440107  0.0538084444240425
  0.6684771187599736  0.8347043998118338  0.5545194809517042
  0.4938066468934252  0.9994626755040983  0.1266722933332147
  0.4978951809239263  0.0027707228308955  0.6281546287461524
  0.4936520676672060  0.3322125462261951  0.1267788429932608
  0.4971216224693649  0.3370540319259376  0.6286982752812804
  0.4948069467926430  0.6703703962858114  0.1273236312726169
  0.4973449481417163  0.6687963418950176  0.6282341347870357
  0.0044641766213189  0.1680395606536464  0.8736695945497885
  0.0095102432960417  0.4866237784954706  0.3735821844319460
  0.0030114051745258  0.5020223473816827  0.8721062307399663
  0.0050379620571306  0.8329802416950045  0.3736441142702489
  0.0046385826630413  0.8356695250114399  0.8730321631043907
  0.1565343311407901  0.0120386676420523  0.3009071670031602
  0.1689258848437660  0.0024701032032155  0.7724504815826734
  0.1770537944612656  0.3404302550446303  0.2773213004032797
  0.1725746697866839  0.3357346763188858  0.7815133000777053
  0.1724230355827814  0.6688683573599334  0.2794653384886203
  0.1717665036369311  0.6695559359395702  0.7786308277672589
  0.3242184220686894  0.1622151243378482  0.2204583895117622
  0.3256630541182162  0.1651232078378371  0.7170418100859948
  0.3292951257042702  0.5051090008236798  0.2195928804301914
  0.3286032898420643  0.5039969074779407  0.7215174877943369
  0.3209951174215746  0.8420972313516515  0.2204071298263486
  0.3225361780779963  0.8403712962645216  0.7131509694978817
  0.3354665420414520  0.1713116218194628  0.4470755622998297
  0.3288683286518364  0.1659225106284197  0.9445592773706082
  0.3335742339855798  0.5036998140700177  0.4464098442007227
  0.3313968652961421  0.5022479023357178  0.9461793005810435
  0.3326909306843362  0.8361934161730247  0.4466175477014716
  0.3282980575892509  0.8363899830403838  0.9439337926118867
  0.1618222501433237  0.0022681658003307  0.0592208981735354
  0.1457989507407191  0.0122205807002302  0.5278373009963460
  0.1682215316833009  0.3353225041489694  0.0532032871235089
  0.1753102924783221  0.3403325040860494  0.5595225383870499
  0.1681960949186418  0.6679789728192134  0.0528896027703425
  0.1680069340058097  0.6690466465417870  0.5521245225911358
  0.0719439118431069  0.0477204876642787  0.3913410436909786
 
  0.00000000E+00  0.00000000E+00  0.00000000E+00
  0.00000000E+00  0.00000000E+00  0.00000000E+00
  0.00000000E+00  0.00000000E+00  0.00000000E+00
  0.00000000E+00  0.00000000E+00  0.00000000E+00
  0.00000000E+00  0.00000000E+00  0.00000000E+00
  0.00000000E+00  0.00000000E+00  0.00000000E+00
  0.00000000E+00  0.00000000E+00  0.00000000E+00
  0.00000000E+00  0.00000000E+00  0.00000000E+00
  0.00000000E+00  0.00000000E+00  0.00000000E+00
  0.00000000E+00  0.00000000E+00  0.00000000E+00
  0.00000000E+00  0.00000000E+00  0.00000000E+00
  0.00000000E+00  0.00000000E+00  0.00000000E+00
  0.00000000E+00  0.00000000E+00  0.00000000E+00
  0.00000000E+00  0.00000000E+00  0.00000000E+00
  0.00000000E+00  0.00000000E+00  0.00000000E+00
  0.00000000E+00  0.00000000E+00  0.00000000E+00
  0.00000000E+00  0.00000000E+00  0.00000000E+00
  0.00000000E+00  0.00000000E+00  0.00000000E+00
  0.00000000E+00  0.00000000E+00  0.00000000E+00
  0.00000000E+00  0.00000000E+00  0.00000000E+00
  0.00000000E+00  0.00000000E+00  0.00000000E+00
  0.00000000E+00  0.00000000E+00  0.00000000E+00
  0.00000000E+00  0.00000000E+00  0.00000000E+00
  0.00000000E+00  0.00000000E+00  0.00000000E+00
  0.00000000E+00  0.00000000E+00  0.00000000E+00
  0.00000000E+00  0.00000000E+00  0.00000000E+00
  0.00000000E+00  0.00000000E+00  0.00000000E+00
  0.00000000E+00  0.00000000E+00  0.00000000E+00
  0.00000000E+00  0.00000000E+00  0.00000000E+00
  0.00000000E+00  0.00000000E+00  0.00000000E+00
  0.00000000E+00  0.00000000E+00  0.00000000E+00
  0.00000000E+00  0.00000000E+00  0.00000000E+00
  0.00000000E+00  0.00000000E+00  0.00000000E+00
  0.00000000E+00  0.00000000E+00  0.00000000E+00
  0.00000000E+00  0.00000000E+00  0.00000000E+00
  0.00000000E+00  0.00000000E+00  0.00000000E+00
  0.00000000E+00  0.00000000E+00  0.00000000E+00
  0.00000000E+00  0.00000000E+00  0.00000000E+00
  0.00000000E+00  0.00000000E+00  0.00000000E+00
  0.00000000E+00  0.00000000E+00  0.00000000E+00
  0.00000000E+00  0.00000000E+00  0.00000000E+00
  0.00000000E+00  0.00000000E+00  0.00000000E+00
  0.00000000E+00  0.00000000E+00  0.00000000E+00
  0.00000000E+00  0.00000000E+00  0.00000000E+00
  0.00000000E+00  0.00000000E+00  0.00000000E+00
  0.00000000E+00  0.00000000E+00  0.00000000E+00
  0.00000000E+00  0.00000000E+00  0.00000000E+00
  0.00000000E+00  0.00000000E+00  0.00000000E+00
  0.00000000E+00  0.00000000E+00  0.00000000E+00
  0.00000000E+00  0.00000000E+00  0.00000000E+00
  0.00000000E+00  0.00000000E+00  0.00000000E+00
  0.00000000E+00  0.00000000E+00  0.00000000E+00
  0.00000000E+00  0.00000000E+00  0.00000000E+00
  0.00000000E+00  0.00000000E+00  0.00000000E+00
  0.00000000E+00  0.00000000E+00  0.00000000E+00
  0.00000000E+00  0.00000000E+00  0.00000000E+00
  0.00000000E+00  0.00000000E+00  0.00000000E+00
  0.00000000E+00  0.00000000E+00  0.00000000E+00
  0.00000000E+00  0.00000000E+00  0.00000000E+00
  0.00000000E+00  0.00000000E+00  0.00000000E+00
  0.00000000E+00  0.00000000E+00  0.00000000E+00
  0.00000000E+00  0.00000000E+00  0.00000000E+00
  0.00000000E+00  0.00000000E+00  0.00000000E+00
  0.00000000E+00  0.00000000E+00  0.00000000E+00
  0.00000000E+00  0.00000000E+00  0.00000000E+00
  0.00000000E+00  0.00000000E+00  0.00000000E+00
  0.00000000E+00  0.00000000E+00  0.00000000E+00
  0.00000000E+00  0.00000000E+00  0.00000000E+00
  0.00000000E+00  0.00000000E+00  0.00000000E+00
  0.00000000E+00  0.00000000E+00  0.00000000E+00
  0.00000000E+00  0.00000000E+00  0.00000000E+00
  0.00000000E+00  0.00000000E+00  0.00000000E+00
  0.00000000E+00  0.00000000E+00  0.00000000E+00
  0.00000000E+00  0.00000000E+00  0.00000000E+00
  0.00000000E+00  0.00000000E+00  0.00000000E+00
  0.00000000E+00  0.00000000E+00  0.00000000E+00
  0.00000000E+00  0.00000000E+00  0.00000000E+00
  0.00000000E+00  0.00000000E+00  0.00000000E+00
  0.00000000E+00  0.00000000E+00  0.00000000E+00
  0.00000000E+00  0.00000000E+00  0.00000000E+00
  0.00000000E+00  0.00000000E+00  0.00000000E+00
  0.00000000E+00  0.00000000E+00  0.00000000E+00
  0.00000000E+00  0.00000000E+00  0.00000000E+00
  0.00000000E+00  0.00000000E+00  0.00000000E+00
  0.00000000E+00  0.00000000E+00  0.00000000E+00
  0.00000000E+00  0.00000000E+00  0.00000000E+00
  0.00000000E+00  0.00000000E+00  0.00000000E+00
  0.00000000E+00  0.00000000E+00  0.00000000E+00
  0.00000000E+00  0.00000000E+00  0.00000000E+00
  0.00000000E+00  0.00000000E+00  0.00000000E+00
  0.00000000E+00  0.00000000E+00  0.00000000E+00
  0.00000000E+00  0.00000000E+00  0.00000000E+00
  0.00000000E+00  0.00000000E+00  0.00000000E+00
  0.00000000E+00  0.00000000E+00  0.00000000E+00
  0.00000000E+00  0.00000000E+00  0.00000000E+00
  0.00000000E+00  0.00000000E+00  0.00000000E+00
  0.00000000E+00  0.00000000E+00  0.00000000E+00
  0.00000000E+00  0.00000000E+00  0.00000000E+00
  0.00000000E+00  0.00000000E+00  0.00000000E+00
  0.00000000E+00  0.00000000E+00  0.00000000E+00
  0.00000000E+00  0.00000000E+00  0.00000000E+00
  0.00000000E+00  0.00000000E+00  0.00000000E+00
  0.00000000E+00  0.00000000E+00  0.00000000E+00
  0.00000000E+00  0.00000000E+00  0.00000000E+00
  0.00000000E+00  0.00000000E+00  0.00000000E+00
  0.00000000E+00  0.00000000E+00  0.00000000E+00
  0.00000000E+00  0.00000000E+00  0.00000000E+00
  0.00000000E+00  0.00000000E+00  0.00000000E+00
  0.00000000E+00  0.00000000E+00  0.00000000E+00
  0.00000000E+00  0.00000000E+00  0.00000000E+00
  0.00000000E+00  0.00000000E+00  0.00000000E+00
  0.00000000E+00  0.00000000E+00  0.00000000E+00
  0.00000000E+00  0.00000000E+00  0.00000000E+00
  0.00000000E+00  0.00000000E+00  0.00000000E+00
  0.00000000E+00  0.00000000E+00  0.00000000E+00
  0.00000000E+00  0.00000000E+00  0.00000000E+00
  0.00000000E+00  0.00000000E+00  0.00000000E+00
  0.00000000E+00  0.00000000E+00  0.00000000E+00
  0.00000000E+00  0.00000000E+00  0.00000000E+00
