Ga48 O72                                
    1.000000000000000     
     0.0000000000000000   12.2804734172212839    0.0000000000000000
     9.1427020537309431    0.0000000000000000    0.0000000000000000
     0.0000000000000000   -2.7682617730220320  -11.3006977184464645
   Ga   O    N 
    48    71     1
Direct
  0.6596285529833906  0.0000000000000000  0.1569142312083446
  0.6573465502420529  0.0000000000000000  0.6561809368145795
  0.6597355404652917  0.3331062553139419  0.1570558546262039
  0.6569352958478950  0.3329061601466380  0.6564704460076580
  0.6597355404652917  0.6668937446860584  0.1570558546262039
  0.6569352958478950  0.6670938398533621  0.6564704460076580
  0.8424141264103207  0.1662627012376111  0.3438007975014647
  0.8400371201195752  0.1664514103267937  0.8428962047680703
  0.8416929082556278  0.5000000000000000  0.3434098070666445
  0.8403596551780272  0.5000000000000000  0.8424822900376462
  0.8424141264103207  0.8337372987623888  0.3438007975014647
  0.8400371201195752  0.8335485896732060  0.8428962047680703
  0.5906981935257649  0.1664186989631445  0.3973493986842850
  0.5899570407857829  0.1667410118103952  0.8976683942953452
  0.5920005321846323  0.5000000000000000  0.3974964708905498
  0.5918714429657798  0.5000000000000000  0.8985841540707443
  0.5906981935257649  0.8335813010368555  0.3973493986842850
  0.5899570407857829  0.8332589881896046  0.8976683942953452
  0.9091066274089223  0.0000000000000000  0.1025694709524141
  0.9100675315419527  0.0000000000000000  0.6028941876401099
  0.9084028136153587  0.3333151943049654  0.1016745070272641
  0.9082924771238839  0.3330353125283271  0.6025796643742385
  0.9084028136153587  0.6666848056950347  0.1016745070272641
  0.9082924771238839  0.6669646874716731  0.6025796643742385
  0.1586716983560704  0.1662294299428325  0.1571869313484035
  0.1606370050703928  0.1617721372862672  0.6510926024652147
  0.1583663780899782  0.5000000000000000  0.1559195103516213
  0.1584811365572604  0.5000000000000000  0.6572089434404409
  0.1586716983560704  0.8337705700571674  0.1571869313484035
  0.1606370050703928  0.8382278627137330  0.6510926024652147
  0.3394780168120726  0.0000000000000000  0.3436646405306667
  0.3394288608263578  0.0000000000000000  0.8448846995236369
  0.3416017355572584  0.3340935293485605  0.3424382004011114
  0.3405106123118823  0.3332080716904690  0.8431831659115754
  0.3416017355572584  0.6659064706514396  0.3424382004011114
  0.3405106123118823  0.6667919283095312  0.8431831659115754
  0.0961447598385396  0.0000000000000000  0.4049682940707049
  0.0903776809476658  0.0000000000000000  0.8980622104028608
  0.0908183543356077  0.3324908443935924  0.3976438220739306
  0.0908260107117050  0.3328050664442374  0.8962124934473874
  0.0908183543356077  0.6675091556064080  0.3976438220739306
  0.0908260107117050  0.6671949335557624  0.8962124934473874
  0.4097883698280548  0.1668087606705813  0.1033495392625914
  0.4044939704127327  0.1647889909977587  0.6022806320824096
  0.4095220071887948  0.5000000000000000  0.1018779933158576
  0.4086535904393747  0.5000000000000000  0.6025455577055909
  0.4097883698280548  0.8331912393294185  0.1033495392625914
  0.4044939704127327  0.8352110090022409  0.6022806320824096
  0.9956732388526954  0.1670069642124647  0.1259758082938016
  0.9956649746363154  0.1675781791101495  0.6287197863603249
  0.9955631482477846  0.5000000000000000  0.1265276780082095
  0.9950749803687791  0.5000000000000000  0.6271115616342956
  0.9956732388526954  0.8329930357875354  0.1259758082938016
  0.9956649746363154  0.8324218208898506  0.6287197863603249
  0.5032751956226545  0.0000000000000000  0.3716341152722337
  0.5031644271627072  0.0000000000000000  0.8743682385193224
  0.5045627396425276  0.3338949357289603  0.3712375934365760
  0.5042729418020675  0.3343440609162956  0.8747402169402976
  0.5045627396425276  0.6661050642710402  0.3712375934365760
  0.5042729418020675  0.6656559390837044  0.8747402169402976
  0.6731665458606300  0.1665778487381529  0.2808077416421400
  0.6714311137850723  0.1664160344723893  0.7803480305457263
  0.6734818420571042  0.5000000000000000  0.2805448654508972
  0.6714499863756940  0.5000000000000000  0.7800028681566348
  0.6731665458606300  0.8334221512618473  0.2808077416421400
  0.6714311137850723  0.8335839655276104  0.7803480305457263
  0.8271296187386199  0.0000000000000000  0.2191410956666546
  0.8262775191301006  0.0000000000000000  0.7191037999972346
  0.8274977236168075  0.3332708936543543  0.2192607500687070
  0.8258709271073004  0.3334703943782295  0.7192650331103725
  0.8274977236168075  0.6667291063456460  0.2192607500687070
  0.8258709271073004  0.6665296056217705  0.7192650331103725
  0.8321862329475757  0.0000000000000000  0.4461300089098314
  0.8312996744323529  0.0000000000000000  0.9458663727439824
  0.8318558552627349  0.3334135537410483  0.4456224387196958
  0.8307955138237954  0.3336075036687767  0.9452695857843348
  0.8318558552627349  0.6665864462589517  0.4456224387196958
  0.8307955138237954  0.6663924963312227  0.9452695857843348
  0.6679025228716204  0.1666566843205559  0.0541915250354725
  0.6672411862309608  0.1666261312505148  0.5540166950322982
  0.6690780743473531  0.5000000000000000  0.0549671220647837
  0.6668694106203580  0.5000000000000000  0.5545120146731586
  0.6679025228716204  0.8333433156794441  0.0541915250354725
  0.6672411862309608  0.8333738687494850  0.5540166950322982
  0.4972647969007264  0.0000000000000000  0.1282704457276052
  0.4949420201969559  0.0000000000000000  0.6268086258002392
  0.4973188917220175  0.3337127334150718  0.1279450866119159
  0.4947521450598573  0.3318670214743234  0.6266200346741414
  0.4973188917220175  0.6662872665849280  0.1279450866119159
  0.4947521450598573  0.6681329785256765  0.6266200346741414
  0.0034555899206910  0.1660889186717646  0.3698482727000142
  0.0022749494749334  0.1667463110991149  0.8732760984732354
  0.0034793336611956  0.5000000000000000  0.3716692097963404
  0.0030043821963080  0.5000000000000000  0.8725375303646123
  0.0034555899206910  0.8339110813282351  0.3698482727000142
  0.0022749494749334  0.8332536889008851  0.8732760984732354
  0.1719576067621530  0.0000000000000000  0.2791398138673984
  0.1742468421270858  0.0000000000000000  0.7857661548979846
  0.1724858018773259  0.3340123354960060  0.2800168683291869
  0.1720320095856659  0.3331928111955313  0.7795489571628429
  0.1724858018773259  0.6659876645039943  0.2800168683291869
  0.1720320095856659  0.6668071888044688  0.7795489571628429
  0.3274739227692441  0.1673196381897139  0.2190714735483386
  0.3312769049220066  0.1705176465778193  0.7251709988383050
  0.3274338287842459  0.5000000000000000  0.2184060819241959
  0.3279628982503142  0.5000000000000000  0.7201521476472841
  0.3274739227692441  0.8326803618102863  0.2190714735483386
  0.3312769049220066  0.8294823534221811  0.7251709988383050
  0.3352602111697404  0.1690204296192586  0.4437887451560140
  0.3328135607910635  0.1677029376778950  0.9478879257774057
  0.3337656299592002  0.5000000000000000  0.4450909638825992
  0.3318608120130131  0.5000000000000000  0.9459942933757339
  0.3352602111697404  0.8309795703807413  0.4437887451560140
  0.3328135607910635  0.8322970623221055  0.9478879257774057
  0.1668566778386904  0.0000000000000000  0.0545477364957139
  0.1663523275249615  0.3331816825269541  0.0536503131891874
  0.1682789183500143  0.3362796242164295  0.5536796094440817
  0.1663523275249615  0.6668183174730459  0.0536503131891874
  0.1682789183500143  0.6637203757835705  0.5536796094440817
  0.1827870675232556  0.0000000000000000  0.5563593707974994
 
  0.00000000E+00  0.00000000E+00  0.00000000E+00
  0.00000000E+00  0.00000000E+00  0.00000000E+00
  0.00000000E+00  0.00000000E+00  0.00000000E+00
  0.00000000E+00  0.00000000E+00  0.00000000E+00
  0.00000000E+00  0.00000000E+00  0.00000000E+00
  0.00000000E+00  0.00000000E+00  0.00000000E+00
  0.00000000E+00  0.00000000E+00  0.00000000E+00
  0.00000000E+00  0.00000000E+00  0.00000000E+00
  0.00000000E+00  0.00000000E+00  0.00000000E+00
  0.00000000E+00  0.00000000E+00  0.00000000E+00
  0.00000000E+00  0.00000000E+00  0.00000000E+00
  0.00000000E+00  0.00000000E+00  0.00000000E+00
  0.00000000E+00  0.00000000E+00  0.00000000E+00
  0.00000000E+00  0.00000000E+00  0.00000000E+00
  0.00000000E+00  0.00000000E+00  0.00000000E+00
  0.00000000E+00  0.00000000E+00  0.00000000E+00
  0.00000000E+00  0.00000000E+00  0.00000000E+00
  0.00000000E+00  0.00000000E+00  0.00000000E+00
  0.00000000E+00  0.00000000E+00  0.00000000E+00
  0.00000000E+00  0.00000000E+00  0.00000000E+00
  0.00000000E+00  0.00000000E+00  0.00000000E+00
  0.00000000E+00  0.00000000E+00  0.00000000E+00
  0.00000000E+00  0.00000000E+00  0.00000000E+00
  0.00000000E+00  0.00000000E+00  0.00000000E+00
  0.00000000E+00  0.00000000E+00  0.00000000E+00
  0.00000000E+00  0.00000000E+00  0.00000000E+00
  0.00000000E+00  0.00000000E+00  0.00000000E+00
  0.00000000E+00  0.00000000E+00  0.00000000E+00
  0.00000000E+00  0.00000000E+00  0.00000000E+00
  0.00000000E+00  0.00000000E+00  0.00000000E+00
  0.00000000E+00  0.00000000E+00  0.00000000E+00
  0.00000000E+00  0.00000000E+00  0.00000000E+00
  0.00000000E+00  0.00000000E+00  0.00000000E+00
  0.00000000E+00  0.00000000E+00  0.00000000E+00
  0.00000000E+00  0.00000000E+00  0.00000000E+00
  0.00000000E+00  0.00000000E+00  0.00000000E+00
  0.00000000E+00  0.00000000E+00  0.00000000E+00
  0.00000000E+00  0.00000000E+00  0.00000000E+00
  0.00000000E+00  0.00000000E+00  0.00000000E+00
  0.00000000E+00  0.00000000E+00  0.00000000E+00
  0.00000000E+00  0.00000000E+00  0.00000000E+00
  0.00000000E+00  0.00000000E+00  0.00000000E+00
  0.00000000E+00  0.00000000E+00  0.00000000E+00
  0.00000000E+00  0.00000000E+00  0.00000000E+00
  0.00000000E+00  0.00000000E+00  0.00000000E+00
  0.00000000E+00  0.00000000E+00  0.00000000E+00
  0.00000000E+00  0.00000000E+00  0.00000000E+00
  0.00000000E+00  0.00000000E+00  0.00000000E+00
  0.00000000E+00  0.00000000E+00  0.00000000E+00
  0.00000000E+00  0.00000000E+00  0.00000000E+00
  0.00000000E+00  0.00000000E+00  0.00000000E+00
  0.00000000E+00  0.00000000E+00  0.00000000E+00
  0.00000000E+00  0.00000000E+00  0.00000000E+00
  0.00000000E+00  0.00000000E+00  0.00000000E+00
  0.00000000E+00  0.00000000E+00  0.00000000E+00
  0.00000000E+00  0.00000000E+00  0.00000000E+00
  0.00000000E+00  0.00000000E+00  0.00000000E+00
  0.00000000E+00  0.00000000E+00  0.00000000E+00
  0.00000000E+00  0.00000000E+00  0.00000000E+00
  0.00000000E+00  0.00000000E+00  0.00000000E+00
  0.00000000E+00  0.00000000E+00  0.00000000E+00
  0.00000000E+00  0.00000000E+00  0.00000000E+00
  0.00000000E+00  0.00000000E+00  0.00000000E+00
  0.00000000E+00  0.00000000E+00  0.00000000E+00
  0.00000000E+00  0.00000000E+00  0.00000000E+00
  0.00000000E+00  0.00000000E+00  0.00000000E+00
  0.00000000E+00  0.00000000E+00  0.00000000E+00
  0.00000000E+00  0.00000000E+00  0.00000000E+00
  0.00000000E+00  0.00000000E+00  0.00000000E+00
  0.00000000E+00  0.00000000E+00  0.00000000E+00
  0.00000000E+00  0.00000000E+00  0.00000000E+00
  0.00000000E+00  0.00000000E+00  0.00000000E+00
  0.00000000E+00  0.00000000E+00  0.00000000E+00
  0.00000000E+00  0.00000000E+00  0.00000000E+00
  0.00000000E+00  0.00000000E+00  0.00000000E+00
  0.00000000E+00  0.00000000E+00  0.00000000E+00
  0.00000000E+00  0.00000000E+00  0.00000000E+00
  0.00000000E+00  0.00000000E+00  0.00000000E+00
  0.00000000E+00  0.00000000E+00  0.00000000E+00
  0.00000000E+00  0.00000000E+00  0.00000000E+00
  0.00000000E+00  0.00000000E+00  0.00000000E+00
  0.00000000E+00  0.00000000E+00  0.00000000E+00
  0.00000000E+00  0.00000000E+00  0.00000000E+00
  0.00000000E+00  0.00000000E+00  0.00000000E+00
  0.00000000E+00  0.00000000E+00  0.00000000E+00
  0.00000000E+00  0.00000000E+00  0.00000000E+00
  0.00000000E+00  0.00000000E+00  0.00000000E+00
  0.00000000E+00  0.00000000E+00  0.00000000E+00
  0.00000000E+00  0.00000000E+00  0.00000000E+00
  0.00000000E+00  0.00000000E+00  0.00000000E+00
  0.00000000E+00  0.00000000E+00  0.00000000E+00
  0.00000000E+00  0.00000000E+00  0.00000000E+00
  0.00000000E+00  0.00000000E+00  0.00000000E+00
  0.00000000E+00  0.00000000E+00  0.00000000E+00
  0.00000000E+00  0.00000000E+00  0.00000000E+00
  0.00000000E+00  0.00000000E+00  0.00000000E+00
  0.00000000E+00  0.00000000E+00  0.00000000E+00
  0.00000000E+00  0.00000000E+00  0.00000000E+00
  0.00000000E+00  0.00000000E+00  0.00000000E+00
  0.00000000E+00  0.00000000E+00  0.00000000E+00
  0.00000000E+00  0.00000000E+00  0.00000000E+00
  0.00000000E+00  0.00000000E+00  0.00000000E+00
  0.00000000E+00  0.00000000E+00  0.00000000E+00
  0.00000000E+00  0.00000000E+00  0.00000000E+00
  0.00000000E+00  0.00000000E+00  0.00000000E+00
  0.00000000E+00  0.00000000E+00  0.00000000E+00
  0.00000000E+00  0.00000000E+00  0.00000000E+00
  0.00000000E+00  0.00000000E+00  0.00000000E+00
  0.00000000E+00  0.00000000E+00  0.00000000E+00
  0.00000000E+00  0.00000000E+00  0.00000000E+00
  0.00000000E+00  0.00000000E+00  0.00000000E+00
  0.00000000E+00  0.00000000E+00  0.00000000E+00
  0.00000000E+00  0.00000000E+00  0.00000000E+00
  0.00000000E+00  0.00000000E+00  0.00000000E+00
  0.00000000E+00  0.00000000E+00  0.00000000E+00
  0.00000000E+00  0.00000000E+00  0.00000000E+00
  0.00000000E+00  0.00000000E+00  0.00000000E+00
  0.00000000E+00  0.00000000E+00  0.00000000E+00
  0.00000000E+00  0.00000000E+00  0.00000000E+00
  0.00000000E+00  0.00000000E+00  0.00000000E+00
