<?xml version="1.0" encoding="ISO-8859-1"?>
<modeling>
 <generator>
  <i name="program" type="string">vasp </i>
  <i name="version" type="string">6.4.2  </i>
  <i name="subversion" type="string">20Jul23 (build Nov 12 2023 22:16:35) complex                          parallel </i>
  <i name="platform" type="string">LinuxNV </i>
  <i name="date" type="string">2025 05 31 </i>
  <i name="time" type="string">20:16:54 </i>
 </generator>
 <incar>
  <i type="int" name="ISTART">     0</i>
  <i type="string" name="PREC">Normal</i>
  <i type="int" name="ISPIN">     1</i>
  <i type="int" name="ICHARG">     0</i>
  <i type="int" name="NELM">   300</i>
  <i type="int" name="IBRION">    -1</i>
  <i name="EDIFF">      0.00001000</i>
  <i name="EDIFFG">     -0.00500000</i>
  <i type="int" name="NSW">     0</i>
  <i type="int" name="ISIF">     2</i>
  <i type="int" name="ISYM">     0</i>
  <i name="ENCUT">    450.00000000</i>
  <i type="string" name="LREAL">Auto</i>
  <i type="logical" name="LPLANE"> T  </i>
  <i type="int" name="ISMEAR">     0</i>
  <i name="SIGMA">      0.05000000</i>
  <i type="logical" name="LWAVE"> T  </i>
  <i type="logical" name="LCHARG"> T  </i>
  <i type="int" name="ICORELEVEL">     1</i>
 </incar>
 <primitive_cell>
  <structure name="primitive_cell" >
   <crystal>
    <varray name="basis" >
     <v>       2.86303550       0.00000000       0.00000000 </v>
     <v>      -0.00000000       2.86303550       0.00000000 </v>
     <v>       0.00000000       0.00000000       2.86303550 </v>
    </varray>
    <i name="volume">     23.46822259 </i>
    <varray name="rec_basis" >
     <v>       0.34927964       0.00000000      -0.00000000 </v>
     <v>       0.00000000       0.34927964       0.00000000 </v>
     <v>      -0.00000000      -0.00000000       0.34927964 </v>
    </varray>
   </crystal>
   <varray name="positions" >
    <v>       0.00000000       0.00000000       0.00000000 </v>
    <v>       0.50000000       0.50000000       0.50000000 </v>
   </varray>
  </structure>
  <varray name="primitive_index" >
   <v type="int" >        1 </v>
   <v type="int" >        2 </v>
  </varray>
 </primitive_cell>
 <kpoints>
  <generation param="Gamma">
   <v type="int" name="divisions">       2        2        2 </v>
   <v name="usershift">      0.00000000       0.00000000       0.00000000 </v>
   <v name="genvec1">      0.50000000       0.00000000       0.00000000 </v>
   <v name="genvec2">      0.00000000       0.50000000       0.00000000 </v>
   <v name="genvec3">     -0.00000000       0.00000000       0.50000000 </v>
   <v name="shift">      0.00000000       0.00000000       0.00000000 </v>
  </generation>
  <varray name="kpointlist" >
   <v>       0.00000000       0.00000000       0.00000000 </v>
   <v>       0.50000000       0.00000000       0.00000000 </v>
   <v>       0.00000000       0.50000000       0.00000000 </v>
   <v>       0.00000000       0.00000000       0.50000000 </v>
   <v>       0.50000000       0.50000000       0.00000000 </v>
   <v>       0.00000000       0.50000000       0.50000000 </v>
   <v>       0.50000000       0.00000000       0.50000000 </v>
   <v>       0.50000000       0.50000000       0.50000000 </v>
  </varray>
  <varray name="weights" >
   <v>       0.12500000 </v>
   <v>       0.12500000 </v>
   <v>       0.12500000 </v>
   <v>       0.12500000 </v>
   <v>       0.12500000 </v>
   <v>       0.12500000 </v>
   <v>       0.12500000 </v>
   <v>       0.12500000 </v>
  </varray>
 </kpoints>
 <parameters>
  <separator name="general" >
   <i type="string" name="SYSTEM">unknown system</i>
   <i type="logical" name="LCOMPAT"> F  </i>
  </separator>
  <separator name="electronic" >
   <i type="string" name="PREC">normal</i>
   <i name="ENMAX">    450.00000000</i>
   <i name="ENAUG">    511.36800000</i>
   <i name="EDIFF">      0.00001000</i>
   <i type="int" name="IALGO">    38</i>
   <i type="int" name="IWAVPR">    10</i>
   <i type="int" name="NBANDS">    12</i>
   <i type="int" name="NBANDSLOW">    -1</i>
   <i type="int" name="NBANDSHIGH">    -1</i>
   <i name="NELECT">     16.00000000</i>
   <i type="int" name="TURBO">     0</i>
   <i type="int" name="IRESTART">     0</i>
   <i type="int" name="NREBOOT">     0</i>
   <i type="int" name="NMIN">     0</i>
   <i name="EREF">      0.00000000</i>
   <separator name="electronic smearing" >
    <i type="int" name="ISMEAR">     0</i>
    <i name="SIGMA">      0.05000000</i>
    <i name="KSPACING">      0.50000000</i>
    <i type="logical" name="KGAMMA"> T  </i>
    <i type="logical" name="KBLOWUP"> T  </i>
   </separator>
   <separator name="electronic projectors" >
    <i type="logical" name="LREAL"> T  </i>
    <v name="ROPT">     -0.00050000</v>
    <i type="int" name="LMAXPAW">  -100</i>
    <i type="int" name="LMAXMIX">     2</i>
    <i type="logical" name="NLSPLINE"> F  </i>
   </separator>
   <separator name="electronic startup" >
    <i type="int" name="ISTART">     0</i>
    <i type="int" name="ICHARG">     0</i>
    <i type="int" name="INIWAV">     1</i>
   </separator>
   <separator name="electronic spin" >
    <i type="int" name="ISPIN">     1</i>
    <i type="logical" name="LNONCOLLINEAR"> F  </i>
    <v name="MAGMOM">      1.00000000      1.00000000</v>
    <i name="NUPDOWN">     -1.00000000</i>
    <i type="logical" name="LSORBIT"> F  </i>
    <v name="SAXIS">      0.00000000      0.00000000      1.00000000</v>
    <i type="logical" name="LSPIRAL"> F  </i>
    <v name="QSPIRAL">      0.00000000      0.00000000      0.00000000</v>
    <i type="logical" name="LZEROZ"> F  </i>
   </separator>
   <separator name="electronic exchange-correlation" >
    <i type="logical" name="LASPH"> F  </i>
    <i type="logical" name="LMETAGGA"> F  </i>
   </separator>
   <separator name="electronic convergence" >
    <i type="int" name="NELM">   300</i>
    <i type="int" name="NELMDL">    -5</i>
    <i type="int" name="NELMIN">     2</i>
    <i name="ENINI">    450.00000000</i>
    <separator name="electronic convergence detail" >
     <i type="logical" name="LDIAG"> T  </i>
     <i type="logical" name="LSUBROT"> F  </i>
     <i name="WEIMIN">      0.00000000</i>
     <i name="EBREAK">      0.00000021</i>
     <i name="DEPER">      0.30000000</i>
     <i type="int" name="NRMM">     4</i>
     <i name="TIME">      0.40000000</i>
    </separator>
   </separator>
   <separator name="electronic mixer" >
    <i name="AMIX">      0.40000000</i>
    <i name="BMIX">      1.00000000</i>
    <i name="AMIN">      0.10000000</i>
    <i name="AMIX_MAG">      1.60000000</i>
    <i name="BMIX_MAG">      1.00000000</i>
    <separator name="electronic mixer details" >
     <i type="int" name="IMIX">     4</i>
     <i type="logical" name="MIXFIRST"> F  </i>
     <i type="int" name="MAXMIX">   -45</i>
     <i name="WC">    100.00000000</i>
     <i type="int" name="INIMIX">     1</i>
     <i type="int" name="MIXPRE">     1</i>
     <i type="int" name="MREMOVE">     5</i>
    </separator>
   </separator>
   <separator name="electronic dipolcorrection" >
    <i type="logical" name="LDIPOL"> F  </i>
    <i type="logical" name="LMONO"> F  </i>
    <i type="int" name="IDIPOL">     0</i>
    <i name="EPSILON">      1.00000000</i>
    <v name="DIPOL">   -100.00000000   -100.00000000   -100.00000000</v>
    <i name="EFIELD">      0.00000000</i>
   </separator>
  </separator>
  <separator name="grids" >
   <i type="int" name="NGX">    16</i>
   <i type="int" name="NGY">    16</i>
   <i type="int" name="NGZ">    16</i>
   <i type="int" name="NGXF">    32</i>
   <i type="int" name="NGYF">    32</i>
   <i type="int" name="NGZF">    32</i>
   <i type="logical" name="ADDGRID"> F  </i>
  </separator>
  <separator name="ionic" >
   <i type="int" name="NSW">     0</i>
   <i type="int" name="IBRION">    -1</i>
   <i type="int" name="MDALGO">     0</i>
   <i type="int" name="ISIF">     2</i>
   <i name="PSTRESS">      0.00000000</i>
   <i name="EDIFFG">     -0.00500000</i>
   <i type="int" name="NFREE">     0</i>
   <i name="POTIM">      0.50000000</i>
   <i name="SMASS">     -3.00000000</i>
   <i name="SCALEE">      1.00000000</i>
  </separator>
  <separator name="ionic md" >
   <i name="TEBEG">      0.00010000</i>
   <i name="TEEND">      0.00010000</i>
   <i type="int" name="NBLOCK">     1</i>
   <i type="int" name="KBLOCK">     1</i>
   <i type="int" name="NPACO">   256</i>
   <i name="APACO">     10.00000000</i>
  </separator>
  <separator name="symmetry" >
   <i type="int" name="ISYM">     0</i>
   <i name="SYMPREC">      0.00001000</i>
  </separator>
  <separator name="dos" >
   <i type="int" name="LORBIT">     0</i>
   <v name="RWIGS">     -1.00000000</v>
   <i type="int" name="NEDOS">   301</i>
   <i name="EMIN">     10.00000000</i>
   <i name="EMAX">    -10.00000000</i>
   <i name="EFERMI">      0.00000000</i>
  </separator>
  <separator name="writing" >
   <i type="int" name="NWRITE">     2</i>
   <i type="logical" name="LWAVE"> T  </i>
   <i type="logical" name="LDOWNSAMPLE"> F  </i>
   <i type="logical" name="LCHARG"> T  </i>
   <i type="logical" name="LPARD"> F  </i>
   <i type="logical" name="LVTOT"> F  </i>
   <i type="logical" name="LVHAR"> F  </i>
   <i type="logical" name="LELF"> F  </i>
   <i type="logical" name="LOPTICS"> F  </i>
   <v name="STM">      0.00000000      0.00000000      0.00000000      0.00000000      0.00000000      0.00000000      0.00000000</v>
  </separator>
  <separator name="performance" >
   <i type="int" name="NPAR">     1</i>
   <i type="int" name="NSIM">     4</i>
   <i type="int" name="NBLK">    -1</i>
   <i type="logical" name="LPLANE"> T  </i>
   <i type="logical" name="LSCALAPACK"> T  </i>
   <i type="logical" name="LSCAAWARE"> F  </i>
   <i type="logical" name="LSCALU"> F  </i>
   <i type="logical" name="LASYNC"> F  </i>
   <i type="logical" name="LORBITALREAL"> F  </i>
  </separator>
  <separator name="miscellaneous" >
   <i type="int" name="IDIOT">     3</i>
   <i type="int" name="PHON_NSTRUCT">    -1</i>
   <i type="logical" name="LMUSIC"> F  </i>
   <v name="POMASS">     55.84700000</v>
   <v name="DARWINR">      0.00000000</v>
   <v name="DARWINV">      1.00000000</v>
   <i type="logical" name="LCORR"> T  </i>
  </separator>
  <i type="logical" name="GGA_COMPAT"> T  </i>
  <i type="logical" name="LBERRY"> F  </i>
  <i type="int" name="ICORELEVEL">     1</i>
  <i type="int" name="CLNT">     1</i>
  <i type="int" name="CLN">     1</i>
  <i type="int" name="CLL">     0</i>
  <i name="CLZ">      0.00000000</i>
  <i type="logical" name="LDAU"> F  </i>
  <i type="int" name="I_CONSTRAINED_M">     0</i>
  <separator name="electronic exchange-correlation" >
   <i type="string" name="GGA">--</i>
   <i type="int" name="VOSKOWN">     0</i>
   <i type="logical" name="LHFCALC"> F  </i>
   <i type="string" name="PRECFOCK"></i>
   <i type="logical" name="LSYMGRAD"> F  </i>
   <i type="logical" name="LHFONE"> F  </i>
   <i type="logical" name="LRHFCALC"> F  </i>
   <i type="logical" name="LTHOMAS"> F  </i>
   <i type="logical" name="LMODELHF"> F  </i>
   <i type="logical" name="LFOCKACE"> F  </i>
   <i name="ENCUT4O">     -1.00000000</i>
   <i type="int" name="EXXOEP">     0</i>
   <i type="int" name="FOURORBIT">     0</i>
   <i name="AEXX">      0.00000000</i>
   <i name="HFALPHA">      0.00000000</i>
   <i name="MCALPHA">      0.00000000</i>
   <i name="ALDAX">      1.00000000</i>
   <i name="AGGAX">      1.00000000</i>
   <i name="ALDAC">      1.00000000</i>
   <i name="AGGAC">      1.00000000</i>
   <i type="int" name="NKREDX">     1</i>
   <i type="int" name="NKREDY">     1</i>
   <i type="int" name="NKREDZ">     1</i>
   <i type="logical" name="SHIFTRED"> F  </i>
   <i type="logical" name="ODDONLY"> F  </i>
   <i type="logical" name="EVENONLY"> F  </i>
   <i type="int" name="LMAXFOCK">     0</i>
   <i type="int" name="NMAXFOCKAE">     0</i>
   <i type="logical" name="LFOCKAEDFT"> F  </i>
   <i name="HFSCREEN">      0.00000000</i>
   <i name="HFSCREENC">      0.00000000</i>
   <i type="int" name="NBANDSGWLOW">     0</i>
  </separator>
  <separator name="vdW DFT" >
   <i type="logical" name="LUSE_VDW"> F  </i>
   <i type="int" name="IVDW_NL">     1</i>
   <i type="logical" name="LSPIN_VDW"> F  </i>
   <i name="Zab_VDW">     -0.84910000</i>
   <i name="PARAM1">      0.12340000</i>
   <i name="PARAM2">      1.00000000</i>
   <i name="PARAM3">      0.00000000</i>
  </separator>
  <separator name="model GW" >
   <i type="int" name="MODEL_GW">     0</i>
   <i name="MODEL_EPS0">      7.04046678</i>
   <i name="MODEL_ALPHA">      1.00000000</i>
  </separator>
  <separator name="linear response parameters" >
   <i type="logical" name="LEPSILON"> F  </i>
   <i type="logical" name="LRPA"> F  </i>
   <i type="logical" name="LNABLA"> F  </i>
   <i type="logical" name="LVEL"> F  </i>
   <i name="CSHIFT">      0.10000000</i>
   <i name="OMEGAMAX">     -1.00000000</i>
   <i name="DEG_THRESHOLD">      0.00200000</i>
   <i name="RTIME">     -0.10000000</i>
   <i name="WPLASMAI">      0.00000000</i>
   <v name="DFIELD">      0.00000000      0.00000000      0.00000000</v>
   <v name="WPLASMA">      0.00000000      0.00000000      0.00000000      0.00000000      0.00000000      0.00000000      0.00000000      0.00000000      0.00000000</v>
  </separator>
  <separator name="orbital magnetization" >
   <i type="logical" name="NUCIND"> F  </i>
   <v name="MAGPOS">      0.00000000      0.00000000      0.00000000</v>
   <i type="logical" name="LNICSALL"> T  </i>
   <i type="logical" name="ORBITALMAG"> F  </i>
   <i type="logical" name="LMAGBLOCH"> F  </i>
   <i type="logical" name="LCHIMAG"> F  </i>
   <i type="logical" name="LGAUGE"> T  </i>
   <i type="int" name="MAGATOM">     0</i>
   <v name="MAGDIPOL">      0.00000000      0.00000000      0.00000000</v>
   <v name="AVECCONST">      0.00000000      0.00000000      0.00000000</v>
  </separator>
  <separator name="response functions" >
   <i type="logical" name="LALL_IN_ONE"> F  </i>
   <i type="int" name="IALL_IN_ONE">    -1</i>
   <i type="int" name="NBANDS_WAVE">    -1</i>
   <i type="logical" name="LFINITE_TEMPERATURE"> F  </i>
   <i type="logical" name="LADDER"> F  </i>
   <i type="logical" name="LRPAFORCE"> F  </i>
   <i type="logical" name="LFXC"> F  </i>
   <i type="logical" name="LHARTREE"> T  </i>
   <i type="int" name="IBSE">     0</i>
   <v type="int" name="KPOINT">    -1     0     0     0</v>
   <i type="logical" name="LTCTC"> F  </i>
   <i type="logical" name="LTCTE"> F  </i>
   <i type="logical" name="LTETE"> F  </i>
   <i type="logical" name="LTRIPLET"> F  </i>
   <i type="logical" name="LFXCEPS"> F  </i>
   <i type="logical" name="LFXHEG"> F  </i>
   <i type="int" name="NATURALO">     2</i>
   <i type="logical" name="LHOLEGF"> F  </i>
   <i type="logical" name="L2ORDER"> F  </i>
   <i type="logical" name="LDMP1"> F  </i>
   <i type="logical" name="LMP2LT"> F  </i>
   <i type="logical" name="LSMP2LT"> F  </i>
   <i type="logical" name="LGWLF"> F  </i>
   <i name="ENCUTGW">     -1.60000002</i>
   <i name="ENCUTGWSOFT">     -1.60000002</i>
   <i name="ENCUTLF">     -1.00000000</i>
   <i type="logical" name="LESF_SPLINES"> F  </i>
   <i type="int" name="LMAXMP2">    -1</i>
   <i name="SCISSOR">      0.00000000</i>
   <i type="int" name="NOMEGA">     0</i>
   <i type="int" name="NOMEGAR">     0</i>
   <i type="int" name="NBANDSGW">    -1</i>
   <i type="int" name="NBANDSO">    -1</i>
   <i type="int" name="NBANDSV">    -1</i>
   <i type="int" name="NELMGW">     1</i>
   <i type="int" name="NELMHF">     1</i>
   <i type="int" name="DIM">     3</i>
   <i type="int" name="IESPILON">     4</i>
   <i type="int" name="ANTIRES">     0</i>
   <i name="OMEGAMAX">    -30.00000000</i>
   <i name="OMEGAMIN">    -30.00000000</i>
   <i name="OMEGATL">   -200.00000000</i>
   <i type="int" name="OMEGAGRID">     0</i>
   <i name="CSHIFT">     -0.10000000</i>
   <i type="logical" name="LSELFENERGY"> F  </i>
   <i type="logical" name="LSPECTRAL"> F  </i>
   <i type="logical" name="LSPECTRALGW"> F  </i>
   <i type="logical" name="LSINGLES"> F  </i>
   <i type="logical" name="LFERMIGW"> F  </i>
   <i type="logical" name="ODDONLYGW"> F  </i>
   <i type="logical" name="EVENONLYGW"> F  </i>
   <i type="int" name="NKREDLFX">     1</i>
   <i type="int" name="NKREDLFY">     1</i>
   <i type="int" name="NKREDLFZ">     1</i>
   <i type="int" name="MAXMEM">  2800</i>
   <i type="int" name="TELESCOPE">     0</i>
   <i type="int" name="NTAUPAR">    -1</i>
   <i type="int" name="NOMEGAPAR">    -1</i>
   <i name="DAMP_NEWTON">      0.80000001</i>
   <i name="LAMBDA">      1.00000000</i>
  </separator>
  <separator name="External order field" >
   <i name="OFIELD_KAPPA">      0.00000000</i>
   <v name="OFIELD_K">      0.00000000      0.00000000      0.00000000</v>
   <i name="OFIELD_Q6_NEAR">      0.00000000</i>
   <i name="OFIELD_Q6_FAR">      0.00000000</i>
   <i name="OFIELD_A">      0.00000000</i>
  </separator>
  <separator name="optional k-points parameters" >
   <i type="int" name="KPOINTS_OPT_MODE">     1</i>
   <i type="logical" name="LKPOINTS_OPT"> F  </i>
  </separator>
 </parameters>
 <atominfo>
  <atoms>       2 </atoms>
  <types>       1 </types>
  <array name="atoms" >
   <dimension dim="1">ion</dimension>
   <field type="string">element</field>
   <field type="int">atomtype</field>
   <set>
    <rc><c>Fe</c><c>   1</c></rc>
    <rc><c>Fe</c><c>   1</c></rc>
   </set>
  </array>
  <array name="atomtypes" >
   <dimension dim="1">type</dimension>
   <field type="int">atomspertype</field>
   <field type="string">element</field>
   <field>mass</field>
   <field>valence</field>
   <field type="string">pseudopotential</field>
   <set>
    <rc><c>   2</c><c>Fe</c><c>     55.84700000</c><c>      8.00000000</c><c>  PAW_PBE Fe 06Sep2000                  </c></rc>
   </set>
  </array>
 </atominfo>
 <structure name="initialpos" >
  <crystal>
   <varray name="basis" >
    <v>       2.86303550       0.00000000       0.00000000 </v>
    <v>      -0.00000000       2.86303550       0.00000000 </v>
    <v>       0.00000000       0.00000000       2.86303550 </v>
   </varray>
   <i name="volume">     23.46822259 </i>
   <varray name="rec_basis" >
    <v>       0.34927964       0.00000000      -0.00000000 </v>
    <v>       0.00000000       0.34927964       0.00000000 </v>
    <v>      -0.00000000      -0.00000000       0.34927964 </v>
   </varray>
  </crystal>
  <varray name="positions" >
   <v>       0.00000000       0.00000000       0.00000000 </v>
   <v>       0.50000000       0.50000000       0.50000000 </v>
  </varray>
 </structure>
 <calculation>
  <scstep>
   <time name="dav">    0.07    0.07</time>
   <time name="total">    0.10    0.10</time>
   <energy>
    <i name="alphaZ">    117.79976220 </i>
    <i name="ewald">  -1171.43779597 </i>
    <i name="hartreedc">    -63.65001815 </i>
    <i name="XCdc">      4.69518431 </i>
    <i name="pawpsdc"> 893579.85155712 </i>
    <i name="pawaedc">-893559.00245627 </i>
    <i name="eentropy">     -0.00826551 </i>
    <i name="bandstr">   -305.39828467 </i>
    <i name="atom">   1188.62386280 </i>
    <i name="e_fr_energy">   -208.52645414 </i>
    <i name="e_wo_entrp">   -208.51818863 </i>
    <i name="e_0_energy">   -208.52232139 </i>
   </energy>
  </scstep>
  <scstep>
   <time name="dav">    0.04    0.04</time>
   <time name="total">    0.04    0.04</time>
   <energy>
    <i name="e_fr_energy">   -280.91103459 </i>
    <i name="e_wo_entrp">   -280.90313930 </i>
    <i name="e_0_energy">   -280.90708694 </i>
   </energy>
  </scstep>
  <scstep>
   <time name="dav">    0.05    0.05</time>
   <time name="total">    0.05    0.05</time>
   <energy>
    <i name="e_fr_energy">   -283.96374603 </i>
    <i name="e_wo_entrp">   -283.95338747 </i>
    <i name="e_0_energy">   -283.95856675 </i>
   </energy>
  </scstep>
  <scstep>
   <time name="dav">    0.04    0.04</time>
   <time name="total">    0.04    0.04</time>
   <energy>
    <i name="e_fr_energy">   -284.01683288 </i>
    <i name="e_wo_entrp">   -284.00656138 </i>
    <i name="e_0_energy">   -284.01169713 </i>
   </energy>
  </scstep>
  <scstep>
   <time name="dav">    0.04    0.04</time>
   <time name="total">    0.05    0.05</time>
   <energy>
    <i name="e_fr_energy">   -284.01871720 </i>
    <i name="e_wo_entrp">   -284.00844392 </i>
    <i name="e_0_energy">   -284.01358056 </i>
   </energy>
  </scstep>
  <scstep>
   <time name="dav">    0.03    0.03</time>
   <time name="total">    0.05    0.05</time>
   <energy>
    <i name="e_fr_energy">    -76.86805766 </i>
    <i name="e_wo_entrp">    -76.86805764 </i>
    <i name="e_0_energy">    -76.86805765 </i>
   </energy>
  </scstep>
  <scstep>
   <time name="dav">    0.04    0.04</time>
   <time name="total">    0.05    0.05</time>
   <energy>
    <i name="e_fr_energy">    -84.26184976 </i>
    <i name="e_wo_entrp">    -84.25851891 </i>
    <i name="e_0_energy">    -84.26018433 </i>
   </energy>
  </scstep>
  <scstep>
   <time name="dav">    0.04    0.04</time>
   <time name="total">    0.05    0.05</time>
   <energy>
    <i name="e_fr_energy">    -43.16685162 </i>
    <i name="e_wo_entrp">    -43.16685162 </i>
    <i name="e_0_energy">    -43.16685162 </i>
   </energy>
  </scstep>
  <scstep>
   <time name="dav">    0.04    0.04</time>
   <time name="total">    0.05    0.05</time>
   <energy>
    <i name="e_fr_energy">    -35.94653682 </i>
    <i name="e_wo_entrp">    -35.94069194 </i>
    <i name="e_0_energy">    -35.94361438 </i>
   </energy>
  </scstep>
  <scstep>
   <time name="dav">    0.04    0.04</time>
   <time name="total">    0.05    0.05</time>
   <energy>
    <i name="e_fr_energy">    -14.74112011 </i>
    <i name="e_wo_entrp">    -14.74111250 </i>
    <i name="e_0_energy">    -14.74111631 </i>
   </energy>
  </scstep>
  <scstep>
   <time name="dav">    0.03    0.03</time>
   <time name="total">    0.05    0.05</time>
   <energy>
    <i name="e_fr_energy">    -18.02678129 </i>
    <i name="e_wo_entrp">    -18.00945288 </i>
    <i name="e_0_energy">    -18.01811709 </i>
   </energy>
  </scstep>
  <scstep>
   <time name="dav">    0.03    0.03</time>
   <time name="total">    0.05    0.05</time>
   <energy>
    <i name="e_fr_energy">    -17.99102900 </i>
    <i name="e_wo_entrp">    -17.98284459 </i>
    <i name="e_0_energy">    -17.98693680 </i>
   </energy>
  </scstep>
  <scstep>
   <time name="dav">    0.03    0.03</time>
   <time name="total">    0.05    0.05</time>
   <energy>
    <i name="e_fr_energy">    -14.41519754 </i>
    <i name="e_wo_entrp">    -14.39830746 </i>
    <i name="e_0_energy">    -14.40675250 </i>
   </energy>
  </scstep>
  <scstep>
   <time name="dav">    0.03    0.03</time>
   <time name="total">    0.05    0.05</time>
   <energy>
    <i name="e_fr_energy">    -14.16787537 </i>
    <i name="e_wo_entrp">    -14.15293045 </i>
    <i name="e_0_energy">    -14.16040291 </i>
   </energy>
  </scstep>
  <scstep>
   <time name="dav">    0.03    0.03</time>
   <time name="total">    0.04    0.04</time>
   <energy>
    <i name="e_fr_energy">    -14.23477460 </i>
    <i name="e_wo_entrp">    -14.22779679 </i>
    <i name="e_0_energy">    -14.23128570 </i>
   </energy>
  </scstep>
  <scstep>
   <time name="dav">    0.04    0.04</time>
   <time name="total">    0.06    0.06</time>
   <energy>
    <i name="e_fr_energy">    -14.29442937 </i>
    <i name="e_wo_entrp">    -14.27134415 </i>
    <i name="e_0_energy">    -14.28288676 </i>
   </energy>
  </scstep>
  <scstep>
   <time name="dav">    0.03    0.03</time>
   <time name="total">    0.05    0.05</time>
   <energy>
    <i name="e_fr_energy">    -14.67310464 </i>
    <i name="e_wo_entrp">    -14.67022771 </i>
    <i name="e_0_energy">    -14.67166618 </i>
   </energy>
  </scstep>
  <scstep>
   <time name="dav">    0.04    0.04</time>
   <time name="total">    0.05    0.05</time>
   <energy>
    <i name="e_fr_energy">    -14.53565343 </i>
    <i name="e_wo_entrp">    -14.52470894 </i>
    <i name="e_0_energy">    -14.53018119 </i>
   </energy>
  </scstep>
  <scstep>
   <time name="dav">    0.04    0.04</time>
   <time name="total">    0.05    0.05</time>
   <energy>
    <i name="e_fr_energy">    -14.48548208 </i>
    <i name="e_wo_entrp">    -14.47260046 </i>
    <i name="e_0_energy">    -14.47904127 </i>
   </energy>
  </scstep>
  <scstep>
   <time name="dav">    0.03    0.03</time>
   <time name="total">    0.05    0.05</time>
   <energy>
    <i name="e_fr_energy">    -14.29178076 </i>
    <i name="e_wo_entrp">    -14.27699905 </i>
    <i name="e_0_energy">    -14.28438991 </i>
   </energy>
  </scstep>
  <scstep>
   <time name="dav">    0.04    0.04</time>
   <time name="total">    0.05    0.05</time>
   <energy>
    <i name="e_fr_energy">    -14.37680750 </i>
    <i name="e_wo_entrp">    -14.36656517 </i>
    <i name="e_0_energy">    -14.37168633 </i>
   </energy>
  </scstep>
  <scstep>
   <time name="dav">    0.03    0.03</time>
   <time name="total">    0.05    0.05</time>
   <energy>
    <i name="e_fr_energy">    -14.03866764 </i>
    <i name="e_wo_entrp">    -14.02716741 </i>
    <i name="e_0_energy">    -14.03291752 </i>
   </energy>
  </scstep>
  <scstep>
   <time name="dav">    0.04    0.04</time>
   <time name="total">    0.05    0.05</time>
   <energy>
    <i name="e_fr_energy">    -13.98273325 </i>
    <i name="e_wo_entrp">    -13.96538142 </i>
    <i name="e_0_energy">    -13.97405734 </i>
   </energy>
  </scstep>
  <scstep>
   <time name="dav">    0.03    0.03</time>
   <time name="total">    0.05    0.05</time>
   <energy>
    <i name="e_fr_energy">    -14.07518545 </i>
    <i name="e_wo_entrp">    -14.06305179 </i>
    <i name="e_0_energy">    -14.06911862 </i>
   </energy>
  </scstep>
  <scstep>
   <time name="dav">    0.03    0.03</time>
   <time name="total">    0.05    0.05</time>
   <energy>
    <i name="e_fr_energy">    -13.79536957 </i>
    <i name="e_wo_entrp">    -13.77938708 </i>
    <i name="e_0_energy">    -13.78737833 </i>
   </energy>
  </scstep>
  <scstep>
   <time name="dav">    0.04    0.04</time>
   <time name="total">    0.05    0.05</time>
   <energy>
    <i name="e_fr_energy">    -13.83674075 </i>
    <i name="e_wo_entrp">    -13.82607376 </i>
    <i name="e_0_energy">    -13.83140725 </i>
   </energy>
  </scstep>
  <scstep>
   <time name="dav">    0.03    0.03</time>
   <time name="total">    0.05    0.05</time>
   <energy>
    <i name="e_fr_energy">    -13.80615348 </i>
    <i name="e_wo_entrp">    -13.79194406 </i>
    <i name="e_0_energy">    -13.79904877 </i>
   </energy>
  </scstep>
  <scstep>
   <time name="dav">    0.03    0.03</time>
   <time name="total">    0.05    0.05</time>
   <energy>
    <i name="e_fr_energy">    -13.96172591 </i>
    <i name="e_wo_entrp">    -13.94620501 </i>
    <i name="e_0_energy">    -13.95396546 </i>
   </energy>
  </scstep>
  <scstep>
   <time name="dav">    0.04    0.04</time>
   <time name="total">    0.05    0.05</time>
   <energy>
    <i name="e_fr_energy">    -13.90984304 </i>
    <i name="e_wo_entrp">    -13.89721246 </i>
    <i name="e_0_energy">    -13.90352775 </i>
   </energy>
  </scstep>
  <scstep>
   <time name="dav">    0.03    0.03</time>
   <time name="total">    0.05    0.05</time>
   <energy>
    <i name="e_fr_energy">    -13.92049941 </i>
    <i name="e_wo_entrp">    -13.89696995 </i>
    <i name="e_0_energy">    -13.90873468 </i>
   </energy>
  </scstep>
  <scstep>
   <time name="dav">    0.03    0.03</time>
   <time name="total">    0.05    0.05</time>
   <energy>
    <i name="e_fr_energy">    -13.89728207 </i>
    <i name="e_wo_entrp">    -13.87751311 </i>
    <i name="e_0_energy">    -13.88739759 </i>
   </energy>
  </scstep>
  <scstep>
   <time name="dav">    0.03    0.03</time>
   <time name="total">    0.05    0.05</time>
   <energy>
    <i name="e_fr_energy">    -13.88615054 </i>
    <i name="e_wo_entrp">    -13.85902472 </i>
    <i name="e_0_energy">    -13.87258763 </i>
   </energy>
  </scstep>
  <scstep>
   <time name="dav">    0.04    0.04</time>
   <time name="total">    0.05    0.05</time>
   <energy>
    <i name="e_fr_energy">    -13.86848562 </i>
    <i name="e_wo_entrp">    -13.84603382 </i>
    <i name="e_0_energy">    -13.85725972 </i>
   </energy>
  </scstep>
  <scstep>
   <time name="dav">    0.04    0.04</time>
   <time name="total">    0.05    0.05</time>
   <energy>
    <i name="e_fr_energy">    -13.86382674 </i>
    <i name="e_wo_entrp">    -13.83526780 </i>
    <i name="e_0_energy">    -13.84954727 </i>
   </energy>
  </scstep>
  <scstep>
   <time name="dav">    0.03    0.03</time>
   <time name="total">    0.05    0.05</time>
   <energy>
    <i name="e_fr_energy">    -13.85720655 </i>
    <i name="e_wo_entrp">    -13.83138157 </i>
    <i name="e_0_energy">    -13.84429406 </i>
   </energy>
  </scstep>
  <scstep>
   <time name="dav">    0.03    0.03</time>
   <time name="total">    0.05    0.05</time>
   <energy>
    <i name="e_fr_energy">    -13.84899746 </i>
    <i name="e_wo_entrp">    -13.82225928 </i>
    <i name="e_0_energy">    -13.83562837 </i>
   </energy>
  </scstep>
  <scstep>
   <time name="dav">    0.03    0.03</time>
   <time name="total">    0.05    0.05</time>
   <energy>
    <i name="e_fr_energy">    -13.83656060 </i>
    <i name="e_wo_entrp">    -13.80912942 </i>
    <i name="e_0_energy">    -13.82284501 </i>
   </energy>
  </scstep>
  <scstep>
   <time name="dav">    0.03    0.03</time>
   <time name="total">    0.05    0.05</time>
   <energy>
    <i name="e_fr_energy">    -13.85140740 </i>
    <i name="e_wo_entrp">    -13.82339622 </i>
    <i name="e_0_energy">    -13.83740181 </i>
   </energy>
  </scstep>
  <scstep>
   <time name="dav">    0.03    0.03</time>
   <time name="total">    0.05    0.05</time>
   <energy>
    <i name="e_fr_energy">    -13.93511018 </i>
    <i name="e_wo_entrp">    -13.90776921 </i>
    <i name="e_0_energy">    -13.92143969 </i>
   </energy>
  </scstep>
  <scstep>
   <time name="dav">    0.03    0.03</time>
   <time name="total">    0.05    0.05</time>
   <energy>
    <i name="e_fr_energy">    -13.92106473 </i>
    <i name="e_wo_entrp">    -13.89302506 </i>
    <i name="e_0_energy">    -13.90704490 </i>
   </energy>
  </scstep>
  <scstep>
   <time name="dav">    0.03    0.03</time>
   <time name="total">    0.05    0.05</time>
   <energy>
    <i name="e_fr_energy">    -13.87793801 </i>
    <i name="e_wo_entrp">    -13.84826391 </i>
    <i name="e_0_energy">    -13.86310096 </i>
   </energy>
  </scstep>
  <scstep>
   <time name="dav">    0.03    0.03</time>
   <time name="total">    0.05    0.05</time>
   <energy>
    <i name="e_fr_energy">    -13.98153864 </i>
    <i name="e_wo_entrp">    -13.95659042 </i>
    <i name="e_0_energy">    -13.96906453 </i>
   </energy>
  </scstep>
  <scstep>
   <time name="dav">    0.03    0.03</time>
   <time name="total">    0.05    0.05</time>
   <energy>
    <i name="e_fr_energy">    -13.81263719 </i>
    <i name="e_wo_entrp">    -13.78873601 </i>
    <i name="e_0_energy">    -13.80068660 </i>
   </energy>
  </scstep>
  <scstep>
   <time name="dav">    0.03    0.03</time>
   <time name="total">    0.05    0.05</time>
   <energy>
    <i name="e_fr_energy">    -13.67840500 </i>
    <i name="e_wo_entrp">    -13.65793767 </i>
    <i name="e_0_energy">    -13.66817134 </i>
   </energy>
  </scstep>
  <scstep>
   <time name="dav">    0.04    0.04</time>
   <time name="total">    0.06    0.06</time>
   <energy>
    <i name="e_fr_energy">    -13.68272948 </i>
    <i name="e_wo_entrp">    -13.66282794 </i>
    <i name="e_0_energy">    -13.67277871 </i>
   </energy>
  </scstep>
  <scstep>
   <time name="dav">    0.03    0.03</time>
   <time name="total">    0.05    0.05</time>
   <energy>
    <i name="e_fr_energy">    -13.62668427 </i>
    <i name="e_wo_entrp">    -13.59953616 </i>
    <i name="e_0_energy">    -13.61311022 </i>
   </energy>
  </scstep>
  <scstep>
   <time name="dav">    0.03    0.03</time>
   <time name="total">    0.05    0.05</time>
   <energy>
    <i name="e_fr_energy">    -13.61821892 </i>
    <i name="e_wo_entrp">    -13.59609729 </i>
    <i name="e_0_energy">    -13.60715811 </i>
   </energy>
  </scstep>
  <scstep>
   <time name="dav">    0.03    0.03</time>
   <time name="total">    0.05    0.05</time>
   <energy>
    <i name="e_fr_energy">    -13.61632186 </i>
    <i name="e_wo_entrp">    -13.58702994 </i>
    <i name="e_0_energy">    -13.60167590 </i>
   </energy>
  </scstep>
  <scstep>
   <time name="dav">    0.03    0.03</time>
   <time name="total">    0.05    0.05</time>
   <energy>
    <i name="e_fr_energy">    -13.61287976 </i>
    <i name="e_wo_entrp">    -13.58696271 </i>
    <i name="e_0_energy">    -13.59992124 </i>
   </energy>
  </scstep>
  <scstep>
   <time name="dav">    0.03    0.03</time>
   <time name="total">    0.05    0.05</time>
   <energy>
    <i name="e_fr_energy">    -13.63133834 </i>
    <i name="e_wo_entrp">    -13.60108711 </i>
    <i name="e_0_energy">    -13.61621273 </i>
   </energy>
  </scstep>
  <scstep>
   <time name="dav">    0.03    0.03</time>
   <time name="total">    0.05    0.05</time>
   <energy>
    <i name="e_fr_energy">    -13.64365199 </i>
    <i name="e_wo_entrp">    -13.61291414 </i>
    <i name="e_0_energy">    -13.62828306 </i>
   </energy>
  </scstep>
  <scstep>
   <time name="dav">    0.03    0.03</time>
   <time name="total">    0.05    0.05</time>
   <energy>
    <i name="e_fr_energy">    -13.64288092 </i>
    <i name="e_wo_entrp">    -13.60950380 </i>
    <i name="e_0_energy">    -13.62619236 </i>
   </energy>
  </scstep>
  <scstep>
   <time name="dav">    0.03    0.03</time>
   <time name="total">    0.05    0.05</time>
   <energy>
    <i name="e_fr_energy">    -13.69083452 </i>
    <i name="e_wo_entrp">    -13.65211261 </i>
    <i name="e_0_energy">    -13.67147356 </i>
   </energy>
  </scstep>
  <scstep>
   <time name="dav">    0.03    0.03</time>
   <time name="total">    0.05    0.05</time>
   <energy>
    <i name="e_fr_energy">    -13.68694201 </i>
    <i name="e_wo_entrp">    -13.66017214 </i>
    <i name="e_0_energy">    -13.67355708 </i>
   </energy>
  </scstep>
  <scstep>
   <time name="dav">    0.04    0.04</time>
   <time name="total">    0.06    0.06</time>
   <energy>
    <i name="e_fr_energy">    -13.71110793 </i>
    <i name="e_wo_entrp">    -13.68097896 </i>
    <i name="e_0_energy">    -13.69604344 </i>
   </energy>
  </scstep>
  <scstep>
   <time name="dav">    0.03    0.03</time>
   <time name="total">    0.05    0.05</time>
   <energy>
    <i name="e_fr_energy">    -13.59780200 </i>
    <i name="e_wo_entrp">    -13.57484789 </i>
    <i name="e_0_energy">    -13.58632494 </i>
   </energy>
  </scstep>
  <scstep>
   <time name="dav">    0.03    0.03</time>
   <time name="total">    0.05    0.05</time>
   <energy>
    <i name="e_fr_energy">    -13.53746364 </i>
    <i name="e_wo_entrp">    -13.51017533 </i>
    <i name="e_0_energy">    -13.52381949 </i>
   </energy>
  </scstep>
  <scstep>
   <time name="dav">    0.03    0.03</time>
   <time name="total">    0.05    0.05</time>
   <energy>
    <i name="e_fr_energy">    -13.51520748 </i>
    <i name="e_wo_entrp">    -13.49505352 </i>
    <i name="e_0_energy">    -13.50513050 </i>
   </energy>
  </scstep>
  <scstep>
   <time name="dav">    0.04    0.04</time>
   <time name="total">    0.06    0.06</time>
   <energy>
    <i name="e_fr_energy">    -13.51024433 </i>
    <i name="e_wo_entrp">    -13.49070060 </i>
    <i name="e_0_energy">    -13.50047247 </i>
   </energy>
  </scstep>
  <scstep>
   <time name="dav">    0.03    0.03</time>
   <time name="total">    0.05    0.05</time>
   <energy>
    <i name="e_fr_energy">    -13.54333012 </i>
    <i name="e_wo_entrp">    -13.52314143 </i>
    <i name="e_0_energy">    -13.53323577 </i>
   </energy>
  </scstep>
  <scstep>
   <time name="dav">    0.03    0.03</time>
   <time name="total">    0.05    0.05</time>
   <energy>
    <i name="e_fr_energy">    -13.53993322 </i>
    <i name="e_wo_entrp">    -13.52985733 </i>
    <i name="e_0_energy">    -13.53489527 </i>
   </energy>
  </scstep>
  <scstep>
   <time name="dav">    0.04    0.04</time>
   <time name="total">    0.05    0.05</time>
   <energy>
    <i name="e_fr_energy">    -13.52043596 </i>
    <i name="e_wo_entrp">    -13.50248035 </i>
    <i name="e_0_energy">    -13.51145815 </i>
   </energy>
  </scstep>
  <scstep>
   <time name="dav">    0.03    0.03</time>
   <time name="total">    0.05    0.05</time>
   <energy>
    <i name="e_fr_energy">    -13.51051144 </i>
    <i name="e_wo_entrp">    -13.48821538 </i>
    <i name="e_0_energy">    -13.49936341 </i>
   </energy>
  </scstep>
  <scstep>
   <time name="dav">    0.04    0.04</time>
   <time name="total">    0.06    0.06</time>
   <energy>
    <i name="e_fr_energy">    -13.51219361 </i>
    <i name="e_wo_entrp">    -13.49100171 </i>
    <i name="e_0_energy">    -13.50159766 </i>
   </energy>
  </scstep>
  <scstep>
   <time name="dav">    0.03    0.03</time>
   <time name="total">    0.05    0.05</time>
   <energy>
    <i name="e_fr_energy">    -13.51643476 </i>
    <i name="e_wo_entrp">    -13.49597612 </i>
    <i name="e_0_energy">    -13.50620544 </i>
   </energy>
  </scstep>
  <scstep>
   <time name="dav">    0.03    0.03</time>
   <time name="total">    0.05    0.05</time>
   <energy>
    <i name="e_fr_energy">    -13.51925523 </i>
    <i name="e_wo_entrp">    -13.49911173 </i>
    <i name="e_0_energy">    -13.50918348 </i>
   </energy>
  </scstep>
  <scstep>
   <time name="dav">    0.03    0.03</time>
   <time name="total">    0.05    0.05</time>
   <energy>
    <i name="e_fr_energy">    -13.52072918 </i>
    <i name="e_wo_entrp">    -13.50047608 </i>
    <i name="e_0_energy">    -13.51060263 </i>
   </energy>
  </scstep>
  <scstep>
   <time name="dav">    0.03    0.03</time>
   <time name="total">    0.05    0.05</time>
   <energy>
    <i name="e_fr_energy">    -13.52088352 </i>
    <i name="e_wo_entrp">    -13.50064870 </i>
    <i name="e_0_energy">    -13.51076611 </i>
   </energy>
  </scstep>
  <scstep>
   <time name="dav">    0.03    0.03</time>
   <time name="total">    0.05    0.05</time>
   <energy>
    <i name="e_fr_energy">    -13.52177990 </i>
    <i name="e_wo_entrp">    -13.50175101 </i>
    <i name="e_0_energy">    -13.51176545 </i>
   </energy>
  </scstep>
  <scstep>
   <time name="dav">    0.04    0.04</time>
   <time name="total">    0.05    0.05</time>
   <energy>
    <i name="e_fr_energy">    -13.52204663 </i>
    <i name="e_wo_entrp">    -13.50182045 </i>
    <i name="e_0_energy">    -13.51193354 </i>
   </energy>
  </scstep>
  <scstep>
   <time name="dav">    0.03    0.03</time>
   <time name="total">    0.05    0.05</time>
   <energy>
    <i name="e_fr_energy">    -13.52585697 </i>
    <i name="e_wo_entrp">    -13.50577776 </i>
    <i name="e_0_energy">    -13.51581737 </i>
   </energy>
  </scstep>
  <scstep>
   <time name="dav">    0.03    0.03</time>
   <time name="total">    0.05    0.05</time>
   <energy>
    <i name="e_fr_energy">    -13.52722252 </i>
    <i name="e_wo_entrp">    -13.50732942 </i>
    <i name="e_0_energy">    -13.51727597 </i>
   </energy>
  </scstep>
  <scstep>
   <time name="dav">    0.03    0.03</time>
   <time name="total">    0.05    0.05</time>
   <energy>
    <i name="e_fr_energy">    -13.53340640 </i>
    <i name="e_wo_entrp">    -13.51482388 </i>
    <i name="e_0_energy">    -13.52411514 </i>
   </energy>
  </scstep>
  <scstep>
   <time name="dav">    0.04    0.04</time>
   <time name="total">    0.05    0.05</time>
   <energy>
    <i name="e_fr_energy">    -13.53414053 </i>
    <i name="e_wo_entrp">    -13.51585311 </i>
    <i name="e_0_energy">    -13.52499682 </i>
   </energy>
  </scstep>
  <scstep>
   <time name="dav">    0.03    0.03</time>
   <time name="total">    0.04    0.04</time>
   <energy>
    <i name="e_fr_energy">    -13.53556479 </i>
    <i name="e_wo_entrp">    -13.51753629 </i>
    <i name="e_0_energy">    -13.52655054 </i>
   </energy>
  </scstep>
  <scstep>
   <time name="dav">    0.03    0.03</time>
   <time name="total">    0.05    0.05</time>
   <energy>
    <i name="e_fr_energy">    -13.53311264 </i>
    <i name="e_wo_entrp">    -13.51404216 </i>
    <i name="e_0_energy">    -13.52357740 </i>
   </energy>
  </scstep>
  <scstep>
   <time name="dav">    0.03    0.03</time>
   <time name="total">    0.05    0.05</time>
   <energy>
    <i name="e_fr_energy">    -13.53215807 </i>
    <i name="e_wo_entrp">    -13.51264455 </i>
    <i name="e_0_energy">    -13.52240131 </i>
   </energy>
  </scstep>
  <scstep>
   <time name="dav">    0.03    0.03</time>
   <time name="total">    0.05    0.05</time>
   <energy>
    <i name="e_fr_energy">    -13.53081227 </i>
    <i name="e_wo_entrp">    -13.51088549 </i>
    <i name="e_0_energy">    -13.52084888 </i>
   </energy>
  </scstep>
  <scstep>
   <time name="dav">    0.03    0.03</time>
   <time name="total">    0.05    0.05</time>
   <energy>
    <i name="e_fr_energy">    -13.52842712 </i>
    <i name="e_wo_entrp">    -13.50736625 </i>
    <i name="e_0_energy">    -13.51789668 </i>
   </energy>
  </scstep>
  <scstep>
   <time name="dav">    0.03    0.03</time>
   <time name="total">    0.05    0.05</time>
   <energy>
    <i name="e_fr_energy">    -13.52794116 </i>
    <i name="e_wo_entrp">    -13.50665389 </i>
    <i name="e_0_energy">    -13.51729753 </i>
   </energy>
  </scstep>
  <scstep>
   <time name="dav">    0.03    0.03</time>
   <time name="total">    0.05    0.05</time>
   <energy>
    <i name="e_fr_energy">    -13.52859987 </i>
    <i name="e_wo_entrp">    -13.50722709 </i>
    <i name="e_0_energy">    -13.51791348 </i>
   </energy>
  </scstep>
  <scstep>
   <time name="dav">    0.03    0.03</time>
   <time name="total">    0.04    0.04</time>
   <energy>
    <i name="e_fr_energy">    -13.52873771 </i>
    <i name="e_wo_entrp">    -13.50765273 </i>
    <i name="e_0_energy">    -13.51819522 </i>
   </energy>
  </scstep>
  <scstep>
   <time name="dav">    0.04    0.04</time>
   <time name="total">    0.06    0.06</time>
   <energy>
    <i name="e_fr_energy">    -13.52867149 </i>
    <i name="e_wo_entrp">    -13.50550913 </i>
    <i name="e_0_energy">    -13.51709031 </i>
   </energy>
  </scstep>
  <scstep>
   <time name="dav">    0.04    0.04</time>
   <time name="total">    0.05    0.05</time>
   <energy>
    <i name="e_fr_energy">    -13.52993666 </i>
    <i name="e_wo_entrp">    -13.50886505 </i>
    <i name="e_0_energy">    -13.51940085 </i>
   </energy>
  </scstep>
  <scstep>
   <time name="dav">    0.04    0.04</time>
   <time name="total">    0.05    0.05</time>
   <energy>
    <i name="e_fr_energy">    -13.52972343 </i>
    <i name="e_wo_entrp">    -13.50834802 </i>
    <i name="e_0_energy">    -13.51903572 </i>
   </energy>
  </scstep>
  <scstep>
   <time name="dav">    0.03    0.03</time>
   <time name="total">    0.05    0.05</time>
   <energy>
    <i name="e_fr_energy">    -13.56765993 </i>
    <i name="e_wo_entrp">    -13.55275024 </i>
    <i name="e_0_energy">    -13.56020508 </i>
   </energy>
  </scstep>
  <scstep>
   <time name="dav">    0.03    0.03</time>
   <time name="total">    0.05    0.05</time>
   <energy>
    <i name="e_fr_energy">    -13.53575128 </i>
    <i name="e_wo_entrp">    -13.51580873 </i>
    <i name="e_0_energy">    -13.52578001 </i>
   </energy>
  </scstep>
  <scstep>
   <time name="dav">    0.03    0.03</time>
   <time name="total">    0.05    0.05</time>
   <energy>
    <i name="e_fr_energy">    -13.54934283 </i>
    <i name="e_wo_entrp">    -13.53133890 </i>
    <i name="e_0_energy">    -13.54034087 </i>
   </energy>
  </scstep>
  <scstep>
   <time name="dav">    0.03    0.03</time>
   <time name="total">    0.05    0.05</time>
   <energy>
    <i name="e_fr_energy">    -13.53224574 </i>
    <i name="e_wo_entrp">    -13.51173020 </i>
    <i name="e_0_energy">    -13.52198797 </i>
   </energy>
  </scstep>
  <scstep>
   <time name="dav">    0.03    0.03</time>
   <time name="total">    0.05    0.05</time>
   <energy>
    <i name="e_fr_energy">    -13.54591763 </i>
    <i name="e_wo_entrp">    -13.52719081 </i>
    <i name="e_0_energy">    -13.53655422 </i>
   </energy>
  </scstep>
  <scstep>
   <time name="dav">    0.03    0.03</time>
   <time name="total">    0.05    0.05</time>
   <energy>
    <i name="e_fr_energy">    -13.53184484 </i>
    <i name="e_wo_entrp">    -13.51186714 </i>
    <i name="e_0_energy">    -13.52185599 </i>
   </energy>
  </scstep>
  <scstep>
   <time name="dav">    0.03    0.03</time>
   <time name="total">    0.05    0.05</time>
   <energy>
    <i name="e_fr_energy">    -13.53338786 </i>
    <i name="e_wo_entrp">    -13.51043745 </i>
    <i name="e_0_energy">    -13.52191266 </i>
   </energy>
  </scstep>
  <scstep>
   <time name="dav">    0.03    0.03</time>
   <time name="total">    0.05    0.05</time>
   <energy>
    <i name="e_fr_energy">    -13.52717432 </i>
    <i name="e_wo_entrp">    -13.50533029 </i>
    <i name="e_0_energy">    -13.51625231 </i>
   </energy>
  </scstep>
  <scstep>
   <time name="dav">    0.04    0.04</time>
   <time name="total">    0.06    0.06</time>
   <energy>
    <i name="e_fr_energy">    -13.53016735 </i>
    <i name="e_wo_entrp">    -13.50657972 </i>
    <i name="e_0_energy">    -13.51837354 </i>
   </energy>
  </scstep>
  <scstep>
   <time name="dav">    0.03    0.03</time>
   <time name="total">    0.05    0.05</time>
   <energy>
    <i name="e_fr_energy">    -13.52597140 </i>
    <i name="e_wo_entrp">    -13.50250754 </i>
    <i name="e_0_energy">    -13.51423947 </i>
   </energy>
  </scstep>
  <scstep>
   <time name="dav">    0.03    0.03</time>
   <time name="total">    0.05    0.05</time>
   <energy>
    <i name="e_fr_energy">    -13.52782342 </i>
    <i name="e_wo_entrp">    -13.50313191 </i>
    <i name="e_0_energy">    -13.51547766 </i>
   </energy>
  </scstep>
  <scstep>
   <time name="dav">    0.04    0.04</time>
   <time name="total">    0.06    0.06</time>
   <energy>
    <i name="e_fr_energy">    -13.52327333 </i>
    <i name="e_wo_entrp">    -13.49783372 </i>
    <i name="e_0_energy">    -13.51055352 </i>
   </energy>
  </scstep>
  <scstep>
   <time name="dav">    0.03    0.03</time>
   <time name="total">    0.05    0.05</time>
   <energy>
    <i name="e_fr_energy">    -13.52210098 </i>
    <i name="e_wo_entrp">    -13.49664322 </i>
    <i name="e_0_energy">    -13.50937210 </i>
   </energy>
  </scstep>
  <scstep>
   <time name="dav">    0.03    0.03</time>
   <time name="total">    0.05    0.05</time>
   <energy>
    <i name="e_fr_energy">    -13.52137714 </i>
    <i name="e_wo_entrp">    -13.49528937 </i>
    <i name="e_0_energy">    -13.50833325 </i>
   </energy>
  </scstep>
  <scstep>
   <time name="dav">    0.04    0.04</time>
   <time name="total">    0.05    0.05</time>
   <energy>
    <i name="e_fr_energy">    -13.51949709 </i>
    <i name="e_wo_entrp">    -13.49435333 </i>
    <i name="e_0_energy">    -13.50692521 </i>
   </energy>
  </scstep>
  <scstep>
   <time name="dav">    0.03    0.03</time>
   <time name="total">    0.05    0.05</time>
   <energy>
    <i name="e_fr_energy">    -13.51886679 </i>
    <i name="e_wo_entrp">    -13.49292838 </i>
    <i name="e_0_energy">    -13.50589758 </i>
   </energy>
  </scstep>
  <scstep>
   <time name="dav">    0.03    0.03</time>
   <time name="total">    0.05    0.05</time>
   <energy>
    <i name="e_fr_energy">    -13.51812417 </i>
    <i name="e_wo_entrp">    -13.49305241 </i>
    <i name="e_0_energy">    -13.50558829 </i>
   </energy>
  </scstep>
  <scstep>
   <time name="dav">    0.03    0.03</time>
   <time name="total">    0.05    0.05</time>
   <energy>
    <i name="e_fr_energy">    -13.51820128 </i>
    <i name="e_wo_entrp">    -13.49257509 </i>
    <i name="e_0_energy">    -13.50538819 </i>
   </energy>
  </scstep>
  <scstep>
   <time name="dav">    0.03    0.03</time>
   <time name="total">    0.05    0.05</time>
   <energy>
    <i name="e_fr_energy">    -13.51847544 </i>
    <i name="e_wo_entrp">    -13.49276705 </i>
    <i name="e_0_energy">    -13.50562125 </i>
   </energy>
  </scstep>
  <scstep>
   <time name="dav">    0.03    0.03</time>
   <time name="total">    0.05    0.05</time>
   <energy>
    <i name="e_fr_energy">    -13.51818475 </i>
    <i name="e_wo_entrp">    -13.49252189 </i>
    <i name="e_0_energy">    -13.50535332 </i>
   </energy>
  </scstep>
  <scstep>
   <time name="dav">    0.03    0.03</time>
   <time name="total">    0.05    0.05</time>
   <energy>
    <i name="e_fr_energy">    -13.51823848 </i>
    <i name="e_wo_entrp">    -13.49265978 </i>
    <i name="e_0_energy">    -13.50544913 </i>
   </energy>
  </scstep>
  <scstep>
   <time name="dav">    0.02    0.02</time>
   <time name="total">    0.04    0.04</time>
   <energy>
    <i name="e_fr_energy">    -13.51799144 </i>
    <i name="e_wo_entrp">    -13.49254676 </i>
    <i name="e_0_energy">    -13.50526910 </i>
   </energy>
  </scstep>
  <scstep>
   <time name="dav">    0.02    0.02</time>
   <time name="total">    0.04    0.04</time>
   <energy>
    <i name="e_fr_energy">    -13.51797807 </i>
    <i name="e_wo_entrp">    -13.49259816 </i>
    <i name="e_0_energy">    -13.50528811 </i>
   </energy>
  </scstep>
  <scstep>
   <time name="dav">    0.02    0.02</time>
   <time name="total">    0.04    0.04</time>
   <energy>
    <i name="e_fr_energy">    -13.51790623 </i>
    <i name="e_wo_entrp">    -13.49259410 </i>
    <i name="e_0_energy">    -13.50525017 </i>
   </energy>
  </scstep>
  <scstep>
   <time name="dav">    0.02    0.02</time>
   <time name="total">    0.06    0.06</time>
   <energy>
    <i name="alphaZ">    117.79976220 </i>
    <i name="ewald">  -1171.43779597 </i>
    <i name="hartreedc">   -199.26155205 </i>
    <i name="XCdc">      6.35427174 </i>
    <i name="pawpsdc">   1378.81385595 </i>
    <i name="pawaedc">  -1395.25127105 </i>
    <i name="eentropy">     -0.02529123 </i>
    <i name="bandstr">     60.86624553 </i>
    <i name="atom">   1188.62386280 </i>
    <i name="e_fr_energy">    -13.51791208 </i>
    <i name="e_wo_entrp">    -13.49262084 </i>
    <i name="e_0_energy">    -13.50526646 </i>
   </energy>
  </scstep>
  <structure>
   <crystal>
    <varray name="basis" >
     <v>       2.86303550       0.00000000       0.00000000 </v>
     <v>      -0.00000000       2.86303550       0.00000000 </v>
     <v>       0.00000000       0.00000000       2.86303550 </v>
    </varray>
    <i name="volume">     23.46822259 </i>
    <varray name="rec_basis" >
     <v>       0.34927964       0.00000000      -0.00000000 </v>
     <v>       0.00000000       0.34927964       0.00000000 </v>
     <v>      -0.00000000      -0.00000000       0.34927964 </v>
    </varray>
   </crystal>
   <varray name="positions" >
    <v>       0.00000000       0.00000000       0.00000000 </v>
    <v>       0.50000000       0.50000000       0.50000000 </v>
   </varray>
  </structure>
  <varray name="forces" >
   <v>      -0.00000063      -0.00000275      -0.00000258 </v>
   <v>       0.00000063       0.00000275       0.00000258 </v>
  </varray>
  <varray name="stress" >
   <v>      39.94991604      -0.00011854      -0.00098330 </v>
   <v>      -0.00012017      38.80093112       0.00029200 </v>
   <v>      -0.00098372       0.00029358      40.39053847 </v>
  </varray>
  <energy>
   <i name="e_fr_energy">    -13.51791208 </i>
   <i name="e_wo_entrp">    -13.49262084 </i>
   <i name="e_0_energy">    -13.50526646 </i>
  </energy>
  <time name="totalsc">    5.71    5.86</time>
  <eigenvalues>
   <array>
    <dimension dim="1">band</dimension>
    <dimension dim="2">kpoint</dimension>
    <dimension dim="3">spin</dimension>
    <field>eigene</field>
    <field>occ</field>
    <set>
     <set comment="spin 1">
      <set comment="kpoint 1">
       <r>   -2.6712    1.0000 </r>
       <r>    1.8373    1.0000 </r>
       <r>    1.8379    1.0000 </r>
       <r>    4.4064    1.0000 </r>
       <r>    4.4078    1.0000 </r>
       <r>    4.4083    1.0000 </r>
       <r>    5.8829    1.0000 </r>
       <r>    5.8838    1.0000 </r>
       <r>    6.8757    0.0000 </r>
       <r>    6.8772    0.0000 </r>
       <r>    6.8777    0.0000 </r>
       <r>   15.3605    0.0000 </r>
      </set>
      <set comment="kpoint 2">
       <r>    1.3142    1.0000 </r>
       <r>    1.3171    1.0000 </r>
       <r>    3.8104    1.0000 </r>
       <r>    3.8250    1.0000 </r>
       <r>    4.7864    1.0000 </r>
       <r>    4.7953    1.0000 </r>
       <r>    4.8107    1.0000 </r>
       <r>    4.8162    1.0000 </r>
       <r>    5.5995    1.0000 </r>
       <r>    5.6286    1.0000 </r>
       <r>    6.8801    0.0000 </r>
       <r>    6.8933    0.0000 </r>
      </set>
      <set comment="kpoint 3">
       <r>    1.3148    1.0000 </r>
       <r>    1.3170    1.0000 </r>
       <r>    3.8090    1.0000 </r>
       <r>    3.8252    1.0000 </r>
       <r>    4.7895    1.0000 </r>
       <r>    4.7953    1.0000 </r>
       <r>    4.8107    1.0000 </r>
       <r>    4.8157    1.0000 </r>
       <r>    5.5960    1.0000 </r>
       <r>    5.6292    1.0000 </r>
       <r>    6.8810    0.0000 </r>
       <r>    6.8933    0.0000 </r>
      </set>
      <set comment="kpoint 4">
       <r>    1.3123    1.0000 </r>
       <r>    1.3187    1.0000 </r>
       <r>    3.8124    1.0000 </r>
       <r>    3.8226    1.0000 </r>
       <r>    4.7864    1.0000 </r>
       <r>    4.7895    1.0000 </r>
       <r>    4.8156    1.0000 </r>
       <r>    4.8161    1.0000 </r>
       <r>    5.6060    1.0000 </r>
       <r>    5.6230    1.0000 </r>
       <r>    6.8791    0.0000 </r>
       <r>    6.8950    0.0000 </r>
      </set>
      <set comment="kpoint 5">
       <r>    1.5015    1.0000 </r>
       <r>    1.5041    1.0000 </r>
       <r>    3.2627    1.0000 </r>
       <r>    3.2643    1.0000 </r>
       <r>    5.8660    1.0000 </r>
       <r>    5.8757    1.0000 </r>
       <r>    6.0712    0.2455 </r>
       <r>    6.0713    0.2445 </r>
       <r>    6.0913    0.1040 </r>
       <r>    6.1027    0.0570 </r>
       <r>    7.1510    0.0000 </r>
       <r>    7.1532    0.0000 </r>
      </set>
      <set comment="kpoint 6">
       <r>    1.4996    1.0000 </r>
       <r>    1.5051    1.0000 </r>
       <r>    3.2605    1.0000 </r>
       <r>    3.2670    1.0000 </r>
       <r>    5.8702    1.0000 </r>
       <r>    5.8711    1.0000 </r>
       <r>    6.0712    0.2456 </r>
       <r>    6.0716    0.2417 </r>
       <r>    6.0884    0.1197 </r>
       <r>    6.1060    0.0471 </r>
       <r>    7.1478    0.0000 </r>
       <r>    7.1568    0.0000 </r>
      </set>
      <set comment="kpoint 7">
       <r>    1.4986    1.0000 </r>
       <r>    1.5054    1.0000 </r>
       <r>    3.2620    1.0000 </r>
       <r>    3.2668    1.0000 </r>
       <r>    5.8698    1.0000 </r>
       <r>    5.8717    1.0000 </r>
       <r>    6.0709    0.2482 </r>
       <r>    6.0714    0.2433 </r>
       <r>    6.0867    0.1296 </r>
       <r>    6.1063    0.0463 </r>
       <r>    7.1497    0.0000 </r>
       <r>    7.1565    0.0000 </r>
      </set>
      <set comment="kpoint 8">
       <r>    3.2198    1.0000 </r>
       <r>    3.2220    1.0000 </r>
       <r>    3.2261    1.0000 </r>
       <r>    3.2371    1.0000 </r>
       <r>    3.2405    1.0000 </r>
       <r>    3.2409    1.0000 </r>
       <r>    6.1255    0.0131 </r>
       <r>    6.1309    0.0087 </r>
       <r>    6.1421    0.0035 </r>
       <r>    6.1468    0.0024 </r>
       <r>   14.4046    0.0000 </r>
       <r>   14.4096    0.0000 </r>
      </set>
     </set>
    </set>
   </array>
  </eigenvalues>
  <separator name="orbital magnetization" >
   <v name="MAGDIPOLOUT">      0.00000000      0.00000000      0.00000000</v>
  </separator>
  <dos>
   <i name="efermi">      6.04682366 </i>
   <total>
    <array>
     <dimension dim="1">gridpoints</dimension>
     <dimension dim="2">spin</dimension>
     <field>energy</field>
     <field>total</field>
     <field>integrated</field>
     <set>
      <set comment="spin 1">
       <r>    -3.5728     0.0000     0.0000 </r>
       <r>    -3.5067     0.0000     0.0000 </r>
       <r>    -3.4406     0.0000     0.0000 </r>
       <r>    -3.3745     0.0000     0.0000 </r>
       <r>    -3.3084     0.0000     0.0000 </r>
       <r>    -3.2423     0.0000     0.0000 </r>
       <r>    -3.1761     0.0000     0.0000 </r>
       <r>    -3.1100     0.0000     0.0000 </r>
       <r>    -3.0439     0.0000     0.0000 </r>
       <r>    -2.9778     0.0000     0.0000 </r>
       <r>    -2.9117     0.0000     0.0000 </r>
       <r>    -2.8456     0.0000     0.0000 </r>
       <r>    -2.7794     0.0042     0.0003 </r>
       <r>    -2.7133     0.4383     0.0293 </r>
       <r>    -2.6472     2.4001     0.1879 </r>
       <r>    -2.5811     0.9183     0.2487 </r>
       <r>    -2.5150     0.0203     0.2500 </r>
       <r>    -2.4489     0.0000     0.2500 </r>
       <r>    -2.3827     0.0000     0.2500 </r>
       <r>    -2.3166     0.0000     0.2500 </r>
       <r>    -2.2505     0.0000     0.2500 </r>
       <r>    -2.1844     0.0000     0.2500 </r>
       <r>    -2.1183     0.0000     0.2500 </r>
       <r>    -2.0522     0.0000     0.2500 </r>
       <r>    -1.9860     0.0000     0.2500 </r>
       <r>    -1.9199     0.0000     0.2500 </r>
       <r>    -1.8538     0.0000     0.2500 </r>
       <r>    -1.7877     0.0000     0.2500 </r>
       <r>    -1.7216     0.0000     0.2500 </r>
       <r>    -1.6555     0.0000     0.2500 </r>
       <r>    -1.5893     0.0000     0.2500 </r>
       <r>    -1.5232     0.0000     0.2500 </r>
       <r>    -1.4571     0.0000     0.2500 </r>
       <r>    -1.3910     0.0000     0.2500 </r>
       <r>    -1.3249     0.0000     0.2500 </r>
       <r>    -1.2588     0.0000     0.2500 </r>
       <r>    -1.1926     0.0000     0.2500 </r>
       <r>    -1.1265     0.0000     0.2500 </r>
       <r>    -1.0604     0.0000     0.2500 </r>
       <r>    -0.9943     0.0000     0.2500 </r>
       <r>    -0.9282     0.0000     0.2500 </r>
       <r>    -0.8621     0.0000     0.2500 </r>
       <r>    -0.7959     0.0000     0.2500 </r>
       <r>    -0.7298     0.0000     0.2500 </r>
       <r>    -0.6637     0.0000     0.2500 </r>
       <r>    -0.5976     0.0000     0.2500 </r>
       <r>    -0.5315     0.0000     0.2500 </r>
       <r>    -0.4654     0.0000     0.2500 </r>
       <r>    -0.3992     0.0000     0.2500 </r>
       <r>    -0.3331     0.0000     0.2500 </r>
       <r>    -0.2670     0.0000     0.2500 </r>
       <r>    -0.2009     0.0000     0.2500 </r>
       <r>    -0.1348     0.0000     0.2500 </r>
       <r>    -0.0687     0.0000     0.2500 </r>
       <r>    -0.0025     0.0000     0.2500 </r>
       <r>     0.0636     0.0000     0.2500 </r>
       <r>     0.1297     0.0000     0.2500 </r>
       <r>     0.1958     0.0000     0.2500 </r>
       <r>     0.2619     0.0000     0.2500 </r>
       <r>     0.3280     0.0000     0.2500 </r>
       <r>     0.3942     0.0000     0.2500 </r>
       <r>     0.4603     0.0000     0.2500 </r>
       <r>     0.5264     0.0000     0.2500 </r>
       <r>     0.5925     0.0000     0.2500 </r>
       <r>     0.6586     0.0000     0.2500 </r>
       <r>     0.7247     0.0000     0.2500 </r>
       <r>     0.7909     0.0000     0.2500 </r>
       <r>     0.8570     0.0000     0.2500 </r>
       <r>     0.9231     0.0000     0.2500 </r>
       <r>     0.9892     0.0000     0.2500 </r>
       <r>     1.0553     0.0000     0.2500 </r>
       <r>     1.1214     0.0000     0.2500 </r>
       <r>     1.1876     0.0034     0.2502 </r>
       <r>     1.2537     0.9050     0.3101 </r>
       <r>     1.3198    11.4871     1.0695 </r>
       <r>     1.3859     9.7663     1.7153 </r>
       <r>     1.4520     2.2887     1.8666 </r>
       <r>     1.5181    13.4764     2.7576 </r>
       <r>     1.5843     7.2104     3.2343 </r>
       <r>     1.6504     0.2368     3.2500 </r>
       <r>     1.7165     0.0027     3.2502 </r>
       <r>     1.7826     0.4513     3.2800 </r>
       <r>     1.8487     4.2626     3.5618 </r>
       <r>     1.9148     2.7370     3.7428 </r>
       <r>     1.9810     0.1090     3.7500 </r>
       <r>     2.0471     0.0002     3.7500 </r>
       <r>     2.1132     0.0000     3.7500 </r>
       <r>     2.1793     0.0000     3.7500 </r>
       <r>     2.2454     0.0000     3.7500 </r>
       <r>     2.3115     0.0000     3.7500 </r>
       <r>     2.3777     0.0000     3.7500 </r>
       <r>     2.4438     0.0000     3.7500 </r>
       <r>     2.5099     0.0000     3.7500 </r>
       <r>     2.5760     0.0000     3.7500 </r>
       <r>     2.6421     0.0000     3.7500 </r>
       <r>     2.7082     0.0000     3.7500 </r>
       <r>     2.7744     0.0000     3.7500 </r>
       <r>     2.8405     0.0000     3.7500 </r>
       <r>     2.9066     0.0000     3.7500 </r>
       <r>     2.9727     0.0000     3.7500 </r>
       <r>     3.0388     0.0000     3.7500 </r>
       <r>     3.1049     0.0060     3.7504 </r>
       <r>     3.1711     1.2215     3.8312 </r>
       <r>     3.2372    16.7391     4.9379 </r>
       <r>     3.3033    23.8529     6.5150 </r>
       <r>     3.3694     3.5205     6.7477 </r>
       <r>     3.4355     0.0345     6.7500 </r>
       <r>     3.5016     0.0000     6.7500 </r>
       <r>     3.5677     0.0000     6.7500 </r>
       <r>     3.6339     0.0000     6.7500 </r>
       <r>     3.7000     0.0126     6.7508 </r>
       <r>     3.7661     1.7392     6.8658 </r>
       <r>     3.8322    13.2052     7.7389 </r>
       <r>     3.8983     7.4501     8.2315 </r>
       <r>     3.9644     0.2797     8.2500 </r>
       <r>     4.0306     0.0005     8.2500 </r>
       <r>     4.0967     0.0000     8.2500 </r>
       <r>     4.1628     0.0000     8.2500 </r>
       <r>     4.2289     0.0000     8.2500 </r>
       <r>     4.2950     0.0083     8.2506 </r>
       <r>     4.3611     1.0683     8.3212 </r>
       <r>     4.4273     6.9971     8.7838 </r>
       <r>     4.4934     3.1837     8.9943 </r>
       <r>     4.5595     0.0860     9.0000 </r>
       <r>     4.6256     0.0001     9.0000 </r>
       <r>     4.6917     0.0687     9.0045 </r>
       <r>     4.7578     5.2854     9.3540 </r>
       <r>     4.8240    27.2318    11.1545 </r>
       <r>     4.8901    12.3659    11.9721 </r>
       <r>     4.9562     0.4219    12.0000 </r>
       <r>     5.0223     0.0007    12.0000 </r>
       <r>     5.0884     0.0000    12.0000 </r>
       <r>     5.1545     0.0000    12.0000 </r>
       <r>     5.2207     0.0000    12.0000 </r>
       <r>     5.2868     0.0000    12.0000 </r>
       <r>     5.3529     0.0000    12.0000 </r>
       <r>     5.4190     0.0000    12.0000 </r>
       <r>     5.4851     0.0071    12.0005 </r>
       <r>     5.5512     1.1241    12.0748 </r>
       <r>     5.6174    11.0733    12.8069 </r>
       <r>     5.6835     9.7419    13.4510 </r>
       <r>     5.7496     0.7453    13.5003 </r>
       <r>     5.8157     1.5762    13.6045 </r>
       <r>     5.8818    16.1970    14.6754 </r>
       <r>     5.9479    11.8869    15.4613 </r>
       <r>     6.0141     2.0435    15.5964 </r>
       <r>     6.0802    20.3907    16.9446 </r>
       <r>     6.1463    30.3636    18.9521 </r>
       <r>     6.2124     7.9946    19.4807 </r>
       <r>     6.2785     0.2911    19.5000 </r>
       <r>     6.3446     0.0007    19.5000 </r>
       <r>     6.4108     0.0000    19.5000 </r>
       <r>     6.4769     0.0000    19.5000 </r>
       <r>     6.5430     0.0000    19.5000 </r>
       <r>     6.6091     0.0000    19.5000 </r>
       <r>     6.6752     0.0000    19.5000 </r>
       <r>     6.7413     0.0013    19.5001 </r>
       <r>     6.8075     0.5905    19.5391 </r>
       <r>     6.8736    12.7190    20.3801 </r>
       <r>     6.9397    18.6654    21.6142 </r>
       <r>     7.0058     2.0426    21.7492 </r>
       <r>     7.0719     0.2761    21.7675 </r>
       <r>     7.1380     7.4950    22.2630 </r>
       <r>     7.2042    13.2748    23.1407 </r>
       <r>     7.2703     1.6430    23.2493 </r>
       <r>     7.3364     0.0103    23.2500 </r>
       <r>     7.4025     0.0000    23.2500 </r>
       <r>     7.4686     0.0000    23.2500 </r>
       <r>     7.5347     0.0000    23.2500 </r>
       <r>     7.6009     0.0000    23.2500 </r>
       <r>     7.6670     0.0000    23.2500 </r>
       <r>     7.7331     0.0000    23.2500 </r>
       <r>     7.7992     0.0000    23.2500 </r>
       <r>     7.8653     0.0000    23.2500 </r>
       <r>     7.9314     0.0000    23.2500 </r>
       <r>     7.9976     0.0000    23.2500 </r>
       <r>     8.0637     0.0000    23.2500 </r>
       <r>     8.1298     0.0000    23.2500 </r>
       <r>     8.1959     0.0000    23.2500 </r>
       <r>     8.2620     0.0000    23.2500 </r>
       <r>     8.3281     0.0000    23.2500 </r>
       <r>     8.3943     0.0000    23.2500 </r>
       <r>     8.4604     0.0000    23.2500 </r>
       <r>     8.5265     0.0000    23.2500 </r>
       <r>     8.5926     0.0000    23.2500 </r>
       <r>     8.6587     0.0000    23.2500 </r>
       <r>     8.7248     0.0000    23.2500 </r>
       <r>     8.7910     0.0000    23.2500 </r>
       <r>     8.8571     0.0000    23.2500 </r>
       <r>     8.9232     0.0000    23.2500 </r>
       <r>     8.9893     0.0000    23.2500 </r>
       <r>     9.0554     0.0000    23.2500 </r>
       <r>     9.1215     0.0000    23.2500 </r>
       <r>     9.1877     0.0000    23.2500 </r>
       <r>     9.2538     0.0000    23.2500 </r>
       <r>     9.3199     0.0000    23.2500 </r>
       <r>     9.3860     0.0000    23.2500 </r>
       <r>     9.4521     0.0000    23.2500 </r>
       <r>     9.5182     0.0000    23.2500 </r>
       <r>     9.5844     0.0000    23.2500 </r>
       <r>     9.6505     0.0000    23.2500 </r>
       <r>     9.7166     0.0000    23.2500 </r>
       <r>     9.7827     0.0000    23.2500 </r>
       <r>     9.8488     0.0000    23.2500 </r>
       <r>     9.9149     0.0000    23.2500 </r>
       <r>     9.9811     0.0000    23.2500 </r>
       <r>    10.0472     0.0000    23.2500 </r>
       <r>    10.1133     0.0000    23.2500 </r>
       <r>    10.1794     0.0000    23.2500 </r>
       <r>    10.2455     0.0000    23.2500 </r>
       <r>    10.3116     0.0000    23.2500 </r>
       <r>    10.3778     0.0000    23.2500 </r>
       <r>    10.4439     0.0000    23.2500 </r>
       <r>    10.5100     0.0000    23.2500 </r>
       <r>    10.5761     0.0000    23.2500 </r>
       <r>    10.6422     0.0000    23.2500 </r>
       <r>    10.7083     0.0000    23.2500 </r>
       <r>    10.7745     0.0000    23.2500 </r>
       <r>    10.8406     0.0000    23.2500 </r>
       <r>    10.9067     0.0000    23.2500 </r>
       <r>    10.9728     0.0000    23.2500 </r>
       <r>    11.0389     0.0000    23.2500 </r>
       <r>    11.1050     0.0000    23.2500 </r>
       <r>    11.1711     0.0000    23.2500 </r>
       <r>    11.2373     0.0000    23.2500 </r>
       <r>    11.3034     0.0000    23.2500 </r>
       <r>    11.3695     0.0000    23.2500 </r>
       <r>    11.4356     0.0000    23.2500 </r>
       <r>    11.5017     0.0000    23.2500 </r>
       <r>    11.5678     0.0000    23.2500 </r>
       <r>    11.6340     0.0000    23.2500 </r>
       <r>    11.7001     0.0000    23.2500 </r>
       <r>    11.7662     0.0000    23.2500 </r>
       <r>    11.8323     0.0000    23.2500 </r>
       <r>    11.8984     0.0000    23.2500 </r>
       <r>    11.9645     0.0000    23.2500 </r>
       <r>    12.0307     0.0000    23.2500 </r>
       <r>    12.0968     0.0000    23.2500 </r>
       <r>    12.1629     0.0000    23.2500 </r>
       <r>    12.2290     0.0000    23.2500 </r>
       <r>    12.2951     0.0000    23.2500 </r>
       <r>    12.3612     0.0000    23.2500 </r>
       <r>    12.4274     0.0000    23.2500 </r>
       <r>    12.4935     0.0000    23.2500 </r>
       <r>    12.5596     0.0000    23.2500 </r>
       <r>    12.6257     0.0000    23.2500 </r>
       <r>    12.6918     0.0000    23.2500 </r>
       <r>    12.7579     0.0000    23.2500 </r>
       <r>    12.8241     0.0000    23.2500 </r>
       <r>    12.8902     0.0000    23.2500 </r>
       <r>    12.9563     0.0000    23.2500 </r>
       <r>    13.0224     0.0000    23.2500 </r>
       <r>    13.0885     0.0000    23.2500 </r>
       <r>    13.1546     0.0000    23.2500 </r>
       <r>    13.2208     0.0000    23.2500 </r>
       <r>    13.2869     0.0000    23.2500 </r>
       <r>    13.3530     0.0000    23.2500 </r>
       <r>    13.4191     0.0000    23.2500 </r>
       <r>    13.4852     0.0000    23.2500 </r>
       <r>    13.5513     0.0000    23.2500 </r>
       <r>    13.6175     0.0000    23.2500 </r>
       <r>    13.6836     0.0000    23.2500 </r>
       <r>    13.7497     0.0000    23.2500 </r>
       <r>    13.8158     0.0000    23.2500 </r>
       <r>    13.8819     0.0000    23.2500 </r>
       <r>    13.9480     0.0000    23.2500 </r>
       <r>    14.0142     0.0000    23.2500 </r>
       <r>    14.0803     0.0000    23.2500 </r>
       <r>    14.1464     0.0000    23.2500 </r>
       <r>    14.2125     0.0000    23.2500 </r>
       <r>    14.2786     0.0011    23.2501 </r>
       <r>    14.3447     0.2958    23.2696 </r>
       <r>    14.4109     3.8035    23.5211 </r>
       <r>    14.4770     3.2780    23.7378 </r>
       <r>    14.5431     0.1836    23.7500 </r>
       <r>    14.6092     0.0005    23.7500 </r>
       <r>    14.6753     0.0000    23.7500 </r>
       <r>    14.7414     0.0000    23.7500 </r>
       <r>    14.8076     0.0000    23.7500 </r>
       <r>    14.8737     0.0000    23.7500 </r>
       <r>    14.9398     0.0000    23.7500 </r>
       <r>    15.0059     0.0000    23.7500 </r>
       <r>    15.0720     0.0000    23.7500 </r>
       <r>    15.1381     0.0000    23.7500 </r>
       <r>    15.2043     0.0000    23.7500 </r>
       <r>    15.2704     0.0203    23.7513 </r>
       <r>    15.3365     0.9183    23.8121 </r>
       <r>    15.4026     2.4001    23.9707 </r>
       <r>    15.4687     0.4383    23.9997 </r>
       <r>    15.5348     0.0042    24.0000 </r>
       <r>    15.6010     0.0000    24.0000 </r>
       <r>    15.6671     0.0000    24.0000 </r>
       <r>    15.7332     0.0000    24.0000 </r>
       <r>    15.7993     0.0000    24.0000 </r>
       <r>    15.8654     0.0000    24.0000 </r>
       <r>    15.9315     0.0000    24.0000 </r>
       <r>    15.9977     0.0000    24.0000 </r>
       <r>    16.0638     0.0000    24.0000 </r>
       <r>    16.1299     0.0000    24.0000 </r>
       <r>    16.1960     0.0000    24.0000 </r>
       <r>    16.2621     0.0000    24.0000 </r>
      </set>
     </set>
    </array>
   </total>
  </dos>
 </calculation>
 <structure name="finalpos" >
  <crystal>
   <varray name="basis" >
    <v>       2.86303550       0.00000000       0.00000000 </v>
    <v>      -0.00000000       2.86303550       0.00000000 </v>
    <v>       0.00000000       0.00000000       2.86303550 </v>
   </varray>
   <i name="volume">     23.46822259 </i>
   <varray name="rec_basis" >
    <v>       0.34927964       0.00000000      -0.00000000 </v>
    <v>       0.00000000       0.34927964       0.00000000 </v>
    <v>      -0.00000000      -0.00000000       0.34927964 </v>
   </varray>
  </crystal>
  <varray name="positions" >
   <v>       0.00000000       0.00000000       0.00000000 </v>
   <v>       0.50000000       0.50000000       0.50000000 </v>
  </varray>
 </structure>
</modeling>
