Ga48 O72                                
    1.000000000000000     
     0.0000000000000000   12.2804734172212839    0.0000000000000000
     9.1427020537309431    0.0000000000000000    0.0000000000000000
     0.0000000000000000   -2.7682617730220320  -11.3006977184464645
   Ga   O    P 
    48    71     1
Direct
  0.6591716442916512 -0.0036251832053205  0.1541642592042682
  0.6597206682206878 -0.0000945704871630  0.6584647349365212
  0.6591716442916512  0.3369585165386563  0.1541642592042682
  0.6597206682206878  0.3334279038204989  0.6584647349365212
  0.6579670875512333  0.6666666666666643  0.1563947472885695
  0.6590937977450902  0.6666666666666643  0.6590941060673519
  0.8219860863660456  0.1666666666666643  0.3721177505891509
  0.8430403432856028  0.1666666666666643  0.8491381840000404
  0.8409492115693890  0.5011518582041572  0.3407340112887624
  0.8414442775756493  0.4994784467162451  0.8468500828221711
  0.8409492115693890  0.8321814751291784  0.3407340112887624
  0.8414442775756493  0.8338548866170905  0.8468500828221711
  0.5849536257189794  0.1666666666666643  0.3991872122891828
  0.5915583299927961  0.1666666666666643  0.8985442235418408
  0.5932592691417571  0.5011984644727496  0.3994678901362773
  0.5878928492614764  0.5005817361090423  0.8954490282917575
  0.5932592691417571  0.8321348688605860  0.3994678901362773
  0.5878928492614764  0.8327515972242933  0.8954490282917575
  0.9138748348855145  0.0035828739529563  0.1082836803186767
  0.9093503032290422 -0.0029745356226869  0.6062628651618640
  0.9138748348855145  0.3297504593803794  0.1082836803186767
  0.9093503032290422  0.3363078689560228  0.6062628651618640
  0.9122524749045505  0.6666666666666643  0.1055488596671996
  0.9073686646407297  0.6666666666666643  0.6010680016060184
  0.1631304584984496  0.1666666666666643  0.1549984592209875
  0.1589756425083757  0.1666666666666643  0.6551692611810795
  0.1622577109706585  0.5000109161903047  0.1568995937768519
  0.1600395995891055  0.5004625152862087  0.6581336009952479
  0.1622577109706585  0.8333224171430315  0.1568995937768519
  0.1600395995891055  0.8328708180471270  0.6581336009952479
  0.3420842226782887 -0.0013112681983395  0.3434473298981817
  0.3404309240710395  0.0002036931347836  0.8429829182850841
  0.3420842226782887  0.3346446015316751  0.3434473298981817
  0.3404309240710395  0.3331296401985520  0.8429829182850841
  0.3428295013644703  0.6666666666666643  0.3438935976981294
  0.3403444548634174  0.6666666666666643  0.8442021310833798
  0.0947455515119247 -0.0054014515041101  0.3992481933226397
  0.0914655896242964  0.0013612167897883  0.8988525553111607
  0.0947455515119247  0.3387347848374458  0.3992481933226397
  0.0914655896242964  0.3319721165435475  0.8988525553111607
  0.0946788773495792  0.6666666666666643  0.3999750351431340
  0.0907023143550710  0.6666666666666643  0.8988028629914232
  0.4097242587300751  0.1666666666666643  0.1014089329452290
  0.4090364277352871  0.1666666666666643  0.6031040978020427
  0.4100330919752220  0.4996962580059838  0.1023400625683333
  0.4089389804851638  0.5000450070866372  0.6031005226264868
  0.4100330919752220  0.8336370753273518  0.1023400625683333
  0.4089389804851638  0.8332883262466985  0.6031005226264868
  0.0018620238928971  0.1666666666666643  0.0872511779826483
  0.9939614963832414  0.1666666666666643  0.6139066991763998
  0.0002905917233739  0.4995255105038257  0.1284005397411294
  0.9973794280265000  0.5014559843671920  0.6290334677207522
  0.0002905917233739  0.8338078228295099  0.1284005397411294
  0.9973794280265000  0.8318773489661437  0.6290334677207522
  0.5034449695041925 -0.0026252200123658  0.3740958589143034
  0.5029101247014500  0.0012807582213047  0.8718891645515056
  0.5034449695041925  0.3359585533457016  0.3740958589143034
  0.5029101247014500  0.3320525751120311  0.8718891645515056
  0.5044669202996352  0.6666666666666643  0.3758908780930224
  0.5008260072717505  0.6666666666666643  0.8683131653475190
  0.6701007153649262  0.1666666666666643  0.2836351518249273
  0.6735166879630641  0.1666666666666643  0.7820720698218828
  0.6695394570317850  0.5030165155304294  0.2798874283776358
  0.6730126972370256  0.5003892473454274  0.7821830944670708
  0.6695394570317850  0.8303168178029063  0.2798874283776358
  0.6730126972370256  0.8329440859879081  0.7821830944670708
  0.8189630953112439 -0.0235630655856858  0.2098885826972301
  0.8274783371147691 -0.0000859327830316  0.7220400312861165
  0.8189630953112439  0.3568963989190214  0.2098885826972301
  0.8274783371147691  0.3334192661163675  0.7220400312861165
  0.8270622111365369  0.6666666666666643  0.2187498852744356
  0.8280775512882315  0.6666666666666643  0.7208362378963373
  0.8188573502868115 -0.0135585936545220  0.4543055051035832
  0.8332712300198600 -0.0007316299912629  0.9489199825629219
  0.8188573502868115  0.3468919269878577  0.4543055051035832
  0.8332712300198600  0.3340649633245984  0.9489199825629219
  0.8293572950427581  0.6666666666666643  0.4452236762909078
  0.8350150863100048  0.6666666666666643  0.9484013737525824
  0.6667688594704185  0.1666666666666643  0.0554343831230586
  0.6664479950001598  0.1666666666666643  0.5547318531297184
  0.6609418321765756  0.5035973234124922  0.0508773369472301
  0.6655757152911118  0.5008545392087717  0.5571104249445188
  0.6609418321765756  0.8297360099208435  0.0508773369472301
  0.6655757152911118  0.8324787941245640  0.5571104249445188
  0.4970446050112574  0.0005785739954826  0.1277313384596083
  0.4966326919330239  0.0000699950062550  0.6286647245198341
  0.4970446050112574  0.3327547593378531  0.1277313384596083
  0.4966326919330239  0.3332633383270808  0.6286647245198341
  0.4953877779237978  0.6666666666666643  0.1266786079819227
  0.4960519535415397  0.6666666666666643  0.6288052788498608
  0.0039346325316991  0.1666666666666643  0.8568501281445114
  0.0045200087290200  0.5055112048495268  0.3787002381876320
  0.0043459675105624  0.4992129644073099  0.8738654305079331
  0.0045200087290200  0.8278221284838089  0.3787002381876320
  0.0043459675105624  0.8341203689260256  0.8738654305079331
  0.1786021265791843 -0.0041498808140862  0.2791728760398751
  0.1720398087419605  0.0004455952820814  0.7799503773497313
  0.1786021265791843  0.3374832141474220  0.2791728760398751
  0.1720398087419605  0.3328877380512544  0.7799503773497313
  0.1749987436706104  0.6666666666666643  0.2817184174132690
  0.1729514849892144  0.6666666666666643  0.7821340987816995
  0.3305884846021767  0.1666666666666643  0.2198671975840230
  0.3272147503257351  0.1666666666666643  0.7195694276761289
  0.3306047651760496  0.5021916895554021  0.2202479992084664
  0.3281289961690289  0.4997276308936899  0.7208278192070176
  0.3306047651760496  0.8311416437779336  0.2202479992084664
  0.3281289961690289  0.8336057024396460  0.7208278192070176
  0.3350024959862944  0.1666666666666643  0.4458936510473460
  0.3324891561775550  0.1666666666666643  0.9452421441073000
  0.3324801777409427  0.5004396775826402  0.4468059953059028
  0.3331510774785481  0.4994158867579095  0.9458619811481901
  0.3324801777409427  0.8328936557506956  0.4468059953059028
  0.3331510774785481  0.8339174465754260  0.9458619811481901
  0.1751173787712916 -0.0015686655639559  0.0526764437483353
  0.1722392825173652 -0.0024047163127504  0.5562564740319348
  0.1751173787712916  0.3349019988972916  0.0526764437483353
  0.1722392825173652  0.3357380496460861  0.5562564740319348
  0.1702529160316752  0.6666666666666643  0.0543266133335520
  0.1718489406426494  0.6666666666666643  0.5569635389537280
 -0.0202874191840127  0.1666666666666643  0.3167079933529765
 
  0.00000000E+00  0.00000000E+00  0.00000000E+00
  0.00000000E+00  0.00000000E+00  0.00000000E+00
  0.00000000E+00  0.00000000E+00  0.00000000E+00
  0.00000000E+00  0.00000000E+00  0.00000000E+00
  0.00000000E+00  0.00000000E+00  0.00000000E+00
  0.00000000E+00  0.00000000E+00  0.00000000E+00
  0.00000000E+00  0.00000000E+00  0.00000000E+00
  0.00000000E+00  0.00000000E+00  0.00000000E+00
  0.00000000E+00  0.00000000E+00  0.00000000E+00
  0.00000000E+00  0.00000000E+00  0.00000000E+00
  0.00000000E+00  0.00000000E+00  0.00000000E+00
  0.00000000E+00  0.00000000E+00  0.00000000E+00
  0.00000000E+00  0.00000000E+00  0.00000000E+00
  0.00000000E+00  0.00000000E+00  0.00000000E+00
  0.00000000E+00  0.00000000E+00  0.00000000E+00
  0.00000000E+00  0.00000000E+00  0.00000000E+00
  0.00000000E+00  0.00000000E+00  0.00000000E+00
  0.00000000E+00  0.00000000E+00  0.00000000E+00
  0.00000000E+00  0.00000000E+00  0.00000000E+00
  0.00000000E+00  0.00000000E+00  0.00000000E+00
  0.00000000E+00  0.00000000E+00  0.00000000E+00
  0.00000000E+00  0.00000000E+00  0.00000000E+00
  0.00000000E+00  0.00000000E+00  0.00000000E+00
  0.00000000E+00  0.00000000E+00  0.00000000E+00
  0.00000000E+00  0.00000000E+00  0.00000000E+00
  0.00000000E+00  0.00000000E+00  0.00000000E+00
  0.00000000E+00  0.00000000E+00  0.00000000E+00
  0.00000000E+00  0.00000000E+00  0.00000000E+00
  0.00000000E+00  0.00000000E+00  0.00000000E+00
  0.00000000E+00  0.00000000E+00  0.00000000E+00
  0.00000000E+00  0.00000000E+00  0.00000000E+00
  0.00000000E+00  0.00000000E+00  0.00000000E+00
  0.00000000E+00  0.00000000E+00  0.00000000E+00
  0.00000000E+00  0.00000000E+00  0.00000000E+00
  0.00000000E+00  0.00000000E+00  0.00000000E+00
  0.00000000E+00  0.00000000E+00  0.00000000E+00
  0.00000000E+00  0.00000000E+00  0.00000000E+00
  0.00000000E+00  0.00000000E+00  0.00000000E+00
  0.00000000E+00  0.00000000E+00  0.00000000E+00
  0.00000000E+00  0.00000000E+00  0.00000000E+00
  0.00000000E+00  0.00000000E+00  0.00000000E+00
  0.00000000E+00  0.00000000E+00  0.00000000E+00
  0.00000000E+00  0.00000000E+00  0.00000000E+00
  0.00000000E+00  0.00000000E+00  0.00000000E+00
  0.00000000E+00  0.00000000E+00  0.00000000E+00
  0.00000000E+00  0.00000000E+00  0.00000000E+00
  0.00000000E+00  0.00000000E+00  0.00000000E+00
  0.00000000E+00  0.00000000E+00  0.00000000E+00
  0.00000000E+00  0.00000000E+00  0.00000000E+00
  0.00000000E+00  0.00000000E+00  0.00000000E+00
  0.00000000E+00  0.00000000E+00  0.00000000E+00
  0.00000000E+00  0.00000000E+00  0.00000000E+00
  0.00000000E+00  0.00000000E+00  0.00000000E+00
  0.00000000E+00  0.00000000E+00  0.00000000E+00
  0.00000000E+00  0.00000000E+00  0.00000000E+00
  0.00000000E+00  0.00000000E+00  0.00000000E+00
  0.00000000E+00  0.00000000E+00  0.00000000E+00
  0.00000000E+00  0.00000000E+00  0.00000000E+00
  0.00000000E+00  0.00000000E+00  0.00000000E+00
  0.00000000E+00  0.00000000E+00  0.00000000E+00
  0.00000000E+00  0.00000000E+00  0.00000000E+00
  0.00000000E+00  0.00000000E+00  0.00000000E+00
  0.00000000E+00  0.00000000E+00  0.00000000E+00
  0.00000000E+00  0.00000000E+00  0.00000000E+00
  0.00000000E+00  0.00000000E+00  0.00000000E+00
  0.00000000E+00  0.00000000E+00  0.00000000E+00
  0.00000000E+00  0.00000000E+00  0.00000000E+00
  0.00000000E+00  0.00000000E+00  0.00000000E+00
  0.00000000E+00  0.00000000E+00  0.00000000E+00
  0.00000000E+00  0.00000000E+00  0.00000000E+00
  0.00000000E+00  0.00000000E+00  0.00000000E+00
  0.00000000E+00  0.00000000E+00  0.00000000E+00
  0.00000000E+00  0.00000000E+00  0.00000000E+00
  0.00000000E+00  0.00000000E+00  0.00000000E+00
  0.00000000E+00  0.00000000E+00  0.00000000E+00
  0.00000000E+00  0.00000000E+00  0.00000000E+00
  0.00000000E+00  0.00000000E+00  0.00000000E+00
  0.00000000E+00  0.00000000E+00  0.00000000E+00
  0.00000000E+00  0.00000000E+00  0.00000000E+00
  0.00000000E+00  0.00000000E+00  0.00000000E+00
  0.00000000E+00  0.00000000E+00  0.00000000E+00
  0.00000000E+00  0.00000000E+00  0.00000000E+00
  0.00000000E+00  0.00000000E+00  0.00000000E+00
  0.00000000E+00  0.00000000E+00  0.00000000E+00
  0.00000000E+00  0.00000000E+00  0.00000000E+00
  0.00000000E+00  0.00000000E+00  0.00000000E+00
  0.00000000E+00  0.00000000E+00  0.00000000E+00
  0.00000000E+00  0.00000000E+00  0.00000000E+00
  0.00000000E+00  0.00000000E+00  0.00000000E+00
  0.00000000E+00  0.00000000E+00  0.00000000E+00
  0.00000000E+00  0.00000000E+00  0.00000000E+00
  0.00000000E+00  0.00000000E+00  0.00000000E+00
  0.00000000E+00  0.00000000E+00  0.00000000E+00
  0.00000000E+00  0.00000000E+00  0.00000000E+00
  0.00000000E+00  0.00000000E+00  0.00000000E+00
  0.00000000E+00  0.00000000E+00  0.00000000E+00
  0.00000000E+00  0.00000000E+00  0.00000000E+00
  0.00000000E+00  0.00000000E+00  0.00000000E+00
  0.00000000E+00  0.00000000E+00  0.00000000E+00
  0.00000000E+00  0.00000000E+00  0.00000000E+00
  0.00000000E+00  0.00000000E+00  0.00000000E+00
  0.00000000E+00  0.00000000E+00  0.00000000E+00
  0.00000000E+00  0.00000000E+00  0.00000000E+00
  0.00000000E+00  0.00000000E+00  0.00000000E+00
  0.00000000E+00  0.00000000E+00  0.00000000E+00
  0.00000000E+00  0.00000000E+00  0.00000000E+00
  0.00000000E+00  0.00000000E+00  0.00000000E+00
  0.00000000E+00  0.00000000E+00  0.00000000E+00
  0.00000000E+00  0.00000000E+00  0.00000000E+00
  0.00000000E+00  0.00000000E+00  0.00000000E+00
  0.00000000E+00  0.00000000E+00  0.00000000E+00
  0.00000000E+00  0.00000000E+00  0.00000000E+00
  0.00000000E+00  0.00000000E+00  0.00000000E+00
  0.00000000E+00  0.00000000E+00  0.00000000E+00
  0.00000000E+00  0.00000000E+00  0.00000000E+00
  0.00000000E+00  0.00000000E+00  0.00000000E+00
  0.00000000E+00  0.00000000E+00  0.00000000E+00
  0.00000000E+00  0.00000000E+00  0.00000000E+00
  0.00000000E+00  0.00000000E+00  0.00000000E+00
  0.00000000E+00  0.00000000E+00  0.00000000E+00
