       N       E                     dE             d eps       ncg     rms          ort
DAV:   1    -0.184601666991E+05   -0.18460E+05   -0.54795E+05  5048   0.744E+03
DAV:   2    -0.623614056511E+05   -0.43901E+05   -0.42612E+05  5048   0.120E+03
DAV:   3    -0.668829915987E+05   -0.45216E+04   -0.40486E+04  5048   0.351E+02
DAV:   4    -0.674002360927E+05   -0.51724E+03   -0.43430E+03  5048   0.102E+02
DAV:   5    -0.373464603064E+05    0.30054E+05   -0.69223E+02  5048   0.531E+01
SDA:   6     0.177574571478E+05    0.55104E+05   -0.69223E+02  5048   0.931E+05 0.000E+00
CGA:   7     0.420307438674E+04   -0.13554E+05   -0.12992E+05  5048   0.258E+05-0.521E+04
CGA:   8     0.135742358634E+04   -0.28457E+04   -0.25684E+04  5048   0.109E+05-0.367E+04
CGA:   9     0.554992351039E+03   -0.80243E+03   -0.97743E+03  5048   0.612E+04 0.565E+02
CGA:  10     0.135369823126E+03   -0.41962E+03   -0.58082E+03  5048   0.537E+04-0.117E+03
CGA:  11    -0.356566198642E+03   -0.49194E+03   -0.58801E+03  5048   0.188E+04-0.375E+02
CGA:  12    -0.683303257539E+03   -0.32674E+03   -0.32831E+03  5048   0.584E+03 0.184E+03
CGA:  13    -0.820323192326E+03   -0.13702E+03   -0.13474E+03  5048   0.224E+03 0.433E+02
CGA:  14    -0.892395234681E+03   -0.72072E+02   -0.71294E+02  5048   0.128E+03-0.418E+01
CGA:  15    -0.922846204828E+03   -0.30451E+02   -0.30627E+02  5048   0.652E+02 0.115E+01
CGA:  16    -0.937285948985E+03   -0.14440E+02   -0.14222E+02  5048   0.259E+02 0.518E+01
CGA:  17    -0.944377874973E+03   -0.70919E+01   -0.73239E+01  5048   0.118E+02-0.192E+01
CGA:  18    -0.946671467787E+03   -0.22936E+01   -0.22972E+01  5048   0.717E+01-0.160E+00
CGA:  19    -0.948225954699E+03   -0.15545E+01   -0.15563E+01  5048   0.255E+01-0.719E-01
CGA:  20    -0.948987246688E+03   -0.76129E+00   -0.76059E+00  5048   0.161E+01-0.452E-02
CGA:  21    -0.949405323797E+03   -0.41808E+00   -0.44908E+00  5048   0.231E+01-0.424E+00
CGA:  22    -0.949545613114E+03   -0.14029E+00   -0.93153E-01  5048   0.299E+01 0.626E+00
CGA:  23    -0.949695635763E+03   -0.15002E+00   -0.75993E-01  5048   0.260E+01 0.285E+01
CGA:  24    -0.950055947681E+03   -0.36031E+00   -0.36176E+00  5048   0.114E+01 0.361E-02
CGA:  25    -0.950483244002E+03   -0.42730E+00   -0.44301E+00  5048   0.895E+00-0.794E-01
CGA:  26    -0.950787533895E+03   -0.30429E+00   -0.31705E+00  5048   0.528E+00-0.716E-01
CGA:  27    -0.950910758418E+03   -0.12322E+00   -0.12242E+00  5048   0.196E+00 0.103E-01
CGA:  28    -0.950974857541E+03   -0.64099E-01   -0.64468E-01  5048   0.733E-01-0.229E-02
CGA:  29    -0.950999483052E+03   -0.24626E-01   -0.24550E-01  5048   0.377E-01 0.576E-03
CGA:  30    -0.951014688205E+03   -0.15205E-01   -0.15231E-01  5048   0.311E-01-0.191E-03
CGA:  31    -0.951024252894E+03   -0.95647E-02   -0.96619E-02  5048   0.177E-01-0.925E-03
CGA:  32    -0.951029224411E+03   -0.49715E-02   -0.49730E-02  5048   0.789E-02-0.295E-04
CGA:  33    -0.951032144663E+03   -0.29203E-02   -0.29192E-02  5048   0.353E-02 0.128E-04
CGA:  34    -0.951033406927E+03   -0.12623E-02   -0.12613E-02  5048   0.175E-02 0.913E-05
CGA:  35    -0.951034055107E+03   -0.64818E-03   -0.64697E-03  5048   0.121E-02 0.916E-05
CGA:  36    -0.951034397774E+03   -0.34267E-03   -0.34276E-03  5048   0.643E-03-0.269E-05
CGA:  37    -0.951034613639E+03   -0.21587E-03   -0.21646E-03  5048   0.319E-03-0.686E-05
CGA:  38    -0.951034718795E+03   -0.10516E-03   -0.10567E-03  5048   0.129E-03-0.652E-05
CGA:  39    -0.951034761893E+03   -0.43097E-04   -0.43355E-04  5048   0.623E-04-0.314E-05
CGA:  40    -0.951034780095E+03   -0.18203E-04   -0.18200E-04  5048   0.355E-04 0.887E-07
CGA:  41    -0.951034789498E+03   -0.94024E-05   -0.94087E-05  5048   0.187E-04 0.133E-05
   1 F= -.95103479E+03 E0= -.95102309E+03  d E =-.234024E-01
