Ga8 O12                                 
    1.000000000000000     
     0.0000000000000000   12.2804737091000007    0.0000000000000000
     9.1427011490000005    0.0000000000000000    0.0000000000000000
     0.0000000000000000   -2.7682616411000001  -11.3006974810000003
   Ga   O    Cu   N 
    47    71     1     1
Direct
  0.6593637847706006 -0.0012985975220960  0.1557027534428956
  0.6599856333895938 -0.0001957920320749  0.6573149996218781
  0.6593637847706006  0.3346315975220994  0.1557027534428956
  0.6599856333895938  0.3335287920320781  0.6573149996218781
  0.6577418466363214  0.6666669999999968  0.1559559003396822
  0.6599556240694424  0.6666669999999968  0.6566173205262067
  0.8418374241127737  0.1666669999999968  0.8430894138236190
  0.8400691942012365  0.5009088571460995  0.3417922715977207
  0.8420979007034186  0.5002114680638678  0.8434223754715962
  0.8400691942012365  0.8324241428539038  0.3417922715977207
  0.8420979007034186  0.8331215319361355  0.8434223754715962
  0.5941397347792219  0.1666669999999968  0.3991023486399770
  0.5913056382612825  0.1666669999999968  0.8978499868385162
  0.5913273137608285  0.4997333647494786  0.3975614147633831
  0.5902308172590782  0.5001546990970216  0.8962236421122128
  0.5913273137608285  0.8335996352505249  0.3975614147633831
  0.5902308172590782  0.8331783009029815  0.8962236421122128
  0.9093180126991796 -0.0012731283432663  0.1024479041408757
  0.9085468461755902 -0.0007498132708093  0.6010528199259966
  0.9093180126991796  0.3346061283432696  0.1024479041408757
  0.9085468461755902  0.3340828132708124  0.6010528199259966
  0.9094154278686907  0.6666669999999968  0.1028556562847729
  0.9088139372509232  0.6666669999999968  0.6011095030515045
  0.1599028810800316  0.1666669999999968  0.1591254255894544
  0.1593618699842064  0.1666669999999968  0.6554404558283197
  0.1597775757818840  0.4998848581985622  0.1577906736584190
  0.1591532016426569  0.4998378455185491  0.6564538099117648
  0.1597775757818840  0.8334481418014410  0.1577906736584190
  0.1591532016426569  0.8334951544814545  0.6564538099117648
  0.3413744077405190  0.0003980913765184  0.3451068884349180
  0.3408390924721496  0.0002644377213944  0.8433327759136690
  0.3413744077405190  0.3329349086234848  0.3451068884349180
  0.3408390924721496  0.3330685622786087  0.8433327759136690
  0.3419444721684877  0.6666669999999968  0.3442852753203249
  0.3404831772619558  0.6666669999999968  0.8439022380498933
  0.0849170887341248 -0.0002928425694452  0.3968249427263180
  0.0920271860214484 -0.0000838898396945  0.8982345829353534
  0.0849170887341247  0.3336258425694487  0.3968249427263180
  0.0920271860214484  0.3334168898396978  0.8982345829353534
  0.0926468620413630  0.6666669999999968  0.3983970695974438
  0.0920429294920847  0.6666669999999968  0.8985660904264542
  0.4085951529312343  0.1666669999999968  0.1029318966651848
  0.4103527276541312  0.1666669999999968  0.6034003066262149
  0.4089294936530783  0.4992500582662263  0.1028735962348852
  0.4097726085829039  0.5000413196381033  0.6032884650757546
  0.4089294936530783  0.8340829417337771  0.1028735962348852
  0.4097726085829039  0.8332916803618999  0.6032884650757546
  0.9962628295855108  0.1666669999999968  0.1309222579798536
  0.9957378185876870  0.1666669999999968  0.6226269670921684
  0.9975198379999642  0.5005390877398628  0.1276754166575095
  0.9967435922983077  0.5003458478674108  0.6275334171584595
  0.9975198379999642  0.8327939122601405  0.1276754166575095
  0.9967435922983077  0.8329871521325924  0.6275334171584595
  0.5048590109906786  0.0012647983552896  0.3731267808794810
  0.5034161425598372  0.0003920397690378  0.8725615691839173
  0.5048590109906786  0.3320682016447136  0.3731267808794810
  0.5034161425598372  0.3329409602309655  0.8725615691839173
  0.5039758161669676  0.6666669999999968  0.3732337904144971
  0.5026179663226107  0.6666669999999968  0.8713841724504375
  0.6773304551405809  0.1666669999999968  0.2823587778023624
  0.6734663117308592  0.1666669999999968  0.7813241959156180
  0.6708457420721374  0.5010175313932405  0.2792089782610046
  0.6734467868466615  0.4999812067543737  0.7807202830673450
  0.6708457420721374  0.8323154686067628  0.2792089782610046
  0.6734467868466615  0.8333517932456292  0.7807202830673450
  0.8249974578893730 -0.0084428703574017  0.2155738764173706
  0.8285564472115424  0.0000306333850814  0.7197112027611628
  0.8249974578893730  0.3417758703574048  0.2155738764173706
  0.8285564472115424  0.3333023666149219  0.7197112027611628
  0.8262161501215751  0.6666669999999968  0.2181657223675975
  0.8281814839822058  0.6666669999999968  0.7194480654037420
  0.8290504312180057 -0.0050799112387059  0.4457028604882475
  0.8338257975598591  0.0001934037478117  0.9456798245853729
  0.8290504312180057  0.3384129112387092  0.4457028604882475
  0.8338257975598591  0.3331395962521916  0.9456798245853729
  0.8300072064039307  0.6666669999999968  0.4452716433342019
  0.8334331340069041  0.6666669999999968  0.9459257999371135
  0.6677317642251649  0.1666669999999968  0.0545534654960492
  0.6693284303825062  0.1666669999999968  0.5557763143074756
  0.6659168959596118  0.5009758091215877  0.0526688387991397
  0.6681190881614977  0.4998186437983645  0.5543384145344945
  0.6659168959596118  0.8323571908784155  0.0526688387991397
  0.6681190881614977  0.8335143562016386  0.5543384145344945
  0.4968467321907650  0.0007808655331983  0.1280590296203944
  0.4974204915929814 -0.0001651861519396  0.6283371527091597
  0.4968467321907650  0.3325521344668050  0.1280590296203944
  0.4974204915929814  0.3334981861519427  0.6283371527091597
  0.4950886499510677  0.6666669999999968  0.1268299313019601
  0.4972932312993142  0.6666669999999968  0.6281585940331799
  0.0045280936179445  0.1666669999999968  0.8725382727907253
  0.0025821042224702  0.5037105192968653  0.3725809122657341
  0.0047092136618722  0.5000537680138144  0.8732213261069914
  0.0025821042224702  0.8296224807031379  0.3725809122657341
  0.0047092136618722  0.8332792319861885  0.8732213261069914
  0.1719729350565745  0.0003067676778460  0.2826028081568532
  0.1724617150692095  0.0006094621127042  0.7801114385196486
  0.1719729350565745  0.3330262323221571  0.2826028081568532
  0.1724617150692095  0.3327235378872990  0.7801114385196486
  0.1740486415434283  0.6666669999999968  0.2813123809164062
  0.1729914628400373  0.6666669999999968  0.7808220194288319
  0.3276100354167213  0.1666669999999968  0.2206542402510702
  0.3273946819540116  0.1666669999999968  0.7192598210189721
  0.3278319817136192  0.4986621617852081  0.2204684190310825
  0.3274640687223325  0.4993261786750449  0.7196976546392816
  0.3278319817136192  0.8346708382147952  0.2204684190310825
  0.3274640687223325  0.8340068213249583  0.7196976546392816
  0.3335276226348555  0.1666669999999968  0.4471423624227578
  0.3319313258256592  0.1666669999999968  0.9461480009517553
  0.3336170710871652  0.5000331243530611  0.4466796035683481
  0.3319903301115371  0.4993240305808956  0.9461605189214234
  0.3336170710871652  0.8332998756469420  0.4466796035683481
  0.3319903301115371  0.8340089694191081  0.9461605189214234
  0.1675128418327084  0.0007282786234648  0.0553867719563023
  0.1666643178071752 -0.0002882947190285  0.5528857637613070
  0.1675128418327084  0.3326047213765385  0.0553867719563023
  0.1666643178071752  0.3336212947190318  0.5528857637613070
  0.1692020484996870  0.6666669999999968  0.0551479459473223
  0.1692921503376096  0.6666669999999968  0.5548966950101772
  0.8396538164533240  0.1666669999999968  0.3402199721772146
 -0.0075932154706629  0.1666669999999968  0.3630161476055968
 
  0.00000000E+00  0.00000000E+00  0.00000000E+00
  0.00000000E+00  0.00000000E+00  0.00000000E+00
  0.00000000E+00  0.00000000E+00  0.00000000E+00
  0.00000000E+00  0.00000000E+00  0.00000000E+00
  0.00000000E+00  0.00000000E+00  0.00000000E+00
  0.00000000E+00  0.00000000E+00  0.00000000E+00
  0.00000000E+00  0.00000000E+00  0.00000000E+00
  0.00000000E+00  0.00000000E+00  0.00000000E+00
  0.00000000E+00  0.00000000E+00  0.00000000E+00
  0.00000000E+00  0.00000000E+00  0.00000000E+00
  0.00000000E+00  0.00000000E+00  0.00000000E+00
  0.00000000E+00  0.00000000E+00  0.00000000E+00
  0.00000000E+00  0.00000000E+00  0.00000000E+00
  0.00000000E+00  0.00000000E+00  0.00000000E+00
  0.00000000E+00  0.00000000E+00  0.00000000E+00
  0.00000000E+00  0.00000000E+00  0.00000000E+00
  0.00000000E+00  0.00000000E+00  0.00000000E+00
  0.00000000E+00  0.00000000E+00  0.00000000E+00
  0.00000000E+00  0.00000000E+00  0.00000000E+00
  0.00000000E+00  0.00000000E+00  0.00000000E+00
  0.00000000E+00  0.00000000E+00  0.00000000E+00
  0.00000000E+00  0.00000000E+00  0.00000000E+00
  0.00000000E+00  0.00000000E+00  0.00000000E+00
  0.00000000E+00  0.00000000E+00  0.00000000E+00
  0.00000000E+00  0.00000000E+00  0.00000000E+00
  0.00000000E+00  0.00000000E+00  0.00000000E+00
  0.00000000E+00  0.00000000E+00  0.00000000E+00
  0.00000000E+00  0.00000000E+00  0.00000000E+00
  0.00000000E+00  0.00000000E+00  0.00000000E+00
  0.00000000E+00  0.00000000E+00  0.00000000E+00
  0.00000000E+00  0.00000000E+00  0.00000000E+00
  0.00000000E+00  0.00000000E+00  0.00000000E+00
  0.00000000E+00  0.00000000E+00  0.00000000E+00
  0.00000000E+00  0.00000000E+00  0.00000000E+00
  0.00000000E+00  0.00000000E+00  0.00000000E+00
  0.00000000E+00  0.00000000E+00  0.00000000E+00
  0.00000000E+00  0.00000000E+00  0.00000000E+00
  0.00000000E+00  0.00000000E+00  0.00000000E+00
  0.00000000E+00  0.00000000E+00  0.00000000E+00
  0.00000000E+00  0.00000000E+00  0.00000000E+00
  0.00000000E+00  0.00000000E+00  0.00000000E+00
  0.00000000E+00  0.00000000E+00  0.00000000E+00
  0.00000000E+00  0.00000000E+00  0.00000000E+00
  0.00000000E+00  0.00000000E+00  0.00000000E+00
  0.00000000E+00  0.00000000E+00  0.00000000E+00
  0.00000000E+00  0.00000000E+00  0.00000000E+00
  0.00000000E+00  0.00000000E+00  0.00000000E+00
  0.00000000E+00  0.00000000E+00  0.00000000E+00
  0.00000000E+00  0.00000000E+00  0.00000000E+00
  0.00000000E+00  0.00000000E+00  0.00000000E+00
  0.00000000E+00  0.00000000E+00  0.00000000E+00
  0.00000000E+00  0.00000000E+00  0.00000000E+00
  0.00000000E+00  0.00000000E+00  0.00000000E+00
  0.00000000E+00  0.00000000E+00  0.00000000E+00
  0.00000000E+00  0.00000000E+00  0.00000000E+00
  0.00000000E+00  0.00000000E+00  0.00000000E+00
  0.00000000E+00  0.00000000E+00  0.00000000E+00
  0.00000000E+00  0.00000000E+00  0.00000000E+00
  0.00000000E+00  0.00000000E+00  0.00000000E+00
  0.00000000E+00  0.00000000E+00  0.00000000E+00
  0.00000000E+00  0.00000000E+00  0.00000000E+00
  0.00000000E+00  0.00000000E+00  0.00000000E+00
  0.00000000E+00  0.00000000E+00  0.00000000E+00
  0.00000000E+00  0.00000000E+00  0.00000000E+00
  0.00000000E+00  0.00000000E+00  0.00000000E+00
  0.00000000E+00  0.00000000E+00  0.00000000E+00
  0.00000000E+00  0.00000000E+00  0.00000000E+00
  0.00000000E+00  0.00000000E+00  0.00000000E+00
  0.00000000E+00  0.00000000E+00  0.00000000E+00
  0.00000000E+00  0.00000000E+00  0.00000000E+00
  0.00000000E+00  0.00000000E+00  0.00000000E+00
  0.00000000E+00  0.00000000E+00  0.00000000E+00
  0.00000000E+00  0.00000000E+00  0.00000000E+00
  0.00000000E+00  0.00000000E+00  0.00000000E+00
  0.00000000E+00  0.00000000E+00  0.00000000E+00
  0.00000000E+00  0.00000000E+00  0.00000000E+00
  0.00000000E+00  0.00000000E+00  0.00000000E+00
  0.00000000E+00  0.00000000E+00  0.00000000E+00
  0.00000000E+00  0.00000000E+00  0.00000000E+00
  0.00000000E+00  0.00000000E+00  0.00000000E+00
  0.00000000E+00  0.00000000E+00  0.00000000E+00
  0.00000000E+00  0.00000000E+00  0.00000000E+00
  0.00000000E+00  0.00000000E+00  0.00000000E+00
  0.00000000E+00  0.00000000E+00  0.00000000E+00
  0.00000000E+00  0.00000000E+00  0.00000000E+00
  0.00000000E+00  0.00000000E+00  0.00000000E+00
  0.00000000E+00  0.00000000E+00  0.00000000E+00
  0.00000000E+00  0.00000000E+00  0.00000000E+00
  0.00000000E+00  0.00000000E+00  0.00000000E+00
  0.00000000E+00  0.00000000E+00  0.00000000E+00
  0.00000000E+00  0.00000000E+00  0.00000000E+00
  0.00000000E+00  0.00000000E+00  0.00000000E+00
  0.00000000E+00  0.00000000E+00  0.00000000E+00
  0.00000000E+00  0.00000000E+00  0.00000000E+00
  0.00000000E+00  0.00000000E+00  0.00000000E+00
  0.00000000E+00  0.00000000E+00  0.00000000E+00
  0.00000000E+00  0.00000000E+00  0.00000000E+00
  0.00000000E+00  0.00000000E+00  0.00000000E+00
  0.00000000E+00  0.00000000E+00  0.00000000E+00
  0.00000000E+00  0.00000000E+00  0.00000000E+00
  0.00000000E+00  0.00000000E+00  0.00000000E+00
  0.00000000E+00  0.00000000E+00  0.00000000E+00
  0.00000000E+00  0.00000000E+00  0.00000000E+00
  0.00000000E+00  0.00000000E+00  0.00000000E+00
  0.00000000E+00  0.00000000E+00  0.00000000E+00
  0.00000000E+00  0.00000000E+00  0.00000000E+00
  0.00000000E+00  0.00000000E+00  0.00000000E+00
  0.00000000E+00  0.00000000E+00  0.00000000E+00
  0.00000000E+00  0.00000000E+00  0.00000000E+00
  0.00000000E+00  0.00000000E+00  0.00000000E+00
  0.00000000E+00  0.00000000E+00  0.00000000E+00
  0.00000000E+00  0.00000000E+00  0.00000000E+00
  0.00000000E+00  0.00000000E+00  0.00000000E+00
  0.00000000E+00  0.00000000E+00  0.00000000E+00
  0.00000000E+00  0.00000000E+00  0.00000000E+00
  0.00000000E+00  0.00000000E+00  0.00000000E+00
  0.00000000E+00  0.00000000E+00  0.00000000E+00
  0.00000000E+00  0.00000000E+00  0.00000000E+00
  0.00000000E+00  0.00000000E+00  0.00000000E+00
  0.00000000E+00  0.00000000E+00  0.00000000E+00
