Ga48 O72                                
    1.000000000000000     
     0.0000000000000000   12.2804734172212839    0.0000000000000000
     9.1427020537309431    0.0000000000000000    0.0000000000000000
     0.0000000000000000   -2.7682617730220320  -11.3006977184464645
   Ga   O 
    47    72
Direct
  0.6595056403029531  0.9998706044227674  0.1573278222588712
  0.6592016606183009  0.0001212595405136  0.6571548337550439
  0.6591556427760068  0.3333333333333357  0.1570911757200477
  0.6597560225857464  0.3333333333333357  0.6568250683925143
  0.6595056403029531  0.6667960622438969  0.1573278222588712
  0.6592016606183009  0.6665454071261507  0.6571548337550439
  0.8436876932828170  0.1677209005763771  0.3444524645815861
  0.8412471216547814  0.1673656746400809  0.8444805627652627
  0.8436876932828170  0.4989457660902872  0.3444524645815861
  0.8412471216547814  0.4993009920265834  0.8444805627652627
  0.8441364917482161  0.8333333333333357  0.3432915073118039
  0.8416850850028439  0.8333333333333357  0.8434886684989564
  0.5902005773398429  0.1679478349609411  0.3969525420032340
  0.5897844655737003  0.1666630076588547  0.8976140959661194
  0.5902005773398429  0.4987188317057232  0.3969525420032340
  0.5897844655737003  0.5000036590078096  0.8976140959661194
  0.5935447513394791  0.8333333333333357  0.3979402868365227
  0.5902278221300605  0.8333333333333357  0.8974449677575720
  0.9086834797026810  0.9991880534555904  0.1025734964535090
  0.9076071665093082  0.9995290920136313  0.6015429659943266
  0.9116421163766546  0.3333333333333357  0.1078000982936231
  0.9089686326026083  0.3333333333333357  0.5996886556392980
  0.9086834797026810  0.6674786132110739  0.1025734964535090
  0.9076071665093082  0.6671375746530330  0.6015429659943266
  0.1607552599070843  0.1690217314718723  0.1616398343867758
  0.1575919542067084  0.1688946375294549  0.6500256386058325
  0.1607552599070843  0.4976449351947920  0.1616398343867758
  0.1575919542067084  0.4977720291372094  0.6500256386058325
  0.1592597806129064  0.8333333333333357  0.1584554586457187
  0.1576623172435347  0.8333333333333357  0.6543146963342394
  0.3422244958807568  0.9996708432089036  0.3431376779776372
  0.3389856481490767  0.0000918700593573  0.8420664054458058
  0.3342321418436498  0.3333333333333357  0.3463977894736843
  0.3386856125096784  0.3333333333333357  0.8426513688796646
  0.3422244958807568  0.6669958234577607  0.3431376779776372
  0.3389856481490767  0.6665747966073070  0.8420664054458058
  0.0886634308015886  0.0087101376263519  0.3958997099377868
  0.0923747053071367  0.0000829949948837  0.8984285128398142
  0.0904035666749508  0.3333333333333357  0.8969444096674266
  0.0886634308015886  0.6579565290403124  0.3958997099377868
  0.0923747053071367  0.6665836716717806  0.8984285128398142
  0.4093347367527471  0.1662829916501991  0.1024182791162147
  0.4096694621496795  0.1667679428631672  0.6030662944354077
  0.4093347367527471  0.5003836750164652  0.1024182791162147
  0.4096694621496795  0.4998987238034971  0.6030662944354077
  0.4088764424681131  0.8333333333333357  0.1018416456777089
  0.4093489381164019  0.8333333333333357  0.6024715050608052
  0.9965937043960764  0.1650434392954523  0.1295551085061533
  0.9950225635066730  0.1660143197223363  0.6263486917352239
  0.9965937043960764  0.5016232273712120  0.1295551085061533
  0.9950225635066730  0.5006523469443280  0.6263486917352239
  0.9963216817795910  0.8333333333333357  0.1268321508595491
  0.9952287415483880  0.8333333333333357  0.6277992123492524
  0.5054625213872086  0.9991186967425705  0.3731219879915315
  0.5024643803829605  0.9998232289295643  0.8720966221251132
  0.5013616118083277  0.3333333333333357  0.3727072899169173
  0.5023369768309678  0.3333333333333357  0.8725184281923148
  0.5054625213872086  0.6675479699240938  0.3731219879915315
  0.5024643803829605  0.6668434377371000  0.8720966221251132
  0.6726778495628736  0.1663900641217282  0.2803905867598360
  0.6730769689919072  0.1673639552494066  0.7817868709179407
  0.6726778495628736  0.5002766025449361  0.2803905867598360
  0.6730769689919072  0.4993027114172577  0.7817868709179407
  0.6733519302358957  0.8333333333333357  0.2799381996808492
  0.6728519564470190  0.8333333333333357  0.7812811433236320
  0.8265714881400399  0.9985969880963310  0.2183483696086981
  0.8271636726823601  0.0001736813880839  0.7198651921755825
  0.8252062816404901  0.3333333333333357  0.2188440462196937
  0.8281557998132101  0.3333333333333357  0.7195731905838869
  0.8265714881400399  0.6680696785703333  0.2183483696086981
  0.8271636726823601  0.6664929852785804  0.7198651921755825
  0.8293871139955868  0.9987968634406172  0.4457003034827949
  0.8324234530179808  0.9998913952924511  0.9458870893303981
  0.8260577357962546  0.3333333333333357  0.4459702097876672
  0.8358169178015658  0.3333333333333357  0.9488247297275976
  0.8293871139955868  0.6678698032260471  0.4457003034827949
  0.8324234530179808  0.6667752713742132  0.9458870893303981
  0.6672299831068287  0.1665113170039092  0.0537153084984254
  0.6666946327766610  0.1666191485408959  0.5544803839801631
  0.6672299831068287  0.5001553496627551  0.0537153084984254
  0.6666946327766610  0.5000475181257684  0.5544803839801631
  0.6675497499618359  0.8333333333333357  0.0534940477597630
  0.6683322988210705  0.8333333333333357  0.5553331265151797
  0.4969249280113317  0.9994139246369400  0.1258535572287798
  0.4971276819387853  0.9997857382912443  0.6292479696416038
  0.4965572210788523  0.3333333333333357  0.1261765354767235
  0.4972404596844697  0.3333333333333357  0.6291909583248056
  0.4969249280113317  0.6672527420297243  0.1258535572287798
  0.4971276819387853  0.6668809283754200  0.6292479696416038
  0.0009372057796284  0.1710157935785475  0.3709880129489207
  0.0033326479507920  0.1659955703896827  0.8725375713792616
  0.0009372057796284  0.4956508730881168  0.3709880129489207
  0.0033326479507920  0.5006710962769816  0.8725375713792616
  0.0057663688998772  0.8333333333333357  0.3735611313285077
  0.0041980355810125  0.8333333333333357  0.8731275474806495
  0.1737386702715185  0.9991147606073270  0.2813782647286587
  0.1717549479252298  0.0003806233842241  0.7793885624088688
  0.1754969124070769  0.3333333333333357  0.2729110859127601
  0.1719334956925422  0.3333333333333357  0.7810345050438201
  0.1737386702715185  0.6675519060593373  0.2813782647286587
  0.1717549479252298  0.6662860432824402  0.7793885624088688
  0.3304973942702887  0.1626583287411947  0.2200739631030757
  0.3276855189472982  0.1666313487095650  0.7195300715991451
  0.3304973942702887  0.5040083379254696  0.2200739631030757
  0.3276855189472982  0.5000353179570993  0.7195300715991451
  0.3283989287544316  0.8333333333333357  0.2193127168100446
  0.3267671969300636  0.8333333333333357  0.7186663851287562
  0.3354815438003627  0.1641760819269393  0.4468904956946886
  0.3323267887513239  0.1662694896915795  0.9457068986555726
  0.3354815438003627  0.5024905847397250  0.4468904956946886
  0.3323267887513239  0.5003971769750848  0.9457068986555726
  0.3350835940116070  0.8333333333333357  0.4459160107870446
  0.3311834549166122  0.8333333333333357  0.9452836883033910
  0.1670002826269368  0.0010772398688701  0.0555507465829024
  0.1671417715699377  0.9995000913996961  0.5529852328190117
  0.1687875357041833  0.3333333333333357  0.0520640502782683
  0.1714849259642008  0.3333333333333357  0.5551813111681625
  0.1670002826269368  0.6655894267977942  0.0555507465829024
  0.1671417715699377  0.6671665752669682  0.5529852328190117
 
  0.00000000E+00  0.00000000E+00  0.00000000E+00
  0.00000000E+00  0.00000000E+00  0.00000000E+00
  0.00000000E+00  0.00000000E+00  0.00000000E+00
  0.00000000E+00  0.00000000E+00  0.00000000E+00
  0.00000000E+00  0.00000000E+00  0.00000000E+00
  0.00000000E+00  0.00000000E+00  0.00000000E+00
  0.00000000E+00  0.00000000E+00  0.00000000E+00
  0.00000000E+00  0.00000000E+00  0.00000000E+00
  0.00000000E+00  0.00000000E+00  0.00000000E+00
  0.00000000E+00  0.00000000E+00  0.00000000E+00
  0.00000000E+00  0.00000000E+00  0.00000000E+00
  0.00000000E+00  0.00000000E+00  0.00000000E+00
  0.00000000E+00  0.00000000E+00  0.00000000E+00
  0.00000000E+00  0.00000000E+00  0.00000000E+00
  0.00000000E+00  0.00000000E+00  0.00000000E+00
  0.00000000E+00  0.00000000E+00  0.00000000E+00
  0.00000000E+00  0.00000000E+00  0.00000000E+00
  0.00000000E+00  0.00000000E+00  0.00000000E+00
  0.00000000E+00  0.00000000E+00  0.00000000E+00
  0.00000000E+00  0.00000000E+00  0.00000000E+00
  0.00000000E+00  0.00000000E+00  0.00000000E+00
  0.00000000E+00  0.00000000E+00  0.00000000E+00
  0.00000000E+00  0.00000000E+00  0.00000000E+00
  0.00000000E+00  0.00000000E+00  0.00000000E+00
  0.00000000E+00  0.00000000E+00  0.00000000E+00
  0.00000000E+00  0.00000000E+00  0.00000000E+00
  0.00000000E+00  0.00000000E+00  0.00000000E+00
  0.00000000E+00  0.00000000E+00  0.00000000E+00
  0.00000000E+00  0.00000000E+00  0.00000000E+00
  0.00000000E+00  0.00000000E+00  0.00000000E+00
  0.00000000E+00  0.00000000E+00  0.00000000E+00
  0.00000000E+00  0.00000000E+00  0.00000000E+00
  0.00000000E+00  0.00000000E+00  0.00000000E+00
  0.00000000E+00  0.00000000E+00  0.00000000E+00
  0.00000000E+00  0.00000000E+00  0.00000000E+00
  0.00000000E+00  0.00000000E+00  0.00000000E+00
  0.00000000E+00  0.00000000E+00  0.00000000E+00
  0.00000000E+00  0.00000000E+00  0.00000000E+00
  0.00000000E+00  0.00000000E+00  0.00000000E+00
  0.00000000E+00  0.00000000E+00  0.00000000E+00
  0.00000000E+00  0.00000000E+00  0.00000000E+00
  0.00000000E+00  0.00000000E+00  0.00000000E+00
  0.00000000E+00  0.00000000E+00  0.00000000E+00
  0.00000000E+00  0.00000000E+00  0.00000000E+00
  0.00000000E+00  0.00000000E+00  0.00000000E+00
  0.00000000E+00  0.00000000E+00  0.00000000E+00
  0.00000000E+00  0.00000000E+00  0.00000000E+00
  0.00000000E+00  0.00000000E+00  0.00000000E+00
  0.00000000E+00  0.00000000E+00  0.00000000E+00
  0.00000000E+00  0.00000000E+00  0.00000000E+00
  0.00000000E+00  0.00000000E+00  0.00000000E+00
  0.00000000E+00  0.00000000E+00  0.00000000E+00
  0.00000000E+00  0.00000000E+00  0.00000000E+00
  0.00000000E+00  0.00000000E+00  0.00000000E+00
  0.00000000E+00  0.00000000E+00  0.00000000E+00
  0.00000000E+00  0.00000000E+00  0.00000000E+00
  0.00000000E+00  0.00000000E+00  0.00000000E+00
  0.00000000E+00  0.00000000E+00  0.00000000E+00
  0.00000000E+00  0.00000000E+00  0.00000000E+00
  0.00000000E+00  0.00000000E+00  0.00000000E+00
  0.00000000E+00  0.00000000E+00  0.00000000E+00
  0.00000000E+00  0.00000000E+00  0.00000000E+00
  0.00000000E+00  0.00000000E+00  0.00000000E+00
  0.00000000E+00  0.00000000E+00  0.00000000E+00
  0.00000000E+00  0.00000000E+00  0.00000000E+00
  0.00000000E+00  0.00000000E+00  0.00000000E+00
  0.00000000E+00  0.00000000E+00  0.00000000E+00
  0.00000000E+00  0.00000000E+00  0.00000000E+00
  0.00000000E+00  0.00000000E+00  0.00000000E+00
  0.00000000E+00  0.00000000E+00  0.00000000E+00
  0.00000000E+00  0.00000000E+00  0.00000000E+00
  0.00000000E+00  0.00000000E+00  0.00000000E+00
  0.00000000E+00  0.00000000E+00  0.00000000E+00
  0.00000000E+00  0.00000000E+00  0.00000000E+00
  0.00000000E+00  0.00000000E+00  0.00000000E+00
  0.00000000E+00  0.00000000E+00  0.00000000E+00
  0.00000000E+00  0.00000000E+00  0.00000000E+00
  0.00000000E+00  0.00000000E+00  0.00000000E+00
  0.00000000E+00  0.00000000E+00  0.00000000E+00
  0.00000000E+00  0.00000000E+00  0.00000000E+00
  0.00000000E+00  0.00000000E+00  0.00000000E+00
  0.00000000E+00  0.00000000E+00  0.00000000E+00
  0.00000000E+00  0.00000000E+00  0.00000000E+00
  0.00000000E+00  0.00000000E+00  0.00000000E+00
  0.00000000E+00  0.00000000E+00  0.00000000E+00
  0.00000000E+00  0.00000000E+00  0.00000000E+00
  0.00000000E+00  0.00000000E+00  0.00000000E+00
  0.00000000E+00  0.00000000E+00  0.00000000E+00
  0.00000000E+00  0.00000000E+00  0.00000000E+00
  0.00000000E+00  0.00000000E+00  0.00000000E+00
  0.00000000E+00  0.00000000E+00  0.00000000E+00
  0.00000000E+00  0.00000000E+00  0.00000000E+00
  0.00000000E+00  0.00000000E+00  0.00000000E+00
  0.00000000E+00  0.00000000E+00  0.00000000E+00
  0.00000000E+00  0.00000000E+00  0.00000000E+00
  0.00000000E+00  0.00000000E+00  0.00000000E+00
  0.00000000E+00  0.00000000E+00  0.00000000E+00
  0.00000000E+00  0.00000000E+00  0.00000000E+00
  0.00000000E+00  0.00000000E+00  0.00000000E+00
  0.00000000E+00  0.00000000E+00  0.00000000E+00
  0.00000000E+00  0.00000000E+00  0.00000000E+00
  0.00000000E+00  0.00000000E+00  0.00000000E+00
  0.00000000E+00  0.00000000E+00  0.00000000E+00
  0.00000000E+00  0.00000000E+00  0.00000000E+00
  0.00000000E+00  0.00000000E+00  0.00000000E+00
  0.00000000E+00  0.00000000E+00  0.00000000E+00
  0.00000000E+00  0.00000000E+00  0.00000000E+00
  0.00000000E+00  0.00000000E+00  0.00000000E+00
  0.00000000E+00  0.00000000E+00  0.00000000E+00
  0.00000000E+00  0.00000000E+00  0.00000000E+00
  0.00000000E+00  0.00000000E+00  0.00000000E+00
  0.00000000E+00  0.00000000E+00  0.00000000E+00
  0.00000000E+00  0.00000000E+00  0.00000000E+00
  0.00000000E+00  0.00000000E+00  0.00000000E+00
  0.00000000E+00  0.00000000E+00  0.00000000E+00
  0.00000000E+00  0.00000000E+00  0.00000000E+00
  0.00000000E+00  0.00000000E+00  0.00000000E+00
  0.00000000E+00  0.00000000E+00  0.00000000E+00
  0.00000000E+00  0.00000000E+00  0.00000000E+00
