Ga48 O72                                
    1.000000000000000     
     0.0000000000000000   12.2804734172212839    0.0000000000000000
     9.1427020537309431    0.0000000000000000    0.0000000000000000
     0.0000000000000000   -2.7682617730220320  -11.3006977184464645
   Ga   O 
    48    72
Direct
  0.6590137024930911  0.0000000000000000  0.1565943773088208
  0.6590137024930911  0.0000000000000000  0.6565943773088208
  0.6590137024930911  0.3333333333333357  0.1565943773088208
  0.6590137024930911  0.3333333333333357  0.6565943773088208
  0.6590137024930911  0.6666666666666643  0.1565943773088208
  0.6590137024930911  0.6666666666666643  0.6565943773088208
  0.8409862975069089  0.1666666666666643  0.3434056226911792
  0.8409862975069089  0.1666666666666643  0.8434056226911792
  0.8409862975069089  0.5000000000000000  0.3434056226911792
  0.8409862975069089  0.5000000000000000  0.8434056226911792
  0.8409862975069089  0.8333333333333357  0.3434056226911792
  0.8409862975069089  0.8333333333333357  0.8434056226911792
  0.5910885129515577  0.1666666666666643  0.3975780263627158
  0.5910885129515577  0.1666666666666643  0.8975780263627158
  0.5910885129515577  0.5000000000000000  0.3975780263627158
  0.5910885129515577  0.5000000000000000  0.8975780263627158
  0.5910885129515577  0.8333333333333357  0.3975780263627158
  0.5910885129515577  0.8333333333333357  0.8975780263627158
  0.9089114870484423  0.0000000000000000  0.1024219736372842
  0.9089114870484423  0.0000000000000000  0.6024219736372842
  0.9089114870484423  0.3333333333333357  0.1024219736372842
  0.9089114870484423  0.3333333333333357  0.6024219736372842
  0.9089114870484423  0.6666666666666643  0.1024219736372842
  0.9089114870484423  0.6666666666666643  0.6024219736372842
  0.1590137024930911  0.1666666666666643  0.1565943773088208
  0.1590137024930911  0.1666666666666643  0.6565943773088208
  0.1590137024930911  0.5000000000000000  0.1565943773088208
  0.1590137024930911  0.5000000000000000  0.6565943773088208
  0.1590137024930911  0.8333333333333357  0.1565943773088208
  0.1590137024930911  0.8333333333333357  0.6565943773088208
  0.3409862975069089  0.0000000000000000  0.3434056226911792
  0.3409862975069089  0.0000000000000000  0.8434056226911792
  0.3409862975069089  0.3333333333333357  0.3434056226911792
  0.3409862975069089  0.3333333333333357  0.8434056226911792
  0.3409862975069089  0.6666666666666643  0.3434056226911792
  0.3409862975069089  0.6666666666666643  0.8434056226911792
  0.0910885129515577  0.0000000000000000  0.3975780263627158
  0.0910885129515577  0.0000000000000000  0.8975780263627158
  0.0910885129515577  0.3333333333333357  0.3975780263627158
  0.0910885129515577  0.3333333333333357  0.8975780263627158
  0.0910885129515577  0.6666666666666643  0.3975780263627158
  0.0910885129515577  0.6666666666666643  0.8975780263627158
  0.4089114870484423  0.1666666666666643  0.1024219736372842
  0.4089114870484423  0.1666666666666643  0.6024219736372842
  0.4089114870484423  0.5000000000000000  0.1024219736372842
  0.4089114870484423  0.5000000000000000  0.6024219736372842
  0.4089114870484423  0.8333333333333357  0.1024219736372842
  0.4089114870484423  0.8333333333333357  0.6024219736372842
  0.9963653902154803  0.1666666666666643  0.1272277070092045
  0.9963653902154803  0.1666666666666643  0.6272277070092045
  0.9963653902154803  0.5000000000000000  0.1272277070092045
  0.9963653902154803  0.5000000000000000  0.6272277070092045
  0.9963653902154803  0.8333333333333357  0.1272277070092045
  0.9963653902154803  0.8333333333333357  0.6272277070092045
  0.5036346097845197  0.0000000000000000  0.3727722929907955
  0.5036346097845197  0.0000000000000000  0.8727722929907955
  0.5036346097845197  0.3333333333333357  0.3727722929907955
  0.5036346097845197  0.3333333333333357  0.8727722929907955
  0.5036346097845197  0.6666666666666643  0.3727722929907955
  0.5036346097845197  0.6666666666666643  0.8727722929907955
  0.6725370499767962  0.1666666666666643  0.2803961330532871
  0.6725370499767962  0.1666666666666643  0.7803961330532871
  0.6725370499767962  0.5000000000000000  0.2803961330532871
  0.6725370499767962  0.5000000000000000  0.7803961330532871
  0.6725370499767962  0.8333333333333357  0.2803961330532871
  0.6725370499767962  0.8333333333333357  0.7803961330532871
  0.8274629500232038  0.0000000000000000  0.2196038669467129
  0.8274629500232038  0.0000000000000000  0.7196038669467129
  0.8274629500232038  0.3333333333333357  0.2196038669467129
  0.8274629500232038  0.3333333333333357  0.7196038669467129
  0.8274629500232038  0.6666666666666643  0.2196038669467129
  0.8274629500232038  0.6666666666666643  0.7196038669467129
  0.8320862628565777  0.0000000000000000  0.4458082309591376
  0.8320862628565777  0.0000000000000000  0.9458082309591376
  0.8320862628565777  0.3333333333333357  0.4458082309591376
  0.8320862628565777  0.3333333333333357  0.9458082309591376
  0.8320862628565777  0.6666666666666643  0.4458082309591376
  0.8320862628565777  0.6666666666666643  0.9458082309591376
  0.6679137371434152  0.1666666666666643  0.0541917690408624
  0.6679137371434152  0.1666666666666643  0.5541917690408624
  0.6679137371434152  0.5000000000000000  0.0541917690408624
  0.6679137371434152  0.5000000000000000  0.5541917690408624
  0.6679137371434152  0.8333333333333357  0.0541917690408624
  0.6679137371434152  0.8333333333333357  0.5541917690408624
  0.4963653902154803  0.0000000000000000  0.1272277070092045
  0.4963653902154803  0.0000000000000000  0.6272277070092045
  0.4963653902154803  0.3333333333333357  0.1272277070092045
  0.4963653902154803  0.3333333333333357  0.6272277070092045
  0.4963653902154803  0.6666666666666643  0.1272277070092045
  0.4963653902154803  0.6666666666666643  0.6272277070092045
  0.0036346097845197  0.1666666666666643  0.3727722929907955
  0.0036346097845197  0.1666666666666643  0.8727722929907955
  0.0036346097845197  0.5000000000000000  0.3727722929907955
  0.0036346097845197  0.5000000000000000  0.8727722929907955
  0.0036346097845197  0.8333333333333357  0.3727722929907955
  0.0036346097845197  0.8333333333333357  0.8727722929907955
  0.1725370499767962  0.0000000000000000  0.2803961330532871
  0.1725370499767962  0.0000000000000000  0.7803961330532871
  0.1725370499767962  0.3333333333333357  0.2803961330532871
  0.1725370499767962  0.3333333333333357  0.7803961330532871
  0.1725370499767962  0.6666666666666643  0.2803961330532871
  0.1725370499767962  0.6666666666666643  0.7803961330532871
  0.3274629500232038  0.1666666666666643  0.2196038669467129
  0.3274629500232038  0.1666666666666643  0.7196038669467129
  0.3274629500232038  0.5000000000000000  0.2196038669467129
  0.3274629500232038  0.5000000000000000  0.7196038669467129
  0.3274629500232038  0.8333333333333357  0.2196038669467129
  0.3274629500232038  0.8333333333333357  0.7196038669467129
  0.3320862628565777  0.1666666666666643  0.4458082309591376
  0.3320862628565777  0.1666666666666643  0.9458082309591376
  0.3320862628565777  0.5000000000000000  0.4458082309591376
  0.3320862628565777  0.5000000000000000  0.9458082309591376
  0.3320862628565777  0.8333333333333357  0.4458082309591376
  0.3320862628565777  0.8333333333333357  0.9458082309591376
  0.1679137371434152  0.0000000000000000  0.0541917690408624
  0.1679137371434152  0.0000000000000000  0.5541917690408624
  0.1679137371434152  0.3333333333333357  0.0541917690408624
  0.1679137371434152  0.3333333333333357  0.5541917690408624
  0.1679137371434152  0.6666666666666643  0.0541917690408624
  0.1679137371434152  0.6666666666666643  0.5541917690408624
 
  0.00000000E+00  0.00000000E+00  0.00000000E+00
  0.00000000E+00  0.00000000E+00  0.00000000E+00
  0.00000000E+00  0.00000000E+00  0.00000000E+00
  0.00000000E+00  0.00000000E+00  0.00000000E+00
  0.00000000E+00  0.00000000E+00  0.00000000E+00
  0.00000000E+00  0.00000000E+00  0.00000000E+00
  0.00000000E+00  0.00000000E+00  0.00000000E+00
  0.00000000E+00  0.00000000E+00  0.00000000E+00
  0.00000000E+00  0.00000000E+00  0.00000000E+00
  0.00000000E+00  0.00000000E+00  0.00000000E+00
  0.00000000E+00  0.00000000E+00  0.00000000E+00
  0.00000000E+00  0.00000000E+00  0.00000000E+00
  0.00000000E+00  0.00000000E+00  0.00000000E+00
  0.00000000E+00  0.00000000E+00  0.00000000E+00
  0.00000000E+00  0.00000000E+00  0.00000000E+00
  0.00000000E+00  0.00000000E+00  0.00000000E+00
  0.00000000E+00  0.00000000E+00  0.00000000E+00
  0.00000000E+00  0.00000000E+00  0.00000000E+00
  0.00000000E+00  0.00000000E+00  0.00000000E+00
  0.00000000E+00  0.00000000E+00  0.00000000E+00
  0.00000000E+00  0.00000000E+00  0.00000000E+00
  0.00000000E+00  0.00000000E+00  0.00000000E+00
  0.00000000E+00  0.00000000E+00  0.00000000E+00
  0.00000000E+00  0.00000000E+00  0.00000000E+00
  0.00000000E+00  0.00000000E+00  0.00000000E+00
  0.00000000E+00  0.00000000E+00  0.00000000E+00
  0.00000000E+00  0.00000000E+00  0.00000000E+00
  0.00000000E+00  0.00000000E+00  0.00000000E+00
  0.00000000E+00  0.00000000E+00  0.00000000E+00
  0.00000000E+00  0.00000000E+00  0.00000000E+00
  0.00000000E+00  0.00000000E+00  0.00000000E+00
  0.00000000E+00  0.00000000E+00  0.00000000E+00
  0.00000000E+00  0.00000000E+00  0.00000000E+00
  0.00000000E+00  0.00000000E+00  0.00000000E+00
  0.00000000E+00  0.00000000E+00  0.00000000E+00
  0.00000000E+00  0.00000000E+00  0.00000000E+00
  0.00000000E+00  0.00000000E+00  0.00000000E+00
  0.00000000E+00  0.00000000E+00  0.00000000E+00
  0.00000000E+00  0.00000000E+00  0.00000000E+00
  0.00000000E+00  0.00000000E+00  0.00000000E+00
  0.00000000E+00  0.00000000E+00  0.00000000E+00
  0.00000000E+00  0.00000000E+00  0.00000000E+00
  0.00000000E+00  0.00000000E+00  0.00000000E+00
  0.00000000E+00  0.00000000E+00  0.00000000E+00
  0.00000000E+00  0.00000000E+00  0.00000000E+00
  0.00000000E+00  0.00000000E+00  0.00000000E+00
  0.00000000E+00  0.00000000E+00  0.00000000E+00
  0.00000000E+00  0.00000000E+00  0.00000000E+00
  0.00000000E+00  0.00000000E+00  0.00000000E+00
  0.00000000E+00  0.00000000E+00  0.00000000E+00
  0.00000000E+00  0.00000000E+00  0.00000000E+00
  0.00000000E+00  0.00000000E+00  0.00000000E+00
  0.00000000E+00  0.00000000E+00  0.00000000E+00
  0.00000000E+00  0.00000000E+00  0.00000000E+00
  0.00000000E+00  0.00000000E+00  0.00000000E+00
  0.00000000E+00  0.00000000E+00  0.00000000E+00
  0.00000000E+00  0.00000000E+00  0.00000000E+00
  0.00000000E+00  0.00000000E+00  0.00000000E+00
  0.00000000E+00  0.00000000E+00  0.00000000E+00
  0.00000000E+00  0.00000000E+00  0.00000000E+00
  0.00000000E+00  0.00000000E+00  0.00000000E+00
  0.00000000E+00  0.00000000E+00  0.00000000E+00
  0.00000000E+00  0.00000000E+00  0.00000000E+00
  0.00000000E+00  0.00000000E+00  0.00000000E+00
  0.00000000E+00  0.00000000E+00  0.00000000E+00
  0.00000000E+00  0.00000000E+00  0.00000000E+00
  0.00000000E+00  0.00000000E+00  0.00000000E+00
  0.00000000E+00  0.00000000E+00  0.00000000E+00
  0.00000000E+00  0.00000000E+00  0.00000000E+00
  0.00000000E+00  0.00000000E+00  0.00000000E+00
  0.00000000E+00  0.00000000E+00  0.00000000E+00
  0.00000000E+00  0.00000000E+00  0.00000000E+00
  0.00000000E+00  0.00000000E+00  0.00000000E+00
  0.00000000E+00  0.00000000E+00  0.00000000E+00
  0.00000000E+00  0.00000000E+00  0.00000000E+00
  0.00000000E+00  0.00000000E+00  0.00000000E+00
  0.00000000E+00  0.00000000E+00  0.00000000E+00
  0.00000000E+00  0.00000000E+00  0.00000000E+00
  0.00000000E+00  0.00000000E+00  0.00000000E+00
  0.00000000E+00  0.00000000E+00  0.00000000E+00
  0.00000000E+00  0.00000000E+00  0.00000000E+00
  0.00000000E+00  0.00000000E+00  0.00000000E+00
  0.00000000E+00  0.00000000E+00  0.00000000E+00
  0.00000000E+00  0.00000000E+00  0.00000000E+00
  0.00000000E+00  0.00000000E+00  0.00000000E+00
  0.00000000E+00  0.00000000E+00  0.00000000E+00
  0.00000000E+00  0.00000000E+00  0.00000000E+00
  0.00000000E+00  0.00000000E+00  0.00000000E+00
  0.00000000E+00  0.00000000E+00  0.00000000E+00
  0.00000000E+00  0.00000000E+00  0.00000000E+00
  0.00000000E+00  0.00000000E+00  0.00000000E+00
  0.00000000E+00  0.00000000E+00  0.00000000E+00
  0.00000000E+00  0.00000000E+00  0.00000000E+00
  0.00000000E+00  0.00000000E+00  0.00000000E+00
  0.00000000E+00  0.00000000E+00  0.00000000E+00
  0.00000000E+00  0.00000000E+00  0.00000000E+00
  0.00000000E+00  0.00000000E+00  0.00000000E+00
  0.00000000E+00  0.00000000E+00  0.00000000E+00
  0.00000000E+00  0.00000000E+00  0.00000000E+00
  0.00000000E+00  0.00000000E+00  0.00000000E+00
  0.00000000E+00  0.00000000E+00  0.00000000E+00
  0.00000000E+00  0.00000000E+00  0.00000000E+00
  0.00000000E+00  0.00000000E+00  0.00000000E+00
  0.00000000E+00  0.00000000E+00  0.00000000E+00
  0.00000000E+00  0.00000000E+00  0.00000000E+00
  0.00000000E+00  0.00000000E+00  0.00000000E+00
  0.00000000E+00  0.00000000E+00  0.00000000E+00
  0.00000000E+00  0.00000000E+00  0.00000000E+00
  0.00000000E+00  0.00000000E+00  0.00000000E+00
  0.00000000E+00  0.00000000E+00  0.00000000E+00
  0.00000000E+00  0.00000000E+00  0.00000000E+00
  0.00000000E+00  0.00000000E+00  0.00000000E+00
  0.00000000E+00  0.00000000E+00  0.00000000E+00
  0.00000000E+00  0.00000000E+00  0.00000000E+00
  0.00000000E+00  0.00000000E+00  0.00000000E+00
  0.00000000E+00  0.00000000E+00  0.00000000E+00
  0.00000000E+00  0.00000000E+00  0.00000000E+00
  0.00000000E+00  0.00000000E+00  0.00000000E+00
  0.00000000E+00  0.00000000E+00  0.00000000E+00
  0.00000000E+00  0.00000000E+00  0.00000000E+00
