       N       E                     dE             d eps       ncg     rms          rms(c)
DAV:   1     0.217756155509E+05    0.21776E+05   -0.32055E+05 10080   0.281E+03
DAV:   2     0.483933252450E+04   -0.16936E+05   -0.15961E+05 10080   0.815E+02
DAV:   3    -0.148567769849E+03   -0.49879E+04   -0.46825E+04 12840   0.321E+02
DAV:   4    -0.792173875817E+03   -0.64361E+03   -0.62698E+03 12400   0.122E+02
DAV:   5    -0.839263474017E+03   -0.47090E+02   -0.46622E+02 14600   0.358E+01    0.757E+01
RMM:   6    -0.848944381187E+03   -0.96809E+01   -0.84378E+02 13819   0.339E+01    0.226E+02
RMM:   7    -0.808770997079E+03    0.40173E+02   -0.86925E+01 15355   0.117E+01    0.143E+02
RMM:   8    -0.725325371366E+03    0.83446E+02   -0.58650E+01 13200   0.744E+00    0.349E+01
RMM:   9    -0.720898607358E+03    0.44268E+01   -0.73770E+00 13079   0.375E+00    0.238E+01
RMM:  10    -0.717715071055E+03    0.31835E+01   -0.39808E+00 13370   0.222E+00    0.188E+01
RMM:  11    -0.718704888801E+03   -0.98982E+00   -0.26018E+00 13053   0.216E+00    0.192E+01
RMM:  12    -0.717465041411E+03    0.12398E+01   -0.16764E+00 13314   0.180E+00    0.111E+01
RMM:  13    -0.717099018381E+03    0.36602E+00   -0.54067E-01 13810   0.107E+00    0.661E+00
RMM:  14    -0.716920532754E+03    0.17849E+00   -0.27873E-01 14910   0.740E-01    0.356E+00
RMM:  15    -0.716868906768E+03    0.51626E-01   -0.14113E-01 13647   0.418E-01    0.201E+00
RMM:  16    -0.716850453061E+03    0.18454E-01   -0.39334E-02 13749   0.226E-01    0.138E+00
RMM:  17    -0.716836506481E+03    0.13947E-01   -0.32101E-02 13878   0.174E-01    0.573E-01
RMM:  18    -0.716833218912E+03    0.32876E-02   -0.22697E-02 14757   0.141E-01    0.272E-01
RMM:  19    -0.716833099590E+03    0.11932E-03   -0.45983E-03 13729   0.738E-02    0.188E-01
RMM:  20    -0.716832963003E+03    0.13659E-03   -0.34433E-03 13015   0.437E-02    0.146E-01
RMM:  21    -0.716832962716E+03    0.28704E-06   -0.87307E-04 11299   0.291E-02    0.119E-01
RMM:  22    -0.716832993204E+03   -0.30487E-04   -0.58952E-04 10282   0.202E-02    0.742E-02
RMM:  23    -0.716833014427E+03   -0.21224E-04   -0.25308E-04  9560   0.143E-02    0.539E-02
RMM:  24    -0.716833010038E+03    0.43899E-05   -0.91922E-05  8332   0.102E-02
   1 F= -.71683301E+03 E0= -.71683301E+03  d E =-.716833E+03
       N       E                     dE             d eps       ncg     rms          rms(c)
DAV:   1    -0.716466314362E+03    0.36670E+00   -0.24796E+02 10768   0.181E+01    0.818E+00
RMM:   2    -0.718300709077E+03   -0.18344E+01   -0.96564E+00 11997   0.560E+00    0.147E+01
RMM:   3    -0.717156953413E+03    0.11438E+01   -0.29594E+00 14827   0.253E+00    0.471E+00
RMM:   4    -0.717071369143E+03    0.85584E-01   -0.48641E-01 14581   0.983E-01    0.443E+00
RMM:   5    -0.717006306152E+03    0.65063E-01   -0.21373E-01 14152   0.592E-01    0.137E+00
RMM:   6    -0.717010188112E+03   -0.38820E-02   -0.87419E-02 13825   0.293E-01    0.953E-01
RMM:   7    -0.717006712086E+03    0.34760E-02   -0.16930E-02 14716   0.159E-01    0.414E-01
RMM:   8    -0.717005482182E+03    0.12299E-02   -0.60667E-03 14235   0.734E-02    0.237E-01
RMM:   9    -0.717004978809E+03    0.50337E-03   -0.16273E-03 11748   0.411E-02    0.141E-01
RMM:  10    -0.717004779130E+03    0.19968E-03   -0.12071E-03 11869   0.333E-02    0.566E-02
RMM:  11    -0.717004797970E+03   -0.18840E-04   -0.34129E-04 10163   0.195E-02    0.218E-02
RMM:  12    -0.717004808028E+03   -0.10058E-04   -0.13673E-04  8697   0.119E-02    0.172E-02
RMM:  13    -0.717004812334E+03   -0.43066E-05   -0.55335E-05  7579   0.791E-03
   2 F= -.71700481E+03 E0= -.71700481E+03  d E =-.171802E+00
       N       E                     dE             d eps       ncg     rms          rms(c)
DAV:   1    -0.717212877060E+03   -0.20807E+00   -0.38669E+01 11032   0.721E+00    0.383E+00
RMM:   2    -0.717864830550E+03   -0.65195E+00   -0.21547E+00 11641   0.267E+00    0.964E+00
RMM:   3    -0.717291400085E+03    0.57343E+00   -0.54707E-01 14142   0.113E+00    0.216E+00
RMM:   4    -0.717253920503E+03    0.37480E-01   -0.88453E-02 14496   0.394E-01    0.230E+00
RMM:   5    -0.717245610509E+03    0.83100E-02   -0.29619E-02 13885   0.206E-01    0.104E+00
RMM:   6    -0.717244800974E+03    0.80953E-03   -0.27951E-02 12832   0.170E-01    0.782E-01
RMM:   7    -0.717241135551E+03    0.36654E-02   -0.49279E-03 13280   0.101E-01    0.117E-01
RMM:   8    -0.717241047203E+03    0.88348E-04   -0.16427E-03 11141   0.345E-02    0.120E-01
RMM:   9    -0.717241032114E+03    0.15089E-04   -0.44693E-04 10219   0.232E-02    0.830E-02
RMM:  10    -0.717241012536E+03    0.19578E-04   -0.15442E-04  8987   0.134E-02    0.405E-02
RMM:  11    -0.717241003455E+03    0.90815E-05   -0.51697E-05  7318   0.830E-03
   3 F= -.71724100E+03 E0= -.71724100E+03  d E =-.407993E+00
       N       E                     dE             d eps       ncg     rms          rms(c)
DAV:   1    -0.717173441425E+03    0.67571E-01   -0.31907E+01 10888   0.798E+00    0.154E+00
RMM:   2    -0.717295191340E+03   -0.12175E+00   -0.12620E+00 13260   0.227E+00    0.199E+00
RMM:   3    -0.717305695411E+03   -0.10504E-01   -0.26208E-01 14716   0.930E-01    0.996E-01
RMM:   4    -0.717310386721E+03   -0.46913E-02   -0.39201E-02 14813   0.340E-01    0.118E+00
RMM:   5    -0.717302624698E+03    0.77620E-02   -0.10917E-02 14420   0.162E-01    0.543E-01
RMM:   6    -0.717300849931E+03    0.17748E-02   -0.67107E-03 13069   0.950E-02    0.208E-01
RMM:   7    -0.717300896259E+03   -0.46328E-04   -0.19387E-03 13353   0.492E-02    0.138E-01
RMM:   8    -0.717300797426E+03    0.98833E-04   -0.36848E-04 10863   0.249E-02    0.829E-02
RMM:   9    -0.717300715185E+03    0.82240E-04   -0.49114E-04 12136   0.249E-02    0.285E-02
RMM:  10    -0.717300716363E+03   -0.11780E-05   -0.83080E-05  8981   0.130E-02
   4 F= -.71730072E+03 E0= -.71730072E+03  d E =-.597129E-01
       N       E                     dE             d eps       ncg     rms          rms(c)
DAV:   1    -0.717300141058E+03    0.57413E-03   -0.30760E-01 11504   0.783E-01    0.155E-01
RMM:   2    -0.717301260536E+03   -0.11195E-02   -0.11740E-02 13146   0.222E-01    0.199E-01
RMM:   3    -0.717301372262E+03   -0.11173E-03   -0.26404E-03 14485   0.924E-02    0.106E-01
RMM:   4    -0.717301417825E+03   -0.45563E-04   -0.37039E-04 12255   0.340E-02    0.121E-01
RMM:   5    -0.717301341180E+03    0.76646E-04   -0.11478E-04  9647   0.192E-02    0.570E-02
RMM:   6    -0.717301321849E+03    0.19330E-04   -0.74611E-05  8781   0.118E-02    0.221E-02
RMM:   7    -0.717301321255E+03    0.59423E-06   -0.20444E-05  6542   0.747E-03
   5 F= -.71730132E+03 E0= -.71730132E+03  d E =-.603178E-01
       N       E                     dE             d eps       ncg     rms          rms(c)
DAV:   1    -0.717276986290E+03    0.24336E-01   -0.14431E+01 10928   0.551E+00    0.715E-01
RMM:   2    -0.717327636127E+03   -0.50650E-01   -0.50414E-01 13313   0.145E+00    0.918E-01
RMM:   3    -0.717334385979E+03   -0.67499E-02   -0.11654E-01 15023   0.599E-01    0.505E-01
RMM:   4    -0.717332892494E+03    0.14935E-02   -0.13736E-02 14867   0.209E-01    0.279E-01
RMM:   5    -0.717331916206E+03    0.97629E-03   -0.34339E-03 14890   0.907E-02    0.165E-01
RMM:   6    -0.717331440413E+03    0.47579E-03   -0.30844E-03 12606   0.652E-02    0.590E-02
RMM:   7    -0.717331439706E+03    0.70750E-06   -0.46792E-04 13391   0.316E-02    0.495E-02
RMM:   8    -0.717331419154E+03    0.20552E-04   -0.18940E-04 10231   0.168E-02    0.122E-02
RMM:   9    -0.717331422379E+03   -0.32250E-05   -0.65659E-05  8662   0.108E-02
   6 F= -.71733142E+03 E0= -.71733142E+03  d E =-.301011E-01
       N       E                     dE             d eps       ncg     rms          rms(c)
DAV:   1    -0.717329243595E+03    0.21756E-02   -0.10563E+00 11592   0.149E+00    0.191E-01
RMM:   2    -0.717332893204E+03   -0.36496E-02   -0.36471E-02 13289   0.389E-01    0.238E-01
RMM:   3    -0.717333392971E+03   -0.49977E-03   -0.83702E-03 14988   0.160E-01    0.134E-01
RMM:   4    -0.717333293282E+03    0.99689E-04   -0.98982E-04 14368   0.565E-02    0.750E-02
RMM:   5    -0.717333224769E+03    0.68513E-04   -0.27056E-04 12055   0.263E-02    0.464E-02
RMM:   6    -0.717333192749E+03    0.32020E-04   -0.24407E-04 10724   0.192E-02    0.167E-02
RMM:   7    -0.717333191726E+03    0.10225E-05   -0.39932E-05  8106   0.103E-02
   7 F= -.71733319E+03 E0= -.71733319E+03  d E =-.318705E-01
       N       E                     dE             d eps       ncg     rms          rms(c)
DAV:   1    -0.717298153722E+03    0.35039E-01   -0.14963E+01 10816   0.545E+00    0.811E-01
RMM:   2    -0.717341669040E+03   -0.43515E-01   -0.46612E-01 12679   0.140E+00    0.506E-01
RMM:   3    -0.717353621280E+03   -0.11952E-01   -0.12409E-01 14938   0.590E-01    0.385E-01
RMM:   4    -0.717354300557E+03   -0.67928E-03   -0.13935E-02 15080   0.201E-01    0.360E-01
RMM:   5    -0.717353714046E+03    0.58651E-03   -0.33892E-03 14260   0.923E-02    0.225E-01
RMM:   6    -0.717353324669E+03    0.38938E-03   -0.33791E-03 12376   0.735E-02    0.742E-02
RMM:   7    -0.717353296418E+03    0.28251E-04   -0.50895E-04 12946   0.343E-02    0.440E-02
RMM:   8    -0.717353280238E+03    0.16180E-04   -0.21573E-04  9860   0.163E-02    0.237E-02
RMM:   9    -0.717353279516E+03    0.72218E-06   -0.74411E-05  8246   0.110E-02
   8 F= -.71735328E+03 E0= -.71735328E+03  d E =-.200878E-01
       N       E                     dE             d eps       ncg     rms          rms(c)
DAV:   1    -0.717353056145E+03    0.22409E-03   -0.14558E-01 11856   0.537E-01    0.778E-02
RMM:   2    -0.717353484338E+03   -0.42819E-03   -0.46115E-03 12732   0.139E-01    0.484E-02
RMM:   3    -0.717353596057E+03   -0.11172E-03   -0.12142E-03 14705   0.586E-02    0.319E-02
RMM:   4    -0.717353600864E+03   -0.48066E-05   -0.14160E-04 11370   0.206E-02    0.250E-02
RMM:   5    -0.717353602754E+03   -0.18902E-05   -0.47062E-05  7517   0.129E-02
   9 F= -.71735360E+03 E0= -.71735360E+03  d E =-.204110E-01
       N       E                     dE             d eps       ncg     rms          rms(c)
DAV:   1    -0.717332796655E+03    0.20804E-01   -0.82367E+00 10632   0.412E+00    0.594E-01
RMM:   2    -0.717360547453E+03   -0.27751E-01   -0.27018E-01 12929   0.107E+00    0.845E-01
RMM:   3    -0.717364065227E+03   -0.35178E-02   -0.72454E-02 14615   0.475E-01    0.356E-01
RMM:   4    -0.717363462156E+03    0.60307E-03   -0.92236E-03 14645   0.167E-01    0.282E-01
RMM:   5    -0.717362924893E+03    0.53726E-03   -0.21230E-03 14825   0.706E-02    0.109E-01
RMM:   6    -0.717362765210E+03    0.15968E-03   -0.15102E-03 12472   0.460E-02    0.370E-02
RMM:   7    -0.717362778733E+03   -0.13524E-04   -0.26350E-04 11790   0.225E-02    0.271E-02
RMM:   8    -0.717362773954E+03    0.47796E-05   -0.97123E-05  8670   0.125E-02
  10 F= -.71736277E+03 E0= -.71736277E+03  d E =-.917120E-02
       N       E                     dE             d eps       ncg     rms          rms(c)
DAV:   1    -0.717362732426E+03    0.46307E-04   -0.94335E-03 10984   0.140E-01    0.197E-02
RMM:   2    -0.717362766947E+03   -0.34521E-04   -0.32391E-04 12689   0.376E-02    0.309E-02
RMM:   3    -0.717362767201E+03   -0.25316E-06   -0.78133E-05  9264   0.167E-02
  11 F= -.71736277E+03 E0= -.71736277E+03  d E =-.916445E-02
       N       E                     dE             d eps       ncg     rms          rms(c)
DAV:   1    -0.717343124545E+03    0.19642E-01   -0.72714E+00 10576   0.382E+00    0.551E-01
RMM:   2    -0.717366228568E+03   -0.23104E-01   -0.22528E-01 12521   0.976E-01    0.685E-01
RMM:   3    -0.717370205366E+03   -0.39768E-02   -0.64649E-02 14654   0.441E-01    0.351E-01
RMM:   4    -0.717369590816E+03    0.61455E-03   -0.76153E-03 14554   0.155E-01    0.221E-01
RMM:   5    -0.717369227513E+03    0.36330E-03   -0.17239E-03 14725   0.656E-02    0.989E-02
RMM:   6    -0.717369102760E+03    0.12475E-03   -0.12900E-03 12317   0.435E-02    0.336E-02
RMM:   7    -0.717369105334E+03   -0.25740E-05   -0.20091E-04 10883   0.204E-02    0.243E-02
RMM:   8    -0.717369102362E+03    0.29722E-05   -0.86925E-05  8553   0.117E-02
  12 F= -.71736910E+03 E0= -.71736910E+03  d E =-.633516E-02
       N       E                     dE             d eps       ncg     rms          rms(c)
DAV:   1    -0.717369074867E+03    0.30467E-04   -0.44769E-03 11176   0.955E-02    0.137E-02
RMM:   2    -0.717369090110E+03   -0.15243E-04   -0.15666E-04 11279   0.259E-02    0.119E-02
RMM:   3    -0.717369092236E+03   -0.21264E-05   -0.34882E-05  7199   0.114E-02
  13 F= -.71736909E+03 E0= -.71736909E+03  d E =-.632504E-02
       N       E                     dE             d eps       ncg     rms          rms(c)
DAV:   1    -0.717369091794E+03   -0.16846E-05   -0.27691E-03 11330   0.750E-02    0.148E-02
RMM:   2    -0.717369105882E+03   -0.14088E-04   -0.11458E-04  9706   0.226E-02    0.243E-02
RMM:   3    -0.717369103518E+03    0.23637E-05   -0.30660E-05  7125   0.109E-02
  14 F= -.71736910E+03 E0= -.71736910E+03  d E =-.633632E-02
       N       E                     dE             d eps       ncg     rms          rms(c)
DAV:   1    -0.717361097947E+03    0.80079E-02   -0.28554E+00 10544   0.242E+00    0.292E-01
RMM:   2    -0.717370045845E+03   -0.89479E-02   -0.94664E-02 12984   0.620E-01    0.134E-01
RMM:   3    -0.717372177417E+03   -0.21316E-02   -0.21746E-02 15167   0.248E-01    0.153E-01
RMM:   4    -0.717372245745E+03   -0.68328E-04   -0.24198E-03 14953   0.856E-02    0.114E-01
RMM:   5    -0.717372150726E+03    0.95019E-04   -0.53928E-04 13484   0.373E-02    0.710E-02
RMM:   6    -0.717372071343E+03    0.79383E-04   -0.67738E-04 12198   0.325E-02    0.389E-02
RMM:   7    -0.717372061965E+03    0.93785E-05   -0.10187E-04  9630   0.156E-02    0.233E-02
RMM:   8    -0.717372053814E+03    0.81503E-05   -0.49239E-05  7991   0.924E-03
  15 F= -.71737205E+03 E0= -.71737205E+03  d E =-.295030E-02
       N       E                     dE             d eps       ncg     rms          rms(c)
DAV:   1    -0.717372023512E+03    0.38453E-04   -0.62348E-03 10658   0.114E-01    0.143E-02
RMM:   2    -0.717372044929E+03   -0.21417E-04   -0.22554E-04 12389   0.311E-02    0.887E-03
RMM:   3    -0.717372049137E+03   -0.42087E-05   -0.49365E-05  7775   0.135E-02
  16 F= -.71737205E+03 E0= -.71737205E+03  d E =-.294562E-02
       N       E                     dE             d eps       ncg     rms          rms(c)
DAV:   1    -0.717372042343E+03    0.25857E-05   -0.25779E-03 11680   0.734E-02    0.125E-02
RMM:   2    -0.717372052088E+03   -0.97449E-05   -0.10200E-04  9812   0.210E-02    0.826E-03
RMM:   3    -0.717372054470E+03   -0.23824E-05   -0.28164E-05  6987   0.104E-02
  17 F= -.71737205E+03 E0= -.71737205E+03  d E =-.295095E-02
       N       E                     dE             d eps       ncg     rms          rms(c)
DAV:   1    -0.717367710072E+03    0.43420E-02   -0.15955E+00 10416   0.177E+00    0.217E-01
RMM:   2    -0.717372478042E+03   -0.47680E-02   -0.50497E-02 12623   0.447E-01    0.752E-02
RMM:   3    -0.717373605126E+03   -0.11271E-02   -0.12206E-02 15173   0.183E-01    0.696E-02
RMM:   4    -0.717373679254E+03   -0.74129E-04   -0.12176E-03 14887   0.587E-02    0.615E-02
RMM:   5    -0.717373655513E+03    0.23741E-04   -0.29602E-04 12268   0.270E-02    0.509E-02
RMM:   6    -0.717373641664E+03    0.13849E-04   -0.21881E-04 10532   0.207E-02    0.326E-02
RMM:   7    -0.717373633074E+03    0.85899E-05   -0.46211E-05  7923   0.111E-02
  18 F= -.71737363E+03 E0= -.71737363E+03  d E =-.157860E-02
       N       E                     dE             d eps       ncg     rms          rms(c)
DAV:   1    -0.717373628604E+03    0.13060E-04   -0.75544E-04 10728   0.399E-02    0.937E-03
RMM:   2    -0.717373633253E+03   -0.46489E-05   -0.49141E-05  7956   0.131E-02
  19 F= -.71737363E+03 E0= -.71737363E+03  d E =-.157878E-02
       N       E                     dE             d eps       ncg     rms          rms(c)
DAV:   1    -0.717372142195E+03    0.14864E-02   -0.56696E-01 10536   0.109E+00    0.139E-01
RMM:   2    -0.717374095085E+03   -0.19529E-02   -0.19418E-02 13054   0.284E-01    0.169E-01
RMM:   3    -0.717374396948E+03   -0.30186E-03   -0.46327E-03 14679   0.122E-01    0.986E-02
RMM:   4    -0.717374343489E+03    0.53459E-04   -0.55794E-04 13646   0.420E-02    0.500E-02
RMM:   5    -0.717374310147E+03    0.33342E-04   -0.14369E-04 10639   0.203E-02    0.251E-02
RMM:   6    -0.717374301777E+03    0.83701E-05   -0.92912E-05  9614   0.133E-02
  20 F= -.71737430E+03 E0= -.71737430E+03  d E =-.668524E-03
       N       E                     dE             d eps       ncg     rms          rms(c)
DAV:   1    -0.717374297969E+03    0.12178E-04   -0.48695E-04 12056   0.338E-02    0.114E-02
RMM:   2    -0.717374300821E+03   -0.28516E-05   -0.30394E-05  6809   0.120E-02
  21 F= -.71737430E+03 E0= -.71737430E+03  d E =-.667568E-03
       N       E                     dE             d eps       ncg     rms          rms(c)
DAV:   1    -0.717374299557E+03   -0.15882E-05   -0.32261E-04 10712   0.285E-02    0.923E-03
RMM:   2    -0.717374303754E+03   -0.41964E-05   -0.23389E-05  6334   0.118E-02
  22 F= -.71737430E+03 E0= -.71737430E+03  d E =-.670501E-03
       N       E                     dE             d eps       ncg     rms          rms(c)
DAV:   1    -0.717373460515E+03    0.83904E-03   -0.31503E-01 10680   0.821E-01    0.112E-01
RMM:   2    -0.717374456267E+03   -0.99575E-03   -0.10046E-02 12852   0.210E-01    0.115E-01
RMM:   3    -0.717374669152E+03   -0.21289E-03   -0.25956E-03 14872   0.892E-02    0.743E-02
RMM:   4    -0.717374644430E+03    0.24723E-04   -0.32144E-04 12486   0.328E-02    0.487E-02
RMM:   5    -0.717374628906E+03    0.15524E-04   -0.86995E-05  9441   0.174E-02    0.231E-02
RMM:   6    -0.717374623339E+03    0.55670E-05   -0.74021E-05  9234   0.117E-02
  23 F= -.71737462E+03 E0= -.71737462E+03  d E =-.319585E-03
       N       E                     dE             d eps       ncg     rms          rms(c)
DAV:   1    -0.717374599270E+03    0.29636E-04   -0.51720E-03 11836   0.106E-01    0.182E-02
RMM:   2    -0.717374618554E+03   -0.19284E-04   -0.19805E-04 12444   0.283E-02    0.175E-02
RMM:   3    -0.717374621590E+03   -0.30366E-05   -0.49992E-05  8159   0.130E-02
  24 F= -.71737462E+03 E0= -.71737462E+03  d E =-.317837E-03
       N       E                     dE             d eps       ncg     rms          rms(c)
DAV:   1    -0.717374608570E+03    0.99839E-05   -0.33484E-03 10848   0.858E-02    0.171E-02
RMM:   2    -0.717374626920E+03   -0.18350E-04   -0.13918E-04 10827   0.263E-02    0.291E-02
RMM:   3    -0.717374623250E+03    0.36700E-05   -0.38665E-05  7676   0.121E-02
  25 F= -.71737462E+03 E0= -.71737462E+03  d E =-.319496E-03
       N       E                     dE             d eps       ncg     rms          rms(c)
DAV:   1    -0.717374619052E+03    0.78674E-05   -0.81191E-04 10422   0.421E-02    0.105E-02
RMM:   2    -0.717374623038E+03   -0.39859E-05   -0.36665E-05  7576   0.129E-02
  26 F= -.71737462E+03 E0= -.71737462E+03  d E =-.319285E-03
       N       E                     dE             d eps       ncg     rms          rms(c)
DAV:   1    -0.717374621925E+03   -0.28728E-05   -0.24047E-04 10688   0.245E-02    0.753E-03
RMM:   2    -0.717374625424E+03   -0.34984E-05   -0.18146E-05  5868   0.989E-03
  27 F= -.71737463E+03 E0= -.71737463E+03  d E =-.321670E-03
       N       E                     dE             d eps       ncg     rms          rms(c)
DAV:   1    -0.717374621989E+03   -0.63810E-07   -0.57787E-05  9246   0.155E-02    0.379E-03
RMM:   2    -0.717374622941E+03   -0.95219E-06   -0.81217E-06  5311   0.709E-03
  28 F= -.71737462E+03 E0= -.71737462E+03  d E =-.319187E-03
       N       E                     dE             d eps       ncg     rms          rms(c)
DAV:   1    -0.717374622599E+03   -0.61038E-06   -0.17053E-05  6352   0.787E-03    0.185E-03
RMM:   2    -0.717374622965E+03   -0.36602E-06   -0.32561E-06  5184   0.432E-03
  29 F= -.71737462E+03 E0= -.71737462E+03  d E =-.319212E-03
       N       E                     dE             d eps       ncg     rms          rms(c)
DAV:   1    -0.717374622749E+03   -0.14928E-06   -0.28337E-06  5414   0.389E-03    0.124E-03
RMM:   2    -0.717374622829E+03   -0.80247E-07   -0.93155E-07  4473   0.213E-03
  30 F= -.71737462E+03 E0= -.71737462E+03  d E =-.319075E-03
       N       E                     dE             d eps       ncg     rms          rms(c)
DAV:   1    -0.717374622895E+03   -0.14659E-06   -0.45176E-07  5384   0.163E-03    0.828E-04
RMM:   2    -0.717374622910E+03   -0.14865E-07   -0.13698E-07  2482   0.957E-04
  31 F= -.71737462E+03 E0= -.71737462E+03  d E =-.319156E-03
       N       E                     dE             d eps       ncg     rms          rms(c)
DAV:   1    -0.717374061162E+03    0.56173E-03   -0.19392E-01 10784   0.656E-01    0.826E-02
RMM:   2    -0.717374720026E+03   -0.65886E-03   -0.64213E-03 13077   0.172E-01    0.117E-01
RMM:   3    -0.717374809693E+03   -0.89667E-04   -0.16363E-03 14383   0.744E-02    0.506E-02
RMM:   4    -0.717374799770E+03    0.99225E-05   -0.22276E-04 12088   0.272E-02    0.381E-02
RMM:   5    -0.717374787994E+03    0.11776E-04   -0.57351E-05  8564   0.150E-02    0.155E-02
RMM:   6    -0.717374784861E+03    0.31331E-05   -0.44158E-05  8049   0.915E-03
  32 F= -.71737478E+03 E0= -.71737478E+03  d E =-.161950E-03
       N       E                     dE             d eps       ncg     rms          rms(c)
DAV:   1    -0.717374776456E+03    0.11538E-04   -0.32742E-03 11328   0.857E-02    0.918E-03
RMM:   2    -0.717374788707E+03   -0.12251E-04   -0.12519E-04 11845   0.240E-02    0.145E-02
RMM:   3    -0.717374789006E+03   -0.29858E-06   -0.27658E-05  6601   0.110E-02
  33 F= -.71737479E+03 E0= -.71737479E+03  d E =-.166096E-03
       N       E                     dE             d eps       ncg     rms          rms(c)
DAV:   1    -0.717374783256E+03    0.54514E-05   -0.98256E-04 11300   0.472E-02    0.103E-02
RMM:   2    -0.717374789102E+03   -0.58462E-05   -0.49485E-05  8006   0.148E-02
  34 F= -.71737479E+03 E0= -.71737479E+03  d E =-.166192E-03
       N       E                     dE             d eps       ncg     rms          rms(c)
DAV:   1    -0.717374786970E+03   -0.37140E-05   -0.45748E-04 10352   0.337E-02    0.599E-03
RMM:   2    -0.717374789889E+03   -0.29190E-05   -0.23879E-05  6203   0.120E-02
  35 F= -.71737479E+03 E0= -.71737479E+03  d E =-.166979E-03
       N       E                     dE             d eps       ncg     rms          rms(c)
DAV:   1    -0.717374787885E+03   -0.91464E-06   -0.10779E-04 10750   0.178E-02    0.491E-03
RMM:   2    -0.717374789311E+03   -0.14263E-05   -0.10092E-05  5407   0.783E-03
  36 F= -.71737479E+03 E0= -.71737479E+03  d E =-.166401E-03
       N       E                     dE             d eps       ncg     rms          rms(c)
DAV:   1    -0.717374788532E+03   -0.64715E-06   -0.31344E-05  7320   0.114E-02    0.205E-03
RMM:   2    -0.717374789194E+03   -0.66247E-06   -0.59142E-06  5184   0.630E-03
  37 F= -.71737479E+03 E0= -.71737479E+03  d E =-.166284E-03
       N       E                     dE             d eps       ncg     rms          rms(c)
DAV:   1    -0.717374788751E+03   -0.21930E-06   -0.49215E-06  5442   0.523E-03    0.179E-03
RMM:   2    -0.717374788863E+03   -0.11206E-06   -0.16530E-06  4943   0.289E-03
  38 F= -.71737479E+03 E0= -.71737479E+03  d E =-.165953E-03
       N       E                     dE             d eps       ncg     rms          rms(c)
DAV:   1    -0.717374789003E+03   -0.25224E-06   -0.10688E-06  5368   0.246E-03    0.125E-03
RMM:   2    -0.717374789032E+03   -0.29184E-07   -0.45121E-07  4513   0.164E-03
  39 F= -.71737479E+03 E0= -.71737479E+03  d E =-.166122E-03
       N       E                     dE             d eps       ncg     rms          rms(c)
DAV:   1    -0.717374378599E+03    0.41040E-03   -0.14159E-01 10824   0.564E-01    0.654E-02
RMM:   2    -0.717374833014E+03   -0.45442E-03   -0.46859E-03 13111   0.147E-01    0.583E-02
RMM:   3    -0.717374941379E+03   -0.10836E-03   -0.11625E-03 14748   0.606E-02    0.481E-02
RMM:   4    -0.717374932930E+03    0.84487E-05   -0.15588E-04 11493   0.232E-02    0.268E-02
RMM:   5    -0.717374926677E+03    0.62532E-05   -0.35383E-05  7439   0.125E-02
  40 F= -.71737493E+03 E0= -.71737493E+03  d E =-.137645E-03
       N       E                     dE             d eps       ncg     rms          rms(c)
DAV:   1    -0.717374905518E+03    0.27412E-04   -0.24375E-03 12568   0.861E-02    0.108E-02
RMM:   2    -0.717374918456E+03   -0.12937E-04   -0.13529E-04 12404   0.234E-02    0.110E-02
RMM:   3    -0.717374919095E+03   -0.63932E-06   -0.21130E-05  6370   0.963E-03
  41 F= -.71737492E+03 E0= -.71737492E+03  d E =-.130062E-03
       N       E                     dE             d eps       ncg     rms          rms(c)
DAV:   1    -0.717374918535E+03   -0.79068E-07   -0.84922E-04 11330   0.443E-02    0.965E-03
RMM:   2    -0.717374922188E+03   -0.36535E-05   -0.39980E-05  7625   0.135E-02
  42 F= -.71737492E+03 E0= -.71737492E+03  d E =-.133156E-03
       N       E                     dE             d eps       ncg     rms          rms(c)
DAV:   1    -0.717374920839E+03   -0.23039E-05   -0.30131E-04 10376   0.271E-02    0.727E-03
RMM:   2    -0.717374924881E+03   -0.40421E-05   -0.19911E-05  5981   0.101E-02
  43 F= -.71737492E+03 E0= -.71737492E+03  d E =-.135848E-03
       N       E                     dE             d eps       ncg     rms          rms(c)
DAV:   1    -0.717374921411E+03   -0.57263E-06   -0.74055E-05 10212   0.173E-02    0.397E-03
RMM:   2    -0.717374922294E+03   -0.88318E-06   -0.88964E-06  5315   0.743E-03
  44 F= -.71737492E+03 E0= -.71737492E+03  d E =-.133262E-03
       N       E                     dE             d eps       ncg     rms          rms(c)
DAV:   1    -0.717374921920E+03   -0.50930E-06   -0.11599E-05  5816   0.722E-03    0.228E-03
RMM:   2    -0.717374922408E+03   -0.48761E-06   -0.32058E-06  5168   0.440E-03
  45 F= -.71737492E+03 E0= -.71737492E+03  d E =-.133376E-03
       N       E                     dE             d eps       ncg     rms          rms(c)
DAV:   1    -0.717374922196E+03   -0.27545E-06   -0.21838E-06  5348   0.409E-03    0.137E-03
RMM:   2    -0.717374922260E+03   -0.64058E-07   -0.82503E-07  4490   0.192E-03
  46 F= -.71737492E+03 E0= -.71737492E+03  d E =-.133227E-03
       N       E                     dE             d eps       ncg     rms          rms(c)
DAV:   1    -0.717374922252E+03   -0.56527E-07   -0.38589E-07  5312   0.146E-03    0.134E-03
RMM:   2    -0.717374922257E+03   -0.44456E-08   -0.60609E-08  1694   0.778E-04
  47 F= -.71737492E+03 E0= -.71737492E+03  d E =-.133224E-03
       N       E                     dE             d eps       ncg     rms          rms(c)
DAV:   1    -0.717374922298E+03   -0.45489E-07   -0.10793E-07  5282   0.125E-03    0.110E-03
RMM:   2    -0.717374922369E+03   -0.71428E-07   -0.14413E-07  1707   0.748E-04
  48 F= -.71737492E+03 E0= -.71737492E+03  d E =-.133337E-03
       N       E                     dE             d eps       ncg     rms          rms(c)
DAV:   1    -0.717374858106E+03    0.64192E-04   -0.34203E-02 10808   0.279E-01    0.299E-02
RMM:   2    -0.717374972783E+03   -0.11468E-03   -0.11834E-03 13153   0.740E-02    0.285E-02
RMM:   3    -0.717374998887E+03   -0.26103E-04   -0.29039E-04 13207   0.310E-02    0.242E-02
RMM:   4    -0.717374995730E+03    0.31561E-05   -0.40666E-05  7093   0.139E-02
  49 F= -.71737500E+03 E0= -.71737500E+03  d E =-.733610E-04
       N       E                     dE             d eps       ncg     rms          rms(c)
DAV:   1    -0.717374991682E+03    0.72040E-05   -0.94352E-05 10000   0.191E-02    0.662E-03
RMM:   2    -0.717374992620E+03   -0.93744E-06   -0.13965E-05  5890   0.852E-03
  50 F= -.71737499E+03 E0= -.71737499E+03  d E =-.702506E-04
       N       E                     dE             d eps       ncg     rms          rms(c)
DAV:   1    -0.717374993340E+03   -0.16575E-05   -0.61320E-05 10152   0.148E-02    0.541E-03
RMM:   2    -0.717374995254E+03   -0.19141E-05   -0.93971E-06  5438   0.759E-03
  51 F= -.71737500E+03 E0= -.71737500E+03  d E =-.728848E-04
       N       E                     dE             d eps       ncg     rms          rms(c)
DAV:   1    -0.717374935469E+03    0.57871E-04   -0.28371E-02 10912   0.248E-01    0.425E-02
RMM:   2    -0.717375045823E+03   -0.11035E-03   -0.98205E-04 12777   0.665E-02    0.653E-02
RMM:   3    -0.717375043371E+03    0.24516E-05   -0.25157E-04 12429   0.292E-02    0.236E-02
RMM:   4    -0.717375040251E+03    0.31200E-05   -0.43769E-05  7414   0.147E-02
  52 F= -.71737504E+03 E0= -.71737504E+03  d E =-.449968E-04
       N       E                     dE             d eps       ncg     rms          rms(c)
DAV:   1    -0.717375021270E+03    0.22101E-04   -0.24953E-03 10552   0.750E-02    0.157E-02
RMM:   2    -0.717375031799E+03   -0.10529E-04   -0.11020E-04 10406   0.214E-02    0.119E-02
RMM:   3    -0.717375032160E+03   -0.36077E-06   -0.21932E-05  6449   0.975E-03
  53 F= -.71737503E+03 E0= -.71737503E+03  d E =-.369058E-04
       N       E                     dE             d eps       ncg     rms          rms(c)
DAV:   1    -0.717375032129E+03   -0.33018E-06   -0.11096E-03 10528   0.495E-02    0.126E-02
RMM:   2    -0.717375041757E+03   -0.96282E-05   -0.60579E-05  8484   0.163E-02
  54 F= -.71737504E+03 E0= -.71737504E+03  d E =-.465034E-04
       N       E                     dE             d eps       ncg     rms          rms(c)
DAV:   1    -0.717375033510E+03   -0.13804E-05   -0.26432E-04 11144   0.274E-02    0.455E-03
RMM:   2    -0.717375034759E+03   -0.12488E-05   -0.15583E-05  5806   0.910E-03
  55 F= -.71737503E+03 E0= -.71737503E+03  d E =-.395044E-04
       N       E                     dE             d eps       ncg     rms          rms(c)
DAV:   1    -0.717375035450E+03   -0.19403E-05   -0.70046E-05  9416   0.139E-02    0.446E-03
RMM:   2    -0.717375036983E+03   -0.15332E-05   -0.78151E-06  5308   0.691E-03
  56 F= -.71737504E+03 E0= -.71737504E+03  d E =-.417292E-04
       N       E                     dE             d eps       ncg     rms          rms(c)
DAV:   1    -0.717375035627E+03   -0.17687E-06   -0.61923E-06  5560   0.729E-03    0.177E-03
RMM:   2    -0.717375035683E+03   -0.55566E-07   -0.16324E-06  4594   0.255E-03
  57 F= -.71737504E+03 E0= -.71737504E+03  d E =-.404284E-04
       N       E                     dE             d eps       ncg     rms          rms(c)
DAV:   1    -0.717375035865E+03   -0.23827E-06   -0.13230E-06  5266   0.264E-03    0.137E-03
RMM:   2    -0.717375035904E+03   -0.39247E-07   -0.51409E-07  4678   0.174E-03
  58 F= -.71737504E+03 E0= -.71737504E+03  d E =-.406504E-04
       N       E                     dE             d eps       ncg     rms          rms(c)
DAV:   1    -0.717375019801E+03    0.16064E-04   -0.15558E-02 11152   0.188E-01    0.231E-02
RMM:   2    -0.717375070119E+03   -0.50318E-04   -0.49166E-04 12737   0.480E-02    0.285E-02
RMM:   3    -0.717375078403E+03   -0.82832E-05   -0.13321E-04 11637   0.213E-02    0.150E-02
RMM:   4    -0.717375077248E+03    0.11544E-05   -0.19779E-05  6300   0.107E-02
  59 F= -.71737508E+03 E0= -.71737508E+03  d E =-.413438E-04
