Ga8 O12                                 
    1.000000000000000     
     0.0000000000000000   12.2804737091000007    0.0000000000000000
     9.1427011490000005    0.0000000000000000    0.0000000000000000
     0.0000000000000000   -2.7682616411000001  -11.3006974810000003
   Ga   O    Cu   N 
    47    71     1     1
Direct
  0.6593397454053402  0.9995598491493212  0.1569236124200231
  0.6585249942414180  0.0010483341780656  0.6561991303173613
  0.6603970912240982  0.3326255715010902  0.1563513439986082
  0.6591943024667017  0.3342038272326633  0.6563168246928299
  0.6590896453690860  0.6658623083546331  0.1567493981856174
  0.6588399607742730  0.6672274380514551  0.6562683647664329
  0.8410125654930809  0.1669309551678637  0.3441127734444507
  0.8407966427151408  0.1664408691866939  0.8430356543156989
  0.8413849373864295  0.4998880827410730  0.3438521304744810
  0.8408888455325112  0.5000563814312926  0.8433839557741578
  0.8407429520462557  0.8335317918928311  0.3438613319948800
  0.8408157484095113  0.8330930301694508  0.8432522474061770
  0.5887096431779639  0.1694828954202521  0.3965074865375726
  0.5917630495247721  0.1663922622000840  0.8976122472099846
  0.5902139339625307  0.5029065229844605  0.3971466801227024
  0.5914120978843798  0.4996518900697566  0.8980478560861442
  0.5914337390651241  0.8357284588735112  0.3979997432735445
  0.5916641188914369  0.8329877877540213  0.8979299209264795
  0.9077537770113011  0.9999052736626766  0.1021496802471162
  0.9092455307646574  0.9999996389738541  0.6026065364246875
  0.9095491415635948  0.3334285432096422  0.1025287564046522
  0.9095115623297971  0.3334338697318060  0.6026889963639590
  0.9093658653894536  0.6660752694292142  0.1028785628287707
  0.9094048466164466  0.6668693352685793  0.6028054095444375
  0.1583198326066864  0.1649889062363954  0.1552982056583048
  0.1596588255812179  0.1663158106021072  0.6576047917601926
  0.1604168166716349  0.4991841832501933  0.1567428105911688
  0.1596422291941124  0.5001181904059422  0.6580466834326870
  0.1582694308165884  0.8330042916516476  0.1577912252732574
  0.1599416190398699  0.8334770471952453  0.6568554193005980
  0.3408035748949629  0.0006925420801238  0.3421791935985752
  0.3419987005545266  0.9993221681135012  0.8424286803733168
  0.3417425720792409  0.3332342915429578  0.8441510496834184
  0.3402711739713524  0.6649997225419710  0.3418958218644192
  0.3419664912421538  0.6654609745576963  0.8450166158579222
  0.0910814704717140  0.0005097242097136  0.3973999563935351
  0.0910886034006140  0.9991291568793983  0.8970568024748218
  0.0925585776840947  0.3332830608423905  0.4004719925181348
  0.0900125738439144  0.3323005528392002  0.8969031684810389
  0.0904125137389613  0.6675596092821010  0.3981064273696049
  0.0914437903780225  0.6660694541218035  0.8977674634863106
  0.4103383904852009  0.1651435212683339  0.1010108013211166
  0.4080016915684084  0.1686299345701983  0.5996934744037361
  0.4090144611078870  0.4953850708548302  0.1068848124154016
  0.4088396728684387  0.4995005351547235  0.6026292428207398
  0.4093427865666968  0.8311483623183094  0.1021879791734932
  0.4086930843497214  0.8336555963921555  0.6014719884493971
  0.9958994165228674  0.1660003004385615  0.1276489149418154
  0.9968124752642140  0.1665792556367620  0.6272473212918541
  0.9976467229574197  0.4996468816184176  0.1280952181271857
  0.9968573612948859  0.5002110033675180  0.6277735858126050
  0.9954162286552091  0.8337230519358414  0.1265048868725458
  0.9970735966310187  0.8334954196630875  0.6277097976379480
  0.5032093975655485  0.0016810461410657  0.3717694718561049
  0.5044470403607093  0.9997301484394825  0.8724027200021851
  0.5008750418436207  0.3371197629791851  0.3725372711851946
  0.5043797920737063  0.3328207806692802  0.8722916268879501
  0.5043254875496288  0.6697717634809521  0.3756350962753316
  0.5043430300270870  0.6664754699874109  0.8726725824724610
  0.6722675984619073  0.1674344619505632  0.2809192371437490
  0.6726445518330308  0.1668879966533083  0.7798432841048353
  0.6725535728357102  0.4997394007387896  0.2807173336867521
  0.6726512388197037  0.5001613654105768  0.7803372753951052
  0.6727641528036443  0.8333985127239316  0.2807018963536976
  0.6723549574051049  0.8335533902721508  0.7801127221847679
  0.8272916580151346  0.0003754520953905  0.2201561129336227
  0.8271614907758291  0.0002245816257158  0.7191634449210795
  0.8280737997072762  0.3333451761153583  0.2199137795545312
  0.8275662284259795  0.3334963294805675  0.7193967007792352
  0.8277866184874654  0.6661686081683555  0.2200777382342380
  0.8273735918208516  0.6668671221832625  0.7194651018290088
  0.8319369009546804  0.0003450756936729  0.4462457362662988
  0.8315753808728203  0.9997963317576009  0.9453727267615903
  0.8324672400668689  0.3335460460810040  0.4462493497002953
  0.8326752499843337  0.3331467127270002  0.9458567572960135
  0.8325206746947060  0.6666116737023913  0.4462430452207116
  0.8324361666172777  0.6663835121735744  0.9460907310307363
  0.6693203351887433  0.1654800748388467  0.0540991482273299
  0.6664979665490094  0.1681529646038697  0.5530103009939324
  0.6692438779141270  0.4995840118733312  0.0543104008324633
  0.6678945511696170  0.5005567788980443  0.5537613951399365
  0.6684897029181016  0.8326580218250896  0.0545701036929813
  0.6682265866841703  0.8346426232257897  0.5545651151395035
  0.4969981230455573  0.9981530477762774  0.1268714730361609
  0.4953969498349835  0.0013359265247104  0.6254838416830069
  0.4987619905575826  0.3302475683040029  0.1257454790072359
  0.4965976332460116  0.3339637720429494  0.6268051136708763
  0.4966352101919469  0.6644022811180150  0.1269874373878608
  0.4960244405288208  0.6666084883301764  0.6268819152720297
  0.0038981521167827  0.1674152187921081  0.3733676119350378
  0.0030545763991938  0.1652351893433703  0.8715916630572451
  0.0043723073110371  0.4994313053780814  0.3735313857198079
  0.0035327648206547  0.4999186294320950  0.8725973273951766
  0.0029489677698535  0.8344679036974370  0.3738501150336688
  0.0036249518908988  0.8325192675260595  0.8724965596148593
  0.1722338041192231  0.0006948639821047  0.2800174962510695
  0.1730402243071296  0.9996359936912569  0.7802908015103398
  0.1721660517266841  0.3293567719659336  0.2813768883231873
  0.1730334480224229  0.3329874644379771  0.7813304191667498
  0.1692681290546574  0.6722026110256820  0.2804340550975013
  0.1733858631328005  0.6663168804554473  0.7811852067878533
  0.3266374365470170  0.1647941873476597  0.2165451526295072
  0.3280984384493095  0.1668240958845573  0.7187564339945709
  0.3280761989537453  0.4998426363059139  0.7206377531478765
  0.3273423082184976  0.8347239293421040  0.2186148544206290
  0.3280017466825242  0.8330122528975181  0.7194234560006620
  0.3309520570115723  0.1704327757530137  0.4422470190815275
  0.3326040051536978  0.1654686880092413  0.9449500469585317
  0.3246113579600873  0.5013924271316341  0.4480549067372976
  0.3345605086056338  0.4987586163722071  0.9476624127036715
  0.3320961266066220  0.8338505438116073  0.4447566521569328
  0.3329355212784222  0.8331521915137614  0.9454976927856791
  0.1673148268093030  0.9985515761884756  0.0537411847050251
  0.1688303048221371  0.0003993814469325  0.5539308155389833
  0.1648931833835192  0.3307991761071563  0.0532656841051420
  0.1684343343106391  0.3332574281342318  0.5563371240483406
  0.1687069821891285  0.6670659035325244  0.0543633100047103
  0.1680690687847317  0.6665426700759625  0.5547089154647225
  0.3379081050468642  0.3371661937339496  0.3366191417409823
  0.3249805969969870  0.4988181398669340  0.2247714725779772
 
  0.00000000E+00  0.00000000E+00  0.00000000E+00
  0.00000000E+00  0.00000000E+00  0.00000000E+00
  0.00000000E+00  0.00000000E+00  0.00000000E+00
  0.00000000E+00  0.00000000E+00  0.00000000E+00
  0.00000000E+00  0.00000000E+00  0.00000000E+00
  0.00000000E+00  0.00000000E+00  0.00000000E+00
  0.00000000E+00  0.00000000E+00  0.00000000E+00
  0.00000000E+00  0.00000000E+00  0.00000000E+00
  0.00000000E+00  0.00000000E+00  0.00000000E+00
  0.00000000E+00  0.00000000E+00  0.00000000E+00
  0.00000000E+00  0.00000000E+00  0.00000000E+00
  0.00000000E+00  0.00000000E+00  0.00000000E+00
  0.00000000E+00  0.00000000E+00  0.00000000E+00
  0.00000000E+00  0.00000000E+00  0.00000000E+00
  0.00000000E+00  0.00000000E+00  0.00000000E+00
  0.00000000E+00  0.00000000E+00  0.00000000E+00
  0.00000000E+00  0.00000000E+00  0.00000000E+00
  0.00000000E+00  0.00000000E+00  0.00000000E+00
  0.00000000E+00  0.00000000E+00  0.00000000E+00
  0.00000000E+00  0.00000000E+00  0.00000000E+00
  0.00000000E+00  0.00000000E+00  0.00000000E+00
  0.00000000E+00  0.00000000E+00  0.00000000E+00
  0.00000000E+00  0.00000000E+00  0.00000000E+00
  0.00000000E+00  0.00000000E+00  0.00000000E+00
  0.00000000E+00  0.00000000E+00  0.00000000E+00
  0.00000000E+00  0.00000000E+00  0.00000000E+00
  0.00000000E+00  0.00000000E+00  0.00000000E+00
  0.00000000E+00  0.00000000E+00  0.00000000E+00
  0.00000000E+00  0.00000000E+00  0.00000000E+00
  0.00000000E+00  0.00000000E+00  0.00000000E+00
  0.00000000E+00  0.00000000E+00  0.00000000E+00
  0.00000000E+00  0.00000000E+00  0.00000000E+00
  0.00000000E+00  0.00000000E+00  0.00000000E+00
  0.00000000E+00  0.00000000E+00  0.00000000E+00
  0.00000000E+00  0.00000000E+00  0.00000000E+00
  0.00000000E+00  0.00000000E+00  0.00000000E+00
  0.00000000E+00  0.00000000E+00  0.00000000E+00
  0.00000000E+00  0.00000000E+00  0.00000000E+00
  0.00000000E+00  0.00000000E+00  0.00000000E+00
  0.00000000E+00  0.00000000E+00  0.00000000E+00
  0.00000000E+00  0.00000000E+00  0.00000000E+00
  0.00000000E+00  0.00000000E+00  0.00000000E+00
  0.00000000E+00  0.00000000E+00  0.00000000E+00
  0.00000000E+00  0.00000000E+00  0.00000000E+00
  0.00000000E+00  0.00000000E+00  0.00000000E+00
  0.00000000E+00  0.00000000E+00  0.00000000E+00
  0.00000000E+00  0.00000000E+00  0.00000000E+00
  0.00000000E+00  0.00000000E+00  0.00000000E+00
  0.00000000E+00  0.00000000E+00  0.00000000E+00
  0.00000000E+00  0.00000000E+00  0.00000000E+00
  0.00000000E+00  0.00000000E+00  0.00000000E+00
  0.00000000E+00  0.00000000E+00  0.00000000E+00
  0.00000000E+00  0.00000000E+00  0.00000000E+00
  0.00000000E+00  0.00000000E+00  0.00000000E+00
  0.00000000E+00  0.00000000E+00  0.00000000E+00
  0.00000000E+00  0.00000000E+00  0.00000000E+00
  0.00000000E+00  0.00000000E+00  0.00000000E+00
  0.00000000E+00  0.00000000E+00  0.00000000E+00
  0.00000000E+00  0.00000000E+00  0.00000000E+00
  0.00000000E+00  0.00000000E+00  0.00000000E+00
  0.00000000E+00  0.00000000E+00  0.00000000E+00
  0.00000000E+00  0.00000000E+00  0.00000000E+00
  0.00000000E+00  0.00000000E+00  0.00000000E+00
  0.00000000E+00  0.00000000E+00  0.00000000E+00
  0.00000000E+00  0.00000000E+00  0.00000000E+00
  0.00000000E+00  0.00000000E+00  0.00000000E+00
  0.00000000E+00  0.00000000E+00  0.00000000E+00
  0.00000000E+00  0.00000000E+00  0.00000000E+00
  0.00000000E+00  0.00000000E+00  0.00000000E+00
  0.00000000E+00  0.00000000E+00  0.00000000E+00
  0.00000000E+00  0.00000000E+00  0.00000000E+00
  0.00000000E+00  0.00000000E+00  0.00000000E+00
  0.00000000E+00  0.00000000E+00  0.00000000E+00
  0.00000000E+00  0.00000000E+00  0.00000000E+00
  0.00000000E+00  0.00000000E+00  0.00000000E+00
  0.00000000E+00  0.00000000E+00  0.00000000E+00
  0.00000000E+00  0.00000000E+00  0.00000000E+00
  0.00000000E+00  0.00000000E+00  0.00000000E+00
  0.00000000E+00  0.00000000E+00  0.00000000E+00
  0.00000000E+00  0.00000000E+00  0.00000000E+00
  0.00000000E+00  0.00000000E+00  0.00000000E+00
  0.00000000E+00  0.00000000E+00  0.00000000E+00
  0.00000000E+00  0.00000000E+00  0.00000000E+00
  0.00000000E+00  0.00000000E+00  0.00000000E+00
  0.00000000E+00  0.00000000E+00  0.00000000E+00
  0.00000000E+00  0.00000000E+00  0.00000000E+00
  0.00000000E+00  0.00000000E+00  0.00000000E+00
  0.00000000E+00  0.00000000E+00  0.00000000E+00
  0.00000000E+00  0.00000000E+00  0.00000000E+00
  0.00000000E+00  0.00000000E+00  0.00000000E+00
  0.00000000E+00  0.00000000E+00  0.00000000E+00
  0.00000000E+00  0.00000000E+00  0.00000000E+00
  0.00000000E+00  0.00000000E+00  0.00000000E+00
  0.00000000E+00  0.00000000E+00  0.00000000E+00
  0.00000000E+00  0.00000000E+00  0.00000000E+00
  0.00000000E+00  0.00000000E+00  0.00000000E+00
  0.00000000E+00  0.00000000E+00  0.00000000E+00
  0.00000000E+00  0.00000000E+00  0.00000000E+00
  0.00000000E+00  0.00000000E+00  0.00000000E+00
  0.00000000E+00  0.00000000E+00  0.00000000E+00
  0.00000000E+00  0.00000000E+00  0.00000000E+00
  0.00000000E+00  0.00000000E+00  0.00000000E+00
  0.00000000E+00  0.00000000E+00  0.00000000E+00
  0.00000000E+00  0.00000000E+00  0.00000000E+00
  0.00000000E+00  0.00000000E+00  0.00000000E+00
  0.00000000E+00  0.00000000E+00  0.00000000E+00
  0.00000000E+00  0.00000000E+00  0.00000000E+00
  0.00000000E+00  0.00000000E+00  0.00000000E+00
  0.00000000E+00  0.00000000E+00  0.00000000E+00
  0.00000000E+00  0.00000000E+00  0.00000000E+00
  0.00000000E+00  0.00000000E+00  0.00000000E+00
  0.00000000E+00  0.00000000E+00  0.00000000E+00
  0.00000000E+00  0.00000000E+00  0.00000000E+00
  0.00000000E+00  0.00000000E+00  0.00000000E+00
  0.00000000E+00  0.00000000E+00  0.00000000E+00
  0.00000000E+00  0.00000000E+00  0.00000000E+00
  0.00000000E+00  0.00000000E+00  0.00000000E+00
  0.00000000E+00  0.00000000E+00  0.00000000E+00
  0.00000000E+00  0.00000000E+00  0.00000000E+00
  0.00000000E+00  0.00000000E+00  0.00000000E+00
