       N       E                     dE             d eps       ncg     rms          rms(c)
DAV:   1     0.122597084642E+05    0.12260E+05   -0.58570E+05 10584   0.706E+03
DAV:   2    -0.310196491829E+05   -0.43279E+05   -0.41924E+05 13512   0.119E+03
DAV:   3    -0.354227181758E+05   -0.44031E+04   -0.39577E+04 14344   0.345E+02
DAV:   4    -0.358900198728E+05   -0.46730E+03   -0.40214E+03 17000   0.991E+01
DAV:   5    -0.359346786166E+05   -0.44659E+02   -0.40598E+02 19344   0.289E+01    0.710E+02
DAV:   6    -0.107789665180E+05    0.25156E+05   -0.17027E+04 14141   0.241E+02    0.419E+02
DAV:   7    -0.274647969307E+04    0.80325E+04   -0.11274E+04 15304   0.218E+02    0.196E+02
DAV:   8    -0.954757958344E+03    0.17917E+04   -0.63514E+03 15816   0.213E+02    0.134E+02
DAV:   9    -0.777889993830E+03    0.17687E+03   -0.84596E+02 13264   0.114E+02    0.742E+01
DAV:  10    -0.745578307892E+03    0.32312E+02   -0.10719E+03 15000   0.620E+01    0.434E+01
DAV:  11    -0.719108744759E+03    0.26470E+02   -0.16144E+02 15208   0.429E+01    0.254E+01
DAV:  12    -0.711065329299E+03    0.80434E+01   -0.54444E+01 15144   0.296E+01    0.135E+01
DAV:  13    -0.710588484313E+03    0.47684E+00   -0.20043E+01 13696   0.181E+01    0.638E+00
DAV:  14    -0.711274693873E+03   -0.68621E+00   -0.75128E+00 14840   0.161E+01    0.646E+00
DAV:  15    -0.710799980045E+03    0.47471E+00   -0.23584E+00 14024   0.992E+00    0.235E+00
DAV:  16    -0.710857538703E+03   -0.57559E-01   -0.12198E+00 14696   0.326E+00    0.154E+00
DAV:  17    -0.710852623812E+03    0.49149E-02   -0.27216E-01 14128   0.423E+00    0.101E+00
DAV:  18    -0.710856453205E+03   -0.38294E-02   -0.12814E-01 14912   0.139E+00    0.541E-01
DAV:  19    -0.710859406862E+03   -0.29537E-02   -0.53677E-02 12688   0.113E+00    0.385E-01
DAV:  20    -0.710858711530E+03    0.69533E-03   -0.22273E-02 15128   0.104E+00    0.146E-01
DAV:  21    -0.710859774767E+03   -0.10632E-02   -0.14388E-02 15200   0.294E-01    0.118E-01
DAV:  22    -0.710859686700E+03    0.88067E-04   -0.19819E-03 14792   0.246E-01    0.582E-02
DAV:  23    -0.710859729714E+03   -0.43014E-04   -0.10906E-03 13544   0.895E-02    0.316E-02
DAV:  24    -0.710859727557E+03    0.21575E-05   -0.18274E-04 15440   0.109E-01    0.180E-02
DAV:  25    -0.710859732382E+03   -0.48255E-05   -0.89892E-05  9776   0.364E-02
   1 F= -.71085973E+03 E0= -.71084596E+03  d E =-.275365E-01
