Ga48 O72                                
    1.000000000000000     
     0.0000000000000000   12.2804734172212839    0.0000000000000000
     9.1427020537309431    0.0000000000000000    0.0000000000000000
     0.0000000000000000   -2.7682617730220320  -11.3006977184464645
   Ga   O    P 
    47    71     1
Direct
  0.6603440032967214  0.9989429718590230  0.1587950087252423
  0.6586845029849258  0.9984831842017883  0.6558543266030910
  0.6607866762130925  0.3311416181678126  0.1588397831634722
  0.6578978833330353  0.3321800013392817  0.6562794683568143
  0.6609169588574915  0.6659731195569805  0.1583774848097050
  0.6582636602793031  0.6648660237454038  0.6577106016972252
  0.8489610176398728  0.1626819070612413  0.3446214023481105
  0.8374578836828590  0.1649929611507872  0.8406818951844386
  0.8414273531784886  0.4983704557929940  0.3456427056864442
  0.8405426424096518  0.4991610095198737  0.8426492607819682
  0.8451795161754632  0.8317489129094753  0.3457661956707554
  0.8396336987305943  0.8305454747812817  0.8419152307965447
  0.5932710252834141  0.1669277083712757  0.3973173478107697
  0.5906679098573591  0.1648066113796958  0.8987080334873525
  0.5904711105453018  0.4991650902139995  0.3982155203963629
  0.5913851892868891  0.4984639413207645  0.8994975191223915
  0.5942626873526464  0.8323346407505099  0.3987027097415705
  0.5913654493438472  0.8312870968489605  0.8993168558136588
  0.9021988247477140  0.9960671940339054  0.0988307243718936
  0.9100121055955270  0.9977894455475820  0.6008404942168610
  0.9039379828268039  0.3375845467544707  0.0994653719033138
  0.9093953724994321  0.3307941493511066  0.6029772538480458
  0.9086670583027328  0.6657355351351981  0.1027956549994329
  0.9098204848451843  0.6646694548365559  0.6041835049861390
  0.1595632842554835  0.1612775903897017  0.6513450426513501
  0.1590558219578782  0.5029544701741031  0.1686292589805802
  0.1592664476899657  0.4974061813308239  0.6604689937843986
  0.1566756299814003  0.8347151125355907  0.1732630603817853
  0.1592965097472856  0.8332061921003273  0.6536296758517182
  0.3451577191806834  0.0032003548377517  0.3441474408447931
  0.3407811617945242  0.9986625074106570  0.8453928158327386
  0.3394536923316451  0.3309357494713510  0.3425335591064211
  0.3408112838736486  0.3304948961609995  0.8460349652848933
  0.3432914670568863  0.6653838320553263  0.3483711726871022
  0.3395423713479033  0.6649158986744013  0.8456233430648581
  0.1144456178561839  0.9900358474048900  0.3778334831002965
  0.0855353969761907  0.9979976991996935  0.8899243174772167
  0.0907454138603399  0.3292341114739443  0.3997173938361485
  0.0877650443139260  0.3283103109506555  0.8944180361068490
  0.0880496007363760  0.6649039748592358  0.4026230037902252
  0.0939399762809714  0.6646188416401202  0.9038024282766628
  0.4121111351779234  0.1657163195145586  0.1069750122074069
  0.4082693492122829  0.1651139551298968  0.6036042234672792
  0.4111858859851054  0.5000588915878339  0.1039739395129615
  0.4097422905587749  0.4985525948560294  0.6060261147683832
  0.4088528503359470  0.8329991679259550  0.1041487486983357
  0.4095311129772981  0.8325849367283240  0.6050887972943713
  0.9913396477847840  0.1662498602607698  0.1079903766383055
  0.9969987887830172  0.1645837971425834  0.6261971121390530
  0.9963952293011786  0.4987735515748426  0.1275861196171491
  0.9965595111693730  0.4975664982542085  0.6320136182945220
  0.9945874186917578  0.8346524544656049  0.1269881502450403
  0.9969851388560684  0.8311167390687473  0.6313185764257909
  0.5074337583697357  0.9987417023787231  0.3757325280550390
  0.5034192236985433  0.9977137779254548  0.8747395590076152
  0.5044579947376917  0.3324222291077774  0.3745676969276275
  0.5035020468926916  0.3319218681341880  0.8752068247511176
  0.5048019882196400  0.6674091505412960  0.3705389686939711
  0.5027797983237576  0.6648877686779500  0.8768228213368303
  0.6752958286631454  0.1657885154487460  0.2809474293656251
  0.6712350943194920  0.1648086456828679  0.7803381154659732
  0.6740999809713912  0.4982692060565554  0.2821818695217573
  0.6716250090983849  0.4987671925538990  0.7811699564202499
  0.6756041744239667  0.8318894694464802  0.2816081007218969
  0.6717201817024048  0.8309586227870724  0.7810630648641137
  0.8286237022800051  0.9998838436068809  0.2196345342187840
  0.8272364823635314  0.9971316723058052  0.7183031060071485
  0.8297150858548576  0.3305317885233734  0.2201145811801624
  0.8267056654553642  0.3328561587091343  0.7191788103870280
  0.8289457607721289  0.6646580660843640  0.2208726739250437
  0.8276945045652226  0.6641126985721399  0.7209561536531197
  0.8313071017239650  0.9988231395664471  0.4455531231833305
  0.8291013715322606  0.9976824095889754  0.9428402194500265
  0.8353693351852911  0.3288708390607695  0.4457764748896977
  0.8294762744963720  0.3327302995701444  0.9435480754460670
  0.8324322433322990  0.6650307306333687  0.4479945066640028
  0.8321676425631708  0.6649652991792507  0.9463691520262500
  0.6696131037498319  0.1650687659021415  0.0547100166495795
  0.6684565301626506  0.1659956257017825  0.5548461085024741
  0.6699185857992447  0.4986721326983954  0.0559368291735538
  0.6675051160877956  0.4992506388536526  0.5548640455153802
  0.6706982478747747  0.8322926141286260  0.0553312984959291
  0.6685989642849961  0.8307569409475875  0.5557542185454381
  0.4984158256355968  0.9973312702524950  0.1277835886717327
  0.4966098028943762  0.9993940398353303  0.6289819803092982
  0.4985901187677015  0.3336807905086872  0.1274297863229421
  0.4962232264624120  0.3310462730733690  0.6300803423518104
  0.4974804867256353  0.6674951733619920  0.1282466705140379
  0.4966252497113715  0.6657673862568174  0.6306843700620419
  0.0114363868318677  0.1570749820968658  0.3646671573945923
  0.9988277488995720  0.1641990281521331  0.8660306811121643
  0.0022702931462248  0.4971041092508273  0.3764296894395116
  0.0054593510152259  0.4975314266276456  0.8796302621663230
  0.0051424308962851  0.8335578806575867  0.3757244339816950
  0.0034234394825958  0.8296007544953170  0.8765792933865200
  0.1727966464973321  0.9984730029742863  0.7804580820297957
  0.1763766724051834  0.3579032366963517  0.2917205211168366
  0.1731804711253844  0.3297038740174756  0.7832569168392851
  0.1742018102552123  0.6672278533248814  0.2884706648939073
  0.1723381594828766  0.6645200345161726  0.7840546156809509
  0.3383265665927979  0.1648095284508528  0.2277494520545247
  0.3275966860319599  0.1645190534019179  0.7216995181163526
  0.3272803144844190  0.5011598216911821  0.2181179496621724
  0.3279550620233209  0.4976493590815707  0.7231057599344624
  0.3235038511287343  0.8406266887383751  0.2194915131422377
  0.3276910127119521  0.8312943218274640  0.7220964047729126
  0.3289314264274239  0.1654228041311896  0.4473802494510508
  0.3327522092839743  0.1643717536575977  0.9500666525042050
  0.3397765479726829  0.4996054863980177  0.4487098249853503
  0.3287131684384192  0.4971503393404859  0.9492059326487166
  0.3366859419233066  0.8339850163605647  0.4470705254715952
  0.3284191188420778  0.8328856615528011  0.9486681510403017
  0.1521815611881507  0.0184140377365836  0.0549158485342645
  0.1670532416766193  0.9962641190138015  0.5506103584250326
  0.1546698931707340  0.3055950949932651  0.0595340994569966
  0.1676561952180933  0.3325499177476274  0.5569097681933854
  0.1648611063419452  0.6687342293014495  0.0626413167471753
  0.1692700669852698  0.6625436494329122  0.5576502597008854
  0.1374130164754419  0.1603141301947346  0.1416281909518773
 
  0.00000000E+00  0.00000000E+00  0.00000000E+00
  0.00000000E+00  0.00000000E+00  0.00000000E+00
  0.00000000E+00  0.00000000E+00  0.00000000E+00
  0.00000000E+00  0.00000000E+00  0.00000000E+00
  0.00000000E+00  0.00000000E+00  0.00000000E+00
  0.00000000E+00  0.00000000E+00  0.00000000E+00
  0.00000000E+00  0.00000000E+00  0.00000000E+00
  0.00000000E+00  0.00000000E+00  0.00000000E+00
  0.00000000E+00  0.00000000E+00  0.00000000E+00
  0.00000000E+00  0.00000000E+00  0.00000000E+00
  0.00000000E+00  0.00000000E+00  0.00000000E+00
  0.00000000E+00  0.00000000E+00  0.00000000E+00
  0.00000000E+00  0.00000000E+00  0.00000000E+00
  0.00000000E+00  0.00000000E+00  0.00000000E+00
  0.00000000E+00  0.00000000E+00  0.00000000E+00
  0.00000000E+00  0.00000000E+00  0.00000000E+00
  0.00000000E+00  0.00000000E+00  0.00000000E+00
  0.00000000E+00  0.00000000E+00  0.00000000E+00
  0.00000000E+00  0.00000000E+00  0.00000000E+00
  0.00000000E+00  0.00000000E+00  0.00000000E+00
  0.00000000E+00  0.00000000E+00  0.00000000E+00
  0.00000000E+00  0.00000000E+00  0.00000000E+00
  0.00000000E+00  0.00000000E+00  0.00000000E+00
  0.00000000E+00  0.00000000E+00  0.00000000E+00
  0.00000000E+00  0.00000000E+00  0.00000000E+00
  0.00000000E+00  0.00000000E+00  0.00000000E+00
  0.00000000E+00  0.00000000E+00  0.00000000E+00
  0.00000000E+00  0.00000000E+00  0.00000000E+00
  0.00000000E+00  0.00000000E+00  0.00000000E+00
  0.00000000E+00  0.00000000E+00  0.00000000E+00
  0.00000000E+00  0.00000000E+00  0.00000000E+00
  0.00000000E+00  0.00000000E+00  0.00000000E+00
  0.00000000E+00  0.00000000E+00  0.00000000E+00
  0.00000000E+00  0.00000000E+00  0.00000000E+00
  0.00000000E+00  0.00000000E+00  0.00000000E+00
  0.00000000E+00  0.00000000E+00  0.00000000E+00
  0.00000000E+00  0.00000000E+00  0.00000000E+00
  0.00000000E+00  0.00000000E+00  0.00000000E+00
  0.00000000E+00  0.00000000E+00  0.00000000E+00
  0.00000000E+00  0.00000000E+00  0.00000000E+00
  0.00000000E+00  0.00000000E+00  0.00000000E+00
  0.00000000E+00  0.00000000E+00  0.00000000E+00
  0.00000000E+00  0.00000000E+00  0.00000000E+00
  0.00000000E+00  0.00000000E+00  0.00000000E+00
  0.00000000E+00  0.00000000E+00  0.00000000E+00
  0.00000000E+00  0.00000000E+00  0.00000000E+00
  0.00000000E+00  0.00000000E+00  0.00000000E+00
  0.00000000E+00  0.00000000E+00  0.00000000E+00
  0.00000000E+00  0.00000000E+00  0.00000000E+00
  0.00000000E+00  0.00000000E+00  0.00000000E+00
  0.00000000E+00  0.00000000E+00  0.00000000E+00
  0.00000000E+00  0.00000000E+00  0.00000000E+00
  0.00000000E+00  0.00000000E+00  0.00000000E+00
  0.00000000E+00  0.00000000E+00  0.00000000E+00
  0.00000000E+00  0.00000000E+00  0.00000000E+00
  0.00000000E+00  0.00000000E+00  0.00000000E+00
  0.00000000E+00  0.00000000E+00  0.00000000E+00
  0.00000000E+00  0.00000000E+00  0.00000000E+00
  0.00000000E+00  0.00000000E+00  0.00000000E+00
  0.00000000E+00  0.00000000E+00  0.00000000E+00
  0.00000000E+00  0.00000000E+00  0.00000000E+00
  0.00000000E+00  0.00000000E+00  0.00000000E+00
  0.00000000E+00  0.00000000E+00  0.00000000E+00
  0.00000000E+00  0.00000000E+00  0.00000000E+00
  0.00000000E+00  0.00000000E+00  0.00000000E+00
  0.00000000E+00  0.00000000E+00  0.00000000E+00
  0.00000000E+00  0.00000000E+00  0.00000000E+00
  0.00000000E+00  0.00000000E+00  0.00000000E+00
  0.00000000E+00  0.00000000E+00  0.00000000E+00
  0.00000000E+00  0.00000000E+00  0.00000000E+00
  0.00000000E+00  0.00000000E+00  0.00000000E+00
  0.00000000E+00  0.00000000E+00  0.00000000E+00
  0.00000000E+00  0.00000000E+00  0.00000000E+00
  0.00000000E+00  0.00000000E+00  0.00000000E+00
  0.00000000E+00  0.00000000E+00  0.00000000E+00
  0.00000000E+00  0.00000000E+00  0.00000000E+00
  0.00000000E+00  0.00000000E+00  0.00000000E+00
  0.00000000E+00  0.00000000E+00  0.00000000E+00
  0.00000000E+00  0.00000000E+00  0.00000000E+00
  0.00000000E+00  0.00000000E+00  0.00000000E+00
  0.00000000E+00  0.00000000E+00  0.00000000E+00
  0.00000000E+00  0.00000000E+00  0.00000000E+00
  0.00000000E+00  0.00000000E+00  0.00000000E+00
  0.00000000E+00  0.00000000E+00  0.00000000E+00
  0.00000000E+00  0.00000000E+00  0.00000000E+00
  0.00000000E+00  0.00000000E+00  0.00000000E+00
  0.00000000E+00  0.00000000E+00  0.00000000E+00
  0.00000000E+00  0.00000000E+00  0.00000000E+00
  0.00000000E+00  0.00000000E+00  0.00000000E+00
  0.00000000E+00  0.00000000E+00  0.00000000E+00
  0.00000000E+00  0.00000000E+00  0.00000000E+00
  0.00000000E+00  0.00000000E+00  0.00000000E+00
  0.00000000E+00  0.00000000E+00  0.00000000E+00
  0.00000000E+00  0.00000000E+00  0.00000000E+00
  0.00000000E+00  0.00000000E+00  0.00000000E+00
  0.00000000E+00  0.00000000E+00  0.00000000E+00
  0.00000000E+00  0.00000000E+00  0.00000000E+00
  0.00000000E+00  0.00000000E+00  0.00000000E+00
  0.00000000E+00  0.00000000E+00  0.00000000E+00
  0.00000000E+00  0.00000000E+00  0.00000000E+00
  0.00000000E+00  0.00000000E+00  0.00000000E+00
  0.00000000E+00  0.00000000E+00  0.00000000E+00
  0.00000000E+00  0.00000000E+00  0.00000000E+00
  0.00000000E+00  0.00000000E+00  0.00000000E+00
  0.00000000E+00  0.00000000E+00  0.00000000E+00
  0.00000000E+00  0.00000000E+00  0.00000000E+00
  0.00000000E+00  0.00000000E+00  0.00000000E+00
  0.00000000E+00  0.00000000E+00  0.00000000E+00
  0.00000000E+00  0.00000000E+00  0.00000000E+00
  0.00000000E+00  0.00000000E+00  0.00000000E+00
  0.00000000E+00  0.00000000E+00  0.00000000E+00
  0.00000000E+00  0.00000000E+00  0.00000000E+00
  0.00000000E+00  0.00000000E+00  0.00000000E+00
  0.00000000E+00  0.00000000E+00  0.00000000E+00
  0.00000000E+00  0.00000000E+00  0.00000000E+00
  0.00000000E+00  0.00000000E+00  0.00000000E+00
  0.00000000E+00  0.00000000E+00  0.00000000E+00
  0.00000000E+00  0.00000000E+00  0.00000000E+00
  0.00000000E+00  0.00000000E+00  0.00000000E+00
