Ga48 O72                                
    1.000000000000000     
     0.0000000000000000   12.2804734172212839    0.0000000000000000
     9.1427020537309431    0.0000000000000000    0.0000000000000000
     0.0000000000000000   -2.7682617730220320  -11.3006977184464645
   Ga   O    P 
    47    71     1
Direct
  0.6603440032967229 -0.0010570281409764  0.1587950087252400
  0.6586845029849280 -0.0015168157982115  0.6558543266030896
  0.6607866762130943  0.3311416181678110  0.1588397831634758
  0.6578978833330318  0.3321800013392782  0.6562794683568153
  0.6609169588574881  0.6659731195569817  0.1583774848097077
  0.6582636602793048  0.6648660237454035  0.6577106016972253
  0.8489610176398696  0.1626819070612426  0.3446214023481078
  0.8374578836828571  0.1649929611507852  0.8406818951844420
  0.8414273531784915  0.4983704557929929  0.3456427056864436
  0.8405426424096516  0.4991610095198756  0.8426492607819663
  0.8451795161754658  0.8317489129094733  0.3457661956707531
  0.8396336987305953  0.8305454747812814  0.8419152307965445
  0.5932710252834135  0.1669277083712747  0.3973173478107678
  0.5906679098573594  0.1648066113796960  0.8987080334873531
  0.5904711105453042  0.4991650902139972  0.3982155203963622
  0.5913851892868875  0.4984639413207681  0.8994975191223945
  0.5942626873526431  0.8323346407505128  0.3987027097415711
  0.5913654493438496  0.8312870968489631  0.8993168558136606
  0.9021988247477132 -0.0039328059660973  0.0988307243718943
  0.9100121055955264 -0.0022105544524189  0.6008404942168623
  0.9039379828268008  0.3375845467544702  0.0994653719033155
  0.9093953724994355  0.3307941493511048  0.6029772538480465
  0.9086670583027349  0.6657355351351972  0.1027956549994317
  0.9098204848451827  0.6646694548365568  0.6041835049861414
  0.1595632842554856  0.1612775903897030  0.6513450426513475
  0.1590558219578760  0.5029544701740998  0.1686292589805828
  0.1592664476899659  0.4974061813308251  0.6604689937843982
  0.1566756299813996  0.8347151125355889  0.1732630603817824
  0.1592965097472850  0.8332061921003270  0.6536296758517169
  0.3451577191806826  0.0032003548377510  0.3441474408447958
  0.3407811617945228 -0.0013374925893456  0.8453928158327395
  0.3394536923316455  0.3309357494713476  0.3425335591064192
  0.3408112838736463  0.3304948961609990  0.8460349652848967
  0.3432914670568873  0.6653838320553274  0.3483711726871055
  0.3395423713479050  0.6649158986743987  0.8456233430648616
  0.1144456178561829 -0.0099641525951069  0.3778334831002989
  0.0855353969761939 -0.0020023008003076  0.8899243174772165
  0.0907454138603364  0.3292341114739419  0.3997173938361491
  0.0877650443139246  0.3283103109506560  0.8944180361068458
  0.0880496007363755  0.6649039748592361  0.4026230037902284
  0.0939399762809731  0.6646188416401171  0.9038024282766635
  0.4121111351779255  0.1657163195145566  0.1069750122074103
  0.4082693492122813  0.1651139551298996  0.6036042234672794
  0.4111858859851078  0.5000588915878340  0.1039739395129634
  0.4097422905587757  0.4985525948560288  0.6060261147683826
  0.4088528503359456  0.8329991679259535  0.1041487486983356
  0.4095311129772964  0.8325849367283220  0.6050887972943720
 -0.0086603522152145  0.1662498602607727  0.1079903766383039
  0.9969987887830187  0.1645837971425836  0.6261971121390509
 -0.0036047706988197  0.4987735515748446  0.1275861196171456
  0.9965595111693719  0.4975664982542078  0.6320136182945247
  0.9945874186917567  0.8346524544656075  0.1269881502450392
  0.9969851388560663  0.8311167390687477  0.6313185764257918
  0.5074337583697335 -0.0012582976212750  0.3757325280550380
  0.5034192236985419 -0.0022862220745428  0.8747395590076126
  0.5044579947376898  0.3324222291077771  0.3745676969276268
  0.5035020468926898  0.3319218681341852  0.8752068247511191
  0.5048019882196407  0.6674091505412973  0.3705389686939685
  0.5027797983237560  0.6648877686779519  0.8768228213368284
  0.6752958286631456  0.1657885154487448  0.2809474293656253
  0.6712350943194942  0.1648086456828647  0.7803381154659739
  0.6740999809713933  0.4982692060565534  0.2821818695217548
  0.6716250090983816  0.4987671925538982  0.7811699564202504
  0.6756041744239645  0.8318894694464833  0.2816081007218946
  0.6717201817024061  0.8309586227870737  0.7810630648641141
  0.8286237022800058 -0.0001161563931172  0.2196345342187848
  0.8272364823635326 -0.0028683276941927  0.7183031060071474
  0.8297150858548541  0.3305317885233707  0.2201145811801629
  0.8267056654553646  0.3328561587091359  0.7191788103870278
  0.8289457607721321  0.6646580660843672  0.2208726739250418
  0.8276945045652203  0.6641126985721379  0.7209561536531194
  0.8313071017239685 -0.0011768604335527  0.4455531231833293
  0.8291013715322638 -0.0023175904110262  0.9428402194500273
  0.8353693351852911  0.3288708390607711  0.4457764748896992
  0.8294762744963693  0.3327302995701461  0.9435480754460694
  0.8324322433322997  0.6650307306333719  0.4479945066640008
  0.8321676425631677  0.6649652991792511  0.9463691520262509
  0.6696131037498326  0.1650687659021429  0.0547100166495824
  0.6684565301626541  0.1659956257017814  0.5548461085024738
  0.6699185857992441  0.4986721326983988  0.0559368291735532
  0.6675051160877925  0.4992506388536499  0.5548640455153777
  0.6706982478747731  0.8322926141286257  0.0553312984959307
  0.6685989642849991  0.8307569409475870  0.5557542185454354
  0.4984158256355973 -0.0026687297475079  0.1277835886717337
  0.4966098028943755 -0.0006059601646717  0.6289819803092952
  0.4985901187677008  0.3336807905086890  0.1274297863229415
  0.4962232264624094  0.3310462730733694  0.6300803423518088
  0.4974804867256340  0.6674951733619900  0.1282466705140413
  0.4966252497113706  0.6657673862568182  0.6306843700620425
  0.0114363868318663  0.1570749820968667  0.3646671573945917
 -0.0011722511004266  0.1641990281521315  0.8660306811121623
  0.0022702931462265  0.4971041092508244  0.3764296894395150
  0.0054593510152233  0.4975314266276479  0.8796302621663240
  0.0051424308962864  0.8335578806575844  0.3757244339816945
  0.0034234394825961  0.8296007544953153  0.8765792933865190
  0.1727966464973322 -0.0015269970257149  0.7804580820297928
  0.1763766724051801  0.3579032366963538  0.2917205211168341
  0.1731804711253818  0.3297038740174746  0.7832569168392847
  0.1742018102552120  0.6672278533248784  0.2884706648939064
  0.1723381594828743  0.6645200345161701  0.7840546156809522
  0.3383265665927976  0.1648095284508521  0.2277494520545235
  0.3275966860319615  0.1645190534019198  0.7216995181163518
  0.3272803144844203  0.5011598216911788  0.2181179496621727
  0.3279550620233217  0.4976493590815674  0.7231057599344594
  0.3235038511287310  0.8406266887383752  0.2194915131422367
  0.3276910127119519  0.8312943218274628  0.7220964047729144
  0.3289314264274228  0.1654228041311888  0.4473802494510474
  0.3327522092839748  0.1643717536575957  0.9500666525042044
  0.3397765479726818  0.4996054863980162  0.4487098249853474
  0.3287131684384209  0.4971503393404834  0.9492059326487143
  0.3366859419233080  0.8339850163605681  0.4470705254715957
  0.3284191188420763  0.8328856615527979  0.9486681510403029
  0.1521815611881504  0.0184140377365845  0.0549158485342636
  0.1670532416766179 -0.0037358809862014  0.5506103584250328
  0.1546698931707313  0.3055950949932617  0.0595340994569942
  0.1676561952180917  0.3325499177476264  0.5569097681933843
  0.1648611063419431  0.6687342293014471  0.0626413167471750
  0.1692700669852687  0.6625436494329154  0.5576502597008867
  0.1374130164754442  0.1603141301947359  0.1416281909518771
 
  0.00000000E+00  0.00000000E+00  0.00000000E+00
  0.00000000E+00  0.00000000E+00  0.00000000E+00
  0.00000000E+00  0.00000000E+00  0.00000000E+00
  0.00000000E+00  0.00000000E+00  0.00000000E+00
  0.00000000E+00  0.00000000E+00  0.00000000E+00
  0.00000000E+00  0.00000000E+00  0.00000000E+00
  0.00000000E+00  0.00000000E+00  0.00000000E+00
  0.00000000E+00  0.00000000E+00  0.00000000E+00
  0.00000000E+00  0.00000000E+00  0.00000000E+00
  0.00000000E+00  0.00000000E+00  0.00000000E+00
  0.00000000E+00  0.00000000E+00  0.00000000E+00
  0.00000000E+00  0.00000000E+00  0.00000000E+00
  0.00000000E+00  0.00000000E+00  0.00000000E+00
  0.00000000E+00  0.00000000E+00  0.00000000E+00
  0.00000000E+00  0.00000000E+00  0.00000000E+00
  0.00000000E+00  0.00000000E+00  0.00000000E+00
  0.00000000E+00  0.00000000E+00  0.00000000E+00
  0.00000000E+00  0.00000000E+00  0.00000000E+00
  0.00000000E+00  0.00000000E+00  0.00000000E+00
  0.00000000E+00  0.00000000E+00  0.00000000E+00
  0.00000000E+00  0.00000000E+00  0.00000000E+00
  0.00000000E+00  0.00000000E+00  0.00000000E+00
  0.00000000E+00  0.00000000E+00  0.00000000E+00
  0.00000000E+00  0.00000000E+00  0.00000000E+00
  0.00000000E+00  0.00000000E+00  0.00000000E+00
  0.00000000E+00  0.00000000E+00  0.00000000E+00
  0.00000000E+00  0.00000000E+00  0.00000000E+00
  0.00000000E+00  0.00000000E+00  0.00000000E+00
  0.00000000E+00  0.00000000E+00  0.00000000E+00
  0.00000000E+00  0.00000000E+00  0.00000000E+00
  0.00000000E+00  0.00000000E+00  0.00000000E+00
  0.00000000E+00  0.00000000E+00  0.00000000E+00
  0.00000000E+00  0.00000000E+00  0.00000000E+00
  0.00000000E+00  0.00000000E+00  0.00000000E+00
  0.00000000E+00  0.00000000E+00  0.00000000E+00
  0.00000000E+00  0.00000000E+00  0.00000000E+00
  0.00000000E+00  0.00000000E+00  0.00000000E+00
  0.00000000E+00  0.00000000E+00  0.00000000E+00
  0.00000000E+00  0.00000000E+00  0.00000000E+00
  0.00000000E+00  0.00000000E+00  0.00000000E+00
  0.00000000E+00  0.00000000E+00  0.00000000E+00
  0.00000000E+00  0.00000000E+00  0.00000000E+00
  0.00000000E+00  0.00000000E+00  0.00000000E+00
  0.00000000E+00  0.00000000E+00  0.00000000E+00
  0.00000000E+00  0.00000000E+00  0.00000000E+00
  0.00000000E+00  0.00000000E+00  0.00000000E+00
  0.00000000E+00  0.00000000E+00  0.00000000E+00
  0.00000000E+00  0.00000000E+00  0.00000000E+00
  0.00000000E+00  0.00000000E+00  0.00000000E+00
  0.00000000E+00  0.00000000E+00  0.00000000E+00
  0.00000000E+00  0.00000000E+00  0.00000000E+00
  0.00000000E+00  0.00000000E+00  0.00000000E+00
  0.00000000E+00  0.00000000E+00  0.00000000E+00
  0.00000000E+00  0.00000000E+00  0.00000000E+00
  0.00000000E+00  0.00000000E+00  0.00000000E+00
  0.00000000E+00  0.00000000E+00  0.00000000E+00
  0.00000000E+00  0.00000000E+00  0.00000000E+00
  0.00000000E+00  0.00000000E+00  0.00000000E+00
  0.00000000E+00  0.00000000E+00  0.00000000E+00
  0.00000000E+00  0.00000000E+00  0.00000000E+00
  0.00000000E+00  0.00000000E+00  0.00000000E+00
  0.00000000E+00  0.00000000E+00  0.00000000E+00
  0.00000000E+00  0.00000000E+00  0.00000000E+00
  0.00000000E+00  0.00000000E+00  0.00000000E+00
  0.00000000E+00  0.00000000E+00  0.00000000E+00
  0.00000000E+00  0.00000000E+00  0.00000000E+00
  0.00000000E+00  0.00000000E+00  0.00000000E+00
  0.00000000E+00  0.00000000E+00  0.00000000E+00
  0.00000000E+00  0.00000000E+00  0.00000000E+00
  0.00000000E+00  0.00000000E+00  0.00000000E+00
  0.00000000E+00  0.00000000E+00  0.00000000E+00
  0.00000000E+00  0.00000000E+00  0.00000000E+00
  0.00000000E+00  0.00000000E+00  0.00000000E+00
  0.00000000E+00  0.00000000E+00  0.00000000E+00
  0.00000000E+00  0.00000000E+00  0.00000000E+00
  0.00000000E+00  0.00000000E+00  0.00000000E+00
  0.00000000E+00  0.00000000E+00  0.00000000E+00
  0.00000000E+00  0.00000000E+00  0.00000000E+00
  0.00000000E+00  0.00000000E+00  0.00000000E+00
  0.00000000E+00  0.00000000E+00  0.00000000E+00
  0.00000000E+00  0.00000000E+00  0.00000000E+00
  0.00000000E+00  0.00000000E+00  0.00000000E+00
  0.00000000E+00  0.00000000E+00  0.00000000E+00
  0.00000000E+00  0.00000000E+00  0.00000000E+00
  0.00000000E+00  0.00000000E+00  0.00000000E+00
  0.00000000E+00  0.00000000E+00  0.00000000E+00
  0.00000000E+00  0.00000000E+00  0.00000000E+00
  0.00000000E+00  0.00000000E+00  0.00000000E+00
  0.00000000E+00  0.00000000E+00  0.00000000E+00
  0.00000000E+00  0.00000000E+00  0.00000000E+00
  0.00000000E+00  0.00000000E+00  0.00000000E+00
  0.00000000E+00  0.00000000E+00  0.00000000E+00
  0.00000000E+00  0.00000000E+00  0.00000000E+00
  0.00000000E+00  0.00000000E+00  0.00000000E+00
  0.00000000E+00  0.00000000E+00  0.00000000E+00
  0.00000000E+00  0.00000000E+00  0.00000000E+00
  0.00000000E+00  0.00000000E+00  0.00000000E+00
  0.00000000E+00  0.00000000E+00  0.00000000E+00
  0.00000000E+00  0.00000000E+00  0.00000000E+00
  0.00000000E+00  0.00000000E+00  0.00000000E+00
  0.00000000E+00  0.00000000E+00  0.00000000E+00
  0.00000000E+00  0.00000000E+00  0.00000000E+00
  0.00000000E+00  0.00000000E+00  0.00000000E+00
  0.00000000E+00  0.00000000E+00  0.00000000E+00
  0.00000000E+00  0.00000000E+00  0.00000000E+00
  0.00000000E+00  0.00000000E+00  0.00000000E+00
  0.00000000E+00  0.00000000E+00  0.00000000E+00
  0.00000000E+00  0.00000000E+00  0.00000000E+00
  0.00000000E+00  0.00000000E+00  0.00000000E+00
  0.00000000E+00  0.00000000E+00  0.00000000E+00
  0.00000000E+00  0.00000000E+00  0.00000000E+00
  0.00000000E+00  0.00000000E+00  0.00000000E+00
  0.00000000E+00  0.00000000E+00  0.00000000E+00
  0.00000000E+00  0.00000000E+00  0.00000000E+00
  0.00000000E+00  0.00000000E+00  0.00000000E+00
  0.00000000E+00  0.00000000E+00  0.00000000E+00
  0.00000000E+00  0.00000000E+00  0.00000000E+00
  0.00000000E+00  0.00000000E+00  0.00000000E+00
  0.00000000E+00  0.00000000E+00  0.00000000E+00
