Ga8 O12                                 
    1.000000000000000     
     0.0000000000000000   12.2804737091000007    0.0000000000000000
     9.1427011490000005    0.0000000000000000    0.0000000000000000
     0.0000000000000000   -2.7682616411000001  -11.3006974810000003
   Ga   O    Cu   N 
    47    71     1     1
Direct
  0.6608898761223417 -0.0010256524796641  0.1566327763300137
  0.6601809582036376 -0.0000414693599428  0.6570871172783996
  0.6608898761223417  0.3343586524796673  0.1566327763300137
  0.6601809582036376  0.3333744693599461  0.6570871172783996
  0.6577213148675731  0.6666669999999968  0.1564271066070277
  0.6595002853913458  0.6666669999999968  0.6570494034579504
  0.8422133418301920  0.1666669999999968  0.8441190906122497
  0.8409518908403758  0.5000113947469903  0.3412599980926466
  0.8419938838404277  0.4999707220334131  0.8436942765360457
  0.8409518908403758  0.8333216052530130  0.3412599980926466
  0.8419938838404277  0.8333622779665898  0.8436942765360457
  0.5943829444187422  0.1666669999999968  0.3976607910784747
  0.5913654644366214  0.1666669999999968  0.8979566079253083
  0.5914715660089599  0.4995838321332797  0.3975865179395395
  0.5894746565000339  0.5002548009270483  0.8960910377806476
  0.5914715660089599  0.8337491678667237  0.3975865179395395
  0.5894746565000339  0.8330781990729549  0.8960910377806476
  0.9095983795554893 -0.0007044764266356  0.1036656226168181
  0.9087104856297874 -0.0012958270770274  0.6007613905076348
  0.9095983795554893  0.3340374764266389  0.1036656226168181
  0.9087104856297874  0.3346288270770305  0.6007613905076348
  0.9097572811120835  0.6666669999999968  0.1034675549683536
  0.9085102681628238  0.6666669999999968  0.6002409420259645
  0.1592408046316477  0.1666669999999968  0.1593200979439088
  0.1587065908702082  0.1666669999999968  0.6548451038242551
  0.1600466158007464  0.4994456301879389  0.1583720003892093
  0.1591615524648762  0.4995854187666344  0.6564349283287952
  0.1600466158007464  0.8338873698120645  0.1583720003892093
  0.1591615524648762  0.8337475812333685  0.6564349283287952
  0.3408074471916041  0.0004768101510633  0.3450351948657560
  0.3405450514202368  0.0004049658309836  0.8434601074348316
  0.3408074471916041  0.3328561898489401  0.3450351948657560
  0.3405450514202368  0.3329280341690197  0.8434601074348316
  0.3421774550277727  0.6666669999999968  0.3443226507390125
  0.3402727195867472  0.6666669999999968  0.8440866896042865
  0.0831650740083457  0.0039408048284320  0.3974149205570845
  0.0920261395727522  0.0001739742756933  0.8988681009293606
  0.0831650740083457  0.3293921951715711  0.3974149205570845
  0.0920261395727522  0.3331590257243099  0.8988681009293606
  0.0931413942564940  0.6666669999999968  0.3989239702290320
  0.0922328207897403  0.6666669999999968  0.8992160307041267
  0.4091039213713512  0.1666669999999968  0.1034389434945151
  0.4100914466353554  0.1666669999999968  0.6035794771300267
  0.4093607573737575  0.4988877966342555  0.1031837706718094
  0.4094882478277701  0.4998747031581388  0.6034026516118530
  0.4093607573737575  0.8344452033657477  0.1031837706718094
  0.4094882478277701  0.8334582968418643  0.6034026516118530
  0.9965300503008269  0.1666669999999968  0.1197942776150052
  0.9955753774065066  0.1666669999999968  0.6236318491976017
  0.9982447876508249  0.5006288812405250  0.1267354928504866
  0.9972960785973323  0.5009948632352553  0.6293676141641433
  0.9982447876508249  0.8327041187594784  0.1267354928504866
  0.9972960785973323  0.8323381367647479  0.6293676141641433
  0.5044819103343644  0.0012279110161053  0.3736723269140894
  0.5030509566542816  0.0007149767209378  0.8718515908412252
  0.5044819103343644  0.3321050889838979  0.3736723269140894
  0.5030509566542816  0.3326180232790654  0.8718515908412252
  0.5038996989299358  0.6666669999999968  0.3739382817013430
  0.5018242785577758  0.6666669999999968  0.8700827155509170
  0.6770417464103848  0.1666669999999968  0.2819006679978573
  0.6733277261404513  0.1666669999999968  0.7811757007733251
  0.6699671399214927  0.5018971375423349  0.2791948371792557
  0.6729932046348193  0.5001765251213649  0.7808419686639940
  0.6699671399214927  0.8314358624576683  0.2791948371792557
  0.6729932046348193  0.8331564748786384  0.7808419686639940
  0.8235159963756614 -0.0150932462529266  0.2125883711318751
  0.8283404764509337 -0.0001768342393471  0.7197412425880885
  0.8235159963756614  0.3484262462529299  0.2125883711318751
  0.8283404764509337  0.3335098342393502  0.7197412425880885
  0.8262357276537394  0.6666669999999968  0.2179453304677179
  0.8279340010150547  0.6666669999999968  0.7192996863192831
  0.8288271207851774 -0.0092334567171081  0.4471836666835970
  0.8336831311884360 -0.0002989997059056  0.9456550033393966
  0.8288271207851774  0.3425664567171111  0.4471836666835970
  0.8336831311884360  0.3336319997059088  0.9456550033393966
  0.8305022001049412  0.6666669999999968  0.4446546725968195
  0.8336341590435539  0.6666669999999968  0.9461156841207904
  0.6677985614287133  0.1666669999999968  0.0541067359728143
  0.6684644651304076  0.1666669999999968  0.5552521011215754
  0.6633261539538712  0.5017532941912393  0.0521314988905296
  0.6666466070097544  0.5002586029950320  0.5548054104792194
  0.6633261539538712  0.8315797058087639  0.0521314988905296
  0.6666466070097544  0.8330743970049712  0.5548054104792194
  0.4971770528927514  0.0008998195072125  0.1280636554215585
  0.4972555771696677 -0.0000684210922323  0.6285407899710787
  0.4971770528927514  0.3324331804927908  0.1280636554215585
  0.4972555771696677  0.3334014210922354  0.6285407899710787
  0.4945494586147218  0.6666669999999968  0.1270983072025977
  0.4966456953900943  0.6666669999999968  0.6283848680488795
  0.0046456686745828  0.1666669999999968  0.8703973197084202
  0.0040178902642436  0.5033346582360099  0.3735009201230178
  0.0048524738710462  0.5000727008012147  0.8736552176236733
  0.0040178902642436  0.8299983417639933  0.3735009201230178
  0.0048524738710462  0.8332602991987884  0.8736552176236733
  0.1722517176094776  0.0001442669523788  0.2825466589760425
  0.1727638902832393  0.0005644188082338  0.7808959444108607
  0.1722517176094776  0.3331887330476245  0.2825466589760425
  0.1727638902832393  0.3327685811917695  0.7808959444108607
  0.1746714544231011  0.6666669999999968  0.2816604743134828
  0.1734407858291961  0.6666669999999968  0.7816352753209223
  0.3278935224064182  0.1666669999999968  0.2208297089613512
  0.3273335509787854  0.1666669999999968  0.7195131594098678
  0.3283243184294479  0.4988735152810456  0.2207845086921995
  0.3276553092077643  0.4993385831305695  0.7201229652137603
  0.3283243184294479  0.8344594847189574  0.2207845086921995
  0.3276553092077643  0.8339944168694339  0.7201229652137603
  0.3334107571533914  0.1666669999999968  0.4474000285244480
  0.3325146652614741  0.1666669999999968  0.9465020708460615
  0.3336983539510522  0.5001063863454857  0.4468532209390259
  0.3325273655282315  0.4992631286630975  0.9464181189626237
  0.3336983539510522  0.8332266136545176  0.4468532209390259
  0.3325273655282315  0.8340698713369064  0.9464181189626237
  0.1694587374759289  0.0003885444807903  0.0552874111588004
  0.1674140192571557 -0.0009275526218907  0.5537895840981366
  0.1694587374759289  0.3329444555192130  0.0552874111588004
  0.1674140192571557  0.3342605526218937  0.5537895840981366
  0.1700857922405057  0.6666669999999968  0.0555373758688507
  0.1701499956269384  0.6666669999999968  0.5556038286730365
  0.8407215699314654  0.1666669999999968  0.3453406734016148
 -0.0085346657578645  0.1666669999999968  0.3531878835666782
 
  0.00000000E+00  0.00000000E+00  0.00000000E+00
  0.00000000E+00  0.00000000E+00  0.00000000E+00
  0.00000000E+00  0.00000000E+00  0.00000000E+00
  0.00000000E+00  0.00000000E+00  0.00000000E+00
  0.00000000E+00  0.00000000E+00  0.00000000E+00
  0.00000000E+00  0.00000000E+00  0.00000000E+00
  0.00000000E+00  0.00000000E+00  0.00000000E+00
  0.00000000E+00  0.00000000E+00  0.00000000E+00
  0.00000000E+00  0.00000000E+00  0.00000000E+00
  0.00000000E+00  0.00000000E+00  0.00000000E+00
  0.00000000E+00  0.00000000E+00  0.00000000E+00
  0.00000000E+00  0.00000000E+00  0.00000000E+00
  0.00000000E+00  0.00000000E+00  0.00000000E+00
  0.00000000E+00  0.00000000E+00  0.00000000E+00
  0.00000000E+00  0.00000000E+00  0.00000000E+00
  0.00000000E+00  0.00000000E+00  0.00000000E+00
  0.00000000E+00  0.00000000E+00  0.00000000E+00
  0.00000000E+00  0.00000000E+00  0.00000000E+00
  0.00000000E+00  0.00000000E+00  0.00000000E+00
  0.00000000E+00  0.00000000E+00  0.00000000E+00
  0.00000000E+00  0.00000000E+00  0.00000000E+00
  0.00000000E+00  0.00000000E+00  0.00000000E+00
  0.00000000E+00  0.00000000E+00  0.00000000E+00
  0.00000000E+00  0.00000000E+00  0.00000000E+00
  0.00000000E+00  0.00000000E+00  0.00000000E+00
  0.00000000E+00  0.00000000E+00  0.00000000E+00
  0.00000000E+00  0.00000000E+00  0.00000000E+00
  0.00000000E+00  0.00000000E+00  0.00000000E+00
  0.00000000E+00  0.00000000E+00  0.00000000E+00
  0.00000000E+00  0.00000000E+00  0.00000000E+00
  0.00000000E+00  0.00000000E+00  0.00000000E+00
  0.00000000E+00  0.00000000E+00  0.00000000E+00
  0.00000000E+00  0.00000000E+00  0.00000000E+00
  0.00000000E+00  0.00000000E+00  0.00000000E+00
  0.00000000E+00  0.00000000E+00  0.00000000E+00
  0.00000000E+00  0.00000000E+00  0.00000000E+00
  0.00000000E+00  0.00000000E+00  0.00000000E+00
  0.00000000E+00  0.00000000E+00  0.00000000E+00
  0.00000000E+00  0.00000000E+00  0.00000000E+00
  0.00000000E+00  0.00000000E+00  0.00000000E+00
  0.00000000E+00  0.00000000E+00  0.00000000E+00
  0.00000000E+00  0.00000000E+00  0.00000000E+00
  0.00000000E+00  0.00000000E+00  0.00000000E+00
  0.00000000E+00  0.00000000E+00  0.00000000E+00
  0.00000000E+00  0.00000000E+00  0.00000000E+00
  0.00000000E+00  0.00000000E+00  0.00000000E+00
  0.00000000E+00  0.00000000E+00  0.00000000E+00
  0.00000000E+00  0.00000000E+00  0.00000000E+00
  0.00000000E+00  0.00000000E+00  0.00000000E+00
  0.00000000E+00  0.00000000E+00  0.00000000E+00
  0.00000000E+00  0.00000000E+00  0.00000000E+00
  0.00000000E+00  0.00000000E+00  0.00000000E+00
  0.00000000E+00  0.00000000E+00  0.00000000E+00
  0.00000000E+00  0.00000000E+00  0.00000000E+00
  0.00000000E+00  0.00000000E+00  0.00000000E+00
  0.00000000E+00  0.00000000E+00  0.00000000E+00
  0.00000000E+00  0.00000000E+00  0.00000000E+00
  0.00000000E+00  0.00000000E+00  0.00000000E+00
  0.00000000E+00  0.00000000E+00  0.00000000E+00
  0.00000000E+00  0.00000000E+00  0.00000000E+00
  0.00000000E+00  0.00000000E+00  0.00000000E+00
  0.00000000E+00  0.00000000E+00  0.00000000E+00
  0.00000000E+00  0.00000000E+00  0.00000000E+00
  0.00000000E+00  0.00000000E+00  0.00000000E+00
  0.00000000E+00  0.00000000E+00  0.00000000E+00
  0.00000000E+00  0.00000000E+00  0.00000000E+00
  0.00000000E+00  0.00000000E+00  0.00000000E+00
  0.00000000E+00  0.00000000E+00  0.00000000E+00
  0.00000000E+00  0.00000000E+00  0.00000000E+00
  0.00000000E+00  0.00000000E+00  0.00000000E+00
  0.00000000E+00  0.00000000E+00  0.00000000E+00
  0.00000000E+00  0.00000000E+00  0.00000000E+00
  0.00000000E+00  0.00000000E+00  0.00000000E+00
  0.00000000E+00  0.00000000E+00  0.00000000E+00
  0.00000000E+00  0.00000000E+00  0.00000000E+00
  0.00000000E+00  0.00000000E+00  0.00000000E+00
  0.00000000E+00  0.00000000E+00  0.00000000E+00
  0.00000000E+00  0.00000000E+00  0.00000000E+00
  0.00000000E+00  0.00000000E+00  0.00000000E+00
  0.00000000E+00  0.00000000E+00  0.00000000E+00
  0.00000000E+00  0.00000000E+00  0.00000000E+00
  0.00000000E+00  0.00000000E+00  0.00000000E+00
  0.00000000E+00  0.00000000E+00  0.00000000E+00
  0.00000000E+00  0.00000000E+00  0.00000000E+00
  0.00000000E+00  0.00000000E+00  0.00000000E+00
  0.00000000E+00  0.00000000E+00  0.00000000E+00
  0.00000000E+00  0.00000000E+00  0.00000000E+00
  0.00000000E+00  0.00000000E+00  0.00000000E+00
  0.00000000E+00  0.00000000E+00  0.00000000E+00
  0.00000000E+00  0.00000000E+00  0.00000000E+00
  0.00000000E+00  0.00000000E+00  0.00000000E+00
  0.00000000E+00  0.00000000E+00  0.00000000E+00
  0.00000000E+00  0.00000000E+00  0.00000000E+00
  0.00000000E+00  0.00000000E+00  0.00000000E+00
  0.00000000E+00  0.00000000E+00  0.00000000E+00
  0.00000000E+00  0.00000000E+00  0.00000000E+00
  0.00000000E+00  0.00000000E+00  0.00000000E+00
  0.00000000E+00  0.00000000E+00  0.00000000E+00
  0.00000000E+00  0.00000000E+00  0.00000000E+00
  0.00000000E+00  0.00000000E+00  0.00000000E+00
  0.00000000E+00  0.00000000E+00  0.00000000E+00
  0.00000000E+00  0.00000000E+00  0.00000000E+00
  0.00000000E+00  0.00000000E+00  0.00000000E+00
  0.00000000E+00  0.00000000E+00  0.00000000E+00
  0.00000000E+00  0.00000000E+00  0.00000000E+00
  0.00000000E+00  0.00000000E+00  0.00000000E+00
  0.00000000E+00  0.00000000E+00  0.00000000E+00
  0.00000000E+00  0.00000000E+00  0.00000000E+00
  0.00000000E+00  0.00000000E+00  0.00000000E+00
  0.00000000E+00  0.00000000E+00  0.00000000E+00
  0.00000000E+00  0.00000000E+00  0.00000000E+00
  0.00000000E+00  0.00000000E+00  0.00000000E+00
  0.00000000E+00  0.00000000E+00  0.00000000E+00
  0.00000000E+00  0.00000000E+00  0.00000000E+00
  0.00000000E+00  0.00000000E+00  0.00000000E+00
  0.00000000E+00  0.00000000E+00  0.00000000E+00
  0.00000000E+00  0.00000000E+00  0.00000000E+00
  0.00000000E+00  0.00000000E+00  0.00000000E+00
  0.00000000E+00  0.00000000E+00  0.00000000E+00
  0.00000000E+00  0.00000000E+00  0.00000000E+00
