Ga48 O72                                
    1.000000000000000     
     0.0000000000000000   12.2804734172212839    0.0000000000000000
     9.1427020537309431    0.0000000000000000    0.0000000000000000
     0.0000000000000000   -2.7682617730220320  -11.3006977184464645
   Ga   O    N 
    48    71     1
Direct
  0.6584115258090293  0.9993683933657422  0.1559472598429821
  0.6592405213865717  0.9998824546083185  0.6568503699614183
  0.6584115258090293  0.3339649399675935  0.1559472598429821
  0.6592405213865717  0.3334508787250172  0.6568503699614183
  0.6586721152630162  0.6666666666666643  0.1562720354745579
  0.6594215411090971  0.6666666666666643  0.6569669912004201
  0.8391582058068821  0.1666666666666643  0.3435840976058273
  0.8410992534268900  0.1666666666666643  0.8431984615787158
  0.8406942002427584  0.5004923212407135  0.3428714268773945
  0.8416329442045551  0.5001263961793683  0.8438112973754244
  0.8406942002427584  0.8328410120926222  0.3428714268773945
  0.8416329442045551  0.8332069371539674  0.8438112973754244
  0.5915430656406002  0.1666666666666643  0.3978793670488230
  0.5907774552623479  0.1666666666666643  0.8975208539097892
  0.5917325351169112  0.5001388673212261  0.3978019811765208
  0.5904992511028340  0.5001367485451595  0.8970803784508021
  0.5917325351169112  0.8331944660121096  0.3978019811765208
  0.5904992511028340  0.8331965847881762  0.8970803784508021
  0.9085587448399437  0.9987997036227227  0.1037378962019773
  0.9077445488485623  0.9990703327829777  0.6011147964988268
  0.9085587448399437  0.3345336297106130  0.1037378962019773
  0.9077445488485623  0.3342630005503580  0.6011147964988268
  0.9094362948591908  0.6666666666666643  0.1029783110142688
  0.9087654355983545  0.6666666666666643  0.6018760988952963
  0.1608312187047076  0.1666666666666643  0.1587450774249959
  0.1599270137128102  0.1666666666666643  0.6551488165004713
  0.1597212799231187  0.5000606595021040  0.1573177694425851
  0.1589813352201546  0.5000500749722150  0.6562168576217005
  0.1597212799231187  0.8332726738312317  0.1573177694425851
  0.1589813352201546  0.8332832583611207  0.6562168576217005
  0.3418854226185033  0.9995871504460467  0.3440172811363880
  0.3406823078191294  0.0000262712733701  0.8430467152600158
  0.3418854226185033  0.3337461828872890  0.3440172811363880
  0.3406823078191294  0.3333070620599656  0.8430467152600158
  0.3417809514185706  0.6666666666666643  0.3435414422634722
  0.3404851539471210  0.6666666666666643  0.8432859435435631
  0.0900922174761689  0.9999498949682675  0.3968522365905685
  0.0914382991423466  0.9998226320216617  0.8974868876994364
  0.0900922174761689  0.3333834383650682  0.3968522365905685
  0.0914382991423466  0.3335107013116740  0.8974868876994364
  0.0915433465573727  0.6666666666666643  0.3977782650307091
  0.0914446051765054  0.6666666666666643  0.8978847808435972
  0.4089379981051735  0.1666666666666643  0.1020366670780959
  0.4095574748534503  0.1666666666666643  0.6025053404420930
  0.4089012939782961  0.5000799327715697  0.1020451225473451
  0.4092282470488655  0.5001344657777835  0.6027965205009806
  0.4089012939782961  0.8332534005617660  0.1020451225473451
  0.4092282470488655  0.8331988675555522  0.6027965205009806
  0.9966111306153564  0.1666666666666643  0.1375953488770847
  0.9956746301325623  0.1666666666666643  0.6203822825287375
  0.9969351477366928  0.5000982496636226  0.1277875703000504
  0.9962154275187487  0.4998654788087578  0.6269703655223609
  0.9969351477366928  0.8332350836697131  0.1277875703000504
  0.9962154275187487  0.8334678545245779  0.6269703655223609
  0.5043153089552703  0.9999434547434873  0.3730604052064663
  0.5032997771932912  0.0000756620178635  0.8725928402596352
  0.5043153089552703  0.3333898785898484  0.3730604052064663
  0.5032997771932912  0.3332576713154722  0.8725928402596352
  0.5041729883832033  0.6666666666666643  0.3732117506962496
  0.5029914572663046  0.6666666666666643  0.8721566707653921
  0.6722738717770866  0.1666666666666643  0.2799774223980691
  0.6730323006738246  0.1666666666666643  0.7809900224807720
  0.6716382258149949  0.5008181059927281  0.2796433393008755
  0.6733173345343388  0.4996480199417164  0.7810906379124845
  0.6716382258149949  0.8325152273406076  0.2796433393008755
  0.6733173345343388  0.8336853133916193  0.7810906379124845
  0.8251821666173171  0.9969560082786373  0.2182039218144141
  0.8280944828834080  0.0003055221141750  0.7198363537377830
  0.8251821666173171  0.3363773250546984  0.2182039218144141
  0.8280944828834080  0.3330278112191607  0.7198363537377830
  0.8271054502442965  0.6666666666666643  0.2191488552547014
  0.8278891606584011  0.6666666666666643  0.7197976810160682
  0.8280428801787210  0.9979373611284217  0.4457064741889454
  0.8343659899477629  0.0006728469476656  0.9465897714372886
  0.8280428801787210  0.3353959722049140  0.4457064741889454
  0.8343659899477629  0.3326604863856701  0.9465897714372886
  0.8310096268063987  0.6666666666666643  0.4456336864300567
  0.8329490732641958  0.6666666666666643  0.9462160453285549
  0.6676491014694150  0.1666666666666643  0.0539191635259044
  0.6680122305239564  0.1666666666666643  0.5547147660742766
  0.6672502829502136  0.5003697972367718  0.0533428875986033
  0.6679207846232487  0.5000946182671058  0.5547332983007394
  0.6672502829502136  0.8329635360965639  0.0533428875986033
  0.6679207846232487  0.8332387150662299  0.5547332983007394
  0.4961419403858400  0.0000205364888828  0.1267742387934945
  0.4967681498158711  0.9998682216849559  0.6279792740277941
  0.4961419403858400  0.3333127968444529  0.1267742387934945
  0.4967681498158711  0.3334651116483798  0.6279792740277941
  0.4960280840899500  0.6666666666666643  0.1262653058383307
  0.4968632564220954  0.6666666666666643  0.6282731192175675
  0.0038840737705996  0.1666666666666643  0.8723877159586237
  0.0034264946112401  0.5014944220054716  0.3731414682799681
  0.0040628988983187  0.5000639999501502  0.8726772125864670
  0.0034264946112401  0.8318389113278641  0.3731414682799681
  0.0040628988983187  0.8332693333831855  0.8726772125864670
  0.1743180543293619  0.9984295400219025  0.2808341495010822
  0.1720001460516372  0.0006291601912451  0.7796599664189472
  0.1743180543293619  0.3349037933114332  0.2808341495010822
  0.1720001460516372  0.3327041731420906  0.7796599664189472
  0.1733805577240091  0.6666666666666643  0.2808262762039178
  0.1722726617974075  0.6666666666666643  0.7801832774896198
  0.3283729231680326  0.1666666666666643  0.2198222258667712
  0.3277593109026853  0.1666666666666643  0.7194606432338375
  0.3281760447389246  0.5001593425045030  0.2195516198028287
  0.3275348900091615  0.4999126217472707  0.7198305768918587
  0.3281760447389246  0.8331739908288327  0.2195516198028287
  0.3275348900091615  0.8334207115860650  0.7198305768918587
  0.3333401170317387  0.1666666666666643  0.4459493538844796
  0.3315558018303406  0.1666666666666643  0.9455675958575256
  0.3332369772591477  0.5003579646723040  0.4461607800575678
  0.3312524195816948  0.4996848231218465  0.9456150554995517
  0.3332369772591477  0.8329753686610317  0.4461607800575678
  0.3312524195816948  0.8336485102114892  0.9456150554995517
  0.1663885259489177  0.0009348439757986  0.0545880039533841
  0.1691822899562609  0.9989516172957380  0.5539201490900965
  0.1663885259489177  0.3323984893575371  0.0545880039533841
  0.1691822899562609  0.3343817160375977  0.5539201490900965
  0.1681364677497257  0.6666666666666643  0.0544799464974304
  0.1684859781536190  0.6666666666666643  0.5544336554311897
  0.0001459854663466  0.1666666666666643  0.3688343239560652
 
  0.00000000E+00  0.00000000E+00  0.00000000E+00
  0.00000000E+00  0.00000000E+00  0.00000000E+00
  0.00000000E+00  0.00000000E+00  0.00000000E+00
  0.00000000E+00  0.00000000E+00  0.00000000E+00
  0.00000000E+00  0.00000000E+00  0.00000000E+00
  0.00000000E+00  0.00000000E+00  0.00000000E+00
  0.00000000E+00  0.00000000E+00  0.00000000E+00
  0.00000000E+00  0.00000000E+00  0.00000000E+00
  0.00000000E+00  0.00000000E+00  0.00000000E+00
  0.00000000E+00  0.00000000E+00  0.00000000E+00
  0.00000000E+00  0.00000000E+00  0.00000000E+00
  0.00000000E+00  0.00000000E+00  0.00000000E+00
  0.00000000E+00  0.00000000E+00  0.00000000E+00
  0.00000000E+00  0.00000000E+00  0.00000000E+00
  0.00000000E+00  0.00000000E+00  0.00000000E+00
  0.00000000E+00  0.00000000E+00  0.00000000E+00
  0.00000000E+00  0.00000000E+00  0.00000000E+00
  0.00000000E+00  0.00000000E+00  0.00000000E+00
  0.00000000E+00  0.00000000E+00  0.00000000E+00
  0.00000000E+00  0.00000000E+00  0.00000000E+00
  0.00000000E+00  0.00000000E+00  0.00000000E+00
  0.00000000E+00  0.00000000E+00  0.00000000E+00
  0.00000000E+00  0.00000000E+00  0.00000000E+00
  0.00000000E+00  0.00000000E+00  0.00000000E+00
  0.00000000E+00  0.00000000E+00  0.00000000E+00
  0.00000000E+00  0.00000000E+00  0.00000000E+00
  0.00000000E+00  0.00000000E+00  0.00000000E+00
  0.00000000E+00  0.00000000E+00  0.00000000E+00
  0.00000000E+00  0.00000000E+00  0.00000000E+00
  0.00000000E+00  0.00000000E+00  0.00000000E+00
  0.00000000E+00  0.00000000E+00  0.00000000E+00
  0.00000000E+00  0.00000000E+00  0.00000000E+00
  0.00000000E+00  0.00000000E+00  0.00000000E+00
  0.00000000E+00  0.00000000E+00  0.00000000E+00
  0.00000000E+00  0.00000000E+00  0.00000000E+00
  0.00000000E+00  0.00000000E+00  0.00000000E+00
  0.00000000E+00  0.00000000E+00  0.00000000E+00
  0.00000000E+00  0.00000000E+00  0.00000000E+00
  0.00000000E+00  0.00000000E+00  0.00000000E+00
  0.00000000E+00  0.00000000E+00  0.00000000E+00
  0.00000000E+00  0.00000000E+00  0.00000000E+00
  0.00000000E+00  0.00000000E+00  0.00000000E+00
  0.00000000E+00  0.00000000E+00  0.00000000E+00
  0.00000000E+00  0.00000000E+00  0.00000000E+00
  0.00000000E+00  0.00000000E+00  0.00000000E+00
  0.00000000E+00  0.00000000E+00  0.00000000E+00
  0.00000000E+00  0.00000000E+00  0.00000000E+00
  0.00000000E+00  0.00000000E+00  0.00000000E+00
  0.00000000E+00  0.00000000E+00  0.00000000E+00
  0.00000000E+00  0.00000000E+00  0.00000000E+00
  0.00000000E+00  0.00000000E+00  0.00000000E+00
  0.00000000E+00  0.00000000E+00  0.00000000E+00
  0.00000000E+00  0.00000000E+00  0.00000000E+00
  0.00000000E+00  0.00000000E+00  0.00000000E+00
  0.00000000E+00  0.00000000E+00  0.00000000E+00
  0.00000000E+00  0.00000000E+00  0.00000000E+00
  0.00000000E+00  0.00000000E+00  0.00000000E+00
  0.00000000E+00  0.00000000E+00  0.00000000E+00
  0.00000000E+00  0.00000000E+00  0.00000000E+00
  0.00000000E+00  0.00000000E+00  0.00000000E+00
  0.00000000E+00  0.00000000E+00  0.00000000E+00
  0.00000000E+00  0.00000000E+00  0.00000000E+00
  0.00000000E+00  0.00000000E+00  0.00000000E+00
  0.00000000E+00  0.00000000E+00  0.00000000E+00
  0.00000000E+00  0.00000000E+00  0.00000000E+00
  0.00000000E+00  0.00000000E+00  0.00000000E+00
  0.00000000E+00  0.00000000E+00  0.00000000E+00
  0.00000000E+00  0.00000000E+00  0.00000000E+00
  0.00000000E+00  0.00000000E+00  0.00000000E+00
  0.00000000E+00  0.00000000E+00  0.00000000E+00
  0.00000000E+00  0.00000000E+00  0.00000000E+00
  0.00000000E+00  0.00000000E+00  0.00000000E+00
  0.00000000E+00  0.00000000E+00  0.00000000E+00
  0.00000000E+00  0.00000000E+00  0.00000000E+00
  0.00000000E+00  0.00000000E+00  0.00000000E+00
  0.00000000E+00  0.00000000E+00  0.00000000E+00
  0.00000000E+00  0.00000000E+00  0.00000000E+00
  0.00000000E+00  0.00000000E+00  0.00000000E+00
  0.00000000E+00  0.00000000E+00  0.00000000E+00
  0.00000000E+00  0.00000000E+00  0.00000000E+00
  0.00000000E+00  0.00000000E+00  0.00000000E+00
  0.00000000E+00  0.00000000E+00  0.00000000E+00
  0.00000000E+00  0.00000000E+00  0.00000000E+00
  0.00000000E+00  0.00000000E+00  0.00000000E+00
  0.00000000E+00  0.00000000E+00  0.00000000E+00
  0.00000000E+00  0.00000000E+00  0.00000000E+00
  0.00000000E+00  0.00000000E+00  0.00000000E+00
  0.00000000E+00  0.00000000E+00  0.00000000E+00
  0.00000000E+00  0.00000000E+00  0.00000000E+00
  0.00000000E+00  0.00000000E+00  0.00000000E+00
  0.00000000E+00  0.00000000E+00  0.00000000E+00
  0.00000000E+00  0.00000000E+00  0.00000000E+00
  0.00000000E+00  0.00000000E+00  0.00000000E+00
  0.00000000E+00  0.00000000E+00  0.00000000E+00
  0.00000000E+00  0.00000000E+00  0.00000000E+00
  0.00000000E+00  0.00000000E+00  0.00000000E+00
  0.00000000E+00  0.00000000E+00  0.00000000E+00
  0.00000000E+00  0.00000000E+00  0.00000000E+00
  0.00000000E+00  0.00000000E+00  0.00000000E+00
  0.00000000E+00  0.00000000E+00  0.00000000E+00
  0.00000000E+00  0.00000000E+00  0.00000000E+00
  0.00000000E+00  0.00000000E+00  0.00000000E+00
  0.00000000E+00  0.00000000E+00  0.00000000E+00
  0.00000000E+00  0.00000000E+00  0.00000000E+00
  0.00000000E+00  0.00000000E+00  0.00000000E+00
  0.00000000E+00  0.00000000E+00  0.00000000E+00
  0.00000000E+00  0.00000000E+00  0.00000000E+00
  0.00000000E+00  0.00000000E+00  0.00000000E+00
  0.00000000E+00  0.00000000E+00  0.00000000E+00
  0.00000000E+00  0.00000000E+00  0.00000000E+00
  0.00000000E+00  0.00000000E+00  0.00000000E+00
  0.00000000E+00  0.00000000E+00  0.00000000E+00
  0.00000000E+00  0.00000000E+00  0.00000000E+00
  0.00000000E+00  0.00000000E+00  0.00000000E+00
  0.00000000E+00  0.00000000E+00  0.00000000E+00
  0.00000000E+00  0.00000000E+00  0.00000000E+00
  0.00000000E+00  0.00000000E+00  0.00000000E+00
  0.00000000E+00  0.00000000E+00  0.00000000E+00
  0.00000000E+00  0.00000000E+00  0.00000000E+00
  0.00000000E+00  0.00000000E+00  0.00000000E+00
