       N       E                     dE             d eps       ncg     rms          ort
SDA:   1    -0.953899189086E+03   -0.95390E+03    0.00000E+00  5040   0.263E+02 0.000E+00
CGA:   2    -0.958988726344E+03   -0.50895E+01   -0.50919E+01  5040   0.775E+01 0.209E+00
CGA:   3    -0.961889493617E+03   -0.29008E+01   -0.28356E+01  5040   0.292E+01 0.370E+00
CGA:   4    -0.962420619985E+03   -0.53113E+00   -0.53681E+00  5040   0.117E+01 0.592E-01
CGA:   5    -0.962787314021E+03   -0.36669E+00   -0.36313E+00  5040   0.383E+00 0.298E-01
CGA:   6    -0.962882698277E+03   -0.95384E-01   -0.95214E-01  5040   0.171E+00 0.309E-02
CGA:   7    -0.962922031470E+03   -0.39333E-01   -0.39314E-01  5040   0.403E-01 0.885E-03
CGA:   8    -0.962929889323E+03   -0.78579E-02   -0.78613E-02  5040   0.175E-01 0.149E-03
CGA:   9    -0.962933407328E+03   -0.35180E-02   -0.35189E-02  5040   0.597E-02 0.679E-04
CGA:  10    -0.962934830567E+03   -0.14232E-02   -0.14218E-02  5040   0.300E-02 0.566E-04
CGA:  11    -0.962935531486E+03   -0.70092E-03   -0.69978E-03  5040   0.128E-02 0.639E-04
CGA:  12    -0.962935817552E+03   -0.28607E-03   -0.28589E-03  5040   0.579E-03 0.352E-04
CGA:  13    -0.962935940158E+03   -0.12261E-03   -0.12273E-03  5040   0.226E-03 0.154E-04
CGA:  14    -0.962935994139E+03   -0.53980E-04   -0.53817E-04  5040   0.119E-03 0.917E-05
CGA:  15    -0.962936022324E+03   -0.28185E-04   -0.28127E-04  5040   0.648E-04 0.447E-05
CGA:  16    -0.962936038582E+03   -0.16258E-04   -0.16197E-04  5040   0.449E-04 0.242E-05
CGA:  17    -0.962936050208E+03   -0.11626E-04   -0.11630E-04  5040   0.321E-04-0.132E-06
CGA:  18    -0.962936059880E+03   -0.96717E-05   -0.98617E-05  5040   0.329E-04-0.211E-05
   1 F= -.96293606E+03 E0= -.96293606E+03  d E =-.118947E-18
