 vasp.6.4.2 20Jul23 (build Nov 12 2023 22:16:35) complex                         
 executed on              LinuxNV date 2025.05.14  05:02:33
 running    4 mpi-ranks, on    1 nodes
 distrk:  each k-point on    1 cores,    4 groups
 distr:  one band on NCORE=   1 cores,    1 groups
 OpenACC runtime initialized ...    4 GPUs detected


--------------------------------------------------------------------------------------------------------


 INCAR:
   PREC = Normal
   ENCUT = 450
   NELM = 500
   IBRION = -1
   ISPIN = 1
   NSW = 0
   ISIF = 2
   EDIFF = 1E-5
   EDIFFG = -5E-3
   ISTART = 1
   ICHARG = 1
   ISMEAR = 0
   SIGMA = 0.05
   LWAVE = .T.
   LCHARG = .T.
   LREAL = Auto
   LPLANE = .TRUE.
   NPAR = 1
   KPAR = 4
   NCORE = 1
   ALGO = All
   LHFCALC = .TRUE.
   HSE06 = .TRUE.
   HFSCREEN = 0.2
   TIME = 0.4
   AEXX = 0.32
   LMAXFOCK = 4
   PRECFOCK = Fast
   ICORELEVEL = 1
   ISYM = 0

 POTCAR:    PAW_PBE Ga_d 06Jul2010                
 POTCAR:    PAW_PBE O 08Apr2002                   
 POTCAR:    PAW_PBE N 08Apr2002                   
 POTCAR:    PAW_PBE Fe 06Sep2000                  
 POTCAR:    PAW_PBE Ga_d 06Jul2010                
   SHA256 =  a60ddf36e14f00ea098d9e3914b3745f1b7105e68786148f49ae384e44b4226c Ga_d/POTCAR           
   COPYR  = (c) Copyright 06Jul2010 Georg Kresse                                                    
   COPYR  = This file is part of the software VASP. Any use, copying, and all other rights are regul
   COPYR  = If you do not have a valid VASP license, you may not use, copy or distribute this file. 
   VRHFIN =Ga: s2p1                                                                                 
   LEXCH  = PE                                                                                      
   EATOM  =  2148.8298 eV,  157.9345 Ry                                                             
                                                                                                    
   TITEL  = PAW_PBE Ga_d 06Jul2010                                                                  
   LULTRA =        F    use ultrasoft PP ?                                                          
   IUNSCR =        1    unscreen: 0-lin 1-nonlin 2-no                                               
   RPACOR =    1.700    partial core radius                                                         
   POMASS =   69.723; ZVAL   =   13.000    mass and valenz                                          
   RCORE  =    2.300    outmost cutoff radius                                                       
   RWIGS  =    2.300; RWIGS  =    1.217    wigner-seitz radius (au A)                               
   ENMAX  =  282.691; ENMIN  =  212.018 eV                                                          
   ICORE  =        3    local potential                                                             
   LCOR   =        T    correct aug charges                                                         
   LPAW   =        T    paw PP                                                                      
   EAUG   =  490.690                                                                                
   DEXC   =    0.000                                                                                
   RMAX   =    2.341    core radius for proj-oper                                                   
   RAUG   =    1.300    factor for augmentation sphere                                              
   RDEP   =    2.413    radius for radial grids                                                     
   RDEPT  =    1.856    core radius for aug-charge                                                  
                                                                                                    
   Atomic configuration                                                                             
    9 entries                                                                                       
     n  l   j            E        occ.                                                              
     1  0  0.50    -10228.7831   2.0000                                                             
     2  0  0.50     -1262.1604   2.0000                                                             
     2  1  1.50     -1098.6333   6.0000                                                             
     3  0  0.50      -148.1110   2.0000                                                             
     3  1  1.50       -98.8436   6.0000                                                             
     3  2  2.50       -19.1549  10.0000                                                             
     4  0  0.50        -8.9483   2.0000                                                             
     4  1  0.50        -2.5791   1.0000                                                             
     4  3  2.50        -2.7416   0.0000                                                             
   Description                                                                                      
     l       E           TYP  RCUT    TYP  RCUT                                                     
     2    -19.1549037     23  2.300                                                                 
     2     -5.4423304     23  2.300                                                                 
     0     -8.9483111     23  2.300                                                                 
     0     68.0291300     23  2.300                                                                 
     1     -2.5790802     23  2.100                                                                 
     1     81.6349560     23  2.300                                                                 
     3      6.8029130     23  2.300                                                                 
  local pseudopotential read in
  partial core-charges read in
  partial kinetic energy density read in
  atomic valenz-charges read in
  non local Contribution for L=            2  read in
    real space projection operators read in
  non local Contribution for L=            2  read in
    real space projection operators read in
  non local Contribution for L=            0  read in
    real space projection operators read in
  non local Contribution for L=            0  read in
    real space projection operators read in
  non local Contribution for L=            1  read in
    real space projection operators read in
  non local Contribution for L=            1  read in
    real space projection operators read in
    PAW grid and wavefunctions read in
 
   number of l-projection  operators is LMAX  =            6
   number of lm-projection operators is LMMAX =           18
 
 POTCAR:    PAW_PBE O 08Apr2002                   
   SHA256 =  818f92134a0a090dccd8ba1447fa70422a3b330e708bb4f08108d8ae51209ddf O/POTCAR              
   COPYR  = (c) Copyright 08Apr2002 Georg Kresse                                                    
   COPYR  = This file is part of the software VASP. Any use, copying, and all other rights are regul
   COPYR  = If you do not have a valid VASP license, you may not use, copy or distribute this file. 
   VRHFIN =O: s2p4                                                                                  
   LEXCH  = PE                                                                                      
   EATOM  =   432.3788 eV,   31.7789 Ry                                                             
                                                                                                    
   TITEL  = PAW_PBE O 08Apr2002                                                                     
   LULTRA =        F    use ultrasoft PP ?                                                          
   IUNSCR =        1    unscreen: 0-lin 1-nonlin 2-no                                               
   RPACOR =    1.200    partial core radius                                                         
   POMASS =   16.000; ZVAL   =    6.000    mass and valenz                                          
   RCORE  =    1.520    outmost cutoff radius                                                       
   RWIGS  =    1.550; RWIGS  =    0.820    wigner-seitz radius (au A)                               
   ENMAX  =  400.000; ENMIN  =  300.000 eV                                                          
   ICORE  =        2    local potential                                                             
   LCOR   =        T    correct aug charges                                                         
   LPAW   =        T    paw PP                                                                      
   EAUG   =  605.392                                                                                
   DEXC   =    0.000                                                                                
   RMAX   =    1.553    core radius for proj-oper                                                   
   RAUG   =    1.300    factor for augmentation sphere                                              
   RDEP   =    1.550    radius for radial grids                                                     
   RDEPT  =    1.329    core radius for aug-charge                                                  
                                                                                                    
   Atomic configuration                                                                             
    4 entries                                                                                       
     n  l   j            E        occ.                                                              
     1  0  0.50      -514.6923   2.0000                                                             
     2  0  0.50       -23.9615   2.0000                                                             
     2  1  0.50        -9.0305   4.0000                                                             
     3  2  1.50        -9.5241   0.0000                                                             
   Description                                                                                      
     l       E           TYP  RCUT    TYP  RCUT                                                     
     0    -23.9615318     23  1.200                                                                 
     0     -9.5240782     23  1.200                                                                 
     1     -9.0304911     23  1.520                                                                 
     1      8.1634956     23  1.520                                                                 
     2     -9.5240782      7  1.500                                                                 
  local pseudopotential read in
  partial core-charges read in
  partial kinetic energy density read in
  kinetic energy density of atom read in
  atomic valenz-charges read in
  non local Contribution for L=            0  read in
    real space projection operators read in
  non local Contribution for L=            0  read in
    real space projection operators read in
  non local Contribution for L=            1  read in
    real space projection operators read in
  non local Contribution for L=            1  read in
    real space projection operators read in
    PAW grid and wavefunctions read in
 
   number of l-projection  operators is LMAX  =            4
   number of lm-projection operators is LMMAX =            8
 
 POTCAR:    PAW_PBE N 08Apr2002                   
   SHA256 =  e053789ff3a61a86a1b75d8a110fcc91f86041011e7b0817c7c99e4e8a6349d7 N/POTCAR              
   COPYR  = (c) Copyright 08Apr2002 Georg Kresse                                                    
   COPYR  = This file is part of the software VASP. Any use, copying, and all other rights are regul
   COPYR  = If you do not have a valid VASP license, you may not use, copy or distribute this file. 
   VRHFIN =N: s2p3                                                                                  
   LEXCH  = PE                                                                                      
   EATOM  =   264.5486 eV,   19.4438 Ry                                                             
                                                                                                    
   TITEL  = PAW_PBE N 08Apr2002                                                                     
   LULTRA =        F    use ultrasoft PP ?                                                          
   IUNSCR =        1    unscreen: 0-lin 1-nonlin 2-no                                               
   RPACOR =    1.200    partial core radius                                                         
   POMASS =   14.001; ZVAL   =    5.000    mass and valenz                                          
   RCORE  =    1.500    outmost cutoff radius                                                       
   RWIGS  =    1.400; RWIGS  =    0.741    wigner-seitz radius (au A)                               
   ENMAX  =  400.000; ENMIN  =  300.000 eV                                                          
   ICORE  =        2    local potential                                                             
   LCOR   =        T    correct aug charges                                                         
   LPAW   =        T    paw PP                                                                      
   EAUG   =  627.112                                                                                
   DEXC   =    0.000                                                                                
   RMAX   =    1.529    core radius for proj-oper                                                   
   RAUG   =    1.300    factor for augmentation sphere                                              
   RDEP   =    1.514    radius for radial grids                                                     
   RDEPT  =    1.338    core radius for aug-charge                                                  
                                                                                                    
   Atomic configuration                                                                             
    4 entries                                                                                       
     n  l   j            E        occ.                                                              
     1  0  0.50      -384.7179   2.0000                                                             
     2  0  0.50       -18.5828   2.0000                                                             
     2  1  0.50        -7.0898   3.0000                                                             
     3  2  1.50        -6.8029   0.0000                                                             
   Description                                                                                      
     l       E           TYP  RCUT    TYP  RCUT                                                     
     0    -18.5828119     23  1.200                                                                 
     0    -13.5018863     23  1.200                                                                 
     1     -7.0897853     23  1.500                                                                 
     1      9.5240782     23  1.500                                                                 
     2     -6.8029130      7  1.500                                                                 
  local pseudopotential read in
  partial core-charges read in
  partial kinetic energy density read in
  atomic valenz-charges read in
  non local Contribution for L=            0  read in
    real space projection operators read in
  non local Contribution for L=            0  read in
    real space projection operators read in
  non local Contribution for L=            1  read in
    real space projection operators read in
  non local Contribution for L=            1  read in
    real space projection operators read in
    PAW grid and wavefunctions read in
 
   number of l-projection  operators is LMAX  =            4
   number of lm-projection operators is LMMAX =            8
 
 POTCAR:    PAW_PBE Fe 06Sep2000                  
   SHA256 =  cd5a22d9368cc8b5cc476bea79732366149640da08ac9009b0e1b7fc627eea28 Fe/POTCAR             
   COPYR  = (c) Copyright 06Sep2000 Georg Kresse                                                    
   COPYR  = This file is part of the software VASP. Any use, copying, and all other rights are regul
   COPYR  = If you do not have a valid VASP license, you may not use, copy or distribute this file. 
   VRHFIN =Fe:  d7 s1                                                                               
   LEXCH  = PE                                                                                      
   EATOM  =   594.3153 eV,   43.6809 Ry                                                             
                                                                                                    
   TITEL  = PAW_PBE Fe 06Sep2000                                                                    
   LULTRA =        F    use ultrasoft PP ?                                                          
   IUNSCR =        1    unscreen: 0-lin 1-nonlin 2-no                                               
   RPACOR =    2.000    partial core radius                                                         
   POMASS =   55.847; ZVAL   =    8.000    mass and valenz                                          
   RCORE  =    2.300    outmost cutoff radius                                                       
   RWIGS  =    2.460; RWIGS  =    1.302    wigner-seitz radius (au A)                               
   ENMAX  =  267.882; ENMIN  =  200.911 eV                                                          
   RCLOC  =    1.701    cutoff for local pot                                                        
   LCOR   =        T    correct aug charges                                                         
   LPAW   =        T    paw PP                                                                      
   EAUG   =  511.368                                                                                
   DEXC   =    0.000                                                                                
   RMAX   =    2.356    core radius for proj-oper                                                   
   RAUG   =    1.300    factor for augmentation sphere                                              
   RDEP   =    2.442    radius for radial grids                                                     
   RDEPT  =    1.890    core radius for aug-charge                                                  
                                                                                                    
   Atomic configuration                                                                             
    9 entries                                                                                       
     n  l   j            E        occ.                                                              
     1  0  0.50     -6993.8440   2.0000                                                             
     2  0  0.50      -814.6047   2.0000                                                             
     2  1  1.50      -693.3689   6.0000                                                             
     3  0  0.50       -89.4732   2.0000                                                             
     3  1  1.50       -55.6373   6.0000                                                             
     3  2  2.50        -3.8151   7.0000                                                             
     4  0  0.50        -4.2551   1.0000                                                             
     4  1  1.50        -3.4015   0.0000                                                             
     4  3  2.50        -1.3606   0.0000                                                             
   Description                                                                                      
     l       E           TYP  RCUT    TYP  RCUT                                                     
     2     -3.8151135     23  2.300                                                                 
     2     -5.1756961     23  2.300                                                                 
     0     -4.2550963     23  2.300                                                                 
     0      7.2035603     23  2.300                                                                 
     1     -2.7211652     23  2.300                                                                 
     1     18.4316424     23  2.300                                                                 
  local pseudopotential read in
  partial core-charges read in
  partial kinetic energy density read in
  atomic valenz-charges read in
  non local Contribution for L=            2  read in
    real space projection operators read in
  non local Contribution for L=            2  read in
    real space projection operators read in
  non local Contribution for L=            0  read in
    real space projection operators read in
  non local Contribution for L=            0  read in
    real space projection operators read in
  non local Contribution for L=            1  read in
    real space projection operators read in
  non local Contribution for L=            1  read in
    real space projection operators read in
    PAW grid and wavefunctions read in
 
   number of l-projection  operators is LMAX  =            6
   number of lm-projection operators is LMMAX =           18
 
 Optimization of the real space projectors (new method)

 maximal supplied QI-value         = 16.25
 optimisation between [QCUT,QGAM] = [ 10.73, 21.61] = [ 32.22,130.83] Ry 
 Optimized for a Real-space Cutoff    1.42 Angstroem

   l    n(q)    QCUT    max X(q) W(low)/X(q) W(high)/X(q)  e(spline) 
   2      8    10.726     7.143    0.22E-03    0.16E-03    0.73E-07
   2      8    10.726     5.586    0.40E-03    0.26E-03    0.10E-06
   0      9    10.726    12.382    0.25E-04    0.21E-05    0.37E-07
   0      9    10.726     6.622    0.42E-04    0.48E-05    0.77E-07
   1      9    10.726     7.935    0.27E-03    0.13E-04    0.16E-06
   1      9    10.726     2.425    0.23E-03    0.15E-04    0.14E-06
 Optimization of the real space projectors (new method)

 maximal supplied QI-value         = 24.76
 optimisation between [QCUT,QGAM] = [ 10.64, 21.54] = [ 31.73,129.89] Ry 
 Optimized for a Real-space Cutoff    1.23 Angstroem

   l    n(q)    QCUT    max X(q) W(low)/X(q) W(high)/X(q)  e(spline) 
   0      8    10.645    20.381    0.38E-03    0.60E-03    0.15E-06
   0      8    10.645    15.268    0.40E-03    0.65E-03    0.17E-06
   1      7    10.645     5.964    0.30E-03    0.63E-03    0.18E-06
   1      7    10.645     5.382    0.24E-03    0.53E-03    0.16E-06
 Optimization of the real space projectors (new method)

 maximal supplied QI-value         = 25.13
 optimisation between [QCUT,QGAM] = [ 10.81, 21.61] = [ 32.71,130.83] Ry 
 Optimized for a Real-space Cutoff    1.23 Angstroem

   l    n(q)    QCUT    max X(q) W(low)/X(q) W(high)/X(q)  e(spline) 
   0      8    10.807    79.467    0.34E-03    0.68E-03    0.21E-06
   0      8    10.807    66.151    0.34E-03    0.67E-03    0.21E-06
   1      7    10.807    14.030    0.45E-03    0.13E-02    0.11E-05
   1      7    10.807     9.831    0.48E-03    0.13E-02    0.11E-05
 Optimization of the real space projectors (new method)

 maximal supplied QI-value         = 16.25
 optimisation between [QCUT,QGAM] = [ 10.73, 21.61] = [ 32.22,130.83] Ry 
 Optimized for a Real-space Cutoff    1.38 Angstroem

   l    n(q)    QCUT    max X(q) W(low)/X(q) W(high)/X(q)  e(spline) 
   2      8    10.726    80.901    0.27E-03    0.52E-03    0.20E-06
   2      8    10.726    75.754    0.27E-03    0.52E-03    0.20E-06
   0      9    10.726    58.752    0.33E-03    0.19E-03    0.52E-07
   0      9    10.726    30.679    0.30E-03    0.18E-03    0.49E-07
   1      8    10.726    17.977    0.22E-03    0.18E-03    0.17E-06
   1      8    10.726    13.559    0.18E-03    0.14E-03    0.14E-06
  PAW_PBE Ga_d 06Jul2010                :
 energy of atom  1       EATOM=-2148.8298
 kinetic energy error for atom=    0.0038 (will be added to EATOM!!)
  PAW_PBE O 08Apr2002                   :
 energy of atom  2       EATOM= -432.3788
 kinetic energy error for atom=    0.0389 (will be added to EATOM!!)
  PAW_PBE N 08Apr2002                   :
 energy of atom  3       EATOM= -264.5486
 kinetic energy error for atom=    0.0253 (will be added to EATOM!!)
  PAW_PBE Fe 06Sep2000                  :
 energy of atom  4       EATOM= -594.3153
 kinetic energy error for atom=    0.0034 (will be added to EATOM!!)
 
 
 POSCAR: Ga8 O12
  positions in direct lattice
  velocities in cartesian coordinates
 exchange correlation table for  LEXCH =        8
   RHO(1)=    0.500       N(1)  =     2000
   RHO(2)=  100.500       N(2)  =     4000
 


--------------------------------------------------------------------------------------------------------


 ion  position               nearest neighbor table
   1  0.659  0.000  0.157-  83 1.94  78 1.95  81 1.95  66 2.02  60 2.08  64 2.08
   2  0.658  1.000  0.656-  82 1.94  79 1.94  84 1.94  67 2.03  61 2.08  65 2.08
   3  0.659  0.333  0.157-  85 1.94  80 1.96  78 1.96  68 2.02  60 2.07  62 2.08
   4  0.658  0.331  0.655-  79 1.95  86 1.95 119 2.00  69 2.03  61 2.07  63 2.10
   5  0.659  0.667  0.157-  87 1.94  80 1.96  81 1.96  70 2.02  64 2.07  62 2.08
   6  0.658  0.669  0.655-  82 1.95  88 1.95 119 2.00  71 2.03  65 2.07  63 2.10
   7  0.841  0.167  0.343-  89 1.95  74 1.95  72 1.95  60 2.03  66 2.08  68 2.08
   8  0.841  0.167  0.843-  90 1.94  75 1.95  73 1.95  61 2.02  67 2.08  69 2.09
   9  0.841  0.500  0.344-  91 1.94  74 1.95  76 1.95  62 2.02  70 2.08  68 2.08
  10  0.840  0.500  0.843-  92 1.95  75 1.96  77 1.96  63 2.02  71 2.07  69 2.07
  11  0.841  0.833  0.343-  93 1.95  76 1.95  72 1.95  64 2.03  66 2.08  70 2.08
  12  0.841  0.833  0.843-  94 1.94  77 1.95  73 1.95  65 2.02  67 2.08  71 2.09
  13  0.590  0.170  0.397-  79 1.84  54 1.86  60 1.87  56 1.87 120 3.02
  14  0.591  0.167  0.898-  78 1.84  57 1.85  55 1.85  61 1.88
  15  0.591  0.500  0.898-  80 1.85  57 1.85  59 1.85  63 1.88
  16  0.590  0.830  0.397-  82 1.84  54 1.86  64 1.87  58 1.87 120 3.02
  17  0.591  0.833  0.898-  81 1.84  59 1.85  55 1.85  65 1.88
  18  0.909  0.000  0.102-  73 1.84  48 1.85  52 1.85  66 1.87
  19  0.909  0.000  0.602-  72 1.84  53 1.85  49 1.85  67 1.87
  20  0.909  0.333  0.102-  75 1.84  50 1.85  48 1.85  68 1.87
  21  0.910  0.333  0.603-  74 1.84  49 1.84  51 1.85  69 1.87
  22  0.909  0.667  0.102-  77 1.84  50 1.85  52 1.85  70 1.87
  23  0.910  0.667  0.603-  76 1.84  53 1.84  51 1.85  71 1.87
  24  0.159  0.167  0.157-  48 1.95 115 1.95 113 1.95 101 2.03  97 2.07  95 2.08
  25  0.159  0.167  0.657-  49 1.94 116 1.95 114 1.96 102 2.02  96 2.07  98 2.08
  26  0.159  0.500  0.156-  50 1.94 115 1.95 117 1.95 103 2.02  97 2.08  99 2.08
  27  0.160  0.500  0.657-  51 1.95 118 1.95 116 1.95 104 2.02  98 2.08 100 2.08
  28  0.159  0.833  0.157-  52 1.95 117 1.95 113 1.95 105 2.03  99 2.07  95 2.08
  29  0.159  0.833  0.657-  53 1.94 118 1.95 114 1.96 106 2.02  96 2.07 100 2.08
  30  0.342  1.000  0.343-  54 1.94 111 1.95 107 1.95  95 2.02 101 2.07 105 2.07
  31  0.341  0.000  0.844-  55 1.95 112 1.95 108 1.95  96 2.03 102 2.07 106 2.07
  32  0.341  0.335  0.344- 109 1.95 107 1.95  56 1.96  97 2.02 103 2.07 101 2.08
  33  0.341  0.334  0.844-  57 1.95 110 1.95 108 1.95  98 2.02 104 2.08 102 2.08
  34  0.341  0.665  0.344- 109 1.95 111 1.95  58 1.96  99 2.02 103 2.07 105 2.08
  35  0.341  0.666  0.844-  59 1.95 110 1.95 112 1.95 100 2.02 104 2.08 106 2.08
  36  0.091  0.000  0.398- 114 1.84  89 1.85  93 1.85  95 1.87
  37  0.091  0.000  0.898- 113 1.84  90 1.85  94 1.85  96 1.87
  38  0.091  0.333  0.398- 116 1.84  91 1.85  89 1.85  97 1.87
  39  0.091  0.333  0.898- 115 1.84  92 1.85  90 1.85  98 1.87
  40  0.091  0.667  0.398- 118 1.84  91 1.85  93 1.85  99 1.87
  41  0.091  0.667  0.898- 117 1.84  92 1.85  94 1.85 100 1.87
  42  0.409  0.167  0.102- 108 1.84  85 1.85  83 1.85 101 1.87
  43  0.408  0.166  0.603- 107 1.84  86 1.84  84 1.85 102 1.87
  44  0.409  0.500  0.104-  85 1.85  87 1.85 110 1.85 103 1.87
  45  0.410  0.500  0.602- 109 1.84  86 1.84  88 1.84 104 1.88
  46  0.409  0.833  0.102- 112 1.84  87 1.85  83 1.85 105 1.87
  47  0.408  0.834  0.603- 111 1.84  88 1.84  84 1.85 106 1.87
  48  0.996  0.167  0.127-  18 1.85  20 1.85  24 1.95
  49  0.997  0.166  0.628-  21 1.84  19 1.85  25 1.94
  50  0.996  0.500  0.127-  22 1.85  20 1.85  26 1.94
  51  0.997  0.500  0.628-  21 1.85  23 1.85  27 1.95
  52  0.996  0.833  0.127-  18 1.85  22 1.85  28 1.95
  53  0.997  0.834  0.628-  23 1.84  19 1.85  29 1.94
  54  0.504  1.000  0.372-  13 1.86  16 1.86  30 1.94
  55  0.504  1.000  0.873-  17 1.85  14 1.85  31 1.95
  56  0.504  0.341  0.373- 120 1.82  13 1.87  32 1.96
  57  0.504  0.333  0.873-  14 1.85  15 1.85  33 1.95
  58  0.504  0.659  0.373- 120 1.82  16 1.87  34 1.96
  59  0.504  0.667  0.873-  17 1.85  15 1.85  35 1.95
  60  0.672  0.167  0.280-  13 1.87   7 2.03   3 2.07   1 2.08
  61  0.672  0.167  0.780-  14 1.88   8 2.02   4 2.07   2 2.08
  62  0.673  0.500  0.282- 120 1.86   9 2.02   5 2.08   3 2.08
  63  0.672  0.500  0.779-  15 1.88  10 2.02   6 2.10   4 2.10
  64  0.672  0.833  0.280-  16 1.87  11 2.03   5 2.07   1 2.08
  65  0.672  0.833  0.780-  17 1.88  12 2.02   6 2.07   2 2.08
  66  0.827  0.000  0.219-  18 1.87   1 2.02   7 2.08  11 2.08
  67  0.827  1.000  0.719-  19 1.87   2 2.03   8 2.08  12 2.08
  68  0.828  0.333  0.220-  20 1.87   3 2.02   7 2.08   9 2.08
  69  0.827  0.334  0.719-  21 1.87   4 2.03  10 2.07   8 2.09
  70  0.828  0.667  0.220-  22 1.87   5 2.02  11 2.08   9 2.08
  71  0.827  0.666  0.719-  23 1.87   6 2.03  10 2.07  12 2.09
  72  0.833  0.000  0.446-  19 1.84  11 1.95   7 1.95
  73  0.832  0.000  0.946-  18 1.84  12 1.95   8 1.95
  74  0.834  0.333  0.446-  21 1.84   7 1.95   9 1.95
  75  0.832  0.333  0.945-  20 1.84   8 1.95  10 1.96
  76  0.834  0.667  0.446-  23 1.84  11 1.95   9 1.95
  77  0.832  0.667  0.945-  22 1.84  12 1.95  10 1.96
  78  0.668  0.167  0.054-  14 1.84   1 1.95   3 1.96
  79  0.667  0.165  0.553-  13 1.84   2 1.94   4 1.95
  80  0.668  0.500  0.055-  15 1.85   5 1.96   3 1.96
  81  0.668  0.833  0.054-  17 1.84   1 1.95   5 1.96
  82  0.667  0.835  0.553-  16 1.84   2 1.94   6 1.95
  83  0.496  0.000  0.127-  46 1.85  42 1.85   1 1.94
  84  0.496  1.000  0.628-  43 1.85  47 1.85   2 1.94
  85  0.496  0.333  0.128-  42 1.85  44 1.85   3 1.94
  86  0.496  0.332  0.629-  43 1.84  45 1.84   4 1.95
  87  0.496  0.667  0.128-  46 1.85  44 1.85   5 1.94
  88  0.496  0.668  0.629-  47 1.84  45 1.84   6 1.95
  89  0.004  0.166  0.372-  36 1.85  38 1.85   7 1.95
  90  0.003  0.167  0.873-  39 1.85  37 1.85   8 1.94
  91  0.004  0.500  0.373-  38 1.85  40 1.85   9 1.94
  92  0.003  0.500  0.873-  41 1.85  39 1.85  10 1.95
  93  0.004  0.834  0.372-  36 1.85  40 1.85  11 1.95
  94  0.003  0.833  0.873-  41 1.85  37 1.85  12 1.94
  95  0.173  1.000  0.281-  36 1.87  30 2.02  24 2.08  28 2.08
  96  0.172  0.000  0.781-  37 1.87  31 2.03  25 2.07  29 2.07
  97  0.172  0.333  0.280-  38 1.87  32 2.02  24 2.07  26 2.08
  98  0.173  0.334  0.781-  39 1.87  33 2.02  25 2.08  27 2.08
  99  0.172  0.667  0.280-  40 1.87  34 2.02  28 2.07  26 2.08
 100  0.173  0.666  0.781-  41 1.87  35 2.02  29 2.08  27 2.08
 101  0.328  0.168  0.220-  42 1.87  24 2.03  30 2.07  32 2.08
 102  0.327  0.166  0.720-  43 1.87  25 2.02  31 2.07  33 2.08
 103  0.326  0.500  0.219-  44 1.87  26 2.02  34 2.07  32 2.07
 104  0.328  0.500  0.720-  45 1.88  27 2.02  33 2.08  35 2.08
 105  0.328  0.832  0.220-  46 1.87  28 2.03  30 2.07  34 2.08
 106  0.327  0.834  0.720-  47 1.87  29 2.02  31 2.07  35 2.08
 107  0.334  0.167  0.445-  43 1.84  32 1.95  30 1.95
 108  0.332  0.167  0.946-  42 1.84  31 1.95  33 1.95
 109  0.330  0.500  0.447-  45 1.84  32 1.95  34 1.95
 110  0.333  0.500  0.947-  44 1.85  35 1.95  33 1.95
 111  0.334  0.833  0.445-  47 1.84  34 1.95  30 1.95
 112  0.332  0.833  0.946-  46 1.84  31 1.95  35 1.95
 113  0.168  0.000  0.055-  37 1.84  28 1.95  24 1.95
 114  0.169  0.000  0.554-  36 1.84  25 1.96  29 1.96
 115  0.168  0.333  0.054-  39 1.84  26 1.95  24 1.95
 116  0.168  0.333  0.554-  38 1.84  25 1.95  27 1.95
 117  0.168  0.667  0.054-  41 1.84  26 1.95  28 1.95
 118  0.168  0.667  0.554-  40 1.84  29 1.95  27 1.95
 119  0.659  0.500  0.546- 120 1.66   4 2.00   6 2.00
 120  0.597  0.500  0.403- 119 1.66  58 1.82  56 1.82  62 1.86  16 3.02  13 3.02
 

IMPORTANT INFORMATION: All symmetrisations will be switched off!
NOSYMM: (Re-)initialisation of all symmetry stuff for point group C_1.


----------------------------------------------------------------------------------------

                                     Primitive cell                                     

  volume of cell :    1268.8050

  direct lattice vectors                    reciprocal lattice vectors
     0.000000000 12.280473709  0.000000000     0.000000000  0.081430084 -0.019947422
     9.142701149  0.000000000  0.000000000     0.109376866 -0.000000000  0.000000000
     0.000000000 -2.768261641-11.300697481     0.000000000  0.000000000 -0.088490113

  length of vectors
    12.280473709  9.142701149 11.634819984     0.083837689  0.109376866  0.088490113

  position of ions in fractional coordinates (direct lattice)
     0.658816997  0.000000059  0.156508615
     0.658167043  0.999999849  0.655955995
     0.658935309  0.333230569  0.157344927
     0.658188534  0.330974513  0.655113462
     0.658935397  0.666769455  0.157345195
     0.658188320  0.669025361  0.655115416
     0.841157195  0.166576301  0.343313477
     0.840833754  0.166525592  0.843153021
     0.841247923  0.500000016  0.343621842
     0.840451296  0.499999912  0.842514130
     0.841157319  0.833423770  0.343313672
     0.840833891  0.833474448  0.843153540
     0.590194851  0.169643025  0.396767096
     0.591178791  0.166720783  0.897617698
     0.591425379  0.500000523  0.897568348
     0.590195130  0.830356876  0.396767253
     0.591178062  0.833278902  0.897617712
     0.908799242  0.000000104  0.102351621
     0.908632983  0.000000058  0.602300725
     0.908691371  0.333243877  0.102019403
     0.910040408  0.333217594  0.602566878
     0.908691491  0.666756005  0.102019788
     0.910040054  0.666782498  0.602567100
     0.159275291  0.166821657  0.157068156
     0.159027935  0.166515174  0.657028604
     0.158589137  0.499999929  0.156199726
     0.159906163  0.499999766  0.656589619
     0.159275086  0.833178473  0.157067800
     0.159027654  0.833485131  0.657028491
     0.342067726  0.999999883  0.342962303
     0.340898317  0.000000058  0.843587370
     0.340679317  0.335276120  0.343914724
     0.341155726  0.333743033  0.843678664
     0.340679157  0.664723979  0.343913122
     0.341154146  0.666256858  0.843678634
     0.091442317  0.000000048  0.397720206
     0.091098823  0.000000175  0.898085672
     0.090992582  0.333254038  0.397681909
     0.090964168  0.333400650  0.897548258
     0.090992853  0.666746020  0.397682230
     0.090963540  0.666599277  0.897548394
     0.408905801  0.166686952  0.102107930
     0.408025903  0.166204541  0.602763691
     0.409481982  0.500000014  0.103549478
     0.410040642  0.499999818  0.602127873
     0.408906003  0.833313191  0.102107720
     0.408025427  0.833794796  0.602763730
     0.996336649  0.166610085  0.127064624
     0.996650978  0.166144032  0.627627709
     0.996124159  0.499999895  0.126954142
     0.997207813  0.500000083  0.627660525
     0.996336557  0.833390013  0.127064606
     0.996650816  0.833856003  0.627628090
     0.504430054  0.999999896  0.372096481
     0.503705302  0.999999980  0.872822887
     0.504481143  0.341322892  0.372551070
     0.503857068  0.333402940  0.873385664
     0.504481080  0.658677273  0.372551232
     0.503855900  0.666597265  0.873385795
     0.672423728  0.167064599  0.280478708
     0.672462701  0.166665936  0.779987905
     0.672554398  0.499999964  0.282036617
     0.672282340  0.500000059  0.779387307
     0.672423808  0.832935468  0.280478740
     0.672462645  0.833334123  0.779988514
     0.827185694  0.000000028  0.219466726
     0.827122403  0.999999994  0.719336423
     0.827577283  0.333360683  0.219532337
     0.827303862  0.333723046  0.718642163
     0.827577319  0.666639333  0.219532487
     0.827303961  0.666276923  0.718642599
     0.832579203  0.000000050  0.445622800
     0.831869996  0.000000119  0.945690972
     0.833823604  0.333015930  0.445951878
     0.831743782  0.333384914  0.945293559
     0.833823582  0.666984095  0.445952001
     0.831743954  0.666614947  0.945293808
     0.667959417  0.166767771  0.054284546
     0.667007259  0.164746777  0.553119865
     0.667809652  0.500000225  0.054778281
     0.667959254  0.833232102  0.054284476
     0.667006969  0.835252551  0.553120346
     0.496290083  0.000000109  0.126942041
     0.495712333  0.999999693  0.627764637
     0.496422451  0.333045539  0.127706368
     0.495506674  0.332040901  0.629144096
     0.496422470  0.666954489  0.127706807
     0.495506542  0.667958828  0.629145282
     0.003861697  0.166376963  0.372411254
     0.003491982  0.166633041  0.872847922
     0.003857509  0.500000115  0.372541832
     0.003343522  0.499999728  0.872806791
     0.003861804  0.833623023  0.372411497
     0.003491942  0.833367317  0.872848089
     0.173435812  0.999999989  0.280816494
     0.172288355  0.000000149  0.780713163
     0.172395504  0.332972305  0.280437651
     0.172656192  0.333536865  0.780640747
     0.172395274  0.667027725  0.280437507
     0.172655398  0.666462964  0.780640677
     0.328468707  0.167506562  0.220150348
     0.327004658  0.166439462  0.720009513
     0.326383293  0.499999979  0.219341153
     0.327891068  0.499999915  0.719657639
     0.328468521  0.832493489  0.220149767
     0.327004157  0.833560530  0.720009528
     0.333972943  0.167058668  0.445399951
     0.331914362  0.166725981  0.945776140
     0.329547288  0.500000307  0.446705288
     0.332598976  0.499999708  0.946569230
     0.333973010  0.832940932  0.445399690
     0.331914023  0.833274303  0.945776159
     0.168398774  0.000000151  0.054716483
     0.168622886  0.000000163  0.554263099
     0.167754948  0.333132071  0.054175073
     0.167818127  0.332828496  0.554272306
     0.167754914  0.666867840  0.054175032
     0.167818028  0.667171440  0.554272679
     0.658740725  0.500000435  0.545807186
     0.596674280  0.500000158  0.402693780

  ion indices of the primitive-cell ions
   primitive index   ion index
                 1           1
                 2           2
                 3           3
                 4           4
                 5           5
                 6           6
                 7           7
                 8           8
                 9           9
                10          10
                11          11
                12          12
                13          13
                14          14
                15          15
                16          16
                17          17
                18          18
                19          19
                20          20
                21          21
                22          22
                23          23
                24          24
                25          25
                26          26
                27          27
                28          28
                29          29
                30          30
                31          31
                32          32
                33          33
                34          34
                35          35
                36          36
                37          37
                38          38
                39          39
                40          40
                41          41
                42          42
                43          43
                44          44
                45          45
                46          46
                47          47
                48          48
                49          49
                50          50
                51          51
                52          52
                53          53
                54          54
                55          55
                56          56
                57          57
                58          58
                59          59
                60          60
                61          61
                62          62
                63          63
                64          64
                65          65
                66          66
                67          67
                68          68
                69          69
                70          70
                71          71
                72          72
                73          73
                74          74
                75          75
                76          76
                77          77
                78          78
                79          79
                80          80
                81          81
                82          82
                83          83
                84          84
                85          85
                86          86
                87          87
                88          88
                89          89
                90          90
                91          91
                92          92
                93          93
                94          94
                95          95
                96          96
                97          97
                98          98
                99          99
               100         100
               101         101
               102         102
               103         103
               104         104
               105         105
               106         106
               107         107
               108         108
               109         109
               110         110
               111         111
               112         112
               113         113
               114         114
               115         115
               116         116
               117         117
               118         118
               119         119
               120         120

----------------------------------------------------------------------------------------

 
 
 KPOINTS: Automatic mesh                          

Automatic generation of k-mesh.
 Grid dimensions read from file:
 generate k-points for:    2    2    2

 Generating k-lattice:

  Cartesian coordinates                     Fractional coordinates (reciprocal lattice)
     0.000000000  0.040715042 -0.009973711     0.500000000  0.000000000 -0.000000000
     0.054688433 -0.000000000  0.000000000     0.000000000  0.500000000  0.000000000
     0.000000000  0.000000000 -0.044245057     0.000000000  0.000000000  0.500000000

  Length of vectors
     0.041918845  0.054688433  0.044245057

  Shift w.r.t. Gamma in fractional coordinates (k-lattice)
     0.000000000  0.000000000  0.000000000

 
 Subroutine IBZKPT returns following result:
 ===========================================
 
 Found      8 irreducible k-points:
 
 Following reciprocal coordinates:
            Coordinates               Weight
  0.000000  0.000000  0.000000      1.000000
  0.500000  0.000000  0.000000      1.000000
  0.000000  0.500000  0.000000      1.000000
  0.500000  0.500000  0.000000      1.000000
  0.000000  0.000000  0.500000      1.000000
  0.500000  0.000000  0.500000      1.000000
  0.000000  0.500000  0.500000      1.000000
  0.500000  0.500000  0.500000      1.000000
 
 Following cartesian coordinates:
            Coordinates               Weight
  0.000000  0.000000 -0.000000      1.000000
  0.000000  0.040715 -0.009974      1.000000
  0.054688  0.000000 -0.000000      1.000000
  0.054688  0.040715 -0.009974      1.000000
  0.000000  0.000000 -0.044245      1.000000
  0.000000  0.040715 -0.054219      1.000000
  0.054688  0.000000 -0.044245      1.000000
  0.054688  0.040715 -0.054219      1.000000
 
 
 Subroutine IBZKPT_HF returns following result:
 ==============================================
 
 Found      8 k-points in 1st BZ
 the following      8 k-points will be used (e.g. in the exchange kernel)
 Following reciprocal coordinates:   # in IRBZ
  0.000000  0.000000  0.000000    0.12500000   1 t-inv F
  0.500000  0.000000  0.000000    0.12500000   2 t-inv F
  0.000000  0.500000  0.000000    0.12500000   3 t-inv F
  0.500000  0.500000  0.000000    0.12500000   4 t-inv F
  0.000000  0.000000  0.500000    0.12500000   5 t-inv F
  0.500000  0.000000  0.500000    0.12500000   6 t-inv F
  0.000000  0.500000  0.500000    0.12500000   7 t-inv F
  0.500000  0.500000  0.500000    0.12500000   8 t-inv F


--------------------------------------------------------------------------------------------------------




 Dimension of arrays:
   k-points           NKPTS =      8   k-points in BZ     NKDIM =      8   number of bands    NBANDS=    630
   number of dos      NEDOS =    301   number of ions     NIONS =    120
   non local maximal  LDIM  =      6   non local SUM 2l+1 LMDIM =     18
   total plane-waves  NPLWV = 184320
   max r-space proj   IRMAX =   1800   max aug-charges    IRDMAX=   5704
   dimension x,y,z NGX =    64 NGY =   48 NGZ =   60
   dimension x,y,z NGXF=   128 NGYF=   96 NGZF=  120
   support grid    NGXF=   128 NGYF=   96 NGZF=  120
   ions per type =              47  71   1   1
   NGX,Y,Z   is equivalent  to a cutoff of   8.66,  8.73,  8.57 a.u.
   NGXF,Y,Z  is equivalent  to a cutoff of  17.33, 17.46, 17.15 a.u.

 SYSTEM =  unknown system                          
 POSCAR =  Ga8 O12                                 

 Startparameter for this run:
   NWRITE =      2    write-flag & timer
   PREC   = normal    normal or accurate (medium, high low for compatibility)
   ISTART =      1    job   : 0-new  1-cont  2-samecut
   ICHARG =      1    charge: 1-file 2-atom 10-const
   ISPIN  =      1    spin polarized calculation?
   LNONCOLLINEAR =      F non collinear calculations
   LSORBIT =      F    spin-orbit coupling
   INIWAV =      1    electr: 0-lowe 1-rand  2-diag
   LASPH  =      F    aspherical Exc in radial PAW
 Electronic Relaxation 1
   ENCUT  =  450.0 eV  33.07 Ry    5.75 a.u.  21.24 15.81 20.12*2*pi/ulx,y,z
   ENINI  =  450.0     initial cutoff
   ENAUG  =  627.1 eV  augmentation charge cutoff
   NELM   =    500;   NELMIN=  2; NELMDL=  0     # of ELM steps 
   EDIFF  = 0.1E-04   stopping-criterion for ELM
   LREAL  =      T    real-space projection
   NLSPLINE    = F    spline interpolate recip. space projectors
   LCOMPAT=      F    compatible to vasp.4.4
   GGA_COMPAT  = T    GGA compatible to vasp.4.4-vasp.4.6
   LMAXPAW     = -100 max onsite density
   LMAXMIX     =    2 max onsite mixed and CHGCAR
   VOSKOWN=      0    Vosko Wilk Nusair interpolation
   ROPT   =   -0.00050  -0.00050  -0.00050  -0.00050
 Ionic relaxation
   EDIFFG = -.5E-02   stopping-criterion for IOM
   NSW    =      0    number of steps for IOM
   NBLOCK =      1;   KBLOCK =      1    inner block; outer block 
   IBRION =     -1    ionic relax: 0-MD 1-quasi-New 2-CG
   NFREE  =      0    steps in history (QN), initial steepest desc. (CG)
   ISIF   =      2    stress and relaxation
   IWAVPR =     10    prediction:  0-non 1-charg 2-wave 3-comb
   ISYM   =      0    0-nonsym 1-usesym 2-fastsym
   LCORR  =      T    Harris-Foulkes like correction to forces

   POTIM  = 0.5000    time-step for ionic-motion
   TEIN   =    0.0    initial temperature
   TEBEG  =    0.0;   TEEND  =   0.0 temperature during run
   SMASS  =  -3.00    Nose mass-parameter (am)
   estimated Nose-frequenzy (Omega)   =  0.10E-29 period in steps = 0.13E+47 mass=  -0.345E-26a.u.
   SCALEE = 1.0000    scale energy and forces
   NPACO  =    256;   APACO  = 10.0  distance and # of slots for P.C.
   PSTRESS=    0.0 pullay stress

  Mass of Ions in am
   POMASS =  69.72 16.00 14.00 55.85
  Ionic Valenz
   ZVAL   =  13.00  6.00  5.00  8.00
  Atomic Wigner-Seitz radii
   RWIGS  =  -1.00 -1.00 -1.00 -1.00
  virtual crystal weights 
   VCA    =   1.00  1.00  1.00  1.00
   NELECT =    1050.0000    total number of electrons
   NUPDOWN=      -1.0000    fix difference up-down

 DOS related values:
   EMIN   =  10.00;   EMAX   =-10.00  energy-range for DOS
   EFERMI =   0.00;   METHOD = LEGACY      
   ISMEAR =     0;   SIGMA  =   0.05  broadening in eV -4-tet -1-fermi 0-gaus

 Electronic relaxation 2 (details)
   IALGO  =     58    algorithm
   LDIAG  =      T    sub-space diagonalisation (order eigenvalues)
   LSUBROT=      F    optimize rotation matrix (better conditioning)
   TURBO    =      0    0=normal 1=particle mesh
   IRESTART =      0    0=no restart 2=restart with 2 vectors
   NREBOOT  =      0    no. of reboots
   NMIN     =      0    reboot dimension
   EREF     =   0.00    reference energy to select bands
   IMIX   =      4    mixing-type and parameters
     AMIX     =   0.40;   BMIX     =  1.00
     AMIX_MAG =   1.60;   BMIX_MAG =  1.00
     AMIN     =   0.10
     WC   =   100.;   INIMIX=   1;  MIXPRE=   1;  MAXMIX= -45

 Intra band minimization:
   WEIMIN = 0.0000     energy-eigenvalue tresh-hold
   EBREAK =  0.40E-08  absolut break condition
   DEPER  =   0.30     relativ break condition  

   TIME   =   0.40     timestep for ELM

  volume/ion in A,a.u.               =      10.57        71.35
  Fermi-wavevector in a.u.,A,eV,Ry     =   1.536997  2.904503 32.141848  2.362359
  Thomas-Fermi vector in A             =   2.643567
 
 Write flags
   LWAVE        =      T    write WAVECAR
   LDOWNSAMPLE  =      F    k-point downsampling of WAVECAR
   LCHARG       =      T    write CHGCAR
   LVTOT        =      F    write LOCPOT, total local potential
   LVHAR        =      F    write LOCPOT, Hartree potential only
   LELF         =      F    write electronic localiz. function (ELF)
   LORBIT       =      0    0 simple, 1 ext, 2 COOP (PROOUT), +10 PAW based schemes


 Dipole corrections
   LMONO  =      F    monopole corrections only (constant potential shift)
   LDIPOL =      F    correct potential (dipole corrections)
   IDIPOL =      0    1-x, 2-y, 3-z, 4-all directions 
   EPSILON=  1.0000000 bulk dielectric constant

 Core level calculations are selected ICORELEVEL =  1
 Exchange correlation treatment:
   GGA     =    --    GGA type
   LEXCH   =     8    internal setting for exchange type
   LIBXC   =     F    Libxc                    
   VOSKOWN =     0    Vosko Wilk Nusair interpolation
   EXXOEP  =     0    0=HF, 1=EXX-LHF (local Hartree Fock) 2=EXX OEP
   LHFCALC =     T    Hartree Fock is set to
   LSYMGRAD=     F    symmetrize gradient (conserves proper symmetry)
   PRECFOCK=fast      Normal, Fast or Accurate (Low or Medium for compatibility)
   LRHFCALC=     F    long range Hartree Fock
   LRSCOR  =     F    long range correlation only (use DFT for short range part)
   LTHOMAS =     F    Thomas Fermi screening in HF
   LMODELHF=     F    short range full HF, long range fraction AEXX
   FOCKCORR=     1    mode to apply convergence corrections
   LFOCKACE=     T    use Adeptively-Compressed-Exchange operator
   ENCUT4O =  -1.0   cutoff for four orbital integrals eV
   LMAXFOCK=     4    L truncation for augmentation on plane wave grid
   LMAXFOCKAE=  -1    L truncation for all-electron charge restoration on plane wave grid
   NMAXFOCKAE=   1    number of basis functions for all-electron charge restoration
   LFOCKAEDFT=     F  apply the AE augmentation even for DFT
   NKREDX  =     1    reduce k-point grid by
   NKREDY  =     1    reduce k-point grid by
   NKREDZ  =     1    reduce k-point grid by
   SHIFTRED=     F    shift reduced grid of Gamma
   HFKIDENT=     F    idential grid for each k-point
   ODDONLY =     F    use only odd q-grid points
   EVENONLY=     F    use only even q-grid points
   HFALPHA =   -1.0000 decay constant for conv. correction
   MCALPHA =    0.0000 extent of test-charge in conv. correction in multipole expansion
   AEXX    =    0.3200 exact exchange contribution
   HFSCREEN=    0.2000 screening length (either q_TF or 0.3 A-1)
   HFSCREENC=   0.2000 screening length for correlation (either q_TF or 0.3 A-1)
   HFRCUT  =    0.0000 spherical cutoff for potential kernel
   ALDAX   =    0.6800 LDA exchange part
   AGGAX   =    0.6800 GGA exchange part
   ALDAC   =    1.0000 LDA correlation
   AGGAC   =    1.0000 GGA correlation
   ENCUTFOCK=  -1.0 apply spherical cutoff to Coloumb kernel
   NBANDSGWLOW=     1    first orbital included in HF term
   NBLOCK_FOCK=    64    blocking factor in FOCK_ACC

 Linear response parameters
   LEPSILON=     F    determine dielectric tensor
   LRPA    =     F    only Hartree local field effects (RPA)
   LNABLA  =     F    use nabla operator in PAW spheres
   LVEL    =     F    velocity operator in full k-point grid
   CSHIFT  =0.1000    complex shift for real part using Kramers Kronig
   OMEGAMAX=  -1.0    maximum frequency
   DEG_THRESHOLD= 0.2000000E-02 threshold for treating states as degnerate
   RTIME   =   -0.100 relaxation time in fs
  (WPLASMAI=    0.000 imaginary part of plasma frequency in eV, 0.658/RTIME)
   DFIELD  = 0.0000000 0.0000000 0.0000000 field for delta impulse in time
 
  Optional k-point grid parameters
   LKPOINTS_OPT  =     F    use optional k-point grid
   KPOINTS_OPT_MODE=     1    mode for optional k-point grid
 
 Orbital magnetization related:
   ORBITALMAG=     F  switch on orbital magnetization
   LCHIMAG   =     F  perturbation theory with respect to B field
   DQ        =  0.001000  dq finite difference perturbation B field
   LLRAUG    =     F  two centre corrections for induced B field
   LBONE     =     F  B-component reconstruction in AE one-centre
   LVGVCALC  =     T  calculate vGv susceptibility
   LVGVAPPL  =     F  apply vGv susceptibility instead of pGv for G=0

 Random number generation:
   RANDOM_GENERATOR = DEFAULT
   PCG_SEED         = not used


--------------------------------------------------------------------------------------------------------


 Static calculation
 charge density and potential will be updated during run
 non-spin polarized calculation
 Conjugate gradient for all bands (Freysoldt, et al. PRB 79, 241103 (2009))
 preconditioned conjugated gradient                                        
 perform sub-space diagonalisation
    before iterative eigenvector-optimisation
 modified Broyden-mixing scheme, WC =      100.0
 initial mixing is a Kerker type mixing with AMIX =  0.4000 and BMIX =      1.0000
 Hartree-type preconditioning will be used
 using additional bands           105
 real space projection scheme for non local part
 use partial core corrections
 no Harris-corrections to forces 
 use gradient corrections 
 use of overlap-Matrix (Vanderbilt PP)
 Gauss-broadening in eV      SIGMA  =   0.05


--------------------------------------------------------------------------------------------------------


  energy-cutoff  :      450.00
  volume of cell :     1268.81
      direct lattice vectors                 reciprocal lattice vectors
     0.000000000 12.280473709  0.000000000     0.000000000  0.081430084 -0.019947422
     9.142701149  0.000000000  0.000000000     0.109376866 -0.000000000  0.000000000
     0.000000000 -2.768261641-11.300697481     0.000000000  0.000000000 -0.088490113

  length of vectors
    12.280473709  9.142701149 11.634819984     0.083837689  0.109376866  0.088490113


 
 old parameters found on file WAVECAR:
  energy-cutoff  :      450.00
  volume of cell :     1268.81
      direct lattice vectors                 reciprocal lattice vectors
     0.000000000 12.280473709  0.000000000     0.000000000  0.081430084 -0.019947422
     9.142701149  0.000000000  0.000000000     0.109376866 -0.000000000  0.000000000
     0.000000000 -2.768261641-11.300697481     0.000000000  0.000000000 -0.088490113

  length of vectors

 
 k-points in units of 2pi/SCALE and weight: Automatic mesh                          
   0.00000000  0.00000000 -0.00000000       0.125
   0.00000000  0.04071504 -0.00997371       0.125
   0.05468843  0.00000000 -0.00000000       0.125
   0.05468843  0.04071504 -0.00997371       0.125
   0.00000000  0.00000000 -0.04424506       0.125
   0.00000000  0.04071504 -0.05421877       0.125
   0.05468843  0.00000000 -0.04424506       0.125
   0.05468843  0.04071504 -0.05421877       0.125
 
 k-points in reciprocal lattice and weights: Automatic mesh                          
   0.00000000  0.00000000  0.00000000       0.125
   0.50000000  0.00000000  0.00000000       0.125
   0.00000000  0.50000000  0.00000000       0.125
   0.50000000  0.50000000  0.00000000       0.125
   0.00000000  0.00000000  0.50000000       0.125
   0.50000000  0.00000000  0.50000000       0.125
   0.00000000  0.50000000  0.50000000       0.125
   0.50000000  0.50000000  0.50000000       0.125
 
 position of ions in fractional coordinates (direct lattice) 
   0.65881700  0.00000006  0.15650861
   0.65816704  0.99999985  0.65595599
   0.65893531  0.33323057  0.15734493
   0.65818853  0.33097451  0.65511346
   0.65893540  0.66676946  0.15734520
   0.65818832  0.66902536  0.65511542
   0.84115720  0.16657630  0.34331348
   0.84083375  0.16652559  0.84315302
   0.84124792  0.50000002  0.34362184
   0.84045130  0.49999991  0.84251413
   0.84115732  0.83342377  0.34331367
   0.84083389  0.83347445  0.84315354
   0.59019485  0.16964303  0.39676710
   0.59117879  0.16672078  0.89761770
   0.59142538  0.50000052  0.89756835
   0.59019513  0.83035688  0.39676725
   0.59117806  0.83327890  0.89761771
   0.90879924  0.00000010  0.10235162
   0.90863298  0.00000006  0.60230073
   0.90869137  0.33324388  0.10201940
   0.91004041  0.33321759  0.60256688
   0.90869149  0.66675601  0.10201979
   0.91004005  0.66678250  0.60256710
   0.15927529  0.16682166  0.15706816
   0.15902793  0.16651517  0.65702860
   0.15858914  0.49999993  0.15619973
   0.15990616  0.49999977  0.65658962
   0.15927509  0.83317847  0.15706780
   0.15902765  0.83348513  0.65702849
   0.34206773  0.99999988  0.34296230
   0.34089832  0.00000006  0.84358737
   0.34067932  0.33527612  0.34391472
   0.34115573  0.33374303  0.84367866
   0.34067916  0.66472398  0.34391312
   0.34115415  0.66625686  0.84367863
   0.09144232  0.00000005  0.39772021
   0.09109882  0.00000017  0.89808567
   0.09099258  0.33325404  0.39768191
   0.09096417  0.33340065  0.89754826
   0.09099285  0.66674602  0.39768223
   0.09096354  0.66659928  0.89754839
   0.40890580  0.16668695  0.10210793
   0.40802590  0.16620454  0.60276369
   0.40948198  0.50000001  0.10354948
   0.41004064  0.49999982  0.60212787
   0.40890600  0.83331319  0.10210772
   0.40802543  0.83379480  0.60276373
   0.99633665  0.16661008  0.12706462
   0.99665098  0.16614403  0.62762771
   0.99612416  0.49999990  0.12695414
   0.99720781  0.50000008  0.62766053
   0.99633656  0.83339001  0.12706461
   0.99665082  0.83385600  0.62762809
   0.50443005  0.99999990  0.37209648
   0.50370530  0.99999998  0.87282289
   0.50448114  0.34132289  0.37255107
   0.50385707  0.33340294  0.87338566
   0.50448108  0.65867727  0.37255123
   0.50385590  0.66659726  0.87338579
   0.67242373  0.16706460  0.28047871
   0.67246270  0.16666594  0.77998790
   0.67255440  0.49999996  0.28203662
   0.67228234  0.50000006  0.77938731
   0.67242381  0.83293547  0.28047874
   0.67246265  0.83333412  0.77998851
   0.82718569  0.00000003  0.21946673
   0.82712240  0.99999999  0.71933642
   0.82757728  0.33336068  0.21953234
   0.82730386  0.33372305  0.71864216
   0.82757732  0.66663933  0.21953249
   0.82730396  0.66627692  0.71864260
   0.83257920  0.00000005  0.44562280
   0.83187000  0.00000012  0.94569097
   0.83382360  0.33301593  0.44595188
   0.83174378  0.33338491  0.94529356
   0.83382358  0.66698410  0.44595200
   0.83174395  0.66661495  0.94529381
   0.66795942  0.16676777  0.05428455
   0.66700726  0.16474678  0.55311987
   0.66780965  0.50000022  0.05477828
   0.66795925  0.83323210  0.05428448
   0.66700697  0.83525255  0.55312035
   0.49629008  0.00000011  0.12694204
   0.49571233  0.99999969  0.62776464
   0.49642245  0.33304554  0.12770637
   0.49550667  0.33204090  0.62914410
   0.49642247  0.66695449  0.12770681
   0.49550654  0.66795883  0.62914528
   0.00386170  0.16637696  0.37241125
   0.00349198  0.16663304  0.87284792
   0.00385751  0.50000012  0.37254183
   0.00334352  0.49999973  0.87280679
   0.00386180  0.83362302  0.37241150
   0.00349194  0.83336732  0.87284809
   0.17343581  0.99999999  0.28081649
   0.17228836  0.00000015  0.78071316
   0.17239550  0.33297231  0.28043765
   0.17265619  0.33353687  0.78064075
   0.17239527  0.66702773  0.28043751
   0.17265540  0.66646296  0.78064068
   0.32846871  0.16750656  0.22015035
   0.32700466  0.16643946  0.72000951
   0.32638329  0.49999998  0.21934115
   0.32789107  0.49999992  0.71965764
   0.32846852  0.83249349  0.22014977
   0.32700416  0.83356053  0.72000953
   0.33397294  0.16705867  0.44539995
   0.33191436  0.16672598  0.94577614
   0.32954729  0.50000031  0.44670529
   0.33259898  0.49999971  0.94656923
   0.33397301  0.83294093  0.44539969
   0.33191402  0.83327430  0.94577616
   0.16839877  0.00000015  0.05471648
   0.16862289  0.00000016  0.55426310
   0.16775495  0.33313207  0.05417507
   0.16781813  0.33282850  0.55427231
   0.16775491  0.66686784  0.05417503
   0.16781803  0.66717144  0.55427268
   0.65874072  0.50000044  0.54580719
   0.59667428  0.50000016  0.40269378
 
 position of ions in cartesian coordinates  (Angst):
   0.00000054  7.65732801 -1.76865651
   9.14269977  6.26674525 -7.41276026
   3.04662750  7.65646582 -1.77810742
   3.02600106  6.26934152 -7.40323904
   6.09607386  7.65646615 -1.77811045
   6.11669893  6.26933348 -7.40326113
   1.52295734  9.37942729 -3.87968175
   1.52249372  7.99176865 -9.52821722
   4.57135072  9.37968783 -3.88316649
   4.57134977  7.98884050 -9.52099731
   7.61974446  9.37942827 -3.87968395
   7.62020780  7.99176889 -9.52822309
   1.55099548  6.14951722 -4.48374493
   1.52427829  4.77511496-10.14370606
   4.57135536  4.77827979-10.14314837
   7.59170477  6.14952021 -4.48374670
   7.61841998  4.77510597-10.14370622
   0.00000095 10.87714913 -1.15664470
   0.00000053  9.49111747 -6.80641829
   3.04674918 10.87674409 -1.15289041
   3.04650888  9.50766453 -6.80942600
   6.09595089 10.87674450 -1.15289477
   6.09619311  9.50765956 -6.80942851
   1.52520056  1.52117027 -1.77497971
   1.52239847  0.13411129 -7.42488149
   4.57134992  1.51514801 -1.76516585
   4.57134844  0.14611158 -7.41992065
   7.61750179  1.52116873 -1.77497569
   7.62030547  0.13410815 -7.42488021
   9.14270008  3.25134433 -3.87571323
   0.00000053  1.85112226 -9.53312566
   3.06532937  3.23165746 -3.88647626
   3.05131281  1.85403064 -9.53415735
   6.07737269  3.23165993 -3.88645815
   6.09138734  1.85401132 -9.53415701
   0.00000044  0.02196138 -4.49451574
   0.00000160 -1.36739941-10.14899449
   3.04684208  0.01654443 -4.49408295
   3.04818250 -1.36756534-10.14292134
   6.09585960  0.01654688 -4.49408657
   6.09451798 -1.36757343-10.14292287
   1.52396899  4.73889547 -1.15389083
   1.51955845  3.34214377 -6.81165013
   4.57135070  4.74198067 -1.17018133
   4.57134891  3.36864583 -6.80446494
   7.61873347  4.73889853 -1.15388846
   7.62313664  3.34213781 -6.81165057
   1.52326622 11.88373790 -1.43591888
   1.51900523 10.50190842 -7.09263087
   4.57134962 11.88143426 -1.43467035
   4.57135134 10.50865577 -7.09300172
   7.61943583 11.88373681 -1.43591868
   7.62369624 10.50190538 -7.09263517
   9.14270020  5.16457960 -4.20494977
   9.14270096  3.76953760 -9.86350740
   3.12061320  5.16394858 -4.21008694
   3.04820345  3.76984345 -9.86986717
   6.02208946  5.16394736 -4.21008876
   6.09449958  3.76982875 -9.86986865
   1.52742170  7.48124347 -3.16960503
   1.52377684  6.09894992 -8.81440735
   4.57135024  7.47853545 -3.18721049
   4.57135111  6.09839762 -8.80762018
   7.61528006  7.48124436 -3.16960539
   7.61892484  6.09894755 -8.81441424
   0.00000026  9.55069084 -2.48012708
   9.14270109  8.16614350 -8.12900331
   3.04781710  9.55531812 -2.48086853
   3.05113008  8.17029379 -8.12115768
   6.09488420  9.55531814 -2.48087023
   6.09157079  8.17029381 -8.12116261
   0.00000045  8.99086651 -5.03584845
   0.00000109  7.59783757-10.68696758
   3.04466513  9.00523736 -5.03956727
   3.04803864  7.59738775-10.68247654
   6.09803626  9.00523675 -5.03956866
   6.09466124  7.59738917-10.68247936
   1.52470789  8.05258424 -0.61345323
   1.50623055  6.65998460 -6.25064027
   4.57135263  8.04937826 -0.61903278
   7.61799210  8.05258242 -0.61345244
   7.63646445  6.65997971 -6.25064570
   0.00000100  5.74326853 -1.43453361
   9.14269834  4.34976551 -7.09417825
   3.04493583  5.74277822 -1.44317103
   3.03575072  4.34342122 -7.10976710
   6.09776558  5.74277724 -1.44317599
   6.10694795  4.34341631 -7.10978050
   1.52113485 -0.98350832 -4.20850691
   1.52347610 -2.37338823 -9.86379031
   4.57135163 -0.98392123 -4.20998254
   4.57134809 -2.37509753 -9.86332550
   7.62156617 -0.98350768 -4.20850966
   7.61922833 -2.37338918 -9.86379220
   9.14270105  1.35250040 -3.17342224
   0.00000136 -0.04543568 -8.82260327
   3.04426628  1.34077366 -3.16914106
   3.04942788 -0.04071801 -8.82178492
   6.09843515  1.34077123 -3.16913943
   6.09327171 -0.04072757 -8.82178413
   1.53146244  3.42431755 -2.48785248
   1.52170626  2.02259738 -8.13660969
   4.57135038  3.40094775 -2.47870802
   4.57134980  2.03445700 -8.13263327
   7.61123918  3.42431687 -2.48784592
   7.62099481  2.02259120 -8.13660986
   1.52736748  2.86836235 -5.03333010
   1.52432582  1.45790978-10.68793004
   4.57135338  2.81039970 -5.04808132
   4.57134790  1.46412169-10.69689251
   7.61533002  2.86836389 -5.03332715
   7.61837792  1.45790557-10.68793026
   0.00000138  1.91654718 -0.61833442
   0.00000149  0.53642364 -6.26355960
   3.04572697  1.91013945 -0.61221611
   3.04295147  0.52651534 -6.26366365
   6.09697336  1.91013914 -0.61221565
   6.09974909  0.52651309 -6.26366787
   4.57135456  6.57871106 -6.16800190
   4.57135202  6.21268107 -4.55072059
 


--------------------------------------------------------------------------------------------------------


 k-point   1 :   0.0000 0.0000 0.0000  plane waves:   27533
 k-point   2 :   0.5000 0.0000 0.0000  plane waves:   27522
 k-point   3 :   0.0000 0.5000 0.0000  plane waves:   27488
 k-point   4 :   0.5000 0.5000 0.0000  plane waves:   27488
 k-point   5 :   0.0000 0.0000 0.5000  plane waves:   27482
 k-point   6 :   0.5000 0.0000 0.5000  plane waves:   27476
 k-point   7 :   0.0000 0.5000 0.5000  plane waves:   27468
 k-point   8 :   0.5000 0.5000 0.5000  plane waves:   27564

 maximum and minimum number of plane-waves per node :     27564    27468

 maximum number of plane-waves:     27564
 maximum index in each direction: 
   IXMAX=   21   IYMAX=   15   IZMAX=   20
   IXMIN=  -21   IYMIN=  -16   IZMIN=  -20


 serial   3D FFT for wavefunctions
 parallel 3D FFT for charge:
    minimum data exchange during FFTs selected (reduces bandwidth)


 FFT grid for exact exchange (Hartree Fock) 
  NGX = 48; NGY = 36; NGZ = 48

 
 Radii for the augmentation spheres in the non-local exchange
 for species   1 augmentation radius   1.392 (default was   1.031)
       energy cutoff for augmentation   1800.0
 for species   2 augmentation radius   0.974 (default was   0.722)
       energy cutoff for augmentation   1800.0
 for species   3 augmentation radius   0.957 (default was   0.709)
       energy cutoff for augmentation   1800.0
 for species   4 augmentation radius   1.364 (default was   1.010)
       energy cutoff for augmentation   1800.0
 Maximum index for augmentation-charges in exchange           746
  SETUP_FOCK is finished

 total amount of memory used by VASP MPI-rank0  7247697. kBytes
=======================================================================

   base      :      30000. kBytes
   nonlr-proj:      32948. kBytes
   fftplans  :      51012. kBytes
   grid      :     114966. kBytes
   one-center:       1866. kBytes
   HF        :        259. kBytes
   wavefun   :    7016646. kBytes
 
     INWAV:  cpu time      3.4451: real time      4.9233
 Broyden mixing: mesh for mixing (old mesh)
   NGX = 43   NGY = 31   NGZ = 41
  (NGX  =128   NGY  = 96   NGZ  =120)
  gives a total of  54653 points

 initial charge density was supplied:
 number of electron    1049.9998781 magnetization 
 charge density for first step will be calculated from the start-wavefunctions


--------------------------------------------------------------------------------------------------------


 Maximum index for non-local projection operator          1718
 Maximum index for augmentation-charges          5357 (set IRDMAX)


--------------------------------------------------------------------------------------------------------


 initial charge from wavefunction
 First call to EWALD:  gamma=   0.164
 Maximum number of real-space cells 3x 3x 3
 Maximum number of reciprocal cells 3x 2x 3

    FEWALD:  cpu time      0.0741: real time      0.0741


--------------------------------------- Ionic step        1  -------------------------------------------




--------------------------------------- Iteration      1(   1)  ---------------------------------------


    POTLOK:  cpu time      1.5427: real time      1.5424
    SETDIJ:  cpu time      0.5291: real time      0.5291
    TRIAL :  cpu time    234.4020: real time    234.3658
    CORREC:  cpu time    236.2296: real time    236.1852
    CHARGE:  cpu time      0.2328: real time      0.2327
    --------------------------------------------
      LOOP:  cpu time    473.8815: real time    473.8000

 eigenvalue-minimisations  :     0
 total energy-change (2. order) :-0.9538992E+03  (-0.5091948E+01)
 number of electron    1049.9998766 magnetization 
 augmentation part      454.5486020 magnetization 

 Free energy of the ion-electron system (eV)
  ---------------------------------------------------
  alpha Z        PSCENC =      5490.26774318
  Ewald energy   TEWEN  =    -87780.02165936
  -Hartree energ DENC   =    -33432.87388667
  -exchange      EXHF   =      3839.19488376
  -V(xc)+E(xc)   XCENC  =      2875.56584468
  PAW double counting   =    119861.00337091  -134945.67068200
  entropy T*S    EENTRO =        -0.00000000
  eigenvalues    EBANDS =     -9035.03508063
  atomic energy  EATOM  =    132173.67027711
  ---------------------------------------------------
  free energy    TOTEN  =      -953.89918909 eV

  energy without entropy =     -953.89918909  energy(sigma->0) =     -953.89918909
  exchange ACFDT corr.  =        -0.00000022  see jH, gK, PRB 81, 115126


--------------------------------------------------------------------------------------------------------




--------------------------------------- Iteration      1(   2)  ---------------------------------------


    POTLOK:  cpu time      1.4473: real time      1.4471
    SETDIJ:  cpu time      0.5295: real time      0.5294
    TRIAL :  cpu time    234.1985: real time    234.1562
    CORREC:  cpu time    236.1071: real time    236.0675
    CHARGE:  cpu time      0.2366: real time      0.2366
    --------------------------------------------
      LOOP:  cpu time    472.5209: real time    472.4392

 eigenvalue-minimisations  :     0
 total energy-change (2. order) :-0.5089537E+01  (-0.2835580E+01)
 number of electron    1049.9998765 magnetization 
 augmentation part      454.9605091 magnetization 

 Free energy of the ion-electron system (eV)
  ---------------------------------------------------
  alpha Z        PSCENC =      5490.26774318
  Ewald energy   TEWEN  =    -87780.02165936
  -Hartree energ DENC   =    -33600.89419532
  -exchange      EXHF   =      3849.78800983
  -V(xc)+E(xc)   XCENC  =      2880.57330217
  PAW double counting   =    120358.23308991  -135687.23830371
  entropy T*S    EENTRO =        -0.00000000
  eigenvalues    EBANDS =     -8643.36699016
  atomic energy  EATOM  =    132173.67027711
  ---------------------------------------------------
  free energy    TOTEN  =      -958.98872634 eV

  energy without entropy =     -958.98872634  energy(sigma->0) =     -958.98872634
  exchange ACFDT corr.  =        -0.00000000  see jH, gK, PRB 81, 115126


--------------------------------------------------------------------------------------------------------




--------------------------------------- Iteration      1(   3)  ---------------------------------------


    POTLOK:  cpu time      1.5128: real time      1.5126
    SETDIJ:  cpu time      0.5294: real time      0.5293
    TRIAL :  cpu time    234.0862: real time    234.0425
    CORREC:  cpu time    236.2389: real time    236.1952
    CHARGE:  cpu time      0.2380: real time      0.2379
    --------------------------------------------
      LOOP:  cpu time    472.6056: real time    472.5181

 eigenvalue-minimisations  :     0
 total energy-change (2. order) :-0.2900767E+01  (-0.5368062E+00)
 number of electron    1049.9998766 magnetization 
 augmentation part      454.9917077 magnetization 

 Free energy of the ion-electron system (eV)
  ---------------------------------------------------
  alpha Z        PSCENC =      5490.26774318
  Ewald energy   TEWEN  =    -87780.02165936
  -Hartree energ DENC   =    -33551.40677715
  -exchange      EXHF   =      3857.08070468
  -V(xc)+E(xc)   XCENC  =      2880.80190056
  PAW double counting   =    120336.66828059  -135597.28046486
  entropy T*S    EENTRO =        -0.00000000
  eigenvalues    EBANDS =     -8771.66949836
  atomic energy  EATOM  =    132173.67027711
  ---------------------------------------------------
  free energy    TOTEN  =      -961.88949362 eV

  energy without entropy =     -961.88949362  energy(sigma->0) =     -961.88949362
  exchange ACFDT corr.  =         0.00000000  see jH, gK, PRB 81, 115126


--------------------------------------------------------------------------------------------------------




--------------------------------------- Iteration      1(   4)  ---------------------------------------


    POTLOK:  cpu time      1.4591: real time      1.4589
    SETDIJ:  cpu time      0.5310: real time      0.5309
    TRIAL :  cpu time    234.2002: real time    234.1576
    CORREC:  cpu time    236.3078: real time    236.2658
    CHARGE:  cpu time      0.2372: real time      0.2371
    --------------------------------------------
      LOOP:  cpu time    472.7356: real time    472.6510

 eigenvalue-minimisations  :     0
 total energy-change (2. order) :-0.5311264E+00  (-0.3631330E+00)
 number of electron    1049.9998766 magnetization 
 augmentation part      455.4840447 magnetization 

 Free energy of the ion-electron system (eV)
  ---------------------------------------------------
  alpha Z        PSCENC =      5490.26774318
  Ewald energy   TEWEN  =    -87780.02165936
  -Hartree energ DENC   =    -33543.67002424
  -exchange      EXHF   =      3858.76358169
  -V(xc)+E(xc)   XCENC  =      2880.95504127
  PAW double counting   =    120323.14207547  -135564.75958750
  entropy T*S    EENTRO =        -0.00000000
  eigenvalues    EBANDS =     -8800.76806760
  atomic energy  EATOM  =    132173.67027711
  ---------------------------------------------------
  free energy    TOTEN  =      -962.42061998 eV

  energy without entropy =     -962.42061998  energy(sigma->0) =     -962.42061998
  exchange ACFDT corr.  =        -0.00000000  see jH, gK, PRB 81, 115126


--------------------------------------------------------------------------------------------------------




--------------------------------------- Iteration      1(   5)  ---------------------------------------


    POTLOK:  cpu time      1.5216: real time      1.5215
    SETDIJ:  cpu time      0.5288: real time      0.5287
    TRIAL :  cpu time    234.1975: real time    234.1676
    CORREC:  cpu time    236.2651: real time    236.2262
    CHARGE:  cpu time      0.2442: real time      0.2441
    --------------------------------------------
      LOOP:  cpu time    472.7575: real time    472.6887

 eigenvalue-minimisations  :     0
 total energy-change (2. order) :-0.3666940E+00  (-0.9521437E-01)
 number of electron    1049.9998767 magnetization 
 augmentation part      455.5709924 magnetization 

 Free energy of the ion-electron system (eV)
  ---------------------------------------------------
  alpha Z        PSCENC =      5490.26774318
  Ewald energy   TEWEN  =    -87780.02165936
  -Hartree energ DENC   =    -33568.12456096
  -exchange      EXHF   =      3860.57965421
  -V(xc)+E(xc)   XCENC  =      2881.94076174
  PAW double counting   =    120378.58774257  -135635.89607377
  entropy T*S    EENTRO =        -0.00000000
  eigenvalues    EBANDS =     -8763.79119874
  atomic energy  EATOM  =    132173.67027711
  ---------------------------------------------------
  free energy    TOTEN  =      -962.78731402 eV

  energy without entropy =     -962.78731402  energy(sigma->0) =     -962.78731402
  exchange ACFDT corr.  =        -0.00000000  see jH, gK, PRB 81, 115126


--------------------------------------------------------------------------------------------------------




--------------------------------------- Iteration      1(   6)  ---------------------------------------


    POTLOK:  cpu time      1.4650: real time      1.4647
    SETDIJ:  cpu time      0.5284: real time      0.5283
    TRIAL :  cpu time    234.1846: real time    234.1489
    CORREC:  cpu time    236.2458: real time    236.2039
    CHARGE:  cpu time      0.2323: real time      0.2322
    --------------------------------------------
      LOOP:  cpu time    472.6582: real time    472.5806

 eigenvalue-minimisations  :     0
 total energy-change (2. order) :-0.9538426E-01  (-0.3931367E-01)
 number of electron    1049.9998768 magnetization 
 augmentation part      455.6599045 magnetization 

 Free energy of the ion-electron system (eV)
  ---------------------------------------------------
  alpha Z        PSCENC =      5490.26774318
  Ewald energy   TEWEN  =    -87780.02165936
  -Hartree energ DENC   =    -33569.60105803
  -exchange      EXHF   =      3861.47739414
  -V(xc)+E(xc)   XCENC  =      2882.21627874
  PAW double counting   =    120430.66405988  -135686.94162693
  entropy T*S    EENTRO =        -0.00000000
  eigenvalues    EBANDS =     -8764.61410700
  atomic energy  EATOM  =    132173.67027711
  ---------------------------------------------------
  free energy    TOTEN  =      -962.88269828 eV

  energy without entropy =     -962.88269828  energy(sigma->0) =     -962.88269828
  exchange ACFDT corr.  =         0.00000000  see jH, gK, PRB 81, 115126


--------------------------------------------------------------------------------------------------------




--------------------------------------- Iteration      1(   7)  ---------------------------------------


    POTLOK:  cpu time      1.4715: real time      1.4713
    SETDIJ:  cpu time      0.5298: real time      0.5297
    TRIAL :  cpu time    234.0450: real time    234.0052
    CORREC:  cpu time    236.3665: real time    236.3267
    CHARGE:  cpu time      0.2373: real time      0.2372
    --------------------------------------------
      LOOP:  cpu time    472.6520: real time    472.5726

 eigenvalue-minimisations  :     0
 total energy-change (2. order) :-0.3933319E-01  (-0.7861265E-02)
 number of electron    1049.9998768 magnetization 
 augmentation part      455.6744773 magnetization 

 Free energy of the ion-electron system (eV)
  ---------------------------------------------------
  alpha Z        PSCENC =      5490.26774318
  Ewald energy   TEWEN  =    -87780.02165936
  -Hartree energ DENC   =    -33574.54847888
  -exchange      EXHF   =      3861.82803798
  -V(xc)+E(xc)   XCENC  =      2882.42498995
  PAW double counting   =    120453.02775196  -135710.69095871
  entropy T*S    EENTRO =        -0.00000000
  eigenvalues    EBANDS =     -8758.87973470
  atomic energy  EATOM  =    132173.67027711
  ---------------------------------------------------
  free energy    TOTEN  =      -962.92203147 eV

  energy without entropy =     -962.92203147  energy(sigma->0) =     -962.92203147
  exchange ACFDT corr.  =         0.00000000  see jH, gK, PRB 81, 115126


--------------------------------------------------------------------------------------------------------




--------------------------------------- Iteration      1(   8)  ---------------------------------------


    POTLOK:  cpu time      1.4887: real time      1.4885
    SETDIJ:  cpu time      0.5309: real time      0.5308
    TRIAL :  cpu time    234.1800: real time    234.1362
    CORREC:  cpu time    236.3192: real time    236.2748
    CHARGE:  cpu time      0.2358: real time      0.2357
    --------------------------------------------
      LOOP:  cpu time    472.7548: real time    472.6666

 eigenvalue-minimisations  :     0
 total energy-change (2. order) :-0.7857853E-02  (-0.3518927E-02)
 number of electron    1049.9998768 magnetization 
 augmentation part      455.6837923 magnetization 

 Free energy of the ion-electron system (eV)
  ---------------------------------------------------
  alpha Z        PSCENC =      5490.26774318
  Ewald energy   TEWEN  =    -87780.02165936
  -Hartree energ DENC   =    -33574.03289587
  -exchange      EXHF   =      3861.78625288
  -V(xc)+E(xc)   XCENC  =      2882.38115009
  PAW double counting   =    120453.11627593  -135711.30209330
  entropy T*S    EENTRO =        -0.00000000
  eigenvalues    EBANDS =     -8758.79493999
  atomic energy  EATOM  =    132173.67027711
  ---------------------------------------------------
  free energy    TOTEN  =      -962.92988932 eV

  energy without entropy =     -962.92988932  energy(sigma->0) =     -962.92988932
  exchange ACFDT corr.  =        -0.00000000  see jH, gK, PRB 81, 115126


--------------------------------------------------------------------------------------------------------




--------------------------------------- Iteration      1(   9)  ---------------------------------------


    POTLOK:  cpu time      1.4659: real time      1.4656
    SETDIJ:  cpu time      0.5288: real time      0.5287
    TRIAL :  cpu time    234.2874: real time    234.2431
    CORREC:  cpu time    236.2822: real time    236.2445
    CHARGE:  cpu time      0.2382: real time      0.2381
    --------------------------------------------
      LOOP:  cpu time    472.8028: real time    472.7258

 eigenvalue-minimisations  :     0
 total energy-change (2. order) :-0.3518005E-02  (-0.1421769E-02)
 number of electron    1049.9998768 magnetization 
 augmentation part      455.6968093 magnetization 

 Free energy of the ion-electron system (eV)
  ---------------------------------------------------
  alpha Z        PSCENC =      5490.26774318
  Ewald energy   TEWEN  =    -87780.02165936
  -Hartree energ DENC   =    -33573.37883932
  -exchange      EXHF   =      3861.80374874
  -V(xc)+E(xc)   XCENC  =      2882.36247409
  PAW double counting   =    120448.34723660  -135706.38853538
  entropy T*S    EENTRO =        -0.00000000
  eigenvalues    EBANDS =     -8759.59585300
  atomic energy  EATOM  =    132173.67027711
  ---------------------------------------------------
  free energy    TOTEN  =      -962.93340733 eV

  energy without entropy =     -962.93340733  energy(sigma->0) =     -962.93340733
  exchange ACFDT corr.  =        -0.00000000  see jH, gK, PRB 81, 115126


--------------------------------------------------------------------------------------------------------




--------------------------------------- Iteration      1(  10)  ---------------------------------------


    POTLOK:  cpu time      1.4400: real time      1.4399
    SETDIJ:  cpu time      0.5299: real time      0.5298
    TRIAL :  cpu time    234.0479: real time    234.0109
    CORREC:  cpu time    236.1272: real time    236.0883
    CHARGE:  cpu time      0.2327: real time      0.2327
    --------------------------------------------
      LOOP:  cpu time    472.3789: real time    472.3031

 eigenvalue-minimisations  :     0
 total energy-change (2. order) :-0.1423240E-02  (-0.6997815E-03)
 number of electron    1049.9998768 magnetization 
 augmentation part      455.7052987 magnetization 

 Free energy of the ion-electron system (eV)
  ---------------------------------------------------
  alpha Z        PSCENC =      5490.26774318
  Ewald energy   TEWEN  =    -87780.02165936
  -Hartree energ DENC   =    -33573.84039329
  -exchange      EXHF   =      3861.89272650
  -V(xc)+E(xc)   XCENC  =      2882.40052898
  PAW double counting   =    120443.39304797  -135701.39741240
  entropy T*S    EENTRO =        -0.00000000
  eigenvalues    EBANDS =     -8759.29968926
  atomic energy  EATOM  =    132173.67027711
  ---------------------------------------------------
  free energy    TOTEN  =      -962.93483057 eV

  energy without entropy =     -962.93483057  energy(sigma->0) =     -962.93483057
  exchange ACFDT corr.  =         0.00000000  see jH, gK, PRB 81, 115126


--------------------------------------------------------------------------------------------------------




--------------------------------------- Iteration      1(  11)  ---------------------------------------


    POTLOK:  cpu time      1.4949: real time      1.4946
    SETDIJ:  cpu time      0.5302: real time      0.5301
    TRIAL :  cpu time    234.1660: real time    234.1280
    CORREC:  cpu time    236.2686: real time    236.2258
    CHARGE:  cpu time      0.2364: real time      0.2364
    --------------------------------------------
      LOOP:  cpu time    472.6967: real time    472.6169

 eigenvalue-minimisations  :     0
 total energy-change (2. order) :-0.7009190E-03  (-0.2858858E-03)
 number of electron    1049.9998768 magnetization 
 augmentation part      455.7093986 magnetization 

 Free energy of the ion-electron system (eV)
  ---------------------------------------------------
  alpha Z        PSCENC =      5490.26774318
  Ewald energy   TEWEN  =    -87780.02165936
  -Hartree energ DENC   =    -33574.24781976
  -exchange      EXHF   =      3861.93518803
  -V(xc)+E(xc)   XCENC  =      2882.42091091
  PAW double counting   =    120439.35473985  -135697.64893640
  entropy T*S    EENTRO =        -0.00000000
  eigenvalues    EBANDS =     -8758.66597504
  atomic energy  EATOM  =    132173.67027711
  ---------------------------------------------------
  free energy    TOTEN  =      -962.93553149 eV

  energy without entropy =     -962.93553149  energy(sigma->0) =     -962.93553149
  exchange ACFDT corr.  =         0.00000000  see jH, gK, PRB 81, 115126


--------------------------------------------------------------------------------------------------------




--------------------------------------- Iteration      1(  12)  ---------------------------------------


    POTLOK:  cpu time      1.4795: real time      1.4792
    SETDIJ:  cpu time      0.5281: real time      0.5280
    TRIAL :  cpu time    234.1771: real time    234.1408
    CORREC:  cpu time    236.1988: real time    236.1626
    CHARGE:  cpu time      0.2349: real time      0.2348
    --------------------------------------------
      LOOP:  cpu time    472.6198: real time    472.5472

 eigenvalue-minimisations  :     0
 total energy-change (2. order) :-0.2860657E-03  (-0.1227291E-03)
 number of electron    1049.9998768 magnetization 
 augmentation part      455.7107197 magnetization 

 Free energy of the ion-electron system (eV)
  ---------------------------------------------------
  alpha Z        PSCENC =      5490.26774318
  Ewald energy   TEWEN  =    -87780.02165936
  -Hartree energ DENC   =    -33574.10017182
  -exchange      EXHF   =      3861.91849991
  -V(xc)+E(xc)   XCENC  =      2882.40956859
  PAW double counting   =    120437.73386547  -135696.21768421
  entropy T*S    EENTRO =        -0.00000000
  eigenvalues    EBANDS =     -8758.59625642
  atomic energy  EATOM  =    132173.67027711
  ---------------------------------------------------
  free energy    TOTEN  =      -962.93581755 eV

  energy without entropy =     -962.93581755  energy(sigma->0) =     -962.93581755
  exchange ACFDT corr.  =         0.00000000  see jH, gK, PRB 81, 115126


--------------------------------------------------------------------------------------------------------




--------------------------------------- Iteration      1(  13)  ---------------------------------------


    POTLOK:  cpu time      1.5058: real time      1.5055
    SETDIJ:  cpu time      0.5288: real time      0.5287
    TRIAL :  cpu time    233.9961: real time    233.9612
    CORREC:  cpu time    236.4194: real time    236.3788
    CHARGE:  cpu time      0.2383: real time      0.2382
    --------------------------------------------
      LOOP:  cpu time    472.6885: real time    472.6130

 eigenvalue-minimisations  :     0
 total energy-change (2. order) :-0.1226063E-03  (-0.5381693E-04)
 number of electron    1049.9998768 magnetization 
 augmentation part      455.7123997 magnetization 

 Free energy of the ion-electron system (eV)
  ---------------------------------------------------
  alpha Z        PSCENC =      5490.26774318
  Ewald energy   TEWEN  =    -87780.02165936
  -Hartree energ DENC   =    -33573.89965056
  -exchange      EXHF   =      3861.90938032
  -V(xc)+E(xc)   XCENC  =      2882.40128391
  PAW double counting   =    120437.40301384  -135695.82365695
  entropy T*S    EENTRO =        -0.00000000
  eigenvalues    EBANDS =     -8758.84267165
  atomic energy  EATOM  =    132173.67027711
  ---------------------------------------------------
  free energy    TOTEN  =      -962.93594016 eV

  energy without entropy =     -962.93594016  energy(sigma->0) =     -962.93594016
  exchange ACFDT corr.  =         0.00000000  see jH, gK, PRB 81, 115126


--------------------------------------------------------------------------------------------------------




--------------------------------------- Iteration      1(  14)  ---------------------------------------


    POTLOK:  cpu time      1.4739: real time      1.4737
    SETDIJ:  cpu time      0.5297: real time      0.5296
    TRIAL :  cpu time    234.1166: real time    234.0727
    CORREC:  cpu time    236.2363: real time    236.1991
    CHARGE:  cpu time      0.2352: real time      0.2352
    --------------------------------------------
      LOOP:  cpu time    472.5919: real time    472.5166

 eigenvalue-minimisations  :     0
 total energy-change (2. order) :-0.5398039E-04  (-0.2812652E-04)
 number of electron    1049.9998768 magnetization 
 augmentation part      455.7141611 magnetization 

 Free energy of the ion-electron system (eV)
  ---------------------------------------------------
  alpha Z        PSCENC =      5490.26774318
  Ewald energy   TEWEN  =    -87780.02165936
  -Hartree energ DENC   =    -33573.96430074
  -exchange      EXHF   =      3861.91622745
  -V(xc)+E(xc)   XCENC  =      2882.40525091
  PAW double counting   =    120437.64987162  -135696.04868213
  entropy T*S    EENTRO =        -0.00000000
  eigenvalues    EBANDS =     -8758.81072217
  atomic energy  EATOM  =    132173.67027711
  ---------------------------------------------------
  free energy    TOTEN  =      -962.93599414 eV

  energy without entropy =     -962.93599414  energy(sigma->0) =     -962.93599414
  exchange ACFDT corr.  =         0.00000000  see jH, gK, PRB 81, 115126


--------------------------------------------------------------------------------------------------------




--------------------------------------- Iteration      1(  15)  ---------------------------------------


    POTLOK:  cpu time      1.5219: real time      1.5219
    SETDIJ:  cpu time      0.5293: real time      0.5292
    TRIAL :  cpu time    234.0675: real time    234.0281
    CORREC:  cpu time    236.3617: real time    236.3219
    CHARGE:  cpu time      0.2428: real time      0.2427
    --------------------------------------------
      LOOP:  cpu time    472.7234: real time    472.6445

 eigenvalue-minimisations  :     0
 total energy-change (2. order) :-0.2818543E-04  (-0.1619661E-04)
 number of electron    1049.9998768 magnetization 
 augmentation part      455.7144800 magnetization 

 Free energy of the ion-electron system (eV)
  ---------------------------------------------------
  alpha Z        PSCENC =      5490.26774318
  Ewald energy   TEWEN  =    -87780.02165936
  -Hartree energ DENC   =    -33574.02522056
  -exchange      EXHF   =      3861.91824091
  -V(xc)+E(xc)   XCENC  =      2882.40754147
  PAW double counting   =    120438.22643299  -135696.67156724
  entropy T*S    EENTRO =        -0.00000000
  eigenvalues    EBANDS =     -8758.70781083
  atomic energy  EATOM  =    132173.67027711
  ---------------------------------------------------
  free energy    TOTEN  =      -962.93602232 eV

  energy without entropy =     -962.93602232  energy(sigma->0) =     -962.93602232
  exchange ACFDT corr.  =         0.00000000  see jH, gK, PRB 81, 115126


--------------------------------------------------------------------------------------------------------




--------------------------------------- Iteration      1(  16)  ---------------------------------------


    POTLOK:  cpu time      1.4456: real time      1.4453
    SETDIJ:  cpu time      0.5286: real time      0.5285
    TRIAL :  cpu time    234.2572: real time    234.2154
    CORREC:  cpu time    236.4295: real time    236.3914
    CHARGE:  cpu time      0.2473: real time      0.2473
    --------------------------------------------
      LOOP:  cpu time    472.9083: real time    472.8283

 eigenvalue-minimisations  :     0
 total energy-change (2. order) :-0.1625803E-04  (-0.1163003E-04)
 number of electron    1049.9998768 magnetization 
 augmentation part      455.7138515 magnetization 

 Free energy of the ion-electron system (eV)
  ---------------------------------------------------
  alpha Z        PSCENC =      5490.26774318
  Ewald energy   TEWEN  =    -87780.02165936
  -Hartree energ DENC   =    -33573.96697091
  -exchange      EXHF   =      3861.91133927
  -V(xc)+E(xc)   XCENC  =      2882.40385911
  PAW double counting   =    120438.82298520  -135697.28929919
  entropy T*S    EENTRO =        -0.00000000
  eigenvalues    EBANDS =     -8758.73431299
  atomic energy  EATOM  =    132173.67027711
  ---------------------------------------------------
  free energy    TOTEN  =      -962.93603858 eV

  energy without entropy =     -962.93603858  energy(sigma->0) =     -962.93603858
  exchange ACFDT corr.  =         0.00000000  see jH, gK, PRB 81, 115126


--------------------------------------------------------------------------------------------------------




--------------------------------------- Iteration      1(  17)  ---------------------------------------


    POTLOK:  cpu time      1.4698: real time      1.4695
    SETDIJ:  cpu time      0.5294: real time      0.5293
    TRIAL :  cpu time    234.2506: real time    234.2084
    CORREC:  cpu time    235.9788: real time    235.9394
    CHARGE:  cpu time      0.2352: real time      0.2352
    --------------------------------------------
      LOOP:  cpu time    472.4641: real time    472.3823

 eigenvalue-minimisations  :     0
 total energy-change (2. order) :-0.1162577E-04  (-0.9861683E-05)
 number of electron    1049.9998768 magnetization 
 augmentation part      455.7135790 magnetization 

 Free energy of the ion-electron system (eV)
  ---------------------------------------------------
  alpha Z        PSCENC =      5490.26774318
  Ewald energy   TEWEN  =    -87780.02165936
  -Hartree energ DENC   =    -33573.87438469
  -exchange      EXHF   =      3861.90486130
  -V(xc)+E(xc)   XCENC  =      2882.39943502
  PAW double counting   =    120439.31590585  -135697.75147089
  entropy T*S    EENTRO =        -0.00000000
  eigenvalues    EBANDS =     -8758.84675773
  atomic energy  EATOM  =    132173.67027711
  ---------------------------------------------------
  free energy    TOTEN  =      -962.93605021 eV

  energy without entropy =     -962.93605021  energy(sigma->0) =     -962.93605021
  exchange ACFDT corr.  =         0.00000000  see jH, gK, PRB 81, 115126


--------------------------------------------------------------------------------------------------------




--------------------------------------- Iteration      1(  18)  ---------------------------------------


    POTLOK:  cpu time      1.5100: real time      1.5098
    SETDIJ:  cpu time      0.5280: real time      0.5279
    TRIAL :  cpu time    233.9858: real time    233.9453
    CORREC:  cpu time    236.1058: real time    236.0616
    EDDIAG:  cpu time    232.0345: real time    231.9905
    CHARGE:  cpu time      0.2847: real time      0.2847
    --------------------------------------------
      LOOP:  cpu time    705.4477: real time    705.3189

 eigenvalue-minimisations  :     0
 total energy-change (2. order) :-0.9671683E-05  (-0.7887179E-05)
 number of electron    1049.9998768 magnetization 
 augmentation part      455.7135610 magnetization 

 Free energy of the ion-electron system (eV)
  ---------------------------------------------------
  alpha Z        PSCENC =      5490.26774318
  Ewald energy   TEWEN  =    -87780.02165936
  -Hartree energ DENC   =    -33573.87669124
  -exchange      EXHF   =      3861.90819079
  -V(xc)+E(xc)   XCENC  =      2882.39953694
  PAW double counting   =    120439.80304932  -135698.22070244
  entropy T*S    EENTRO =        -0.00000000
  eigenvalues    EBANDS =     -8758.87022924
  atomic energy  EATOM  =    132173.67027711
  ---------------------------------------------------
  free energy    TOTEN  =      -962.93605988 eV

  energy without entropy =     -962.93605988  energy(sigma->0) =     -962.93605988
  exchange ACFDT corr.  =         0.00000000  see jH, gK, PRB 81, 115126


--------------------------------------------------------------------------------------------------------


  average scaling for gradient   0.8044


 the core state eigenenergies are
   1-  1s -10216.5086  2s  -1249.7763  2p  -1086.2293  3s   -136.9209  3p    -87.7086
     
   2-  1s -10216.4547  2s  -1249.7258  2p  -1086.1783  3s   -136.8773  3p    -87.6653
     
   3-  1s -10216.5013  2s  -1249.7696  2p  -1086.2226  3s   -136.9133  3p    -87.7009
     
   4-  1s -10216.5095  2s  -1249.7892  2p  -1086.2417  3s   -136.9020  3p    -87.6881
     
   5-  1s -10216.5013  2s  -1249.7696  2p  -1086.2226  3s   -136.9133  3p    -87.7009
     
   6-  1s -10216.5095  2s  -1249.7892  2p  -1086.2417  3s   -136.9020  3p    -87.6881
     
   7-  1s -10216.4985  2s  -1249.7667  2p  -1086.2196  3s   -136.9133  3p    -87.7010
     
   8-  1s -10216.5154  2s  -1249.7829  2p  -1086.2360  3s   -136.9269  3p    -87.7146
     
   9-  1s -10216.5076  2s  -1249.7759  2p  -1086.2289  3s   -136.9212  3p    -87.7089
     
  10-  1s -10216.4968  2s  -1249.7644  2p  -1086.2174  3s   -136.9100  3p    -87.6978
     
  11-  1s -10216.4985  2s  -1249.7667  2p  -1086.2196  3s   -136.9133  3p    -87.7010
     
  12-  1s -10216.5154  2s  -1249.7830  2p  -1086.2360  3s   -136.9269  3p    -87.7146
     
  13-  1s -10216.6407  2s  -1250.0031  2p  -1086.4472  3s   -137.0897  3p    -87.8750
     
  14-  1s -10216.5221  2s  -1249.8928  2p  -1086.3356  3s   -136.9984  3p    -87.7848
     
  15-  1s -10216.5415  2s  -1249.9098  2p  -1086.3529  3s   -137.0121  3p    -87.7983
     
  16-  1s -10216.6407  2s  -1250.0031  2p  -1086.4472  3s   -137.0897  3p    -87.8750
     
  17-  1s -10216.5221  2s  -1249.8928  2p  -1086.3356  3s   -136.9984  3p    -87.7848
     
  18-  1s -10216.5265  2s  -1249.8978  2p  -1086.3405  3s   -137.0039  3p    -87.7903
     
  19-  1s -10216.5175  2s  -1249.8897  2p  -1086.3322  3s   -136.9976  3p    -87.7842
     
  20-  1s -10216.5331  2s  -1249.9036  2p  -1086.3464  3s   -137.0088  3p    -87.7951
     
  21-  1s -10216.5216  2s  -1249.8955  2p  -1086.3378  3s   -137.0038  3p    -87.7904
     
  22-  1s -10216.5331  2s  -1249.9036  2p  -1086.3464  3s   -137.0088  3p    -87.7951
     
  23-  1s -10216.5216  2s  -1249.8955  2p  -1086.3378  3s   -137.0038  3p    -87.7904
     
  24-  1s -10216.5160  2s  -1249.7828  2p  -1086.2360  3s   -136.9266  3p    -87.7142
     
  25-  1s -10216.4836  2s  -1249.7526  2p  -1086.2055  3s   -136.9008  3p    -87.6886
     
  26-  1s -10216.4982  2s  -1249.7670  2p  -1086.2199  3s   -136.9133  3p    -87.7011
     
  27-  1s -10216.4860  2s  -1249.7542  2p  -1086.2071  3s   -136.9002  3p    -87.6880
     
  28-  1s -10216.5160  2s  -1249.7828  2p  -1086.2360  3s   -136.9266  3p    -87.7142
     
  29-  1s -10216.4836  2s  -1249.7526  2p  -1086.2055  3s   -136.9008  3p    -87.6886
     
  30-  1s -10216.4894  2s  -1249.7580  2p  -1086.2109  3s   -136.9051  3p    -87.6929
     
  31-  1s -10216.4857  2s  -1249.7542  2p  -1086.2071  3s   -136.9013  3p    -87.6891
     
  32-  1s -10216.5332  2s  -1249.8016  2p  -1086.2546  3s   -136.9429  3p    -87.7304
     
  33-  1s -10216.4891  2s  -1249.7567  2p  -1086.2097  3s   -136.9016  3p    -87.6893
     
  34-  1s -10216.5332  2s  -1249.8015  2p  -1086.2546  3s   -136.9429  3p    -87.7304
     
  35-  1s -10216.4891  2s  -1249.7567  2p  -1086.2097  3s   -136.9016  3p    -87.6893
     
  36-  1s -10216.5193  2s  -1249.8914  2p  -1086.3340  3s   -136.9982  3p    -87.7847
     
  37-  1s -10216.5308  2s  -1249.9016  2p  -1086.3443  3s   -137.0069  3p    -87.7932
     
  38-  1s -10216.5126  2s  -1249.8849  2p  -1086.3275  3s   -136.9926  3p    -87.7792
     
  39-  1s -10216.5182  2s  -1249.8898  2p  -1086.3324  3s   -136.9961  3p    -87.7825
     
  40-  1s -10216.5126  2s  -1249.8849  2p  -1086.3275  3s   -136.9926  3p    -87.7792
     
  41-  1s -10216.5182  2s  -1249.8898  2p  -1086.3324  3s   -136.9961  3p    -87.7825
     
  42-  1s -10216.5085  2s  -1249.8819  2p  -1086.3243  3s   -136.9908  3p    -87.7774
     
  43-  1s -10216.4733  2s  -1249.8487  2p  -1086.2908  3s   -136.9607  3p    -87.7474
     
  44-  1s -10216.5171  2s  -1249.8870  2p  -1086.3299  3s   -136.9930  3p    -87.7794
     
  45-  1s -10216.4896  2s  -1249.8587  2p  -1086.3017  3s   -136.9639  3p    -87.7502
     
  46-  1s -10216.5085  2s  -1249.8819  2p  -1086.3243  3s   -136.9908  3p    -87.7774
     
  47-  1s -10216.4733  2s  -1249.8487  2p  -1086.2908  3s   -136.9607  3p    -87.7474
     
  48-  1s   -500.4987
  49-  1s   -500.5052
  50-  1s   -500.5047
  51-  1s   -500.5011
  52-  1s   -500.4987
  53-  1s   -500.5052
  54-  1s   -500.5104
  55-  1s   -500.4912
  56-  1s   -500.8434
  57-  1s   -500.4801
  58-  1s   -500.8434
  59-  1s   -500.4801
  60-  1s   -500.6972
  61-  1s   -500.6936
  62-  1s   -500.7862
  63-  1s   -500.6916
  64-  1s   -500.6972
  65-  1s   -500.6936
  66-  1s   -500.6903
  67-  1s   -500.6759
  68-  1s   -500.6837
  69-  1s   -500.7024
  70-  1s   -500.6837
  71-  1s   -500.7024
  72-  1s   -500.2322
  73-  1s   -500.2501
  74-  1s   -500.2413
  75-  1s   -500.2559
  76-  1s   -500.2413
  77-  1s   -500.2559
  78-  1s   -500.2328
  79-  1s   -500.2152
  80-  1s   -500.2677
  81-  1s   -500.2328
  82-  1s   -500.2152
  83-  1s   -500.4997
  84-  1s   -500.4631
  85-  1s   -500.4910
  86-  1s   -500.4372
  87-  1s   -500.4910
  88-  1s   -500.4372
  89-  1s   -500.4905
  90-  1s   -500.5036
  91-  1s   -500.4931
  92-  1s   -500.4946
  93-  1s   -500.4905
  94-  1s   -500.5036
  95-  1s   -500.6925
  96-  1s   -500.6610
  97-  1s   -500.6786
  98-  1s   -500.6608
  99-  1s   -500.6786
 100-  1s   -500.6608
 101-  1s   -500.6914
 102-  1s   -500.6669
 103-  1s   -500.6862
 104-  1s   -500.6443
 105-  1s   -500.6914
 106-  1s   -500.6669
 107-  1s   -500.2719
 108-  1s   -500.2427
 109-  1s   -500.2533
 110-  1s   -500.2232
 111-  1s   -500.2719
 112-  1s   -500.2427
 113-  1s   -500.2655
 114-  1s   -500.2511
 115-  1s   -500.2425
 116-  1s   -500.2398
 117-  1s   -500.2425
 118-  1s   -500.2398
 119-  1s   -371.1205
 120-  1s  -6988.9225  2s   -810.1871  2p   -688.9160  3s    -83.5246  3p    -49.5456
     
 
 E-fermi :   3.3252     XC(G=0):  -8.8548     alpha+bet :-12.5055

 Fermi energy:         3.3251983114

 k-point     1 :       0.0000    0.0000    0.0000
  band No.  band energies     occupation 
      1     -18.6680      2.00000
      2     -18.3943      2.00000
      3     -18.3267      2.00000
      4     -18.2614      2.00000
      5     -18.1314      2.00000
      6     -17.9836      2.00000
      7     -17.9711      2.00000
      8     -17.9039      2.00000
      9     -17.8353      2.00000
     10     -17.8091      2.00000
     11     -17.7961      2.00000
     12     -17.7299      2.00000
     13     -17.7066      2.00000
     14     -17.7032      2.00000
     15     -17.6912      2.00000
     16     -17.6800      2.00000
     17     -17.6761      2.00000
     18     -17.6467      2.00000
     19     -17.5310      2.00000
     20     -17.5280      2.00000
     21     -17.5252      2.00000
     22     -17.5163      2.00000
     23     -17.5114      2.00000
     24     -17.5081      2.00000
     25     -17.4915      2.00000
     26     -17.4305      2.00000
     27     -17.3841      2.00000
     28     -17.3798      2.00000
     29     -17.3670      2.00000
     30     -17.3460      2.00000
     31     -17.3441      2.00000
     32     -17.3320      2.00000
     33     -17.3171      2.00000
     34     -17.3162      2.00000
     35     -17.2941      2.00000
     36     -17.2877      2.00000
     37     -17.2539      2.00000
     38     -17.2216      2.00000
     39     -17.2062      2.00000
     40     -17.1822      2.00000
     41     -17.1793      2.00000
     42     -17.1768      2.00000
     43     -17.1752      2.00000
     44     -17.1596      2.00000
     45     -17.1521      2.00000
     46     -17.1338      2.00000
     47     -17.1252      2.00000
     48     -17.0988      2.00000
     49     -17.0500      2.00000
     50     -17.0455      2.00000
     51     -17.0242      2.00000
     52     -17.0023      2.00000
     53     -16.9967      2.00000
     54     -16.9805      2.00000
     55     -16.9342      2.00000
     56     -16.9339      2.00000
     57     -16.9311      2.00000
     58     -16.9271      2.00000
     59     -16.9253      2.00000
     60     -16.9081      2.00000
     61     -16.9076      2.00000
     62     -16.9019      2.00000
     63     -16.9015      2.00000
     64     -16.8977      2.00000
     65     -16.8899      2.00000
     66     -16.8888      2.00000
     67     -16.8864      2.00000
     68     -16.8720      2.00000
     69     -16.8651      2.00000
     70     -16.8015      2.00000
     71     -16.7738      2.00000
     72     -13.3600      2.00000
     73     -13.0615      2.00000
     74     -13.0530      2.00000
     75     -13.0423      2.00000
     76     -13.0247      2.00000
     77     -13.0225      2.00000
     78     -13.0184      2.00000
     79     -13.0149      2.00000
     80     -13.0121      2.00000
     81     -13.0110      2.00000
     82     -13.0070      2.00000
     83     -13.0057      2.00000
     84     -12.9996      2.00000
     85     -12.9897      2.00000
     86     -12.9812      2.00000
     87     -12.9715      2.00000
     88     -12.9640      2.00000
     89     -12.9620      2.00000
     90     -12.9595      2.00000
     91     -12.9554      2.00000
     92     -12.9495      2.00000
     93     -12.9485      2.00000
     94     -12.9461      2.00000
     95     -12.9435      2.00000
     96     -12.9416      2.00000
     97     -12.9385      2.00000
     98     -12.9381      2.00000
     99     -12.9316      2.00000
    100     -12.9304      2.00000
    101     -12.9284      2.00000
    102     -12.9281      2.00000
    103     -12.9247      2.00000
    104     -12.9230      2.00000
    105     -12.9222      2.00000
    106     -12.9218      2.00000
    107     -12.9192      2.00000
    108     -12.9165      2.00000
    109     -12.9121      2.00000
    110     -12.9118      2.00000
    111     -12.9109      2.00000
    112     -12.9098      2.00000
    113     -12.9085      2.00000
    114     -12.9085      2.00000
    115     -12.9038      2.00000
    116     -12.9015      2.00000
    117     -12.9009      2.00000
    118     -12.8998      2.00000
    119     -12.8967      2.00000
    120     -12.8956      2.00000
    121     -12.8942      2.00000
    122     -12.8927      2.00000
    123     -12.8915      2.00000
    124     -12.8910      2.00000
    125     -12.8883      2.00000
    126     -12.8811      2.00000
    127     -12.8806      2.00000
    128     -12.8713      2.00000
    129     -12.8688      2.00000
    130     -12.8627      2.00000
    131     -12.8625      2.00000
    132     -12.8442      2.00000
    133     -12.8439      2.00000
    134     -12.8402      2.00000
    135     -12.8397      2.00000
    136     -12.8355      2.00000
    137     -12.8317      2.00000
    138     -12.8253      2.00000
    139     -12.8176      2.00000
    140     -12.8163      2.00000
    141     -12.8104      2.00000
    142     -12.8049      2.00000
    143     -12.8010      2.00000
    144     -12.7980      2.00000
    145     -12.7960      2.00000
    146     -12.7958      2.00000
    147     -12.7937      2.00000
    148     -12.7921      2.00000
    149     -12.7913      2.00000
    150     -12.7912      2.00000
    151     -12.7824      2.00000
    152     -12.7815      2.00000
    153     -12.7767      2.00000
    154     -12.7757      2.00000
    155     -12.7749      2.00000
    156     -12.7745      2.00000
    157     -12.7736      2.00000
    158     -12.7724      2.00000
    159     -12.7721      2.00000
    160     -12.7701      2.00000
    161     -12.7699      2.00000
    162     -12.7682      2.00000
    163     -12.7675      2.00000
    164     -12.7631      2.00000
    165     -12.7597      2.00000
    166     -12.7592      2.00000
    167     -12.7579      2.00000
    168     -12.7568      2.00000
    169     -12.7547      2.00000
    170     -12.7545      2.00000
    171     -12.7528      2.00000
    172     -12.7486      2.00000
    173     -12.7470      2.00000
    174     -12.7429      2.00000
    175     -12.7425      2.00000
    176     -12.7411      2.00000
    177     -12.7390      2.00000
    178     -12.7381      2.00000
    179     -12.7351      2.00000
    180     -12.7346      2.00000
    181     -12.7252      2.00000
    182     -12.7250      2.00000
    183     -12.7184      2.00000
    184     -12.7162      2.00000
    185     -12.7080      2.00000
    186     -12.7063      2.00000
    187     -12.7054      2.00000
    188     -12.7028      2.00000
    189     -12.6989      2.00000
    190     -12.6954      2.00000
    191     -12.6945      2.00000
    192     -12.6837      2.00000
    193     -12.6766      2.00000
    194     -12.6756      2.00000
    195     -12.6650      2.00000
    196     -12.6630      2.00000
    197     -12.6623      2.00000
    198     -12.6600      2.00000
    199     -12.6594      2.00000
    200     -12.6579      2.00000
    201     -12.6571      2.00000
    202     -12.6553      2.00000
    203     -12.6517      2.00000
    204     -12.6498      2.00000
    205     -12.6476      2.00000
    206     -12.6465      2.00000
    207     -12.6438      2.00000
    208     -12.6429      2.00000
    209     -12.6400      2.00000
    210     -12.6372      2.00000
    211     -12.6341      2.00000
    212     -12.6332      2.00000
    213     -12.6313      2.00000
    214     -12.6301      2.00000
    215     -12.6260      2.00000
    216     -12.6241      2.00000
    217     -12.6189      2.00000
    218     -12.6179      2.00000
    219     -12.6157      2.00000
    220     -12.6122      2.00000
    221     -12.6099      2.00000
    222     -12.6098      2.00000
    223     -12.6057      2.00000
    224     -12.6052      2.00000
    225     -12.6043      2.00000
    226     -12.6020      2.00000
    227     -12.5999      2.00000
    228     -12.5991      2.00000
    229     -12.5985      2.00000
    230     -12.5949      2.00000
    231     -12.5941      2.00000
    232     -12.5937      2.00000
    233     -12.5908      2.00000
    234     -12.5897      2.00000
    235     -12.5891      2.00000
    236     -12.5876      2.00000
    237     -12.5833      2.00000
    238     -12.5829      2.00000
    239     -12.5794      2.00000
    240     -12.5774      2.00000
    241     -12.5772      2.00000
    242     -12.5752      2.00000
    243     -12.5690      2.00000
    244     -12.5614      2.00000
    245     -12.5577      2.00000
    246     -12.5563      2.00000
    247     -12.5503      2.00000
    248     -12.5475      2.00000
    249     -12.5463      2.00000
    250     -12.5427      2.00000
    251     -12.5421      2.00000
    252     -12.5402      2.00000
    253     -12.5356      2.00000
    254     -12.5326      2.00000
    255     -12.5308      2.00000
    256     -12.5298      2.00000
    257     -12.5261      2.00000
    258     -12.5248      2.00000
    259     -12.5166      2.00000
    260     -12.5147      2.00000
    261     -12.4919      2.00000
    262     -12.4707      2.00000
    263     -12.4615      2.00000
    264     -12.4489      2.00000
    265     -12.4174      2.00000
    266     -12.4123      2.00000
    267     -12.3924      2.00000
    268     -12.3907      2.00000
    269     -12.3830      2.00000
    270     -12.3510      2.00000
    271     -12.3153      2.00000
    272     -12.3137      2.00000
    273     -12.2742      2.00000
    274     -12.2643      2.00000
    275     -12.2542      2.00000
    276     -12.2396      2.00000
    277     -12.2262      2.00000
    278     -12.2187      2.00000
    279     -12.2039      2.00000
    280     -12.1943      2.00000
    281     -12.1630      2.00000
    282     -12.1611      2.00000
    283     -12.1457      2.00000
    284     -12.1230      2.00000
    285     -12.1107      2.00000
    286     -11.9807      2.00000
    287     -11.9648      2.00000
    288     -11.9563      2.00000
    289     -11.9308      2.00000
    290     -11.9270      2.00000
    291     -11.9215      2.00000
    292     -11.9051      2.00000
    293     -11.9044      2.00000
    294     -11.8950      2.00000
    295     -11.8888      2.00000
    296     -11.8880      2.00000
    297     -11.8677      2.00000
    298     -11.8324      2.00000
    299     -11.8238      2.00000
    300     -11.8205      2.00000
    301     -11.8104      2.00000
    302     -11.8042      2.00000
    303     -11.7452      2.00000
    304     -11.7431      2.00000
    305     -11.7223      2.00000
    306     -11.5954      2.00000
    307     -10.9645      2.00000
    308      -5.1597      2.00000
    309      -5.1106      2.00000
    310      -4.8538      2.00000
    311      -4.8103      2.00000
    312      -4.5400      2.00000
    313      -4.4985      2.00000
    314      -4.4393      2.00000
    315      -4.4315      2.00000
    316      -4.4179      2.00000
    317      -4.3757      2.00000
    318      -4.3204      2.00000
    319      -4.2462      2.00000
    320      -4.2394      2.00000
    321      -4.2196      2.00000
    322      -4.2180      2.00000
    323      -4.2130      2.00000
    324      -4.1935      2.00000
    325      -4.0934      2.00000
    326      -4.0313      2.00000
    327      -3.9550      2.00000
    328      -3.9002      2.00000
    329      -3.8837      2.00000
    330      -3.7531      2.00000
    331      -3.7424      2.00000
    332      -3.7316      2.00000
    333      -3.7007      2.00000
    334      -3.6871      2.00000
    335      -3.6064      2.00000
    336      -3.5694      2.00000
    337      -3.5463      2.00000
    338      -3.5439      2.00000
    339      -3.5032      2.00000
    340      -3.4961      2.00000
    341      -3.3143      2.00000
    342      -3.2301      2.00000
    343      -3.1948      2.00000
    344      -3.1849      2.00000
    345      -3.1717      2.00000
    346      -3.1686      2.00000
    347      -3.1501      2.00000
    348      -3.1498      2.00000
    349      -3.0050      2.00000
    350      -2.8574      2.00000
    351      -2.7632      2.00000
    352      -2.7481      2.00000
    353      -2.7239      2.00000
    354      -2.5412      2.00000
    355      -2.5323      2.00000
    356      -2.5096      2.00000
    357      -2.4769      2.00000
    358      -2.4466      2.00000
    359      -2.3999      2.00000
    360      -2.3703      2.00000
    361      -2.3644      2.00000
    362      -2.3433      2.00000
    363      -2.3077      2.00000
    364      -2.2984      2.00000
    365      -2.2715      2.00000
    366      -2.1833      2.00000
    367      -2.1032      2.00000
    368      -2.0884      2.00000
    369      -2.0543      2.00000
    370      -1.9820      2.00000
    371      -1.9484      2.00000
    372      -1.8963      2.00000
    373      -1.8591      2.00000
    374      -1.8575      2.00000
    375      -1.8092      2.00000
    376      -1.7416      2.00000
    377      -1.6955      2.00000
    378      -1.6589      2.00000
    379      -1.6513      2.00000
    380      -1.6287      2.00000
    381      -1.6054      2.00000
    382      -1.6016      2.00000
    383      -1.5296      2.00000
    384      -1.5163      2.00000
    385      -1.4682      2.00000
    386      -1.3973      2.00000
    387      -1.3437      2.00000
    388      -1.2773      2.00000
    389      -1.2611      2.00000
    390      -1.1950      2.00000
    391      -1.1537      2.00000
    392      -1.1255      2.00000
    393      -1.0914      2.00000
    394      -1.0755      2.00000
    395      -1.0672      2.00000
    396      -0.9983      2.00000
    397      -0.9622      2.00000
    398      -0.9312      2.00000
    399      -0.9279      2.00000
    400      -0.8980      2.00000
    401      -0.8772      2.00000
    402      -0.8337      2.00000
    403      -0.7522      2.00000
    404      -0.6902      2.00000
    405      -0.6376      2.00000
    406      -0.6106      2.00000
    407      -0.6060      2.00000
    408      -0.5995      2.00000
    409      -0.5941      2.00000
    410      -0.5612      2.00000
    411      -0.5308      2.00000
    412      -0.5233      2.00000
    413      -0.5004      2.00000
    414      -0.4392      2.00000
    415      -0.4116      2.00000
    416      -0.3770      2.00000
    417      -0.3533      2.00000
    418      -0.3145      2.00000
    419      -0.2800      2.00000
    420      -0.2539      2.00000
    421      -0.2470      2.00000
    422      -0.2390      2.00000
    423      -0.2309      2.00000
    424      -0.2250      2.00000
    425      -0.2042      2.00000
    426      -0.2020      2.00000
    427      -0.1790      2.00000
    428      -0.1703      2.00000
    429      -0.1119      2.00000
    430      -0.1023      2.00000
    431      -0.0899      2.00000
    432      -0.0610      2.00000
    433      -0.0251      2.00000
    434      -0.0239      2.00000
    435      -0.0009      2.00000
    436       0.0464      2.00000
    437       0.0721      2.00000
    438       0.0790      2.00000
    439       0.1277      2.00000
    440       0.1394      2.00000
    441       0.1626      2.00000
    442       0.2058      2.00000
    443       0.2370      2.00000
    444       0.2664      2.00000
    445       0.3403      2.00000
    446       0.3857      2.00000
    447       0.4133      2.00000
    448       0.4279      2.00000
    449       0.5145      2.00000
    450       0.5407      2.00000
    451       0.5796      2.00000
    452       0.5851      2.00000
    453       0.5932      2.00000
    454       0.5934      2.00000
    455       0.6322      2.00000
    456       0.6427      2.00000
    457       0.6787      2.00000
    458       0.6814      2.00000
    459       0.7114      2.00000
    460       0.7361      2.00000
    461       0.7877      2.00000
    462       0.8080      2.00000
    463       0.8300      2.00000
    464       0.8341      2.00000
    465       0.8403      2.00000
    466       0.8693      2.00000
    467       0.8969      2.00000
    468       0.8971      2.00000
    469       0.9056      2.00000
    470       0.9084      2.00000
    471       0.9373      2.00000
    472       0.9462      2.00000
    473       0.9483      2.00000
    474       1.0000      2.00000
    475       1.0541      2.00000
    476       1.0706      2.00000
    477       1.1220      2.00000
    478       1.1341      2.00000
    479       1.1693      2.00000
    480       1.1927      2.00000
    481       1.2103      2.00000
    482       1.2161      2.00000
    483       1.2279      2.00000
    484       1.2319      2.00000
    485       1.2577      2.00000
    486       1.2697      2.00000
    487       1.3136      2.00000
    488       1.3186      2.00000
    489       1.3334      2.00000
    490       1.3402      2.00000
    491       1.3519      2.00000
    492       1.3748      2.00000
    493       1.3865      2.00000
    494       1.4181      2.00000
    495       1.4246      2.00000
    496       1.4335      2.00000
    497       1.4775      2.00000
    498       1.4827      2.00000
    499       1.4992      2.00000
    500       1.5215      2.00000
    501       1.5301      2.00000
    502       1.5506      2.00000
    503       1.5601      2.00000
    504       1.5637      2.00000
    505       1.5660      2.00000
    506       1.5905      2.00000
    507       1.6018      2.00000
    508       1.6320      2.00000
    509       1.6336      2.00000
    510       1.6741      2.00000
    511       1.6918      2.00000
    512       1.7130      2.00000
    513       1.7259      2.00000
    514       1.7309      2.00000
    515       1.7846      2.00000
    516       1.8023      2.00000
    517       1.8453      2.00000
    518       1.8847      2.00000
    519       1.9137      2.00000
    520       1.9294      2.00000
    521       1.9687      2.00000
    522       2.0288      2.00000
    523       2.0551      2.00000
    524       2.9198      2.00000
    525       3.0134      2.00000
    526       6.7544      0.00000
    527       6.7979      0.00000
    528       7.0200      0.00000
    529       7.3360      0.00000
    530       9.0431      0.00000
    531       9.2647      0.00000
    532       9.2733      0.00000
    533       9.3849      0.00000
    534       9.7405      0.00000
    535       9.8444      0.00000
    536      10.2586      0.00000
    537      10.2773      0.00000
    538      10.2965      0.00000
    539      10.3162      0.00000
    540      10.4077      0.00000
    541      10.4857      0.00000
    542      10.5755      0.00000
    543      10.6764      0.00000
    544      10.7892      0.00000
    545      10.7895      0.00000
    546      10.8411      0.00000
    547      10.8494      0.00000
    548      10.9024      0.00000
    549      10.9062      0.00000
    550      10.9516      0.00000
    551      11.0064      0.00000
    552      11.0723      0.00000
    553      11.1585      0.00000
    554      11.2272      0.00000
    555      11.2660      0.00000
    556      11.3656      0.00000
    557      11.3967      0.00000
    558      11.4488      0.00000
    559      11.4788      0.00000
    560      11.5705      0.00000
    561      11.5819      0.00000
    562      11.6202      0.00000
    563      11.7132      0.00000
    564      11.8931      0.00000
    565      12.0202      0.00000
    566      12.0493      0.00000
    567      12.0811      0.00000
    568      12.1088      0.00000
    569      12.1938      0.00000
    570      12.2115      0.00000
    571      12.2963      0.00000
    572      12.3287      0.00000
    573      12.3599      0.00000
    574      12.4210      0.00000
    575      12.4274      0.00000
    576      12.4847      0.00000
    577      12.5753      0.00000
    578      12.6481      0.00000
    579      12.9913      0.00000
    580      13.0913      0.00000
    581      13.1512      0.00000
    582      13.1615      0.00000
    583      13.3029      0.00000
    584      13.3032      0.00000
    585      13.3284      0.00000
    586      13.4163      0.00000
    587      13.4293      0.00000
    588      13.5612      0.00000
    589      13.5902      0.00000
    590      13.6805      0.00000
    591      13.6944      0.00000
    592      13.7290      0.00000
    593      13.7669      0.00000
    594      13.8165      0.00000
    595      13.8823      0.00000
    596      13.9321      0.00000
    597      13.9410      0.00000
    598      13.9432      0.00000
    599      14.0356      0.00000
    600      14.0794      0.00000
    601      14.1213      0.00000
    602      14.1403      0.00000
    603      14.1638      0.00000
    604      14.2495      0.00000
    605      14.2993      0.00000
    606      14.3119      0.00000
    607      14.3364      0.00000
    608      14.3804      0.00000
    609      14.4459      0.00000
    610      14.5005      0.00000
    611      14.5619      0.00000
    612      14.6134      0.00000
    613      14.6791      0.00000
    614      14.7553      0.00000
    615      14.7693      0.00000
    616      14.7800      0.00000
    617      14.7853      0.00000
    618      14.8483      0.00000
    619      14.9583      0.00000
    620      15.0278      0.00000
    621      15.0315      0.00000
    622      15.1879      0.00000
    623      15.2126      0.00000
    624      15.2841      0.00000
    625      15.2928      0.00000
    626      15.5456      0.00000
    627      15.6308      0.00000
    628      15.7345      0.00000
    629      15.7522      0.00000
    630      15.8298      0.00000

 k-point     2 :       0.5000    0.0000    0.0000
  band No.  band energies     occupation 
      1     -18.5712      2.00000
      2     -18.5388      2.00000
      3     -18.3469      2.00000
      4     -18.3304      2.00000
      5     -17.9166      2.00000
      6     -17.9122      2.00000
      7     -17.8965      2.00000
      8     -17.8846      2.00000
      9     -17.8616      2.00000
     10     -17.8425      2.00000
     11     -17.8042      2.00000
     12     -17.7899      2.00000
     13     -17.7709      2.00000
     14     -17.7589      2.00000
     15     -17.7556      2.00000
     16     -17.7377      2.00000
     17     -17.6270      2.00000
     18     -17.6044      2.00000
     19     -17.5234      2.00000
     20     -17.5129      2.00000
     21     -17.5106      2.00000
     22     -17.5009      2.00000
     23     -17.4996      2.00000
     24     -17.4879      2.00000
     25     -17.4765      2.00000
     26     -17.4607      2.00000
     27     -17.4342      2.00000
     28     -17.4335      2.00000
     29     -17.3621      2.00000
     30     -17.3467      2.00000
     31     -17.3397      2.00000
     32     -17.3376      2.00000
     33     -17.3091      2.00000
     34     -17.3086      2.00000
     35     -17.2766      2.00000
     36     -17.2593      2.00000
     37     -17.2350      2.00000
     38     -17.2252      2.00000
     39     -17.2226      2.00000
     40     -17.2135      2.00000
     41     -17.1677      2.00000
     42     -17.1672      2.00000
     43     -17.1619      2.00000
     44     -17.1512      2.00000
     45     -17.1445      2.00000
     46     -17.1354      2.00000
     47     -17.1127      2.00000
     48     -17.0972      2.00000
     49     -17.0580      2.00000
     50     -17.0324      2.00000
     51     -17.0238      2.00000
     52     -17.0210      2.00000
     53     -17.0006      2.00000
     54     -16.9902      2.00000
     55     -16.9342      2.00000
     56     -16.9337      2.00000
     57     -16.9320      2.00000
     58     -16.9260      2.00000
     59     -16.9238      2.00000
     60     -16.9054      2.00000
     61     -16.9051      2.00000
     62     -16.9044      2.00000
     63     -16.9025      2.00000
     64     -16.8988      2.00000
     65     -16.8926      2.00000
     66     -16.8908      2.00000
     67     -16.8848      2.00000
     68     -16.8711      2.00000
     69     -16.8646      2.00000
     70     -16.7954      2.00000
     71     -16.7793      2.00000
     72     -13.3601      2.00000
     73     -13.0635      2.00000
     74     -13.0508      2.00000
     75     -13.0252      2.00000
     76     -13.0218      2.00000
     77     -13.0189      2.00000
     78     -13.0170      2.00000
     79     -13.0152      2.00000
     80     -13.0140      2.00000
     81     -13.0134      2.00000
     82     -13.0072      2.00000
     83     -13.0059      2.00000
     84     -13.0057      2.00000
     85     -12.9970      2.00000
     86     -12.9815      2.00000
     87     -12.9751      2.00000
     88     -12.9616      2.00000
     89     -12.9603      2.00000
     90     -12.9574      2.00000
     91     -12.9560      2.00000
     92     -12.9543      2.00000
     93     -12.9506      2.00000
     94     -12.9456      2.00000
     95     -12.9449      2.00000
     96     -12.9406      2.00000
     97     -12.9403      2.00000
     98     -12.9380      2.00000
     99     -12.9357      2.00000
    100     -12.9322      2.00000
    101     -12.9313      2.00000
    102     -12.9265      2.00000
    103     -12.9252      2.00000
    104     -12.9216      2.00000
    105     -12.9188      2.00000
    106     -12.9179      2.00000
    107     -12.9162      2.00000
    108     -12.9126      2.00000
    109     -12.9092      2.00000
    110     -12.9085      2.00000
    111     -12.9073      2.00000
    112     -12.9059      2.00000
    113     -12.9054      2.00000
    114     -12.9047      2.00000
    115     -12.9041      2.00000
    116     -12.8999      2.00000
    117     -12.8994      2.00000
    118     -12.8986      2.00000
    119     -12.8981      2.00000
    120     -12.8960      2.00000
    121     -12.8946      2.00000
    122     -12.8921      2.00000
    123     -12.8909      2.00000
    124     -12.8847      2.00000
    125     -12.8825      2.00000
    126     -12.8806      2.00000
    127     -12.8802      2.00000
    128     -12.8708      2.00000
    129     -12.8701      2.00000
    130     -12.8697      2.00000
    131     -12.8670      2.00000
    132     -12.8450      2.00000
    133     -12.8422      2.00000
    134     -12.8419      2.00000
    135     -12.8403      2.00000
    136     -12.8367      2.00000
    137     -12.8321      2.00000
    138     -12.8224      2.00000
    139     -12.8188      2.00000
    140     -12.8140      2.00000
    141     -12.8066      2.00000
    142     -12.8042      2.00000
    143     -12.7988      2.00000
    144     -12.7983      2.00000
    145     -12.7965      2.00000
    146     -12.7959      2.00000
    147     -12.7946      2.00000
    148     -12.7930      2.00000
    149     -12.7906      2.00000
    150     -12.7893      2.00000
    151     -12.7846      2.00000
    152     -12.7832      2.00000
    153     -12.7806      2.00000
    154     -12.7772      2.00000
    155     -12.7768      2.00000
    156     -12.7752      2.00000
    157     -12.7750      2.00000
    158     -12.7734      2.00000
    159     -12.7730      2.00000
    160     -12.7698      2.00000
    161     -12.7651      2.00000
    162     -12.7649      2.00000
    163     -12.7638      2.00000
    164     -12.7637      2.00000
    165     -12.7619      2.00000
    166     -12.7607      2.00000
    167     -12.7586      2.00000
    168     -12.7562      2.00000
    169     -12.7524      2.00000
    170     -12.7512      2.00000
    171     -12.7489      2.00000
    172     -12.7465      2.00000
    173     -12.7448      2.00000
    174     -12.7412      2.00000
    175     -12.7401      2.00000
    176     -12.7393      2.00000
    177     -12.7356      2.00000
    178     -12.7263      2.00000
    179     -12.7251      2.00000
    180     -12.7221      2.00000
    181     -12.7182      2.00000
    182     -12.7178      2.00000
    183     -12.7169      2.00000
    184     -12.7148      2.00000
    185     -12.7106      2.00000
    186     -12.7094      2.00000
    187     -12.7077      2.00000
    188     -12.7062      2.00000
    189     -12.7059      2.00000
    190     -12.7038      2.00000
    191     -12.7035      2.00000
    192     -12.6984      2.00000
    193     -12.6837      2.00000
    194     -12.6766      2.00000
    195     -12.6661      2.00000
    196     -12.6637      2.00000
    197     -12.6630      2.00000
    198     -12.6623      2.00000
    199     -12.6592      2.00000
    200     -12.6588      2.00000
    201     -12.6572      2.00000
    202     -12.6554      2.00000
    203     -12.6552      2.00000
    204     -12.6538      2.00000
    205     -12.6476      2.00000
    206     -12.6413      2.00000
    207     -12.6406      2.00000
    208     -12.6404      2.00000
    209     -12.6373      2.00000
    210     -12.6322      2.00000
    211     -12.6311      2.00000
    212     -12.6290      2.00000
    213     -12.6288      2.00000
    214     -12.6262      2.00000
    215     -12.6237      2.00000
    216     -12.6237      2.00000
    217     -12.6201      2.00000
    218     -12.6198      2.00000
    219     -12.6182      2.00000
    220     -12.6166      2.00000
    221     -12.6140      2.00000
    222     -12.6120      2.00000
    223     -12.6099      2.00000
    224     -12.6063      2.00000
    225     -12.6061      2.00000
    226     -12.6020      2.00000
    227     -12.6013      2.00000
    228     -12.6009      2.00000
    229     -12.5978      2.00000
    230     -12.5972      2.00000
    231     -12.5956      2.00000
    232     -12.5919      2.00000
    233     -12.5907      2.00000
    234     -12.5897      2.00000
    235     -12.5893      2.00000
    236     -12.5867      2.00000
    237     -12.5845      2.00000
    238     -12.5830      2.00000
    239     -12.5793      2.00000
    240     -12.5773      2.00000
    241     -12.5759      2.00000
    242     -12.5730      2.00000
    243     -12.5721      2.00000
    244     -12.5680      2.00000
    245     -12.5586      2.00000
    246     -12.5557      2.00000
    247     -12.5470      2.00000
    248     -12.5467      2.00000
    249     -12.5455      2.00000
    250     -12.5410      2.00000
    251     -12.5408      2.00000
    252     -12.5375      2.00000
    253     -12.5365      2.00000
    254     -12.5326      2.00000
    255     -12.5313      2.00000
    256     -12.5264      2.00000
    257     -12.5181      2.00000
    258     -12.5121      2.00000
    259     -12.5102      2.00000
    260     -12.5071      2.00000
    261     -12.5009      2.00000
    262     -12.5008      2.00000
    263     -12.4870      2.00000
    264     -12.4440      2.00000
    265     -12.4409      2.00000
    266     -12.4292      2.00000
    267     -12.4214      2.00000
    268     -12.4189      2.00000
    269     -12.4175      2.00000
    270     -12.4089      2.00000
    271     -12.4005      2.00000
    272     -12.3801      2.00000
    273     -12.3687      2.00000
    274     -12.2646      2.00000
    275     -12.2223      2.00000
    276     -12.1852      2.00000
    277     -12.1805      2.00000
    278     -12.1737      2.00000
    279     -12.1511      2.00000
    280     -12.1470      2.00000
    281     -12.1298      2.00000
    282     -12.1188      2.00000
    283     -12.0770      2.00000
    284     -12.0444      2.00000
    285     -12.0438      2.00000
    286     -12.0103      2.00000
    287     -11.9932      2.00000
    288     -11.9514      2.00000
    289     -11.9362      2.00000
    290     -11.9340      2.00000
    291     -11.9300      2.00000
    292     -11.9247      2.00000
    293     -11.9016      2.00000
    294     -11.9003      2.00000
    295     -11.8864      2.00000
    296     -11.8291      2.00000
    297     -11.8161      2.00000
    298     -11.8077      2.00000
    299     -11.8040      2.00000
    300     -11.7940      2.00000
    301     -11.7891      2.00000
    302     -11.7848      2.00000
    303     -11.7803      2.00000
    304     -11.7734      2.00000
    305     -11.7688      2.00000
    306     -11.7638      2.00000
    307     -10.9665      2.00000
    308      -5.1511      2.00000
    309      -5.1018      2.00000
    310      -4.7099      2.00000
    311      -4.7076      2.00000
    312      -4.6962      2.00000
    313      -4.6165      2.00000
    314      -4.3568      2.00000
    315      -4.3330      2.00000
    316      -4.3149      2.00000
    317      -4.2909      2.00000
    318      -4.2375      2.00000
    319      -4.2310      2.00000
    320      -4.2231      2.00000
    321      -4.2218      2.00000
    322      -4.2022      2.00000
    323      -4.1648      2.00000
    324      -4.1286      2.00000
    325      -4.1249      2.00000
    326      -4.1155      2.00000
    327      -4.1111      2.00000
    328      -4.1047      2.00000
    329      -4.0378      2.00000
    330      -4.0293      2.00000
    331      -4.0273      2.00000
    332      -4.0113      2.00000
    333      -3.8008      2.00000
    334      -3.6436      2.00000
    335      -3.6212      2.00000
    336      -3.4319      2.00000
    337      -3.4204      2.00000
    338      -3.3968      2.00000
    339      -3.3129      2.00000
    340      -3.2442      2.00000
    341      -3.2345      2.00000
    342      -3.2115      2.00000
    343      -3.1997      2.00000
    344      -3.1338      2.00000
    345      -3.1067      2.00000
    346      -3.0811      2.00000
    347      -3.0726      2.00000
    348      -3.0726      2.00000
    349      -3.0331      2.00000
    350      -2.9973      2.00000
    351      -2.8316      2.00000
    352      -2.6905      2.00000
    353      -2.6901      2.00000
    354      -2.6466      2.00000
    355      -2.6106      2.00000
    356      -2.5895      2.00000
    357      -2.5203      2.00000
    358      -2.5134      2.00000
    359      -2.4934      2.00000
    360      -2.4898      2.00000
    361      -2.3035      2.00000
    362      -2.2907      2.00000
    363      -2.2602      2.00000
    364      -2.2251      2.00000
    365      -2.2144      2.00000
    366      -2.1488      2.00000
    367      -2.1009      2.00000
    368      -2.0817      2.00000
    369      -2.0107      2.00000
    370      -1.9636      2.00000
    371      -1.8992      2.00000
    372      -1.8736      2.00000
    373      -1.8283      2.00000
    374      -1.7825      2.00000
    375      -1.7782      2.00000
    376      -1.7633      2.00000
    377      -1.6687      2.00000
    378      -1.6527      2.00000
    379      -1.6439      2.00000
    380      -1.5352      2.00000
    381      -1.4554      2.00000
    382      -1.4417      2.00000
    383      -1.4251      2.00000
    384      -1.4127      2.00000
    385      -1.4052      2.00000
    386      -1.3872      2.00000
    387      -1.3774      2.00000
    388      -1.3004      2.00000
    389      -1.2294      2.00000
    390      -1.2022      2.00000
    391      -1.1901      2.00000
    392      -1.1606      2.00000
    393      -1.1461      2.00000
    394      -1.0984      2.00000
    395      -1.0717      2.00000
    396      -1.0337      2.00000
    397      -0.9724      2.00000
    398      -0.9512      2.00000
    399      -0.9491      2.00000
    400      -0.9024      2.00000
    401      -0.8813      2.00000
    402      -0.8798      2.00000
    403      -0.8417      2.00000
    404      -0.8089      2.00000
    405      -0.7821      2.00000
    406      -0.7699      2.00000
    407      -0.7190      2.00000
    408      -0.7150      2.00000
    409      -0.6728      2.00000
    410      -0.6605      2.00000
    411      -0.6531      2.00000
    412      -0.6441      2.00000
    413      -0.5885      2.00000
    414      -0.5528      2.00000
    415      -0.5436      2.00000
    416      -0.5394      2.00000
    417      -0.5180      2.00000
    418      -0.3743      2.00000
    419      -0.3546      2.00000
    420      -0.2523      2.00000
    421      -0.2187      2.00000
    422      -0.2104      2.00000
    423      -0.2053      2.00000
    424      -0.1963      2.00000
    425      -0.1786      2.00000
    426      -0.1737      2.00000
    427      -0.1676      2.00000
    428      -0.0929      2.00000
    429      -0.0570      2.00000
    430      -0.0258      2.00000
    431       0.0204      2.00000
    432       0.0291      2.00000
    433       0.0424      2.00000
    434       0.0653      2.00000
    435       0.0736      2.00000
    436       0.0957      2.00000
    437       0.1168      2.00000
    438       0.1170      2.00000
    439       0.1204      2.00000
    440       0.1379      2.00000
    441       0.1528      2.00000
    442       0.1895      2.00000
    443       0.2347      2.00000
    444       0.2441      2.00000
    445       0.2729      2.00000
    446       0.2979      2.00000
    447       0.3437      2.00000
    448       0.4143      2.00000
    449       0.5600      2.00000
    450       0.5665      2.00000
    451       0.6297      2.00000
    452       0.6336      2.00000
    453       0.6543      2.00000
    454       0.6601      2.00000
    455       0.6672      2.00000
    456       0.7090      2.00000
    457       0.7247      2.00000
    458       0.7424      2.00000
    459       0.7752      2.00000
    460       0.8034      2.00000
    461       0.8145      2.00000
    462       0.8318      2.00000
    463       0.8661      2.00000
    464       0.8690      2.00000
    465       0.8889      2.00000
    466       0.9257      2.00000
    467       0.9530      2.00000
    468       0.9959      2.00000
    469       1.0198      2.00000
    470       1.0231      2.00000
    471       1.0528      2.00000
    472       1.0562      2.00000
    473       1.0758      2.00000
    474       1.0870      2.00000
    475       1.0939      2.00000
    476       1.1031      2.00000
    477       1.1401      2.00000
    478       1.1734      2.00000
    479       1.1771      2.00000
    480       1.2005      2.00000
    481       1.2106      2.00000
    482       1.2294      2.00000
    483       1.2318      2.00000
    484       1.2371      2.00000
    485       1.2521      2.00000
    486       1.2837      2.00000
    487       1.3001      2.00000
    488       1.3221      2.00000
    489       1.3433      2.00000
    490       1.3435      2.00000
    491       1.3509      2.00000
    492       1.3602      2.00000
    493       1.3644      2.00000
    494       1.3700      2.00000
    495       1.3954      2.00000
    496       1.3994      2.00000
    497       1.4279      2.00000
    498       1.4305      2.00000
    499       1.4661      2.00000
    500       1.4671      2.00000
    501       1.4697      2.00000
    502       1.4805      2.00000
    503       1.4920      2.00000
    504       1.5031      2.00000
    505       1.5071      2.00000
    506       1.5271      2.00000
    507       1.5342      2.00000
    508       1.5385      2.00000
    509       1.5657      2.00000
    510       1.6165      2.00000
    511       1.6304      2.00000
    512       1.6697      2.00000
    513       1.6771      2.00000
    514       1.6849      2.00000
    515       1.7257      2.00000
    516       1.8086      2.00000
    517       1.9221      2.00000
    518       1.9226      2.00000
    519       1.9370      2.00000
    520       1.9581      2.00000
    521       1.9587      2.00000
    522       1.9682      2.00000
    523       1.9785      2.00000
    524       2.9220      2.00000
    525       3.0134      2.00000
    526       6.7677      0.00000
    527       7.0182      0.00000
    528       7.1602      0.00000
    529       7.6380      0.00000
    530       7.7739      0.00000
    531       9.3076      0.00000
    532       9.3256      0.00000
    533       9.7674      0.00000
    534       9.8171      0.00000
    535      10.0571      0.00000
    536      10.1129      0.00000
    537      10.2785      0.00000
    538      10.2824      0.00000
    539      10.3192      0.00000
    540      10.4405      0.00000
    541      10.6248      0.00000
    542      10.6394      0.00000
    543      10.7017      0.00000
    544      10.7346      0.00000
    545      10.7611      0.00000
    546      10.8243      0.00000
    547      10.8813      0.00000
    548      10.8905      0.00000
    549      10.9191      0.00000
    550      10.9314      0.00000
    551      10.9320      0.00000
    552      11.0185      0.00000
    553      11.2373      0.00000
    554      11.2552      0.00000
    555      11.2636      0.00000
    556      11.3220      0.00000
    557      11.3520      0.00000
    558      11.3800      0.00000
    559      11.4192      0.00000
    560      11.4491      0.00000
    561      11.4774      0.00000
    562      11.5912      0.00000
    563      11.6208      0.00000
    564      11.9207      0.00000
    565      12.0860      0.00000
    566      12.1103      0.00000
    567      12.2764      0.00000
    568      12.3804      0.00000
    569      12.4129      0.00000
    570      12.4449      0.00000
    571      12.4660      0.00000
    572      12.4894      0.00000
    573      12.4984      0.00000
    574      12.4998      0.00000
    575      12.5258      0.00000
    576      12.5568      0.00000
    577      12.5764      0.00000
    578      12.7075      0.00000
    579      12.8048      0.00000
    580      12.8431      0.00000
    581      12.8739      0.00000
    582      13.0716      0.00000
    583      13.0752      0.00000
    584      13.1872      0.00000
    585      13.3572      0.00000
    586      13.3624      0.00000
    587      13.3709      0.00000
    588      13.5498      0.00000
    589      13.5692      0.00000
    590      13.5803      0.00000
    591      13.6156      0.00000
    592      13.7366      0.00000
    593      13.7391      0.00000
    594      13.7601      0.00000
    595      13.7968      0.00000
    596      13.8836      0.00000
    597      13.8996      0.00000
    598      13.9296      0.00000
    599      14.0317      0.00000
    600      14.0612      0.00000
    601      14.0922      0.00000
    602      14.1033      0.00000
    603      14.1135      0.00000
    604      14.1391      0.00000
    605      14.1545      0.00000
    606      14.2541      0.00000
    607      14.3032      0.00000
    608      14.3527      0.00000
    609      14.4072      0.00000
    610      14.4699      0.00000
    611      14.4834      0.00000
    612      14.5133      0.00000
    613      14.6490      0.00000
    614      14.6830      0.00000
    615      14.8590      0.00000
    616      14.8813      0.00000
    617      14.9020      0.00000
    618      14.9924      0.00000
    619      15.0034      0.00000
    620      15.1212      0.00000
    621      15.1357      0.00000
    622      15.1780      0.00000
    623      15.4813      0.00000
    624      15.5933      0.00000
    625      15.6138      0.00000
    626      15.6488      0.00000
    627      15.6826      0.00000
    628      15.7681      0.00000
    629      15.7872      0.00000
    630      15.8067      0.00000

 k-point     3 :       0.0000    0.5000    0.0000
  band No.  band energies     occupation 
      1     -18.4815      2.00000
      2     -18.4508      2.00000
      3     -18.2308      2.00000
      4     -18.2062      2.00000
      5     -18.1617      2.00000
      6     -18.1282      2.00000
      7     -18.1043      2.00000
      8     -18.0680      2.00000
      9     -17.9974      2.00000
     10     -17.9749      2.00000
     11     -17.7927      2.00000
     12     -17.7643      2.00000
     13     -17.7320      2.00000
     14     -17.7169      2.00000
     15     -17.5875      2.00000
     16     -17.5744      2.00000
     17     -17.5525      2.00000
     18     -17.5487      2.00000
     19     -17.4711      2.00000
     20     -17.4652      2.00000
     21     -17.4570      2.00000
     22     -17.4540      2.00000
     23     -17.4500      2.00000
     24     -17.4454      2.00000
     25     -17.4443      2.00000
     26     -17.4363      2.00000
     27     -17.4290      2.00000
     28     -17.4119      2.00000
     29     -17.3769      2.00000
     30     -17.3675      2.00000
     31     -17.3440      2.00000
     32     -17.3166      2.00000
     33     -17.3039      2.00000
     34     -17.3016      2.00000
     35     -17.2914      2.00000
     36     -17.2682      2.00000
     37     -17.2522      2.00000
     38     -17.2442      2.00000
     39     -17.2417      2.00000
     40     -17.2292      2.00000
     41     -17.2094      2.00000
     42     -17.2078      2.00000
     43     -17.2056      2.00000
     44     -17.1752      2.00000
     45     -17.1625      2.00000
     46     -17.1562      2.00000
     47     -17.1132      2.00000
     48     -17.1104      2.00000
     49     -17.0849      2.00000
     50     -17.0631      2.00000
     51     -17.0279      2.00000
     52     -16.9864      2.00000
     53     -16.9562      2.00000
     54     -16.9558      2.00000
     55     -16.9374      2.00000
     56     -16.9251      2.00000
     57     -16.9229      2.00000
     58     -16.9201      2.00000
     59     -16.9145      2.00000
     60     -16.9128      2.00000
     61     -16.9108      2.00000
     62     -16.9082      2.00000
     63     -16.9067      2.00000
     64     -16.9053      2.00000
     65     -16.8998      2.00000
     66     -16.8893      2.00000
     67     -16.8867      2.00000
     68     -16.8495      2.00000
     69     -16.8275      2.00000
     70     -16.8200      2.00000
     71     -16.7937      2.00000
     72     -13.3591      2.00000
     73     -13.0482      2.00000
     74     -13.0417      2.00000
     75     -13.0282      2.00000
     76     -13.0241      2.00000
     77     -13.0232      2.00000
     78     -13.0229      2.00000
     79     -13.0027      2.00000
     80     -13.0020      2.00000
     81     -13.0017      2.00000
     82     -12.9975      2.00000
     83     -12.9960      2.00000
     84     -12.9942      2.00000
     85     -12.9913      2.00000
     86     -12.9842      2.00000
     87     -12.9779      2.00000
     88     -12.9776      2.00000
     89     -12.9763      2.00000
     90     -12.9718      2.00000
     91     -12.9675      2.00000
     92     -12.9656      2.00000
     93     -12.9582      2.00000
     94     -12.9577      2.00000
     95     -12.9568      2.00000
     96     -12.9489      2.00000
     97     -12.9486      2.00000
     98     -12.9444      2.00000
     99     -12.9419      2.00000
    100     -12.9400      2.00000
    101     -12.9355      2.00000
    102     -12.9329      2.00000
    103     -12.9304      2.00000
    104     -12.9299      2.00000
    105     -12.9246      2.00000
    106     -12.9226      2.00000
    107     -12.9211      2.00000
    108     -12.9197      2.00000
    109     -12.9170      2.00000
    110     -12.9169      2.00000
    111     -12.9162      2.00000
    112     -12.9149      2.00000
    113     -12.9133      2.00000
    114     -12.9105      2.00000
    115     -12.9098      2.00000
    116     -12.9087      2.00000
    117     -12.9074      2.00000
    118     -12.9044      2.00000
    119     -12.8940      2.00000
    120     -12.8919      2.00000
    121     -12.8866      2.00000
    122     -12.8811      2.00000
    123     -12.8785      2.00000
    124     -12.8754      2.00000
    125     -12.8738      2.00000
    126     -12.8733      2.00000
    127     -12.8728      2.00000
    128     -12.8676      2.00000
    129     -12.8674      2.00000
    130     -12.8605      2.00000
    131     -12.8605      2.00000
    132     -12.8583      2.00000
    133     -12.8571      2.00000
    134     -12.8492      2.00000
    135     -12.8402      2.00000
    136     -12.8358      2.00000
    137     -12.8250      2.00000
    138     -12.8240      2.00000
    139     -12.8209      2.00000
    140     -12.8184      2.00000
    141     -12.8147      2.00000
    142     -12.8100      2.00000
    143     -12.8081      2.00000
    144     -12.8066      2.00000
    145     -12.8053      2.00000
    146     -12.8041      2.00000
    147     -12.8013      2.00000
    148     -12.8009      2.00000
    149     -12.8001      2.00000
    150     -12.7977      2.00000
    151     -12.7976      2.00000
    152     -12.7966      2.00000
    153     -12.7935      2.00000
    154     -12.7872      2.00000
    155     -12.7853      2.00000
    156     -12.7847      2.00000
    157     -12.7833      2.00000
    158     -12.7760      2.00000
    159     -12.7694      2.00000
    160     -12.7690      2.00000
    161     -12.7674      2.00000
    162     -12.7671      2.00000
    163     -12.7658      2.00000
    164     -12.7594      2.00000
    165     -12.7555      2.00000
    166     -12.7554      2.00000
    167     -12.7503      2.00000
    168     -12.7500      2.00000
    169     -12.7430      2.00000
    170     -12.7416      2.00000
    171     -12.7363      2.00000
    172     -12.7353      2.00000
    173     -12.7353      2.00000
    174     -12.7334      2.00000
    175     -12.7322      2.00000
    176     -12.7299      2.00000
    177     -12.7298      2.00000
    178     -12.7278      2.00000
    179     -12.7256      2.00000
    180     -12.7256      2.00000
    181     -12.7228      2.00000
    182     -12.7218      2.00000
    183     -12.7193      2.00000
    184     -12.7160      2.00000
    185     -12.7146      2.00000
    186     -12.7135      2.00000
    187     -12.7135      2.00000
    188     -12.7115      2.00000
    189     -12.7083      2.00000
    190     -12.7074      2.00000
    191     -12.7064      2.00000
    192     -12.7061      2.00000
    193     -12.7031      2.00000
    194     -12.7025      2.00000
    195     -12.6990      2.00000
    196     -12.6974      2.00000
    197     -12.6918      2.00000
    198     -12.6824      2.00000
    199     -12.6817      2.00000
    200     -12.6706      2.00000
    201     -12.6676      2.00000
    202     -12.6603      2.00000
    203     -12.6514      2.00000
    204     -12.6473      2.00000
    205     -12.6472      2.00000
    206     -12.6455      2.00000
    207     -12.6352      2.00000
    208     -12.6341      2.00000
    209     -12.6336      2.00000
    210     -12.6294      2.00000
    211     -12.6292      2.00000
    212     -12.6274      2.00000
    213     -12.6260      2.00000
    214     -12.6238      2.00000
    215     -12.6191      2.00000
    216     -12.6172      2.00000
    217     -12.6155      2.00000
    218     -12.6127      2.00000
    219     -12.6092      2.00000
    220     -12.6073      2.00000
    221     -12.6039      2.00000
    222     -12.6037      2.00000
    223     -12.6028      2.00000
    224     -12.6016      2.00000
    225     -12.5995      2.00000
    226     -12.5974      2.00000
    227     -12.5898      2.00000
    228     -12.5898      2.00000
    229     -12.5877      2.00000
    230     -12.5866      2.00000
    231     -12.5833      2.00000
    232     -12.5823      2.00000
    233     -12.5807      2.00000
    234     -12.5786      2.00000
    235     -12.5786      2.00000
    236     -12.5728      2.00000
    237     -12.5725      2.00000
    238     -12.5708      2.00000
    239     -12.5677      2.00000
    240     -12.5635      2.00000
    241     -12.5615      2.00000
    242     -12.5596      2.00000
    243     -12.5587      2.00000
    244     -12.5562      2.00000
    245     -12.5536      2.00000
    246     -12.5517      2.00000
    247     -12.5473      2.00000
    248     -12.5460      2.00000
    249     -12.5437      2.00000
    250     -12.5421      2.00000
    251     -12.5398      2.00000
    252     -12.5377      2.00000
    253     -12.5356      2.00000
    254     -12.5342      2.00000
    255     -12.5324      2.00000
    256     -12.5212      2.00000
    257     -12.5187      2.00000
    258     -12.5107      2.00000
    259     -12.5105      2.00000
    260     -12.4724      2.00000
    261     -12.4553      2.00000
    262     -12.3958      2.00000
    263     -12.3866      2.00000
    264     -12.3866      2.00000
    265     -12.3833      2.00000
    266     -12.3682      2.00000
    267     -12.3676      2.00000
    268     -12.3582      2.00000
    269     -12.3503      2.00000
    270     -12.3463      2.00000
    271     -12.3392      2.00000
    272     -12.3321      2.00000
    273     -12.3120      2.00000
    274     -12.2987      2.00000
    275     -12.2898      2.00000
    276     -12.2677      2.00000
    277     -12.2544      2.00000
    278     -12.2482      2.00000
    279     -12.2079      2.00000
    280     -12.1875      2.00000
    281     -12.1857      2.00000
    282     -12.1668      2.00000
    283     -12.1468      2.00000
    284     -12.1317      2.00000
    285     -12.1051      2.00000
    286     -12.0876      2.00000
    287     -12.0857      2.00000
    288     -12.0620      2.00000
    289     -12.0258      2.00000
    290     -12.0131      2.00000
    291     -12.0027      2.00000
    292     -11.9009      2.00000
    293     -11.8952      2.00000
    294     -11.8934      2.00000
    295     -11.8718      2.00000
    296     -11.8636      2.00000
    297     -11.8378      2.00000
    298     -11.8287      2.00000
    299     -11.8252      2.00000
    300     -11.7605      2.00000
    301     -11.7497      2.00000
    302     -11.7061      2.00000
    303     -11.6813      2.00000
    304     -11.6749      2.00000
    305     -11.6727      2.00000
    306     -11.6550      2.00000
    307     -10.9422      2.00000
    308      -4.9988      2.00000
    309      -4.9810      2.00000
    310      -4.9462      2.00000
    311      -4.8919      2.00000
    312      -4.8139      2.00000
    313      -4.8134      2.00000
    314      -4.7523      2.00000
    315      -4.6798      2.00000
    316      -4.5103      2.00000
    317      -4.5040      2.00000
    318      -4.4762      2.00000
    319      -4.4418      2.00000
    320      -4.2564      2.00000
    321      -4.2172      2.00000
    322      -4.2140      2.00000
    323      -4.2044      2.00000
    324      -4.1282      2.00000
    325      -4.1278      2.00000
    326      -4.0310      2.00000
    327      -3.9912      2.00000
    328      -3.9593      2.00000
    329      -3.9571      2.00000
    330      -3.9216      2.00000
    331      -3.8935      2.00000
    332      -3.8615      2.00000
    333      -3.7511      2.00000
    334      -3.5985      2.00000
    335      -3.5978      2.00000
    336      -3.5619      2.00000
    337      -3.5462      2.00000
    338      -3.5007      2.00000
    339      -3.4844      2.00000
    340      -3.4439      2.00000
    341      -3.2628      2.00000
    342      -3.2588      2.00000
    343      -3.2098      2.00000
    344      -3.0389      2.00000
    345      -3.0202      2.00000
    346      -2.9688      2.00000
    347      -2.9152      2.00000
    348      -2.8691      2.00000
    349      -2.8670      2.00000
    350      -2.8206      2.00000
    351      -2.8157      2.00000
    352      -2.7876      2.00000
    353      -2.6570      2.00000
    354      -2.6421      2.00000
    355      -2.5730      2.00000
    356      -2.4941      2.00000
    357      -2.4758      2.00000
    358      -2.2588      2.00000
    359      -2.2286      2.00000
    360      -2.1866      2.00000
    361      -2.1110      2.00000
    362      -2.1046      2.00000
    363      -2.0426      2.00000
    364      -1.9681      2.00000
    365      -1.9374      2.00000
    366      -1.9153      2.00000
    367      -1.8880      2.00000
    368      -1.8358      2.00000
    369      -1.8274      2.00000
    370      -1.8274      2.00000
    371      -1.7879      2.00000
    372      -1.7637      2.00000
    373      -1.7489      2.00000
    374      -1.7408      2.00000
    375      -1.7202      2.00000
    376      -1.7058      2.00000
    377      -1.6881      2.00000
    378      -1.6402      2.00000
    379      -1.5580      2.00000
    380      -1.5069      2.00000
    381      -1.4773      2.00000
    382      -1.4478      2.00000
    383      -1.4278      2.00000
    384      -1.4045      2.00000
    385      -1.4025      2.00000
    386      -1.3744      2.00000
    387      -1.3727      2.00000
    388      -1.3479      2.00000
    389      -1.3342      2.00000
    390      -1.3024      2.00000
    391      -1.2773      2.00000
    392      -1.1926      2.00000
    393      -1.1039      2.00000
    394      -1.0913      2.00000
    395      -1.0655      2.00000
    396      -1.0499      2.00000
    397      -1.0081      2.00000
    398      -0.9248      2.00000
    399      -0.9027      2.00000
    400      -0.8955      2.00000
    401      -0.8870      2.00000
    402      -0.8467      2.00000
    403      -0.8413      2.00000
    404      -0.8067      2.00000
    405      -0.8067      2.00000
    406      -0.7518      2.00000
    407      -0.7479      2.00000
    408      -0.7195      2.00000
    409      -0.6985      2.00000
    410      -0.6909      2.00000
    411      -0.6438      2.00000
    412      -0.5937      2.00000
    413      -0.5466      2.00000
    414      -0.5133      2.00000
    415      -0.4837      2.00000
    416      -0.4531      2.00000
    417      -0.4354      2.00000
    418      -0.4232      2.00000
    419      -0.3805      2.00000
    420      -0.3558      2.00000
    421      -0.3171      2.00000
    422      -0.2585      2.00000
    423      -0.2438      2.00000
    424      -0.2230      2.00000
    425      -0.2193      2.00000
    426      -0.1811      2.00000
    427      -0.1796      2.00000
    428      -0.1418      2.00000
    429      -0.1073      2.00000
    430      -0.0909      2.00000
    431      -0.0627      2.00000
    432      -0.0582      2.00000
    433      -0.0149      2.00000
    434      -0.0109      2.00000
    435       0.0192      2.00000
    436       0.0794      2.00000
    437       0.1350      2.00000
    438       0.1453      2.00000
    439       0.1623      2.00000
    440       0.1654      2.00000
    441       0.2281      2.00000
    442       0.2284      2.00000
    443       0.2488      2.00000
    444       0.3374      2.00000
    445       0.3377      2.00000
    446       0.3831      2.00000
    447       0.3941      2.00000
    448       0.4130      2.00000
    449       0.4246      2.00000
    450       0.4453      2.00000
    451       0.4907      2.00000
    452       0.5040      2.00000
    453       0.5048      2.00000
    454       0.5183      2.00000
    455       0.5289      2.00000
    456       0.5766      2.00000
    457       0.5852      2.00000
    458       0.5991      2.00000
    459       0.6499      2.00000
    460       0.6816      2.00000
    461       0.7143      2.00000
    462       0.7593      2.00000
    463       0.7605      2.00000
    464       0.8210      2.00000
    465       0.8538      2.00000
    466       0.8691      2.00000
    467       0.9010      2.00000
    468       0.9151      2.00000
    469       0.9536      2.00000
    470       0.9642      2.00000
    471       0.9777      2.00000
    472       0.9903      2.00000
    473       1.0252      2.00000
    474       1.0388      2.00000
    475       1.0625      2.00000
    476       1.1018      2.00000
    477       1.1252      2.00000
    478       1.1289      2.00000
    479       1.1584      2.00000
    480       1.1640      2.00000
    481       1.1752      2.00000
    482       1.1754      2.00000
    483       1.1830      2.00000
    484       1.1919      2.00000
    485       1.1932      2.00000
    486       1.2309      2.00000
    487       1.2509      2.00000
    488       1.2532      2.00000
    489       1.2711      2.00000
    490       1.2750      2.00000
    491       1.3073      2.00000
    492       1.3404      2.00000
    493       1.3734      2.00000
    494       1.3849      2.00000
    495       1.4150      2.00000
    496       1.4155      2.00000
    497       1.4329      2.00000
    498       1.4420      2.00000
    499       1.4445      2.00000
    500       1.4454      2.00000
    501       1.4600      2.00000
    502       1.4780      2.00000
    503       1.4895      2.00000
    504       1.5034      2.00000
    505       1.5250      2.00000
    506       1.5435      2.00000
    507       1.5487      2.00000
    508       1.5561      2.00000
    509       1.5629      2.00000
    510       1.5885      2.00000
    511       1.6425      2.00000
    512       1.6523      2.00000
    513       1.6566      2.00000
    514       1.7105      2.00000
    515       1.7317      2.00000
    516       1.8190      2.00000
    517       1.8356      2.00000
    518       1.8488      2.00000
    519       1.9035      2.00000
    520       1.9817      2.00000
    521       2.0132      2.00000
    522       2.0424      2.00000
    523       2.0631      2.00000
    524       2.9247      2.00000
    525       2.9503      2.00000
    526       6.7760      0.00000
    527       6.8755      0.00000
    528       7.3592      0.00000
    529       8.0590      0.00000
    530       8.1138      0.00000
    531       9.4930      0.00000
    532       9.5831      0.00000
    533       9.6761      0.00000
    534       9.7762      0.00000
    535       9.8420      0.00000
    536       9.9323      0.00000
    537       9.9883      0.00000
    538      10.0756      0.00000
    539      10.2829      0.00000
    540      10.3909      0.00000
    541      10.4334      0.00000
    542      10.4706      0.00000
    543      10.4843      0.00000
    544      10.5837      0.00000
    545      10.7467      0.00000
    546      10.8972      0.00000
    547      11.2276      0.00000
    548      11.3247      0.00000
    549      11.3813      0.00000
    550      11.4126      0.00000
    551      11.4371      0.00000
    552      11.5160      0.00000
    553      11.5234      0.00000
    554      11.5496      0.00000
    555      11.5779      0.00000
    556      11.5817      0.00000
    557      11.6090      0.00000
    558      11.6156      0.00000
    559      11.6954      0.00000
    560      11.7420      0.00000
    561      11.8158      0.00000
    562      11.8359      0.00000
    563      11.8556      0.00000
    564      11.9071      0.00000
    565      11.9312      0.00000
    566      12.0291      0.00000
    567      12.1493      0.00000
    568      12.2275      0.00000
    569      12.2898      0.00000
    570      12.2971      0.00000
    571      12.4686      0.00000
    572      12.5040      0.00000
    573      12.5600      0.00000
    574      12.5784      0.00000
    575      12.6023      0.00000
    576      12.6197      0.00000
    577      12.7331      0.00000
    578      12.7428      0.00000
    579      12.8437      0.00000
    580      12.9122      0.00000
    581      12.9263      0.00000
    582      13.0405      0.00000
    583      13.0597      0.00000
    584      13.1091      0.00000
    585      13.1121      0.00000
    586      13.1622      0.00000
    587      13.1745      0.00000
    588      13.2032      0.00000
    589      13.2167      0.00000
    590      13.2327      0.00000
    591      13.2523      0.00000
    592      13.2623      0.00000
    593      13.2784      0.00000
    594      13.2956      0.00000
    595      13.4098      0.00000
    596      13.4515      0.00000
    597      13.5795      0.00000
    598      13.7013      0.00000
    599      13.7608      0.00000
    600      14.0808      0.00000
    601      14.1210      0.00000
    602      14.2085      0.00000
    603      14.2447      0.00000
    604      14.2820      0.00000
    605      14.3076      0.00000
    606      14.3857      0.00000
    607      14.5009      0.00000
    608      14.6894      0.00000
    609      14.7677      0.00000
    610      14.8275      0.00000
    611      14.8664      0.00000
    612      14.9303      0.00000
    613      14.9894      0.00000
    614      14.9909      0.00000
    615      15.0514      0.00000
    616      15.0798      0.00000
    617      15.1376      0.00000
    618      15.1571      0.00000
    619      15.1836      0.00000
    620      15.1957      0.00000
    621      15.2689      0.00000
    622      15.3696      0.00000
    623      15.4248      0.00000
    624      15.4703      0.00000
    625      15.4812      0.00000
    626      15.5241      0.00000
    627      15.5413      0.00000
    628      15.5967      0.00000
    629      15.6484      0.00000
    630      15.7457      0.00000

 k-point     4 :       0.5000    0.5000    0.0000
  band No.  band energies     occupation 
      1     -18.3805      2.00000
      2     -18.3737      2.00000
      3     -18.3734      2.00000
      4     -18.3145      2.00000
      5     -18.1823      2.00000
      6     -18.1729      2.00000
      7     -18.1678      2.00000
      8     -18.1303      2.00000
      9     -17.7481      2.00000
     10     -17.7415      2.00000
     11     -17.7352      2.00000
     12     -17.7251      2.00000
     13     -17.7161      2.00000
     14     -17.6901      2.00000
     15     -17.6794      2.00000
     16     -17.6545      2.00000
     17     -17.5852      2.00000
     18     -17.5550      2.00000
     19     -17.5467      2.00000
     20     -17.5313      2.00000
     21     -17.5268      2.00000
     22     -17.5046      2.00000
     23     -17.4682      2.00000
     24     -17.4510      2.00000
     25     -17.4481      2.00000
     26     -17.4477      2.00000
     27     -17.4337      2.00000
     28     -17.4204      2.00000
     29     -17.3878      2.00000
     30     -17.3788      2.00000
     31     -17.3561      2.00000
     32     -17.3378      2.00000
     33     -17.2759      2.00000
     34     -17.2711      2.00000
     35     -17.2450      2.00000
     36     -17.2393      2.00000
     37     -17.2311      2.00000
     38     -17.2149      2.00000
     39     -17.2043      2.00000
     40     -17.2021      2.00000
     41     -17.1954      2.00000
     42     -17.1917      2.00000
     43     -17.1878      2.00000
     44     -17.1837      2.00000
     45     -17.1741      2.00000
     46     -17.1438      2.00000
     47     -17.1289      2.00000
     48     -17.1053      2.00000
     49     -17.0803      2.00000
     50     -17.0780      2.00000
     51     -17.0638      2.00000
     52     -16.9950      2.00000
     53     -16.9561      2.00000
     54     -16.9558      2.00000
     55     -16.9373      2.00000
     56     -16.9242      2.00000
     57     -16.9223      2.00000
     58     -16.9203      2.00000
     59     -16.9181      2.00000
     60     -16.9133      2.00000
     61     -16.9131      2.00000
     62     -16.9108      2.00000
     63     -16.9107      2.00000
     64     -16.9033      2.00000
     65     -16.8959      2.00000
     66     -16.8890      2.00000
     67     -16.8861      2.00000
     68     -16.8338      2.00000
     69     -16.8326      2.00000
     70     -16.8253      2.00000
     71     -16.7957      2.00000
     72     -13.3592      2.00000
     73     -13.0413      2.00000
     74     -13.0381      2.00000
     75     -13.0374      2.00000
     76     -13.0266      2.00000
     77     -13.0243      2.00000
     78     -13.0127      2.00000
     79     -13.0102      2.00000
     80     -13.0057      2.00000
     81     -13.0017      2.00000
     82     -12.9989      2.00000
     83     -12.9931      2.00000
     84     -12.9931      2.00000
     85     -12.9895      2.00000
     86     -12.9852      2.00000
     87     -12.9819      2.00000
     88     -12.9815      2.00000
     89     -12.9743      2.00000
     90     -12.9693      2.00000
     91     -12.9638      2.00000
     92     -12.9610      2.00000
     93     -12.9577      2.00000
     94     -12.9571      2.00000
     95     -12.9566      2.00000
     96     -12.9529      2.00000
     97     -12.9515      2.00000
     98     -12.9469      2.00000
     99     -12.9456      2.00000
    100     -12.9442      2.00000
    101     -12.9358      2.00000
    102     -12.9352      2.00000
    103     -12.9301      2.00000
    104     -12.9286      2.00000
    105     -12.9255      2.00000
    106     -12.9241      2.00000
    107     -12.9214      2.00000
    108     -12.9207      2.00000
    109     -12.9197      2.00000
    110     -12.9188      2.00000
    111     -12.9155      2.00000
    112     -12.9141      2.00000
    113     -12.9117      2.00000
    114     -12.9088      2.00000
    115     -12.9086      2.00000
    116     -12.9032      2.00000
    117     -12.9030      2.00000
    118     -12.8995      2.00000
    119     -12.8992      2.00000
    120     -12.8882      2.00000
    121     -12.8865      2.00000
    122     -12.8797      2.00000
    123     -12.8781      2.00000
    124     -12.8767      2.00000
    125     -12.8707      2.00000
    126     -12.8695      2.00000
    127     -12.8668      2.00000
    128     -12.8660      2.00000
    129     -12.8658      2.00000
    130     -12.8617      2.00000
    131     -12.8615      2.00000
    132     -12.8586      2.00000
    133     -12.8559      2.00000
    134     -12.8479      2.00000
    135     -12.8381      2.00000
    136     -12.8298      2.00000
    137     -12.8261      2.00000
    138     -12.8220      2.00000
    139     -12.8155      2.00000
    140     -12.8097      2.00000
    141     -12.8068      2.00000
    142     -12.8066      2.00000
    143     -12.8035      2.00000
    144     -12.8013      2.00000
    145     -12.8008      2.00000
    146     -12.7993      2.00000
    147     -12.7974      2.00000
    148     -12.7926      2.00000
    149     -12.7888      2.00000
    150     -12.7878      2.00000
    151     -12.7877      2.00000
    152     -12.7869      2.00000
    153     -12.7857      2.00000
    154     -12.7821      2.00000
    155     -12.7812      2.00000
    156     -12.7785      2.00000
    157     -12.7778      2.00000
    158     -12.7767      2.00000
    159     -12.7730      2.00000
    160     -12.7712      2.00000
    161     -12.7691      2.00000
    162     -12.7671      2.00000
    163     -12.7608      2.00000
    164     -12.7599      2.00000
    165     -12.7597      2.00000
    166     -12.7558      2.00000
    167     -12.7555      2.00000
    168     -12.7539      2.00000
    169     -12.7498      2.00000
    170     -12.7476      2.00000
    171     -12.7373      2.00000
    172     -12.7368      2.00000
    173     -12.7364      2.00000
    174     -12.7363      2.00000
    175     -12.7323      2.00000
    176     -12.7314      2.00000
    177     -12.7312      2.00000
    178     -12.7307      2.00000
    179     -12.7296      2.00000
    180     -12.7294      2.00000
    181     -12.7280      2.00000
    182     -12.7259      2.00000
    183     -12.7253      2.00000
    184     -12.7227      2.00000
    185     -12.7212      2.00000
    186     -12.7117      2.00000
    187     -12.7099      2.00000
    188     -12.7094      2.00000
    189     -12.7089      2.00000
    190     -12.7006      2.00000
    191     -12.6986      2.00000
    192     -12.6937      2.00000
    193     -12.6934      2.00000
    194     -12.6905      2.00000
    195     -12.6889      2.00000
    196     -12.6831      2.00000
    197     -12.6827      2.00000
    198     -12.6817      2.00000
    199     -12.6791      2.00000
    200     -12.6775      2.00000
    201     -12.6747      2.00000
    202     -12.6667      2.00000
    203     -12.6658      2.00000
    204     -12.6518      2.00000
    205     -12.6467      2.00000
    206     -12.6419      2.00000
    207     -12.6389      2.00000
    208     -12.6330      2.00000
    209     -12.6319      2.00000
    210     -12.6313      2.00000
    211     -12.6301      2.00000
    212     -12.6257      2.00000
    213     -12.6240      2.00000
    214     -12.6232      2.00000
    215     -12.6208      2.00000
    216     -12.6190      2.00000
    217     -12.6188      2.00000
    218     -12.6131      2.00000
    219     -12.6101      2.00000
    220     -12.6096      2.00000
    221     -12.6089      2.00000
    222     -12.6079      2.00000
    223     -12.6077      2.00000
    224     -12.6062      2.00000
    225     -12.6049      2.00000
    226     -12.6033      2.00000
    227     -12.6011      2.00000
    228     -12.5952      2.00000
    229     -12.5907      2.00000
    230     -12.5875      2.00000
    231     -12.5874      2.00000
    232     -12.5868      2.00000
    233     -12.5824      2.00000
    234     -12.5807      2.00000
    235     -12.5798      2.00000
    236     -12.5750      2.00000
    237     -12.5747      2.00000
    238     -12.5732      2.00000
    239     -12.5697      2.00000
    240     -12.5643      2.00000
    241     -12.5626      2.00000
    242     -12.5601      2.00000
    243     -12.5597      2.00000
    244     -12.5582      2.00000
    245     -12.5498      2.00000
    246     -12.5497      2.00000
    247     -12.5487      2.00000
    248     -12.5461      2.00000
    249     -12.5384      2.00000
    250     -12.5377      2.00000
    251     -12.5373      2.00000
    252     -12.5370      2.00000
    253     -12.5355      2.00000
    254     -12.5312      2.00000
    255     -12.5310      2.00000
    256     -12.5276      2.00000
    257     -12.5250      2.00000
    258     -12.5214      2.00000
    259     -12.5200      2.00000
    260     -12.5193      2.00000
    261     -12.5184      2.00000
    262     -12.5105      2.00000
    263     -12.5083      2.00000
    264     -12.4216      2.00000
    265     -12.4106      2.00000
    266     -12.3617      2.00000
    267     -12.3526      2.00000
    268     -12.3458      2.00000
    269     -12.3309      2.00000
    270     -12.3283      2.00000
    271     -12.3138      2.00000
    272     -12.3071      2.00000
    273     -12.2972      2.00000
    274     -12.2854      2.00000
    275     -12.2745      2.00000
    276     -12.2719      2.00000
    277     -12.2329      2.00000
    278     -12.2257      2.00000
    279     -12.2225      2.00000
    280     -12.1872      2.00000
    281     -12.1620      2.00000
    282     -12.1317      2.00000
    283     -12.1052      2.00000
    284     -12.0882      2.00000
    285     -12.0852      2.00000
    286     -12.0644      2.00000
    287     -12.0318      2.00000
    288     -12.0130      2.00000
    289     -12.0108      2.00000
    290     -12.0101      2.00000
    291     -11.9865      2.00000
    292     -11.8839      2.00000
    293     -11.8751      2.00000
    294     -11.8709      2.00000
    295     -11.8519      2.00000
    296     -11.8276      2.00000
    297     -11.8234      2.00000
    298     -11.8210      2.00000
    299     -11.8166      2.00000
    300     -11.7904      2.00000
    301     -11.7900      2.00000
    302     -11.7834      2.00000
    303     -11.7561      2.00000
    304     -11.7040      2.00000
    305     -11.6814      2.00000
    306     -11.6758      2.00000
    307     -10.9437      2.00000
    308      -4.9892      2.00000
    309      -4.9838      2.00000
    310      -4.9749      2.00000
    311      -4.9693      2.00000
    312      -4.9657      2.00000
    313      -4.8755      2.00000
    314      -4.6603      2.00000
    315      -4.5946      2.00000
    316      -4.4918      2.00000
    317      -4.4516      2.00000
    318      -4.2639      2.00000
    319      -4.2624      2.00000
    320      -4.2124      2.00000
    321      -4.2117      2.00000
    322      -4.1543      2.00000
    323      -4.1497      2.00000
    324      -4.1401      2.00000
    325      -4.1038      2.00000
    326      -4.0260      2.00000
    327      -4.0220      2.00000
    328      -4.0082      2.00000
    329      -3.9870      2.00000
    330      -3.9143      2.00000
    331      -3.8866      2.00000
    332      -3.8653      2.00000
    333      -3.7611      2.00000
    334      -3.7425      2.00000
    335      -3.7375      2.00000
    336      -3.6649      2.00000
    337      -3.6647      2.00000
    338      -3.6549      2.00000
    339      -3.4538      2.00000
    340      -3.3028      2.00000
    341      -3.3014      2.00000
    342      -3.2549      2.00000
    343      -3.2209      2.00000
    344      -3.0805      2.00000
    345      -3.0642      2.00000
    346      -2.9397      2.00000
    347      -2.9335      2.00000
    348      -2.9200      2.00000
    349      -2.8891      2.00000
    350      -2.8207      2.00000
    351      -2.8149      2.00000
    352      -2.6850      2.00000
    353      -2.6576      2.00000
    354      -2.6131      2.00000
    355      -2.6111      2.00000
    356      -2.5687      2.00000
    357      -2.3952      2.00000
    358      -2.3818      2.00000
    359      -2.2816      2.00000
    360      -2.2161      2.00000
    361      -2.1545      2.00000
    362      -2.1364      2.00000
    363      -2.0768      2.00000
    364      -1.9244      2.00000
    365      -1.9221      2.00000
    366      -1.8276      2.00000
    367      -1.8178      2.00000
    368      -1.7959      2.00000
    369      -1.7946      2.00000
    370      -1.7740      2.00000
    371      -1.7626      2.00000
    372      -1.7524      2.00000
    373      -1.7231      2.00000
    374      -1.7146      2.00000
    375      -1.6273      2.00000
    376      -1.6186      2.00000
    377      -1.5912      2.00000
    378      -1.5862      2.00000
    379      -1.5677      2.00000
    380      -1.5184      2.00000
    381      -1.5118      2.00000
    382      -1.4837      2.00000
    383      -1.3944      2.00000
    384      -1.3880      2.00000
    385      -1.3867      2.00000
    386      -1.3342      2.00000
    387      -1.3294      2.00000
    388      -1.3176      2.00000
    389      -1.3005      2.00000
    390      -1.2681      2.00000
    391      -1.2663      2.00000
    392      -1.1996      2.00000
    393      -1.1241      2.00000
    394      -1.0503      2.00000
    395      -1.0500      2.00000
    396      -1.0068      2.00000
    397      -1.0052      2.00000
    398      -0.9563      2.00000
    399      -0.9323      2.00000
    400      -0.9104      2.00000
    401      -0.8831      2.00000
    402      -0.8381      2.00000
    403      -0.8267      2.00000
    404      -0.7901      2.00000
    405      -0.7664      2.00000
    406      -0.7513      2.00000
    407      -0.7045      2.00000
    408      -0.6912      2.00000
    409      -0.6869      2.00000
    410      -0.6298      2.00000
    411      -0.6280      2.00000
    412      -0.5772      2.00000
    413      -0.5626      2.00000
    414      -0.5528      2.00000
    415      -0.5244      2.00000
    416      -0.5135      2.00000
    417      -0.4794      2.00000
    418      -0.4791      2.00000
    419      -0.4436      2.00000
    420      -0.4434      2.00000
    421      -0.4272      2.00000
    422      -0.4125      2.00000
    423      -0.3959      2.00000
    424      -0.3450      2.00000
    425      -0.2838      2.00000
    426      -0.2736      2.00000
    427      -0.2079      2.00000
    428      -0.1480      2.00000
    429      -0.1362      2.00000
    430      -0.0514      2.00000
    431      -0.0382      2.00000
    432      -0.0193      2.00000
    433      -0.0030      2.00000
    434      -0.0019      2.00000
    435       0.0105      2.00000
    436       0.0188      2.00000
    437       0.0722      2.00000
    438       0.1277      2.00000
    439       0.1856      2.00000
    440       0.1999      2.00000
    441       0.2741      2.00000
    442       0.3082      2.00000
    443       0.3425      2.00000
    444       0.3670      2.00000
    445       0.3909      2.00000
    446       0.4039      2.00000
    447       0.4049      2.00000
    448       0.4337      2.00000
    449       0.4501      2.00000
    450       0.4551      2.00000
    451       0.4695      2.00000
    452       0.5253      2.00000
    453       0.5289      2.00000
    454       0.5588      2.00000
    455       0.6197      2.00000
    456       0.6802      2.00000
    457       0.6993      2.00000
    458       0.7326      2.00000
    459       0.7619      2.00000
    460       0.7657      2.00000
    461       0.7659      2.00000
    462       0.7713      2.00000
    463       0.7865      2.00000
    464       0.7868      2.00000
    465       0.7971      2.00000
    466       0.8191      2.00000
    467       0.8354      2.00000
    468       0.8470      2.00000
    469       0.8747      2.00000
    470       0.9090      2.00000
    471       0.9564      2.00000
    472       0.9584      2.00000
    473       0.9630      2.00000
    474       0.9665      2.00000
    475       0.9774      2.00000
    476       1.0536      2.00000
    477       1.0605      2.00000
    478       1.1130      2.00000
    479       1.1275      2.00000
    480       1.1773      2.00000
    481       1.1805      2.00000
    482       1.1869      2.00000
    483       1.1883      2.00000
    484       1.2007      2.00000
    485       1.2112      2.00000
    486       1.2116      2.00000
    487       1.2294      2.00000
    488       1.2419      2.00000
    489       1.2847      2.00000
    490       1.2946      2.00000
    491       1.3099      2.00000
    492       1.3108      2.00000
    493       1.3245      2.00000
    494       1.3301      2.00000
    495       1.3313      2.00000
    496       1.3330      2.00000
    497       1.3449      2.00000
    498       1.3499      2.00000
    499       1.3800      2.00000
    500       1.3811      2.00000
    501       1.3962      2.00000
    502       1.3971      2.00000
    503       1.4381      2.00000
    504       1.5271      2.00000
    505       1.5348      2.00000
    506       1.5564      2.00000
    507       1.5786      2.00000
    508       1.6207      2.00000
    509       1.6457      2.00000
    510       1.7128      2.00000
    511       1.7129      2.00000
    512       1.7435      2.00000
    513       1.7503      2.00000
    514       1.8142      2.00000
    515       1.8206      2.00000
    516       1.8316      2.00000
    517       1.8888      2.00000
    518       1.9506      2.00000
    519       1.9729      2.00000
    520       1.9746      2.00000
    521       1.9821      2.00000
    522       1.9861      2.00000
    523       2.0026      2.00000
    524       2.9218      2.00000
    525       2.9495      2.00000
    526       6.7749      0.00000
    527       6.8859      0.00000
    528       7.3410      0.00000
    529       8.4673      0.00000
    530       8.5286      0.00000
    531       8.5369      0.00000
    532       8.6748      0.00000
    533       9.9082      0.00000
    534       9.9377      0.00000
    535       9.9757      0.00000
    536      10.0014      0.00000
    537      10.1464      0.00000
    538      10.2434      0.00000
    539      10.4122      0.00000
    540      10.4427      0.00000
    541      10.4506      0.00000
    542      10.4748      0.00000
    543      10.4873      0.00000
    544      10.5198      0.00000
    545      10.5386      0.00000
    546      10.8103      0.00000
    547      11.1465      0.00000
    548      11.3197      0.00000
    549      11.5358      0.00000
    550      11.5374      0.00000
    551      11.5651      0.00000
    552      11.5836      0.00000
    553      11.6011      0.00000
    554      11.6088      0.00000
    555      11.6091      0.00000
    556      11.6286      0.00000
    557      11.6378      0.00000
    558      11.6610      0.00000
    559      11.6749      0.00000
    560      11.7536      0.00000
    561      11.8234      0.00000
    562      11.8567      0.00000
    563      11.8786      0.00000
    564      11.9657      0.00000
    565      11.9869      0.00000
    566      12.1354      0.00000
    567      12.2139      0.00000
    568      12.2151      0.00000
    569      12.2661      0.00000
    570      12.2826      0.00000
    571      12.3206      0.00000
    572      12.3483      0.00000
    573      12.5842      0.00000
    574      12.6152      0.00000
    575      12.6884      0.00000
    576      12.7039      0.00000
    577      12.8039      0.00000
    578      12.8820      0.00000
    579      12.9296      0.00000
    580      12.9585      0.00000
    581      12.9636      0.00000
    582      12.9844      0.00000
    583      13.0055      0.00000
    584      13.0407      0.00000
    585      13.0490      0.00000
    586      13.0826      0.00000
    587      13.0909      0.00000
    588      13.1033      0.00000
    589      13.1116      0.00000
    590      13.1457      0.00000
    591      13.1742      0.00000
    592      13.2289      0.00000
    593      13.3017      0.00000
    594      13.3533      0.00000
    595      13.3633      0.00000
    596      13.4183      0.00000
    597      13.6471      0.00000
    598      13.6989      0.00000
    599      13.7178      0.00000
    600      13.8794      0.00000
    601      13.9849      0.00000
    602      14.0323      0.00000
    603      14.1019      0.00000
    604      14.1407      0.00000
    605      14.1800      0.00000
    606      14.3346      0.00000
    607      14.4134      0.00000
    608      14.6378      0.00000
    609      14.8488      0.00000
    610      14.8541      0.00000
    611      14.9217      0.00000
    612      14.9522      0.00000
    613      15.0355      0.00000
    614      15.0607      0.00000
    615      15.1132      0.00000
    616      15.1398      0.00000
    617      15.1474      0.00000
    618      15.1896      0.00000
    619      15.1955      0.00000
    620      15.2396      0.00000
    621      15.2860      0.00000
    622      15.2958      0.00000
    623      15.3997      0.00000
    624      15.4560      0.00000
    625      15.4609      0.00000
    626      15.4690      0.00000
    627      15.5660      0.00000
    628      15.7015      0.00000
    629      15.8931      0.00000
    630      15.9038      0.00000

 k-point     5 :       0.0000    0.0000    0.5000
  band No.  band energies     occupation 
      1     -18.5659      2.00000
      2     -18.5541      2.00000
      3     -18.3153      2.00000
      4     -18.2944      2.00000
      5     -18.0051      2.00000
      6     -17.9915      2.00000
      7     -17.9195      2.00000
      8     -17.9074      2.00000
      9     -17.9070      2.00000
     10     -17.8902      2.00000
     11     -17.7330      2.00000
     12     -17.7226      2.00000
     13     -17.7185      2.00000
     14     -17.7085      2.00000
     15     -17.6954      2.00000
     16     -17.6802      2.00000
     17     -17.6077      2.00000
     18     -17.5967      2.00000
     19     -17.5911      2.00000
     20     -17.5821      2.00000
     21     -17.5800      2.00000
     22     -17.5607      2.00000
     23     -17.5108      2.00000
     24     -17.4608      2.00000
     25     -17.4266      2.00000
     26     -17.4184      2.00000
     27     -17.4036      2.00000
     28     -17.3978      2.00000
     29     -17.3329      2.00000
     30     -17.3325      2.00000
     31     -17.3265      2.00000
     32     -17.3221      2.00000
     33     -17.3172      2.00000
     34     -17.3170      2.00000
     35     -17.3066      2.00000
     36     -17.2973      2.00000
     37     -17.2469      2.00000
     38     -17.2105      2.00000
     39     -17.2028      2.00000
     40     -17.1969      2.00000
     41     -17.1750      2.00000
     42     -17.1742      2.00000
     43     -17.1690      2.00000
     44     -17.1550      2.00000
     45     -17.1524      2.00000
     46     -17.1305      2.00000
     47     -17.1297      2.00000
     48     -17.0930      2.00000
     49     -17.0375      2.00000
     50     -17.0229      2.00000
     51     -17.0053      2.00000
     52     -16.9961      2.00000
     53     -16.9894      2.00000
     54     -16.9834      2.00000
     55     -16.9831      2.00000
     56     -16.9815      2.00000
     57     -16.9764      2.00000
     58     -16.9749      2.00000
     59     -16.9492      2.00000
     60     -16.9397      2.00000
     61     -16.9113      2.00000
     62     -16.8997      2.00000
     63     -16.8990      2.00000
     64     -16.8911      2.00000
     65     -16.8835      2.00000
     66     -16.8820      2.00000
     67     -16.8667      2.00000
     68     -16.8437      2.00000
     69     -16.8124      2.00000
     70     -16.7986      2.00000
     71     -16.7709      2.00000
     72     -13.3594      2.00000
     73     -13.0561      2.00000
     74     -13.0493      2.00000
     75     -13.0413      2.00000
     76     -13.0295      2.00000
     77     -13.0249      2.00000
     78     -13.0219      2.00000
     79     -13.0191      2.00000
     80     -13.0151      2.00000
     81     -13.0106      2.00000
     82     -13.0091      2.00000
     83     -13.0064      2.00000
     84     -12.9822      2.00000
     85     -12.9795      2.00000
     86     -12.9788      2.00000
     87     -12.9665      2.00000
     88     -12.9601      2.00000
     89     -12.9596      2.00000
     90     -12.9551      2.00000
     91     -12.9536      2.00000
     92     -12.9473      2.00000
     93     -12.9466      2.00000
     94     -12.9428      2.00000
     95     -12.9395      2.00000
     96     -12.9364      2.00000
     97     -12.9345      2.00000
     98     -12.9310      2.00000
     99     -12.9299      2.00000
    100     -12.9271      2.00000
    101     -12.9260      2.00000
    102     -12.9217      2.00000
    103     -12.9213      2.00000
    104     -12.9191      2.00000
    105     -12.9190      2.00000
    106     -12.9166      2.00000
    107     -12.9148      2.00000
    108     -12.9138      2.00000
    109     -12.9126      2.00000
    110     -12.9110      2.00000
    111     -12.9098      2.00000
    112     -12.9095      2.00000
    113     -12.9060      2.00000
    114     -12.9043      2.00000
    115     -12.9038      2.00000
    116     -12.9018      2.00000
    117     -12.9005      2.00000
    118     -12.8983      2.00000
    119     -12.8956      2.00000
    120     -12.8954      2.00000
    121     -12.8950      2.00000
    122     -12.8928      2.00000
    123     -12.8916      2.00000
    124     -12.8882      2.00000
    125     -12.8792      2.00000
    126     -12.8730      2.00000
    127     -12.8711      2.00000
    128     -12.8679      2.00000
    129     -12.8673      2.00000
    130     -12.8609      2.00000
    131     -12.8588      2.00000
    132     -12.8566      2.00000
    133     -12.8522      2.00000
    134     -12.8495      2.00000
    135     -12.8484      2.00000
    136     -12.8473      2.00000
    137     -12.8461      2.00000
    138     -12.8381      2.00000
    139     -12.8347      2.00000
    140     -12.8289      2.00000
    141     -12.8201      2.00000
    142     -12.8189      2.00000
    143     -12.8175      2.00000
    144     -12.8154      2.00000
    145     -12.8038      2.00000
    146     -12.8001      2.00000
    147     -12.7993      2.00000
    148     -12.7988      2.00000
    149     -12.7942      2.00000
    150     -12.7942      2.00000
    151     -12.7861      2.00000
    152     -12.7822      2.00000
    153     -12.7803      2.00000
    154     -12.7747      2.00000
    155     -12.7736      2.00000
    156     -12.7733      2.00000
    157     -12.7730      2.00000
    158     -12.7724      2.00000
    159     -12.7714      2.00000
    160     -12.7713      2.00000
    161     -12.7709      2.00000
    162     -12.7684      2.00000
    163     -12.7670      2.00000
    164     -12.7654      2.00000
    165     -12.7639      2.00000
    166     -12.7638      2.00000
    167     -12.7608      2.00000
    168     -12.7585      2.00000
    169     -12.7558      2.00000
    170     -12.7553      2.00000
    171     -12.7534      2.00000
    172     -12.7531      2.00000
    173     -12.7515      2.00000
    174     -12.7513      2.00000
    175     -12.7497      2.00000
    176     -12.7473      2.00000
    177     -12.7450      2.00000
    178     -12.7370      2.00000
    179     -12.7300      2.00000
    180     -12.7254      2.00000
    181     -12.7173      2.00000
    182     -12.7160      2.00000
    183     -12.7143      2.00000
    184     -12.7122      2.00000
    185     -12.7064      2.00000
    186     -12.7047      2.00000
    187     -12.7040      2.00000
    188     -12.7021      2.00000
    189     -12.6996      2.00000
    190     -12.6988      2.00000
    191     -12.6950      2.00000
    192     -12.6941      2.00000
    193     -12.6818      2.00000
    194     -12.6804      2.00000
    195     -12.6778      2.00000
    196     -12.6708      2.00000
    197     -12.6682      2.00000
    198     -12.6668      2.00000
    199     -12.6649      2.00000
    200     -12.6640      2.00000
    201     -12.6638      2.00000
    202     -12.6588      2.00000
    203     -12.6570      2.00000
    204     -12.6561      2.00000
    205     -12.6536      2.00000
    206     -12.6431      2.00000
    207     -12.6377      2.00000
    208     -12.6370      2.00000
    209     -12.6351      2.00000
    210     -12.6327      2.00000
    211     -12.6309      2.00000
    212     -12.6286      2.00000
    213     -12.6266      2.00000
    214     -12.6255      2.00000
    215     -12.6241      2.00000
    216     -12.6211      2.00000
    217     -12.6193      2.00000
    218     -12.6173      2.00000
    219     -12.6156      2.00000
    220     -12.6126      2.00000
    221     -12.6125      2.00000
    222     -12.6097      2.00000
    223     -12.6077      2.00000
    224     -12.6051      2.00000
    225     -12.6012      2.00000
    226     -12.6011      2.00000
    227     -12.6006      2.00000
    228     -12.5984      2.00000
    229     -12.5978      2.00000
    230     -12.5973      2.00000
    231     -12.5957      2.00000
    232     -12.5956      2.00000
    233     -12.5934      2.00000
    234     -12.5912      2.00000
    235     -12.5902      2.00000
    236     -12.5887      2.00000
    237     -12.5869      2.00000
    238     -12.5866      2.00000
    239     -12.5828      2.00000
    240     -12.5806      2.00000
    241     -12.5755      2.00000
    242     -12.5744      2.00000
    243     -12.5731      2.00000
    244     -12.5721      2.00000
    245     -12.5712      2.00000
    246     -12.5690      2.00000
    247     -12.5668      2.00000
    248     -12.5617      2.00000
    249     -12.5536      2.00000
    250     -12.5514      2.00000
    251     -12.5460      2.00000
    252     -12.5436      2.00000
    253     -12.5410      2.00000
    254     -12.5403      2.00000
    255     -12.5402      2.00000
    256     -12.5348      2.00000
    257     -12.5309      2.00000
    258     -12.5260      2.00000
    259     -12.5033      2.00000
    260     -12.4706      2.00000
    261     -12.4637      2.00000
    262     -12.4421      2.00000
    263     -12.4368      2.00000
    264     -12.4130      2.00000
    265     -12.4020      2.00000
    266     -12.3867      2.00000
    267     -12.3737      2.00000
    268     -12.3469      2.00000
    269     -12.3378      2.00000
    270     -12.3302      2.00000
    271     -12.3097      2.00000
    272     -12.3001      2.00000
    273     -12.2851      2.00000
    274     -12.2537      2.00000
    275     -12.2309      2.00000
    276     -12.2188      2.00000
    277     -12.2186      2.00000
    278     -12.1986      2.00000
    279     -12.1980      2.00000
    280     -12.1738      2.00000
    281     -12.1735      2.00000
    282     -12.1452      2.00000
    283     -12.1218      2.00000
    284     -12.0946      2.00000
    285     -12.0909      2.00000
    286     -12.0833      2.00000
    287     -12.0547      2.00000
    288     -11.9939      2.00000
    289     -11.9857      2.00000
    290     -11.9824      2.00000
    291     -11.9821      2.00000
    292     -11.9669      2.00000
    293     -11.9062      2.00000
    294     -11.8844      2.00000
    295     -11.8750      2.00000
    296     -11.8323      2.00000
    297     -11.8317      2.00000
    298     -11.8254      2.00000
    299     -11.8246      2.00000
    300     -11.8227      2.00000
    301     -11.7835      2.00000
    302     -11.7692      2.00000
    303     -11.7680      2.00000
    304     -11.7523      2.00000
    305     -11.6544      2.00000
    306     -11.6324      2.00000
    307     -10.9652      2.00000
    308      -4.8615      2.00000
    309      -4.8426      2.00000
    310      -4.6833      2.00000
    311      -4.6624      2.00000
    312      -4.6180      2.00000
    313      -4.6104      2.00000
    314      -4.6085      2.00000
    315      -4.5253      2.00000
    316      -4.3925      2.00000
    317      -4.3735      2.00000
    318      -4.3678      2.00000
    319      -4.3383      2.00000
    320      -4.1931      2.00000
    321      -4.1884      2.00000
    322      -4.1655      2.00000
    323      -4.1478      2.00000
    324      -4.1146      2.00000
    325      -4.1122      2.00000
    326      -4.0929      2.00000
    327      -4.0791      2.00000
    328      -4.0378      2.00000
    329      -3.9580      2.00000
    330      -3.8516      2.00000
    331      -3.8026      2.00000
    332      -3.7963      2.00000
    333      -3.7901      2.00000
    334      -3.7607      2.00000
    335      -3.7556      2.00000
    336      -3.7463      2.00000
    337      -3.7283      2.00000
    338      -3.6962      2.00000
    339      -3.4992      2.00000
    340      -3.4539      2.00000
    341      -3.4254      2.00000
    342      -3.4064      2.00000
    343      -3.3001      2.00000
    344      -3.1718      2.00000
    345      -2.9793      2.00000
    346      -2.9528      2.00000
    347      -2.9497      2.00000
    348      -2.9477      2.00000
    349      -2.8579      2.00000
    350      -2.7954      2.00000
    351      -2.7675      2.00000
    352      -2.6820      2.00000
    353      -2.6674      2.00000
    354      -2.6475      2.00000
    355      -2.6230      2.00000
    356      -2.5604      2.00000
    357      -2.4857      2.00000
    358      -2.4798      2.00000
    359      -2.3888      2.00000
    360      -2.3107      2.00000
    361      -2.2727      2.00000
    362      -2.2308      2.00000
    363      -2.2252      2.00000
    364      -2.2010      2.00000
    365      -2.1928      2.00000
    366      -2.1863      2.00000
    367      -2.1853      2.00000
    368      -2.1634      2.00000
    369      -2.1434      2.00000
    370      -2.1362      2.00000
    371      -2.0319      2.00000
    372      -2.0180      2.00000
    373      -1.9613      2.00000
    374      -1.8921      2.00000
    375      -1.8444      2.00000
    376      -1.7144      2.00000
    377      -1.6939      2.00000
    378      -1.6904      2.00000
    379      -1.6736      2.00000
    380      -1.5867      2.00000
    381      -1.5380      2.00000
    382      -1.4957      2.00000
    383      -1.4487      2.00000
    384      -1.3874      2.00000
    385      -1.3372      2.00000
    386      -1.3025      2.00000
    387      -1.2928      2.00000
    388      -1.2923      2.00000
    389      -1.2286      2.00000
    390      -1.2041      2.00000
    391      -1.1980      2.00000
    392      -1.1519      2.00000
    393      -1.1314      2.00000
    394      -1.0904      2.00000
    395      -1.0836      2.00000
    396      -1.0478      2.00000
    397      -0.9742      2.00000
    398      -0.9199      2.00000
    399      -0.9156      2.00000
    400      -0.8690      2.00000
    401      -0.8441      2.00000
    402      -0.8345      2.00000
    403      -0.8152      2.00000
    404      -0.7204      2.00000
    405      -0.6740      2.00000
    406      -0.6698      2.00000
    407      -0.6425      2.00000
    408      -0.6070      2.00000
    409      -0.5983      2.00000
    410      -0.5716      2.00000
    411      -0.5570      2.00000
    412      -0.5445      2.00000
    413      -0.4960      2.00000
    414      -0.4859      2.00000
    415      -0.4036      2.00000
    416      -0.3567      2.00000
    417      -0.3474      2.00000
    418      -0.2964      2.00000
    419      -0.2536      2.00000
    420      -0.2298      2.00000
    421      -0.2051      2.00000
    422      -0.1792      2.00000
    423      -0.1640      2.00000
    424      -0.1412      2.00000
    425      -0.1273      2.00000
    426      -0.1053      2.00000
    427      -0.0823      2.00000
    428      -0.0805      2.00000
    429      -0.0683      2.00000
    430      -0.0483      2.00000
    431      -0.0122      2.00000
    432       0.0041      2.00000
    433       0.0419      2.00000
    434       0.0864      2.00000
    435       0.0900      2.00000
    436       0.1211      2.00000
    437       0.1220      2.00000
    438       0.1339      2.00000
    439       0.1561      2.00000
    440       0.1822      2.00000
    441       0.2170      2.00000
    442       0.2265      2.00000
    443       0.2507      2.00000
    444       0.2641      2.00000
    445       0.3056      2.00000
    446       0.3165      2.00000
    447       0.3891      2.00000
    448       0.3904      2.00000
    449       0.4251      2.00000
    450       0.4379      2.00000
    451       0.4767      2.00000
    452       0.5484      2.00000
    453       0.5757      2.00000
    454       0.5782      2.00000
    455       0.6129      2.00000
    456       0.6560      2.00000
    457       0.6562      2.00000
    458       0.6833      2.00000
    459       0.6893      2.00000
    460       0.7063      2.00000
    461       0.7234      2.00000
    462       0.7727      2.00000
    463       0.8624      2.00000
    464       0.8742      2.00000
    465       0.8883      2.00000
    466       0.8935      2.00000
    467       0.9293      2.00000
    468       0.9493      2.00000
    469       0.9551      2.00000
    470       0.9594      2.00000
    471       0.9889      2.00000
    472       1.0151      2.00000
    473       1.0393      2.00000
    474       1.0493      2.00000
    475       1.0613      2.00000
    476       1.0689      2.00000
    477       1.0924      2.00000
    478       1.0935      2.00000
    479       1.1163      2.00000
    480       1.1527      2.00000
    481       1.1586      2.00000
    482       1.1746      2.00000
    483       1.1886      2.00000
    484       1.1999      2.00000
    485       1.2359      2.00000
    486       1.2488      2.00000
    487       1.2925      2.00000
    488       1.3038      2.00000
    489       1.3437      2.00000
    490       1.3994      2.00000
    491       1.4028      2.00000
    492       1.4279      2.00000
    493       1.4430      2.00000
    494       1.4450      2.00000
    495       1.4530      2.00000
    496       1.4652      2.00000
    497       1.4805      2.00000
    498       1.4828      2.00000
    499       1.4839      2.00000
    500       1.4970      2.00000
    501       1.4972      2.00000
    502       1.5119      2.00000
    503       1.5216      2.00000
    504       1.5252      2.00000
    505       1.5478      2.00000
    506       1.5606      2.00000
    507       1.5759      2.00000
    508       1.5804      2.00000
    509       1.5846      2.00000
    510       1.6265      2.00000
    511       1.6440      2.00000
    512       1.6674      2.00000
    513       1.6857      2.00000
    514       1.7002      2.00000
    515       1.7271      2.00000
    516       1.7801      2.00000
    517       1.7897      2.00000
    518       1.8106      2.00000
    519       1.8443      2.00000
    520       1.8564      2.00000
    521       1.8647      2.00000
    522       1.9270      2.00000
    523       1.9499      2.00000
    524       2.9400      2.00000
    525       3.0046      2.00000
    526       6.6464      0.00000
    527       7.0220      0.00000
    528       7.2875      0.00000
    529       7.7051      0.00000
    530       7.7906      0.00000
    531       9.1397      0.00000
    532       9.2408      0.00000
    533       9.8620      0.00000
    534       9.8987      0.00000
    535      10.4421      0.00000
    536      10.4905      0.00000
    537      10.5656      0.00000
    538      10.5792      0.00000
    539      10.6140      0.00000
    540      10.6215      0.00000
    541      10.6616      0.00000
    542      10.6857      0.00000
    543      10.8256      0.00000
    544      10.8458      0.00000
    545      10.8579      0.00000
    546      10.8595      0.00000
    547      10.8631      0.00000
    548      10.8678      0.00000
    549      10.8738      0.00000
    550      10.8935      0.00000
    551      10.9519      0.00000
    552      11.0261      0.00000
    553      11.0575      0.00000
    554      11.1033      0.00000
    555      11.1506      0.00000
    556      11.1753      0.00000
    557      11.2086      0.00000
    558      11.2856      0.00000
    559      11.3344      0.00000
    560      11.3780      0.00000
    561      11.4068      0.00000
    562      11.4930      0.00000
    563      11.5398      0.00000
    564      11.7393      0.00000
    565      11.8331      0.00000
    566      11.8478      0.00000
    567      12.1720      0.00000
    568      12.1829      0.00000
    569      12.2317      0.00000
    570      12.2541      0.00000
    571      12.2680      0.00000
    572      12.2814      0.00000
    573      12.3283      0.00000
    574      12.3315      0.00000
    575      12.3745      0.00000
    576      12.5431      0.00000
    577      12.5461      0.00000
    578      12.6305      0.00000
    579      12.6321      0.00000
    580      12.9563      0.00000
    581      13.1410      0.00000
    582      13.1674      0.00000
    583      13.1853      0.00000
    584      13.2956      0.00000
    585      13.3857      0.00000
    586      13.3872      0.00000
    587      13.3958      0.00000
    588      13.6059      0.00000
    589      13.6753      0.00000
    590      13.7124      0.00000
    591      13.7357      0.00000
    592      13.8495      0.00000
    593      13.9316      0.00000
    594      13.9390      0.00000
    595      13.9623      0.00000
    596      13.9643      0.00000
    597      13.9794      0.00000
    598      14.0001      0.00000
    599      14.0330      0.00000
    600      14.0349      0.00000
    601      14.0613      0.00000
    602      14.1785      0.00000
    603      14.2098      0.00000
    604      14.2700      0.00000
    605      14.3051      0.00000
    606      14.3387      0.00000
    607      14.3828      0.00000
    608      14.4668      0.00000
    609      14.5282      0.00000
    610      14.5656      0.00000
    611      14.5673      0.00000
    612      14.5999      0.00000
    613      14.6241      0.00000
    614      14.6308      0.00000
    615      14.6523      0.00000
    616      14.6711      0.00000
    617      14.7316      0.00000
    618      14.8108      0.00000
    619      14.8249      0.00000
    620      15.1614      0.00000
    621      15.2122      0.00000
    622      15.2224      0.00000
    623      15.2257      0.00000
    624      15.2418      0.00000
    625      15.2738      0.00000
    626      15.3706      0.00000
    627      15.5316      0.00000
    628      15.6220      0.00000
    629      15.6802      0.00000
    630      15.7071      0.00000

 k-point     6 :       0.5000    0.0000    0.5000
  band No.  band energies     occupation 
      1     -18.5202      2.00000
      2     -18.5029      2.00000
      3     -18.4097      2.00000
      4     -18.4018      2.00000
      5     -17.9210      2.00000
      6     -17.8956      2.00000
      7     -17.8865      2.00000
      8     -17.8677      2.00000
      9     -17.8662      2.00000
     10     -17.8543      2.00000
     11     -17.8164      2.00000
     12     -17.8054      2.00000
     13     -17.8044      2.00000
     14     -17.7817      2.00000
     15     -17.6649      2.00000
     16     -17.6620      2.00000
     17     -17.6100      2.00000
     18     -17.6003      2.00000
     19     -17.5878      2.00000
     20     -17.5364      2.00000
     21     -17.5323      2.00000
     22     -17.5218      2.00000
     23     -17.5036      2.00000
     24     -17.4885      2.00000
     25     -17.4068      2.00000
     26     -17.4045      2.00000
     27     -17.4043      2.00000
     28     -17.3867      2.00000
     29     -17.3603      2.00000
     30     -17.3561      2.00000
     31     -17.3524      2.00000
     32     -17.3489      2.00000
     33     -17.3436      2.00000
     34     -17.3374      2.00000
     35     -17.3022      2.00000
     36     -17.2921      2.00000
     37     -17.2432      2.00000
     38     -17.2318      2.00000
     39     -17.2051      2.00000
     40     -17.1964      2.00000
     41     -17.1656      2.00000
     42     -17.1638      2.00000
     43     -17.1583      2.00000
     44     -17.1531      2.00000
     45     -17.1420      2.00000
     46     -17.1284      2.00000
     47     -17.1175      2.00000
     48     -17.0849      2.00000
     49     -17.0348      2.00000
     50     -17.0148      2.00000
     51     -17.0092      2.00000
     52     -17.0039      2.00000
     53     -17.0025      2.00000
     54     -16.9922      2.00000
     55     -16.9867      2.00000
     56     -16.9726      2.00000
     57     -16.9703      2.00000
     58     -16.9702      2.00000
     59     -16.9541      2.00000
     60     -16.9400      2.00000
     61     -16.9090      2.00000
     62     -16.8985      2.00000
     63     -16.8971      2.00000
     64     -16.8927      2.00000
     65     -16.8853      2.00000
     66     -16.8810      2.00000
     67     -16.8668      2.00000
     68     -16.8413      2.00000
     69     -16.8105      2.00000
     70     -16.7995      2.00000
     71     -16.7721      2.00000
     72     -13.3596      2.00000
     73     -13.0564      2.00000
     74     -13.0548      2.00000
     75     -13.0356      2.00000
     76     -13.0266      2.00000
     77     -13.0254      2.00000
     78     -13.0204      2.00000
     79     -13.0192      2.00000
     80     -13.0153      2.00000
     81     -13.0121      2.00000
     82     -13.0093      2.00000
     83     -13.0060      2.00000
     84     -12.9824      2.00000
     85     -12.9726      2.00000
     86     -12.9623      2.00000
     87     -12.9595      2.00000
     88     -12.9565      2.00000
     89     -12.9556      2.00000
     90     -12.9544      2.00000
     91     -12.9510      2.00000
     92     -12.9497      2.00000
     93     -12.9440      2.00000
     94     -12.9430      2.00000
     95     -12.9410      2.00000
     96     -12.9409      2.00000
     97     -12.9397      2.00000
     98     -12.9381      2.00000
     99     -12.9352      2.00000
    100     -12.9316      2.00000
    101     -12.9306      2.00000
    102     -12.9265      2.00000
    103     -12.9236      2.00000
    104     -12.9219      2.00000
    105     -12.9196      2.00000
    106     -12.9153      2.00000
    107     -12.9137      2.00000
    108     -12.9131      2.00000
    109     -12.9113      2.00000
    110     -12.9109      2.00000
    111     -12.9060      2.00000
    112     -12.9047      2.00000
    113     -12.9037      2.00000
    114     -12.9021      2.00000
    115     -12.9018      2.00000
    116     -12.8996      2.00000
    117     -12.8992      2.00000
    118     -12.8989      2.00000
    119     -12.8977      2.00000
    120     -12.8968      2.00000
    121     -12.8966      2.00000
    122     -12.8930      2.00000
    123     -12.8922      2.00000
    124     -12.8874      2.00000
    125     -12.8787      2.00000
    126     -12.8727      2.00000
    127     -12.8724      2.00000
    128     -12.8679      2.00000
    129     -12.8566      2.00000
    130     -12.8551      2.00000
    131     -12.8521      2.00000
    132     -12.8508      2.00000
    133     -12.8499      2.00000
    134     -12.8498      2.00000
    135     -12.8473      2.00000
    136     -12.8442      2.00000
    137     -12.8429      2.00000
    138     -12.8422      2.00000
    139     -12.8376      2.00000
    140     -12.8301      2.00000
    141     -12.8245      2.00000
    142     -12.8244      2.00000
    143     -12.8215      2.00000
    144     -12.8158      2.00000
    145     -12.7989      2.00000
    146     -12.7987      2.00000
    147     -12.7946      2.00000
    148     -12.7939      2.00000
    149     -12.7939      2.00000
    150     -12.7918      2.00000
    151     -12.7874      2.00000
    152     -12.7854      2.00000
    153     -12.7830      2.00000
    154     -12.7821      2.00000
    155     -12.7757      2.00000
    156     -12.7751      2.00000
    157     -12.7742      2.00000
    158     -12.7733      2.00000
    159     -12.7718      2.00000
    160     -12.7715      2.00000
    161     -12.7708      2.00000
    162     -12.7706      2.00000
    163     -12.7687      2.00000
    164     -12.7638      2.00000
    165     -12.7636      2.00000
    166     -12.7601      2.00000
    167     -12.7595      2.00000
    168     -12.7575      2.00000
    169     -12.7520      2.00000
    170     -12.7519      2.00000
    171     -12.7506      2.00000
    172     -12.7499      2.00000
    173     -12.7489      2.00000
    174     -12.7477      2.00000
    175     -12.7464      2.00000
    176     -12.7459      2.00000
    177     -12.7354      2.00000
    178     -12.7321      2.00000
    179     -12.7295      2.00000
    180     -12.7240      2.00000
    181     -12.7190      2.00000
    182     -12.7189      2.00000
    183     -12.7155      2.00000
    184     -12.7081      2.00000
    185     -12.7055      2.00000
    186     -12.7047      2.00000
    187     -12.7008      2.00000
    188     -12.6982      2.00000
    189     -12.6978      2.00000
    190     -12.6967      2.00000
    191     -12.6959      2.00000
    192     -12.6910      2.00000
    193     -12.6882      2.00000
    194     -12.6873      2.00000
    195     -12.6827      2.00000
    196     -12.6823      2.00000
    197     -12.6708      2.00000
    198     -12.6672      2.00000
    199     -12.6668      2.00000
    200     -12.6640      2.00000
    201     -12.6637      2.00000
    202     -12.6623      2.00000
    203     -12.6588      2.00000
    204     -12.6560      2.00000
    205     -12.6511      2.00000
    206     -12.6445      2.00000
    207     -12.6423      2.00000
    208     -12.6370      2.00000
    209     -12.6333      2.00000
    210     -12.6324      2.00000
    211     -12.6305      2.00000
    212     -12.6302      2.00000
    213     -12.6286      2.00000
    214     -12.6264      2.00000
    215     -12.6230      2.00000
    216     -12.6212      2.00000
    217     -12.6201      2.00000
    218     -12.6193      2.00000
    219     -12.6151      2.00000
    220     -12.6140      2.00000
    221     -12.6127      2.00000
    222     -12.6086      2.00000
    223     -12.6069      2.00000
    224     -12.6040      2.00000
    225     -12.6036      2.00000
    226     -12.6033      2.00000
    227     -12.6003      2.00000
    228     -12.5999      2.00000
    229     -12.5988      2.00000
    230     -12.5978      2.00000
    231     -12.5961      2.00000
    232     -12.5938      2.00000
    233     -12.5911      2.00000
    234     -12.5905      2.00000
    235     -12.5902      2.00000
    236     -12.5896      2.00000
    237     -12.5864      2.00000
    238     -12.5860      2.00000
    239     -12.5848      2.00000
    240     -12.5826      2.00000
    241     -12.5824      2.00000
    242     -12.5803      2.00000
    243     -12.5758      2.00000
    244     -12.5750      2.00000
    245     -12.5698      2.00000
    246     -12.5675      2.00000
    247     -12.5624      2.00000
    248     -12.5607      2.00000
    249     -12.5596      2.00000
    250     -12.5524      2.00000
    251     -12.5497      2.00000
    252     -12.5409      2.00000
    253     -12.5380      2.00000
    254     -12.5341      2.00000
    255     -12.5321      2.00000
    256     -12.5305      2.00000
    257     -12.5264      2.00000
    258     -12.5247      2.00000
    259     -12.5225      2.00000
    260     -12.4800      2.00000
    261     -12.4702      2.00000
    262     -12.4650      2.00000
    263     -12.4570      2.00000
    264     -12.4504      2.00000
    265     -12.4363      2.00000
    266     -12.4044      2.00000
    267     -12.3999      2.00000
    268     -12.3895      2.00000
    269     -12.3404      2.00000
    270     -12.3216      2.00000
    271     -12.3207      2.00000
    272     -12.3116      2.00000
    273     -12.2866      2.00000
    274     -12.2838      2.00000
    275     -12.2659      2.00000
    276     -12.2583      2.00000
    277     -12.2449      2.00000
    278     -12.1884      2.00000
    279     -12.1784      2.00000
    280     -12.1720      2.00000
    281     -12.1608      2.00000
    282     -12.0874      2.00000
    283     -12.0579      2.00000
    284     -12.0318      2.00000
    285     -12.0186      2.00000
    286     -11.9678      2.00000
    287     -11.9670      2.00000
    288     -11.9542      2.00000
    289     -11.9516      2.00000
    290     -11.9467      2.00000
    291     -11.9358      2.00000
    292     -11.9259      2.00000
    293     -11.9075      2.00000
    294     -11.9027      2.00000
    295     -11.8855      2.00000
    296     -11.8760      2.00000
    297     -11.8743      2.00000
    298     -11.8650      2.00000
    299     -11.8611      2.00000
    300     -11.8580      2.00000
    301     -11.7974      2.00000
    302     -11.7633      2.00000
    303     -11.7538      2.00000
    304     -11.7459      2.00000
    305     -11.7235      2.00000
    306     -11.7073      2.00000
    307     -10.9672      2.00000
    308      -4.9703      2.00000
    309      -4.9364      2.00000
    310      -4.5326      2.00000
    311      -4.5226      2.00000
    312      -4.5059      2.00000
    313      -4.5000      2.00000
    314      -4.4955      2.00000
    315      -4.4667      2.00000
    316      -4.4230      2.00000
    317      -4.4175      2.00000
    318      -4.4044      2.00000
    319      -4.3042      2.00000
    320      -4.2475      2.00000
    321      -4.2443      2.00000
    322      -4.2280      2.00000
    323      -4.2008      2.00000
    324      -4.1230      2.00000
    325      -4.1005      2.00000
    326      -4.0819      2.00000
    327      -4.0610      2.00000
    328      -3.9949      2.00000
    329      -3.9842      2.00000
    330      -3.9793      2.00000
    331      -3.9502      2.00000
    332      -3.9146      2.00000
    333      -3.8799      2.00000
    334      -3.8017      2.00000
    335      -3.7920      2.00000
    336      -3.7798      2.00000
    337      -3.7665      2.00000
    338      -3.7638      2.00000
    339      -3.4334      2.00000
    340      -3.2835      2.00000
    341      -3.2148      2.00000
    342      -3.1584      2.00000
    343      -3.1277      2.00000
    344      -3.1035      2.00000
    345      -3.0816      2.00000
    346      -3.0692      2.00000
    347      -3.0502      2.00000
    348      -3.0400      2.00000
    349      -3.0296      2.00000
    350      -3.0166      2.00000
    351      -2.8019      2.00000
    352      -2.7759      2.00000
    353      -2.7505      2.00000
    354      -2.7306      2.00000
    355      -2.6666      2.00000
    356      -2.5017      2.00000
    357      -2.4728      2.00000
    358      -2.4410      2.00000
    359      -2.3017      2.00000
    360      -2.2892      2.00000
    361      -2.2736      2.00000
    362      -2.2722      2.00000
    363      -2.2349      2.00000
    364      -2.1724      2.00000
    365      -2.1615      2.00000
    366      -2.0715      2.00000
    367      -2.0273      2.00000
    368      -2.0036      2.00000
    369      -1.9922      2.00000
    370      -1.8537      2.00000
    371      -1.8005      2.00000
    372      -1.7916      2.00000
    373      -1.7519      2.00000
    374      -1.7358      2.00000
    375      -1.7195      2.00000
    376      -1.7178      2.00000
    377      -1.7161      2.00000
    378      -1.6732      2.00000
    379      -1.6712      2.00000
    380      -1.6418      2.00000
    381      -1.5982      2.00000
    382      -1.5682      2.00000
    383      -1.5345      2.00000
    384      -1.5101      2.00000
    385      -1.4739      2.00000
    386      -1.4573      2.00000
    387      -1.4224      2.00000
    388      -1.3646      2.00000
    389      -1.3519      2.00000
    390      -1.3258      2.00000
    391      -1.2873      2.00000
    392      -1.2798      2.00000
    393      -1.2671      2.00000
    394      -1.2109      2.00000
    395      -1.1558      2.00000
    396      -1.0435      2.00000
    397      -0.9661      2.00000
    398      -0.9610      2.00000
    399      -0.9341      2.00000
    400      -0.9334      2.00000
    401      -0.9063      2.00000
    402      -0.8672      2.00000
    403      -0.8627      2.00000
    404      -0.8305      2.00000
    405      -0.8039      2.00000
    406      -0.7629      2.00000
    407      -0.6860      2.00000
    408      -0.5982      2.00000
    409      -0.5263      2.00000
    410      -0.5034      2.00000
    411      -0.4767      2.00000
    412      -0.4122      2.00000
    413      -0.3965      2.00000
    414      -0.3767      2.00000
    415      -0.3244      2.00000
    416      -0.3065      2.00000
    417      -0.2993      2.00000
    418      -0.2618      2.00000
    419      -0.2571      2.00000
    420      -0.2151      2.00000
    421      -0.2025      2.00000
    422      -0.1825      2.00000
    423      -0.1705      2.00000
    424      -0.1384      2.00000
    425      -0.1327      2.00000
    426      -0.0908      2.00000
    427      -0.0696      2.00000
    428      -0.0634      2.00000
    429      -0.0343      2.00000
    430      -0.0142      2.00000
    431       0.0068      2.00000
    432       0.0582      2.00000
    433       0.0593      2.00000
    434       0.0889      2.00000
    435       0.1027      2.00000
    436       0.1041      2.00000
    437       0.1305      2.00000
    438       0.1462      2.00000
    439       0.1583      2.00000
    440       0.2038      2.00000
    441       0.2440      2.00000
    442       0.2897      2.00000
    443       0.2970      2.00000
    444       0.3082      2.00000
    445       0.3276      2.00000
    446       0.3576      2.00000
    447       0.4127      2.00000
    448       0.4203      2.00000
    449       0.4533      2.00000
    450       0.5334      2.00000
    451       0.5387      2.00000
    452       0.5504      2.00000
    453       0.5958      2.00000
    454       0.6042      2.00000
    455       0.6246      2.00000
    456       0.6338      2.00000
    457       0.6393      2.00000
    458       0.6472      2.00000
    459       0.6596      2.00000
    460       0.7198      2.00000
    461       0.7273      2.00000
    462       0.7370      2.00000
    463       0.7646      2.00000
    464       0.7962      2.00000
    465       0.8124      2.00000
    466       0.8532      2.00000
    467       0.8627      2.00000
    468       0.8701      2.00000
    469       0.8896      2.00000
    470       0.9935      2.00000
    471       1.0097      2.00000
    472       1.0102      2.00000
    473       1.0136      2.00000
    474       1.0511      2.00000
    475       1.0613      2.00000
    476       1.0760      2.00000
    477       1.0912      2.00000
    478       1.1084      2.00000
    479       1.1294      2.00000
    480       1.1311      2.00000
    481       1.1400      2.00000
    482       1.1895      2.00000
    483       1.2006      2.00000
    484       1.2272      2.00000
    485       1.2602      2.00000
    486       1.2753      2.00000
    487       1.2827      2.00000
    488       1.2868      2.00000
    489       1.3175      2.00000
    490       1.3367      2.00000
    491       1.3639      2.00000
    492       1.3815      2.00000
    493       1.3888      2.00000
    494       1.4016      2.00000
    495       1.4358      2.00000
    496       1.4398      2.00000
    497       1.4406      2.00000
    498       1.4476      2.00000
    499       1.4575      2.00000
    500       1.4686      2.00000
    501       1.4828      2.00000
    502       1.5076      2.00000
    503       1.5081      2.00000
    504       1.5677      2.00000
    505       1.5740      2.00000
    506       1.5774      2.00000
    507       1.5861      2.00000
    508       1.5896      2.00000
    509       1.6082      2.00000
    510       1.6163      2.00000
    511       1.6347      2.00000
    512       1.6692      2.00000
    513       1.7270      2.00000
    514       1.7437      2.00000
    515       1.7526      2.00000
    516       1.7541      2.00000
    517       1.7572      2.00000
    518       1.7665      2.00000
    519       1.8785      2.00000
    520       1.9169      2.00000
    521       1.9481      2.00000
    522       1.9692      2.00000
    523       1.9942      2.00000
    524       2.9383      2.00000
    525       3.0023      2.00000
    526       6.6653      0.00000
    527       7.0221      0.00000
    528       7.2894      0.00000
    529       7.9953      0.00000
    530       8.0430      0.00000
    531       8.5345      0.00000
    532       8.6353      0.00000
    533      10.2451      0.00000
    534      10.2775      0.00000
    535      10.3751      0.00000
    536      10.4266      0.00000
    537      10.6265      0.00000
    538      10.6322      0.00000
    539      10.6332      0.00000
    540      10.6417      0.00000
    541      10.6573      0.00000
    542      10.6731      0.00000
    543      10.6918      0.00000
    544      10.7135      0.00000
    545      10.7191      0.00000
    546      10.7364      0.00000
    547      10.7618      0.00000
    548      10.7906      0.00000
    549      10.8212      0.00000
    550      10.9784      0.00000
    551      10.9916      0.00000
    552      11.0462      0.00000
    553      11.1084      0.00000
    554      11.1414      0.00000
    555      11.1988      0.00000
    556      11.2201      0.00000
    557      11.3077      0.00000
    558      11.3476      0.00000
    559      11.3661      0.00000
    560      11.4735      0.00000
    561      11.6275      0.00000
    562      11.6577      0.00000
    563      11.6618      0.00000
    564      11.6960      0.00000
    565      11.7248      0.00000
    566      11.8276      0.00000
    567      11.9724      0.00000
    568      11.9876      0.00000
    569      12.0402      0.00000
    570      12.4414      0.00000
    571      12.4836      0.00000
    572      12.5210      0.00000
    573      12.5788      0.00000
    574      12.5831      0.00000
    575      12.5901      0.00000
    576      12.6666      0.00000
    577      12.6859      0.00000
    578      12.7100      0.00000
    579      12.7290      0.00000
    580      12.8493      0.00000
    581      12.8999      0.00000
    582      12.9821      0.00000
    583      13.1043      0.00000
    584      13.1859      0.00000
    585      13.2706      0.00000
    586      13.3289      0.00000
    587      13.3580      0.00000
    588      13.4510      0.00000
    589      13.5582      0.00000
    590      13.5628      0.00000
    591      13.5823      0.00000
    592      13.6863      0.00000
    593      13.7263      0.00000
    594      13.7541      0.00000
    595      13.7747      0.00000
    596      13.8476      0.00000
    597      13.8494      0.00000
    598      13.9656      0.00000
    599      13.9967      0.00000
    600      14.0370      0.00000
    601      14.0593      0.00000
    602      14.1048      0.00000
    603      14.1816      0.00000
    604      14.2870      0.00000
    605      14.3933      0.00000
    606      14.4021      0.00000
    607      14.4043      0.00000
    608      14.4088      0.00000
    609      14.4211      0.00000
    610      14.4390      0.00000
    611      14.5197      0.00000
    612      14.5529      0.00000
    613      14.6024      0.00000
    614      14.6603      0.00000
    615      14.7006      0.00000
    616      14.9050      0.00000
    617      14.9091      0.00000
    618      14.9990      0.00000
    619      15.0068      0.00000
    620      15.1202      0.00000
    621      15.1646      0.00000
    622      15.2648      0.00000
    623      15.4187      0.00000
    624      15.5167      0.00000
    625      15.5339      0.00000
    626      15.5907      0.00000
    627      15.6224      0.00000
    628      15.7208      0.00000
    629      15.7513      0.00000
    630      15.7881      0.00000

 k-point     7 :       0.0000    0.5000    0.5000
  band No.  band energies     occupation 
      1     -18.3859      2.00000
      2     -18.3779      2.00000
      3     -18.3644      2.00000
      4     -18.3429      2.00000
      5     -18.1457      2.00000
      6     -18.1425      2.00000
      7     -18.1270      2.00000
      8     -18.0885      2.00000
      9     -17.8838      2.00000
     10     -17.8702      2.00000
     11     -17.8658      2.00000
     12     -17.8440      2.00000
     13     -17.6146      2.00000
     14     -17.5982      2.00000
     15     -17.5969      2.00000
     16     -17.5842      2.00000
     17     -17.5515      2.00000
     18     -17.5424      2.00000
     19     -17.5356      2.00000
     20     -17.5021      2.00000
     21     -17.4989      2.00000
     22     -17.4923      2.00000
     23     -17.4816      2.00000
     24     -17.4758      2.00000
     25     -17.4479      2.00000
     26     -17.4338      2.00000
     27     -17.4168      2.00000
     28     -17.3837      2.00000
     29     -17.3749      2.00000
     30     -17.3699      2.00000
     31     -17.3446      2.00000
     32     -17.3296      2.00000
     33     -17.2835      2.00000
     34     -17.2751      2.00000
     35     -17.2738      2.00000
     36     -17.2695      2.00000
     37     -17.2581      2.00000
     38     -17.2476      2.00000
     39     -17.2312      2.00000
     40     -17.2239      2.00000
     41     -17.1948      2.00000
     42     -17.1934      2.00000
     43     -17.1789      2.00000
     44     -17.1638      2.00000
     45     -17.1570      2.00000
     46     -17.1199      2.00000
     47     -17.1142      2.00000
     48     -17.0993      2.00000
     49     -17.0610      2.00000
     50     -17.0571      2.00000
     51     -17.0465      2.00000
     52     -17.0319      2.00000
     53     -16.9971      2.00000
     54     -16.9856      2.00000
     55     -16.9823      2.00000
     56     -16.9503      2.00000
     57     -16.9474      2.00000
     58     -16.9458      2.00000
     59     -16.9361      2.00000
     60     -16.9244      2.00000
     61     -16.9241      2.00000
     62     -16.9212      2.00000
     63     -16.9099      2.00000
     64     -16.8880      2.00000
     65     -16.8567      2.00000
     66     -16.8481      2.00000
     67     -16.8433      2.00000
     68     -16.8298      2.00000
     69     -16.8233      2.00000
     70     -16.8232      2.00000
     71     -16.7874      2.00000
     72     -13.3588      2.00000
     73     -13.0420      2.00000
     74     -13.0383      2.00000
     75     -13.0383      2.00000
     76     -13.0290      2.00000
     77     -13.0230      2.00000
     78     -13.0139      2.00000
     79     -13.0056      2.00000
     80     -13.0039      2.00000
     81     -13.0016      2.00000
     82     -13.0008      2.00000
     83     -12.9956      2.00000
     84     -12.9948      2.00000
     85     -12.9914      2.00000
     86     -12.9895      2.00000
     87     -12.9832      2.00000
     88     -12.9770      2.00000
     89     -12.9703      2.00000
     90     -12.9699      2.00000
     91     -12.9649      2.00000
     92     -12.9644      2.00000
     93     -12.9641      2.00000
     94     -12.9618      2.00000
     95     -12.9592      2.00000
     96     -12.9473      2.00000
     97     -12.9428      2.00000
     98     -12.9417      2.00000
     99     -12.9338      2.00000
    100     -12.9315      2.00000
    101     -12.9310      2.00000
    102     -12.9289      2.00000
    103     -12.9286      2.00000
    104     -12.9277      2.00000
    105     -12.9250      2.00000
    106     -12.9245      2.00000
    107     -12.9173      2.00000
    108     -12.9140      2.00000
    109     -12.9120      2.00000
    110     -12.9108      2.00000
    111     -12.9099      2.00000
    112     -12.9058      2.00000
    113     -12.9055      2.00000
    114     -12.9039      2.00000
    115     -12.9033      2.00000
    116     -12.8996      2.00000
    117     -12.8984      2.00000
    118     -12.8983      2.00000
    119     -12.8971      2.00000
    120     -12.8925      2.00000
    121     -12.8896      2.00000
    122     -12.8887      2.00000
    123     -12.8878      2.00000
    124     -12.8875      2.00000
    125     -12.8853      2.00000
    126     -12.8810      2.00000
    127     -12.8765      2.00000
    128     -12.8762      2.00000
    129     -12.8749      2.00000
    130     -12.8702      2.00000
    131     -12.8671      2.00000
    132     -12.8640      2.00000
    133     -12.8585      2.00000
    134     -12.8492      2.00000
    135     -12.8480      2.00000
    136     -12.8387      2.00000
    137     -12.8356      2.00000
    138     -12.8344      2.00000
    139     -12.8340      2.00000
    140     -12.8118      2.00000
    141     -12.8080      2.00000
    142     -12.8077      2.00000
    143     -12.8060      2.00000
    144     -12.8060      2.00000
    145     -12.8009      2.00000
    146     -12.7991      2.00000
    147     -12.7988      2.00000
    148     -12.7964      2.00000
    149     -12.7954      2.00000
    150     -12.7953      2.00000
    151     -12.7911      2.00000
    152     -12.7908      2.00000
    153     -12.7861      2.00000
    154     -12.7860      2.00000
    155     -12.7836      2.00000
    156     -12.7824      2.00000
    157     -12.7785      2.00000
    158     -12.7757      2.00000
    159     -12.7734      2.00000
    160     -12.7701      2.00000
    161     -12.7684      2.00000
    162     -12.7646      2.00000
    163     -12.7638      2.00000
    164     -12.7624      2.00000
    165     -12.7620      2.00000
    166     -12.7571      2.00000
    167     -12.7540      2.00000
    168     -12.7497      2.00000
    169     -12.7477      2.00000
    170     -12.7444      2.00000
    171     -12.7428      2.00000
    172     -12.7423      2.00000
    173     -12.7350      2.00000
    174     -12.7345      2.00000
    175     -12.7301      2.00000
    176     -12.7299      2.00000
    177     -12.7297      2.00000
    178     -12.7273      2.00000
    179     -12.7264      2.00000
    180     -12.7260      2.00000
    181     -12.7253      2.00000
    182     -12.7235      2.00000
    183     -12.7225      2.00000
    184     -12.7159      2.00000
    185     -12.7131      2.00000
    186     -12.7121      2.00000
    187     -12.7113      2.00000
    188     -12.7096      2.00000
    189     -12.7080      2.00000
    190     -12.7055      2.00000
    191     -12.7055      2.00000
    192     -12.7054      2.00000
    193     -12.7038      2.00000
    194     -12.7006      2.00000
    195     -12.7006      2.00000
    196     -12.6997      2.00000
    197     -12.6914      2.00000
    198     -12.6837      2.00000
    199     -12.6837      2.00000
    200     -12.6677      2.00000
    201     -12.6562      2.00000
    202     -12.6555      2.00000
    203     -12.6523      2.00000
    204     -12.6485      2.00000
    205     -12.6473      2.00000
    206     -12.6444      2.00000
    207     -12.6440      2.00000
    208     -12.6430      2.00000
    209     -12.6320      2.00000
    210     -12.6289      2.00000
    211     -12.6272      2.00000
    212     -12.6260      2.00000
    213     -12.6238      2.00000
    214     -12.6203      2.00000
    215     -12.6197      2.00000
    216     -12.6147      2.00000
    217     -12.6132      2.00000
    218     -12.6118      2.00000
    219     -12.6094      2.00000
    220     -12.6093      2.00000
    221     -12.6074      2.00000
    222     -12.6017      2.00000
    223     -12.5980      2.00000
    224     -12.5960      2.00000
    225     -12.5938      2.00000
    226     -12.5921      2.00000
    227     -12.5883      2.00000
    228     -12.5874      2.00000
    229     -12.5854      2.00000
    230     -12.5828      2.00000
    231     -12.5822      2.00000
    232     -12.5807      2.00000
    233     -12.5790      2.00000
    234     -12.5748      2.00000
    235     -12.5738      2.00000
    236     -12.5699      2.00000
    237     -12.5695      2.00000
    238     -12.5672      2.00000
    239     -12.5660      2.00000
    240     -12.5640      2.00000
    241     -12.5594      2.00000
    242     -12.5563      2.00000
    243     -12.5528      2.00000
    244     -12.5512      2.00000
    245     -12.5492      2.00000
    246     -12.5462      2.00000
    247     -12.5442      2.00000
    248     -12.5429      2.00000
    249     -12.5421      2.00000
    250     -12.5364      2.00000
    251     -12.5349      2.00000
    252     -12.5303      2.00000
    253     -12.5275      2.00000
    254     -12.5268      2.00000
    255     -12.5237      2.00000
    256     -12.5205      2.00000
    257     -12.5200      2.00000
    258     -12.5130      2.00000
    259     -12.5115      2.00000
    260     -12.5073      2.00000
    261     -12.5056      2.00000
    262     -12.5028      2.00000
    263     -12.4965      2.00000
    264     -12.4125      2.00000
    265     -12.4080      2.00000
    266     -12.3594      2.00000
    267     -12.3592      2.00000
    268     -12.3537      2.00000
    269     -12.3355      2.00000
    270     -12.3316      2.00000
    271     -12.3239      2.00000
    272     -12.3211      2.00000
    273     -12.3205      2.00000
    274     -12.3164      2.00000
    275     -12.3078      2.00000
    276     -12.2733      2.00000
    277     -12.2289      2.00000
    278     -12.2268      2.00000
    279     -12.2171      2.00000
    280     -12.1982      2.00000
    281     -12.1490      2.00000
    282     -12.1408      2.00000
    283     -12.1375      2.00000
    284     -12.0674      2.00000
    285     -12.0405      2.00000
    286     -12.0372      2.00000
    287     -12.0324      2.00000
    288     -12.0214      2.00000
    289     -12.0119      2.00000
    290     -12.0018      2.00000
    291     -11.9854      2.00000
    292     -11.9618      2.00000
    293     -11.9545      2.00000
    294     -11.9508      2.00000
    295     -11.9076      2.00000
    296     -11.8160      2.00000
    297     -11.7985      2.00000
    298     -11.7841      2.00000
    299     -11.7826      2.00000
    300     -11.7821      2.00000
    301     -11.7692      2.00000
    302     -11.7669      2.00000
    303     -11.7210      2.00000
    304     -11.6933      2.00000
    305     -11.6817      2.00000
    306     -11.6730      2.00000
    307     -10.9463      2.00000
    308      -4.7211      2.00000
    309      -4.7200      2.00000
    310      -4.7181      2.00000
    311      -4.7171      2.00000
    312      -4.7165      2.00000
    313      -4.7146      2.00000
    314      -4.6916      2.00000
    315      -4.6564      2.00000
    316      -4.5095      2.00000
    317      -4.5064      2.00000
    318      -4.4980      2.00000
    319      -4.4804      2.00000
    320      -4.4793      2.00000
    321      -4.4678      2.00000
    322      -4.4584      2.00000
    323      -4.3762      2.00000
    324      -4.2541      2.00000
    325      -4.2467      2.00000
    326      -4.2347      2.00000
    327      -4.1210      2.00000
    328      -3.9495      2.00000
    329      -3.9362      2.00000
    330      -3.9219      2.00000
    331      -3.7857      2.00000
    332      -3.7733      2.00000
    333      -3.7257      2.00000
    334      -3.7215      2.00000
    335      -3.6937      2.00000
    336      -3.6518      2.00000
    337      -3.6379      2.00000
    338      -3.6291      2.00000
    339      -3.5926      2.00000
    340      -3.4203      2.00000
    341      -3.4020      2.00000
    342      -3.3981      2.00000
    343      -3.0549      2.00000
    344      -2.9983      2.00000
    345      -2.9259      2.00000
    346      -2.9070      2.00000
    347      -2.8878      2.00000
    348      -2.8802      2.00000
    349      -2.8650      2.00000
    350      -2.8522      2.00000
    351      -2.8444      2.00000
    352      -2.5144      2.00000
    353      -2.4890      2.00000
    354      -2.4466      2.00000
    355      -2.4372      2.00000
    356      -2.3833      2.00000
    357      -2.3719      2.00000
    358      -2.3498      2.00000
    359      -2.3387      2.00000
    360      -2.2787      2.00000
    361      -2.2452      2.00000
    362      -2.2229      2.00000
    363      -2.1439      2.00000
    364      -2.0039      2.00000
    365      -1.9203      2.00000
    366      -1.9193      2.00000
    367      -1.8885      2.00000
    368      -1.8485      2.00000
    369      -1.8411      2.00000
    370      -1.8016      2.00000
    371      -1.7977      2.00000
    372      -1.7641      2.00000
    373      -1.7588      2.00000
    374      -1.7547      2.00000
    375      -1.7429      2.00000
    376      -1.7360      2.00000
    377      -1.7093      2.00000
    378      -1.7029      2.00000
    379      -1.5566      2.00000
    380      -1.5136      2.00000
    381      -1.5087      2.00000
    382      -1.4677      2.00000
    383      -1.4511      2.00000
    384      -1.4019      2.00000
    385      -1.3920      2.00000
    386      -1.3279      2.00000
    387      -1.2762      2.00000
    388      -1.2652      2.00000
    389      -1.2405      2.00000
    390      -1.2401      2.00000
    391      -1.2201      2.00000
    392      -1.2003      2.00000
    393      -1.1643      2.00000
    394      -1.1628      2.00000
    395      -1.0803      2.00000
    396      -1.0572      2.00000
    397      -1.0380      2.00000
    398      -0.9572      2.00000
    399      -0.9081      2.00000
    400      -0.8892      2.00000
    401      -0.8867      2.00000
    402      -0.8336      2.00000
    403      -0.8140      2.00000
    404      -0.7429      2.00000
    405      -0.7291      2.00000
    406      -0.6836      2.00000
    407      -0.6802      2.00000
    408      -0.6240      2.00000
    409      -0.6108      2.00000
    410      -0.5984      2.00000
    411      -0.5879      2.00000
    412      -0.5862      2.00000
    413      -0.5810      2.00000
    414      -0.5721      2.00000
    415      -0.5674      2.00000
    416      -0.5526      2.00000
    417      -0.5330      2.00000
    418      -0.5183      2.00000
    419      -0.5054      2.00000
    420      -0.4106      2.00000
    421      -0.4001      2.00000
    422      -0.3696      2.00000
    423      -0.3420      2.00000
    424      -0.2102      2.00000
    425      -0.1217      2.00000
    426      -0.0232      2.00000
    427       0.0110      2.00000
    428       0.0341      2.00000
    429       0.0352      2.00000
    430       0.0893      2.00000
    431       0.0963      2.00000
    432       0.1184      2.00000
    433       0.1499      2.00000
    434       0.1710      2.00000
    435       0.1991      2.00000
    436       0.2133      2.00000
    437       0.2255      2.00000
    438       0.2386      2.00000
    439       0.2504      2.00000
    440       0.2598      2.00000
    441       0.2667      2.00000
    442       0.3170      2.00000
    443       0.3435      2.00000
    444       0.3508      2.00000
    445       0.3554      2.00000
    446       0.3683      2.00000
    447       0.3816      2.00000
    448       0.4131      2.00000
    449       0.4302      2.00000
    450       0.4635      2.00000
    451       0.4702      2.00000
    452       0.4721      2.00000
    453       0.5505      2.00000
    454       0.5811      2.00000
    455       0.5864      2.00000
    456       0.6015      2.00000
    457       0.6081      2.00000
    458       0.6121      2.00000
    459       0.6195      2.00000
    460       0.6390      2.00000
    461       0.6448      2.00000
    462       0.6764      2.00000
    463       0.6797      2.00000
    464       0.7171      2.00000
    465       0.7316      2.00000
    466       0.7341      2.00000
    467       0.7797      2.00000
    468       0.8005      2.00000
    469       0.8115      2.00000
    470       0.8245      2.00000
    471       0.8492      2.00000
    472       0.8869      2.00000
    473       0.8930      2.00000
    474       0.8979      2.00000
    475       0.9753      2.00000
    476       1.0057      2.00000
    477       1.0366      2.00000
    478       1.0677      2.00000
    479       1.1138      2.00000
    480       1.1178      2.00000
    481       1.1408      2.00000
    482       1.1512      2.00000
    483       1.1769      2.00000
    484       1.1775      2.00000
    485       1.1842      2.00000
    486       1.1854      2.00000
    487       1.1966      2.00000
    488       1.2274      2.00000
    489       1.2744      2.00000
    490       1.3067      2.00000
    491       1.3077      2.00000
    492       1.3254      2.00000
    493       1.3501      2.00000
    494       1.3527      2.00000
    495       1.3724      2.00000
    496       1.4137      2.00000
    497       1.4225      2.00000
    498       1.4514      2.00000
    499       1.4805      2.00000
    500       1.4872      2.00000
    501       1.4923      2.00000
    502       1.5013      2.00000
    503       1.5190      2.00000
    504       1.5630      2.00000
    505       1.5933      2.00000
    506       1.5954      2.00000
    507       1.5981      2.00000
    508       1.6320      2.00000
    509       1.6332      2.00000
    510       1.6474      2.00000
    511       1.6649      2.00000
    512       1.6696      2.00000
    513       1.6826      2.00000
    514       1.6936      2.00000
    515       1.7096      2.00000
    516       1.7189      2.00000
    517       1.7434      2.00000
    518       1.7482      2.00000
    519       1.8140      2.00000
    520       1.9201      2.00000
    521       2.0040      2.00000
    522       2.0057      2.00000
    523       2.0284      2.00000
    524       2.9103      2.00000
    525       2.9659      2.00000
    526       6.6894      0.00000
    527       6.8912      0.00000
    528       7.3699      0.00000
    529       8.6572      0.00000
    530       8.7221      0.00000
    531       8.7308      0.00000
    532       8.8223      0.00000
    533       9.7385      0.00000
    534       9.7750      0.00000
    535       9.8002      0.00000
    536       9.9189      0.00000
    537      10.3462      0.00000
    538      10.3613      0.00000
    539      10.4048      0.00000
    540      10.5142      0.00000
    541      10.6371      0.00000
    542      10.6527      0.00000
    543      10.6653      0.00000
    544      10.8039      0.00000
    545      10.8191      0.00000
    546      10.8267      0.00000
    547      10.8463      0.00000
    548      11.0390      0.00000
    549      11.2511      0.00000
    550      11.2651      0.00000
    551      11.2729      0.00000
    552      11.3969      0.00000
    553      11.6478      0.00000
    554      11.6873      0.00000
    555      11.6991      0.00000
    556      11.7000      0.00000
    557      11.7118      0.00000
    558      11.7373      0.00000
    559      11.7551      0.00000
    560      11.7982      0.00000
    561      11.8787      0.00000
    562      11.8870      0.00000
    563      11.9183      0.00000
    564      11.9598      0.00000
    565      11.9617      0.00000
    566      12.0300      0.00000
    567      12.0362      0.00000
    568      12.2250      0.00000
    569      12.3394      0.00000
    570      12.3627      0.00000
    571      12.3876      0.00000
    572      12.3877      0.00000
    573      12.4423      0.00000
    574      12.4532      0.00000
    575      12.4536      0.00000
    576      12.4961      0.00000
    577      12.5011      0.00000
    578      12.5244      0.00000
    579      12.6071      0.00000
    580      12.6436      0.00000
    581      12.6898      0.00000
    582      12.6921      0.00000
    583      12.7541      0.00000
    584      13.0367      0.00000
    585      13.0654      0.00000
    586      13.0846      0.00000
    587      13.1407      0.00000
    588      13.3523      0.00000
    589      13.3799      0.00000
    590      13.3823      0.00000
    591      13.4689      0.00000
    592      13.5623      0.00000
    593      13.5654      0.00000
    594      13.5829      0.00000
    595      13.5907      0.00000
    596      13.6228      0.00000
    597      13.6900      0.00000
    598      13.6956      0.00000
    599      13.9129      0.00000
    600      13.9550      0.00000
    601      14.3918      0.00000
    602      14.4193      0.00000
    603      14.4217      0.00000
    604      14.5111      0.00000
    605      14.5425      0.00000
    606      14.5590      0.00000
    607      14.5910      0.00000
    608      14.6061      0.00000
    609      14.6178      0.00000
    610      14.6588      0.00000
    611      14.6602      0.00000
    612      14.7120      0.00000
    613      14.7331      0.00000
    614      14.7553      0.00000
    615      14.7796      0.00000
    616      14.7898      0.00000
    617      14.8625      0.00000
    618      14.9012      0.00000
    619      14.9317      0.00000
    620      15.0466      0.00000
    621      15.2457      0.00000
    622      15.2517      0.00000
    623      15.3537      0.00000
    624      15.4660      0.00000
    625      15.5076      0.00000
    626      15.5484      0.00000
    627      15.6643      0.00000
    628      15.6810      0.00000
    629      15.7771      0.00000
    630      15.8400      0.00000

 k-point     8 :       0.5000    0.5000    0.5000
  band No.  band energies     occupation 
      1     -18.3409      2.00000
      2     -18.3289      2.00000
      3     -18.3196      2.00000
      4     -18.3034      2.00000
      5     -18.2453      2.00000
      6     -18.2393      2.00000
      7     -18.2155      2.00000
      8     -18.1899      2.00000
      9     -17.7963      2.00000
     10     -17.7878      2.00000
     11     -17.7774      2.00000
     12     -17.7367      2.00000
     13     -17.5863      2.00000
     14     -17.5787      2.00000
     15     -17.5736      2.00000
     16     -17.5635      2.00000
     17     -17.5491      2.00000
     18     -17.5403      2.00000
     19     -17.5347      2.00000
     20     -17.5281      2.00000
     21     -17.5242      2.00000
     22     -17.5185      2.00000
     23     -17.5115      2.00000
     24     -17.5109      2.00000
     25     -17.5019      2.00000
     26     -17.5010      2.00000
     27     -17.4538      2.00000
     28     -17.3904      2.00000
     29     -17.3883      2.00000
     30     -17.3789      2.00000
     31     -17.3643      2.00000
     32     -17.3542      2.00000
     33     -17.2660      2.00000
     34     -17.2660      2.00000
     35     -17.2564      2.00000
     36     -17.2557      2.00000
     37     -17.2295      2.00000
     38     -17.2237      2.00000
     39     -17.2220      2.00000
     40     -17.2106      2.00000
     41     -17.2004      2.00000
     42     -17.1870      2.00000
     43     -17.1831      2.00000
     44     -17.1719      2.00000
     45     -17.1698      2.00000
     46     -17.1318      2.00000
     47     -17.1140      2.00000
     48     -17.1010      2.00000
     49     -17.0559      2.00000
     50     -17.0483      2.00000
     51     -17.0465      2.00000
     52     -17.0144      2.00000
     53     -16.9978      2.00000
     54     -16.9939      2.00000
     55     -16.9871      2.00000
     56     -16.9546      2.00000
     57     -16.9475      2.00000
     58     -16.9456      2.00000
     59     -16.9357      2.00000
     60     -16.9249      2.00000
     61     -16.9246      2.00000
     62     -16.9214      2.00000
     63     -16.9100      2.00000
     64     -16.8873      2.00000
     65     -16.8511      2.00000
     66     -16.8419      2.00000
     67     -16.8389      2.00000
     68     -16.8356      2.00000
     69     -16.8285      2.00000
     70     -16.8233      2.00000
     71     -16.7876      2.00000
     72     -13.3588      2.00000
     73     -13.0396      2.00000
     74     -13.0358      2.00000
     75     -13.0315      2.00000
     76     -13.0288      2.00000
     77     -13.0226      2.00000
     78     -13.0209      2.00000
     79     -13.0167      2.00000
     80     -13.0106      2.00000
     81     -13.0042      2.00000
     82     -12.9973      2.00000
     83     -12.9923      2.00000
     84     -12.9914      2.00000
     85     -12.9879      2.00000
     86     -12.9854      2.00000
     87     -12.9786      2.00000
     88     -12.9783      2.00000
     89     -12.9710      2.00000
     90     -12.9704      2.00000
     91     -12.9699      2.00000
     92     -12.9662      2.00000
     93     -12.9627      2.00000
     94     -12.9615      2.00000
     95     -12.9577      2.00000
     96     -12.9459      2.00000
     97     -12.9440      2.00000
     98     -12.9424      2.00000
     99     -12.9335      2.00000
    100     -12.9328      2.00000
    101     -12.9315      2.00000
    102     -12.9280      2.00000
    103     -12.9265      2.00000
    104     -12.9254      2.00000
    105     -12.9250      2.00000
    106     -12.9249      2.00000
    107     -12.9248      2.00000
    108     -12.9216      2.00000
    109     -12.9160      2.00000
    110     -12.9112      2.00000
    111     -12.9102      2.00000
    112     -12.9071      2.00000
    113     -12.9055      2.00000
    114     -12.9042      2.00000
    115     -12.9016      2.00000
    116     -12.9002      2.00000
    117     -12.8987      2.00000
    118     -12.8981      2.00000
    119     -12.8977      2.00000
    120     -12.8933      2.00000
    121     -12.8928      2.00000
    122     -12.8889      2.00000
    123     -12.8887      2.00000
    124     -12.8866      2.00000
    125     -12.8862      2.00000
    126     -12.8837      2.00000
    127     -12.8775      2.00000
    128     -12.8755      2.00000
    129     -12.8695      2.00000
    130     -12.8667      2.00000
    131     -12.8584      2.00000
    132     -12.8547      2.00000
    133     -12.8507      2.00000
    134     -12.8472      2.00000
    135     -12.8433      2.00000
    136     -12.8268      2.00000
    137     -12.8245      2.00000
    138     -12.8232      2.00000
    139     -12.8195      2.00000
    140     -12.8132      2.00000
    141     -12.8106      2.00000
    142     -12.8094      2.00000
    143     -12.8079      2.00000
    144     -12.8007      2.00000
    145     -12.7965      2.00000
    146     -12.7951      2.00000
    147     -12.7932      2.00000
    148     -12.7919      2.00000
    149     -12.7900      2.00000
    150     -12.7899      2.00000
    151     -12.7848      2.00000
    152     -12.7844      2.00000
    153     -12.7828      2.00000
    154     -12.7817      2.00000
    155     -12.7794      2.00000
    156     -12.7771      2.00000
    157     -12.7748      2.00000
    158     -12.7729      2.00000
    159     -12.7711      2.00000
    160     -12.7690      2.00000
    161     -12.7671      2.00000
    162     -12.7653      2.00000
    163     -12.7646      2.00000
    164     -12.7644      2.00000
    165     -12.7591      2.00000
    166     -12.7586      2.00000
    167     -12.7574      2.00000
    168     -12.7523      2.00000
    169     -12.7523      2.00000
    170     -12.7487      2.00000
    171     -12.7403      2.00000
    172     -12.7402      2.00000
    173     -12.7381      2.00000
    174     -12.7352      2.00000
    175     -12.7331      2.00000
    176     -12.7326      2.00000
    177     -12.7321      2.00000
    178     -12.7298      2.00000
    179     -12.7295      2.00000
    180     -12.7277      2.00000
    181     -12.7259      2.00000
    182     -12.7209      2.00000
    183     -12.7194      2.00000
    184     -12.7154      2.00000
    185     -12.7138      2.00000
    186     -12.7102      2.00000
    187     -12.7074      2.00000
    188     -12.7073      2.00000
    189     -12.7060      2.00000
    190     -12.7049      2.00000
    191     -12.7013      2.00000
    192     -12.7007      2.00000
    193     -12.6986      2.00000
    194     -12.6947      2.00000
    195     -12.6921      2.00000
    196     -12.6896      2.00000
    197     -12.6871      2.00000
    198     -12.6784      2.00000
    199     -12.6766      2.00000
    200     -12.6697      2.00000
    201     -12.6686      2.00000
    202     -12.6648      2.00000
    203     -12.6630      2.00000
    204     -12.6538      2.00000
    205     -12.6519      2.00000
    206     -12.6481      2.00000
    207     -12.6477      2.00000
    208     -12.6423      2.00000
    209     -12.6369      2.00000
    210     -12.6278      2.00000
    211     -12.6251      2.00000
    212     -12.6241      2.00000
    213     -12.6207      2.00000
    214     -12.6170      2.00000
    215     -12.6166      2.00000
    216     -12.6105      2.00000
    217     -12.6103      2.00000
    218     -12.6095      2.00000
    219     -12.6083      2.00000
    220     -12.6073      2.00000
    221     -12.6060      2.00000
    222     -12.6032      2.00000
    223     -12.6030      2.00000
    224     -12.6017      2.00000
    225     -12.6000      2.00000
    226     -12.5988      2.00000
    227     -12.5950      2.00000
    228     -12.5949      2.00000
    229     -12.5911      2.00000
    230     -12.5909      2.00000
    231     -12.5853      2.00000
    232     -12.5830      2.00000
    233     -12.5809      2.00000
    234     -12.5805      2.00000
    235     -12.5763      2.00000
    236     -12.5754      2.00000
    237     -12.5743      2.00000
    238     -12.5700      2.00000
    239     -12.5686      2.00000
    240     -12.5653      2.00000
    241     -12.5596      2.00000
    242     -12.5570      2.00000
    243     -12.5525      2.00000
    244     -12.5511      2.00000
    245     -12.5508      2.00000
    246     -12.5473      2.00000
    247     -12.5459      2.00000
    248     -12.5445      2.00000
    249     -12.5437      2.00000
    250     -12.5408      2.00000
    251     -12.5398      2.00000
    252     -12.5354      2.00000
    253     -12.5354      2.00000
    254     -12.5339      2.00000
    255     -12.5308      2.00000
    256     -12.5287      2.00000
    257     -12.5226      2.00000
    258     -12.5175      2.00000
    259     -12.5170      2.00000
    260     -12.5139      2.00000
    261     -12.5123      2.00000
    262     -12.5094      2.00000
    263     -12.4997      2.00000
    264     -12.4825      2.00000
    265     -12.4760      2.00000
    266     -12.4691      2.00000
    267     -12.4664      2.00000
    268     -12.3889      2.00000
    269     -12.3521      2.00000
    270     -12.3512      2.00000
    271     -12.3435      2.00000
    272     -12.3246      2.00000
    273     -12.2665      2.00000
    274     -12.2422      2.00000
    275     -12.2379      2.00000
    276     -12.2321      2.00000
    277     -12.1896      2.00000
    278     -12.1731      2.00000
    279     -12.1612      2.00000
    280     -12.1523      2.00000
    281     -12.1469      2.00000
    282     -12.1382      2.00000
    283     -12.1161      2.00000
    284     -12.0652      2.00000
    285     -12.0356      2.00000
    286     -12.0293      2.00000
    287     -12.0204      2.00000
    288     -12.0159      2.00000
    289     -11.9783      2.00000
    290     -11.9682      2.00000
    291     -11.9616      2.00000
    292     -11.9081      2.00000
    293     -11.9022      2.00000
    294     -11.9019      2.00000
    295     -11.8836      2.00000
    296     -11.8180      2.00000
    297     -11.8063      2.00000
    298     -11.7941      2.00000
    299     -11.7823      2.00000
    300     -11.7801      2.00000
    301     -11.7765      2.00000
    302     -11.7669      2.00000
    303     -11.7607      2.00000
    304     -11.7605      2.00000
    305     -11.7550      2.00000
    306     -11.7536      2.00000
    307     -10.9481      2.00000
    308      -4.8100      2.00000
    309      -4.8060      2.00000
    310      -4.7886      2.00000
    311      -4.7823      2.00000
    312      -4.7775      2.00000
    313      -4.7766      2.00000
    314      -4.7678      2.00000
    315      -4.7006      2.00000
    316      -4.4402      2.00000
    317      -4.4396      2.00000
    318      -4.4349      2.00000
    319      -4.4206      2.00000
    320      -4.4160      2.00000
    321      -4.4024      2.00000
    322      -4.3941      2.00000
    323      -4.2605      2.00000
    324      -4.1166      2.00000
    325      -4.1165      2.00000
    326      -4.0892      2.00000
    327      -3.9940      2.00000
    328      -3.8240      2.00000
    329      -3.8128      2.00000
    330      -3.7793      2.00000
    331      -3.7707      2.00000
    332      -3.7684      2.00000
    333      -3.7623      2.00000
    334      -3.7548      2.00000
    335      -3.7449      2.00000
    336      -3.7381      2.00000
    337      -3.7128      2.00000
    338      -3.7127      2.00000
    339      -3.6377      2.00000
    340      -3.4575      2.00000
    341      -3.4461      2.00000
    342      -3.4281      2.00000
    343      -3.3120      2.00000
    344      -3.2188      2.00000
    345      -3.2148      2.00000
    346      -3.1818      2.00000
    347      -2.9766      2.00000
    348      -2.9394      2.00000
    349      -2.9262      2.00000
    350      -2.9117      2.00000
    351      -2.8382      2.00000
    352      -2.6144      2.00000
    353      -2.5566      2.00000
    354      -2.5367      2.00000
    355      -2.5250      2.00000
    356      -2.3787      2.00000
    357      -2.3274      2.00000
    358      -2.2923      2.00000
    359      -2.2657      2.00000
    360      -2.1070      2.00000
    361      -1.9949      2.00000
    362      -1.9864      2.00000
    363      -1.9476      2.00000
    364      -1.9453      2.00000
    365      -1.8781      2.00000
    366      -1.8574      2.00000
    367      -1.8555      2.00000
    368      -1.8293      2.00000
    369      -1.8291      2.00000
    370      -1.7743      2.00000
    371      -1.7480      2.00000
    372      -1.7407      2.00000
    373      -1.7274      2.00000
    374      -1.6744      2.00000
    375      -1.6692      2.00000
    376      -1.6323      2.00000
    377      -1.6021      2.00000
    378      -1.5928      2.00000
    379      -1.5510      2.00000
    380      -1.5372      2.00000
    381      -1.5160      2.00000
    382      -1.4720      2.00000
    383      -1.4460      2.00000
    384      -1.4389      2.00000
    385      -1.3762      2.00000
    386      -1.3704      2.00000
    387      -1.3543      2.00000
    388      -1.3301      2.00000
    389      -1.3109      2.00000
    390      -1.2600      2.00000
    391      -1.2496      2.00000
    392      -1.1183      2.00000
    393      -1.0568      2.00000
    394      -1.0363      2.00000
    395      -1.0311      2.00000
    396      -0.9854      2.00000
    397      -0.9541      2.00000
    398      -0.9474      2.00000
    399      -0.9411      2.00000
    400      -0.8440      2.00000
    401      -0.8269      2.00000
    402      -0.8005      2.00000
    403      -0.7679      2.00000
    404      -0.7628      2.00000
    405      -0.7514      2.00000
    406      -0.7491      2.00000
    407      -0.7440      2.00000
    408      -0.7298      2.00000
    409      -0.7298      2.00000
    410      -0.7118      2.00000
    411      -0.6752      2.00000
    412      -0.6268      2.00000
    413      -0.6089      2.00000
    414      -0.5957      2.00000
    415      -0.5636      2.00000
    416      -0.4760      2.00000
    417      -0.4421      2.00000
    418      -0.4368      2.00000
    419      -0.3924      2.00000
    420      -0.3673      2.00000
    421      -0.3631      2.00000
    422      -0.3243      2.00000
    423      -0.3015      2.00000
    424      -0.2511      2.00000
    425      -0.2325      2.00000
    426      -0.2071      2.00000
    427      -0.2048      2.00000
    428      -0.1978      2.00000
    429      -0.0857      2.00000
    430      -0.0327      2.00000
    431      -0.0312      2.00000
    432       0.0077      2.00000
    433       0.0230      2.00000
    434       0.0545      2.00000
    435       0.0776      2.00000
    436       0.0889      2.00000
    437       0.1236      2.00000
    438       0.1511      2.00000
    439       0.1618      2.00000
    440       0.1789      2.00000
    441       0.1809      2.00000
    442       0.2122      2.00000
    443       0.2505      2.00000
    444       0.2672      2.00000
    445       0.4316      2.00000
    446       0.4507      2.00000
    447       0.4599      2.00000
    448       0.4814      2.00000
    449       0.5075      2.00000
    450       0.5076      2.00000
    451       0.5233      2.00000
    452       0.5275      2.00000
    453       0.5506      2.00000
    454       0.5735      2.00000
    455       0.5806      2.00000
    456       0.6127      2.00000
    457       0.6385      2.00000
    458       0.6580      2.00000
    459       0.6677      2.00000
    460       0.6863      2.00000
    461       0.7294      2.00000
    462       0.7643      2.00000
    463       0.7941      2.00000
    464       0.7960      2.00000
    465       0.8166      2.00000
    466       0.8284      2.00000
    467       0.8716      2.00000
    468       0.8840      2.00000
    469       0.9160      2.00000
    470       0.9246      2.00000
    471       0.9422      2.00000
    472       0.9639      2.00000
    473       1.0070      2.00000
    474       1.0216      2.00000
    475       1.0233      2.00000
    476       1.0674      2.00000
    477       1.0788      2.00000
    478       1.1105      2.00000
    479       1.1108      2.00000
    480       1.1439      2.00000
    481       1.1450      2.00000
    482       1.1775      2.00000
    483       1.1786      2.00000
    484       1.1849      2.00000
    485       1.1879      2.00000
    486       1.2132      2.00000
    487       1.2173      2.00000
    488       1.2187      2.00000
    489       1.2425      2.00000
    490       1.2534      2.00000
    491       1.2667      2.00000
    492       1.2945      2.00000
    493       1.3006      2.00000
    494       1.3254      2.00000
    495       1.3374      2.00000
    496       1.3861      2.00000
    497       1.4026      2.00000
    498       1.4055      2.00000
    499       1.4246      2.00000
    500       1.4779      2.00000
    501       1.5014      2.00000
    502       1.5038      2.00000
    503       1.5187      2.00000
    504       1.5187      2.00000
    505       1.5290      2.00000
    506       1.5599      2.00000
    507       1.5784      2.00000
    508       1.5826      2.00000
    509       1.5873      2.00000
    510       1.5941      2.00000
    511       1.5942      2.00000
    512       1.6017      2.00000
    513       1.6025      2.00000
    514       1.6346      2.00000
    515       1.7213      2.00000
    516       1.7752      2.00000
    517       1.8901      2.00000
    518       1.9016      2.00000
    519       1.9080      2.00000
    520       1.9254      2.00000
    521       1.9396      2.00000
    522       1.9582      2.00000
    523       1.9774      2.00000
    524       2.9110      2.00000
    525       2.9653      2.00000
    526       6.6898      0.00000
    527       6.8913      0.00000
    528       7.3650      0.00000
    529       8.8666      0.00000
    530       8.9132      0.00000
    531       8.9436      0.00000
    532       8.9804      0.00000
    533       9.2622      0.00000
    534       9.2950      0.00000
    535       9.3348      0.00000
    536       9.5011      0.00000
    537      10.5745      0.00000
    538      10.5970      0.00000
    539      10.5991      0.00000
    540      10.7063      0.00000
    541      10.7108      0.00000
    542      10.7217      0.00000
    543      10.7682      0.00000
    544      10.7764      0.00000
    545      10.8415      0.00000
    546      10.8751      0.00000
    547      10.8795      0.00000
    548      11.1158      0.00000
    549      11.1260      0.00000
    550      11.1500      0.00000
    551      11.1785      0.00000
    552      11.2824      0.00000
    553      11.7449      0.00000
    554      11.7556      0.00000
    555      11.7571      0.00000
    556      11.7907      0.00000
    557      11.8391      0.00000
    558      11.8436      0.00000
    559      11.8723      0.00000
    560      11.8764      0.00000
    561      11.9151      0.00000
    562      11.9542      0.00000
    563      11.9891      0.00000
    564      12.0812      0.00000
    565      12.1581      0.00000
    566      12.2138      0.00000
    567      12.2139      0.00000
    568      12.2720      0.00000
    569      12.2979      0.00000
    570      12.3015      0.00000
    571      12.3292      0.00000
    572      12.3325      0.00000
    573      12.3991      0.00000
    574      12.4122      0.00000
    575      12.4143      0.00000
    576      12.4445      0.00000
    577      12.4497      0.00000
    578      12.4587      0.00000
    579      12.4634      0.00000
    580      12.4794      0.00000
    581      12.5191      0.00000
    582      12.6491      0.00000
    583      12.7597      0.00000
    584      13.1641      0.00000
    585      13.2173      0.00000
    586      13.2334      0.00000
    587      13.2346      0.00000
    588      13.2862      0.00000
    589      13.3020      0.00000
    590      13.3117      0.00000
    591      13.3617      0.00000
    592      13.3902      0.00000
    593      13.4134      0.00000
    594      13.4890      0.00000
    595      13.5901      0.00000
    596      13.6507      0.00000
    597      13.7456      0.00000
    598      13.8109      0.00000
    599      13.9058      0.00000
    600      14.0188      0.00000
    601      14.0231      0.00000
    602      14.0476      0.00000
    603      14.0689      0.00000
    604      14.1959      0.00000
    605      14.4072      0.00000
    606      14.4327      0.00000
    607      14.4692      0.00000
    608      14.5005      0.00000
    609      14.5075      0.00000
    610      14.5573      0.00000
    611      14.6651      0.00000
    612      14.6714      0.00000
    613      14.7369      0.00000
    614      14.7971      0.00000
    615      14.8223      0.00000
    616      14.9256      0.00000
    617      15.0621      0.00000
    618      15.0756      0.00000
    619      15.1233      0.00000
    620      15.1720      0.00000
    621      15.2791      0.00000
    622      15.2914      0.00000
    623      15.3655      0.00000
    624      15.5746      0.00000
    625      15.5801      0.00000
    626      15.6065      0.00000
    627      15.6392      0.00000
    628      15.6942      0.00000
    629      15.7189      0.00000
    630      15.7654      0.00000


--------------------------------------------------------------------------------------------------------


 soft charge-density along one line, spin component            1
         0         1         2         3         4         5         6         7         8         9
 total charge-density along one line
 
 pseudopotential strength for first ion, spin component:            1
 -8.850   0.000  -0.000  -0.005  -0.000  -1.321  -0.000   0.000
  0.000  -8.879  -0.003   0.000   0.003  -0.000  -1.303   0.003
 -0.000  -0.003  -8.886   0.000  -0.003   0.000   0.003  -1.300
 -0.005   0.000   0.000  -8.877   0.000   0.005  -0.000  -0.000
 -0.000   0.003  -0.003   0.000  -8.854   0.000   0.001   0.004
 -1.321  -0.000   0.000   0.005   0.000   5.911   0.000  -0.000
 -0.000  -1.303   0.003  -0.000   0.001   0.000   5.900  -0.003
  0.000   0.003  -1.300  -0.000   0.004  -0.000  -0.003   5.899
  0.005  -0.000  -0.000  -1.298  -0.000  -0.005   0.000   0.000
  0.000   0.001   0.004  -0.000  -1.313  -0.000  -0.002  -0.005
 -0.000  -0.000  -0.002  -0.000   0.000   0.000  -0.000   0.002
  0.000  -0.000   0.004   0.000  -0.000  -0.000   0.000  -0.001
 -0.000  -0.005   0.001   0.000   0.002   0.000   0.001  -0.000
  0.000   0.000  -0.006  -0.000   0.001  -0.000  -0.001   0.002
  0.001   0.000   0.000  -0.003  -0.000  -0.001  -0.000  -0.000
  0.000   0.006  -0.002  -0.000  -0.005  -0.000   0.002   0.001
 -0.000  -0.002   0.007   0.000  -0.004   0.000   0.003   0.002
 -0.004  -0.000  -0.000  -0.003   0.000   0.004   0.000   0.000
 total augmentation occupancy for first ion, spin component:            1
  1.992  -0.000  -0.000   0.000   0.000  -0.005   0.000  -0.000   0.006   0.000   0.000   0.000   0.000   0.000   0.004   0.000
 -0.000   1.991   0.000   0.000   0.002   0.000  -0.003   0.004   0.000   0.012  -0.001  -0.001   0.000   0.004   0.000   0.001
 -0.000   0.000   1.992   0.000   0.001   0.000   0.004  -0.004   0.000   0.009   0.000  -0.002   0.005  -0.001   0.000   0.001
  0.000   0.000   0.000   1.994   0.000   0.006   0.000   0.000   0.020   0.000   0.000   0.000   0.000   0.000   0.012   0.000
  0.000   0.002   0.001   0.000   1.995   0.000   0.012   0.009   0.000   0.019   0.001   0.000   0.008   0.006   0.000   0.001
 -0.005   0.000   0.000   0.006   0.000   0.052   0.000  -0.000   0.037   0.000   0.000   0.000   0.000   0.000   0.041   0.000
  0.000  -0.003   0.004   0.000   0.012   0.000   0.069   0.021   0.000   0.060  -0.013  -0.001  -0.000   0.034   0.000  -0.000
 -0.000   0.004  -0.004   0.000   0.009  -0.000   0.021   0.057   0.000   0.052  -0.026  -0.002   0.031  -0.008   0.000   0.001
  0.006   0.000   0.000   0.020   0.000   0.037   0.000   0.000   0.192   0.000   0.000  -0.000   0.000   0.000   0.084   0.000
  0.000   0.012   0.009   0.000   0.019   0.000   0.060   0.052   0.000   0.172   0.008   0.000   0.057   0.047   0.000   0.002
  0.000  -0.001   0.000   0.000   0.001   0.000  -0.013  -0.026   0.000   0.008   0.995   0.054   0.002   0.063   0.000  -0.000
  0.000  -0.001  -0.002   0.000   0.000   0.000  -0.001  -0.002  -0.000   0.000   0.054   0.004  -0.000   0.003   0.000  -0.000
  0.000   0.000   0.005   0.000   0.008   0.000  -0.000   0.031   0.000   0.057   0.002  -0.000   0.825  -0.021   0.000   0.027
  0.000   0.004  -0.001   0.000   0.006   0.000   0.034  -0.008   0.000   0.047   0.063   0.003  -0.021   0.751   0.000  -0.001
  0.004   0.000   0.000   0.012   0.000   0.041   0.000   0.000   0.084   0.000   0.000   0.000   0.000   0.000   0.848  -0.000
  0.000   0.001   0.001   0.000   0.001   0.000  -0.000   0.001   0.000   0.002  -0.000  -0.000   0.027  -0.001  -0.000   0.001
  0.000   0.001   0.001   0.000   0.001   0.000   0.001  -0.000   0.000   0.001   0.002   0.000  -0.001   0.024   0.000  -0.000
  0.001   0.000   0.000   0.002   0.000   0.001   0.000  -0.000   0.003   0.000   0.000   0.000   0.000   0.000   0.028  -0.000


------------------------ aborting loop because EDIFF is reached ----------------------------------------


    FORLOC:  cpu time      0.0148: real time      0.0148
    FORHF :  cpu time    588.3028: real time    588.1917
    FORNL :  cpu time      1.0249: real time      1.0247
    STRESS:  cpu time      3.1294: real time      3.1286
    FORCOR:  cpu time      1.4836: real time      1.4834
    OFIELD:  cpu time      0.0022: real time      0.0022

  FORCE on cell =-STRESS in cart. coord.  units (eV):
  Direction    XX          YY          ZZ          XY          YZ          ZX
  --------------------------------------------------------------------------------------
  Alpha Z  5490.26774  5490.26774  5490.26774
  Ewald  -24768.16055-32016.59897-30996.05259    -0.00221 -1785.75235    -0.00009
  Hartree 14010.06606  9459.60090 10104.26255    -0.00114 -1223.23726    -0.00012
  E(xc)   -4070.19834 -4073.02952 -4072.56944    -0.00000    -0.49561     0.00000
  Local   -6063.19106  5582.76047  3893.10633     0.00324  2969.94773     0.00017
  n-local  5864.44617  5804.13782  5823.19749    -0.00007    -6.78908     0.00001
  augment  5437.57168  5457.12891  5463.61980     0.00003     7.94047     0.00001
  Kinetic 12410.75372 12610.50662 12600.72788     0.00014    41.93462    -0.00005
  Fock    -8352.70514 -8352.07244 -8345.37023    -0.00000    -1.61862    -0.00001
  -------------------------------------------------------------------------------------
  Total     -41.14973   -37.29846   -38.81047    -0.00001     1.92989    -0.00007
  in kB     -51.96162   -47.09844   -49.00773    -0.00002     2.43696    -0.00009
  external pressure =      -49.36 kB  Pullay stress =        0.00 kB


 VOLUME and BASIS-vectors are now :
 -----------------------------------------------------------------------------
  energy-cutoff  :      450.00
  volume of cell :     1268.81
      direct lattice vectors                 reciprocal lattice vectors
     0.000000000 12.280473709  0.000000000     0.000000000  0.081430084 -0.019947422
     9.142701149  0.000000000  0.000000000     0.109376866 -0.000000000  0.000000000
     0.000000000 -2.768261641-11.300697481     0.000000000  0.000000000 -0.088490113

  length of vectors
    12.280473709  9.142701149 11.634819984     0.083837689  0.109376866  0.088490113


 FORCES acting on ions:
    Electron-Ion                     Ewald-Force                    Non-Local-Force
 -----------------------------------------------------------------------------------------------
   0.743E-03 0.531E+02 -.589E+02   -.728E-03 -.525E+02 0.636E+02   -.265E-04 -.415E+00 -.447E+01
   0.441E-03 0.396E+02 -.104E+03   -.518E-03 -.391E+02 0.109E+03   0.567E-04 -.353E+00 -.492E+01
   -.317E+02 0.694E+02 -.306E+02   0.315E+02 -.690E+02 0.350E+02   0.187E+00 -.266E+00 -.409E+01
   -.904E+02 0.178E+02 -.169E+03   0.906E+02 -.175E+02 0.176E+03   -.423E+00 -.287E+00 -.598E+01
   0.317E+02 0.694E+02 -.306E+02   -.315E+02 -.690E+02 0.350E+02   -.187E+00 -.266E+00 -.409E+01
   0.904E+02 0.178E+02 -.169E+03   -.906E+02 -.175E+02 0.176E+03   0.423E+00 -.287E+00 -.598E+01
   -.167E+02 -.519E+01 0.908E+02   0.166E+02 0.488E+01 -.955E+02   0.275E-01 0.210E+00 0.438E+01
   -.122E+02 -.318E+02 0.647E+02   0.120E+02 0.312E+02 -.692E+02   0.137E+00 0.421E+00 0.432E+01
   -.193E-03 0.417E+02 0.102E+03   0.186E-03 -.419E+02 -.106E+03   0.872E-05 0.171E+00 0.428E+01
   0.131E-02 -.213E+02 0.472E+02   -.132E-02 0.206E+02 -.515E+02   0.322E-05 0.516E+00 0.406E+01
   0.167E+02 -.519E+01 0.908E+02   -.166E+02 0.488E+01 -.955E+02   -.275E-01 0.210E+00 0.438E+01
   0.122E+02 -.318E+02 0.647E+02   -.120E+02 0.312E+02 -.692E+02   -.137E+00 0.421E+00 0.432E+01
   -.802E+02 -.347E+02 0.321E+02   0.790E+02 0.343E+02 -.343E+02   0.104E+01 0.390E+00 0.203E+01
   -.821E+01 -.534E+02 0.267E+02   0.831E+01 0.511E+02 -.286E+02   -.854E-01 0.211E+01 0.174E+01
   0.403E-03 -.603E+02 0.226E+02   -.561E-03 0.577E+02 -.241E+02   0.136E-03 0.233E+01 0.147E+01
   0.802E+02 -.347E+02 0.321E+02   -.790E+02 0.343E+02 -.343E+02   -.104E+01 0.390E+00 0.203E+01
   0.821E+01 -.534E+02 0.267E+02   -.831E+01 0.511E+02 -.286E+02   0.853E-01 0.211E+01 0.174E+01
   0.171E-03 0.551E+02 -.255E+02   -.161E-03 -.529E+02 0.272E+02   -.102E-04 -.198E+01 -.162E+01
   0.818E-04 0.716E+02 -.429E+02   -.109E-03 -.694E+02 0.446E+02   0.329E-04 -.192E+01 -.161E+01
   -.446E+01 0.618E+02 -.265E+02   0.448E+01 -.596E+02 0.281E+02   -.236E-01 -.193E+01 -.153E+01
   -.217E+02 0.101E+03 -.500E+02   0.217E+02 -.987E+02 0.517E+02   0.643E-01 -.186E+01 -.166E+01
   0.446E+01 0.618E+02 -.265E+02   -.448E+01 -.596E+02 0.281E+02   0.236E-01 -.193E+01 -.153E+01
   0.217E+02 0.101E+03 -.500E+02   -.217E+02 -.987E+02 0.517E+02   -.643E-01 -.186E+01 -.166E+01
   -.344E+00 0.322E+02 -.733E+02   0.484E+00 -.319E+02 0.777E+02   -.126E+00 -.222E+00 -.418E+01
   -.340E+01 0.451E+02 -.909E+02   0.346E+01 -.445E+02 0.952E+02   -.561E-01 -.443E+00 -.408E+01
   0.591E-03 0.322E+02 -.735E+02   -.619E-03 -.314E+02 0.781E+02   0.197E-04 -.559E+00 -.435E+01
   -.190E-03 0.414E+02 -.917E+02   0.182E-03 -.407E+02 0.960E+02   0.118E-04 -.496E+00 -.407E+01
   0.344E+00 0.322E+02 -.733E+02   -.484E+00 -.319E+02 0.777E+02   0.126E+00 -.222E+00 -.418E+01
   0.340E+01 0.451E+02 -.909E+02   -.346E+01 -.445E+02 0.952E+02   0.560E-01 -.443E+00 -.408E+01
   0.865E-03 -.666E+02 0.902E+02   -.865E-03 0.665E+02 -.945E+02   -.290E-05 -.481E-01 0.409E+01
   -.246E-03 -.524E+02 0.880E+02   0.263E-03 0.518E+02 -.923E+02   -.127E-04 0.433E+00 0.411E+01
   -.137E+02 -.118E+03 0.102E+03   0.142E+02 0.117E+03 -.106E+03   -.501E+00 0.866E+00 0.428E+01
   -.464E+01 -.546E+02 0.861E+02   0.477E+01 0.541E+02 -.905E+02   -.130E+00 0.385E+00 0.422E+01
   0.137E+02 -.118E+03 0.102E+03   -.142E+02 0.117E+03 -.106E+03   0.501E+00 0.866E+00 0.428E+01
   0.464E+01 -.546E+02 0.861E+02   -.477E+01 0.541E+02 -.905E+02   0.130E+00 0.385E+00 0.422E+01
   0.529E-03 -.482E+02 0.295E+02   -.536E-03 0.460E+02 -.312E+02   0.108E-04 0.201E+01 0.161E+01
   -.169E-03 -.413E+02 0.317E+02   0.203E-03 0.392E+02 -.331E+02   -.253E-04 0.183E+01 0.139E+01
   -.200E+01 -.434E+02 0.297E+02   0.196E+01 0.413E+02 -.314E+02   0.307E-01 0.190E+01 0.156E+01
   -.301E+01 -.406E+02 0.274E+02   0.302E+01 0.385E+02 -.290E+02   -.926E-02 0.182E+01 0.159E+01
   0.200E+01 -.434E+02 0.297E+02   -.196E+01 0.413E+02 -.314E+02   -.307E-01 0.190E+01 0.156E+01
   0.301E+01 -.406E+02 0.274E+02   -.302E+01 0.385E+02 -.290E+02   0.930E-02 0.182E+01 0.159E+01
   -.125E+02 0.342E+02 -.166E+01   0.126E+02 -.321E+02 0.331E+01   -.100E+00 -.190E+01 -.159E+01
   -.141E+02 0.216E+02 -.543E+02   0.145E+02 -.189E+02 0.557E+02   -.346E+00 -.242E+01 -.129E+01
   0.373E-03 0.167E+02 0.259E+02   -.403E-03 -.145E+02 -.241E+02   0.227E-04 -.197E+01 -.168E+01
   -.512E-03 -.206E+02 -.659E+02   0.617E-03 0.225E+02 0.672E+02   -.805E-04 -.172E+01 -.136E+01
   0.125E+02 0.342E+02 -.166E+01   -.126E+02 -.321E+02 0.331E+01   0.100E+00 -.190E+01 -.159E+01
   0.141E+02 0.216E+02 -.543E+02   -.145E+02 -.189E+02 0.557E+02   0.346E+00 -.242E+01 -.129E+01
   -.103E+01 -.160E+02 0.162E+02   0.108E+01 0.235E+02 -.199E+02   -.335E-01 -.642E+01 0.321E+01
   -.157E+01 -.714E+01 0.101E+02   0.131E+01 0.144E+02 -.139E+02   0.224E+00 -.622E+01 0.334E+01
   0.252E-03 -.125E+02 0.165E+02   -.276E-03 0.196E+02 -.202E+02   0.247E-04 -.618E+01 0.326E+01
   -.778E-03 -.296E+00 0.854E+01   0.905E-03 0.770E+01 -.125E+02   -.113E-03 -.637E+01 0.340E+01
   0.103E+01 -.160E+02 0.162E+02   -.107E+01 0.235E+02 -.199E+02   0.334E-01 -.642E+01 0.321E+01
   0.157E+01 -.714E+01 0.101E+02   -.132E+01 0.144E+02 -.139E+02   -.224E+00 -.622E+01 0.334E+01
   0.836E-03 0.198E+00 -.852E+01   -.906E-03 -.644E+01 0.120E+02   0.597E-04 0.537E+01 -.298E+01
   -.139E-02 0.137E+02 -.142E+02   0.152E-02 -.211E+02 0.180E+02   -.870E-04 0.635E+01 -.327E+01
   -.860E+02 -.476E+02 0.595E+01   0.876E+02 0.408E+02 -.123E+01   -.130E+01 0.593E+01 -.409E+01
   -.408E+01 0.119E+02 -.137E+02   0.413E+01 -.193E+02 0.173E+02   -.447E-01 0.638E+01 -.311E+01
   0.860E+02 -.476E+02 0.595E+01   -.876E+02 0.408E+02 -.123E+01   0.130E+01 0.593E+01 -.409E+01
   0.408E+01 0.119E+02 -.137E+02   -.413E+01 -.193E+02 0.173E+02   0.448E-01 0.638E+01 -.311E+01
   -.144E+02 0.766E+02 0.545E+02   0.138E+02 -.744E+02 -.500E+02   0.475E+00 -.194E+01 -.390E+01
   -.788E+01 0.641E+02 0.288E+02   0.775E+01 -.622E+02 -.245E+02   0.114E+00 -.163E+01 -.379E+01
   0.450E-03 0.145E+03 0.118E+03   -.508E-03 -.145E+03 -.114E+03   0.505E-04 0.159E+00 -.335E+01
   0.420E-02 0.606E+02 0.898E+00   -.467E-02 -.588E+02 0.418E+01   0.404E-03 -.155E+01 -.436E+01
   0.144E+02 0.766E+02 0.545E+02   -.138E+02 -.744E+02 -.500E+02   -.475E+00 -.194E+01 -.390E+01
   0.788E+01 0.641E+02 0.288E+02   -.774E+01 -.622E+02 -.245E+02   -.115E+00 -.163E+01 -.379E+01
   0.570E-03 -.568E+02 -.330E+02   -.603E-03 0.548E+02 0.284E+02   0.256E-04 0.171E+01 0.397E+01
   0.843E-03 -.581E+02 -.469E+02   -.913E-03 0.558E+02 0.424E+02   0.559E-04 0.198E+01 0.393E+01
   -.715E+01 -.488E+02 -.288E+02   0.717E+01 0.469E+02 0.242E+02   -.101E-01 0.162E+01 0.398E+01
   -.138E+02 -.454E+02 -.613E+02   0.137E+02 0.431E+02 0.566E+02   0.508E-01 0.199E+01 0.403E+01
   0.715E+01 -.488E+02 -.288E+02   -.717E+01 0.469E+02 0.242E+02   0.101E-01 0.162E+01 0.398E+01
   0.138E+02 -.454E+02 -.613E+02   -.137E+02 0.431E+02 0.566E+02   -.508E-01 0.199E+01 0.403E+01
   0.722E-04 0.135E+03 0.615E+02   -.164E-04 -.148E+03 -.580E+02   -.469E-04 0.109E+02 -.302E+01
   -.636E-03 0.125E+03 0.609E+02   0.712E-03 -.137E+03 -.575E+02   -.632E-04 0.109E+02 -.294E+01
   -.178E+02 0.157E+03 0.630E+02   0.178E+02 -.170E+03 -.596E+02   0.346E-02 0.106E+02 -.295E+01
   -.424E+01 0.126E+03 0.580E+02   0.434E+01 -.139E+03 -.545E+02   -.922E-01 0.108E+02 -.297E+01
   0.178E+02 0.157E+03 0.630E+02   -.178E+02 -.170E+03 -.596E+02   -.342E-02 0.106E+02 -.295E+01
   0.424E+01 0.126E+03 0.580E+02   -.434E+01 -.139E+03 -.545E+02   0.923E-01 0.108E+02 -.297E+01
   -.597E+01 -.118E+03 -.562E+02   0.614E+01 0.130E+03 0.527E+02   -.147E+00 -.108E+02 0.303E+01
   -.226E+02 -.120E+03 -.808E+02   0.223E+02 0.133E+03 0.777E+02   0.246E+00 -.111E+02 0.270E+01
   0.558E-03 -.113E+03 -.511E+02   -.599E-03 0.126E+03 0.478E+02   0.215E-04 -.108E+02 0.275E+01
   0.597E+01 -.118E+03 -.562E+02   -.614E+01 0.130E+03 0.527E+02   0.147E+00 -.108E+02 0.303E+01
   0.226E+02 -.120E+03 -.808E+02   -.223E+02 0.133E+03 0.777E+02   -.246E+00 -.111E+02 0.270E+01
   -.468E-03 -.206E+02 0.265E+02   0.528E-03 0.278E+02 -.303E+02   -.587E-04 -.624E+01 0.321E+01
   0.140E-02 -.280E+02 0.540E+01   -.159E-02 0.355E+02 -.931E+01   0.145E-03 -.639E+01 0.338E+01
   -.127E+02 -.236E+02 0.430E+02   0.126E+02 0.308E+02 -.468E+02   0.272E-01 -.626E+01 0.323E+01
   -.161E+02 -.425E+02 -.204E+01   0.162E+02 0.499E+02 -.273E+01   -.851E-01 -.641E+01 0.410E+01
   0.127E+02 -.236E+02 0.430E+02   -.126E+02 0.308E+02 -.468E+02   -.271E-01 -.626E+01 0.323E+01
   0.161E+02 -.425E+02 -.204E+01   -.162E+02 0.499E+02 -.273E+01   0.851E-01 -.641E+01 0.410E+01
   -.142E+01 0.239E+02 -.153E+02   0.141E+01 -.313E+02 0.192E+02   0.497E-02 0.635E+01 -.339E+01
   -.191E+01 0.224E+02 -.174E+02   0.190E+01 -.296E+02 0.211E+02   0.611E-02 0.625E+01 -.322E+01
   -.524E-03 0.281E+02 -.151E+02   0.590E-03 -.355E+02 0.191E+02   -.574E-04 0.632E+01 -.339E+01
   0.951E-03 0.254E+02 -.192E+02   -.106E-02 -.328E+02 0.228E+02   0.105E-03 0.640E+01 -.314E+01
   0.142E+01 0.239E+02 -.153E+02   -.141E+01 -.313E+02 0.192E+02   -.492E-02 0.635E+01 -.339E+01
   0.191E+01 0.224E+02 -.174E+02   -.190E+01 -.296E+02 0.211E+02   -.622E-02 0.625E+01 -.322E+01
   0.512E-03 0.594E+02 0.418E+02   -.557E-03 -.574E+02 -.374E+02   0.332E-04 -.176E+01 -.387E+01
   -.866E-04 0.671E+02 0.372E+02   0.718E-04 -.651E+02 -.326E+02   0.861E-05 -.174E+01 -.398E+01
   -.677E+00 0.585E+02 0.401E+02   0.809E+00 -.565E+02 -.354E+02   -.112E+00 -.166E+01 -.403E+01
   -.221E+01 0.661E+02 0.365E+02   0.226E+01 -.640E+02 -.318E+02   -.388E-01 -.178E+01 -.406E+01
   0.676E+00 0.585E+02 0.401E+02   -.808E+00 -.565E+02 -.354E+02   0.112E+00 -.166E+01 -.403E+01
   0.221E+01 0.661E+02 0.365E+02   -.226E+01 -.640E+02 -.318E+02   0.388E-01 -.178E+01 -.406E+01
   -.912E+01 -.770E+02 -.252E+02   0.937E+01 0.749E+02 0.205E+02   -.206E+00 0.186E+01 0.412E+01
   -.402E+01 -.722E+02 -.391E+02   0.420E+01 0.703E+02 0.342E+02   -.151E+00 0.166E+01 0.419E+01
   0.270E-02 -.934E+02 -.227E+02   -.301E-02 0.915E+02 0.186E+02   0.266E-03 0.165E+01 0.359E+01
   -.478E-03 -.776E+02 -.435E+02   0.540E-03 0.763E+02 0.392E+02   -.547E-04 0.119E+01 0.368E+01
   0.912E+01 -.770E+02 -.252E+02   -.937E+01 0.749E+02 0.205E+02   0.206E+00 0.186E+01 0.412E+01
   0.402E+01 -.722E+02 -.391E+02   -.420E+01 0.703E+02 0.342E+02   0.151E+00 0.166E+01 0.419E+01
   -.621E+01 0.998E+02 0.582E+02   0.605E+01 -.112E+03 -.545E+02   0.154E+00 0.103E+02 -.320E+01
   -.294E+01 0.118E+03 0.677E+02   0.303E+01 -.130E+03 -.640E+02   -.703E-01 0.110E+02 -.315E+01
   -.314E-02 0.925E+02 0.638E+02   0.352E-02 -.106E+03 -.610E+02   -.330E-03 0.118E+02 -.243E+01
   0.507E-03 0.115E+03 0.715E+02   -.621E-03 -.127E+03 -.683E+02   0.114E-03 0.108E+02 -.275E+01
   0.621E+01 0.998E+02 0.582E+02   -.605E+01 -.112E+03 -.545E+02   -.154E+00 0.103E+02 -.320E+01
   0.294E+01 0.118E+03 0.677E+02   -.303E+01 -.130E+03 -.640E+02   0.702E-01 0.110E+02 -.315E+01
   -.522E-03 -.123E+03 -.590E+02   0.561E-03 0.136E+03 0.556E+02   -.391E-04 -.109E+02 0.296E+01
   0.117E-03 -.123E+03 -.673E+02   -.886E-04 0.136E+03 0.637E+02   -.391E-04 -.109E+02 0.309E+01
   -.336E+00 -.125E+03 -.589E+02   0.285E+00 0.137E+03 0.555E+02   0.465E-01 -.109E+02 0.296E+01
   -.619E+00 -.123E+03 -.659E+02   0.575E+00 0.135E+03 0.624E+02   0.404E-01 -.108E+02 0.300E+01
   0.337E+00 -.125E+03 -.589E+02   -.286E+00 0.137E+03 0.555E+02   -.465E-01 -.109E+02 0.296E+01
   0.619E+00 -.123E+03 -.659E+02   -.575E+00 0.135E+03 0.624E+02   -.404E-01 -.108E+02 0.300E+01
   -.238E-02 -.804E+02 -.851E+02   0.268E-02 0.855E+02 0.792E+02   -.282E-03 -.481E+01 0.575E+01
   -.368E-03 -.471E+02 0.216E+02   0.390E-03 0.435E+02 -.182E+02   0.906E-06 0.309E+01 -.203E+01
 -----------------------------------------------------------------------------------------------
   -.228E-03 -.535E+01 0.302E+01   -.325E-13 -.446E-11 -.134E-11   0.213E-03 0.396E+01 -.213E+01
 
 
 POSITION                                       TOTAL-FORCE (eV/Angst)
 -----------------------------------------------------------------------------------
      0.00000      7.65733     -1.76866        -0.000014      0.078449      0.022795
      9.14270      6.26675     -7.41276        -0.000004      0.069859      0.033190
      3.04663      7.65647     -1.77811        -0.031065      0.075553      0.048532
      3.02600      6.26934     -7.40324        -0.126146      0.008027     -0.000272
      6.09607      7.65647     -1.77811         0.031078      0.075543      0.048544
      6.11670      6.26933     -7.40326         0.126151      0.008045     -0.000260
      1.52296      9.37943     -3.87968        -0.012611     -0.050758     -0.012436
      1.52249      7.99177     -9.52822        -0.000763     -0.075287     -0.003787
      4.57135      9.37969     -3.88317         0.000003     -0.008769     -0.004310
      4.57135      7.98884     -9.52100         0.000001     -0.075058     -0.005564
      7.61974      9.37943     -3.87968         0.012607     -0.050757     -0.012436
      7.62021      7.99177     -9.52822         0.000763     -0.075303     -0.003786
      1.55100      6.14952     -4.48374        -0.085107     -0.014143     -0.017994
      1.52428      4.77511    -10.14371         0.003030     -0.025649      0.018557
      4.57136      4.77828    -10.14315        -0.000016     -0.032925      0.021939
      7.59170      6.14952     -4.48375         0.085097     -0.014164     -0.017964
      7.61842      4.77511    -10.14371        -0.003013     -0.025630      0.018524
      0.00000     10.87715     -1.15664        -0.000003      0.025051     -0.004136
      0.00000      9.49112     -6.80642         0.000003      0.022765     -0.018248
      3.04675     10.87674     -1.15289         0.000750      0.025693     -0.004645
      3.04651      9.50766     -6.80943        -0.006824      0.023086     -0.027283
      6.09595     10.87674     -1.15289        -0.000746      0.025687     -0.004619
      6.09619      9.50766     -6.80943         0.006815      0.023110     -0.027279
      1.52520      1.52117     -1.77498         0.000492      0.069751      0.007329
      1.52240      0.13411     -7.42488        -0.002422      0.079229     -0.000343
      4.57135      1.51515     -1.76517        -0.000005      0.072526      0.014456
      4.57135      0.14611     -7.41992         0.000010      0.075253     -0.002605
      7.61750      1.52117     -1.77498        -0.000486      0.069752      0.007327
      7.62031      0.13411     -7.42488         0.002410      0.079219     -0.000358
      9.14270      3.25134     -3.87571         0.000001     -0.067106     -0.015532
      0.00000      1.85112     -9.53313         0.000003     -0.072931     -0.001001
      3.06533      3.23166     -3.88648        -0.009803     -0.077220     -0.002088
      3.05131      1.85403     -9.53416         0.000155     -0.066994     -0.004063
      6.07737      3.23166     -3.88646         0.009799     -0.077223     -0.002105
      6.09139      1.85401     -9.53416        -0.000154     -0.066883     -0.004040
      0.00000      0.02196     -4.49452        -0.000001     -0.012444      0.009619
      0.00000     -1.36740    -10.14899        -0.000002     -0.020443      0.019376
      3.04684      0.01654     -4.49408        -0.003239     -0.015019      0.012081
      3.04818     -1.36757    -10.14292        -0.002472     -0.021564      0.011731
      6.09586      0.01655     -4.49409         0.003237     -0.015028      0.012090
      6.09452     -1.36757    -10.14292         0.002470     -0.021549      0.011744
      1.52397      4.73890     -1.15389         0.002091      0.014509     -0.012832
      1.51956      3.34214     -6.81165         0.018918      0.041634     -0.027671
      4.57135      4.74198     -1.17018        -0.000003      0.016298      0.002468
      4.57135      3.36865     -6.80446         0.000023      0.020880     -0.050732
      7.61873      4.73890     -1.15389        -0.002095      0.014507     -0.012830
      7.62314      3.34214     -6.81165        -0.018890      0.041667     -0.027665
      1.52327     11.88374     -1.43592         0.001032     -0.175742      0.111782
      1.51901     10.50191     -7.09263         0.012656     -0.167259      0.120359
      4.57135     11.88143     -1.43467         0.000005     -0.169582      0.112473
      4.57135     10.50866     -7.09300        -0.000007     -0.171700      0.122514
      7.61944     11.88374     -1.43592        -0.001032     -0.175737      0.111780
      7.62370     10.50191     -7.09264        -0.012658     -0.167247      0.120370
      9.14270      5.16458     -4.20495         0.000001      0.146806     -0.097673
      9.14270      3.76954     -9.86351         0.000028      0.171853     -0.120726
      3.12061      5.16395     -4.21009        -0.067603      0.234879     -0.174630
      3.04820      3.76984     -9.86987        -0.001009      0.173069     -0.116987
      6.02209      5.16395     -4.21009         0.067607      0.234904     -0.174630
      6.09450      3.76983     -9.86987         0.000977      0.173164     -0.116995
      1.52742      7.48124     -3.16961         0.037332     -0.046843     -0.103906
      1.52378      6.09895     -8.81441        -0.002380     -0.034725     -0.109872
      4.57135      7.47854     -3.18721         0.000002      0.040352     -0.198179
      4.57135      6.09840     -8.80762         0.000015     -0.017991     -0.074339
      7.61528      7.48124     -3.16961        -0.037339     -0.046844     -0.103903
      7.61892      6.09895     -8.81441         0.002353     -0.034707     -0.109855
      0.00000      9.55069     -2.48013        -0.000003      0.036368      0.108865
      9.14270      8.16614     -8.12900        -0.000005      0.048287      0.106738
      3.04782      9.55532     -2.48087         0.007072      0.010183      0.103640
      3.05113      8.17029     -8.12116        -0.001168      0.028607      0.122411
      6.09488      9.55532     -2.48087        -0.007070      0.010184      0.103630
      6.09157      8.17029     -8.12116         0.001176      0.028605      0.122412
      0.00000      8.99087     -5.03585        -0.000001      0.398514     -0.065590
      0.00000      7.59784    -10.68697         0.000001      0.398863     -0.073432
      3.04467      9.00524     -5.03957         0.005818      0.375274     -0.058436
      3.04804      7.59739    -10.68248        -0.005225      0.398604     -0.075054
      6.09804      9.00524     -5.03957        -0.005815      0.375274     -0.058440
      6.09466      7.59739    -10.68248         0.005232      0.398613     -0.075049
      1.52471      8.05258     -0.61345        -0.005622     -0.398688      0.066780
      1.50623      6.65998     -6.25064         0.017995     -0.408035      0.057634
      4.57135      8.04938     -0.61903        -0.000016     -0.400747      0.032726
      7.61799      8.05258     -0.61345         0.005632     -0.398699      0.066772
      7.63646      6.65998     -6.25065        -0.017968     -0.408027      0.057606
      0.00000      5.74327     -1.43453        -0.000011     -0.161388      0.108905
      9.14270      4.34977     -7.09418        -0.000015     -0.173505      0.120240
      3.04494      5.74278     -1.44317         0.006140     -0.150872      0.114035
      3.03575      4.34342     -7.10977        -0.010148     -0.189525      0.133736
      6.09777      5.74278     -1.44318        -0.006139     -0.150873      0.114047
      6.10695      4.34342     -7.10978         0.010151     -0.189531      0.133754
      1.52113     -0.98351     -4.20851         0.002168      0.167459     -0.120369
      1.52348     -2.37339     -9.86379         0.001163      0.167325     -0.113718
      4.57135     -0.98392     -4.20998        -0.000002      0.165204     -0.120381
      4.57135     -2.37510     -9.86333         0.000020      0.172584     -0.110391
      7.62157     -0.98351     -4.20851        -0.002153      0.167460     -0.120381
      7.61923     -2.37339     -9.86379        -0.001185      0.167325     -0.113726
      9.14270      1.35250     -3.17342        -0.000006     -0.042525     -0.103675
      0.00000     -0.04544     -8.82260        -0.000005     -0.038563     -0.113280
      3.04427      1.34077     -3.16914         0.000367     -0.034231     -0.112432
      3.04943     -0.04072     -8.82178        -0.001075     -0.041390     -0.115659
      6.09844      1.34077     -3.16914        -0.000374     -0.034214     -0.112436
      6.09327     -0.04073     -8.82178         0.001085     -0.041327     -0.115681
      1.53146      3.42432     -2.48785         0.003102      0.040279      0.111726
      1.52171      2.02260     -8.13661        -0.007316      0.030213      0.109585
      4.57135      3.40095     -2.47871         0.000010      0.032495      0.085512
      4.57135      2.03446     -8.13263        -0.000003      0.011835      0.095114
      7.61124      3.42432     -2.48785        -0.003112      0.040275      0.111708
      7.62099      2.02259     -8.13661         0.007314      0.030222      0.109576
      1.52737      2.86836     -5.03333         0.022823      0.374742     -0.068768
      1.52433      1.45791    -10.68793        -0.001405      0.404283     -0.083586
      4.57135      2.81040     -5.04808        -0.000009      0.452339     -0.038464
      4.57135      1.46412    -10.69689         0.000022      0.394962     -0.070785
      7.61533      2.86836     -5.03333        -0.022816      0.374741     -0.068761
      7.61838      1.45791    -10.68793         0.001390      0.404285     -0.083580
      0.00000      1.91655     -0.61833        -0.000008     -0.405046      0.072740
      0.00000      0.53642     -6.26356        -0.000019     -0.403967      0.073975
      3.04573      1.91014     -0.61222         0.003742     -0.401139      0.069722
      3.04295      0.52652     -6.26366         0.004368     -0.396198      0.073723
      6.09697      1.91014     -0.61222        -0.003742     -0.401148      0.069729
      6.09975      0.52651     -6.26367        -0.004354     -0.396186      0.073734
      4.57135      6.57871     -6.16800        -0.000013     -0.271785      0.531843
      4.57135      6.21268     -4.55072         0.000008     -0.207689     -0.259543
 -----------------------------------------------------------------------------------
    total drift:                                0.000033     -0.004054      0.027399


--------------------------------------------------------------------------------------------------------



  FREE ENERGIE OF THE ION-ELECTRON SYSTEM (eV)
  ---------------------------------------------------
  free  energy   TOTEN  =      -962.93605988 eV

  energy  without entropy=     -962.93605988  energy(sigma->0) =     -962.93605988
 


--------------------------------------------------------------------------------------------------------


    POTLOK:  cpu time      2.0076: real time      2.0144


--------------------------------------------------------------------------------------------------------


 writing wavefunctions
     LOOP+:  cpu time   9341.6827: real time   9342.3235
    4ORBIT:  cpu time      0.0000: real time      0.0000

 total amount of memory used by VASP MPI-rank0  7491133. kBytes
=======================================================================

   base      :      30000. kBytes
   nonlr-proj:      47114. kBytes
   fftplans  :      51012. kBytes
   grid      :     114966. kBytes
   one-center:       1866. kBytes
   HF        :        259. kBytes
   wavefun   :    7016646. kBytes
   fock_wrk  :     229270. kBytes
 
  
  
 General timing and accounting informations for this job:
 ========================================================
  
                  Total CPU time used (sec):     9372.316
                            User time (sec):     9361.166
                          System time (sec):       11.150
                         Elapsed time (sec):     9377.318
  
                   Maximum memory used (kb):    12878144.
                   Average memory used (kb):          N/A
  
                          Minor page faults:      4362570
                          Major page faults:            8
                 Voluntary context switches:       216861
