Ga8 O12                                 
    1.000000000000000     
     0.0000000000000000   12.2804737091000007    0.0000000000000000
     9.1427011490000005    0.0000000000000000    0.0000000000000000
     0.0000000000000000   -2.7682616411000001  -11.3006974810000003
   Ga   O    N    Fe
    47    71     1     1
Direct
  0.6588169965752390  0.0000000594398029  0.1565086148360747
  0.6581670429616929 -0.0000001506926736  0.6559559947422237
  0.6589353092776216  0.3332305686197257  0.1573449270027789
  0.6581885341293907  0.3309745134489311  0.6551134615015255
  0.6589353968775223  0.6667694551941162  0.1573451950524617
  0.6581883200014574  0.6690253605000818  0.6551154162938353
  0.8411571952086697  0.1665763008500856  0.3433134772197342
  0.8408337541524185  0.1665255916954299  0.8431530211684822
  0.8412479225829712  0.5000000158236555  0.3436218420946673
  0.8404512964465826  0.4999999123699620  0.8425141298738147
  0.8411573191672406  0.8334237704650013  0.3433136721070567
  0.8408338909113199  0.8334744483441128  0.8431535399638369
  0.5901948512333450  0.1696430253897141  0.3967670964989892
  0.5911787911232390  0.1667207826895725  0.8976176980076900
  0.5914253791930111  0.5000005229261030  0.8975683480924617
  0.5901951302317464  0.8303568762585892  0.3967672531575681
  0.5911780619999973  0.8332789023383176  0.8976177118855141
  0.9087992416360173  0.0000001036116665  0.1023516205631114
  0.9086329831846108  0.0000000577754531  0.6023007250955495
  0.9086913709484615  0.3332438774844234  0.1020194031198550
  0.9100404080391219  0.3332175940080543  0.6025668777061450
  0.9086914908191561  0.6667560050677307  0.1020197884904600
  0.9100400537399559  0.6667824976532110  0.6025671003140685
  0.1592752911113473  0.1668216570731790  0.1570681557524151
  0.1590279348703734  0.1665151742029109  0.6570286041955848
  0.1585891366512472  0.4999999286072737  0.1561997259275814
  0.1599061632567034  0.4999997660272860  0.6565896188671102
  0.1592750855859458  0.8331784734895140  0.1570678001041006
  0.1590276537448409  0.8334851311097519  0.6570284911334432
  0.3420677257805480 -0.0000001168406323  0.3429623030117130
  0.3408983166087205  0.0000000576362172  0.8435873695815268
  0.3406793172360099  0.3352761204561185  0.3439147242876667
  0.3411557259648302  0.3337430332878967  0.8436786636595979
  0.3406791573470673  0.6647239794485741  0.3439131216058686
  0.3411541459784763  0.6662568575890002  0.8436786335373178
  0.0914423174976750  0.0000000480677703  0.3977202064728887
  0.0910988231553502  0.0000001747384022  0.8980856723024575
  0.0909925815397997  0.3332540382499571  0.3976819092482081
  0.0909641683289427  0.3334006495878815  0.8975482580238499
  0.0909928530274494  0.6667460196754976  0.3976822296604418
  0.0909635399270433  0.6665992773187199  0.8975483936674070
  0.4089058006041041  0.1666869517619903  0.1021079304032383
  0.4080259033980561  0.1662045407526661  0.6027636910921603
  0.4094819824660707  0.5000000135657081  0.1035494782884838
  0.4100406423361641  0.4999998176788366  0.6021278729792729
  0.4089060025940377  0.8333131909918682  0.1021077202339738
  0.4080254266849092  0.8337947957934714  0.6027637300014961
  0.9963366490467735  0.1666100849401945  0.1270646243972229
  0.9966509777484681  0.1661440321782365  0.6276277087437331
  0.9961241588642191  0.4999998952182556  0.1269541417316497
  0.9972078130450097  0.5000000832003326  0.6276605254914895
  0.9963365566092316  0.8333900131049511  0.1270646063790631
  0.9966508158157060  0.8338560029947363  0.6276280896959548
  0.5044300536389733 -0.0000001035962293  0.3720964809770453
  0.5037053020003619 -0.0000000201760663  0.8728228867112352
  0.5044811432738836  0.3413228922478862  0.3725510703490295
  0.5038570684107475  0.3334029404444251  0.8733856637566639
  0.5044810801968053  0.6586772725251431  0.3725512315492042
  0.5038559004481176  0.6665972647016206  0.8733857945656253
  0.6724237284487639  0.1670645990030818  0.2804787082359503
  0.6724627006248515  0.1666659355515403  0.7799879045307990
  0.6725543976823272  0.4999999638997180  0.2820366170873711
  0.6722823404261792  0.5000000590984428  0.7793873068841789
  0.6724238081729017  0.8329354680564401  0.2804787399559468
  0.6724626451754413  0.8333341229701214  0.7799885143263819
  0.8271856936298464  0.0000000279536991  0.2194667263928561
  0.8271224033270953 -0.0000000060398681  0.7193364232252463
  0.8275772830956477  0.3333606831834722  0.2195323374617091
  0.8273038620630413  0.3337230461715245  0.7186421631984761
  0.8275773187152088  0.6666393333277554  0.2195324874459675
  0.8273039614659817  0.6662769231910345  0.7186425993755966
  0.8325792032763396  0.0000000495988110  0.4456227996388076
  0.8318699956577530  0.0000001193793365  0.9456909716102601
  0.8338236036490164  0.3330159300382410  0.4459518782762837
  0.8317437818973432  0.3333849139784679  0.9452935589716770
  0.8338235816797458  0.6669840954352645  0.4459520013635324
  0.8317439538624725  0.6666149472667419  0.9452938084379333
  0.6679594172306955  0.1667677710131551  0.0542845456121487
  0.6670072589027620  0.1647467774724385  0.5531198650981530
  0.6678096523548885  0.5000002247053245  0.0547782810428208
  0.6679592537623644  0.8332321020138285  0.0542844759168550
  0.6670069694088564  0.8352525505504985  0.5531203461720480
  0.4962900826173162  0.0000001093878074  0.1269420413449855
  0.4957123328069061 -0.0000003068599247  0.6277646370162876
  0.4964224511811748  0.3330455387374620  0.1277063677463686
  0.4955066742840347  0.3320409005354292  0.6291440963233448
  0.4964224699243761  0.6669544892959843  0.1277068065005074
  0.4955065422987781  0.6679588283233595  0.6291452819414823
  0.0038616969641522  0.1663769627179371  0.3724112535216574
  0.0034919821158169  0.1666330412660485  0.8728479218616372
  0.0038575086013140  0.5000001150209117  0.3725418315523042
  0.0033435217652659  0.4999997280034076  0.8728067906848653
  0.0038618036754049  0.8336230227043441  0.3724114965886482
  0.0034919417796919  0.8333673174853667  0.8728480886297778
  0.1734358121628221 -0.0000000112863743  0.2808164937646022
  0.1722883554202822  0.0000001485767419  0.7807131630432521
  0.1723955040626177  0.3329723053393938  0.2804376511240982
  0.1726561918859885  0.3335368650010608  0.7806407471097999
  0.1723952736790528  0.6670277251400804  0.2804375068666055
  0.1726553975335097  0.6664629642264904  0.7806406770669755
  0.3284687065711656  0.1675065619491198  0.2201503476782618
  0.3270046575285805  0.1664394622332410  0.7200095130701319
  0.3263832933927783  0.4999999785110408  0.2193411530696812
  0.3278910679930372  0.4999999153054441  0.7196576392004793
  0.3284685205371425  0.8324934888257883  0.2201497671817608
  0.3270041572108460  0.8335605296357427  0.7200095283628282
  0.3339729431111391  0.1670586681812413  0.4453999508963432
  0.3319143618079893  0.1667259812295863  0.9457761399057152
  0.3295472884877295  0.5000003068429562  0.4467052880204743
  0.3325989755724206  0.4999997077846858  0.9465692298077937
  0.3339730101021789  0.8329409324839179  0.4453996896836085
  0.3319140230189989  0.8332743025041019  0.9457761590734201
  0.1683987739196901  0.0000001514372000  0.0547164825218548
  0.1686228858934850  0.0000001628696529  0.5542630986835282
  0.1677549479186866  0.3331320710907518  0.0541750728688850
  0.1678181272059011  0.3328284955475012  0.5542723055536454
  0.1677549135236580  0.6668678395002943  0.0541750323353270
  0.1678180282819614  0.6671714402246011  0.5542726790796689
  0.6587407249729457  0.5000004354392223  0.5458071863893152
  0.5966742804468361  0.5000001576549031  0.4026937804954511
 
  0.00000000E+00  0.00000000E+00  0.00000000E+00
  0.00000000E+00  0.00000000E+00  0.00000000E+00
  0.00000000E+00  0.00000000E+00  0.00000000E+00
  0.00000000E+00  0.00000000E+00  0.00000000E+00
  0.00000000E+00  0.00000000E+00  0.00000000E+00
  0.00000000E+00  0.00000000E+00  0.00000000E+00
  0.00000000E+00  0.00000000E+00  0.00000000E+00
  0.00000000E+00  0.00000000E+00  0.00000000E+00
  0.00000000E+00  0.00000000E+00  0.00000000E+00
  0.00000000E+00  0.00000000E+00  0.00000000E+00
  0.00000000E+00  0.00000000E+00  0.00000000E+00
  0.00000000E+00  0.00000000E+00  0.00000000E+00
  0.00000000E+00  0.00000000E+00  0.00000000E+00
  0.00000000E+00  0.00000000E+00  0.00000000E+00
  0.00000000E+00  0.00000000E+00  0.00000000E+00
  0.00000000E+00  0.00000000E+00  0.00000000E+00
  0.00000000E+00  0.00000000E+00  0.00000000E+00
  0.00000000E+00  0.00000000E+00  0.00000000E+00
  0.00000000E+00  0.00000000E+00  0.00000000E+00
  0.00000000E+00  0.00000000E+00  0.00000000E+00
  0.00000000E+00  0.00000000E+00  0.00000000E+00
  0.00000000E+00  0.00000000E+00  0.00000000E+00
  0.00000000E+00  0.00000000E+00  0.00000000E+00
  0.00000000E+00  0.00000000E+00  0.00000000E+00
  0.00000000E+00  0.00000000E+00  0.00000000E+00
  0.00000000E+00  0.00000000E+00  0.00000000E+00
  0.00000000E+00  0.00000000E+00  0.00000000E+00
  0.00000000E+00  0.00000000E+00  0.00000000E+00
  0.00000000E+00  0.00000000E+00  0.00000000E+00
  0.00000000E+00  0.00000000E+00  0.00000000E+00
  0.00000000E+00  0.00000000E+00  0.00000000E+00
  0.00000000E+00  0.00000000E+00  0.00000000E+00
  0.00000000E+00  0.00000000E+00  0.00000000E+00
  0.00000000E+00  0.00000000E+00  0.00000000E+00
  0.00000000E+00  0.00000000E+00  0.00000000E+00
  0.00000000E+00  0.00000000E+00  0.00000000E+00
  0.00000000E+00  0.00000000E+00  0.00000000E+00
  0.00000000E+00  0.00000000E+00  0.00000000E+00
  0.00000000E+00  0.00000000E+00  0.00000000E+00
  0.00000000E+00  0.00000000E+00  0.00000000E+00
  0.00000000E+00  0.00000000E+00  0.00000000E+00
  0.00000000E+00  0.00000000E+00  0.00000000E+00
  0.00000000E+00  0.00000000E+00  0.00000000E+00
  0.00000000E+00  0.00000000E+00  0.00000000E+00
  0.00000000E+00  0.00000000E+00  0.00000000E+00
  0.00000000E+00  0.00000000E+00  0.00000000E+00
  0.00000000E+00  0.00000000E+00  0.00000000E+00
  0.00000000E+00  0.00000000E+00  0.00000000E+00
  0.00000000E+00  0.00000000E+00  0.00000000E+00
  0.00000000E+00  0.00000000E+00  0.00000000E+00
  0.00000000E+00  0.00000000E+00  0.00000000E+00
  0.00000000E+00  0.00000000E+00  0.00000000E+00
  0.00000000E+00  0.00000000E+00  0.00000000E+00
  0.00000000E+00  0.00000000E+00  0.00000000E+00
  0.00000000E+00  0.00000000E+00  0.00000000E+00
  0.00000000E+00  0.00000000E+00  0.00000000E+00
  0.00000000E+00  0.00000000E+00  0.00000000E+00
  0.00000000E+00  0.00000000E+00  0.00000000E+00
  0.00000000E+00  0.00000000E+00  0.00000000E+00
  0.00000000E+00  0.00000000E+00  0.00000000E+00
  0.00000000E+00  0.00000000E+00  0.00000000E+00
  0.00000000E+00  0.00000000E+00  0.00000000E+00
  0.00000000E+00  0.00000000E+00  0.00000000E+00
  0.00000000E+00  0.00000000E+00  0.00000000E+00
  0.00000000E+00  0.00000000E+00  0.00000000E+00
  0.00000000E+00  0.00000000E+00  0.00000000E+00
  0.00000000E+00  0.00000000E+00  0.00000000E+00
  0.00000000E+00  0.00000000E+00  0.00000000E+00
  0.00000000E+00  0.00000000E+00  0.00000000E+00
  0.00000000E+00  0.00000000E+00  0.00000000E+00
  0.00000000E+00  0.00000000E+00  0.00000000E+00
  0.00000000E+00  0.00000000E+00  0.00000000E+00
  0.00000000E+00  0.00000000E+00  0.00000000E+00
  0.00000000E+00  0.00000000E+00  0.00000000E+00
  0.00000000E+00  0.00000000E+00  0.00000000E+00
  0.00000000E+00  0.00000000E+00  0.00000000E+00
  0.00000000E+00  0.00000000E+00  0.00000000E+00
  0.00000000E+00  0.00000000E+00  0.00000000E+00
  0.00000000E+00  0.00000000E+00  0.00000000E+00
  0.00000000E+00  0.00000000E+00  0.00000000E+00
  0.00000000E+00  0.00000000E+00  0.00000000E+00
  0.00000000E+00  0.00000000E+00  0.00000000E+00
  0.00000000E+00  0.00000000E+00  0.00000000E+00
  0.00000000E+00  0.00000000E+00  0.00000000E+00
  0.00000000E+00  0.00000000E+00  0.00000000E+00
  0.00000000E+00  0.00000000E+00  0.00000000E+00
  0.00000000E+00  0.00000000E+00  0.00000000E+00
  0.00000000E+00  0.00000000E+00  0.00000000E+00
  0.00000000E+00  0.00000000E+00  0.00000000E+00
  0.00000000E+00  0.00000000E+00  0.00000000E+00
  0.00000000E+00  0.00000000E+00  0.00000000E+00
  0.00000000E+00  0.00000000E+00  0.00000000E+00
  0.00000000E+00  0.00000000E+00  0.00000000E+00
  0.00000000E+00  0.00000000E+00  0.00000000E+00
  0.00000000E+00  0.00000000E+00  0.00000000E+00
  0.00000000E+00  0.00000000E+00  0.00000000E+00
  0.00000000E+00  0.00000000E+00  0.00000000E+00
  0.00000000E+00  0.00000000E+00  0.00000000E+00
  0.00000000E+00  0.00000000E+00  0.00000000E+00
  0.00000000E+00  0.00000000E+00  0.00000000E+00
  0.00000000E+00  0.00000000E+00  0.00000000E+00
  0.00000000E+00  0.00000000E+00  0.00000000E+00
  0.00000000E+00  0.00000000E+00  0.00000000E+00
  0.00000000E+00  0.00000000E+00  0.00000000E+00
  0.00000000E+00  0.00000000E+00  0.00000000E+00
  0.00000000E+00  0.00000000E+00  0.00000000E+00
  0.00000000E+00  0.00000000E+00  0.00000000E+00
  0.00000000E+00  0.00000000E+00  0.00000000E+00
  0.00000000E+00  0.00000000E+00  0.00000000E+00
  0.00000000E+00  0.00000000E+00  0.00000000E+00
  0.00000000E+00  0.00000000E+00  0.00000000E+00
  0.00000000E+00  0.00000000E+00  0.00000000E+00
  0.00000000E+00  0.00000000E+00  0.00000000E+00
  0.00000000E+00  0.00000000E+00  0.00000000E+00
  0.00000000E+00  0.00000000E+00  0.00000000E+00
  0.00000000E+00  0.00000000E+00  0.00000000E+00
  0.00000000E+00  0.00000000E+00  0.00000000E+00
  0.00000000E+00  0.00000000E+00  0.00000000E+00
  0.00000000E+00  0.00000000E+00  0.00000000E+00
  0.00000000E+00  0.00000000E+00  0.00000000E+00
