 running    4 mpi-ranks, on    1 nodes
 distrk:  each k-point on    1 cores,    4 groups
 distr:  one band on    1 cores,    1 groups
 OpenACC runtime initialized ...    4 GPUs detected
 vasp.6.4.2 20Jul23 (build Nov 12 2023 22:16:35) complex                         
 POSCAR found type information on POSCAR GaO Cu
 POSCAR found :  3 types and     120 ions
 scaLAPACK will be used selectively (only on CPU)
 LDA part: xc-table for Pade appr. of Perdew
 POSCAR, INCAR and KPOINTS ok, starting setup
 FFT: planning ... GRIDC
 FFT: planning ... GRID_SOFT
 FFT: planning ... GRID
 WAVECAR not read
 initial charge from wavefunction
 entering main loop
       N       E                     dE             d eps       ncg     rms          ort
DAV:   1    -0.182342430895E+05   -0.18234E+05   -0.54035E+05  5064   0.743E+03
DAV:   2    -0.622748151529E+05   -0.44041E+05   -0.42746E+05  5064   0.120E+03
DAV:   3    -0.668052909074E+05   -0.45305E+04   -0.40315E+04  5064   0.349E+02
DAV:   4    -0.673328011147E+05   -0.52751E+03   -0.44867E+03  5064   0.103E+02
DAV:   5    -0.372695394660E+05    0.30063E+05   -0.71451E+02  5064   0.537E+01
 gam= 0.000 g(H,U,f)=  0.671E+05 0.328E+05 0.146E+05 ort(H,U,f) = 0.000E+00 0.000E+00 0.000E+00
SDA:   6     0.182712781057E+05    0.55541E+05   -0.71451E+02  5064   0.115E+06 0.000E+00
 gam= 0.000 trial= 0.400  step= 0.248 mean= 0.400
 gam= 0.241 g(H,U,f)=  0.169E+05 0.710E+04 0.355E+04 ort(H,U,f) = 0.181E+05-0.422E+04-0.475E+04
CGA:   7     0.508078015293E+04   -0.13190E+05   -0.14202E+05  5064   0.276E+05 0.908E+04
 gam= 0.241 trial= 0.392  step= 0.216 mean= 0.392
 gam= 0.465 g(H,U,f)=  0.455E+04 0.678E+04 0.151E+04 ort(H,U,f) = 0.135E+04-0.753E+04-0.170E+04
CGA:   8     0.116426936495E+04   -0.39165E+04   -0.32243E+04  5064   0.128E+05-0.788E+04
 gam= 0.465 trial= 0.384  step= 0.199 mean= 0.384
 gam= 0.514 g(H,U,f)=  0.350E+04 0.293E+04 0.171E+03 ort(H,U,f) =-0.405E+03-0.620E+03-0.106E+03
CGA:   9     0.555373119218E+03   -0.60890E+03   -0.91045E+03  5064   0.660E+04-0.113E+04
 gam= 0.514 trial= 0.374  step= 0.173 mean= 0.374
 gam= 0.668 g(H,U,f)=  0.219E+04 0.216E+04 0.610E+02 ort(H,U,f) =-0.604E+01 0.188E+03 0.739E+02
CGA:  10     0.214852429449E+02   -0.53389E+03   -0.52196E+03  5064   0.441E+04 0.256E+03
 gam= 0.668 trial= 0.364  step= 0.248 mean= 0.364
 gam= 0.342 g(H,U,f)=  0.109E+04 0.417E+03 0.297E+01 ort(H,U,f) =-0.988E+02 0.360E+03 0.478E+01
CGA:  11    -0.458456381495E+03   -0.47994E+03   -0.56707E+03  5064   0.151E+04 0.266E+03
 gam= 0.342 trial= 0.358  step= 0.354 mean= 0.358
 gam= 0.273 g(H,U,f)=  0.341E+03 0.700E+02 0.216E+01 ort(H,U,f) = 0.101E+02 0.126E+03 0.416E+00
CGA:  12    -0.741270786657E+03   -0.28281E+03   -0.28341E+03  5064   0.413E+03 0.136E+03
 gam= 0.273 trial= 0.358  step= 0.465 mean= 0.358
 gam= 0.396 g(H,U,f)=  0.138E+03 0.241E+02 0.853E+00 ort(H,U,f) =-0.236E+02 0.279E+02 0.169E+01
CGA:  13    -0.846149231311E+03   -0.10488E+03   -0.10468E+03  5064   0.163E+03 0.601E+01
 gam= 0.396 trial= 0.364  step= 0.617 mean= 0.364
 gam= 0.643 g(H,U,f)=  0.893E+02 0.156E+02 0.149E+00 ort(H,U,f) =-0.279E+02 0.255E+02 0.539E+00
CGA:  14    -0.897956315853E+03   -0.51807E+02   -0.51121E+02  5064   0.105E+03-0.180E+01
 gam= 0.643 trial= 0.376  step= 0.450 mean= 0.376
 gam= 0.536 g(H,U,f)=  0.468E+02 0.738E+01 0.205E+01 ort(H,U,f) =-0.165E+02 0.156E+02 0.479E+01
CGA:  15    -0.921324069442E+03   -0.23368E+02   -0.23340E+02  5064   0.563E+02 0.382E+01
 gam= 0.536 trial= 0.380  step= 0.466 mean= 0.380
 gam= 0.505 g(H,U,f)=  0.247E+02 0.354E+01 0.162E+00 ort(H,U,f) =-0.172E+01 0.163E+01 0.582E+00
CGA:  16    -0.935132242151E+03   -0.13808E+02   -0.13581E+02  5064   0.284E+02 0.497E+00
 gam= 0.505 trial= 0.384  step= 0.410 mean= 0.384
 gam= 0.445 g(H,U,f)=  0.101E+02 0.250E+01 0.911E-01 ort(H,U,f) = 0.186E+01 0.146E+01-0.229E+00
CGA:  17    -0.941082211921E+03   -0.59500E+01   -0.58759E+01  5064   0.126E+02 0.309E+01
 gam= 0.445 trial= 0.386  step= 0.503 mean= 0.386
 gam= 0.615 g(H,U,f)=  0.675E+01 0.101E+01 0.275E-01 ort(H,U,f) =-0.180E+01 0.104E+01 0.358E-01
CGA:  18    -0.944553868170E+03   -0.34717E+01   -0.35292E+01  5064   0.778E+01-0.720E+00
 gam= 0.615 trial= 0.391  step= 0.439 mean= 0.391
 gam= 0.497 g(H,U,f)=  0.338E+01 0.490E+00 0.503E-02 ort(H,U,f) =-0.454E+00 0.600E+00 0.130E-01
CGA:  19    -0.946174442342E+03   -0.16206E+01   -0.16129E+01  5064   0.387E+01 0.159E+00
 gam= 0.497 trial= 0.394  step= 0.457 mean= 0.394
 gam= 0.602 g(H,U,f)=  0.206E+01 0.267E+00 0.512E-03 ort(H,U,f) =-0.389E+00 0.393E+00 0.183E-02
CGA:  20    -0.947076823554E+03   -0.90238E+00   -0.90184E+00  5064   0.233E+01 0.641E-02
 gam= 0.602 trial= 0.397  step= 0.410 mean= 0.397
 gam= 0.542 g(H,U,f)=  0.112E+01 0.139E+00 0.664E-03 ort(H,U,f) =-0.613E-01 0.516E-01-0.311E-03
CGA:  21    -0.947554593721E+03   -0.47777E+00   -0.47790E+00  5064   0.126E+01-0.101E-01
 gam= 0.542 trial= 0.398  step= 0.466 mean= 0.398
 gam= 0.571 g(H,U,f)=  0.603E+00 0.117E+00 0.797E-03 ort(H,U,f) =-0.309E-01 0.330E-01 0.600E-03
CGA:  22    -0.947847537224E+03   -0.29294E+00   -0.29286E+00  5064   0.721E+00 0.263E-02
 gam= 0.571 trial= 0.401  step= 0.358 mean= 0.401
 gam= 0.522 g(H,U,f)=  0.321E+00 0.547E-01 0.270E-03 ort(H,U,f) =-0.719E-01 0.714E-01 0.745E-03
CGA:  23    -0.947976768958E+03   -0.12923E+00   -0.12921E+00  5064   0.376E+00 0.227E-03
 gam= 0.522 trial= 0.399  step= 0.508 mean= 0.399
 gam= 0.576 g(H,U,f)=  0.184E+00 0.328E-01 0.154E-03 ort(H,U,f) =-0.436E-01 0.436E-01 0.495E-03
CGA:  24    -0.948072490824E+03   -0.95722E-01   -0.95687E-01  5064   0.217E+00 0.479E-03
 gam= 0.576 trial= 0.404  step= 0.474 mean= 0.404
 gam= 0.781 g(H,U,f)=  0.139E+00 0.307E-01 0.141E-03 ort(H,U,f) =-0.343E-01 0.345E-01 0.375E-03
CGA:  25    -0.948124013480E+03   -0.51523E-01   -0.51494E-01  5064   0.169E+00 0.547E-03
 gam= 0.781 trial= 0.408  step= 0.464 mean= 0.408
 gam= 0.641 g(H,U,f)=  0.884E-01 0.201E-01 0.103E-03 ort(H,U,f) =-0.333E-01 0.326E-01 0.278E-03
CGA:  26    -0.948163370169E+03   -0.39357E-01   -0.39376E-01  5064   0.109E+00-0.417E-03
 gam= 0.641 trial= 0.411  step= 0.495 mean= 0.411
 gam= 0.889 g(H,U,f)=  0.771E-01 0.194E-01 0.109E-03 ort(H,U,f) =-0.261E-01 0.251E-01 0.251E-03
CGA:  27    -0.948190102544E+03   -0.26732E-01   -0.26778E-01  5064   0.966E-01-0.761E-03
 gam= 0.889 trial= 0.415  step= 0.438 mean= 0.415
 gam= 0.717 g(H,U,f)=  0.517E-01 0.174E-01 0.139E-03 ort(H,U,f) =-0.351E-01 0.345E-01 0.360E-03
CGA:  28    -0.948211110893E+03   -0.21008E-01   -0.21012E-01  5064   0.692E-01-0.225E-03
 gam= 0.717 trial= 0.416  step= 0.598 mean= 0.416
 gam= 1.005 g(H,U,f)=  0.554E-01 0.141E-01 0.142E-03 ort(H,U,f) =-0.311E-01 0.299E-01 0.382E-03
CGA:  29    -0.948231654929E+03   -0.20544E-01   -0.20639E-01  5064   0.696E-01-0.805E-03
 gam= 1.005 trial= 0.425  step= 0.466 mean= 0.425
 gam= 0.817 g(H,U,f)=  0.437E-01 0.130E-01 0.126E-03 ort(H,U,f) =-0.221E-01 0.210E-01 0.453E-03
CGA:  30    -0.948247641442E+03   -0.15987E-01   -0.16011E-01  5064   0.568E-01-0.690E-03
 gam= 0.817 trial= 0.427  step= 0.557 mean= 0.427
 gam= 0.873 g(H,U,f)=  0.381E-01 0.114E-01 0.105E-03 ort(H,U,f) =-0.123E-01 0.122E-01 0.379E-03
CGA:  31    -0.948263330049E+03   -0.15689E-01   -0.15672E-01  5064   0.496E-01 0.235E-03
 gam= 0.873 trial= 0.434  step= 0.459 mean= 0.434
 gam= 0.762 g(H,U,f)=  0.326E-01 0.517E-02 0.716E-04 ort(H,U,f) =-0.940E-02 0.965E-02 0.298E-03
CGA:  32    -0.948274780246E+03   -0.11450E-01   -0.11439E-01  5064   0.378E-01 0.540E-03
 gam= 0.762 trial= 0.435  step= 0.500 mean= 0.435
 gam= 0.725 g(H,U,f)=  0.241E-01 0.322E-02 0.527E-04 ort(H,U,f) =-0.331E-02 0.345E-02 0.206E-03
CGA:  33    -0.948284360950E+03   -0.95807E-02   -0.95650E-02  5064   0.274E-01 0.351E-03
 gam= 0.725 trial= 0.438  step= 0.404 mean= 0.438
 gam= 0.652 g(H,U,f)=  0.143E-01 0.352E-02 0.446E-04 ort(H,U,f) =-0.228E-02 0.220E-02 0.172E-03
CGA:  34    -0.948289953769E+03   -0.55928E-02   -0.55948E-02  5064   0.179E-01 0.954E-04
 gam= 0.652 trial= 0.436  step= 0.459 mean= 0.436
 gam= 0.567 g(H,U,f)=  0.812E-02 0.199E-02 0.230E-04 ort(H,U,f) =-0.155E-02 0.153E-02 0.101E-03
CGA:  35    -0.948294075803E+03   -0.41220E-02   -0.41212E-02  5064   0.101E-01 0.735E-04
 gam= 0.567 trial= 0.438  step= 0.434 mean= 0.438
 gam= 0.636 g(H,U,f)=  0.520E-02 0.123E-02 0.847E-05 ort(H,U,f) =-0.354E-03 0.358E-03 0.342E-04
CGA:  36    -0.948296284442E+03   -0.22086E-02   -0.22087E-02  5064   0.644E-02 0.381E-04
 gam= 0.636 trial= 0.437  step= 0.485 mean= 0.437
 gam= 0.000 g(H,U,f)=  0.290E-02 0.787E-03 0.282E-05 ort(H,U,f) =-0.422E-03 0.444E-03 0.756E-05
SDA:  37    -0.948297853401E+03   -0.15690E-02   -0.15683E-02  5064   0.369E-02 0.294E-04
 gam= 0.000 trial= 0.440  step= 0.807 mean= 0.440
 gam= 0.615 g(H,U,f)=  0.173E-02 0.537E-03 0.142E-05 ort(H,U,f) =-0.415E-03 0.403E-03 0.184E-05
CGA:  38    -0.948299338949E+03   -0.14855E-02   -0.14875E-02  5064   0.227E-02-0.105E-04
 gam= 0.615 trial= 0.458  step= 0.571 mean= 0.458
 gam= 0.557 g(H,U,f)=  0.936E-03 0.326E-03 0.832E-06 ort(H,U,f) =-0.531E-03 0.522E-03 0.130E-05
CGA:  39    -0.948299983602E+03   -0.64465E-03   -0.64510E-03  5064   0.126E-02-0.826E-05
 gam= 0.557 trial= 0.464  step= 0.833 mean= 0.464
 gam= 0.448 g(H,U,f)=  0.439E-03 0.126E-03 0.334E-06 ort(H,U,f) =-0.348E-03 0.327E-03 0.455E-06
CGA:  40    -0.948300504010E+03   -0.52041E-03   -0.52427E-03  5064   0.566E-03-0.207E-04
 gam= 0.448 trial= 0.482  step= 0.958 mean= 0.482
 gam= 0.612 g(H,U,f)=  0.274E-03 0.714E-04 0.879E-06 ort(H,U,f) =-0.151E-03 0.148E-03 0.549E-06
CGA:  41    -0.948300769966E+03   -0.26596E-03   -0.26651E-03  5064   0.346E-03-0.231E-05
 gam= 0.612 trial= 0.506  step= 0.874 mean= 0.506
 gam= 0.606 g(H,U,f)=  0.169E-03 0.403E-04 0.619E-06 ort(H,U,f) =-0.922E-04 0.895E-04 0.909E-06
CGA:  42    -0.948300920252E+03   -0.15029E-03   -0.15063E-03  5064   0.210E-03-0.179E-05
 gam= 0.606 trial= 0.524  step= 0.735 mean= 0.524
 gam= 0.598 g(H,U,f)=  0.103E-03 0.220E-04 0.587E-06 ort(H,U,f) =-0.464E-04 0.461E-04 0.116E-05
CGA:  43    -0.948300997031E+03   -0.76779E-04   -0.76677E-04  5064   0.125E-03 0.861E-06
 gam= 0.598 trial= 0.535  step= 0.711 mean= 0.535
 gam= 0.456 g(H,U,f)=  0.495E-04 0.752E-05 0.176E-06 ort(H,U,f) =-0.239E-04 0.240E-04 0.691E-06
CGA:  44    -0.948301041876E+03   -0.44846E-04   -0.44775E-04  5064   0.572E-04 0.803E-06
 gam= 0.456 trial= 0.544  step= 0.669 mean= 0.544
 gam= 0.374 g(H,U,f)=  0.190E-04 0.230E-05 0.921E-07 ort(H,U,f) =-0.650E-05 0.741E-05 0.358E-06
CGA:  45    -0.948301061205E+03   -0.19328E-04   -0.19248E-04  5064   0.214E-04 0.127E-05
 gam= 0.374 trial= 0.550  step= 0.636 mean= 0.550
 gam= 0.337 g(H,U,f)=  0.652E-05 0.647E-06 0.235E-07 ort(H,U,f) =-0.140E-05 0.223E-05 0.113E-06
CGA:  46    -0.948301068191E+03   -0.69865E-05   -0.69470E-05  5064   0.720E-05 0.945E-06
 gam= 0.337 trial= 0.554  step= 0.680 mean= 0.554
 final diagonalization
   1 F= -.94830107E+03 E0= -.94828791E+03  d E =-.263139E-01
 writing wavefunctions
Warning: ieee_invalid is signaling
Warning: ieee_divide_by_zero is signaling
Warning: ieee_underflow is signaling
Warning: ieee_inexact is signaling
FORTRAN STOP
Warning: ieee_invalid is signaling
Warning: ieee_divide_by_zero is signaling
Warning: ieee_underflow is signaling
Warning: ieee_inexact is signaling
FORTRAN STOP
Warning: ieee_invalid is signaling
Warning: ieee_divide_by_zero is signaling
Warning: ieee_underflow is signaling
Warning: ieee_inexact is signaling
FORTRAN STOP
Warning: ieee_invalid is signaling
Warning: ieee_divide_by_zero is signaling
Warning: ieee_underflow is signaling
Warning: ieee_inexact is signaling
FORTRAN STOP
