       N       E                     dE             d eps       ncg     rms          ort
DAV:   1    -0.182342430895E+05   -0.18234E+05   -0.54035E+05  5064   0.743E+03
DAV:   2    -0.622748151529E+05   -0.44041E+05   -0.42746E+05  5064   0.120E+03
DAV:   3    -0.668052909074E+05   -0.45305E+04   -0.40315E+04  5064   0.349E+02
DAV:   4    -0.673328011147E+05   -0.52751E+03   -0.44867E+03  5064   0.103E+02
DAV:   5    -0.372695394660E+05    0.30063E+05   -0.71451E+02  5064   0.537E+01
SDA:   6     0.182712781057E+05    0.55541E+05   -0.71451E+02  5064   0.115E+06 0.000E+00
CGA:   7     0.508078015293E+04   -0.13190E+05   -0.14202E+05  5064   0.276E+05 0.908E+04
CGA:   8     0.116426936495E+04   -0.39165E+04   -0.32243E+04  5064   0.128E+05-0.788E+04
CGA:   9     0.555373119218E+03   -0.60890E+03   -0.91045E+03  5064   0.660E+04-0.113E+04
CGA:  10     0.214852429449E+02   -0.53389E+03   -0.52196E+03  5064   0.441E+04 0.256E+03
CGA:  11    -0.458456381495E+03   -0.47994E+03   -0.56707E+03  5064   0.151E+04 0.266E+03
CGA:  12    -0.741270786657E+03   -0.28281E+03   -0.28341E+03  5064   0.413E+03 0.136E+03
CGA:  13    -0.846149231311E+03   -0.10488E+03   -0.10468E+03  5064   0.163E+03 0.601E+01
CGA:  14    -0.897956315853E+03   -0.51807E+02   -0.51121E+02  5064   0.105E+03-0.180E+01
CGA:  15    -0.921324069442E+03   -0.23368E+02   -0.23340E+02  5064   0.563E+02 0.382E+01
CGA:  16    -0.935132242151E+03   -0.13808E+02   -0.13581E+02  5064   0.284E+02 0.497E+00
CGA:  17    -0.941082211921E+03   -0.59500E+01   -0.58759E+01  5064   0.126E+02 0.309E+01
CGA:  18    -0.944553868170E+03   -0.34717E+01   -0.35292E+01  5064   0.778E+01-0.720E+00
CGA:  19    -0.946174442342E+03   -0.16206E+01   -0.16129E+01  5064   0.387E+01 0.159E+00
CGA:  20    -0.947076823554E+03   -0.90238E+00   -0.90184E+00  5064   0.233E+01 0.641E-02
CGA:  21    -0.947554593721E+03   -0.47777E+00   -0.47790E+00  5064   0.126E+01-0.101E-01
CGA:  22    -0.947847537224E+03   -0.29294E+00   -0.29286E+00  5064   0.721E+00 0.263E-02
CGA:  23    -0.947976768958E+03   -0.12923E+00   -0.12921E+00  5064   0.376E+00 0.227E-03
CGA:  24    -0.948072490824E+03   -0.95722E-01   -0.95687E-01  5064   0.217E+00 0.479E-03
CGA:  25    -0.948124013480E+03   -0.51523E-01   -0.51494E-01  5064   0.169E+00 0.547E-03
CGA:  26    -0.948163370169E+03   -0.39357E-01   -0.39376E-01  5064   0.109E+00-0.417E-03
CGA:  27    -0.948190102544E+03   -0.26732E-01   -0.26778E-01  5064   0.966E-01-0.761E-03
CGA:  28    -0.948211110893E+03   -0.21008E-01   -0.21012E-01  5064   0.692E-01-0.225E-03
CGA:  29    -0.948231654929E+03   -0.20544E-01   -0.20639E-01  5064   0.696E-01-0.805E-03
CGA:  30    -0.948247641442E+03   -0.15987E-01   -0.16011E-01  5064   0.568E-01-0.690E-03
CGA:  31    -0.948263330049E+03   -0.15689E-01   -0.15672E-01  5064   0.496E-01 0.235E-03
CGA:  32    -0.948274780246E+03   -0.11450E-01   -0.11439E-01  5064   0.378E-01 0.540E-03
CGA:  33    -0.948284360950E+03   -0.95807E-02   -0.95650E-02  5064   0.274E-01 0.351E-03
CGA:  34    -0.948289953769E+03   -0.55928E-02   -0.55948E-02  5064   0.179E-01 0.954E-04
CGA:  35    -0.948294075803E+03   -0.41220E-02   -0.41212E-02  5064   0.101E-01 0.735E-04
CGA:  36    -0.948296284442E+03   -0.22086E-02   -0.22087E-02  5064   0.644E-02 0.381E-04
SDA:  37    -0.948297853401E+03   -0.15690E-02   -0.15683E-02  5064   0.369E-02 0.294E-04
CGA:  38    -0.948299338949E+03   -0.14855E-02   -0.14875E-02  5064   0.227E-02-0.105E-04
CGA:  39    -0.948299983602E+03   -0.64465E-03   -0.64510E-03  5064   0.126E-02-0.826E-05
CGA:  40    -0.948300504010E+03   -0.52041E-03   -0.52427E-03  5064   0.566E-03-0.207E-04
CGA:  41    -0.948300769966E+03   -0.26596E-03   -0.26651E-03  5064   0.346E-03-0.231E-05
CGA:  42    -0.948300920252E+03   -0.15029E-03   -0.15063E-03  5064   0.210E-03-0.179E-05
CGA:  43    -0.948300997031E+03   -0.76779E-04   -0.76677E-04  5064   0.125E-03 0.861E-06
CGA:  44    -0.948301041876E+03   -0.44846E-04   -0.44775E-04  5064   0.572E-04 0.803E-06
CGA:  45    -0.948301061205E+03   -0.19328E-04   -0.19248E-04  5064   0.214E-04 0.127E-05
CGA:  46    -0.948301068191E+03   -0.69865E-05   -0.69470E-05  5064   0.720E-05 0.945E-06
   1 F= -.94830107E+03 E0= -.94828791E+03  d E =-.263139E-01
