 vasp.6.4.2 20Jul23 (build Nov 12 2023 22:16:35) complex                         
 executed on              LinuxNV date 2025.05.07  00:31:19
 running    4 mpi-ranks, on    1 nodes
 distrk:  each k-point on    1 cores,    4 groups
 distr:  one band on NCORE=   1 cores,    1 groups
 OpenACC runtime initialized ...    4 GPUs detected


--------------------------------------------------------------------------------------------------------


 INCAR:
   PREC = Normal
   ENCUT = 450
   NELM = 500
   IBRION = -1
   ISPIN = 1
   NSW = 0
   ISIF = 2
   EDIFF = 1E-5
   EDIFFG = -5E-3
   ISTART = 0
   ICHARG = 0
   ISMEAR = 0
   SIGMA = 0.05
   LWAVE = .T.
   LCHARG = .T.
   LREAL = Auto
   LPLANE = .TRUE.
   NPAR = 1
   KPAR = 4
   NCORE = 1
   ALGO = All
   LHFCALC = .TRUE.
   HSE06 = .TRUE.
   HFSCREEN = 0.2
   TIME = 0.4
   AEXX = 0.32
   LMAXFOCK = 4
   PRECFOCK = Fast
   NELECT = 1054
   ICORELEVEL = 1

 POTCAR:    PAW_PBE Ga_d 06Jul2010                
 POTCAR:    PAW_PBE O 08Apr2002                   
 POTCAR:    PAW_PBE Cu 22Jun2005                  
 POTCAR:    PAW_PBE N 08Apr2002                   
 POTCAR:    PAW_PBE Ga_d 06Jul2010                
   SHA256 =  a60ddf36e14f00ea098d9e3914b3745f1b7105e68786148f49ae384e44b4226c Ga_d/POTCAR           
   COPYR  = (c) Copyright 06Jul2010 Georg Kresse                                                    
   COPYR  = This file is part of the software VASP. Any use, copying, and all other rights are regul
   COPYR  = If you do not have a valid VASP license, you may not use, copy or distribute this file. 
   VRHFIN =Ga: s2p1                                                                                 
   LEXCH  = PE                                                                                      
   EATOM  =  2148.8298 eV,  157.9345 Ry                                                             
                                                                                                    
   TITEL  = PAW_PBE Ga_d 06Jul2010                                                                  
   LULTRA =        F    use ultrasoft PP ?                                                          
   IUNSCR =        1    unscreen: 0-lin 1-nonlin 2-no                                               
   RPACOR =    1.700    partial core radius                                                         
   POMASS =   69.723; ZVAL   =   13.000    mass and valenz                                          
   RCORE  =    2.300    outmost cutoff radius                                                       
   RWIGS  =    2.300; RWIGS  =    1.217    wigner-seitz radius (au A)                               
   ENMAX  =  282.691; ENMIN  =  212.018 eV                                                          
   ICORE  =        3    local potential                                                             
   LCOR   =        T    correct aug charges                                                         
   LPAW   =        T    paw PP                                                                      
   EAUG   =  490.690                                                                                
   DEXC   =    0.000                                                                                
   RMAX   =    2.341    core radius for proj-oper                                                   
   RAUG   =    1.300    factor for augmentation sphere                                              
   RDEP   =    2.413    radius for radial grids                                                     
   RDEPT  =    1.856    core radius for aug-charge                                                  
                                                                                                    
   Atomic configuration                                                                             
    9 entries                                                                                       
     n  l   j            E        occ.                                                              
     1  0  0.50    -10228.7831   2.0000                                                             
     2  0  0.50     -1262.1604   2.0000                                                             
     2  1  1.50     -1098.6333   6.0000                                                             
     3  0  0.50      -148.1110   2.0000                                                             
     3  1  1.50       -98.8436   6.0000                                                             
     3  2  2.50       -19.1549  10.0000                                                             
     4  0  0.50        -8.9483   2.0000                                                             
     4  1  0.50        -2.5791   1.0000                                                             
     4  3  2.50        -2.7416   0.0000                                                             
   Description                                                                                      
     l       E           TYP  RCUT    TYP  RCUT                                                     
     2    -19.1549037     23  2.300                                                                 
     2     -5.4423304     23  2.300                                                                 
     0     -8.9483111     23  2.300                                                                 
     0     68.0291300     23  2.300                                                                 
     1     -2.5790802     23  2.100                                                                 
     1     81.6349560     23  2.300                                                                 
     3      6.8029130     23  2.300                                                                 
  local pseudopotential read in
  partial core-charges read in
  partial kinetic energy density read in
  atomic valenz-charges read in
  non local Contribution for L=            2  read in
    real space projection operators read in
  non local Contribution for L=            2  read in
    real space projection operators read in
  non local Contribution for L=            0  read in
    real space projection operators read in
  non local Contribution for L=            0  read in
    real space projection operators read in
  non local Contribution for L=            1  read in
    real space projection operators read in
  non local Contribution for L=            1  read in
    real space projection operators read in
    PAW grid and wavefunctions read in
 
   number of l-projection  operators is LMAX  =            6
   number of lm-projection operators is LMMAX =           18
 
 POTCAR:    PAW_PBE O 08Apr2002                   
   SHA256 =  818f92134a0a090dccd8ba1447fa70422a3b330e708bb4f08108d8ae51209ddf O/POTCAR              
   COPYR  = (c) Copyright 08Apr2002 Georg Kresse                                                    
   COPYR  = This file is part of the software VASP. Any use, copying, and all other rights are regul
   COPYR  = If you do not have a valid VASP license, you may not use, copy or distribute this file. 
   VRHFIN =O: s2p4                                                                                  
   LEXCH  = PE                                                                                      
   EATOM  =   432.3788 eV,   31.7789 Ry                                                             
                                                                                                    
   TITEL  = PAW_PBE O 08Apr2002                                                                     
   LULTRA =        F    use ultrasoft PP ?                                                          
   IUNSCR =        1    unscreen: 0-lin 1-nonlin 2-no                                               
   RPACOR =    1.200    partial core radius                                                         
   POMASS =   16.000; ZVAL   =    6.000    mass and valenz                                          
   RCORE  =    1.520    outmost cutoff radius                                                       
   RWIGS  =    1.550; RWIGS  =    0.820    wigner-seitz radius (au A)                               
   ENMAX  =  400.000; ENMIN  =  300.000 eV                                                          
   ICORE  =        2    local potential                                                             
   LCOR   =        T    correct aug charges                                                         
   LPAW   =        T    paw PP                                                                      
   EAUG   =  605.392                                                                                
   DEXC   =    0.000                                                                                
   RMAX   =    1.553    core radius for proj-oper                                                   
   RAUG   =    1.300    factor for augmentation sphere                                              
   RDEP   =    1.550    radius for radial grids                                                     
   RDEPT  =    1.329    core radius for aug-charge                                                  
                                                                                                    
   Atomic configuration                                                                             
    4 entries                                                                                       
     n  l   j            E        occ.                                                              
     1  0  0.50      -514.6923   2.0000                                                             
     2  0  0.50       -23.9615   2.0000                                                             
     2  1  0.50        -9.0305   4.0000                                                             
     3  2  1.50        -9.5241   0.0000                                                             
   Description                                                                                      
     l       E           TYP  RCUT    TYP  RCUT                                                     
     0    -23.9615318     23  1.200                                                                 
     0     -9.5240782     23  1.200                                                                 
     1     -9.0304911     23  1.520                                                                 
     1      8.1634956     23  1.520                                                                 
     2     -9.5240782      7  1.500                                                                 
  local pseudopotential read in
  partial core-charges read in
  partial kinetic energy density read in
  kinetic energy density of atom read in
  atomic valenz-charges read in
  non local Contribution for L=            0  read in
    real space projection operators read in
  non local Contribution for L=            0  read in
    real space projection operators read in
  non local Contribution for L=            1  read in
    real space projection operators read in
  non local Contribution for L=            1  read in
    real space projection operators read in
    PAW grid and wavefunctions read in
 
   number of l-projection  operators is LMAX  =            4
   number of lm-projection operators is LMMAX =            8
 
 POTCAR:    PAW_PBE Cu 22Jun2005                  
   SHA256 =  0e71e558f37a4e8407882b4609ceaae59938afaad9ced71dfe8490308a0ab630 Cu/POTCAR             
   COPYR  = (c) Copyright 22Jun2005 Georg Kresse                                                    
   COPYR  = This file is part of the software VASP. Any use, copying, and all other rights are regul
   COPYR  = If you do not have a valid VASP license, you may not use, copy or distribute this file. 
   VRHFIN =Cu: d10 p1                                                                               
   LEXCH  = PE                                                                                      
   EATOM  =  1390.9808 eV,  102.2342 Ry                                                             
                                                                                                    
   TITEL  = PAW_PBE Cu 22Jun2005                                                                    
   LULTRA =        F    use ultrasoft PP ?                                                          
   IUNSCR =        1    unscreen: 0-lin 1-nonlin 2-no                                               
   RPACOR =    2.000    partial core radius                                                         
   POMASS =   63.546; ZVAL   =   11.000    mass and valenz                                          
   RCORE  =    2.300    outmost cutoff radius                                                       
   RWIGS  =    2.200; RWIGS  =    1.164    wigner-seitz radius (au A)                               
   ENMAX  =  295.446; ENMIN  =  221.585 eV                                                          
   ICORE  =        3    local potential                                                             
   LCOR   =        T    correct aug charges                                                         
   LPAW   =        T    paw PP                                                                      
   EAUG   =  586.980                                                                                
   DEXC   =    0.000                                                                                
   RMAX   =    2.344    core radius for proj-oper                                                   
   RAUG   =    1.300    factor for augmentation sphere                                              
   RDEP   =    2.302    radius for radial grids                                                     
   RDEPT  =    1.771    core radius for aug-charge                                                  
                                                                                                    
   Atomic configuration                                                                             
    9 entries                                                                                       
     n  l   j            E        occ.                                                              
     1  0  0.50     -8850.2468   2.0000                                                             
     2  0  0.50     -1062.3498   2.0000                                                             
     2  1  1.50      -916.8226   6.0000                                                             
     3  0  0.50      -114.6929   2.0000                                                             
     3  1  1.50       -72.1325   6.0000                                                             
     3  2  2.50        -5.0394  10.0000                                                             
     4  0  0.50        -4.6097   1.0000                                                             
     4  1  0.50        -4.0817   0.0000                                                             
     4  3  2.50        -1.3606   0.0000                                                             
   Description                                                                                      
     l       E           TYP  RCUT    TYP  RCUT                                                     
     2     -5.0393973     23  2.200                                                                 
     2     10.8846608     23  2.200                                                                 
     0     -4.6097109     23  2.200                                                                 
     0      8.2520465     23  2.200                                                                 
     1     -2.7211652     23  2.200                                                                 
     1     21.7055443     23  2.200                                                                 
     3      2.7211652     23  2.300                                                                 
  local pseudopotential read in
  partial core-charges read in
  partial kinetic energy density read in
  atomic valenz-charges read in
  non local Contribution for L=            2  read in
    real space projection operators read in
  non local Contribution for L=            2  read in
    real space projection operators read in
  non local Contribution for L=            0  read in
    real space projection operators read in
  non local Contribution for L=            0  read in
    real space projection operators read in
  non local Contribution for L=            1  read in
    real space projection operators read in
  non local Contribution for L=            1  read in
    real space projection operators read in
    PAW grid and wavefunctions read in
 
   number of l-projection  operators is LMAX  =            6
   number of lm-projection operators is LMMAX =           18
 
 POTCAR:    PAW_PBE N 08Apr2002                   
   SHA256 =  e053789ff3a61a86a1b75d8a110fcc91f86041011e7b0817c7c99e4e8a6349d7 N/POTCAR              
   COPYR  = (c) Copyright 08Apr2002 Georg Kresse                                                    
   COPYR  = This file is part of the software VASP. Any use, copying, and all other rights are regul
   COPYR  = If you do not have a valid VASP license, you may not use, copy or distribute this file. 
   VRHFIN =N: s2p3                                                                                  
   LEXCH  = PE                                                                                      
   EATOM  =   264.5486 eV,   19.4438 Ry                                                             
                                                                                                    
   TITEL  = PAW_PBE N 08Apr2002                                                                     
   LULTRA =        F    use ultrasoft PP ?                                                          
   IUNSCR =        1    unscreen: 0-lin 1-nonlin 2-no                                               
   RPACOR =    1.200    partial core radius                                                         
   POMASS =   14.001; ZVAL   =    5.000    mass and valenz                                          
   RCORE  =    1.500    outmost cutoff radius                                                       
   RWIGS  =    1.400; RWIGS  =    0.741    wigner-seitz radius (au A)                               
   ENMAX  =  400.000; ENMIN  =  300.000 eV                                                          
   ICORE  =        2    local potential                                                             
   LCOR   =        T    correct aug charges                                                         
   LPAW   =        T    paw PP                                                                      
   EAUG   =  627.112                                                                                
   DEXC   =    0.000                                                                                
   RMAX   =    1.529    core radius for proj-oper                                                   
   RAUG   =    1.300    factor for augmentation sphere                                              
   RDEP   =    1.514    radius for radial grids                                                     
   RDEPT  =    1.338    core radius for aug-charge                                                  
                                                                                                    
   Atomic configuration                                                                             
    4 entries                                                                                       
     n  l   j            E        occ.                                                              
     1  0  0.50      -384.7179   2.0000                                                             
     2  0  0.50       -18.5828   2.0000                                                             
     2  1  0.50        -7.0898   3.0000                                                             
     3  2  1.50        -6.8029   0.0000                                                             
   Description                                                                                      
     l       E           TYP  RCUT    TYP  RCUT                                                     
     0    -18.5828119     23  1.200                                                                 
     0    -13.5018863     23  1.200                                                                 
     1     -7.0897853     23  1.500                                                                 
     1      9.5240782     23  1.500                                                                 
     2     -6.8029130      7  1.500                                                                 
  local pseudopotential read in
  partial core-charges read in
  partial kinetic energy density read in
  atomic valenz-charges read in
  non local Contribution for L=            0  read in
    real space projection operators read in
  non local Contribution for L=            0  read in
    real space projection operators read in
  non local Contribution for L=            1  read in
    real space projection operators read in
  non local Contribution for L=            1  read in
    real space projection operators read in
    PAW grid and wavefunctions read in
 
   number of l-projection  operators is LMAX  =            4
   number of lm-projection operators is LMMAX =            8
 
 Optimization of the real space projectors (new method)

 maximal supplied QI-value         = 16.25
 optimisation between [QCUT,QGAM] = [ 10.73, 21.61] = [ 32.22,130.83] Ry 
 Optimized for a Real-space Cutoff    1.42 Angstroem

   l    n(q)    QCUT    max X(q) W(low)/X(q) W(high)/X(q)  e(spline) 
   2      8    10.726     7.143    0.22E-03    0.16E-03    0.73E-07
   2      8    10.726     5.586    0.40E-03    0.26E-03    0.10E-06
   0      9    10.726    12.382    0.25E-04    0.21E-05    0.37E-07
   0      9    10.726     6.622    0.42E-04    0.48E-05    0.77E-07
   1      9    10.726     7.935    0.27E-03    0.13E-04    0.16E-06
   1      9    10.726     2.425    0.23E-03    0.15E-04    0.14E-06
 Optimization of the real space projectors (new method)

 maximal supplied QI-value         = 24.76
 optimisation between [QCUT,QGAM] = [ 10.64, 21.54] = [ 31.73,129.89] Ry 
 Optimized for a Real-space Cutoff    1.23 Angstroem

   l    n(q)    QCUT    max X(q) W(low)/X(q) W(high)/X(q)  e(spline) 
   0      8    10.645    20.381    0.38E-03    0.60E-03    0.15E-06
   0      8    10.645    15.268    0.40E-03    0.65E-03    0.17E-06
   1      7    10.645     5.964    0.30E-03    0.63E-03    0.18E-06
   1      7    10.645     5.382    0.24E-03    0.53E-03    0.16E-06
 Optimization of the real space projectors (new method)

 maximal supplied QI-value         = 16.25
 optimisation between [QCUT,QGAM] = [ 10.73, 21.61] = [ 32.22,130.83] Ry 
 Optimized for a Real-space Cutoff    1.42 Angstroem

   l    n(q)    QCUT    max X(q) W(low)/X(q) W(high)/X(q)  e(spline) 
   2      8    10.726     4.610    0.15E-03    0.25E-03    0.14E-06
   2      8    10.726     8.522    0.25E-03    0.43E-03    0.27E-06
   0      9    10.726    51.609    0.94E-04    0.10E-03    0.12E-06
   0      9    10.726    27.747    0.85E-04    0.96E-04    0.11E-06
   1      9    10.726    20.408    0.25E-03    0.14E-03    0.12E-06
   1      9    10.726    13.425    0.22E-03    0.13E-03    0.11E-06
 Optimization of the real space projectors (new method)

 maximal supplied QI-value         = 25.13
 optimisation between [QCUT,QGAM] = [ 10.81, 21.61] = [ 32.71,130.83] Ry 
 Optimized for a Real-space Cutoff    1.23 Angstroem

   l    n(q)    QCUT    max X(q) W(low)/X(q) W(high)/X(q)  e(spline) 
   0      8    10.807    79.467    0.34E-03    0.68E-03    0.21E-06
   0      8    10.807    66.151    0.34E-03    0.67E-03    0.21E-06
   1      7    10.807    14.030    0.45E-03    0.13E-02    0.11E-05
   1      7    10.807     9.831    0.48E-03    0.13E-02    0.11E-05
  PAW_PBE Ga_d 06Jul2010                :
 energy of atom  1       EATOM=-2148.8298
 kinetic energy error for atom=    0.0038 (will be added to EATOM!!)
  PAW_PBE O 08Apr2002                   :
 energy of atom  2       EATOM= -432.3788
 kinetic energy error for atom=    0.0389 (will be added to EATOM!!)
  PAW_PBE Cu 22Jun2005                  :
 energy of atom  3       EATOM=-1390.9808
 kinetic energy error for atom=    0.0097 (will be added to EATOM!!)
  PAW_PBE N 08Apr2002                   :
 energy of atom  4       EATOM= -264.5486
 kinetic energy error for atom=    0.0253 (will be added to EATOM!!)
 
 
 POSCAR: Ga8 O12
  positions in direct lattice
  velocities in cartesian coordinates
 exchange correlation table for  LEXCH =        8
   RHO(1)=    0.500       N(1)  =     2000
   RHO(2)=  100.500       N(2)  =     4000
 


--------------------------------------------------------------------------------------------------------


 ion  position               nearest neighbor table
   1  0.659  0.999  0.155-  84 1.94  82 1.95  78 1.96  66 1.98  64 2.08  60 2.09
   2  0.660  1.000  0.657-  85 1.95  83 1.95  79 1.95  67 2.02  65 2.08  61 2.08
   3  0.659  0.334  0.156-  86 1.94  80 1.95  78 1.96  68 2.00  62 2.07  60 2.08
   4  0.659  0.333  0.657-  87 1.94  81 1.95  79 1.95  69 2.03  63 2.08  61 2.08
   5  0.659  0.666  0.156-  88 1.94  80 1.96  82 1.96  70 2.00  64 2.06  62 2.07
   6  0.659  0.666  0.657-  89 1.94  83 1.95  81 1.95  71 2.02  63 2.08  65 2.08
   7  0.837  0.165  0.345- 120 1.91  72 1.97  74 1.98  60 2.00  66 2.11  68 2.14
   8  0.842  0.166  0.844-  90 1.94  73 1.95  75 1.95  61 2.02  67 2.08  69 2.08
   9  0.842  0.500  0.343-  91 1.94  76 1.96  74 1.96  62 2.04  68 2.06  70 2.07
  10  0.842  0.500  0.844-  92 1.94  77 1.95  75 1.95  63 2.03  71 2.08  69 2.08
  11  0.842  0.833  0.344-  93 1.87  72 1.97  76 1.98  64 2.05  66 2.08  70 2.10
  12  0.842  0.834  0.844-  94 1.94  77 1.95  73 1.96  65 2.02  67 2.08  71 2.09
  13  0.591  0.166  0.398-  56 1.84  54 1.84  79 1.84  60 1.88
  14  0.590  0.166  0.897-  78 1.84  55 1.85  57 1.85  61 1.87
  15  0.593  0.500  0.398-  81 1.84  58 1.84  56 1.85  62 1.87
  16  0.590  0.500  0.897-  80 1.83  59 1.84  57 1.85  63 1.87
  17  0.592  0.833  0.398-  83 1.84  58 1.85  54 1.85  64 1.87
  18  0.590  0.833  0.897-  82 1.84  59 1.85  55 1.85  65 1.87
  19  0.910  0.999  0.106-  52 1.84  48 1.85  73 1.86  66 1.86
  20  0.908  0.999  0.599-  72 1.84  53 1.84  49 1.85  67 1.89
  21  0.909  0.334  0.104-  75 1.84  50 1.85  48 1.85  68 1.86
  22  0.908  0.333  0.601-  74 1.84  51 1.85  49 1.85  69 1.88
  23  0.910  0.667  0.103-  52 1.84  77 1.85  50 1.85  70 1.87
  24  0.908  0.666  0.601-  76 1.84  53 1.85  51 1.85  71 1.88
  25  0.161  0.165  0.160- 113 1.96  48 1.97 115 1.97 101 2.03  95 2.03  97 2.08
  26  0.160  0.165  0.654- 114 1.93 116 1.95  49 1.96 102 2.03  96 2.09  98 2.10
  27  0.160  0.500  0.158-  50 1.94 117 1.96 115 1.96 103 2.03  97 2.06  99 2.07
  28  0.158  0.500  0.655- 116 1.94 118 1.95  51 1.95 104 2.03 100 2.08  98 2.09
  29  0.161  0.835  0.160-  52 1.95 113 1.97 117 1.97  95 2.01 105 2.03  99 2.07
  30  0.159  0.834  0.654- 114 1.91 118 1.94  53 1.95 106 2.05 100 2.10  96 2.10
  31  0.340  0.999  0.344- 111 1.95 107 1.95  54 1.96  95 1.96 105 2.10 101 2.11
  32  0.340  1.000  0.843-  55 1.95 112 1.95 108 1.96  96 2.01 106 2.07 102 2.08
  33  0.342  0.334  0.343- 107 1.94  56 1.95 109 1.95  97 2.02 101 2.06 103 2.08
  34  0.340  0.333  0.842-  57 1.95 108 1.95 110 1.96  98 2.02 102 2.06 104 2.07
  35  0.342  0.666  0.344- 111 1.94 109 1.95  58 1.95  99 2.02 105 2.06 103 2.08
  36  0.340  0.666  0.842-  59 1.95 112 1.96 110 1.96 100 2.02 106 2.05 104 2.07
  37  0.091  1.000  0.898- 113 1.83  94 1.85  90 1.85  96 1.87
  38  0.089  0.333  0.396- 116 1.86  91 1.86 120 1.87  97 1.89
  39  0.092  0.333  0.898- 115 1.84  92 1.85  90 1.85  98 1.87
  40  0.088  0.675  0.396-  93 1.81 118 1.86  91 1.86  99 1.89
  41  0.092  0.667  0.898- 117 1.84  94 1.85  92 1.85 100 1.87
  42  0.409  0.167  0.102- 108 1.84  86 1.85  84 1.85 101 1.86
  43  0.409  0.166  0.603- 107 1.83  85 1.85  87 1.85 102 1.87
  44  0.409  0.500  0.102- 110 1.84  88 1.84  86 1.85 103 1.87
  45  0.410  0.500  0.603- 109 1.84  89 1.85  87 1.85 104 1.87
  46  0.409  0.832  0.102- 112 1.84  88 1.85  84 1.85 105 1.86
  47  0.409  0.833  0.603- 111 1.83  85 1.85  89 1.85 106 1.87
  48  0.997  0.167  0.133-  21 1.85  19 1.85  25 1.97
  49  0.996  0.166  0.622-  22 1.85  20 1.85  26 1.96
  50  0.997  0.500  0.128-  21 1.85  23 1.85  27 1.94
  51  0.996  0.500  0.627-  22 1.85  24 1.85  28 1.95
  52  0.997  0.833  0.126-  19 1.84  23 1.84  29 1.95
  53  0.996  0.833  0.627-  20 1.84  24 1.85  30 1.95
  54  0.504  0.999  0.373-  13 1.84  17 1.85  31 1.96
  55  0.503  1.000  0.872-  14 1.85  18 1.85  32 1.95
  56  0.505  0.334  0.373-  13 1.84  15 1.85  33 1.95
  57  0.503  0.333  0.872-  16 1.85  14 1.85  34 1.95
  58  0.505  0.666  0.373-  15 1.84  17 1.85  35 1.95
  59  0.503  0.666  0.872-  16 1.84  18 1.85  36 1.95
  60  0.671  0.167  0.280-  13 1.88   7 2.00   3 2.08   1 2.09
  61  0.673  0.166  0.782-  14 1.87   8 2.02   4 2.08   2 2.08
  62  0.672  0.500  0.279-  15 1.87   9 2.04   5 2.07   3 2.07
  63  0.673  0.500  0.781-  16 1.87  10 2.03   4 2.08   6 2.08
  64  0.672  0.832  0.279-  17 1.87  11 2.05   5 2.06   1 2.08
  65  0.673  0.834  0.782-  18 1.87  12 2.02   2 2.08   6 2.08
  66  0.823  0.998  0.217-  19 1.86   1 1.98  11 2.08   7 2.11
  67  0.828  0.000  0.720-  20 1.89   2 2.02   8 2.08  12 2.08
  68  0.825  0.336  0.218-  21 1.86   3 2.00   9 2.06   7 2.14
  69  0.828  0.333  0.720-  22 1.88   4 2.03   8 2.08  10 2.08
  70  0.826  0.665  0.218-  23 1.87   5 2.00   9 2.07  11 2.10
  71  0.828  0.666  0.720-  24 1.88   6 2.02  10 2.08  12 2.09
  72  0.822  0.998  0.447-  20 1.84   7 1.97  11 1.97
  73  0.835  0.000  0.948-  19 1.86   8 1.95  12 1.96
  74  0.826  0.336  0.446-  22 1.84   9 1.96   7 1.98
  75  0.834  0.333  0.946-  21 1.84   8 1.95  10 1.95
  76  0.827  0.665  0.446-  24 1.84   9 1.96  11 1.98
  77  0.834  0.666  0.946-  23 1.85  10 1.95  12 1.95
  78  0.667  0.167  0.053-  14 1.84   3 1.96   1 1.96
  79  0.667  0.167  0.555-  13 1.84   4 1.95   2 1.95
  80  0.667  0.500  0.053-  16 1.83   3 1.95   5 1.96
  81  0.667  0.500  0.556-  15 1.84   4 1.95   6 1.95
  82  0.667  0.832  0.053-  18 1.84   1 1.95   5 1.96
  83  0.667  0.833  0.555-  17 1.84   6 1.95   2 1.95
  84  0.496  1.000  0.126-  42 1.85  46 1.85   1 1.94
  85  0.497  1.000  0.629-  43 1.85  47 1.85   2 1.95
  86  0.496  0.334  0.126-  44 1.85  42 1.85   3 1.94
  87  0.497  0.333  0.629-  45 1.85  43 1.85   4 1.94
  88  0.497  0.666  0.125-  44 1.84  46 1.85   5 1.94
  89  0.497  0.667  0.629-  45 1.85  47 1.85   6 1.94
  90  0.004  0.167  0.872-  37 1.85  39 1.85   8 1.94
  91  0.004  0.503  0.374-  38 1.86  40 1.86   9 1.94
  92  0.005  0.500  0.873-  39 1.85  41 1.85  10 1.94
  93  0.998  0.834  0.372-  40 1.81  11 1.87 119 2.03
  94  0.004  0.833  0.872-  37 1.85  41 1.85  12 1.94
  95  0.178  0.998  0.278-  31 1.96 119 1.97  29 2.01  25 2.03
  96  0.172  0.000  0.781-  37 1.87  32 2.01  26 2.09  30 2.10
  97  0.175  0.335  0.281-  38 1.89  33 2.02  27 2.06  25 2.08
  98  0.172  0.333  0.779-  39 1.87  34 2.02  28 2.09  26 2.10
  99  0.174  0.666  0.282-  40 1.89  35 2.02  29 2.07  27 2.07
 100  0.172  0.667  0.780-  41 1.87  36 2.02  28 2.08  30 2.10
 101  0.330  0.169  0.220-  42 1.86  25 2.03  33 2.06  31 2.11
 102  0.329  0.168  0.721-  43 1.87  26 2.03  34 2.06  32 2.08
 103  0.329  0.500  0.220-  44 1.87  27 2.03  35 2.08  33 2.08
 104  0.327  0.500  0.719-  45 1.87  28 2.03  34 2.07  36 2.07
 105  0.330  0.830  0.220-  46 1.86  29 2.03  35 2.06  31 2.10
 106  0.328  0.832  0.721-  47 1.87  30 2.05  36 2.05  32 2.07
 107  0.336  0.167  0.446-  43 1.83  33 1.94  31 1.95
 108  0.332  0.167  0.946-  42 1.84  34 1.95  32 1.96
 109  0.335  0.500  0.446-  45 1.84  33 1.95  35 1.95
 110  0.331  0.500  0.945-  44 1.84  34 1.96  36 1.96
 111  0.336  0.832  0.446-  47 1.83  35 1.94  31 1.95
 112  0.332  0.833  0.946-  46 1.84  32 1.95  36 1.96
 113  0.168  0.000  0.054-  37 1.83  25 1.96  29 1.97
 114  0.177  0.998  0.558- 119 1.89  30 1.91  26 1.93
 115  0.167  0.332  0.055-  39 1.84  27 1.96  25 1.97
 116  0.168  0.334  0.553-  38 1.86  28 1.94  26 1.95
 117  0.168  0.667  0.055-  41 1.84  27 1.96  29 1.97
 118  0.168  0.666  0.553-  40 1.86  30 1.94  28 1.95
 119  0.092  0.019  0.400- 120 1.77 114 1.89  95 1.97  93 2.03
 120  0.996  0.167  0.369- 119 1.77  38 1.87   7 1.91
 
  LATTYP: Found a simple monoclinic cell.
 ALAT       =    11.6348199845
 B/A-ratio  =     0.7858051230
 C/A-ratio  =     1.0554932286
 COS(beta)  =    -0.2379290479
  
  Lattice vectors:
  
 A1 = (   0.0000000000,  -2.7682616411, -11.3006974810)
 A2 = (  -9.1427011490,   0.0000000000,   0.0000000000)
 A3 = (   0.0000000000,  12.2804737091,   0.0000000000)


Analysis of symmetry for initial positions (statically):
=====================================================================
 Subroutine PRICEL returns:
 Original cell was already a primitive cell.
 

 Routine SETGRP: Setting up the symmetry group for a 
 simple monoclinic supercell.


 Subroutine GETGRP returns: Found  1 space group operations
 (whereof  1 operations were pure point group operations)
 out of a pool of  4 trial point group operations.


The static configuration has the point symmetry C_1 .


Analysis of symmetry for dynamics (positions and initial velocities):
=====================================================================
 Subroutine PRICEL returns:
 Original cell was already a primitive cell.
 

 Routine SETGRP: Setting up the symmetry group for a 
 simple monoclinic supercell.


 Subroutine GETGRP returns: Found  1 space group operations
 (whereof  1 operations were pure point group operations)
 out of a pool of  4 trial point group operations.


The dynamic configuration has the point symmetry C_1 .


 Subroutine INISYM returns: Found  1 space group operations
 (whereof  1 operations are pure point group operations),
 and found     1 'primitive' translations


----------------------------------------------------------------------------------------

                                     Primitive cell                                     

  volume of cell :    1268.8050

  direct lattice vectors                    reciprocal lattice vectors
     0.000000000 12.280473709  0.000000000     0.000000000  0.081430084 -0.019947422
     9.142701149  0.000000000  0.000000000     0.109376866 -0.000000000  0.000000000
     0.000000000 -2.768261641-11.300697481     0.000000000  0.000000000 -0.088490113

  length of vectors
    12.280473709  9.142701149 11.634819984     0.083837689  0.109376866  0.088490113

  position of ions in fractional coordinates (direct lattice)
     0.658636682  0.998781944  0.155431836
     0.659569172  0.999681050  0.657087306
     0.658696589  0.333897555  0.155766875
     0.659251835  0.333091424  0.657390814
     0.659150960  0.666055088  0.156269954
     0.659380859  0.666488721  0.657375884
     0.837035234  0.165014796  0.344711941
     0.841735971  0.166102678  0.844069000
     0.841570264  0.499957317  0.342772648
     0.842153479  0.500048953  0.843768733
     0.841855239  0.832886573  0.344017848
     0.842065398  0.833634563  0.844483319
     0.590808016  0.166145387  0.397883128
     0.590131936  0.166428730  0.897225000
     0.593145486  0.500019295  0.398088722
     0.590346818  0.499765045  0.896941767
     0.592033949  0.833120883  0.397561581
     0.589886370  0.832743915  0.896767136
     0.910282268  0.999365759  0.106176158
     0.907739602  0.998901391  0.599480280
     0.909019860  0.333993622  0.103554632
     0.907741086  0.333427211  0.600935022
     0.909720734  0.666877336  0.103475956
     0.907857166  0.666425743  0.600640443
     0.161308615  0.164544200  0.160039949
     0.159892341  0.164939338  0.653908460
     0.159675793  0.500128941  0.158167299
     0.158244653  0.500050857  0.654720585
     0.160530516  0.834630229  0.159934064
     0.158515278  0.833647177  0.653601314
     0.340360471  0.999194632  0.344262612
     0.339822527  0.999558282  0.842966940
     0.342400087  0.333542982  0.343483957
     0.339998345  0.333125494  0.842402305
     0.342079675  0.666374400  0.343553820
     0.339810685  0.666463710  0.842495049
     0.091338421  0.999910709  0.897822567
     0.088959673  0.332779329  0.395931911
     0.092205745  0.333110665  0.898253417
     0.088007505  0.674762596  0.396484534
     0.092078292  0.666896744  0.898482331
     0.409316299  0.166676393  0.101837259
     0.409277861  0.166235157  0.602807054
     0.408725364  0.499841025  0.101843042
     0.409519804  0.499946420  0.602762482
     0.409385120  0.832482204  0.102023600
     0.408977130  0.833293656  0.603162360
     0.997023518  0.167418654  0.132839388
     0.995548099  0.166204537  0.621762138
     0.996931714  0.500028810  0.127545297
     0.995552765  0.499704435  0.626915153
     0.997208460  0.832900087  0.126119506
     0.995567107  0.832975253  0.627145713
     0.503990982  0.999401594  0.372547239
     0.502868222  0.999713024  0.872492849
     0.505161219  0.333919968  0.373026979
     0.502987388  0.333247967  0.872317940
     0.505207077  0.665962557  0.373180094
     0.502742114  0.665997614  0.872019526
     0.671112035  0.166957839  0.279501838
     0.673249685  0.166258588  0.781570613
     0.671633499  0.499830621  0.279043026
     0.673451049  0.499533931  0.781427287
     0.671679693  0.831964741  0.279153149
     0.673493828  0.833558960  0.781636092
     0.823471927  0.997803239  0.217278112
     0.828123941  0.000119133  0.719663241
     0.824989005  0.336310582  0.217541306
     0.827889963  0.332667872  0.719850992
     0.825853582  0.664674669  0.217801497
     0.827732058  0.666467105  0.719731266
     0.822259230  0.997679556  0.446508366
     0.835126118  0.000470264  0.947683425
     0.825947550  0.335818234  0.446237978
     0.833988821  0.333050854  0.946305826
     0.826797055  0.664531037  0.445731216
     0.833506208  0.666440278  0.946206062
     0.666940581  0.166656732  0.053381615
     0.666702388  0.166637187  0.555008920
     0.667135886  0.499898160  0.052748779
     0.667194386  0.499713670  0.555596092
     0.666736723  0.832316716  0.052706231
     0.666658867  0.832853884  0.555157301
     0.496364956  0.999670309  0.126029073
     0.496940941  0.999744836  0.629080041
     0.496406803  0.333556608  0.125755679
     0.496874405  0.333157167  0.629068836
     0.496574658  0.665774865  0.125491189
     0.496958830  0.666534514  0.629336852
     0.003979541  0.166881891  0.871789553
     0.003719542  0.503128204  0.373668797
     0.004609091  0.499922398  0.872921197
     0.998150392  0.833628974  0.372390450
     0.004113151  0.833076696  0.872259497
     0.178069062  0.997973507  0.278091843
     0.172403801  0.000269511  0.780811600
     0.174511595  0.335033065  0.281203509
     0.171873628  0.332588817  0.779475849
     0.173543360  0.666487724  0.281646223
     0.171954757  0.666526976  0.779807061
     0.330213909  0.169166992  0.219727792
     0.328635026  0.167669534  0.720530732
     0.328525427  0.500097811  0.219546741
     0.327123014  0.499749474  0.719163447
     0.330257158  0.830165657  0.219676512
     0.328439929  0.831969134  0.720915948
     0.335904627  0.167485382  0.446049247
     0.332027317  0.166688613  0.945547782
     0.334761566  0.499849739  0.446137302
     0.331192049  0.499585009  0.945290103
     0.335860657  0.831790173  0.446423795
     0.331858359  0.832845134  0.945753450
     0.168432017  0.000375114  0.053558851
     0.176851534  0.997987124  0.558003100
     0.167205790  0.332239269  0.055249248
     0.168266374  0.333946841  0.553431701
     0.168260174  0.666989374  0.055180014
     0.167987100  0.666361537  0.553392132
     0.092036655  0.019262909  0.400413057
     0.996404889  0.167140645  0.368976852

  ion indices of the primitive-cell ions
   primitive index   ion index
                 1           1
                 2           2
                 3           3
                 4           4
                 5           5
                 6           6
                 7           7
                 8           8
                 9           9
                10          10
                11          11
                12          12
                13          13
                14          14
                15          15
                16          16
                17          17
                18          18
                19          19
                20          20
                21          21
                22          22
                23          23
                24          24
                25          25
                26          26
                27          27
                28          28
                29          29
                30          30
                31          31
                32          32
                33          33
                34          34
                35          35
                36          36
                37          37
                38          38
                39          39
                40          40
                41          41
                42          42
                43          43
                44          44
                45          45
                46          46
                47          47
                48          48
                49          49
                50          50
                51          51
                52          52
                53          53
                54          54
                55          55
                56          56
                57          57
                58          58
                59          59
                60          60
                61          61
                62          62
                63          63
                64          64
                65          65
                66          66
                67          67
                68          68
                69          69
                70          70
                71          71
                72          72
                73          73
                74          74
                75          75
                76          76
                77          77
                78          78
                79          79
                80          80
                81          81
                82          82
                83          83
                84          84
                85          85
                86          86
                87          87
                88          88
                89          89
                90          90
                91          91
                92          92
                93          93
                94          94
                95          95
                96          96
                97          97
                98          98
                99          99
               100         100
               101         101
               102         102
               103         103
               104         104
               105         105
               106         106
               107         107
               108         108
               109         109
               110         110
               111         111
               112         112
               113         113
               114         114
               115         115
               116         116
               117         117
               118         118
               119         119
               120         120

----------------------------------------------------------------------------------------

 
 
 KPOINTS: Automatic mesh                          

Automatic generation of k-mesh.
 Grid dimensions read from file:
 generate k-points for:    2    2    2

 Generating k-lattice:

  Cartesian coordinates                     Fractional coordinates (reciprocal lattice)
     0.000000000  0.040715042 -0.009973711     0.500000000  0.000000000 -0.000000000
     0.054688433 -0.000000000  0.000000000     0.000000000  0.500000000  0.000000000
     0.000000000  0.000000000 -0.044245057     0.000000000  0.000000000  0.500000000

  Length of vectors
     0.041918845  0.054688433  0.044245057

  Shift w.r.t. Gamma in fractional coordinates (k-lattice)
     0.000000000  0.000000000  0.000000000

 
 Subroutine IBZKPT returns following result:
 ===========================================
 
 Found      8 irreducible k-points:
 
 Following reciprocal coordinates:
            Coordinates               Weight
  0.000000  0.000000  0.000000      1.000000
  0.500000  0.000000  0.000000      1.000000
  0.000000  0.500000  0.000000      1.000000
  0.500000  0.500000  0.000000      1.000000
  0.000000  0.000000  0.500000      1.000000
  0.500000  0.000000  0.500000      1.000000
  0.000000  0.500000  0.500000      1.000000
  0.500000  0.500000  0.500000      1.000000
 
 Following cartesian coordinates:
            Coordinates               Weight
  0.000000  0.000000 -0.000000      1.000000
  0.000000  0.040715 -0.009974      1.000000
  0.054688  0.000000 -0.000000      1.000000
  0.054688  0.040715 -0.009974      1.000000
  0.000000  0.000000 -0.044245      1.000000
  0.000000  0.040715 -0.054219      1.000000
  0.054688  0.000000 -0.044245      1.000000
  0.054688  0.040715 -0.054219      1.000000
 
 
 Subroutine IBZKPT_HF returns following result:
 ==============================================
 
 Found      8 k-points in 1st BZ
 the following      8 k-points will be used (e.g. in the exchange kernel)
 Following reciprocal coordinates:   # in IRBZ
  0.000000  0.000000  0.000000    0.12500000   1 t-inv F
  0.500000  0.000000  0.000000    0.12500000   2 t-inv F
  0.000000  0.500000  0.000000    0.12500000   3 t-inv F
  0.500000  0.500000  0.000000    0.12500000   4 t-inv F
  0.000000  0.000000  0.500000    0.12500000   5 t-inv F
  0.500000  0.000000  0.500000    0.12500000   6 t-inv F
  0.000000  0.500000  0.500000    0.12500000   7 t-inv F
  0.500000  0.500000  0.500000    0.12500000   8 t-inv F


--------------------------------------------------------------------------------------------------------




 Dimension of arrays:
   k-points           NKPTS =      8   k-points in BZ     NKDIM =      8   number of bands    NBANDS=    632
   number of dos      NEDOS =    301   number of ions     NIONS =    120
   non local maximal  LDIM  =      6   non local SUM 2l+1 LMDIM =     18
   total plane-waves  NPLWV = 184320
   max r-space proj   IRMAX =   1800   max aug-charges    IRDMAX=   5704
   dimension x,y,z NGX =    64 NGY =   48 NGZ =   60
   dimension x,y,z NGXF=   128 NGYF=   96 NGZF=  120
   support grid    NGXF=   128 NGYF=   96 NGZF=  120
   ions per type =              47  71   1   1
   NGX,Y,Z   is equivalent  to a cutoff of   8.66,  8.73,  8.57 a.u.
   NGXF,Y,Z  is equivalent  to a cutoff of  17.33, 17.46, 17.15 a.u.

 SYSTEM =  unknown system                          
 POSCAR =  Ga8 O12                                 

 Startparameter for this run:
   NWRITE =      2    write-flag & timer
   PREC   = normal    normal or accurate (medium, high low for compatibility)
   ISTART =      0    job   : 0-new  1-cont  2-samecut
   ICHARG =      0    charge: 1-file 2-atom 10-const
   ISPIN  =      1    spin polarized calculation?
   LNONCOLLINEAR =      F non collinear calculations
   LSORBIT =      F    spin-orbit coupling
   INIWAV =      1    electr: 0-lowe 1-rand  2-diag
   LASPH  =      F    aspherical Exc in radial PAW
 Electronic Relaxation 1
   ENCUT  =  450.0 eV  33.07 Ry    5.75 a.u.  21.24 15.81 20.12*2*pi/ulx,y,z
   ENINI  =  450.0     initial cutoff
   ENAUG  =  627.1 eV  augmentation charge cutoff
   NELM   =    500;   NELMIN=  2; NELMDL= -5     # of ELM steps 
   EDIFF  = 0.1E-04   stopping-criterion for ELM
   LREAL  =      T    real-space projection
   NLSPLINE    = F    spline interpolate recip. space projectors
   LCOMPAT=      F    compatible to vasp.4.4
   GGA_COMPAT  = T    GGA compatible to vasp.4.4-vasp.4.6
   LMAXPAW     = -100 max onsite density
   LMAXMIX     =    2 max onsite mixed and CHGCAR
   VOSKOWN=      0    Vosko Wilk Nusair interpolation
   ROPT   =   -0.00050  -0.00050  -0.00050  -0.00050
 Ionic relaxation
   EDIFFG = -.5E-02   stopping-criterion for IOM
   NSW    =      0    number of steps for IOM
   NBLOCK =      1;   KBLOCK =      1    inner block; outer block 
   IBRION =     -1    ionic relax: 0-MD 1-quasi-New 2-CG
   NFREE  =      0    steps in history (QN), initial steepest desc. (CG)
   ISIF   =      2    stress and relaxation
   IWAVPR =     10    prediction:  0-non 1-charg 2-wave 3-comb
   ISYM   =      3    0-nonsym 1-usesym 2-fastsym
   LCORR  =      T    Harris-Foulkes like correction to forces

   POTIM  = 0.5000    time-step for ionic-motion
   TEIN   =    0.0    initial temperature
   TEBEG  =    0.0;   TEEND  =   0.0 temperature during run
   SMASS  =  -3.00    Nose mass-parameter (am)
   estimated Nose-frequenzy (Omega)   =  0.10E-29 period in steps = 0.13E+47 mass=  -0.345E-26a.u.
   SCALEE = 1.0000    scale energy and forces
   NPACO  =    256;   APACO  = 10.0  distance and # of slots for P.C.
   PSTRESS=    0.0 pullay stress

  Mass of Ions in am
   POMASS =  69.72 16.00 63.55 14.00
  Ionic Valenz
   ZVAL   =  13.00  6.00 11.00  5.00
  Atomic Wigner-Seitz radii
   RWIGS  =  -1.00 -1.00 -1.00 -1.00
  virtual crystal weights 
   VCA    =   1.00  1.00  1.00  1.00
   NELECT =    1054.0000    total number of electrons
   NUPDOWN=      -1.0000    fix difference up-down

 DOS related values:
   EMIN   =  10.00;   EMAX   =-10.00  energy-range for DOS
   EFERMI =   0.00;   METHOD = LEGACY      
   ISMEAR =     0;   SIGMA  =   0.05  broadening in eV -4-tet -1-fermi 0-gaus

 Electronic relaxation 2 (details)
   IALGO  =     58    algorithm
   LDIAG  =      T    sub-space diagonalisation (order eigenvalues)
   LSUBROT=      F    optimize rotation matrix (better conditioning)
   TURBO    =      0    0=normal 1=particle mesh
   IRESTART =      0    0=no restart 2=restart with 2 vectors
   NREBOOT  =      0    no. of reboots
   NMIN     =      0    reboot dimension
   EREF     =   0.00    reference energy to select bands
   IMIX   =      4    mixing-type and parameters
     AMIX     =   0.40;   BMIX     =  1.00
     AMIX_MAG =   1.60;   BMIX_MAG =  1.00
     AMIN     =   0.10
     WC   =   100.;   INIMIX=   1;  MIXPRE=   1;  MAXMIX= -45

 Intra band minimization:
   WEIMIN = 0.0000     energy-eigenvalue tresh-hold
   EBREAK =  0.40E-08  absolut break condition
   DEPER  =   0.30     relativ break condition  

   TIME   =   0.40     timestep for ELM

  volume/ion in A,a.u.               =      10.57        71.35
  Fermi-wavevector in a.u.,A,eV,Ry     =   1.538946  2.908186 32.223427  2.368355
  Thomas-Fermi vector in A             =   2.645243
 
 Write flags
   LWAVE        =      T    write WAVECAR
   LDOWNSAMPLE  =      F    k-point downsampling of WAVECAR
   LCHARG       =      T    write CHGCAR
   LVTOT        =      F    write LOCPOT, total local potential
   LVHAR        =      F    write LOCPOT, Hartree potential only
   LELF         =      F    write electronic localiz. function (ELF)
   LORBIT       =      0    0 simple, 1 ext, 2 COOP (PROOUT), +10 PAW based schemes


 Dipole corrections
   LMONO  =      F    monopole corrections only (constant potential shift)
   LDIPOL =      F    correct potential (dipole corrections)
   IDIPOL =      0    1-x, 2-y, 3-z, 4-all directions 
   EPSILON=  1.0000000 bulk dielectric constant

 Core level calculations are selected ICORELEVEL =  1
 Exchange correlation treatment:
   GGA     =    --    GGA type
   LEXCH   =     8    internal setting for exchange type
   LIBXC   =     F    Libxc                    
   VOSKOWN =     0    Vosko Wilk Nusair interpolation
   EXXOEP  =     0    0=HF, 1=EXX-LHF (local Hartree Fock) 2=EXX OEP
   LHFCALC =     T    Hartree Fock is set to
   LSYMGRAD=     F    symmetrize gradient (conserves proper symmetry)
   PRECFOCK=fast      Normal, Fast or Accurate (Low or Medium for compatibility)
   LRHFCALC=     F    long range Hartree Fock
   LRSCOR  =     F    long range correlation only (use DFT for short range part)
   LTHOMAS =     F    Thomas Fermi screening in HF
   LMODELHF=     F    short range full HF, long range fraction AEXX
   FOCKCORR=     1    mode to apply convergence corrections
   LFOCKACE=     T    use Adeptively-Compressed-Exchange operator
   ENCUT4O =  -1.0   cutoff for four orbital integrals eV
   LMAXFOCK=     4    L truncation for augmentation on plane wave grid
   LMAXFOCKAE=  -1    L truncation for all-electron charge restoration on plane wave grid
   NMAXFOCKAE=   1    number of basis functions for all-electron charge restoration
   LFOCKAEDFT=     F  apply the AE augmentation even for DFT
   NKREDX  =     1    reduce k-point grid by
   NKREDY  =     1    reduce k-point grid by
   NKREDZ  =     1    reduce k-point grid by
   SHIFTRED=     F    shift reduced grid of Gamma
   HFKIDENT=     F    idential grid for each k-point
   ODDONLY =     F    use only odd q-grid points
   EVENONLY=     F    use only even q-grid points
   HFALPHA =   -1.0000 decay constant for conv. correction
   MCALPHA =    0.0000 extent of test-charge in conv. correction in multipole expansion
   AEXX    =    0.3200 exact exchange contribution
   HFSCREEN=    0.2000 screening length (either q_TF or 0.3 A-1)
   HFSCREENC=   0.2000 screening length for correlation (either q_TF or 0.3 A-1)
   HFRCUT  =    0.0000 spherical cutoff for potential kernel
   ALDAX   =    0.6800 LDA exchange part
   AGGAX   =    0.6800 GGA exchange part
   ALDAC   =    1.0000 LDA correlation
   AGGAC   =    1.0000 GGA correlation
   ENCUTFOCK=  -1.0 apply spherical cutoff to Coloumb kernel
   NBANDSGWLOW=     1    first orbital included in HF term
   NBLOCK_FOCK=    64    blocking factor in FOCK_ACC

 Linear response parameters
   LEPSILON=     F    determine dielectric tensor
   LRPA    =     F    only Hartree local field effects (RPA)
   LNABLA  =     F    use nabla operator in PAW spheres
   LVEL    =     F    velocity operator in full k-point grid
   CSHIFT  =0.1000    complex shift for real part using Kramers Kronig
   OMEGAMAX=  -1.0    maximum frequency
   DEG_THRESHOLD= 0.2000000E-02 threshold for treating states as degnerate
   RTIME   =   -0.100 relaxation time in fs
  (WPLASMAI=    0.000 imaginary part of plasma frequency in eV, 0.658/RTIME)
   DFIELD  = 0.0000000 0.0000000 0.0000000 field for delta impulse in time
 
  Optional k-point grid parameters
   LKPOINTS_OPT  =     F    use optional k-point grid
   KPOINTS_OPT_MODE=     1    mode for optional k-point grid
 
 Orbital magnetization related:
   ORBITALMAG=     F  switch on orbital magnetization
   LCHIMAG   =     F  perturbation theory with respect to B field
   DQ        =  0.001000  dq finite difference perturbation B field
   LLRAUG    =     F  two centre corrections for induced B field
   LBONE     =     F  B-component reconstruction in AE one-centre
   LVGVCALC  =     T  calculate vGv susceptibility
   LVGVAPPL  =     F  apply vGv susceptibility instead of pGv for G=0

 Random number generation:
   RANDOM_GENERATOR = DEFAULT
   PCG_SEED         = not used


--------------------------------------------------------------------------------------------------------


 Static calculation
 charge density and potential will be updated during run
 non-spin polarized calculation
 Conjugate gradient for all bands (Freysoldt, et al. PRB 79, 241103 (2009))
 preconditioned conjugated gradient                                        
 perform sub-space diagonalisation
    before iterative eigenvector-optimisation
 modified Broyden-mixing scheme, WC =      100.0
 initial mixing is a Kerker type mixing with AMIX =  0.4000 and BMIX =      1.0000
 Hartree-type preconditioning will be used
 using additional bands           105
 real space projection scheme for non local part
 use partial core corrections
 no Harris-corrections to forces 
 use gradient corrections 
 use of overlap-Matrix (Vanderbilt PP)
 Gauss-broadening in eV      SIGMA  =   0.05


--------------------------------------------------------------------------------------------------------


  energy-cutoff  :      450.00
  volume of cell :     1268.81
      direct lattice vectors                 reciprocal lattice vectors
     0.000000000 12.280473709  0.000000000     0.000000000  0.081430084 -0.019947422
     9.142701149  0.000000000  0.000000000     0.109376866 -0.000000000  0.000000000
     0.000000000 -2.768261641-11.300697481     0.000000000  0.000000000 -0.088490113

  length of vectors
    12.280473709  9.142701149 11.634819984     0.083837689  0.109376866  0.088490113


 
 k-points in units of 2pi/SCALE and weight: Automatic mesh                          
   0.00000000  0.00000000 -0.00000000       0.125
   0.00000000  0.04071504 -0.00997371       0.125
   0.05468843  0.00000000 -0.00000000       0.125
   0.05468843  0.04071504 -0.00997371       0.125
   0.00000000  0.00000000 -0.04424506       0.125
   0.00000000  0.04071504 -0.05421877       0.125
   0.05468843  0.00000000 -0.04424506       0.125
   0.05468843  0.04071504 -0.05421877       0.125
 
 k-points in reciprocal lattice and weights: Automatic mesh                          
   0.00000000  0.00000000  0.00000000       0.125
   0.50000000  0.00000000  0.00000000       0.125
   0.00000000  0.50000000  0.00000000       0.125
   0.50000000  0.50000000  0.00000000       0.125
   0.00000000  0.00000000  0.50000000       0.125
   0.50000000  0.00000000  0.50000000       0.125
   0.00000000  0.50000000  0.50000000       0.125
   0.50000000  0.50000000  0.50000000       0.125
 
 position of ions in fractional coordinates (direct lattice) 
   0.65863668  0.99878194  0.15543184
   0.65956917  0.99968105  0.65708731
   0.65869659  0.33389756  0.15576688
   0.65925184  0.33309142  0.65739081
   0.65915096  0.66605509  0.15626995
   0.65938086  0.66648872  0.65737588
   0.83703523  0.16501480  0.34471194
   0.84173597  0.16610268  0.84406900
   0.84157026  0.49995732  0.34277265
   0.84215348  0.50004895  0.84376873
   0.84185524  0.83288657  0.34401785
   0.84206540  0.83363456  0.84448332
   0.59080802  0.16614539  0.39788313
   0.59013194  0.16642873  0.89722500
   0.59314549  0.50001929  0.39808872
   0.59034682  0.49976504  0.89694177
   0.59203395  0.83312088  0.39756158
   0.58988637  0.83274391  0.89676714
   0.91028227  0.99936576  0.10617616
   0.90773960  0.99890139  0.59948028
   0.90901986  0.33399362  0.10355463
   0.90774109  0.33342721  0.60093502
   0.90972073  0.66687734  0.10347596
   0.90785717  0.66642574  0.60064044
   0.16130861  0.16454420  0.16003995
   0.15989234  0.16493934  0.65390846
   0.15967579  0.50012894  0.15816730
   0.15824465  0.50005086  0.65472058
   0.16053052  0.83463023  0.15993406
   0.15851528  0.83364718  0.65360131
   0.34036047  0.99919463  0.34426261
   0.33982253  0.99955828  0.84296694
   0.34240009  0.33354298  0.34348396
   0.33999834  0.33312549  0.84240230
   0.34207967  0.66637440  0.34355382
   0.33981068  0.66646371  0.84249505
   0.09133842  0.99991071  0.89782257
   0.08895967  0.33277933  0.39593191
   0.09220575  0.33311066  0.89825342
   0.08800751  0.67476260  0.39648453
   0.09207829  0.66689674  0.89848233
   0.40931630  0.16667639  0.10183726
   0.40927786  0.16623516  0.60280705
   0.40872536  0.49984102  0.10184304
   0.40951980  0.49994642  0.60276248
   0.40938512  0.83248220  0.10202360
   0.40897713  0.83329366  0.60316236
   0.99702352  0.16741865  0.13283939
   0.99554810  0.16620454  0.62176214
   0.99693171  0.50002881  0.12754530
   0.99555277  0.49970443  0.62691515
   0.99720846  0.83290009  0.12611951
   0.99556711  0.83297525  0.62714571
   0.50399098  0.99940159  0.37254724
   0.50286822  0.99971302  0.87249285
   0.50516122  0.33391997  0.37302698
   0.50298739  0.33324797  0.87231794
   0.50520708  0.66596256  0.37318009
   0.50274211  0.66599761  0.87201953
   0.67111204  0.16695784  0.27950184
   0.67324969  0.16625859  0.78157061
   0.67163350  0.49983062  0.27904303
   0.67345105  0.49953393  0.78142729
   0.67167969  0.83196474  0.27915315
   0.67349383  0.83355896  0.78163609
   0.82347193  0.99780324  0.21727811
   0.82812394  0.00011913  0.71966324
   0.82498901  0.33631058  0.21754131
   0.82788996  0.33266787  0.71985099
   0.82585358  0.66467467  0.21780150
   0.82773206  0.66646711  0.71973127
   0.82225923  0.99767956  0.44650837
   0.83512612  0.00047026  0.94768343
   0.82594755  0.33581823  0.44623798
   0.83398882  0.33305085  0.94630583
   0.82679706  0.66453104  0.44573122
   0.83350621  0.66644028  0.94620606
   0.66694058  0.16665673  0.05338161
   0.66670239  0.16663719  0.55500892
   0.66713589  0.49989816  0.05274878
   0.66719439  0.49971367  0.55559609
   0.66673672  0.83231672  0.05270623
   0.66665887  0.83285388  0.55515730
   0.49636496  0.99967031  0.12602907
   0.49694094  0.99974484  0.62908004
   0.49640680  0.33355661  0.12575568
   0.49687440  0.33315717  0.62906884
   0.49657466  0.66577487  0.12549119
   0.49695883  0.66653451  0.62933685
   0.00397954  0.16688189  0.87178955
   0.00371954  0.50312820  0.37366880
   0.00460909  0.49992240  0.87292120
   0.99815039  0.83362897  0.37239045
   0.00411315  0.83307670  0.87225950
   0.17806906  0.99797351  0.27809184
   0.17240380  0.00026951  0.78081160
   0.17451159  0.33503306  0.28120351
   0.17187363  0.33258882  0.77947585
   0.17354336  0.66648772  0.28164622
   0.17195476  0.66652698  0.77980706
   0.33021391  0.16916699  0.21972779
   0.32863503  0.16766953  0.72053073
   0.32852543  0.50009781  0.21954674
   0.32712301  0.49974947  0.71916345
   0.33025716  0.83016566  0.21967651
   0.32843993  0.83196913  0.72091595
   0.33590463  0.16748538  0.44604925
   0.33202732  0.16668861  0.94554778
   0.33476157  0.49984974  0.44613730
   0.33119205  0.49958501  0.94529010
   0.33586066  0.83179017  0.44642379
   0.33185836  0.83284513  0.94575345
   0.16843202  0.00037511  0.05355885
   0.17685153  0.99798712  0.55800310
   0.16720579  0.33223927  0.05524925
   0.16826637  0.33394684  0.55343170
   0.16826017  0.66698937  0.05518001
   0.16798710  0.66636154  0.55339213
   0.09203666  0.01926291  0.40041306
   0.99640489  0.16714064  0.36897685
 
 position of ions in cartesian coordinates  (Angst):
   9.13156483  7.65809447 -1.75648816
   9.13978508  6.28083229 -7.42554486
   3.05272556  7.65790268 -1.76027434
   3.04535535  6.27609505 -7.42897471
   6.08954262  7.66208991 -1.76595948
   6.09350720  6.27772086 -7.42880600
   1.50868096  9.32493634 -3.89548536
   1.51862714  8.00031262 -9.53856843
   4.57096034  9.38599713 -3.87357000
   4.57179814  8.00627103 -9.53517520
   7.61483303  9.38604971 -3.88764163
   7.62167168  8.00321120 -9.54325051
   1.51901762  6.15395771 -4.49635686
   1.52160814  4.76334617-10.13926829
   4.57152698  6.18209381 -4.49868021
   4.56920245  4.76676909-10.13606757
   7.61697526  6.16990287 -4.49272315
   7.61352875  4.76159800-10.13409412
   9.13690247 10.88477407 -1.19986464
   9.13265689  9.48795405 -6.77454529
   3.05360388 10.87652818 -1.17023957
   3.04842535  9.48394517 -6.79098489
   6.09706019 10.88535303 -1.16935047
   6.09293141  9.48618617 -6.78765594
   1.50437844  1.53791375 -1.80856305
   1.50799108  0.15336399 -7.38962169
   4.57252945  1.52304591 -1.78740079
   4.57181555  0.13088142 -7.39879926
   7.63077475  1.52865144 -1.80736648
   7.62178700  0.13730326 -7.38615073
   9.13533791  3.22677883 -3.89040763
   9.13866265  1.83962857 -9.52611437
   3.04948381  3.25398180 -3.88160829
   3.04566684  1.84335075 -9.51973360
   6.09246200  3.24985359 -3.88239779
   6.09327852  1.84078945 -9.52078168
   9.14188479 -1.36372870-10.14602122
   3.04250195 -0.00357619 -4.47430675
   3.04553126 -1.35427024-10.15089012
   6.16915276 -0.01679907 -4.48055178
   6.09723762 -1.35646912-10.15347701
   1.52387245  4.74468587 -1.15083205
   1.51983836  3.35739837 -6.81214015
   4.56989711  4.73741290 -1.15089741
   4.57086071  3.36049293 -6.81163647
   7.61113600  4.74501518 -1.15293784
   7.61855486  3.35272167 -6.81615536
   1.53065872 11.87618692 -1.50117774
   1.51955841 10.50460198 -7.02634583
   4.57161397 11.88971496 -1.44135082
   4.56864831 10.49039439 -7.08457849
   7.61495658 11.89706048 -1.42523839
   7.61564381 10.48993226 -7.08718398
   9.13723010  5.15793977 -4.21004365
   9.14007741  3.76017149 -9.85977774
   3.05293048  5.17098279 -4.21546504
   3.04678657  3.76211911 -9.85780115
   6.08869663  5.17112209 -4.21719535
   6.08901715  3.75993310 -9.85442887
   1.52644563  7.46783949 -3.15856572
   1.52005258  6.10423311 -8.83229306
   4.56980199  7.47551342 -3.15338082
   4.56708944  6.10710271 -8.83067338
   7.60640499  7.47577585 -3.15462529
   7.62098046  6.10705004 -8.83303301
   9.12261682  9.51114269 -2.45539421
   0.00108920  8.17753814 -8.13269658
   3.07478714  9.52904454 -2.45836849
   3.04148294  8.17414504 -8.13481829
   6.07692186  9.53894167 -2.46130883
   6.09330957  8.17253733 -8.13346531
   9.12148602  8.86168087 -5.04585597
   0.00429948  7.63230866-10.70948370
   3.07028575  8.90772369 -5.04280040
   3.04498442  7.62215568-10.69391587
   6.07560868  8.91955887 -5.03707363
   6.09306430  7.61650513-10.69278846
   1.52369270  8.04257199 -0.60324948
   1.52351401  6.65101125 -6.27198791
   4.57041948  8.04672229 -0.59609799
   4.56873274  6.65542777 -6.27862335
   7.60962299  8.04193816 -0.59561718
   7.61453416  6.65006602 -6.27366471
   9.13968688  5.74671535 -1.42421642
   9.14036826  4.36121201 -7.10904324
   3.04960839  5.74798608 -1.42112688
   3.04595642  4.36042594 -7.10891661
   6.08698062  5.75077959 -1.41813796
   6.09392587  4.36072078 -7.11194538
   1.52575126 -2.36447093 -9.85183001
   4.59995081 -0.98873526 -4.22271804
   4.57064108 -2.35987245 -9.86461837
   7.62162058 11.22688544 -4.20827182
   7.61657126 -2.36413106 -9.85714070
   9.12417353  1.41694145 -3.14263179
   0.00246406 -0.04429045 -8.82371568
   3.06310719  1.36464017 -3.17779579
   3.04076016 -0.04710352 -8.80862076
   6.09349808  1.35152423 -3.18279877
   6.09385695 -0.04702410 -8.81236369
   1.54664325  3.44691921 -2.48307730
   1.53295244  2.04117621 -8.14249982
   4.57224483  3.42668505 -2.48103131
   4.56906009  2.02639299 -8.12704855
   7.58995651  3.44759228 -2.48249781
   7.60644516  2.03771394 -8.14685303
   1.53126879  2.89028692 -5.04066761
   1.52398418  1.45992908-10.68534944
   4.56997678  2.87600584 -5.04166268
   4.56755643  1.45038491-10.68243748
   7.60480897  2.88871011 -5.04490025
   7.61445416  1.45728486-10.68767364
   0.00342955  1.92016005 -0.60525238
   9.12429802  0.62712203 -6.30582423
   3.03756435  1.90042193 -0.62435503
   3.05317617  0.53434703 -6.25416423
   6.09808451  1.91356193 -0.62357265
   6.09234439  0.53102696 -6.25371707
   0.17611502  0.02180562 -4.52494683
   1.52811696 11.21489958 -4.16969578
 


--------------------------------------------------------------------------------------------------------


 k-point   1 :   0.0000 0.0000 0.0000  plane waves:   27533
 k-point   2 :   0.5000 0.0000 0.0000  plane waves:   27522
 k-point   3 :   0.0000 0.5000 0.0000  plane waves:   27488
 k-point   4 :   0.5000 0.5000 0.0000  plane waves:   27488
 k-point   5 :   0.0000 0.0000 0.5000  plane waves:   27482
 k-point   6 :   0.5000 0.0000 0.5000  plane waves:   27476
 k-point   7 :   0.0000 0.5000 0.5000  plane waves:   27468
 k-point   8 :   0.5000 0.5000 0.5000  plane waves:   27564

 maximum and minimum number of plane-waves per node :     27564    27468

 maximum number of plane-waves:     27564
 maximum index in each direction: 
   IXMAX=   21   IYMAX=   15   IZMAX=   20
   IXMIN=  -21   IYMIN=  -16   IZMIN=  -20


 serial   3D FFT for wavefunctions
 parallel 3D FFT for charge:
    minimum data exchange during FFTs selected (reduces bandwidth)


 FFT grid for exact exchange (Hartree Fock) 
  NGX = 48; NGY = 36; NGZ = 48

 
 Radii for the augmentation spheres in the non-local exchange
 for species   1 augmentation radius   1.392 (default was   1.031)
       energy cutoff for augmentation   1800.0
 for species   2 augmentation radius   0.974 (default was   0.722)
       energy cutoff for augmentation   1800.0
 for species   3 augmentation radius   1.273 (default was   0.943)
       energy cutoff for augmentation   1800.0
 for species   4 augmentation radius   0.957 (default was   0.709)
       energy cutoff for augmentation   1800.0
 Maximum index for augmentation-charges in exchange           749
  SETUP_FOCK is finished

 total amount of memory used by VASP MPI-rank0  7269962. kBytes
=======================================================================

   base      :      30000. kBytes
   nonlr-proj:      32938. kBytes
   fftplans  :      51012. kBytes
   grid      :     114966. kBytes
   one-center:       1866. kBytes
   HF        :        259. kBytes
   wavefun   :    7038921. kBytes
 
     INWAV:  cpu time      0.0001: real time      0.0001
 Broyden mixing: mesh for mixing (old mesh)
   NGX = 43   NGY = 31   NGZ = 41
  (NGX  =128   NGY  = 96   NGZ  =120)
  gives a total of  54653 points

 charge density for first step will be calculated from the start-wavefunctions


--------------------------------------------------------------------------------------------------------


 Maximum index for non-local projection operator          1722
 Maximum index for augmentation-charges          5360 (set IRDMAX)


--------------------------------------------------------------------------------------------------------


 initial charge from wavefunction
 First call to EWALD:  gamma=   0.164
 Maximum number of real-space cells 3x 3x 3
 Maximum number of reciprocal cells 3x 2x 3

    FEWALD:  cpu time      0.0732: real time      0.0732


--------------------------------------- Ionic step        1  -------------------------------------------




--------------------------------------- Iteration      1(   1)  ---------------------------------------


    POTLOK:  cpu time      0.0340: real time      0.0356
    SETDIJ:  cpu time      0.1327: real time      0.1327
    TRIAL :  cpu time      2.9298: real time      2.9533
    CORREC:  cpu time      0.0015: real time      0.0015
    --------------------------------------------
      LOOP:  cpu time      4.0388: real time      4.0634

 eigenvalue-minimisations  : 10616
 total energy-change (2. order) :-0.1834323E+05  (-0.5457426E+05)
 number of electron    1053.9999447 magnetization 
 augmentation part      121.2990359 magnetization 

 Free energy of the ion-electron system (eV)
  ---------------------------------------------------
  alpha Z        PSCENC =      5489.43240179
  Ewald energy   TEWEN  =    -88351.16211237
  -Hartree energ DENC   =     -2096.51154524
  -exchange      EXHF   =         0.00000000
  -V(xc)+E(xc)   XCENC  =      2805.48358611
  PAW double counting   =     66051.03616473   -95200.84885368
  entropy T*S    EENTRO =        -0.01279382
  eigenvalues    EBANDS =    -40015.77252142
  atomic energy  EATOM  =    132975.12501908
  ---------------------------------------------------
  free energy    TOTEN  =    -18343.23065481 eV

  energy without entropy =   -18343.21786100  energy(sigma->0) =   -18343.22425791
  exchange ACFDT corr.  =         0.00000000  see jH, gK, PRB 81, 115126


--------------------------------------------------------------------------------------------------------




--------------------------------------- Iteration      1(   2)  ---------------------------------------


    TRIAL :  cpu time      3.2048: real time      3.2042
    CORREC:  cpu time      0.0015: real time      0.0015
    --------------------------------------------
      LOOP:  cpu time      3.2064: real time      3.2067

 eigenvalue-minimisations  : 13552
 total energy-change (2. order) :-0.4403509E+05  (-0.4272583E+05)
 number of electron    1053.9999447 magnetization 
 augmentation part      121.2990359 magnetization 

 Free energy of the ion-electron system (eV)
  ---------------------------------------------------
  alpha Z        PSCENC =      5489.43240179
  Ewald energy   TEWEN  =    -88351.16211237
  -Hartree energ DENC   =     -2096.51154524
  -exchange      EXHF   =         0.00000000
  -V(xc)+E(xc)   XCENC  =      2805.48358611
  PAW double counting   =     66051.03616473   -95200.84885368
  entropy T*S    EENTRO =        -0.01458522
  eigenvalues    EBANDS =    -84050.85924654
  atomic energy  EATOM  =    132975.12501908
  ---------------------------------------------------
  free energy    TOTEN  =    -62378.31917134 eV

  energy without entropy =   -62378.30458612  energy(sigma->0) =   -62378.31187873
  exchange ACFDT corr.  =         0.00000000  see jH, gK, PRB 81, 115126


--------------------------------------------------------------------------------------------------------




--------------------------------------- Iteration      1(   3)  ---------------------------------------


    TRIAL :  cpu time      3.3436: real time      3.3430
    CORREC:  cpu time      0.0017: real time      0.0017
    --------------------------------------------
      LOOP:  cpu time      3.3455: real time      3.3453

 eigenvalue-minimisations  : 14440
 total energy-change (2. order) :-0.4626032E+04  (-0.4130460E+04)
 number of electron    1053.9999447 magnetization 
 augmentation part      121.2990359 magnetization 

 Free energy of the ion-electron system (eV)
  ---------------------------------------------------
  alpha Z        PSCENC =      5489.43240179
  Ewald energy   TEWEN  =    -88351.16211237
  -Hartree energ DENC   =     -2096.51154524
  -exchange      EXHF   =         0.00000000
  -V(xc)+E(xc)   XCENC  =      2805.48358611
  PAW double counting   =     66051.03616473   -95200.84885368
  entropy T*S    EENTRO =        -0.04094268
  eigenvalues    EBANDS =    -88676.86488323
  atomic energy  EATOM  =    132975.12501908
  ---------------------------------------------------
  free energy    TOTEN  =    -67004.35116549 eV

  energy without entropy =   -67004.31022281  energy(sigma->0) =   -67004.33069415
  exchange ACFDT corr.  =         0.00000000  see jH, gK, PRB 81, 115126


--------------------------------------------------------------------------------------------------------




--------------------------------------- Iteration      1(   4)  ---------------------------------------


    TRIAL :  cpu time      3.7297: real time      3.7287
    CORREC:  cpu time      0.0017: real time      0.0017
    --------------------------------------------
      LOOP:  cpu time      3.7315: real time      3.7311

 eigenvalue-minimisations  : 17152
 total energy-change (2. order) :-0.5666145E+03  (-0.4892199E+03)
 number of electron    1053.9999447 magnetization 
 augmentation part      121.2990359 magnetization 

 Free energy of the ion-electron system (eV)
  ---------------------------------------------------
  alpha Z        PSCENC =      5489.43240179
  Ewald energy   TEWEN  =    -88351.16211237
  -Hartree energ DENC   =     -2096.51154524
  -exchange      EXHF   =         0.00000000
  -V(xc)+E(xc)   XCENC  =      2805.48358611
  PAW double counting   =     66051.03616473   -95200.84885368
  entropy T*S    EENTRO =        -0.04484601
  eigenvalues    EBANDS =    -89243.47550022
  atomic energy  EATOM  =    132975.12501908
  ---------------------------------------------------
  free energy    TOTEN  =    -67570.96568581 eV

  energy without entropy =   -67570.92083980  energy(sigma->0) =   -67570.94326280
  exchange ACFDT corr.  =         0.00000000  see jH, gK, PRB 81, 115126


--------------------------------------------------------------------------------------------------------




--------------------------------------- Iteration      1(   5)  ---------------------------------------


    POTLOK:  cpu time      1.3810: real time      1.3807
    SETDIJ:  cpu time      0.5119: real time      0.5118
    TRIAL :  cpu time    237.5162: real time    237.4706
    CORREC:  cpu time      0.0016: real time      0.0016
    CHARGE:  cpu time      0.2060: real time      0.2059
    --------------------------------------------
      LOOP:  cpu time    239.6169: real time    239.5711

 eigenvalue-minimisations  : 19240
 total energy-change (2. order) : 0.3003476E+05  (-0.7986808E+02)
 number of electron    1053.9998384 magnetization 
 augmentation part      489.9400413 magnetization 

 Free energy of the ion-electron system (eV)
  ---------------------------------------------------
  alpha Z        PSCENC =      5489.43240179
  Ewald energy   TEWEN  =    -88351.16211237
  -Hartree energ DENC   =     -2096.51154524
  -exchange      EXHF   =      4683.21329665
  -V(xc)+E(xc)   XCENC  =      1939.50901099
  PAW double counting   =     66726.33771832   -68787.50057444
  entropy T*S    EENTRO =        -0.01621175
  eigenvalues    EBANDS =    -90114.63253810
  atomic energy  EATOM  =    132975.12501908
  ---------------------------------------------------
  free energy    TOTEN  =    -37536.20553507 eV

  energy without entropy =   -37536.18932331  energy(sigma->0) =   -37536.19742919
  exchange ACFDT corr.  =        -0.07304559  see jH, gK, PRB 81, 115126


--------------------------------------------------------------------------------------------------------




--------------------------------------- Iteration      1(   6)  ---------------------------------------


    POTLOK:  cpu time      1.4004: real time      1.4002
    SETDIJ:  cpu time      0.5311: real time      0.5309
    TRIAL :  cpu time    237.2464: real time    237.2039
    CORREC:  cpu time    239.6918: real time    239.6474
    CHARGE:  cpu time      0.2222: real time      0.2221
    --------------------------------------------
      LOOP:  cpu time    479.0947: real time    479.0076

 eigenvalue-minimisations  :     0
 total energy-change (2. order) : 0.5960945E+05  (-0.1705052E+05)
 number of electron    1053.9998597 magnetization 
 augmentation part      491.3059157 magnetization 

 Free energy of the ion-electron system (eV)
  ---------------------------------------------------
  alpha Z        PSCENC =      5489.43240179
  Ewald energy   TEWEN  =    -88351.16211237
  -Hartree energ DENC   =    -68795.35941877
  -exchange      EXHF   =      4791.09358944
  -V(xc)+E(xc)   XCENC  =      3744.66323379
  PAW double counting   =    146391.17772805  -170924.83028805
  entropy T*S    EENTRO =        -0.01931383
  eigenvalues    EBANDS =     56753.12295374
  atomic energy  EATOM  =    132975.12501908
  ---------------------------------------------------
  free energy    TOTEN  =     22073.24689495 eV

  energy without entropy =    22073.26620878  energy(sigma->0) =    22073.25655187
  exchange ACFDT corr.  =        -0.06042116  see jH, gK, PRB 81, 115126


--------------------------------------------------------------------------------------------------------




--------------------------------------- Iteration      1(   7)  ---------------------------------------


    POTLOK:  cpu time      1.4967: real time      1.4966
    SETDIJ:  cpu time      0.5282: real time      0.5280
    TRIAL :  cpu time    236.5608: real time    236.5185
    CORREC:  cpu time    239.3577: real time    239.3125
    CHARGE:  cpu time      0.2216: real time      0.2215
    --------------------------------------------
      LOOP:  cpu time    478.1703: real time    478.0827

 eigenvalue-minimisations  :     0
 total energy-change (2. order) :-0.1677750E+05  (-0.3987193E+04)
 number of electron    1053.9998500 magnetization 
 augmentation part      461.1098600 magnetization 

 Free energy of the ion-electron system (eV)
  ---------------------------------------------------
  alpha Z        PSCENC =      5489.43240179
  Ewald energy   TEWEN  =    -88351.16211237
  -Hartree energ DENC   =    -45835.98927003
  -exchange      EXHF   =      4218.00985687
  -V(xc)+E(xc)   XCENC  =      3240.47349343
  PAW double counting   =    127374.02621395  -147230.86721745
  entropy T*S    EENTRO =        -0.05186576
  eigenvalues    EBANDS =     13416.71908230
  atomic energy  EATOM  =    132975.12501908
  ---------------------------------------------------
  free energy    TOTEN  =      5295.74815374 eV

  energy without entropy =     5295.80001950  energy(sigma->0) =     5295.77408662
  exchange ACFDT corr.  =      -205.28655285  see jH, gK, PRB 81, 115126


--------------------------------------------------------------------------------------------------------




--------------------------------------- Iteration      1(   8)  ---------------------------------------


    POTLOK:  cpu time      1.4468: real time      1.4466
    SETDIJ:  cpu time      0.5766: real time      0.5764
    TRIAL :  cpu time    238.0768: real time    238.0377
    CORREC:  cpu time    240.6923: real time    240.6477
    CHARGE:  cpu time      0.2268: real time      0.2267
    --------------------------------------------
      LOOP:  cpu time    481.0209: real time    480.9373

 eigenvalue-minimisations  :     0
 total energy-change (2. order) :-0.4212504E+04  (-0.8698444E+03)
 number of electron    1053.9998524 magnetization 
 augmentation part      444.0957187 magnetization 

 Free energy of the ion-electron system (eV)
  ---------------------------------------------------
  alpha Z        PSCENC =      5489.43240179
  Ewald energy   TEWEN  =    -88351.16211237
  -Hartree energ DENC   =    -35701.97389280
  -exchange      EXHF   =      3850.09082576
  -V(xc)+E(xc)   XCENC  =      2950.46236545
  PAW double counting   =    123749.81581794  -140399.90805050
  entropy T*S    EENTRO =        -0.07179283
  eigenvalues    EBANDS =     -3478.58643688
  atomic energy  EATOM  =    132975.12501908
  ---------------------------------------------------
  free energy    TOTEN  =      1083.24407169 eV

  energy without entropy =     1083.31586453  energy(sigma->0) =     1083.27996811
  exchange ACFDT corr.  =      -101.13250429  see jH, gK, PRB 81, 115126


--------------------------------------------------------------------------------------------------------




--------------------------------------- Iteration      1(   9)  ---------------------------------------


    POTLOK:  cpu time      1.5003: real time      1.5005
    SETDIJ:  cpu time      0.5414: real time      0.5413
    TRIAL :  cpu time    238.9228: real time    238.8845
    CORREC:  cpu time    239.1176: real time    239.0783
    CHARGE:  cpu time      0.2254: real time      0.2253
    --------------------------------------------
      LOOP:  cpu time    480.3079: real time    480.2371

 eigenvalue-minimisations  :     0
 total energy-change (2. order) :-0.8571924E+03  (-0.5045984E+03)
 number of electron    1053.9998581 magnetization 
 augmentation part      442.3755836 magnetization 

 Free energy of the ion-electron system (eV)
  ---------------------------------------------------
  alpha Z        PSCENC =      5489.43240179
  Ewald energy   TEWEN  =    -88351.16211237
  -Hartree energ DENC   =    -33040.59169449
  -exchange      EXHF   =      3737.15097284
  -V(xc)+E(xc)   XCENC  =      2864.11878374
  PAW double counting   =    120795.55721472  -136041.36893840
  entropy T*S    EENTRO =        -0.03887847
  eigenvalues    EBANDS =     -8202.13813622
  atomic energy  EATOM  =    132975.12501908
  ---------------------------------------------------
  free energy    TOTEN  =       226.05171785 eV

  energy without entropy =      226.09059632  energy(sigma->0) =      226.07115709
  exchange ACFDT corr.  =       -60.62006465  see jH, gK, PRB 81, 115126


--------------------------------------------------------------------------------------------------------




--------------------------------------- Iteration      1(  10)  ---------------------------------------


    POTLOK:  cpu time      1.4892: real time      1.4895
    SETDIJ:  cpu time      0.5321: real time      0.5320
    TRIAL :  cpu time    237.2271: real time    237.1819
    CORREC:  cpu time    238.6055: real time    238.5635
    CHARGE:  cpu time      0.2257: real time      0.2257
    --------------------------------------------
      LOOP:  cpu time    478.0807: real time    477.9940

 eigenvalue-minimisations  :     0
 total energy-change (2. order) :-0.3564224E+03  (-0.3918280E+03)
 number of electron    1053.9998422 magnetization 
 augmentation part      446.7082164 magnetization 

 Free energy of the ion-electron system (eV)
  ---------------------------------------------------
  alpha Z        PSCENC =      5489.43240179
  Ewald energy   TEWEN  =    -88351.16211237
  -Hartree energ DENC   =    -32406.11324512
  -exchange      EXHF   =      3720.81437144
  -V(xc)+E(xc)   XCENC  =      2847.50114520
  PAW double counting   =    119976.71209572  -134699.56998721
  entropy T*S    EENTRO =        -0.01007301
  eigenvalues    EBANDS =     -9683.07144838
  atomic energy  EATOM  =    132975.12501908
  ---------------------------------------------------
  free energy    TOTEN  =      -130.37063833 eV

  energy without entropy =     -130.36056532  energy(sigma->0) =     -130.36560182
  exchange ACFDT corr.  =        -8.89771683  see jH, gK, PRB 81, 115126


--------------------------------------------------------------------------------------------------------




--------------------------------------- Iteration      1(  11)  ---------------------------------------


    POTLOK:  cpu time      1.5092: real time      1.5093
    SETDIJ:  cpu time      0.5105: real time      0.5104
    TRIAL :  cpu time    236.8035: real time    236.7558
    CORREC:  cpu time    238.6453: real time    238.5969
    CHARGE:  cpu time      0.2219: real time      0.2219
    --------------------------------------------
      LOOP:  cpu time    477.6923: real time    477.5965

 eigenvalue-minimisations  :     0
 total energy-change (2. order) :-0.3406529E+03  (-0.2605035E+03)
 number of electron    1053.9998315 magnetization 
 augmentation part      453.9548754 magnetization 

 Free energy of the ion-electron system (eV)
  ---------------------------------------------------
  alpha Z        PSCENC =      5489.43240179
  Ewald energy   TEWEN  =    -88351.16211237
  -Hartree energ DENC   =    -32688.48289264
  -exchange      EXHF   =      3764.07918121
  -V(xc)+E(xc)   XCENC  =      2861.40592861
  PAW double counting   =    121967.68125739  -136837.07421778
  entropy T*S    EENTRO =        -0.00467344
  eigenvalues    EBANDS =     -9652.01803374
  atomic energy  EATOM  =    132975.12501908
  ---------------------------------------------------
  free energy    TOTEN  =      -471.02354145 eV

  energy without entropy =     -471.01886801  energy(sigma->0) =     -471.02120473
  exchange ACFDT corr.  =        -0.85856022  see jH, gK, PRB 81, 115126


--------------------------------------------------------------------------------------------------------




--------------------------------------- Iteration      1(  12)  ---------------------------------------


    POTLOK:  cpu time      1.5067: real time      1.5064
    SETDIJ:  cpu time      0.5072: real time      0.5071
    TRIAL :  cpu time    236.8064: real time    236.7611
    CORREC:  cpu time    238.2679: real time    238.2219
    CHARGE:  cpu time      0.2242: real time      0.2242
    --------------------------------------------
      LOOP:  cpu time    477.3134: real time    477.2222

 eigenvalue-minimisations  :     0
 total energy-change (2. order) :-0.2600905E+03  (-0.1109016E+03)
 number of electron    1053.9998341 magnetization 
 augmentation part      458.8273576 magnetization 

 Free energy of the ion-electron system (eV)
  ---------------------------------------------------
  alpha Z        PSCENC =      5489.43240179
  Ewald energy   TEWEN  =    -88351.16211237
  -Hartree energ DENC   =    -33303.13129286
  -exchange      EXHF   =      3836.91786925
  -V(xc)+E(xc)   XCENC  =      2890.92256025
  PAW double counting   =    123998.34504263  -139321.67220965
  entropy T*S    EENTRO =        -0.01264321
  eigenvalues    EBANDS =     -8945.88665762
  atomic energy  EATOM  =    132975.12501908
  ---------------------------------------------------
  free energy    TOTEN  =      -731.11405294 eV

  energy without entropy =     -731.10140973  energy(sigma->0) =     -731.10773133
  exchange ACFDT corr.  =        -0.10717088  see jH, gK, PRB 81, 115126


--------------------------------------------------------------------------------------------------------




--------------------------------------- Iteration      1(  13)  ---------------------------------------


    POTLOK:  cpu time      1.4999: real time      1.5000
    SETDIJ:  cpu time      0.5225: real time      0.5224
    TRIAL :  cpu time    236.3991: real time    236.3547
    CORREC:  cpu time    238.3880: real time    238.3477
    CHARGE:  cpu time      0.2211: real time      0.2211
    --------------------------------------------
      LOOP:  cpu time    477.0309: real time    476.9464

 eigenvalue-minimisations  :     0
 total energy-change (2. order) :-0.1120109E+03  (-0.5604046E+02)
 number of electron    1053.9998403 magnetization 
 augmentation part      459.9512533 magnetization 

 Free energy of the ion-electron system (eV)
  ---------------------------------------------------
  alpha Z        PSCENC =      5489.43240179
  Ewald energy   TEWEN  =    -88351.16211237
  -Hartree energ DENC   =    -33812.75924867
  -exchange      EXHF   =      3892.56769230
  -V(xc)+E(xc)   XCENC  =      2917.59762467
  PAW double counting   =    123992.50331579  -139436.46840766
  entropy T*S    EENTRO =        -0.00765901
  eigenvalues    EBANDS =     -8509.94863581
  atomic energy  EATOM  =    132975.12501908
  ---------------------------------------------------
  free energy    TOTEN  =      -843.12499410 eV

  energy without entropy =     -843.11733508  energy(sigma->0) =     -843.12116459
  exchange ACFDT corr.  =        -0.06255349  see jH, gK, PRB 81, 115126


--------------------------------------------------------------------------------------------------------




--------------------------------------- Iteration      1(  14)  ---------------------------------------


    POTLOK:  cpu time      1.5296: real time      1.5294
    SETDIJ:  cpu time      0.5221: real time      0.5220
    TRIAL :  cpu time    236.4818: real time    236.4344
    CORREC:  cpu time    238.1423: real time    238.0969
    CHARGE:  cpu time      0.2231: real time      0.2230
    --------------------------------------------
      LOOP:  cpu time    476.8991: real time    476.8135

 eigenvalue-minimisations  :     0
 total energy-change (2. order) :-0.5700846E+02  (-0.2530268E+02)
 number of electron    1053.9998423 magnetization 
 augmentation part      459.2368365 magnetization 

 Free energy of the ion-electron system (eV)
  ---------------------------------------------------
  alpha Z        PSCENC =      5489.43240179
  Ewald energy   TEWEN  =    -88351.16211237
  -Hartree energ DENC   =    -33978.30293858
  -exchange      EXHF   =      3902.99799453
  -V(xc)+E(xc)   XCENC  =      2926.61399607
  PAW double counting   =    122337.97108493  -137689.74563745
  entropy T*S    EENTRO =        -0.00000000
  eigenvalues    EBANDS =     -8513.05559898
  atomic energy  EATOM  =    132975.12501908
  ---------------------------------------------------
  free energy    TOTEN  =      -900.13344999 eV

  energy without entropy =     -900.13344999  energy(sigma->0) =     -900.13344999
  exchange ACFDT corr.  =        -0.14040527  see jH, gK, PRB 81, 115126


--------------------------------------------------------------------------------------------------------




--------------------------------------- Iteration      1(  15)  ---------------------------------------


    POTLOK:  cpu time      1.5368: real time      1.5365
    SETDIJ:  cpu time      0.4963: real time      0.4962
    TRIAL :  cpu time    236.4468: real time    236.3990
    CORREC:  cpu time    238.0768: real time    238.0326
    CHARGE:  cpu time      0.2190: real time      0.2190
    --------------------------------------------
      LOOP:  cpu time    476.7789: real time    476.6870

 eigenvalue-minimisations  :     0
 total energy-change (2. order) :-0.2514451E+02  (-0.1180660E+02)
 number of electron    1053.9998416 magnetization 
 augmentation part      458.6350458 magnetization 

 Free energy of the ion-electron system (eV)
  ---------------------------------------------------
  alpha Z        PSCENC =      5489.43240179
  Ewald energy   TEWEN  =    -88351.16211237
  -Hartree energ DENC   =    -33861.78624210
  -exchange      EXHF   =      3887.62752292
  -V(xc)+E(xc)   XCENC  =      2919.99762190
  PAW double counting   =    121322.68618966  -136656.39076805
  entropy T*S    EENTRO =        -0.00647743
  eigenvalues    EBANDS =     -8650.80759312
  atomic energy  EATOM  =    132975.12501908
  ---------------------------------------------------
  free energy    TOTEN  =      -925.27796029 eV

  energy without entropy =     -925.27148286  energy(sigma->0) =     -925.27472157
  exchange ACFDT corr.  =        -0.00026373  see jH, gK, PRB 81, 115126


--------------------------------------------------------------------------------------------------------




--------------------------------------- Iteration      1(  16)  ---------------------------------------


    POTLOK:  cpu time      1.4917: real time      1.4915
    SETDIJ:  cpu time      0.5082: real time      0.5081
    TRIAL :  cpu time    236.2213: real time    236.1755
    CORREC:  cpu time    238.2173: real time    238.1711
    CHARGE:  cpu time      0.2236: real time      0.2235
    --------------------------------------------
      LOOP:  cpu time    476.6636: real time    476.5717

 eigenvalue-minimisations  :     0
 total energy-change (2. order) :-0.1207901E+02  (-0.4459241E+01)
 number of electron    1053.9998414 magnetization 
 augmentation part      458.6610254 magnetization 

 Free energy of the ion-electron system (eV)
  ---------------------------------------------------
  alpha Z        PSCENC =      5489.43240179
  Ewald energy   TEWEN  =    -88351.16211237
  -Hartree energ DENC   =    -33716.54106341
  -exchange      EXHF   =      3875.70781428
  -V(xc)+E(xc)   XCENC  =      2912.56567608
  PAW double counting   =    121061.55766757  -136418.28220248
  entropy T*S    EENTRO =        -0.00000000
  eigenvalues    EBANDS =     -8765.75369070
  atomic energy  EATOM  =    132975.12501908
  ---------------------------------------------------
  free energy    TOTEN  =      -937.35696760 eV

  energy without entropy =     -937.35696760  energy(sigma->0) =     -937.35696760
  exchange ACFDT corr.  =        -0.01345213  see jH, gK, PRB 81, 115126


--------------------------------------------------------------------------------------------------------




--------------------------------------- Iteration      1(  17)  ---------------------------------------


    POTLOK:  cpu time      1.5450: real time      1.5447
    SETDIJ:  cpu time      0.4723: real time      0.4722
    TRIAL :  cpu time    236.3945: real time    236.3465
    CORREC:  cpu time    238.3742: real time    238.3260
    CHARGE:  cpu time      0.2138: real time      0.2138
    --------------------------------------------
      LOOP:  cpu time    477.0001: real time    476.9037

 eigenvalue-minimisations  :     0
 total energy-change (2. order) :-0.4093625E+01  (-0.3041815E+01)
 number of electron    1053.9998416 magnetization 
 augmentation part      458.5146385 magnetization 

 Free energy of the ion-electron system (eV)
  ---------------------------------------------------
  alpha Z        PSCENC =      5489.43240179
  Ewald energy   TEWEN  =    -88351.16211237
  -Hartree energ DENC   =    -33706.02188665
  -exchange      EXHF   =      3875.93293432
  -V(xc)+E(xc)   XCENC  =      2912.09166374
  PAW double counting   =    121027.99848166  -136390.88906281
  entropy T*S    EENTRO =        -0.00000000
  eigenvalues    EBANDS =     -8773.95803149
  atomic energy  EATOM  =    132975.12501908
  ---------------------------------------------------
  free energy    TOTEN  =      -941.45059274 eV

  energy without entropy =     -941.45059274  energy(sigma->0) =     -941.45059274
  exchange ACFDT corr.  =        -0.00000000  see jH, gK, PRB 81, 115126


--------------------------------------------------------------------------------------------------------




--------------------------------------- Iteration      1(  18)  ---------------------------------------


    POTLOK:  cpu time      1.5554: real time      1.5551
    SETDIJ:  cpu time      0.4686: real time      0.4685
    TRIAL :  cpu time    236.2282: real time    236.1884
    CORREC:  cpu time    238.1636: real time    238.1170
    CHARGE:  cpu time      0.2182: real time      0.2181
    --------------------------------------------
      LOOP:  cpu time    476.6342: real time    476.5476

 eigenvalue-minimisations  :     0
 total energy-change (2. order) :-0.2977362E+01  (-0.1171354E+01)
 number of electron    1053.9998420 magnetization 
 augmentation part      458.7023807 magnetization 

 Free energy of the ion-electron system (eV)
  ---------------------------------------------------
  alpha Z        PSCENC =      5489.43240179
  Ewald energy   TEWEN  =    -88351.16211237
  -Hartree energ DENC   =    -33732.98229158
  -exchange      EXHF   =      3879.59109828
  -V(xc)+E(xc)   XCENC  =      2913.68289001
  PAW double counting   =    120951.15486139  -136299.93133647
  entropy T*S    EENTRO =        -0.00000000
  eigenvalues    EBANDS =     -8769.33848478
  atomic energy  EATOM  =    132975.12501908
  ---------------------------------------------------
  free energy    TOTEN  =      -944.42795465 eV

  energy without entropy =     -944.42795465  energy(sigma->0) =     -944.42795465
  exchange ACFDT corr.  =         0.00000000  see jH, gK, PRB 81, 115126


--------------------------------------------------------------------------------------------------------




--------------------------------------- Iteration      1(  19)  ---------------------------------------


    POTLOK:  cpu time      1.4914: real time      1.4912
    SETDIJ:  cpu time      0.4862: real time      0.4861
    TRIAL :  cpu time    236.0733: real time    236.0333
    CORREC:  cpu time    238.2971: real time    238.2571
    CHARGE:  cpu time      0.2172: real time      0.2171
    --------------------------------------------
      LOOP:  cpu time    476.5655: real time    476.4883

 eigenvalue-minimisations  :     0
 total energy-change (2. order) :-0.1173046E+01  (-0.7278716E+00)
 number of electron    1053.9998422 magnetization 
 augmentation part      458.6984058 magnetization 

 Free energy of the ion-electron system (eV)
  ---------------------------------------------------
  alpha Z        PSCENC =      5489.43240179
  Ewald energy   TEWEN  =    -88351.16211237
  -Hartree energ DENC   =    -33778.45507447
  -exchange      EXHF   =      3882.19006972
  -V(xc)+E(xc)   XCENC  =      2915.47929373
  PAW double counting   =    120918.70585807  -136269.00109399
  entropy T*S    EENTRO =        -0.00000000
  eigenvalues    EBANDS =     -8727.91536234
  atomic energy  EATOM  =    132975.12501908
  ---------------------------------------------------
  free energy    TOTEN  =      -945.60100077 eV

  energy without entropy =     -945.60100077  energy(sigma->0) =     -945.60100077
  exchange ACFDT corr.  =        -0.00000000  see jH, gK, PRB 81, 115126


--------------------------------------------------------------------------------------------------------




--------------------------------------- Iteration      1(  20)  ---------------------------------------


    POTLOK:  cpu time      1.5006: real time      1.5004
    SETDIJ:  cpu time      0.5120: real time      0.5119
    TRIAL :  cpu time    236.3415: real time    236.2996
    CORREC:  cpu time    238.1408: real time    238.0998
    CHARGE:  cpu time      0.2253: real time      0.2253
    --------------------------------------------
      LOOP:  cpu time    476.7223: real time    476.6457

 eigenvalue-minimisations  :     0
 total energy-change (2. order) :-0.7256609E+00  (-0.2995849E+00)
 number of electron    1053.9998422 magnetization 
 augmentation part      458.5605746 magnetization 

 Free energy of the ion-electron system (eV)
  ---------------------------------------------------
  alpha Z        PSCENC =      5489.43240179
  Ewald energy   TEWEN  =    -88351.16211237
  -Hartree energ DENC   =    -33780.90117679
  -exchange      EXHF   =      3881.86579282
  -V(xc)+E(xc)   XCENC  =      2915.35271758
  PAW double counting   =    120932.72108417  -136283.32592877
  entropy T*S    EENTRO =        -0.00000000
  eigenvalues    EBANDS =     -8725.43445920
  atomic energy  EATOM  =    132975.12501908
  ---------------------------------------------------
  free energy    TOTEN  =      -946.32666168 eV

  energy without entropy =     -946.32666168  energy(sigma->0) =     -946.32666168
  exchange ACFDT corr.  =        -0.00000000  see jH, gK, PRB 81, 115126


--------------------------------------------------------------------------------------------------------




--------------------------------------- Iteration      1(  21)  ---------------------------------------


    POTLOK:  cpu time      1.4999: real time      1.4997
    SETDIJ:  cpu time      0.4732: real time      0.4731
    TRIAL :  cpu time    236.4038: real time    236.3617
    CORREC:  cpu time    238.2700: real time    238.2346
    CHARGE:  cpu time      0.2230: real time      0.2230
    --------------------------------------------
      LOOP:  cpu time    476.8705: real time    476.7928

 eigenvalue-minimisations  :     0
 total energy-change (2. order) :-0.2993470E+00  (-0.1731489E+00)
 number of electron    1053.9998420 magnetization 
 augmentation part      458.5460171 magnetization 

 Free energy of the ion-electron system (eV)
  ---------------------------------------------------
  alpha Z        PSCENC =      5489.43240179
  Ewald energy   TEWEN  =    -88351.16211237
  -Hartree energ DENC   =    -33760.16192372
  -exchange      EXHF   =      3880.70687269
  -V(xc)+E(xc)   XCENC  =      2914.41498854
  PAW double counting   =    120977.78875231  -136326.37941753
  entropy T*S    EENTRO =        -0.00000000
  eigenvalues    EBANDS =     -8746.39058943
  atomic energy  EATOM  =    132975.12501908
  ---------------------------------------------------
  free energy    TOTEN  =      -946.62600865 eV

  energy without entropy =     -946.62600865  energy(sigma->0) =     -946.62600865
  exchange ACFDT corr.  =        -0.00000000  see jH, gK, PRB 81, 115126


--------------------------------------------------------------------------------------------------------




--------------------------------------- Iteration      1(  22)  ---------------------------------------


    POTLOK:  cpu time      1.5090: real time      1.5088
    SETDIJ:  cpu time      0.5247: real time      0.5246
    TRIAL :  cpu time    236.2615: real time    236.2223
    CORREC:  cpu time    238.1722: real time    238.1308
    CHARGE:  cpu time      0.2240: real time      0.2240
    --------------------------------------------
      LOOP:  cpu time    476.6935: real time    476.6131

 eigenvalue-minimisations  :     0
 total energy-change (2. order) :-0.1731000E+00  (-0.9079722E-01)
 number of electron    1053.9998419 magnetization 
 augmentation part      458.5660976 magnetization 

 Free energy of the ion-electron system (eV)
  ---------------------------------------------------
  alpha Z        PSCENC =      5489.43240179
  Ewald energy   TEWEN  =    -88351.16211237
  -Hartree energ DENC   =    -33753.08962613
  -exchange      EXHF   =      3880.32222587
  -V(xc)+E(xc)   XCENC  =      2914.05208485
  PAW double counting   =    121034.32716702  -136385.33628089
  entropy T*S    EENTRO =        -0.00000000
  eigenvalues    EBANDS =     -8750.46998787
  atomic energy  EATOM  =    132975.12501908
  ---------------------------------------------------
  free energy    TOTEN  =      -946.79910864 eV

  energy without entropy =     -946.79910864  energy(sigma->0) =     -946.79910864
  exchange ACFDT corr.  =        -0.00000000  see jH, gK, PRB 81, 115126


--------------------------------------------------------------------------------------------------------




--------------------------------------- Iteration      1(  23)  ---------------------------------------


    POTLOK:  cpu time      1.4854: real time      1.4853
    SETDIJ:  cpu time      0.5111: real time      0.5109
    TRIAL :  cpu time    236.4595: real time    236.4158
    CORREC:  cpu time    238.2090: real time    238.1593
    CHARGE:  cpu time      0.2241: real time      0.2240
    --------------------------------------------
      LOOP:  cpu time    476.8897: real time    476.7965

 eigenvalue-minimisations  :     0
 total energy-change (2. order) :-0.9078723E-01  (-0.3829455E-01)
 number of electron    1053.9998419 magnetization 
 augmentation part      458.5702581 magnetization 

 Free energy of the ion-electron system (eV)
  ---------------------------------------------------
  alpha Z        PSCENC =      5489.43240179
  Ewald energy   TEWEN  =    -88351.16211237
  -Hartree energ DENC   =    -33756.78990644
  -exchange      EXHF   =      3880.82688866
  -V(xc)+E(xc)   XCENC  =      2914.27635210
  PAW double counting   =    121065.12783531  -136417.79126406
  entropy T*S    EENTRO =        -0.00000000
  eigenvalues    EBANDS =     -8745.93510995
  atomic energy  EATOM  =    132975.12501908
  ---------------------------------------------------
  free energy    TOTEN  =      -946.88989588 eV

  energy without entropy =     -946.88989588  energy(sigma->0) =     -946.88989588
  exchange ACFDT corr.  =        -0.00000000  see jH, gK, PRB 81, 115126


--------------------------------------------------------------------------------------------------------




--------------------------------------- Iteration      1(  24)  ---------------------------------------


    POTLOK:  cpu time      1.5034: real time      1.5031
    SETDIJ:  cpu time      0.4676: real time      0.4675
    TRIAL :  cpu time    236.3120: real time    236.2674
    CORREC:  cpu time    238.2144: real time    238.1709
    CHARGE:  cpu time      0.2238: real time      0.2238
    --------------------------------------------
      LOOP:  cpu time    476.7214: real time    476.6390

 eigenvalue-minimisations  :     0
 total energy-change (2. order) :-0.3829703E-01  (-0.2431096E-01)
 number of electron    1053.9998419 magnetization 
 augmentation part      458.6024770 magnetization 

 Free energy of the ion-electron system (eV)
  ---------------------------------------------------
  alpha Z        PSCENC =      5489.43240179
  Ewald energy   TEWEN  =    -88351.16211237
  -Hartree energ DENC   =    -33760.76038999
  -exchange      EXHF   =      3881.27242523
  -V(xc)+E(xc)   XCENC  =      2914.52628502
  PAW double counting   =    121066.18207614  -136418.38182169
  entropy T*S    EENTRO =        -0.00000000
  eigenvalues    EBANDS =     -8743.16207612
  atomic energy  EATOM  =    132975.12501908
  ---------------------------------------------------
  free energy    TOTEN  =      -946.92819291 eV

  energy without entropy =     -946.92819291  energy(sigma->0) =     -946.92819291
  exchange ACFDT corr.  =        -0.00000000  see jH, gK, PRB 81, 115126


--------------------------------------------------------------------------------------------------------




--------------------------------------- Iteration      1(  25)  ---------------------------------------


    POTLOK:  cpu time      1.5095: real time      1.5098
    SETDIJ:  cpu time      0.4843: real time      0.4842
    TRIAL :  cpu time    236.3112: real time    236.2661
    CORREC:  cpu time    238.2494: real time    238.2055
    CHARGE:  cpu time      0.2163: real time      0.2162
    --------------------------------------------
      LOOP:  cpu time    476.7710: real time    476.6825

 eigenvalue-minimisations  :     0
 total energy-change (2. order) :-0.2432152E-01  (-0.1362541E-01)
 number of electron    1053.9998420 magnetization 
 augmentation part      458.6031987 magnetization 

 Free energy of the ion-electron system (eV)
  ---------------------------------------------------
  alpha Z        PSCENC =      5489.43240179
  Ewald energy   TEWEN  =    -88351.16211237
  -Hartree energ DENC   =    -33766.30976408
  -exchange      EXHF   =      3881.59336247
  -V(xc)+E(xc)   XCENC  =      2914.77901300
  PAW double counting   =    121061.46003641  -136413.90487793
  entropy T*S    EENTRO =        -0.00000000
  eigenvalues    EBANDS =     -8737.96559279
  atomic energy  EATOM  =    132975.12501908
  ---------------------------------------------------
  free energy    TOTEN  =      -946.95251443 eV

  energy without entropy =     -946.95251443  energy(sigma->0) =     -946.95251443
  exchange ACFDT corr.  =        -0.00000000  see jH, gK, PRB 81, 115126


--------------------------------------------------------------------------------------------------------




--------------------------------------- Iteration      1(  26)  ---------------------------------------


    POTLOK:  cpu time      1.5241: real time      1.5239
    SETDIJ:  cpu time      0.5228: real time      0.5227
    TRIAL :  cpu time    236.3894: real time    236.3447
    CORREC:  cpu time    238.0965: real time    238.0470
    CHARGE:  cpu time      0.2231: real time      0.2231
    --------------------------------------------
      LOOP:  cpu time    476.7579: real time    476.6636

 eigenvalue-minimisations  :     0
 total energy-change (2. order) :-0.1363567E-01  (-0.6200724E-02)
 number of electron    1053.9998420 magnetization 
 augmentation part      458.5848580 magnetization 

 Free energy of the ion-electron system (eV)
  ---------------------------------------------------
  alpha Z        PSCENC =      5489.43240179
  Ewald energy   TEWEN  =    -88351.16211237
  -Hartree energ DENC   =    -33765.75422446
  -exchange      EXHF   =      3881.50168943
  -V(xc)+E(xc)   XCENC  =      2914.75033357
  PAW double counting   =    121055.06323644  -136406.91309987
  entropy T*S    EENTRO =        -0.00000000
  eigenvalues    EBANDS =     -8739.00939372
  atomic energy  EATOM  =    132975.12501908
  ---------------------------------------------------
  free energy    TOTEN  =      -946.96615011 eV

  energy without entropy =     -946.96615011  energy(sigma->0) =     -946.96615011
  exchange ACFDT corr.  =        -0.00000000  see jH, gK, PRB 81, 115126


--------------------------------------------------------------------------------------------------------




--------------------------------------- Iteration      1(  27)  ---------------------------------------


    POTLOK:  cpu time      1.4819: real time      1.4815
    SETDIJ:  cpu time      0.4871: real time      0.4870
    TRIAL :  cpu time    236.1762: real time    236.1259
    CORREC:  cpu time    237.8155: real time    237.7685
    CHARGE:  cpu time      0.2193: real time      0.2193
    --------------------------------------------
      LOOP:  cpu time    476.1811: real time    476.0837

 eigenvalue-minimisations  :     0
 total energy-change (2. order) :-0.6202577E-02  (-0.4361026E-02)
 number of electron    1053.9998419 magnetization 
 augmentation part      458.5846148 magnetization 

 Free energy of the ion-electron system (eV)
  ---------------------------------------------------
  alpha Z        PSCENC =      5489.43240179
  Ewald energy   TEWEN  =    -88351.16211237
  -Hartree energ DENC   =    -33762.50907427
  -exchange      EXHF   =      3881.31500263
  -V(xc)+E(xc)   XCENC  =      2914.61876219
  PAW double counting   =    121052.11072100  -136403.16094689
  entropy T*S    EENTRO =        -0.00000000
  eigenvalues    EBANDS =     -8742.74212585
  atomic energy  EATOM  =    132975.12501908
  ---------------------------------------------------
  free energy    TOTEN  =      -946.97235268 eV

  energy without entropy =     -946.97235268  energy(sigma->0) =     -946.97235268
  exchange ACFDT corr.  =         0.00000000  see jH, gK, PRB 81, 115126


--------------------------------------------------------------------------------------------------------




--------------------------------------- Iteration      1(  28)  ---------------------------------------


    POTLOK:  cpu time      1.4973: real time      1.4970
    SETDIJ:  cpu time      0.4850: real time      0.4849
    TRIAL :  cpu time    236.1251: real time    236.0797
    CORREC:  cpu time    238.0791: real time    238.0343
    CHARGE:  cpu time      0.2241: real time      0.2241
    --------------------------------------------
      LOOP:  cpu time    476.4108: real time    476.3204

 eigenvalue-minimisations  :     0
 total energy-change (2. order) :-0.4360009E-02  (-0.2301171E-02)
 number of electron    1053.9998419 magnetization 
 augmentation part      458.5946520 magnetization 

 Free energy of the ion-electron system (eV)
  ---------------------------------------------------
  alpha Z        PSCENC =      5489.43240179
  Ewald energy   TEWEN  =    -88351.16211237
  -Hartree energ DENC   =    -33760.95077128
  -exchange      EXHF   =      3881.20184044
  -V(xc)+E(xc)   XCENC  =      2914.54488632
  PAW double counting   =    121052.68043506  -136403.89043289
  entropy T*S    EENTRO =        -0.00000000
  eigenvalues    EBANDS =     -8743.95797885
  atomic energy  EATOM  =    132975.12501908
  ---------------------------------------------------
  free energy    TOTEN  =      -946.97671269 eV

  energy without entropy =     -946.97671269  energy(sigma->0) =     -946.97671269
  exchange ACFDT corr.  =        -0.00000000  see jH, gK, PRB 81, 115126


--------------------------------------------------------------------------------------------------------




--------------------------------------- Iteration      1(  29)  ---------------------------------------


    POTLOK:  cpu time      1.4866: real time      1.4862
    SETDIJ:  cpu time      0.5279: real time      0.5278
    TRIAL :  cpu time    236.2166: real time    236.1850
    CORREC:  cpu time    238.3386: real time    238.2996
    CHARGE:  cpu time      0.2244: real time      0.2243
    --------------------------------------------
      LOOP:  cpu time    476.7944: real time    476.7337

 eigenvalue-minimisations  :     0
 total energy-change (2. order) :-0.2300194E-02  (-0.1254902E-02)
 number of electron    1053.9998419 magnetization 
 augmentation part      458.5952148 magnetization 

 Free energy of the ion-electron system (eV)
  ---------------------------------------------------
  alpha Z        PSCENC =      5489.43240179
  Ewald energy   TEWEN  =    -88351.16211237
  -Hartree energ DENC   =    -33761.78997372
  -exchange      EXHF   =      3881.23977542
  -V(xc)+E(xc)   XCENC  =      2914.57531237
  PAW double counting   =    121053.64411947  -136405.36884311
  entropy T*S    EENTRO =        -0.00000000
  eigenvalues    EBANDS =     -8742.67471181
  atomic energy  EATOM  =    132975.12501908
  ---------------------------------------------------
  free energy    TOTEN  =      -946.97901289 eV

  energy without entropy =     -946.97901289  energy(sigma->0) =     -946.97901289
  exchange ACFDT corr.  =        -0.00000000  see jH, gK, PRB 81, 115126


--------------------------------------------------------------------------------------------------------




--------------------------------------- Iteration      1(  30)  ---------------------------------------


    POTLOK:  cpu time      1.4908: real time      1.4905
    SETDIJ:  cpu time      0.5326: real time      0.5325
    TRIAL :  cpu time    236.1825: real time    236.1411
    CORREC:  cpu time    238.2297: real time    238.1872
    CHARGE:  cpu time      0.2170: real time      0.2169
    --------------------------------------------
      LOOP:  cpu time    476.6528: real time    476.5688

 eigenvalue-minimisations  :     0
 total energy-change (2. order) :-0.1255003E-02  (-0.9815996E-03)
 number of electron    1053.9998419 magnetization 
 augmentation part      458.5965867 magnetization 

 Free energy of the ion-electron system (eV)
  ---------------------------------------------------
  alpha Z        PSCENC =      5489.43240179
  Ewald energy   TEWEN  =    -88351.16211237
  -Hartree energ DENC   =    -33762.30114982
  -exchange      EXHF   =      3881.28710827
  -V(xc)+E(xc)   XCENC  =      2914.60286390
  PAW double counting   =    121053.26140153  -136404.97304302
  entropy T*S    EENTRO =        -0.00000000
  eigenvalues    EBANDS =     -8742.25275726
  atomic energy  EATOM  =    132975.12501908
  ---------------------------------------------------
  free energy    TOTEN  =      -946.98026789 eV

  energy without entropy =     -946.98026789  energy(sigma->0) =     -946.98026789
  exchange ACFDT corr.  =         0.00000000  see jH, gK, PRB 81, 115126


--------------------------------------------------------------------------------------------------------




--------------------------------------- Iteration      1(  31)  ---------------------------------------


    POTLOK:  cpu time      1.4991: real time      1.4988
    SETDIJ:  cpu time      0.4732: real time      0.4731
    TRIAL :  cpu time    236.2600: real time    236.2182
    CORREC:  cpu time    238.2322: real time    238.1879
    CHARGE:  cpu time      0.2165: real time      0.2165
    --------------------------------------------
      LOOP:  cpu time    476.6819: real time    476.5958

 eigenvalue-minimisations  :     0
 total energy-change (2. order) :-0.9821219E-03  (-0.5530034E-03)
 number of electron    1053.9998419 magnetization 
 augmentation part      458.5958987 magnetization 

 Free energy of the ion-electron system (eV)
  ---------------------------------------------------
  alpha Z        PSCENC =      5489.43240179
  Ewald energy   TEWEN  =    -88351.16211237
  -Hartree energ DENC   =    -33763.11313718
  -exchange      EXHF   =      3881.33255327
  -V(xc)+E(xc)   XCENC  =      2914.63709144
  PAW double counting   =    121052.70838185  -136404.30981244
  entropy T*S    EENTRO =        -0.00000000
  eigenvalues    EBANDS =     -8741.63163544
  atomic energy  EATOM  =    132975.12501908
  ---------------------------------------------------
  free energy    TOTEN  =      -946.98125001 eV

  energy without entropy =     -946.98125001  energy(sigma->0) =     -946.98125001
  exchange ACFDT corr.  =         0.00000000  see jH, gK, PRB 81, 115126


--------------------------------------------------------------------------------------------------------




--------------------------------------- Iteration      1(  32)  ---------------------------------------


    POTLOK:  cpu time      1.5289: real time      1.5285
    SETDIJ:  cpu time      0.4665: real time      0.4664
    TRIAL :  cpu time    236.1339: real time    236.0852
    CORREC:  cpu time    238.0457: real time    237.9974
    CHARGE:  cpu time      0.2255: real time      0.2254
    --------------------------------------------
      LOOP:  cpu time    476.4021: real time    476.3049

 eigenvalue-minimisations  :     0
 total energy-change (2. order) :-0.5533239E-03  (-0.4220675E-03)
 number of electron    1053.9998419 magnetization 
 augmentation part      458.5907286 magnetization 

 Free energy of the ion-electron system (eV)
  ---------------------------------------------------
  alpha Z        PSCENC =      5489.43240179
  Ewald energy   TEWEN  =    -88351.16211237
  -Hartree energ DENC   =    -33763.18404362
  -exchange      EXHF   =      3881.32024028
  -V(xc)+E(xc)   XCENC  =      2914.63432166
  PAW double counting   =    121052.57568325  -136404.12445130
  entropy T*S    EENTRO =        -0.00000000
  eigenvalues    EBANDS =     -8741.59886211
  atomic energy  EATOM  =    132975.12501908
  ---------------------------------------------------
  free energy    TOTEN  =      -946.98180334 eV

  energy without entropy =     -946.98180334  energy(sigma->0) =     -946.98180334
  exchange ACFDT corr.  =        -0.00000000  see jH, gK, PRB 81, 115126


--------------------------------------------------------------------------------------------------------




--------------------------------------- Iteration      1(  33)  ---------------------------------------


    POTLOK:  cpu time      1.4688: real time      1.4685
    SETDIJ:  cpu time      0.5201: real time      0.5200
    TRIAL :  cpu time    236.1600: real time    236.1123
    CORREC:  cpu time    238.2083: real time    238.1604
    CHARGE:  cpu time      0.2195: real time      0.2195
    --------------------------------------------
      LOOP:  cpu time    476.5770: real time    476.4813

 eigenvalue-minimisations  :     0
 total energy-change (2. order) :-0.4219914E-03  (-0.4105785E-03)
 number of electron    1053.9998419 magnetization 
 augmentation part      458.5894774 magnetization 

 Free energy of the ion-electron system (eV)
  ---------------------------------------------------
  alpha Z        PSCENC =      5489.43240179
  Ewald energy   TEWEN  =    -88351.16211237
  -Hartree energ DENC   =    -33762.47767644
  -exchange      EXHF   =      3881.27435390
  -V(xc)+E(xc)   XCENC  =      2914.60214283
  PAW double counting   =    121052.41909764  -136403.86420187
  entropy T*S    EENTRO =        -0.00000000
  eigenvalues    EBANDS =     -8742.33124987
  atomic energy  EATOM  =    132975.12501908
  ---------------------------------------------------
  free energy    TOTEN  =      -946.98222533 eV

  energy without entropy =     -946.98222533  energy(sigma->0) =     -946.98222533
  exchange ACFDT corr.  =        -0.00000000  see jH, gK, PRB 81, 115126


--------------------------------------------------------------------------------------------------------




--------------------------------------- Iteration      1(  34)  ---------------------------------------


    POTLOK:  cpu time      1.5192: real time      1.5189
    SETDIJ:  cpu time      0.5121: real time      0.5120
    TRIAL :  cpu time    236.0553: real time    236.0164
    CORREC:  cpu time    238.2429: real time    238.1929
    CHARGE:  cpu time      0.2219: real time      0.2218
    --------------------------------------------
      LOOP:  cpu time    476.5518: real time    476.4690

 eigenvalue-minimisations  :     0
 total energy-change (2. order) :-0.4113528E-03  (-0.3215267E-03)
 number of electron    1053.9998419 magnetization 
 augmentation part      458.5933915 magnetization 

 Free energy of the ion-electron system (eV)
  ---------------------------------------------------
  alpha Z        PSCENC =      5489.43240179
  Ewald energy   TEWEN  =    -88351.16211237
  -Hartree energ DENC   =    -33761.93924687
  -exchange      EXHF   =      3881.23781980
  -V(xc)+E(xc)   XCENC  =      2914.57655752
  PAW double counting   =    121052.81595620  -136404.36839227
  entropy T*S    EENTRO =        -0.00000000
  eigenvalues    EBANDS =     -8742.70063957
  atomic energy  EATOM  =    132975.12501908
  ---------------------------------------------------
  free energy    TOTEN  =      -946.98263668 eV

  energy without entropy =     -946.98263668  energy(sigma->0) =     -946.98263668
  exchange ACFDT corr.  =        -0.00000000  see jH, gK, PRB 81, 115126


--------------------------------------------------------------------------------------------------------




--------------------------------------- Iteration      1(  35)  ---------------------------------------


    POTLOK:  cpu time      1.5055: real time      1.5054
    SETDIJ:  cpu time      0.4801: real time      0.4800
    TRIAL :  cpu time    236.2142: real time    236.1661
    CORREC:  cpu time    238.0155: real time    237.9704
    CHARGE:  cpu time      0.2157: real time      0.2157
    --------------------------------------------
      LOOP:  cpu time    476.4331: real time    476.3400

 eigenvalue-minimisations  :     0
 total energy-change (2. order) :-0.3228549E-03  (-0.3672621E-03)
 number of electron    1053.9998419 magnetization 
 augmentation part      458.5951172 magnetization 

 Free energy of the ion-electron system (eV)
  ---------------------------------------------------
  alpha Z        PSCENC =      5489.43240179
  Ewald energy   TEWEN  =    -88351.16211237
  -Hartree energ DENC   =    -33762.19437514
  -exchange      EXHF   =      3881.25168086
  -V(xc)+E(xc)   XCENC  =      2914.58706140
  PAW double counting   =    121053.09045466  -136404.80675593
  entropy T*S    EENTRO =        -0.00000000
  eigenvalues    EBANDS =     -8742.30633387
  atomic energy  EATOM  =    132975.12501908
  ---------------------------------------------------
  free energy    TOTEN  =      -946.98295953 eV

  energy without entropy =     -946.98295953  energy(sigma->0) =     -946.98295953
  exchange ACFDT corr.  =        -0.00000000  see jH, gK, PRB 81, 115126


--------------------------------------------------------------------------------------------------------




--------------------------------------- Iteration      1(  36)  ---------------------------------------


    POTLOK:  cpu time      1.5147: real time      1.5144
    SETDIJ:  cpu time      0.4657: real time      0.4656
    TRIAL :  cpu time    236.2272: real time    236.1834
    CORREC:  cpu time    238.1201: real time    238.0735
    CHARGE:  cpu time      0.2241: real time      0.2240
    --------------------------------------------
      LOOP:  cpu time    476.5537: real time    476.4632

 eigenvalue-minimisations  :     0
 total energy-change (2. order) :-0.3683190E-03  (-0.3960093E-03)
 number of electron    1053.9998419 magnetization 
 augmentation part      458.5960503 magnetization 

 Free energy of the ion-electron system (eV)
  ---------------------------------------------------
  alpha Z        PSCENC =      5489.43240179
  Ewald energy   TEWEN  =    -88351.16211237
  -Hartree energ DENC   =    -33762.51804852
  -exchange      EXHF   =      3881.29112554
  -V(xc)+E(xc)   XCENC  =      2914.60920472
  PAW double counting   =    121052.53677018  -136404.18658379
  entropy T*S    EENTRO =        -0.00000000
  eigenvalues    EBANDS =     -8742.11110449
  atomic energy  EATOM  =    132975.12501908
  ---------------------------------------------------
  free energy    TOTEN  =      -946.98332785 eV

  energy without entropy =     -946.98332785  energy(sigma->0) =     -946.98332785
  exchange ACFDT corr.  =        -0.00000000  see jH, gK, PRB 81, 115126


--------------------------------------------------------------------------------------------------------




--------------------------------------- Iteration      1(  37)  ---------------------------------------


    POTLOK:  cpu time      1.4912: real time      1.4910
    SETDIJ:  cpu time      0.5602: real time      0.5601
    TRIAL :  cpu time    236.2510: real time    236.2091
    CORREC:  cpu time    238.1405: real time    238.0985
    CHARGE:  cpu time      0.2178: real time      0.2177
    --------------------------------------------
      LOOP:  cpu time    476.6620: real time    476.5781

 eigenvalue-minimisations  :     0
 total energy-change (2. order) :-0.3972977E-03  (-0.3338231E-03)
 number of electron    1053.9998419 magnetization 
 augmentation part      458.5963853 magnetization 

 Free energy of the ion-electron system (eV)
  ---------------------------------------------------
  alpha Z        PSCENC =      5489.43240179
  Ewald energy   TEWEN  =    -88351.16211237
  -Hartree energ DENC   =    -33762.89298980
  -exchange      EXHF   =      3881.32972131
  -V(xc)+E(xc)   XCENC  =      2914.63206647
  PAW double counting   =    121051.85683016  -136403.36979386
  entropy T*S    EENTRO =        -0.00000000
  eigenvalues    EBANDS =     -8741.93486793
  atomic energy  EATOM  =    132975.12501908
  ---------------------------------------------------
  free energy    TOTEN  =      -946.98372515 eV

  energy without entropy =     -946.98372515  energy(sigma->0) =     -946.98372515
  exchange ACFDT corr.  =        -0.00000000  see jH, gK, PRB 81, 115126


--------------------------------------------------------------------------------------------------------




--------------------------------------- Iteration      1(  38)  ---------------------------------------


    POTLOK:  cpu time      1.4869: real time      1.4866
    SETDIJ:  cpu time      0.4992: real time      0.4991
    TRIAL :  cpu time    236.0560: real time    236.0107
    CORREC:  cpu time    238.1782: real time    238.1348
    CHARGE:  cpu time      0.2223: real time      0.2223
    --------------------------------------------
      LOOP:  cpu time    476.4440: real time    476.3552

 eigenvalue-minimisations  :     0
 total energy-change (2. order) :-0.3331968E-03  (-0.1761408E-03)
 number of electron    1053.9998419 magnetization 
 augmentation part      458.5923323 magnetization 

 Free energy of the ion-electron system (eV)
  ---------------------------------------------------
  alpha Z        PSCENC =      5489.43240179
  Ewald energy   TEWEN  =    -88351.16211237
  -Hartree energ DENC   =    -33762.74578867
  -exchange      EXHF   =      3881.29832629
  -V(xc)+E(xc)   XCENC  =      2914.61589306
  PAW double counting   =    121052.66354168  -136404.35105821
  entropy T*S    EENTRO =        -0.00000000
  eigenvalues    EBANDS =     -8741.86028099
  atomic energy  EATOM  =    132975.12501908
  ---------------------------------------------------
  free energy    TOTEN  =      -946.98405835 eV

  energy without entropy =     -946.98405835  energy(sigma->0) =     -946.98405835
  exchange ACFDT corr.  =        -0.00000000  see jH, gK, PRB 81, 115126


--------------------------------------------------------------------------------------------------------




--------------------------------------- Iteration      1(  39)  ---------------------------------------


    POTLOK:  cpu time      1.5233: real time      1.5234
    SETDIJ:  cpu time      0.4845: real time      0.4844
    TRIAL :  cpu time    236.2864: real time    236.2449
    CORREC:  cpu time    238.4438: real time    238.4045
    CHARGE:  cpu time      0.2094: real time      0.2094
    --------------------------------------------
      LOOP:  cpu time    476.9498: real time    476.8694

 eigenvalue-minimisations  :     0
 total energy-change (2. order) :-0.1764922E-03  (-0.1435297E-03)
 number of electron    1053.9998419 magnetization 
 augmentation part      458.5927115 magnetization 

 Free energy of the ion-electron system (eV)
  ---------------------------------------------------
  alpha Z        PSCENC =      5489.43240179
  Ewald energy   TEWEN  =    -88351.16211237
  -Hartree energ DENC   =    -33762.30343783
  -exchange      EXHF   =      3881.27136472
  -V(xc)+E(xc)   XCENC  =      2914.59566827
  PAW double counting   =    121052.80716484  -136404.41850790
  entropy T*S    EENTRO =        -0.00000000
  eigenvalues    EBANDS =     -8742.33179544
  atomic energy  EATOM  =    132975.12501908
  ---------------------------------------------------
  free energy    TOTEN  =      -946.98423484 eV

  energy without entropy =     -946.98423484  energy(sigma->0) =     -946.98423484
  exchange ACFDT corr.  =        -0.00000000  see jH, gK, PRB 81, 115126


--------------------------------------------------------------------------------------------------------




--------------------------------------- Iteration      1(  40)  ---------------------------------------


    POTLOK:  cpu time      1.4801: real time      1.4799
    SETDIJ:  cpu time      0.5219: real time      0.5218
    TRIAL :  cpu time    236.2705: real time    236.2251
    CORREC:  cpu time    238.2890: real time    238.2418
    CHARGE:  cpu time      0.2261: real time      0.2261
    --------------------------------------------
      LOOP:  cpu time    476.7919: real time    476.6990

 eigenvalue-minimisations  :     0
 total energy-change (2. order) :-0.1420505E-03  (-0.9633310E-04)
 number of electron    1053.9998419 magnetization 
 augmentation part      458.5939197 magnetization 

 Free energy of the ion-electron system (eV)
  ---------------------------------------------------
  alpha Z        PSCENC =      5489.43240179
  Ewald energy   TEWEN  =    -88351.16211237
  -Hartree energ DENC   =    -33762.53038614
  -exchange      EXHF   =      3881.28407603
  -V(xc)+E(xc)   XCENC  =      2914.60551865
  PAW double counting   =    121052.75494845  -136404.30913765
  entropy T*S    EENTRO =        -0.00000000
  eigenvalues    EBANDS =     -8742.18470473
  atomic energy  EATOM  =    132975.12501908
  ---------------------------------------------------
  free energy    TOTEN  =      -946.98437689 eV

  energy without entropy =     -946.98437689  energy(sigma->0) =     -946.98437689
  exchange ACFDT corr.  =         0.00000000  see jH, gK, PRB 81, 115126


--------------------------------------------------------------------------------------------------------




--------------------------------------- Iteration      1(  41)  ---------------------------------------


    POTLOK:  cpu time      1.5040: real time      1.5042
    SETDIJ:  cpu time      0.5486: real time      0.5485
    TRIAL :  cpu time    236.2469: real time    236.2138
    CORREC:  cpu time    238.2784: real time    238.2370
    CHARGE:  cpu time      0.2142: real time      0.2142
    --------------------------------------------
      LOOP:  cpu time    476.7924: real time    476.7182

 eigenvalue-minimisations  :     0
 total energy-change (2. order) :-0.9546424E-04  (-0.1139029E-03)
 number of electron    1053.9998419 magnetization 
 augmentation part      458.5947081 magnetization 

 Free energy of the ion-electron system (eV)
  ---------------------------------------------------
  alpha Z        PSCENC =      5489.43240179
  Ewald energy   TEWEN  =    -88351.16211237
  -Hartree energ DENC   =    -33762.76495809
  -exchange      EXHF   =      3881.30125838
  -V(xc)+E(xc)   XCENC  =      2914.61714397
  PAW double counting   =    121052.62943019  -136404.20752072
  entropy T*S    EENTRO =        -0.00000000
  eigenvalues    EBANDS =     -8741.95513459
  atomic energy  EATOM  =    132975.12501908
  ---------------------------------------------------
  free energy    TOTEN  =      -946.98447236 eV

  energy without entropy =     -946.98447236  energy(sigma->0) =     -946.98447236
  exchange ACFDT corr.  =        -0.00000000  see jH, gK, PRB 81, 115126


--------------------------------------------------------------------------------------------------------




--------------------------------------- Iteration      1(  42)  ---------------------------------------


    POTLOK:  cpu time      1.4903: real time      1.4901
    SETDIJ:  cpu time      0.4774: real time      0.4773
    TRIAL :  cpu time    236.2146: real time    236.1807
    CORREC:  cpu time    238.0211: real time    237.9768
    CHARGE:  cpu time      0.2254: real time      0.2254
    --------------------------------------------
      LOOP:  cpu time    476.4312: real time    476.3530

 eigenvalue-minimisations  :     0
 total energy-change (2. order) :-0.1123422E-03  (-0.1388571E-03)
 number of electron    1053.9998419 magnetization 
 augmentation part      458.5926467 magnetization 

 Free energy of the ion-electron system (eV)
  ---------------------------------------------------
  alpha Z        PSCENC =      5489.43240179
  Ewald energy   TEWEN  =    -88351.16211237
  -Hartree energ DENC   =    -33762.76276308
  -exchange      EXHF   =      3881.30197592
  -V(xc)+E(xc)   XCENC  =      2914.61745838
  PAW double counting   =    121052.69048932  -136404.32000929
  entropy T*S    EENTRO =        -0.00000000
  eigenvalues    EBANDS =     -8741.90704444
  atomic energy  EATOM  =    132975.12501908
  ---------------------------------------------------
  free energy    TOTEN  =      -946.98458470 eV

  energy without entropy =     -946.98458470  energy(sigma->0) =     -946.98458470
  exchange ACFDT corr.  =        -0.00000000  see jH, gK, PRB 81, 115126


--------------------------------------------------------------------------------------------------------




--------------------------------------- Iteration      1(  43)  ---------------------------------------


    POTLOK:  cpu time      1.4704: real time      1.4701
    SETDIJ:  cpu time      0.5248: real time      0.5246
    TRIAL :  cpu time    236.1470: real time    236.1070
    CORREC:  cpu time    238.0825: real time    238.0446
    CHARGE:  cpu time      0.2249: real time      0.2249
    --------------------------------------------
      LOOP:  cpu time    476.4498: real time    476.3718

 eigenvalue-minimisations  :     0
 total energy-change (2. order) :-0.1378272E-03  (-0.1728896E-03)
 number of electron    1053.9998419 magnetization 
 augmentation part      458.5927591 magnetization 

 Free energy of the ion-electron system (eV)
  ---------------------------------------------------
  alpha Z        PSCENC =      5489.43240179
  Ewald energy   TEWEN  =    -88351.16211237
  -Hartree energ DENC   =    -33762.40807857
  -exchange      EXHF   =      3881.28295550
  -V(xc)+E(xc)   XCENC  =      2914.60316524
  PAW double counting   =    121052.53335813  -136404.09767262
  entropy T*S    EENTRO =        -0.00000000
  eigenvalues    EBANDS =     -8742.29375871
  atomic energy  EATOM  =    132975.12501908
  ---------------------------------------------------
  free energy    TOTEN  =      -946.98472252 eV

  energy without entropy =     -946.98472252  energy(sigma->0) =     -946.98472252
  exchange ACFDT corr.  =         0.00000000  see jH, gK, PRB 81, 115126


--------------------------------------------------------------------------------------------------------




--------------------------------------- Iteration      1(  44)  ---------------------------------------


    POTLOK:  cpu time      1.5181: real time      1.5179
    SETDIJ:  cpu time      0.4673: real time      0.4672
    TRIAL :  cpu time    236.2437: real time    236.2067
    CORREC:  cpu time    238.0445: real time    238.0090
    CHARGE:  cpu time      0.2209: real time      0.2209
    --------------------------------------------
      LOOP:  cpu time    476.4958: real time    476.4234

 eigenvalue-minimisations  :     0
 total energy-change (2. order) :-0.1741990E-03  (-0.1665366E-03)
 number of electron    1053.9998419 magnetization 
 augmentation part      458.5921052 magnetization 

 Free energy of the ion-electron system (eV)
  ---------------------------------------------------
  alpha Z        PSCENC =      5489.43240179
  Ewald energy   TEWEN  =    -88351.16211237
  -Hartree energ DENC   =    -33762.38407402
  -exchange      EXHF   =      3881.27553585
  -V(xc)+E(xc)   XCENC  =      2914.60024987
  PAW double counting   =    121052.38291498  -136403.94348243
  entropy T*S    EENTRO =        -0.00000000
  eigenvalues    EBANDS =     -8742.31134947
  atomic energy  EATOM  =    132975.12501908
  ---------------------------------------------------
  free energy    TOTEN  =      -946.98489672 eV

  energy without entropy =     -946.98489672  energy(sigma->0) =     -946.98489672
  exchange ACFDT corr.  =        -0.00000000  see jH, gK, PRB 81, 115126


--------------------------------------------------------------------------------------------------------




--------------------------------------- Iteration      1(  45)  ---------------------------------------


    POTLOK:  cpu time      1.4951: real time      1.4949
    SETDIJ:  cpu time      0.4996: real time      0.4995
    TRIAL :  cpu time    236.2599: real time    236.2123
    CORREC:  cpu time    238.2451: real time    238.1951
    CHARGE:  cpu time      0.2273: real time      0.2272
    --------------------------------------------
      LOOP:  cpu time    476.7273: real time    476.6360

 eigenvalue-minimisations  :     0
 total energy-change (2. order) :-0.1663815E-03  (-0.1284326E-03)
 number of electron    1053.9998419 magnetization 
 augmentation part      458.5946792 magnetization 

 Free energy of the ion-electron system (eV)
  ---------------------------------------------------
  alpha Z        PSCENC =      5489.43240179
  Ewald energy   TEWEN  =    -88351.16211237
  -Hartree energ DENC   =    -33762.44144386
  -exchange      EXHF   =      3881.28451179
  -V(xc)+E(xc)   XCENC  =      2914.60464718
  PAW double counting   =    121052.10177851  -136403.61497292
  entropy T*S    EENTRO =        -0.00000000
  eigenvalues    EBANDS =     -8742.31489231
  atomic energy  EATOM  =    132975.12501908
  ---------------------------------------------------
  free energy    TOTEN  =      -946.98506311 eV

  energy without entropy =     -946.98506311  energy(sigma->0) =     -946.98506311
  exchange ACFDT corr.  =         0.00000000  see jH, gK, PRB 81, 115126


--------------------------------------------------------------------------------------------------------




--------------------------------------- Iteration      1(  46)  ---------------------------------------


    POTLOK:  cpu time      1.5356: real time      1.5357
    SETDIJ:  cpu time      0.5006: real time      0.5004
    TRIAL :  cpu time    236.0878: real time    236.0476
    CORREC:  cpu time    238.2757: real time    238.2262
    CHARGE:  cpu time      0.2280: real time      0.2280
    --------------------------------------------
      LOOP:  cpu time    476.6279: real time    476.5383

 eigenvalue-minimisations  :     0
 total energy-change (2. order) :-0.1287122E-03  (-0.1019346E-03)
 number of electron    1053.9998419 magnetization 
 augmentation part      458.5940051 magnetization 

 Free energy of the ion-electron system (eV)
  ---------------------------------------------------
  alpha Z        PSCENC =      5489.43240179
  Ewald energy   TEWEN  =    -88351.16211237
  -Hartree energ DENC   =    -33762.78441738
  -exchange      EXHF   =      3881.30443513
  -V(xc)+E(xc)   XCENC  =      2914.61867453
  PAW double counting   =    121052.39316435  -136403.98607847
  entropy T*S    EENTRO =        -0.00000000
  eigenvalues    EBANDS =     -8741.92627847
  atomic energy  EATOM  =    132975.12501908
  ---------------------------------------------------
  free energy    TOTEN  =      -946.98519182 eV

  energy without entropy =     -946.98519182  energy(sigma->0) =     -946.98519182
  exchange ACFDT corr.  =        -0.00000000  see jH, gK, PRB 81, 115126


--------------------------------------------------------------------------------------------------------




--------------------------------------- Iteration      1(  47)  ---------------------------------------


    POTLOK:  cpu time      1.4980: real time      1.4977
    SETDIJ:  cpu time      0.4820: real time      0.4819
    TRIAL :  cpu time    235.8722: real time    235.8236
    CORREC:  cpu time    238.2067: real time    238.1661
    CHARGE:  cpu time      0.2208: real time      0.2208
    --------------------------------------------
      LOOP:  cpu time    476.2809: real time    476.1916

 eigenvalue-minimisations  :     0
 total energy-change (2. order) :-0.1018523E-03  (-0.8880596E-04)
 number of electron    1053.9998419 magnetization 
 augmentation part      458.5939573 magnetization 

 Free energy of the ion-electron system (eV)
  ---------------------------------------------------
  alpha Z        PSCENC =      5489.43240179
  Ewald energy   TEWEN  =    -88351.16211237
  -Hartree energ DENC   =    -33762.71098891
  -exchange      EXHF   =      3881.30690183
  -V(xc)+E(xc)   XCENC  =      2914.61732809
  PAW double counting   =    121052.64867715  -136404.21000829
  entropy T*S    EENTRO =        -0.00000000
  eigenvalues    EBANDS =     -8742.03251204
  atomic energy  EATOM  =    132975.12501908
  ---------------------------------------------------
  free energy    TOTEN  =      -946.98529367 eV

  energy without entropy =     -946.98529367  energy(sigma->0) =     -946.98529367
  exchange ACFDT corr.  =        -0.00000000  see jH, gK, PRB 81, 115126


--------------------------------------------------------------------------------------------------------




--------------------------------------- Iteration      1(  48)  ---------------------------------------


    POTLOK:  cpu time      1.5118: real time      1.5115
    SETDIJ:  cpu time      0.4667: real time      0.4666
    TRIAL :  cpu time    236.3534: real time    236.3053
    CORREC:  cpu time    238.2039: real time    238.1553
    CHARGE:  cpu time      0.2245: real time      0.2245
    --------------------------------------------
      LOOP:  cpu time    476.7610: real time    476.6644

 eigenvalue-minimisations  :     0
 total energy-change (2. order) :-0.8912283E-04  (-0.1336762E-03)
 number of electron    1053.9998419 magnetization 
 augmentation part      458.5934561 magnetization 

 Free energy of the ion-electron system (eV)
  ---------------------------------------------------
  alpha Z        PSCENC =      5489.43240179
  Ewald energy   TEWEN  =    -88351.16211237
  -Hartree energ DENC   =    -33762.63884778
  -exchange      EXHF   =      3881.29912378
  -V(xc)+E(xc)   XCENC  =      2914.61247445
  PAW double counting   =    121052.96798053  -136404.56015817
  entropy T*S    EENTRO =        -0.00000000
  eigenvalues    EBANDS =     -8742.06126409
  atomic energy  EATOM  =    132975.12501908
  ---------------------------------------------------
  free energy    TOTEN  =      -946.98538279 eV

  energy without entropy =     -946.98538279  energy(sigma->0) =     -946.98538279
  exchange ACFDT corr.  =         0.00000000  see jH, gK, PRB 81, 115126


--------------------------------------------------------------------------------------------------------




--------------------------------------- Iteration      1(  49)  ---------------------------------------


    POTLOK:  cpu time      1.4476: real time      1.4473
    SETDIJ:  cpu time      0.5934: real time      0.5933
    TRIAL :  cpu time    236.2263: real time    236.1822
    CORREC:  cpu time    238.1258: real time    238.0798
    CHARGE:  cpu time      0.2210: real time      0.2209
    --------------------------------------------
      LOOP:  cpu time    476.6142: real time    476.5240

 eigenvalue-minimisations  :     0
 total energy-change (2. order) :-0.1354164E-03  (-0.4709650E-03)
 number of electron    1053.9998418 magnetization 
 augmentation part      458.5925997 magnetization 

 Free energy of the ion-electron system (eV)
  ---------------------------------------------------
  alpha Z        PSCENC =      5489.43240179
  Ewald energy   TEWEN  =    -88351.16211237
  -Hartree energ DENC   =    -33762.53118928
  -exchange      EXHF   =      3881.28582769
  -V(xc)+E(xc)   XCENC  =      2914.60506559
  PAW double counting   =    121053.09656847  -136404.71213011
  entropy T*S    EENTRO =        -0.00000000
  eigenvalues    EBANDS =     -8742.12496907
  atomic energy  EATOM  =    132975.12501908
  ---------------------------------------------------
  free energy    TOTEN  =      -946.98551821 eV

  energy without entropy =     -946.98551821  energy(sigma->0) =     -946.98551821
  exchange ACFDT corr.  =        -0.00000000  see jH, gK, PRB 81, 115126


--------------------------------------------------------------------------------------------------------




--------------------------------------- Iteration      1(  50)  ---------------------------------------


    POTLOK:  cpu time      1.4925: real time      1.4923
    SETDIJ:  cpu time      0.5227: real time      0.5226
    TRIAL :  cpu time    236.1692: real time    236.1228
    CORREC:  cpu time    238.1970: real time    238.1568
    CHARGE:  cpu time      0.2213: real time      0.2213
    --------------------------------------------
      LOOP:  cpu time    476.6031: real time    476.5234

 eigenvalue-minimisations  :     0
 total energy-change (2. order) :-0.4444912E-03  (-0.7036817E-03)
 number of electron    1053.9998418 magnetization 
 augmentation part      458.5932653 magnetization 

 Free energy of the ion-electron system (eV)
  ---------------------------------------------------
  alpha Z        PSCENC =      5489.43240179
  Ewald energy   TEWEN  =    -88351.16211237
  -Hartree energ DENC   =    -33762.43100308
  -exchange      EXHF   =      3881.28253802
  -V(xc)+E(xc)   XCENC  =      2914.60148283
  PAW double counting   =    121052.69953989  -136404.21183283
  entropy T*S    EENTRO =        -0.00000000
  eigenvalues    EBANDS =     -8742.32199602
  atomic energy  EATOM  =    132975.12501908
  ---------------------------------------------------
  free energy    TOTEN  =      -946.98596270 eV

  energy without entropy =     -946.98596270  energy(sigma->0) =     -946.98596270
  exchange ACFDT corr.  =         0.00000000  see jH, gK, PRB 81, 115126


--------------------------------------------------------------------------------------------------------




--------------------------------------- Iteration      1(  51)  ---------------------------------------


    POTLOK:  cpu time      1.4986: real time      1.4983
    SETDIJ:  cpu time      0.4950: real time      0.4949
    TRIAL :  cpu time    236.3366: real time    236.2894
    CORREC:  cpu time    238.1192: real time    238.0915
    CHARGE:  cpu time      0.2243: real time      0.2243
    --------------------------------------------
      LOOP:  cpu time    476.6740: real time    476.5989

 eigenvalue-minimisations  :     0
 total energy-change (2. order) :-0.7941924E-03  (-0.1173211E-03)
 number of electron    1053.9998418 magnetization 
 augmentation part      458.5947193 magnetization 

 Free energy of the ion-electron system (eV)
  ---------------------------------------------------
  alpha Z        PSCENC =      5489.43240179
  Ewald energy   TEWEN  =    -88351.16211237
  -Hartree energ DENC   =    -33762.37641938
  -exchange      EXHF   =      3881.30414131
  -V(xc)+E(xc)   XCENC  =      2914.60687108
  PAW double counting   =    121051.71423803  -136403.09246713
  entropy T*S    EENTRO =        -0.00000000
  eigenvalues    EBANDS =     -8742.53842930
  atomic energy  EATOM  =    132975.12501908
  ---------------------------------------------------
  free energy    TOTEN  =      -946.98675689 eV

  energy without entropy =     -946.98675689  energy(sigma->0) =     -946.98675689
  exchange ACFDT corr.  =        -0.00000000  see jH, gK, PRB 81, 115126


--------------------------------------------------------------------------------------------------------




--------------------------------------- Iteration      1(  52)  ---------------------------------------


    POTLOK:  cpu time      1.5115: real time      1.5112
    SETDIJ:  cpu time      0.4672: real time      0.4671
    TRIAL :  cpu time    236.3651: real time    236.3178
    CORREC:  cpu time    237.7599: real time    237.7122
    CHARGE:  cpu time      0.2234: real time      0.2233
    --------------------------------------------
      LOOP:  cpu time    476.3274: real time    476.2322

 eigenvalue-minimisations  :     0
 total energy-change (2. order) : 0.1769782E-01  (-0.1287524E-01)
 number of electron    1053.9998418 magnetization 
 augmentation part      458.6056049 magnetization 

 Free energy of the ion-electron system (eV)
  ---------------------------------------------------
  alpha Z        PSCENC =      5489.43240179
  Ewald energy   TEWEN  =    -88351.16211237
  -Hartree energ DENC   =    -33762.52130345
  -exchange      EXHF   =      3881.32682544
  -V(xc)+E(xc)   XCENC  =      2914.61782973
  PAW double counting   =    121051.30420114  -136402.64145956
  entropy T*S    EENTRO =        -0.00000000
  eigenvalues    EBANDS =     -8742.45046087
  atomic energy  EATOM  =    132975.12501908
  ---------------------------------------------------
  free energy    TOTEN  =      -946.96905907 eV

  energy without entropy =     -946.96905907  energy(sigma->0) =     -946.96905907
  exchange ACFDT corr.  =        -0.00000000  see jH, gK, PRB 81, 115126


--------------------------------------------------------------------------------------------------------




--------------------------------------- Iteration      1(  53)  ---------------------------------------


    POTLOK:  cpu time      1.5279: real time      1.5278
    SETDIJ:  cpu time      0.4657: real time      0.4656
    TRIAL :  cpu time    236.1773: real time    236.1328
    CORREC:  cpu time    238.0138: real time    237.9653
    CHARGE:  cpu time      0.2242: real time      0.2242
    --------------------------------------------
      LOOP:  cpu time    476.4109: real time    476.3184

 eigenvalue-minimisations  :     0
 total energy-change (2. order) :-0.1318966E-01  (-0.7734436E-02)
 number of electron    1053.9998418 magnetization 
 augmentation part      458.5895710 magnetization 

 Free energy of the ion-electron system (eV)
  ---------------------------------------------------
  alpha Z        PSCENC =      5489.43240179
  Ewald energy   TEWEN  =    -88351.16211237
  -Hartree energ DENC   =    -33763.33458692
  -exchange      EXHF   =      3881.32269738
  -V(xc)+E(xc)   XCENC  =      2914.63143660
  PAW double counting   =    121054.02218441  -136405.99400727
  entropy T*S    EENTRO =        -0.00000000
  eigenvalues    EBANDS =     -8741.02528142
  atomic energy  EATOM  =    132975.12501908
  ---------------------------------------------------
  free energy    TOTEN  =      -946.98224872 eV

  energy without entropy =     -946.98224872  energy(sigma->0) =     -946.98224872
  exchange ACFDT corr.  =        -0.00000000  see jH, gK, PRB 81, 115126


--------------------------------------------------------------------------------------------------------




--------------------------------------- Iteration      1(  54)  ---------------------------------------


    POTLOK:  cpu time      1.5252: real time      1.5249
    SETDIJ:  cpu time      0.5009: real time      0.5007
    TRIAL :  cpu time    236.1579: real time    236.1092
    CORREC:  cpu time    238.0300: real time    237.9816
    CHARGE:  cpu time      0.2153: real time      0.2153
    --------------------------------------------
      LOOP:  cpu time    476.4307: real time    476.3336

 eigenvalue-minimisations  :     0
 total energy-change (2. order) :-0.7589517E-02  (-0.3699703E-02)
 number of electron    1053.9998418 magnetization 
 augmentation part      458.5994431 magnetization 

 Free energy of the ion-electron system (eV)
  ---------------------------------------------------
  alpha Z        PSCENC =      5489.43240179
  Ewald energy   TEWEN  =    -88351.16211237
  -Hartree energ DENC   =    -33761.89005586
  -exchange      EXHF   =      3881.28173893
  -V(xc)+E(xc)   XCENC  =      2914.58645261
  PAW double counting   =    121052.69358992  -136404.14083151
  entropy T*S    EENTRO =        -0.00000000
  eigenvalues    EBANDS =     -8742.91604082
  atomic energy  EATOM  =    132975.12501908
  ---------------------------------------------------
  free energy    TOTEN  =      -946.98983824 eV

  energy without entropy =     -946.98983824  energy(sigma->0) =     -946.98983824
  exchange ACFDT corr.  =         0.00000000  see jH, gK, PRB 81, 115126


--------------------------------------------------------------------------------------------------------




--------------------------------------- Iteration      1(  55)  ---------------------------------------


    POTLOK:  cpu time      1.4744: real time      1.4741
    SETDIJ:  cpu time      0.5071: real time      0.5070
    TRIAL :  cpu time    236.0643: real time    236.0200
    CORREC:  cpu time    238.1817: real time    238.1345
    CHARGE:  cpu time      0.2173: real time      0.2172
    --------------------------------------------
      LOOP:  cpu time    476.4451: real time    476.3601

 eigenvalue-minimisations  :     0
 total energy-change (2. order) :-0.3698864E-02  (-0.2020964E-02)
 number of electron    1053.9998418 magnetization 
 augmentation part      458.5916795 magnetization 

 Free energy of the ion-electron system (eV)
  ---------------------------------------------------
  alpha Z        PSCENC =      5489.43240179
  Ewald energy   TEWEN  =    -88351.16211237
  -Hartree energ DENC   =    -33763.05542939
  -exchange      EXHF   =      3881.31879940
  -V(xc)+E(xc)   XCENC  =      2914.62719759
  PAW double counting   =    121052.89387220  -136404.64601235
  entropy T*S    EENTRO =        -0.00000000
  eigenvalues    EBANDS =     -8741.52727305
  atomic energy  EATOM  =    132975.12501908
  ---------------------------------------------------
  free energy    TOTEN  =      -946.99353710 eV

  energy without entropy =     -946.99353710  energy(sigma->0) =     -946.99353710
  exchange ACFDT corr.  =        -0.00000000  see jH, gK, PRB 81, 115126


--------------------------------------------------------------------------------------------------------




--------------------------------------- Iteration      1(  56)  ---------------------------------------


    POTLOK:  cpu time      1.5560: real time      1.5557
    SETDIJ:  cpu time      0.4679: real time      0.4678
    TRIAL :  cpu time    236.3701: real time    236.3269
    CORREC:  cpu time    238.1523: real time    238.1070
    CHARGE:  cpu time      0.2210: real time      0.2209
    --------------------------------------------
      LOOP:  cpu time    476.7675: real time    476.6789

 eigenvalue-minimisations  :     0
 total energy-change (2. order) :-0.2020307E-02  (-0.3066885E-02)
 number of electron    1053.9998418 magnetization 
 augmentation part      458.6006925 magnetization 

 Free energy of the ion-electron system (eV)
  ---------------------------------------------------
  alpha Z        PSCENC =      5489.43240179
  Ewald energy   TEWEN  =    -88351.16211237
  -Hartree energ DENC   =    -33762.37921787
  -exchange      EXHF   =      3881.31315308
  -V(xc)+E(xc)   XCENC  =      2914.61128063
  PAW double counting   =    121051.74612908  -136403.08925693
  entropy T*S    EENTRO =        -0.00000000
  eigenvalues    EBANDS =     -8742.59295389
  atomic energy  EATOM  =    132975.12501908
  ---------------------------------------------------
  free energy    TOTEN  =      -946.99555741 eV

  energy without entropy =     -946.99555741  energy(sigma->0) =     -946.99555741
  exchange ACFDT corr.  =         0.00000000  see jH, gK, PRB 81, 115126


--------------------------------------------------------------------------------------------------------




--------------------------------------- Iteration      1(  57)  ---------------------------------------


    POTLOK:  cpu time      1.5025: real time      1.5022
    SETDIJ:  cpu time      0.5301: real time      0.5300
    TRIAL :  cpu time    236.0668: real time    236.0202
    CORREC:  cpu time    238.0900: real time    238.0448
    CHARGE:  cpu time      0.2240: real time      0.2239
    --------------------------------------------
      LOOP:  cpu time    476.4142: real time    476.3226

 eigenvalue-minimisations  :     0
 total energy-change (2. order) :-0.3088802E-02  (-0.5745231E-02)
 number of electron    1053.9998418 magnetization 
 augmentation part      458.5864630 magnetization 

 Free energy of the ion-electron system (eV)
  ---------------------------------------------------
  alpha Z        PSCENC =      5489.43240179
  Ewald energy   TEWEN  =    -88351.16211237
  -Hartree energ DENC   =    -33763.14126096
  -exchange      EXHF   =      3881.33128966
  -V(xc)+E(xc)   XCENC  =      2914.63317138
  PAW double counting   =    121052.40535728  -136404.05370553
  entropy T*S    EENTRO =        -0.00000000
  eigenvalues    EBANDS =     -8741.56880655
  atomic energy  EATOM  =    132975.12501908
  ---------------------------------------------------
  free energy    TOTEN  =      -946.99864621 eV

  energy without entropy =     -946.99864621  energy(sigma->0) =     -946.99864621
  exchange ACFDT corr.  =         0.00000000  see jH, gK, PRB 81, 115126


--------------------------------------------------------------------------------------------------------




--------------------------------------- Iteration      1(  58)  ---------------------------------------


    POTLOK:  cpu time      1.5549: real time      1.5547
    SETDIJ:  cpu time      0.4671: real time      0.4669
    TRIAL :  cpu time    236.2709: real time    236.2274
    CORREC:  cpu time    237.9251: real time    237.8824
    CHARGE:  cpu time      0.2234: real time      0.2233
    --------------------------------------------
      LOOP:  cpu time    476.4423: real time    476.3562

 eigenvalue-minimisations  :     0
 total energy-change (2. order) :-0.5307283E-02  (-0.6357099E-02)
 number of electron    1053.9998418 magnetization 
 augmentation part      458.5890203 magnetization 

 Free energy of the ion-electron system (eV)
  ---------------------------------------------------
  alpha Z        PSCENC =      5489.43240179
  Ewald energy   TEWEN  =    -88351.16211237
  -Hartree energ DENC   =    -33761.42819085
  -exchange      EXHF   =      3881.28012326
  -V(xc)+E(xc)   XCENC  =      2914.57681051
  PAW double counting   =    121050.23797729  -136401.44363900
  entropy T*S    EENTRO =        -0.00000000
  eigenvalues    EBANDS =     -8743.62234320
  atomic energy  EATOM  =    132975.12501908
  ---------------------------------------------------
  free energy    TOTEN  =      -947.00395350 eV

  energy without entropy =     -947.00395350  energy(sigma->0) =     -947.00395350
  exchange ACFDT corr.  =        -0.00000000  see jH, gK, PRB 81, 115126


--------------------------------------------------------------------------------------------------------




--------------------------------------- Iteration      1(  59)  ---------------------------------------


    POTLOK:  cpu time      1.5106: real time      1.5103
    SETDIJ:  cpu time      0.5302: real time      0.5301
    TRIAL :  cpu time    235.9180: real time    235.8723
    CORREC:  cpu time    238.0665: real time    238.0216
    CHARGE:  cpu time      0.2216: real time      0.2216
    --------------------------------------------
      LOOP:  cpu time    476.2472: real time    476.1564

 eigenvalue-minimisations  :     0
 total energy-change (2. order) :-0.6396438E-02  (-0.6020845E-02)
 number of electron    1053.9998417 magnetization 
 augmentation part      458.5993543 magnetization 

 Free energy of the ion-electron system (eV)
  ---------------------------------------------------
  alpha Z        PSCENC =      5489.43240179
  Ewald energy   TEWEN  =    -88351.16211237
  -Hartree energ DENC   =    -33761.21329264
  -exchange      EXHF   =      3881.27640338
  -V(xc)+E(xc)   XCENC  =      2914.57051412
  PAW double counting   =    121048.75168782  -136400.12713034
  entropy T*S    EENTRO =        -0.00000000
  eigenvalues    EBANDS =     -8743.66384077
  atomic energy  EATOM  =    132975.12501908
  ---------------------------------------------------
  free energy    TOTEN  =      -947.01034993 eV

  energy without entropy =     -947.01034993  energy(sigma->0) =     -947.01034993
  exchange ACFDT corr.  =        -0.00000000  see jH, gK, PRB 81, 115126


--------------------------------------------------------------------------------------------------------




--------------------------------------- Iteration      1(  60)  ---------------------------------------


    POTLOK:  cpu time      1.5548: real time      1.5545
    SETDIJ:  cpu time      0.4685: real time      0.4684
    TRIAL :  cpu time    236.4597: real time    236.4156
    CORREC:  cpu time    238.2640: real time    238.2140
    CHARGE:  cpu time      0.2224: real time      0.2224
    --------------------------------------------
      LOOP:  cpu time    476.9696: real time    476.8810

 eigenvalue-minimisations  :     0
 total energy-change (2. order) :-0.5567657E-02  (-0.1048369E-01)
 number of electron    1053.9998417 magnetization 
 augmentation part      458.5973837 magnetization 

 Free energy of the ion-electron system (eV)
  ---------------------------------------------------
  alpha Z        PSCENC =      5489.43240179
  Ewald energy   TEWEN  =    -88351.16211237
  -Hartree energ DENC   =    -33762.00316862
  -exchange      EXHF   =      3881.31469837
  -V(xc)+E(xc)   XCENC  =      2914.60034663
  PAW double counting   =    121048.40677716  -136400.08051946
  entropy T*S    EENTRO =        -0.00000000
  eigenvalues    EBANDS =     -8742.64936017
  atomic energy  EATOM  =    132975.12501908
  ---------------------------------------------------
  free energy    TOTEN  =      -947.01591759 eV

  energy without entropy =     -947.01591759  energy(sigma->0) =     -947.01591759
  exchange ACFDT corr.  =         0.00000000  see jH, gK, PRB 81, 115126


--------------------------------------------------------------------------------------------------------




--------------------------------------- Iteration      1(  61)  ---------------------------------------


    POTLOK:  cpu time      1.4568: real time      1.4565
    SETDIJ:  cpu time      0.5938: real time      0.5937
    TRIAL :  cpu time    236.2521: real time    236.2014
    CORREC:  cpu time    238.0493: real time    238.0020
    CHARGE:  cpu time      0.2198: real time      0.2198
    --------------------------------------------
      LOOP:  cpu time    476.5721: real time    476.4740

 eigenvalue-minimisations  :     0
 total energy-change (2. order) :-0.1058862E-01  (-0.8763566E-02)
 number of electron    1053.9998417 magnetization 
 augmentation part      458.5915576 magnetization 

 Free energy of the ion-electron system (eV)
  ---------------------------------------------------
  alpha Z        PSCENC =      5489.43240179
  Ewald energy   TEWEN  =    -88351.16211237
  -Hartree energ DENC   =    -33761.75787264
  -exchange      EXHF   =      3881.36630446
  -V(xc)+E(xc)   XCENC  =      2914.60851167
  PAW double counting   =    121046.41874921  -136397.73742595
  entropy T*S    EENTRO =        -0.00000000
  eigenvalues    EBANDS =     -8743.32008146
  atomic energy  EATOM  =    132975.12501908
  ---------------------------------------------------
  free energy    TOTEN  =      -947.02650621 eV

  energy without entropy =     -947.02650621  energy(sigma->0) =     -947.02650621
  exchange ACFDT corr.  =        -0.00000000  see jH, gK, PRB 81, 115126


--------------------------------------------------------------------------------------------------------




--------------------------------------- Iteration      1(  62)  ---------------------------------------


    POTLOK:  cpu time      1.5154: real time      1.5154
    SETDIJ:  cpu time      0.4675: real time      0.4673
    TRIAL :  cpu time    236.3230: real time    236.2748
    CORREC:  cpu time    238.2058: real time    238.1569
    CHARGE:  cpu time      0.2183: real time      0.2183
    --------------------------------------------
      LOOP:  cpu time    476.7304: real time    476.6334

 eigenvalue-minimisations  :     0
 total energy-change (2. order) :-0.8770787E-02  (-0.3661477E-02)
 number of electron    1053.9998417 magnetization 
 augmentation part      458.5985881 magnetization 

 Free energy of the ion-electron system (eV)
  ---------------------------------------------------
  alpha Z        PSCENC =      5489.43240179
  Ewald energy   TEWEN  =    -88351.16211237
  -Hartree energ DENC   =    -33761.20145879
  -exchange      EXHF   =      3881.38770002
  -V(xc)+E(xc)   XCENC  =      2914.59660107
  PAW double counting   =    121045.19157433  -136396.23686743
  entropy T*S    EENTRO =        -0.00000000
  eigenvalues    EBANDS =     -8744.16813470
  atomic energy  EATOM  =    132975.12501908
  ---------------------------------------------------
  free energy    TOTEN  =      -947.03527700 eV

  energy without entropy =     -947.03527700  energy(sigma->0) =     -947.03527700
  exchange ACFDT corr.  =        -0.00000000  see jH, gK, PRB 81, 115126


--------------------------------------------------------------------------------------------------------




--------------------------------------- Iteration      1(  63)  ---------------------------------------


    POTLOK:  cpu time      1.4768: real time      1.4764
    SETDIJ:  cpu time      0.5362: real time      0.5361
    TRIAL :  cpu time    236.2361: real time    236.1876
    CORREC:  cpu time    238.3035: real time    238.2544
    CHARGE:  cpu time      0.2147: real time      0.2146
    --------------------------------------------
      LOOP:  cpu time    476.7702: real time    476.6724

 eigenvalue-minimisations  :     0
 total energy-change (2. order) :-0.3896715E-02  (-0.1787551E-02)
 number of electron    1053.9998417 magnetization 
 augmentation part      458.6040278 magnetization 

 Free energy of the ion-electron system (eV)
  ---------------------------------------------------
  alpha Z        PSCENC =      5489.43240179
  Ewald energy   TEWEN  =    -88351.16211237
  -Hartree energ DENC   =    -33761.80063519
  -exchange      EXHF   =      3881.40151092
  -V(xc)+E(xc)   XCENC  =      2914.61047456
  PAW double counting   =    121046.08113085  -136397.44921065
  entropy T*S    EENTRO =        -0.00000000
  eigenvalues    EBANDS =     -8743.27775270
  atomic energy  EATOM  =    132975.12501908
  ---------------------------------------------------
  free energy    TOTEN  =      -947.03917371 eV

  energy without entropy =     -947.03917371  energy(sigma->0) =     -947.03917371
  exchange ACFDT corr.  =        -0.00000000  see jH, gK, PRB 81, 115126


--------------------------------------------------------------------------------------------------------




--------------------------------------- Iteration      1(  64)  ---------------------------------------


    POTLOK:  cpu time      1.5351: real time      1.5348
    SETDIJ:  cpu time      0.4743: real time      0.4742
    TRIAL :  cpu time    236.4723: real time    236.4190
    CORREC:  cpu time    238.2244: real time    238.1722
    CHARGE:  cpu time      0.2236: real time      0.2235
    --------------------------------------------
      LOOP:  cpu time    476.9306: real time    476.8251

 eigenvalue-minimisations  :     0
 total energy-change (2. order) :-0.1766362E-02  (-0.1726420E-02)
 number of electron    1053.9998417 magnetization 
 augmentation part      458.6025851 magnetization 

 Free energy of the ion-electron system (eV)
  ---------------------------------------------------
  alpha Z        PSCENC =      5489.43240179
  Ewald energy   TEWEN  =    -88351.16211237
  -Hartree energ DENC   =    -33762.19729330
  -exchange      EXHF   =      3881.39434459
  -V(xc)+E(xc)   XCENC  =      2914.61513936
  PAW double counting   =    121047.14381924  -136398.75405832
  entropy T*S    EENTRO =        -0.00000000
  eigenvalues    EBANDS =     -8742.63820015
  atomic energy  EATOM  =    132975.12501908
  ---------------------------------------------------
  free energy    TOTEN  =      -947.04094008 eV

  energy without entropy =     -947.04094008  energy(sigma->0) =     -947.04094008
  exchange ACFDT corr.  =        -0.00000000  see jH, gK, PRB 81, 115126


--------------------------------------------------------------------------------------------------------




--------------------------------------- Iteration      1(  65)  ---------------------------------------


    POTLOK:  cpu time      1.5083: real time      1.5080
    SETDIJ:  cpu time      0.5053: real time      0.5052
    TRIAL :  cpu time    236.2311: real time    236.1896
    CORREC:  cpu time    237.9799: real time    237.9289
    CHARGE:  cpu time      0.2271: real time      0.2270
    --------------------------------------------
      LOOP:  cpu time    476.4520: real time    476.3647

 eigenvalue-minimisations  :     0
 total energy-change (2. order) :-0.1707449E-02  (-0.1164926E-02)
 number of electron    1053.9998416 magnetization 
 augmentation part      458.5991741 magnetization 

 Free energy of the ion-electron system (eV)
  ---------------------------------------------------
  alpha Z        PSCENC =      5489.43240179
  Ewald energy   TEWEN  =    -88351.16211237
  -Hartree energ DENC   =    -33761.91893135
  -exchange      EXHF   =      3881.36676788
  -V(xc)+E(xc)   XCENC  =      2914.59915700
  PAW double counting   =    121047.65449988  -136399.18595751
  entropy T*S    EENTRO =        -0.00000000
  eigenvalues    EBANDS =     -8742.95349192
  atomic energy  EATOM  =    132975.12501908
  ---------------------------------------------------
  free energy    TOTEN  =      -947.04264753 eV

  energy without entropy =     -947.04264753  energy(sigma->0) =     -947.04264753
  exchange ACFDT corr.  =        -0.00000000  see jH, gK, PRB 81, 115126


--------------------------------------------------------------------------------------------------------




--------------------------------------- Iteration      1(  66)  ---------------------------------------


    POTLOK:  cpu time      1.5418: real time      1.5419
    SETDIJ:  cpu time      0.4684: real time      0.4683
    TRIAL :  cpu time    236.2621: real time    236.2163
    CORREC:  cpu time    238.1938: real time    238.1502
    CHARGE:  cpu time      0.2232: real time      0.2232
    --------------------------------------------
      LOOP:  cpu time    476.6896: real time    476.6005

 eigenvalue-minimisations  :     0
 total energy-change (2. order) :-0.1147698E-02  (-0.1284660E-02)
 number of electron    1053.9998416 magnetization 
 augmentation part      458.6008268 magnetization 

 Free energy of the ion-electron system (eV)
  ---------------------------------------------------
  alpha Z        PSCENC =      5489.43240179
  Ewald energy   TEWEN  =    -88351.16211237
  -Hartree energ DENC   =    -33761.54609669
  -exchange      EXHF   =      3881.34898739
  -V(xc)+E(xc)   XCENC  =      2914.58614105
  PAW double counting   =    121047.61214993  -136398.92720859
  entropy T*S    EENTRO =        -0.00000000
  eigenvalues    EBANDS =     -8743.51307682
  atomic energy  EATOM  =    132975.12501908
  ---------------------------------------------------
  free energy    TOTEN  =      -947.04379522 eV

  energy without entropy =     -947.04379522  energy(sigma->0) =     -947.04379522
  exchange ACFDT corr.  =        -0.00000000  see jH, gK, PRB 81, 115126


--------------------------------------------------------------------------------------------------------




--------------------------------------- Iteration      1(  67)  ---------------------------------------


    POTLOK:  cpu time      1.5093: real time      1.5091
    SETDIJ:  cpu time      0.5282: real time      0.5281
    TRIAL :  cpu time    236.2806: real time    236.2349
    CORREC:  cpu time    238.1509: real time    238.1036
    CHARGE:  cpu time      0.2239: real time      0.2238
    --------------------------------------------
      LOOP:  cpu time    476.6932: real time    476.6001

 eigenvalue-minimisations  :     0
 total energy-change (2. order) :-0.1264809E-02  (-0.9621002E-03)
 number of electron    1053.9998416 magnetization 
 augmentation part      458.6063311 magnetization 

 Free energy of the ion-electron system (eV)
  ---------------------------------------------------
  alpha Z        PSCENC =      5489.43240179
  Ewald energy   TEWEN  =    -88351.16211237
  -Hartree energ DENC   =    -33761.71468093
  -exchange      EXHF   =      3881.35048323
  -V(xc)+E(xc)   XCENC  =      2914.59341439
  PAW double counting   =    121047.87980567  -136399.11004576
  entropy T*S    EENTRO =        -0.00000000
  eigenvalues    EBANDS =     -8743.43934512
  atomic energy  EATOM  =    132975.12501908
  ---------------------------------------------------
  free energy    TOTEN  =      -947.04506003 eV

  energy without entropy =     -947.04506003  energy(sigma->0) =     -947.04506003
  exchange ACFDT corr.  =        -0.00000000  see jH, gK, PRB 81, 115126


--------------------------------------------------------------------------------------------------------




--------------------------------------- Iteration      1(  68)  ---------------------------------------


    POTLOK:  cpu time      1.5164: real time      1.5161
    SETDIJ:  cpu time      0.5240: real time      0.5239
    TRIAL :  cpu time    236.2490: real time    236.2037
    CORREC:  cpu time    238.4901: real time    238.4567
    CHARGE:  cpu time      0.2219: real time      0.2218
    --------------------------------------------
      LOOP:  cpu time    477.0016: real time    476.9228

 eigenvalue-minimisations  :     0
 total energy-change (2. order) :-0.9347467E-03  (-0.1047923E-02)
 number of electron    1053.9998416 magnetization 
 augmentation part      458.6100247 magnetization 

 Free energy of the ion-electron system (eV)
  ---------------------------------------------------
  alpha Z        PSCENC =      5489.43240179
  Ewald energy   TEWEN  =    -88351.16211237
  -Hartree energ DENC   =    -33762.27960805
  -exchange      EXHF   =      3881.36536355
  -V(xc)+E(xc)   XCENC  =      2914.61382466
  PAW double counting   =    121048.35887287  -136399.69265217
  entropy T*S    EENTRO =        -0.00000000
  eigenvalues    EBANDS =     -8742.80710413
  atomic energy  EATOM  =    132975.12501908
  ---------------------------------------------------
  free energy    TOTEN  =      -947.04599478 eV

  energy without entropy =     -947.04599478  energy(sigma->0) =     -947.04599478
  exchange ACFDT corr.  =        -0.00000000  see jH, gK, PRB 81, 115126


--------------------------------------------------------------------------------------------------------




--------------------------------------- Iteration      1(  69)  ---------------------------------------


    POTLOK:  cpu time      1.5215: real time      1.5212
    SETDIJ:  cpu time      0.4672: real time      0.4671
    TRIAL :  cpu time    236.1146: real time    236.0653
    CORREC:  cpu time    238.1805: real time    238.1431
    CHARGE:  cpu time      0.2246: real time      0.2245
    --------------------------------------------
      LOOP:  cpu time    476.5086: real time    476.4218

 eigenvalue-minimisations  :     0
 total energy-change (2. order) :-0.1037110E-02  (-0.8609667E-03)
 number of electron    1053.9998416 magnetization 
 augmentation part      458.6080008 magnetization 

 Free energy of the ion-electron system (eV)
  ---------------------------------------------------
  alpha Z        PSCENC =      5489.43240179
  Ewald energy   TEWEN  =    -88351.16211237
  -Hartree energ DENC   =    -33762.66069176
  -exchange      EXHF   =      3881.37747115
  -V(xc)+E(xc)   XCENC  =      2914.62943975
  PAW double counting   =    121048.52857065  -136399.93327396
  entropy T*S    EENTRO =        -0.00000000
  eigenvalues    EBANDS =     -8742.38385623
  atomic energy  EATOM  =    132975.12501908
  ---------------------------------------------------
  free energy    TOTEN  =      -947.04703189 eV

  energy without entropy =     -947.04703189  energy(sigma->0) =     -947.04703189
  exchange ACFDT corr.  =        -0.00000000  see jH, gK, PRB 81, 115126


--------------------------------------------------------------------------------------------------------




--------------------------------------- Iteration      1(  70)  ---------------------------------------


    POTLOK:  cpu time      1.4836: real time      1.4833
    SETDIJ:  cpu time      0.5529: real time      0.5528
    TRIAL :  cpu time    236.3385: real time    236.2921
    CORREC:  cpu time    238.2356: real time    238.2007
    CHARGE:  cpu time      0.2211: real time      0.2210
    --------------------------------------------
      LOOP:  cpu time    476.8319: real time    476.7562

 eigenvalue-minimisations  :     0
 total energy-change (2. order) :-0.8651872E-03  (-0.7699161E-03)
 number of electron    1053.9998416 magnetization 
 augmentation part      458.6058355 magnetization 

 Free energy of the ion-electron system (eV)
  ---------------------------------------------------
  alpha Z        PSCENC =      5489.43240179
  Ewald energy   TEWEN  =    -88351.16211237
  -Hartree energ DENC   =    -33762.44286933
  -exchange      EXHF   =      3881.37205034
  -V(xc)+E(xc)   XCENC  =      2914.62467613
  PAW double counting   =    121048.15730121  -136399.47518718
  entropy T*S    EENTRO =        -0.00000000
  eigenvalues    EBANDS =     -8742.67917675
  atomic energy  EATOM  =    132975.12501908
  ---------------------------------------------------
  free energy    TOTEN  =      -947.04789708 eV

  energy without entropy =     -947.04789708  energy(sigma->0) =     -947.04789708
  exchange ACFDT corr.  =        -0.00000000  see jH, gK, PRB 81, 115126


--------------------------------------------------------------------------------------------------------




--------------------------------------- Iteration      1(  71)  ---------------------------------------


    POTLOK:  cpu time      1.4628: real time      1.4626
    SETDIJ:  cpu time      0.5754: real time      0.5754
    TRIAL :  cpu time    236.4992: real time    236.4573
    CORREC:  cpu time    238.3034: real time    238.2647
    CHARGE:  cpu time      0.2218: real time      0.2218
    --------------------------------------------
      LOOP:  cpu time    477.0649: real time    476.9843

 eigenvalue-minimisations  :     0
 total energy-change (2. order) :-0.7709200E-03  (-0.7246038E-03)
 number of electron    1053.9998416 magnetization 
 augmentation part      458.6069208 magnetization 

 Free energy of the ion-electron system (eV)
  ---------------------------------------------------
  alpha Z        PSCENC =      5489.43240179
  Ewald energy   TEWEN  =    -88351.16211237
  -Hartree energ DENC   =    -33762.14962221
  -exchange      EXHF   =      3881.35934063
  -V(xc)+E(xc)   XCENC  =      2914.61450125
  PAW double counting   =    121047.83702785  -136399.11325996
  entropy T*S    EENTRO =        -0.00000000
  eigenvalues    EBANDS =     -8742.99196405
  atomic energy  EATOM  =    132975.12501908
  ---------------------------------------------------
  free energy    TOTEN  =      -947.04866800 eV

  energy without entropy =     -947.04866800  energy(sigma->0) =     -947.04866800
  exchange ACFDT corr.  =         0.00000000  see jH, gK, PRB 81, 115126


--------------------------------------------------------------------------------------------------------




--------------------------------------- Iteration      1(  72)  ---------------------------------------


    POTLOK:  cpu time      1.5093: real time      1.5090
    SETDIJ:  cpu time      0.4959: real time      0.4958
    TRIAL :  cpu time    236.1610: real time    236.1108
    CORREC:  cpu time    238.0401: real time    237.9890
    CHARGE:  cpu time      0.2173: real time      0.2172
    --------------------------------------------
      LOOP:  cpu time    476.4257: real time    476.3245

 eigenvalue-minimisations  :     0
 total energy-change (2. order) :-0.7140169E-03  (-0.5672657E-03)
 number of electron    1053.9998416 magnetization 
 augmentation part      458.6087671 magnetization 

 Free energy of the ion-electron system (eV)
  ---------------------------------------------------
  alpha Z        PSCENC =      5489.43240179
  Ewald energy   TEWEN  =    -88351.16211237
  -Hartree energ DENC   =    -33762.14737604
  -exchange      EXHF   =      3881.35196436
  -V(xc)+E(xc)   XCENC  =      2914.61178057
  PAW double counting   =    121047.88217755  -136399.24986855
  entropy T*S    EENTRO =        -0.00000000
  eigenvalues    EBANDS =     -8742.89336840
  atomic energy  EATOM  =    132975.12501908
  ---------------------------------------------------
  free energy    TOTEN  =      -947.04938201 eV

  energy without entropy =     -947.04938201  energy(sigma->0) =     -947.04938201
  exchange ACFDT corr.  =        -0.00000000  see jH, gK, PRB 81, 115126


--------------------------------------------------------------------------------------------------------




--------------------------------------- Iteration      1(  73)  ---------------------------------------


    POTLOK:  cpu time      1.5306: real time      1.5302
    SETDIJ:  cpu time      0.5019: real time      0.5018
    TRIAL :  cpu time    236.4128: real time    236.3685
    CORREC:  cpu time    238.3755: real time    238.3274
    CHARGE:  cpu time      0.2101: real time      0.2100
    --------------------------------------------
      LOOP:  cpu time    477.0327: real time    476.9402

 eigenvalue-minimisations  :     0
 total energy-change (2. order) :-0.5575618E-03  (-0.6322860E-03)
 number of electron    1053.9998416 magnetization 
 augmentation part      458.6079615 magnetization 

 Free energy of the ion-electron system (eV)
  ---------------------------------------------------
  alpha Z        PSCENC =      5489.43240179
  Ewald energy   TEWEN  =    -88351.16211237
  -Hartree energ DENC   =    -33762.25829183
  -exchange      EXHF   =      3881.35191815
  -V(xc)+E(xc)   XCENC  =      2914.61352678
  PAW double counting   =    121048.06488746  -136399.52308563
  entropy T*S    EENTRO =        -0.00000000
  eigenvalues    EBANDS =     -8742.69420299
  atomic energy  EATOM  =    132975.12501908
  ---------------------------------------------------
  free energy    TOTEN  =      -947.04993958 eV

  energy without entropy =     -947.04993958  energy(sigma->0) =     -947.04993958
  exchange ACFDT corr.  =        -0.00000000  see jH, gK, PRB 81, 115126


--------------------------------------------------------------------------------------------------------




--------------------------------------- Iteration      1(  74)  ---------------------------------------


    POTLOK:  cpu time      1.5224: real time      1.5225
    SETDIJ:  cpu time      0.4679: real time      0.4679
    TRIAL :  cpu time    236.4878: real time    236.4375
    CORREC:  cpu time    238.4373: real time    238.3871
    CHARGE:  cpu time      0.2265: real time      0.2264
    --------------------------------------------
      LOOP:  cpu time    477.1433: real time    477.0433

 eigenvalue-minimisations  :     0
 total energy-change (2. order) :-0.6272199E-03  (-0.4904318E-03)
 number of electron    1053.9998416 magnetization 
 augmentation part      458.6054605 magnetization 

 Free energy of the ion-electron system (eV)
  ---------------------------------------------------
  alpha Z        PSCENC =      5489.43240179
  Ewald energy   TEWEN  =    -88351.16211237
  -Hartree energ DENC   =    -33762.15139979
  -exchange      EXHF   =      3881.35339467
  -V(xc)+E(xc)   XCENC  =      2914.61050101
  PAW double counting   =    121048.05157503  -136399.47429468
  entropy T*S    EENTRO =        -0.00000000
  eigenvalues    EBANDS =     -8742.83565154
  atomic energy  EATOM  =    132975.12501908
  ---------------------------------------------------
  free energy    TOTEN  =      -947.05056680 eV

  energy without entropy =     -947.05056680  energy(sigma->0) =     -947.05056680
  exchange ACFDT corr.  =         0.00000000  see jH, gK, PRB 81, 115126


--------------------------------------------------------------------------------------------------------




--------------------------------------- Iteration      1(  75)  ---------------------------------------


    POTLOK:  cpu time      1.4845: real time      1.4842
    SETDIJ:  cpu time      0.5441: real time      0.5440
    TRIAL :  cpu time    236.3582: real time    236.3097
    CORREC:  cpu time    238.0669: real time    238.0181
    CHARGE:  cpu time      0.2224: real time      0.2223
    --------------------------------------------
      LOOP:  cpu time    476.6764: real time    476.5839

 eigenvalue-minimisations  :     0
 total energy-change (2. order) :-0.4879107E-03  (-0.4915973E-03)
 number of electron    1053.9998415 magnetization 
 augmentation part      458.6050139 magnetization 

 Free energy of the ion-electron system (eV)
  ---------------------------------------------------
  alpha Z        PSCENC =      5489.43240179
  Ewald energy   TEWEN  =    -88351.16211237
  -Hartree energ DENC   =    -33761.93477029
  -exchange      EXHF   =      3881.35654740
  -V(xc)+E(xc)   XCENC  =      2914.60572259
  PAW double counting   =    121047.90742050  -136399.22129812
  entropy T*S    EENTRO =        -0.00000000
  eigenvalues    EBANDS =     -8743.15998529
  atomic energy  EATOM  =    132975.12501908
  ---------------------------------------------------
  free energy    TOTEN  =      -947.05105471 eV

  energy without entropy =     -947.05105471  energy(sigma->0) =     -947.05105471
  exchange ACFDT corr.  =        -0.00000000  see jH, gK, PRB 81, 115126


--------------------------------------------------------------------------------------------------------




--------------------------------------- Iteration      1(  76)  ---------------------------------------


    POTLOK:  cpu time      1.5046: real time      1.5045
    SETDIJ:  cpu time      0.5171: real time      0.5170
    TRIAL :  cpu time    236.1388: real time    236.0916
    CORREC:  cpu time    238.0756: real time    238.0355
    CHARGE:  cpu time      0.2175: real time      0.2175
    --------------------------------------------
      LOOP:  cpu time    476.4563: real time    476.3692

 eigenvalue-minimisations  :     0
 total energy-change (2. order) :-0.4896759E-03  (-0.3829339E-03)
 number of electron    1053.9998415 magnetization 
 augmentation part      458.6071762 magnetization 

 Free energy of the ion-electron system (eV)
  ---------------------------------------------------
  alpha Z        PSCENC =      5489.43240179
  Ewald energy   TEWEN  =    -88351.16211237
  -Hartree energ DENC   =    -33761.96167977
  -exchange      EXHF   =      3881.36787943
  -V(xc)+E(xc)   XCENC  =      2914.60897829
  PAW double counting   =    121048.00564073  -136399.29473279
  entropy T*S    EENTRO =        -0.00000000
  eigenvalues    EBANDS =     -8743.17293878
  atomic energy  EATOM  =    132975.12501908
  ---------------------------------------------------
  free energy    TOTEN  =      -947.05154438 eV

  energy without entropy =     -947.05154438  energy(sigma->0) =     -947.05154438
  exchange ACFDT corr.  =         0.00000000  see jH, gK, PRB 81, 115126


--------------------------------------------------------------------------------------------------------




--------------------------------------- Iteration      1(  77)  ---------------------------------------


    POTLOK:  cpu time      1.5275: real time      1.5272
    SETDIJ:  cpu time      0.5140: real time      0.5139
    TRIAL :  cpu time    236.1421: real time    236.0962
    CORREC:  cpu time    238.0798: real time    238.0349
    CHARGE:  cpu time      0.2166: real time      0.2166
    --------------------------------------------
      LOOP:  cpu time    476.4816: real time    476.3907

 eigenvalue-minimisations  :     0
 total energy-change (2. order) :-0.3805575E-03  (-0.3202147E-03)
 number of electron    1053.9998415 magnetization 
 augmentation part      458.6084956 magnetization 

 Free energy of the ion-electron system (eV)
  ---------------------------------------------------
  alpha Z        PSCENC =      5489.43240179
  Ewald energy   TEWEN  =    -88351.16211237
  -Hartree energ DENC   =    -33762.24315430
  -exchange      EXHF   =      3881.38108466
  -V(xc)+E(xc)   XCENC  =      2914.61871420
  PAW double counting   =    121048.37584105  -136399.75172217
  entropy T*S    EENTRO =        -0.00000000
  eigenvalues    EBANDS =     -8742.82799687
  atomic energy  EATOM  =    132975.12501908
  ---------------------------------------------------
  free energy    TOTEN  =      -947.05192494 eV

  energy without entropy =     -947.05192494  energy(sigma->0) =     -947.05192494
  exchange ACFDT corr.  =        -0.00000000  see jH, gK, PRB 81, 115126


--------------------------------------------------------------------------------------------------------




--------------------------------------- Iteration      1(  78)  ---------------------------------------


    POTLOK:  cpu time      1.5204: real time      1.5200
    SETDIJ:  cpu time      0.5356: real time      0.5356
    TRIAL :  cpu time    236.0404: real time    235.9982
    CORREC:  cpu time    238.2133: real time    238.1662
    CHARGE:  cpu time      0.2216: real time      0.2216
    --------------------------------------------
      LOOP:  cpu time    476.5322: real time    476.4427

 eigenvalue-minimisations  :     0
 total energy-change (2. order) :-0.3194453E-03  (-0.2727636E-03)
 number of electron    1053.9998415 magnetization 
 augmentation part      458.6069826 magnetization 

 Free energy of the ion-electron system (eV)
  ---------------------------------------------------
  alpha Z        PSCENC =      5489.43240179
  Ewald energy   TEWEN  =    -88351.16211237
  -Hartree energ DENC   =    -33762.42738940
  -exchange      EXHF   =      3881.38731911
  -V(xc)+E(xc)   XCENC  =      2914.62410332
  PAW double counting   =    121048.70542302  -136400.14484855
  entropy T*S    EENTRO =        -0.00000000
  eigenvalues    EBANDS =     -8742.59216039
  atomic energy  EATOM  =    132975.12501908
  ---------------------------------------------------
  free energy    TOTEN  =      -947.05224438 eV

  energy without entropy =     -947.05224438  energy(sigma->0) =     -947.05224438
  exchange ACFDT corr.  =         0.00000000  see jH, gK, PRB 81, 115126


--------------------------------------------------------------------------------------------------------




--------------------------------------- Iteration      1(  79)  ---------------------------------------


    POTLOK:  cpu time      1.5204: real time      1.5201
    SETDIJ:  cpu time      0.5057: real time      0.5055
    TRIAL :  cpu time    236.1526: real time    236.1121
    CORREC:  cpu time    238.4456: real time    238.3992
    CHARGE:  cpu time      0.2227: real time      0.2227
    --------------------------------------------
      LOOP:  cpu time    476.8487: real time    476.7617

 eigenvalue-minimisations  :     0
 total energy-change (2. order) :-0.2723787E-03  (-0.2074844E-03)
 number of electron    1053.9998415 magnetization 
 augmentation part      458.6048550 magnetization 

 Free energy of the ion-electron system (eV)
  ---------------------------------------------------
  alpha Z        PSCENC =      5489.43240179
  Ewald energy   TEWEN  =    -88351.16211237
  -Hartree energ DENC   =    -33762.31658012
  -exchange      EXHF   =      3881.38336785
  -V(xc)+E(xc)   XCENC  =      2914.61978910
  PAW double counting   =    121048.76338088  -136400.15843244
  entropy T*S    EENTRO =        -0.00000000
  eigenvalues    EBANDS =     -8742.73935054
  atomic energy  EATOM  =    132975.12501908
  ---------------------------------------------------
  free energy    TOTEN  =      -947.05251676 eV

  energy without entropy =     -947.05251676  energy(sigma->0) =     -947.05251676
  exchange ACFDT corr.  =        -0.00000000  see jH, gK, PRB 81, 115126


--------------------------------------------------------------------------------------------------------




--------------------------------------- Iteration      1(  80)  ---------------------------------------


    POTLOK:  cpu time      1.5374: real time      1.5376
    SETDIJ:  cpu time      0.4681: real time      0.4680
    TRIAL :  cpu time    236.2446: real time    236.2026
    CORREC:  cpu time    238.1493: real time    238.1087
    CHARGE:  cpu time      0.2206: real time      0.2206
    --------------------------------------------
      LOOP:  cpu time    476.6202: real time    476.5435

 eigenvalue-minimisations  :     0
 total energy-change (2. order) :-0.2072744E-03  (-0.2314116E-03)
 number of electron    1053.9998415 magnetization 
 augmentation part      458.6043728 magnetization 

 Free energy of the ion-electron system (eV)
  ---------------------------------------------------
  alpha Z        PSCENC =      5489.43240179
  Ewald energy   TEWEN  =    -88351.16211237
  -Hartree energ DENC   =    -33762.12693497
  -exchange      EXHF   =      3881.37551437
  -V(xc)+E(xc)   XCENC  =      2914.61286148
  PAW double counting   =    121048.68954846  -136400.01230666
  entropy T*S    EENTRO =        -0.00000000
  eigenvalues    EBANDS =     -8742.98671521
  atomic energy  EATOM  =    132975.12501908
  ---------------------------------------------------
  free energy    TOTEN  =      -947.05272404 eV

  energy without entropy =     -947.05272404  energy(sigma->0) =     -947.05272404
  exchange ACFDT corr.  =        -0.00000000  see jH, gK, PRB 81, 115126


--------------------------------------------------------------------------------------------------------




--------------------------------------- Iteration      1(  81)  ---------------------------------------


    POTLOK:  cpu time      1.4682: real time      1.4678
    SETDIJ:  cpu time      0.5349: real time      0.5347
    TRIAL :  cpu time    236.2126: real time    236.1807
    CORREC:  cpu time    238.2308: real time    238.1908
    CHARGE:  cpu time      0.2228: real time      0.2227
    --------------------------------------------
      LOOP:  cpu time    476.6695: real time    476.5974

 eigenvalue-minimisations  :     0
 total energy-change (2. order) :-0.2311417E-03  (-0.1858533E-03)
 number of electron    1053.9998416 magnetization 
 augmentation part      458.6055155 magnetization 

 Free energy of the ion-electron system (eV)
  ---------------------------------------------------
  alpha Z        PSCENC =      5489.43240179
  Ewald energy   TEWEN  =    -88351.16211237
  -Hartree energ DENC   =    -33762.09753818
  -exchange      EXHF   =      3881.36961214
  -V(xc)+E(xc)   XCENC  =      2914.61060046
  PAW double counting   =    121048.71698105  -136400.03065662
  entropy T*S    EENTRO =        -0.00000000
  eigenvalues    EBANDS =     -8743.01726252
  atomic energy  EATOM  =    132975.12501908
  ---------------------------------------------------
  free energy    TOTEN  =      -947.05295518 eV

  energy without entropy =     -947.05295518  energy(sigma->0) =     -947.05295518
  exchange ACFDT corr.  =        -0.00000000  see jH, gK, PRB 81, 115126


--------------------------------------------------------------------------------------------------------




--------------------------------------- Iteration      1(  82)  ---------------------------------------


    POTLOK:  cpu time      1.4426: real time      1.4424
    SETDIJ:  cpu time      0.5583: real time      0.5582
    TRIAL :  cpu time    236.2184: real time    236.1744
    CORREC:  cpu time    238.2069: real time    238.1674
    CHARGE:  cpu time      0.2246: real time      0.2246
    --------------------------------------------
      LOOP:  cpu time    476.6514: real time    476.5677

 eigenvalue-minimisations  :     0
 total energy-change (2. order) :-0.1854597E-03  (-0.2016827E-03)
 number of electron    1053.9998416 magnetization 
 augmentation part      458.6058642 magnetization 

 Free energy of the ion-electron system (eV)
  ---------------------------------------------------
  alpha Z        PSCENC =      5489.43240179
  Ewald energy   TEWEN  =    -88351.16211237
  -Hartree energ DENC   =    -33762.23690678
  -exchange      EXHF   =      3881.36905279
  -V(xc)+E(xc)   XCENC  =      2914.61419601
  PAW double counting   =    121048.78689978  -136400.15251894
  entropy T*S    EENTRO =        -0.00000000
  eigenvalues    EBANDS =     -8742.82917199
  atomic energy  EATOM  =    132975.12501908
  ---------------------------------------------------
  free energy    TOTEN  =      -947.05314064 eV

  energy without entropy =     -947.05314064  energy(sigma->0) =     -947.05314064
  exchange ACFDT corr.  =        -0.00000000  see jH, gK, PRB 81, 115126


--------------------------------------------------------------------------------------------------------




--------------------------------------- Iteration      1(  83)  ---------------------------------------


    POTLOK:  cpu time      1.5438: real time      1.5435
    SETDIJ:  cpu time      0.4885: real time      0.4884
    TRIAL :  cpu time    236.0668: real time    236.0181
    CORREC:  cpu time    238.4874: real time    238.4404
    CHARGE:  cpu time      0.2170: real time      0.2168
    --------------------------------------------
      LOOP:  cpu time    476.8041: real time    476.7084

 eigenvalue-minimisations  :     0
 total energy-change (2. order) :-0.2015568E-03  (-0.3392356E-03)
 number of electron    1053.9998416 magnetization 
 augmentation part      458.6028558 magnetization 

 Free energy of the ion-electron system (eV)
  ---------------------------------------------------
  alpha Z        PSCENC =      5489.43240179
  Ewald energy   TEWEN  =    -88351.16211237
  -Hartree energ DENC   =    -33762.32030915
  -exchange      EXHF   =      3881.36875633
  -V(xc)+E(xc)   XCENC  =      2914.61700031
  PAW double counting   =    121048.64890082  -136400.03699780
  entropy T*S    EENTRO =        -0.00000000
  eigenvalues    EBANDS =     -8742.72600120
  atomic energy  EATOM  =    132975.12501908
  ---------------------------------------------------
  free energy    TOTEN  =      -947.05334220 eV

  energy without entropy =     -947.05334220  energy(sigma->0) =     -947.05334220
  exchange ACFDT corr.  =        -0.00000000  see jH, gK, PRB 81, 115126


--------------------------------------------------------------------------------------------------------




--------------------------------------- Iteration      1(  84)  ---------------------------------------


    POTLOK:  cpu time      1.5006: real time      1.5004
    SETDIJ:  cpu time      0.5159: real time      0.5158
    TRIAL :  cpu time    236.2078: real time    236.1616
    CORREC:  cpu time    238.1411: real time    238.1006
    CHARGE:  cpu time      0.2232: real time      0.2231
    --------------------------------------------
      LOOP:  cpu time    476.5890: real time    476.5021

 eigenvalue-minimisations  :     0
 total energy-change (2. order) :-0.3391669E-03  (-0.4108861E-03)
 number of electron    1053.9998416 magnetization 
 augmentation part      458.6059669 magnetization 

 Free energy of the ion-electron system (eV)
  ---------------------------------------------------
  alpha Z        PSCENC =      5489.43240179
  Ewald energy   TEWEN  =    -88351.16211237
  -Hartree energ DENC   =    -33762.04366461
  -exchange      EXHF   =      3881.36488433
  -V(xc)+E(xc)   XCENC  =      2914.60955036
  PAW double counting   =    121048.22521410  -136399.49343011
  entropy T*S    EENTRO =        -0.00000000
  eigenvalues    EBANDS =     -8743.11154394
  atomic energy  EATOM  =    132975.12501908
  ---------------------------------------------------
  free energy    TOTEN  =      -947.05368136 eV

  energy without entropy =     -947.05368136  energy(sigma->0) =     -947.05368136
  exchange ACFDT corr.  =        -0.00000000  see jH, gK, PRB 81, 115126


--------------------------------------------------------------------------------------------------------




--------------------------------------- Iteration      1(  85)  ---------------------------------------


    POTLOK:  cpu time      1.4914: real time      1.4910
    SETDIJ:  cpu time      0.5538: real time      0.5537
    TRIAL :  cpu time    236.5442: real time    236.4993
    CORREC:  cpu time    238.0597: real time    238.0149
    CHARGE:  cpu time      0.2143: real time      0.2142
    --------------------------------------------
      LOOP:  cpu time    476.8653: real time    476.7753

 eigenvalue-minimisations  :     0
 total energy-change (2. order) :-0.4115080E-03  (-0.2008578E-03)
 number of electron    1053.9998416 magnetization 
 augmentation part      458.6050737 magnetization 

 Free energy of the ion-electron system (eV)
  ---------------------------------------------------
  alpha Z        PSCENC =      5489.43240179
  Ewald energy   TEWEN  =    -88351.16211237
  -Hartree energ DENC   =    -33762.36396906
  -exchange      EXHF   =      3881.37400539
  -V(xc)+E(xc)   XCENC  =      2914.61969684
  PAW double counting   =    121048.33158702  -136399.71437721
  entropy T*S    EENTRO =        -0.00000000
  eigenvalues    EBANDS =     -8742.69634435
  atomic energy  EATOM  =    132975.12501908
  ---------------------------------------------------
  free energy    TOTEN  =      -947.05409287 eV

  energy without entropy =     -947.05409287  energy(sigma->0) =     -947.05409287
  exchange ACFDT corr.  =         0.00000000  see jH, gK, PRB 81, 115126


--------------------------------------------------------------------------------------------------------




--------------------------------------- Iteration      1(  86)  ---------------------------------------


    POTLOK:  cpu time      1.5226: real time      1.5223
    SETDIJ:  cpu time      0.5126: real time      0.5125
    TRIAL :  cpu time    235.9448: real time    235.8974
    CORREC:  cpu time    238.0543: real time    238.0095
    CHARGE:  cpu time      0.2201: real time      0.2201
    --------------------------------------------
      LOOP:  cpu time    476.2547: real time    476.1698

 eigenvalue-minimisations  :     0
 total energy-change (2. order) :-0.2008634E-03  (-0.1522308E-03)
 number of electron    1053.9998416 magnetization 
 augmentation part      458.6048669 magnetization 

 Free energy of the ion-electron system (eV)
  ---------------------------------------------------
  alpha Z        PSCENC =      5489.43240179
  Ewald energy   TEWEN  =    -88351.16211237
  -Hartree energ DENC   =    -33762.25447728
  -exchange      EXHF   =      3881.36954738
  -V(xc)+E(xc)   XCENC  =      2914.61597407
  PAW double counting   =    121048.17364097  -136399.53223866
  entropy T*S    EENTRO =        -0.00000000
  eigenvalues    EBANDS =     -8742.82204871
  atomic energy  EATOM  =    132975.12501908
  ---------------------------------------------------
  free energy    TOTEN  =      -947.05429373 eV

  energy without entropy =     -947.05429373  energy(sigma->0) =     -947.05429373
  exchange ACFDT corr.  =         0.00000000  see jH, gK, PRB 81, 115126


--------------------------------------------------------------------------------------------------------




--------------------------------------- Iteration      1(  87)  ---------------------------------------


    POTLOK:  cpu time      1.4951: real time      1.4949
    SETDIJ:  cpu time      0.5516: real time      0.5515
    TRIAL :  cpu time    236.1680: real time    236.1240
    CORREC:  cpu time    238.2744: real time    238.2266
    CHARGE:  cpu time      0.2249: real time      0.2248
    --------------------------------------------
      LOOP:  cpu time    476.7157: real time    476.6239

 eigenvalue-minimisations  :     0
 total energy-change (2. order) :-0.1527359E-03  (-0.1429212E-03)
 number of electron    1053.9998416 magnetization 
 augmentation part      458.6043015 magnetization 

 Free energy of the ion-electron system (eV)
  ---------------------------------------------------
  alpha Z        PSCENC =      5489.43240179
  Ewald energy   TEWEN  =    -88351.16211237
  -Hartree energ DENC   =    -33762.20986364
  -exchange      EXHF   =      3881.36409189
  -V(xc)+E(xc)   XCENC  =      2914.61346947
  PAW double counting   =    121048.09907175  -136399.46887583
  entropy T*S    EENTRO =        -0.00000000
  eigenvalues    EBANDS =     -8742.84764861
  atomic energy  EATOM  =    132975.12501908
  ---------------------------------------------------
  free energy    TOTEN  =      -947.05444647 eV

  energy without entropy =     -947.05444647  energy(sigma->0) =     -947.05444647
  exchange ACFDT corr.  =         0.00000000  see jH, gK, PRB 81, 115126


--------------------------------------------------------------------------------------------------------




--------------------------------------- Iteration      1(  88)  ---------------------------------------


    POTLOK:  cpu time      1.5158: real time      1.5155
    SETDIJ:  cpu time      0.4968: real time      0.4966
    TRIAL :  cpu time    236.3873: real time    236.3452
    CORREC:  cpu time    237.9313: real time    237.8862
    CHARGE:  cpu time      0.2230: real time      0.2230
    --------------------------------------------
      LOOP:  cpu time    476.5552: real time    476.4678

 eigenvalue-minimisations  :     0
 total energy-change (2. order) :-0.1431637E-03  (-0.1108533E-03)
 number of electron    1053.9998416 magnetization 
 augmentation part      458.6047905 magnetization 

 Free energy of the ion-electron system (eV)
  ---------------------------------------------------
  alpha Z        PSCENC =      5489.43240179
  Ewald energy   TEWEN  =    -88351.16211237
  -Hartree energ DENC   =    -33762.14587425
  -exchange      EXHF   =      3881.36080560
  -V(xc)+E(xc)   XCENC  =      2914.61098807
  PAW double counting   =    121048.05917730  -136399.41874558
  entropy T*S    EENTRO =        -0.00000000
  eigenvalues    EBANDS =     -8742.91624928
  atomic energy  EATOM  =    132975.12501908
  ---------------------------------------------------
  free energy    TOTEN  =      -947.05458963 eV

  energy without entropy =     -947.05458963  energy(sigma->0) =     -947.05458963
  exchange ACFDT corr.  =         0.00000000  see jH, gK, PRB 81, 115126


--------------------------------------------------------------------------------------------------------




--------------------------------------- Iteration      1(  89)  ---------------------------------------


    POTLOK:  cpu time      1.4734: real time      1.4731
    SETDIJ:  cpu time      0.5279: real time      0.5278
    TRIAL :  cpu time    236.2791: real time    236.2359
    CORREC:  cpu time    238.1994: real time    238.1540
    CHARGE:  cpu time      0.2219: real time      0.2218
    --------------------------------------------
      LOOP:  cpu time    476.7019: real time    476.6131

 eigenvalue-minimisations  :     0
 total energy-change (2. order) :-0.1113769E-03  (-0.7123299E-04)
 number of electron    1053.9998416 magnetization 
 augmentation part      458.6047528 magnetization 

 Free energy of the ion-electron system (eV)
  ---------------------------------------------------
  alpha Z        PSCENC =      5489.43240179
  Ewald energy   TEWEN  =    -88351.16211237
  -Hartree energ DENC   =    -33762.21230075
  -exchange      EXHF   =      3881.36350641
  -V(xc)+E(xc)   XCENC  =      2914.61326027
  PAW double counting   =    121048.11537580  -136399.49428463
  entropy T*S    EENTRO =        -0.00000000
  eigenvalues    EBANDS =     -8742.83556661
  atomic energy  EATOM  =    132975.12501908
  ---------------------------------------------------
  free energy    TOTEN  =      -947.05470101 eV

  energy without entropy =     -947.05470101  energy(sigma->0) =     -947.05470101
  exchange ACFDT corr.  =        -0.00000000  see jH, gK, PRB 81, 115126


--------------------------------------------------------------------------------------------------------




--------------------------------------- Iteration      1(  90)  ---------------------------------------


    POTLOK:  cpu time      1.4950: real time      1.4952
    SETDIJ:  cpu time      0.4682: real time      0.4681
    TRIAL :  cpu time    236.2591: real time    236.2133
    CORREC:  cpu time    238.2931: real time    238.2451
    CHARGE:  cpu time      0.2220: real time      0.2219
    --------------------------------------------
      LOOP:  cpu time    476.7377: real time    476.6524

 eigenvalue-minimisations  :     0
 total energy-change (2. order) :-0.7139034E-04  (-0.3353920E-04)
 number of electron    1053.9998416 magnetization 
 augmentation part      458.6048804 magnetization 

 Free energy of the ion-electron system (eV)
  ---------------------------------------------------
  alpha Z        PSCENC =      5489.43240179
  Ewald energy   TEWEN  =    -88351.16211237
  -Hartree energ DENC   =    -33762.22745516
  -exchange      EXHF   =      3881.36583775
  -V(xc)+E(xc)   XCENC  =      2914.61429392
  PAW double counting   =    121048.12854880  -136399.50361809
  entropy T*S    EENTRO =        -0.00000000
  eigenvalues    EBANDS =     -8742.82768812
  atomic energy  EATOM  =    132975.12501908
  ---------------------------------------------------
  free energy    TOTEN  =      -947.05477240 eV

  energy without entropy =     -947.05477240  energy(sigma->0) =     -947.05477240
  exchange ACFDT corr.  =        -0.00000000  see jH, gK, PRB 81, 115126


--------------------------------------------------------------------------------------------------------




--------------------------------------- Iteration      1(  91)  ---------------------------------------


    POTLOK:  cpu time      1.5125: real time      1.5122
    SETDIJ:  cpu time      0.4958: real time      0.4957
    TRIAL :  cpu time    236.5221: real time    236.4848
    CORREC:  cpu time    238.3979: real time    238.3571
    CHARGE:  cpu time      0.2162: real time      0.2162
    --------------------------------------------
      LOOP:  cpu time    477.1447: real time    477.0695

 eigenvalue-minimisations  :     0
 total energy-change (2. order) :-0.3355141E-04  (-0.1804676E-04)
 number of electron    1053.9998416 magnetization 
 augmentation part      458.6045915 magnetization 

 Free energy of the ion-electron system (eV)
  ---------------------------------------------------
  alpha Z        PSCENC =      5489.43240179
  Ewald energy   TEWEN  =    -88351.16211237
  -Hartree energ DENC   =    -33762.24661628
  -exchange      EXHF   =      3881.36622281
  -V(xc)+E(xc)   XCENC  =      2914.61476582
  PAW double counting   =    121048.17989937  -136399.56245724
  entropy T*S    EENTRO =        -0.00000000
  eigenvalues    EBANDS =     -8742.80192893
  atomic energy  EATOM  =    132975.12501908
  ---------------------------------------------------
  free energy    TOTEN  =      -947.05480595 eV

  energy without entropy =     -947.05480595  energy(sigma->0) =     -947.05480595
  exchange ACFDT corr.  =        -0.00000000  see jH, gK, PRB 81, 115126


--------------------------------------------------------------------------------------------------------




--------------------------------------- Iteration      1(  92)  ---------------------------------------


    POTLOK:  cpu time      1.4632: real time      1.4630
    SETDIJ:  cpu time      0.5708: real time      0.5707
    TRIAL :  cpu time    236.2514: real time    236.2097
    CORREC:  cpu time    238.1577: real time    238.1147
    CHARGE:  cpu time      0.2236: real time      0.2235
    --------------------------------------------
      LOOP:  cpu time    476.6683: real time    476.5837

 eigenvalue-minimisations  :     0
 total energy-change (2. order) :-0.1803101E-04  (-0.1126093E-04)
 number of electron    1053.9998416 magnetization 
 augmentation part      458.6044871 magnetization 

 Free energy of the ion-electron system (eV)
  ---------------------------------------------------
  alpha Z        PSCENC =      5489.43240179
  Ewald energy   TEWEN  =    -88351.16211237
  -Hartree energ DENC   =    -33762.22071689
  -exchange      EXHF   =      3881.36470522
  -V(xc)+E(xc)   XCENC  =      2914.61358206
  PAW double counting   =    121048.19987977  -136399.57597402
  entropy T*S    EENTRO =        -0.00000000
  eigenvalues    EBANDS =     -8742.83160862
  atomic energy  EATOM  =    132975.12501908
  ---------------------------------------------------
  free energy    TOTEN  =      -947.05482398 eV

  energy without entropy =     -947.05482398  energy(sigma->0) =     -947.05482398
  exchange ACFDT corr.  =         0.00000000  see jH, gK, PRB 81, 115126


--------------------------------------------------------------------------------------------------------




--------------------------------------- Iteration      1(  93)  ---------------------------------------


    POTLOK:  cpu time      1.4853: real time      1.4850
    SETDIJ:  cpu time      0.5325: real time      0.5324
    TRIAL :  cpu time    236.0911: real time    236.0457
    CORREC:  cpu time    237.9921: real time    237.9533
    CHARGE:  cpu time      0.2204: real time      0.2203
    --------------------------------------------
      LOOP:  cpu time    476.3231: real time    476.2389

 eigenvalue-minimisations  :     0
 total energy-change (2. order) :-0.1117175E-04  (-0.7781409E-05)
 number of electron    1053.9998416 magnetization 
 augmentation part      458.6044012 magnetization 

 Free energy of the ion-electron system (eV)
  ---------------------------------------------------
  alpha Z        PSCENC =      5489.43240179
  Ewald energy   TEWEN  =    -88351.16211237
  -Hartree energ DENC   =    -33762.20818336
  -exchange      EXHF   =      3881.36387687
  -V(xc)+E(xc)   XCENC  =      2914.61289729
  PAW double counting   =    121048.24737694  -136399.62316026
  entropy T*S    EENTRO =        -0.00000000
  eigenvalues    EBANDS =     -8742.84295113
  atomic energy  EATOM  =    132975.12501908
  ---------------------------------------------------
  free energy    TOTEN  =      -947.05483516 eV

  energy without entropy =     -947.05483516  energy(sigma->0) =     -947.05483516
  exchange ACFDT corr.  =        -0.00000000  see jH, gK, PRB 81, 115126


--------------------------------------------------------------------------------------------------------




--------------------------------------- Iteration      1(  94)  ---------------------------------------


    POTLOK:  cpu time      1.4765: real time      1.4761
    SETDIJ:  cpu time      0.5304: real time      0.5303
    TRIAL :  cpu time    236.2547: real time    236.2125
    CORREC:  cpu time    238.3362: real time    238.2934
    EDDIAG:  cpu time    234.1390: real time    234.0938
    CHARGE:  cpu time      0.2547: real time      0.2546
    --------------------------------------------
      LOOP:  cpu time    712.0119: real time    711.8814

 eigenvalue-minimisations  :     0
 total energy-change (2. order) :-0.7674338E-05  (-0.3568965E-05)
 number of electron    1053.9998416 magnetization 
 augmentation part      458.6044445 magnetization 

 Free energy of the ion-electron system (eV)
  ---------------------------------------------------
  alpha Z        PSCENC =      5489.43240179
  Ewald energy   TEWEN  =    -88351.16211237
  -Hartree energ DENC   =    -33762.20466422
  -exchange      EXHF   =      3881.36466958
  -V(xc)+E(xc)   XCENC  =      2914.61281002
  PAW double counting   =    121048.26930958  -136399.64603485
  entropy T*S    EENTRO =        -0.00000000
  eigenvalues    EBANDS =     -8742.84715096
  atomic energy  EATOM  =    132975.12501908
  ---------------------------------------------------
  free energy    TOTEN  =      -947.05484283 eV

  energy without entropy =     -947.05484283  energy(sigma->0) =     -947.05484283
  exchange ACFDT corr.  =        -0.00000000  see jH, gK, PRB 81, 115126


--------------------------------------------------------------------------------------------------------


  average scaling for gradient   0.3384


 the core state eigenenergies are
   1-  1s -10216.4735  2s  -1249.7488  2p  -1086.2007  3s   -136.9092  3p    -87.6977
     
   2-  1s -10216.5761  2s  -1249.8481  2p  -1086.3005  3s   -137.0012  3p    -87.7894
     
   3-  1s -10216.4843  2s  -1249.7592  2p  -1086.2112  3s   -136.9205  3p    -87.7091
     
   4-  1s -10216.5719  2s  -1249.8449  2p  -1086.2972  3s   -137.0001  3p    -87.7884
     
   5-  1s -10216.4501  2s  -1249.7246  2p  -1086.1765  3s   -136.8870  3p    -87.6757
     
   6-  1s -10216.5602  2s  -1249.8333  2p  -1086.2856  3s   -136.9882  3p    -87.7765
     
   7-  1s -10216.3982  2s  -1249.6999  2p  -1086.1500  3s   -136.8153  3p    -87.6018
     
   8-  1s -10216.5539  2s  -1249.8258  2p  -1086.2782  3s   -136.9803  3p    -87.7685
     
   9-  1s -10216.4749  2s  -1249.7458  2p  -1086.1984  3s   -136.8957  3p    -87.6837
     
  10-  1s -10216.5858  2s  -1249.8560  2p  -1086.3086  3s   -137.0068  3p    -87.7948
     
  11-  1s -10216.2229  2s  -1249.5029  2p  -1085.9545  3s   -136.6536  3p    -87.4417
     
  12-  1s -10216.5747  2s  -1249.8446  2p  -1086.2973  3s   -136.9936  3p    -87.7815
     
  13-  1s -10216.5668  2s  -1249.9416  2p  -1086.3837  3s   -137.0562  3p    -87.8431
     
  14-  1s -10216.5980  2s  -1249.9753  2p  -1086.4171  3s   -137.0903  3p    -87.8773
     
  15-  1s -10216.5153  2s  -1249.8911  2p  -1086.3330  3s   -137.0083  3p    -87.7953
     
  16-  1s -10216.5688  2s  -1249.9484  2p  -1086.3900  3s   -137.0668  3p    -87.8539
     
  17-  1s -10216.5297  2s  -1249.9028  2p  -1086.3452  3s   -137.0159  3p    -87.8027
     
  18-  1s -10216.5824  2s  -1249.9608  2p  -1086.4025  3s   -137.0773  3p    -87.8643
     
  19-  1s -10216.5175  2s  -1249.8890  2p  -1086.3316  3s   -137.0004  3p    -87.7871
     
  20-  1s -10216.5687  2s  -1249.9405  2p  -1086.3832  3s   -137.0475  3p    -87.8340
     
  21-  1s -10216.5625  2s  -1249.9386  2p  -1086.3806  3s   -137.0534  3p    -87.8403
     
  22-  1s -10216.6093  2s  -1249.9831  2p  -1086.4255  3s   -137.0924  3p    -87.8790
     
  23-  1s -10216.5157  2s  -1249.8921  2p  -1086.3340  3s   -137.0074  3p    -87.7944
     
  24-  1s -10216.5661  2s  -1249.9395  2p  -1086.3819  3s   -137.0478  3p    -87.8344
     
  25-  1s -10216.4148  2s  -1249.6841  2p  -1086.1369  3s   -136.8311  3p    -87.6189
     
  26-  1s -10216.4640  2s  -1249.7361  2p  -1086.1888  3s   -136.8760  3p    -87.6635
     
  27-  1s -10216.4830  2s  -1249.7529  2p  -1086.2056  3s   -136.9050  3p    -87.6931
     
  28-  1s -10216.5158  2s  -1249.7866  2p  -1086.2392  3s   -136.9355  3p    -87.7234
     
  29-  1s -10216.3258  2s  -1249.5967  2p  -1086.0492  3s   -136.7504  3p    -87.5386
     
  30-  1s -10216.3767  2s  -1249.6524  2p  -1086.1046  3s   -136.7975  3p    -87.5853
     
  31-  1s -10216.3346  2s  -1249.6101  2p  -1086.0622  3s   -136.7636  3p    -87.5518
     
  32-  1s -10216.5329  2s  -1249.8041  2p  -1086.2566  3s   -136.9576  3p    -87.7458
     
  33-  1s -10216.4421  2s  -1249.7159  2p  -1086.1680  3s   -136.8768  3p    -87.6653
     
  34-  1s -10216.5317  2s  -1249.8043  2p  -1086.2566  3s   -136.9613  3p    -87.7497
     
  35-  1s -10216.4209  2s  -1249.6938  2p  -1086.1460  3s   -136.8532  3p    -87.6417
     
  36-  1s -10216.5204  2s  -1249.7933  2p  -1086.2455  3s   -136.9507  3p    -87.7391
     
  37-  1s -10216.4700  2s  -1249.8490  2p  -1086.2906  3s   -136.9654  3p    -87.7524
     
  38-  1s -10216.4328  2s  -1249.8260  2p  -1086.2675  3s   -136.8754  3p    -87.6590
     
  39-  1s -10216.5619  2s  -1249.9356  2p  -1086.3779  3s   -137.0465  3p    -87.8331
     
  40-  1s -10216.1390  2s  -1249.5145  2p  -1085.9567  3s   -136.6264  3p    -87.4132
     
  41-  1s -10216.5502  2s  -1249.9240  2p  -1086.3663  3s   -137.0348  3p    -87.8215
     
  42-  1s -10216.5215  2s  -1249.9003  2p  -1086.3419  3s   -137.0190  3p    -87.8062
     
  43-  1s -10216.5426  2s  -1249.9184  2p  -1086.3604  3s   -137.0347  3p    -87.8217
     
  44-  1s -10216.5652  2s  -1249.9417  2p  -1086.3837  3s   -137.0575  3p    -87.8445
     
  45-  1s -10216.5630  2s  -1249.9392  2p  -1086.3811  3s   -137.0538  3p    -87.8407
     
  46-  1s -10216.4995  2s  -1249.8789  2p  -1086.3204  3s   -136.9983  3p    -87.7854
     
  47-  1s -10216.5245  2s  -1249.8996  2p  -1086.3417  3s   -137.0152  3p    -87.8021
     
  48-  1s   -500.6045
  49-  1s   -500.6317
  50-  1s   -500.5074
  51-  1s   -500.5429
  52-  1s   -500.4244
  53-  1s   -500.4997
  54-  1s   -500.4812
  55-  1s   -500.5603
  56-  1s   -500.4757
  57-  1s   -500.5555
  58-  1s   -500.4377
  59-  1s   -500.5508
  60-  1s   -500.7262
  61-  1s   -500.7630
  62-  1s   -500.6086
  63-  1s   -500.7551
  64-  1s   -500.6081
  65-  1s   -500.7606
  66-  1s   -500.5513
  67-  1s   -500.7125
  68-  1s   -500.6363
  69-  1s   -500.7411
  70-  1s   -500.5923
  71-  1s   -500.7104
  72-  1s   -500.1850
  73-  1s   -500.2526
  74-  1s   -500.2629
  75-  1s   -500.2994
  76-  1s   -500.1807
  77-  1s   -500.2711
  78-  1s   -500.2662
  79-  1s   -500.3015
  80-  1s   -500.2293
  81-  1s   -500.2757
  82-  1s   -500.2385
  83-  1s   -500.2731
  84-  1s   -500.5351
  85-  1s   -500.5250
  86-  1s   -500.5213
  87-  1s   -500.5274
  88-  1s   -500.4978
  89-  1s   -500.5141
  90-  1s   -500.5276
  91-  1s   -500.3147
  92-  1s   -500.5267
  93-  1s   -499.4154
  94-  1s   -500.4958
  95-  1s   -500.1036
  96-  1s   -500.6011
  97-  1s   -500.6179
  98-  1s   -500.6734
  99-  1s   -500.5450
 100-  1s   -500.6600
 101-  1s   -500.5627
 102-  1s   -500.6708
 103-  1s   -500.6653
 104-  1s   -500.7051
 105-  1s   -500.5236
 106-  1s   -500.6404
 107-  1s   -500.1757
 108-  1s   -500.2688
 109-  1s   -500.2103
 110-  1s   -500.3128
 111-  1s   -500.1296
 112-  1s   -500.2607
 113-  1s   -500.1258
 114-  1s   -499.8415
 115-  1s   -500.2146
 116-  1s   -500.2231
 117-  1s   -500.2008
 118-  1s   -500.1360
 119-  1s  -8842.2222  2s  -1054.6503  2p   -909.0842  3s   -106.7551  3p    -64.1331
     
 120-  1s   -371.6142
 
 E-fermi :   3.4538     XC(G=0):  -8.8622     alpha+bet :-12.5133

 Fermi energy:         3.4537546195

 k-point     1 :       0.0000    0.0000    0.0000
  band No.  band energies     occupation 
      1     -18.6893      2.00000
      2     -18.4034      2.00000
      3     -18.3485      2.00000
      4     -18.2547      2.00000
      5     -18.1388      2.00000
      6     -18.0049      2.00000
      7     -18.0003      2.00000
      8     -17.9320      2.00000
      9     -17.8429      2.00000
     10     -17.8156      2.00000
     11     -17.8061      2.00000
     12     -17.7581      2.00000
     13     -17.7466      2.00000
     14     -17.7086      2.00000
     15     -17.7039      2.00000
     16     -17.6731      2.00000
     17     -17.6675      2.00000
     18     -17.6474      2.00000
     19     -17.5786      2.00000
     20     -17.5663      2.00000
     21     -17.5630      2.00000
     22     -17.5545      2.00000
     23     -17.5189      2.00000
     24     -17.5150      2.00000
     25     -17.4932      2.00000
     26     -17.4040      2.00000
     27     -17.3984      2.00000
     28     -17.3931      2.00000
     29     -17.3850      2.00000
     30     -17.3762      2.00000
     31     -17.3623      2.00000
     32     -17.3602      2.00000
     33     -17.3353      2.00000
     34     -17.2921      2.00000
     35     -17.2904      2.00000
     36     -17.2802      2.00000
     37     -17.2479      2.00000
     38     -17.2360      2.00000
     39     -17.2218      2.00000
     40     -17.1916      2.00000
     41     -17.1767      2.00000
     42     -17.1720      2.00000
     43     -17.1660      2.00000
     44     -17.1441      2.00000
     45     -17.1105      2.00000
     46     -17.0871      2.00000
     47     -17.0694      2.00000
     48     -17.0611      2.00000
     49     -17.0390      2.00000
     50     -17.0098      2.00000
     51     -17.0060      2.00000
     52     -16.9969      2.00000
     53     -16.9855      2.00000
     54     -16.9617      2.00000
     55     -16.9547      2.00000
     56     -16.9481      2.00000
     57     -16.9352      2.00000
     58     -16.9291      2.00000
     59     -16.9067      2.00000
     60     -16.8997      2.00000
     61     -16.8827      2.00000
     62     -16.8773      2.00000
     63     -16.8658      2.00000
     64     -16.8516      2.00000
     65     -16.8498      2.00000
     66     -16.8189      2.00000
     67     -16.8115      2.00000
     68     -16.7883      2.00000
     69     -16.5527      2.00000
     70     -16.3186      2.00000
     71     -16.2218      2.00000
     72     -13.6787      2.00000
     73     -13.1043      2.00000
     74     -13.0953      2.00000
     75     -13.0889      2.00000
     76     -13.0701      2.00000
     77     -13.0658      2.00000
     78     -13.0538      2.00000
     79     -13.0490      2.00000
     80     -13.0442      2.00000
     81     -13.0382      2.00000
     82     -13.0365      2.00000
     83     -13.0322      2.00000
     84     -13.0227      2.00000
     85     -13.0205      2.00000
     86     -13.0097      2.00000
     87     -13.0032      2.00000
     88     -13.0000      2.00000
     89     -12.9969      2.00000
     90     -12.9927      2.00000
     91     -12.9917      2.00000
     92     -12.9903      2.00000
     93     -12.9826      2.00000
     94     -12.9796      2.00000
     95     -12.9790      2.00000
     96     -12.9756      2.00000
     97     -12.9738      2.00000
     98     -12.9706      2.00000
     99     -12.9668      2.00000
    100     -12.9648      2.00000
    101     -12.9622      2.00000
    102     -12.9577      2.00000
    103     -12.9569      2.00000
    104     -12.9540      2.00000
    105     -12.9524      2.00000
    106     -12.9457      2.00000
    107     -12.9436      2.00000
    108     -12.9432      2.00000
    109     -12.9404      2.00000
    110     -12.9354      2.00000
    111     -12.9340      2.00000
    112     -12.9304      2.00000
    113     -12.9292      2.00000
    114     -12.9256      2.00000
    115     -12.9198      2.00000
    116     -12.9136      2.00000
    117     -12.9083      2.00000
    118     -12.9076      2.00000
    119     -12.8979      2.00000
    120     -12.8932      2.00000
    121     -12.8854      2.00000
    122     -12.8836      2.00000
    123     -12.8790      2.00000
    124     -12.8778      2.00000
    125     -12.8724      2.00000
    126     -12.8702      2.00000
    127     -12.8693      2.00000
    128     -12.8659      2.00000
    129     -12.8641      2.00000
    130     -12.8617      2.00000
    131     -12.8599      2.00000
    132     -12.8467      2.00000
    133     -12.8438      2.00000
    134     -12.8427      2.00000
    135     -12.8416      2.00000
    136     -12.8414      2.00000
    137     -12.8362      2.00000
    138     -12.8347      2.00000
    139     -12.8330      2.00000
    140     -12.8307      2.00000
    141     -12.8271      2.00000
    142     -12.8244      2.00000
    143     -12.8213      2.00000
    144     -12.8201      2.00000
    145     -12.8188      2.00000
    146     -12.8170      2.00000
    147     -12.8163      2.00000
    148     -12.8142      2.00000
    149     -12.8132      2.00000
    150     -12.8097      2.00000
    151     -12.8090      2.00000
    152     -12.8056      2.00000
    153     -12.8043      2.00000
    154     -12.8009      2.00000
    155     -12.7991      2.00000
    156     -12.7980      2.00000
    157     -12.7954      2.00000
    158     -12.7898      2.00000
    159     -12.7891      2.00000
    160     -12.7885      2.00000
    161     -12.7873      2.00000
    162     -12.7859      2.00000
    163     -12.7832      2.00000
    164     -12.7809      2.00000
    165     -12.7790      2.00000
    166     -12.7763      2.00000
    167     -12.7749      2.00000
    168     -12.7726      2.00000
    169     -12.7718      2.00000
    170     -12.7686      2.00000
    171     -12.7655      2.00000
    172     -12.7577      2.00000
    173     -12.7565      2.00000
    174     -12.7507      2.00000
    175     -12.7474      2.00000
    176     -12.7454      2.00000
    177     -12.7438      2.00000
    178     -12.7411      2.00000
    179     -12.7368      2.00000
    180     -12.7280      2.00000
    181     -12.7222      2.00000
    182     -12.7174      2.00000
    183     -12.7148      2.00000
    184     -12.7107      2.00000
    185     -12.7073      2.00000
    186     -12.7064      2.00000
    187     -12.7044      2.00000
    188     -12.7019      2.00000
    189     -12.6969      2.00000
    190     -12.6955      2.00000
    191     -12.6930      2.00000
    192     -12.6917      2.00000
    193     -12.6882      2.00000
    194     -12.6857      2.00000
    195     -12.6840      2.00000
    196     -12.6815      2.00000
    197     -12.6801      2.00000
    198     -12.6785      2.00000
    199     -12.6741      2.00000
    200     -12.6729      2.00000
    201     -12.6699      2.00000
    202     -12.6690      2.00000
    203     -12.6680      2.00000
    204     -12.6667      2.00000
    205     -12.6634      2.00000
    206     -12.6593      2.00000
    207     -12.6571      2.00000
    208     -12.6528      2.00000
    209     -12.6475      2.00000
    210     -12.6467      2.00000
    211     -12.6447      2.00000
    212     -12.6397      2.00000
    213     -12.6376      2.00000
    214     -12.6350      2.00000
    215     -12.6328      2.00000
    216     -12.6254      2.00000
    217     -12.6200      2.00000
    218     -12.6196      2.00000
    219     -12.6180      2.00000
    220     -12.6120      2.00000
    221     -12.6082      2.00000
    222     -12.6036      2.00000
    223     -12.6008      2.00000
    224     -12.5979      2.00000
    225     -12.5934      2.00000
    226     -12.5900      2.00000
    227     -12.5871      2.00000
    228     -12.5821      2.00000
    229     -12.5799      2.00000
    230     -12.5776      2.00000
    231     -12.5747      2.00000
    232     -12.5701      2.00000
    233     -12.5646      2.00000
    234     -12.5623      2.00000
    235     -12.5575      2.00000
    236     -12.5564      2.00000
    237     -12.5534      2.00000
    238     -12.5495      2.00000
    239     -12.5448      2.00000
    240     -12.5429      2.00000
    241     -12.5389      2.00000
    242     -12.5320      2.00000
    243     -12.5240      2.00000
    244     -12.5170      2.00000
    245     -12.5106      2.00000
    246     -12.5061      2.00000
    247     -12.5010      2.00000
    248     -12.4980      2.00000
    249     -12.4903      2.00000
    250     -12.4868      2.00000
    251     -12.4838      2.00000
    252     -12.4812      2.00000
    253     -12.4748      2.00000
    254     -12.4646      2.00000
    255     -12.4595      2.00000
    256     -12.4485      2.00000
    257     -12.4392      2.00000
    258     -12.4345      2.00000
    259     -12.4232      2.00000
    260     -12.4216      2.00000
    261     -12.4147      2.00000
    262     -12.4072      2.00000
    263     -12.4013      2.00000
    264     -12.3907      2.00000
    265     -12.3821      2.00000
    266     -12.3788      2.00000
    267     -12.3669      2.00000
    268     -12.3513      2.00000
    269     -12.3319      2.00000
    270     -12.3219      2.00000
    271     -12.2858      2.00000
    272     -12.2749      2.00000
    273     -12.2667      2.00000
    274     -12.2426      2.00000
    275     -12.2413      2.00000
    276     -12.2336      2.00000
    277     -12.2201      2.00000
    278     -12.2067      2.00000
    279     -12.2022      2.00000
    280     -12.1948      2.00000
    281     -12.1695      2.00000
    282     -12.1534      2.00000
    283     -12.1353      2.00000
    284     -12.0462      2.00000
    285     -12.0170      2.00000
    286     -11.9805      2.00000
    287     -11.9707      2.00000
    288     -11.9672      2.00000
    289     -11.9551      2.00000
    290     -11.9186      2.00000
    291     -11.9133      2.00000
    292     -11.9032      2.00000
    293     -11.8993      2.00000
    294     -11.8982      2.00000
    295     -11.8956      2.00000
    296     -11.8744      2.00000
    297     -11.8551      2.00000
    298     -11.8384      2.00000
    299     -11.8059      2.00000
    300     -11.7843      2.00000
    301     -11.7727      2.00000
    302     -11.7578      2.00000
    303     -11.7322      2.00000
    304     -11.7098      2.00000
    305     -11.6862      2.00000
    306     -11.5539      2.00000
    307     -10.9211      2.00000
    308      -5.2089      2.00000
    309      -5.0832      2.00000
    310      -4.8751      2.00000
    311      -4.8330      2.00000
    312      -4.5514      2.00000
    313      -4.5213      2.00000
    314      -4.4545      2.00000
    315      -4.4377      2.00000
    316      -4.4116      2.00000
    317      -4.3995      2.00000
    318      -4.3247      2.00000
    319      -4.2579      2.00000
    320      -4.2503      2.00000
    321      -4.2241      2.00000
    322      -4.2055      2.00000
    323      -4.1944      2.00000
    324      -4.1759      2.00000
    325      -4.0740      2.00000
    326      -4.0255      2.00000
    327      -3.9531      2.00000
    328      -3.8851      2.00000
    329      -3.8661      2.00000
    330      -3.7831      2.00000
    331      -3.7667      2.00000
    332      -3.7240      2.00000
    333      -3.6766      2.00000
    334      -3.6580      2.00000
    335      -3.5705      2.00000
    336      -3.5595      2.00000
    337      -3.5416      2.00000
    338      -3.5360      2.00000
    339      -3.4947      2.00000
    340      -3.4752      2.00000
    341      -3.2975      2.00000
    342      -3.2272      2.00000
    343      -3.2180      2.00000
    344      -3.1888      2.00000
    345      -3.1824      2.00000
    346      -3.1734      2.00000
    347      -3.1276      2.00000
    348      -3.0701      2.00000
    349      -2.9161      2.00000
    350      -2.8538      2.00000
    351      -2.7550      2.00000
    352      -2.7313      2.00000
    353      -2.6542      2.00000
    354      -2.5411      2.00000
    355      -2.5141      2.00000
    356      -2.4930      2.00000
    357      -2.4697      2.00000
    358      -2.4261      2.00000
    359      -2.3884      2.00000
    360      -2.3577      2.00000
    361      -2.3460      2.00000
    362      -2.3216      2.00000
    363      -2.2928      2.00000
    364      -2.2744      2.00000
    365      -2.2567      2.00000
    366      -2.1804      2.00000
    367      -2.0730      2.00000
    368      -2.0239      2.00000
    369      -2.0082      2.00000
    370      -1.9869      2.00000
    371      -1.9609      2.00000
    372      -1.8829      2.00000
    373      -1.8460      2.00000
    374      -1.7773      2.00000
    375      -1.7584      2.00000
    376      -1.7226      2.00000
    377      -1.7021      2.00000
    378      -1.6531      2.00000
    379      -1.6268      2.00000
    380      -1.6177      2.00000
    381      -1.6094      2.00000
    382      -1.5842      2.00000
    383      -1.5070      2.00000
    384      -1.5026      2.00000
    385      -1.4212      2.00000
    386      -1.3520      2.00000
    387      -1.3171      2.00000
    388      -1.2482      2.00000
    389      -1.2155      2.00000
    390      -1.1877      2.00000
    391      -1.1418      2.00000
    392      -1.1007      2.00000
    393      -1.0799      2.00000
    394      -1.0485      2.00000
    395      -1.0032      2.00000
    396      -0.9853      2.00000
    397      -0.9575      2.00000
    398      -0.9392      2.00000
    399      -0.8968      2.00000
    400      -0.8655      2.00000
    401      -0.8349      2.00000
    402      -0.7935      2.00000
    403      -0.7436      2.00000
    404      -0.6636      2.00000
    405      -0.6425      2.00000
    406      -0.6271      2.00000
    407      -0.6083      2.00000
    408      -0.5898      2.00000
    409      -0.5659      2.00000
    410      -0.5533      2.00000
    411      -0.5436      2.00000
    412      -0.5116      2.00000
    413      -0.4817      2.00000
    414      -0.4588      2.00000
    415      -0.4284      2.00000
    416      -0.3890      2.00000
    417      -0.3392      2.00000
    418      -0.3124      2.00000
    419      -0.2837      2.00000
    420      -0.2785      2.00000
    421      -0.2652      2.00000
    422      -0.2462      2.00000
    423      -0.2381      2.00000
    424      -0.2113      2.00000
    425      -0.1937      2.00000
    426      -0.1803      2.00000
    427      -0.1641      2.00000
    428      -0.1348      2.00000
    429      -0.1207      2.00000
    430      -0.0969      2.00000
    431      -0.0753      2.00000
    432      -0.0651      2.00000
    433      -0.0285      2.00000
    434      -0.0157      2.00000
    435       0.0045      2.00000
    436       0.0338      2.00000
    437       0.0662      2.00000
    438       0.0761      2.00000
    439       0.0904      2.00000
    440       0.1089      2.00000
    441       0.1723      2.00000
    442       0.1859      2.00000
    443       0.2171      2.00000
    444       0.2686      2.00000
    445       0.3342      2.00000
    446       0.3664      2.00000
    447       0.4062      2.00000
    448       0.4332      2.00000
    449       0.5049      2.00000
    450       0.5363      2.00000
    451       0.5492      2.00000
    452       0.5655      2.00000
    453       0.5927      2.00000
    454       0.6167      2.00000
    455       0.6347      2.00000
    456       0.6496      2.00000
    457       0.6544      2.00000
    458       0.6972      2.00000
    459       0.7104      2.00000
    460       0.7551      2.00000
    461       0.7786      2.00000
    462       0.7862      2.00000
    463       0.7955      2.00000
    464       0.8136      2.00000
    465       0.8582      2.00000
    466       0.8628      2.00000
    467       0.8783      2.00000
    468       0.8874      2.00000
    469       0.9085      2.00000
    470       0.9225      2.00000
    471       0.9406      2.00000
    472       0.9452      2.00000
    473       0.9572      2.00000
    474       1.0116      2.00000
    475       1.0363      2.00000
    476       1.0597      2.00000
    477       1.0794      2.00000
    478       1.1026      2.00000
    479       1.1736      2.00000
    480       1.1897      2.00000
    481       1.1969      2.00000
    482       1.2066      2.00000
    483       1.2323      2.00000
    484       1.2474      2.00000
    485       1.2597      2.00000
    486       1.2698      2.00000
    487       1.3172      2.00000
    488       1.3247      2.00000
    489       1.3315      2.00000
    490       1.3351      2.00000
    491       1.3617      2.00000
    492       1.3936      2.00000
    493       1.3979      2.00000
    494       1.4025      2.00000
    495       1.4141      2.00000
    496       1.4381      2.00000
    497       1.4529      2.00000
    498       1.4721      2.00000
    499       1.4940      2.00000
    500       1.5245      2.00000
    501       1.5362      2.00000
    502       1.5421      2.00000
    503       1.5584      2.00000
    504       1.5677      2.00000
    505       1.5993      2.00000
    506       1.6111      2.00000
    507       1.6325      2.00000
    508       1.6402      2.00000
    509       1.6770      2.00000
    510       1.6891      2.00000
    511       1.7080      2.00000
    512       1.7278      2.00000
    513       1.7386      2.00000
    514       1.7604      2.00000
    515       1.7912      2.00000
    516       1.8044      2.00000
    517       1.8285      2.00000
    518       1.8609      2.00000
    519       1.8919      2.00000
    520       1.8958      2.00000
    521       1.9876      2.00000
    522       2.0405      2.00000
    523       2.1041      2.00000
    524       2.2030      2.00000
    525       2.6791      2.00000
    526       2.8693      2.00000
    527       3.2107      2.00000
    528       5.5485      0.00000
    529       6.7875      0.00000
    530       9.0225      0.00000
    531       9.2522      0.00000
    532       9.2667      0.00000
    533       9.4363      0.00000
    534       9.6979      0.00000
    535       9.8953      0.00000
    536      10.2621      0.00000
    537      10.2702      0.00000
    538      10.2925      0.00000
    539      10.3486      0.00000
    540      10.4115      0.00000
    541      10.4565      0.00000
    542      10.5627      0.00000
    543      10.6667      0.00000
    544      10.7766      0.00000
    545      10.7845      0.00000
    546      10.8561      0.00000
    547      10.8701      0.00000
    548      10.8790      0.00000
    549      10.9155      0.00000
    550      10.9336      0.00000
    551      11.0486      0.00000
    552      11.0757      0.00000
    553      11.1729      0.00000
    554      11.2068      0.00000
    555      11.2703      0.00000
    556      11.4037      0.00000
    557      11.4218      0.00000
    558      11.4754      0.00000
    559      11.4840      0.00000
    560      11.5477      0.00000
    561      11.6949      0.00000
    562      11.7125      0.00000
    563      11.7133      0.00000
    564      11.8784      0.00000
    565      12.0141      0.00000
    566      12.0681      0.00000
    567      12.0761      0.00000
    568      12.1168      0.00000
    569      12.1995      0.00000
    570      12.2250      0.00000
    571      12.2969      0.00000
    572      12.3395      0.00000
    573      12.3588      0.00000
    574      12.4138      0.00000
    575      12.4689      0.00000
    576      12.5271      0.00000
    577      12.5709      0.00000
    578      12.6962      0.00000
    579      12.9986      0.00000
    580      13.1267      0.00000
    581      13.1645      0.00000
    582      13.2064      0.00000
    583      13.2846      0.00000
    584      13.3051      0.00000
    585      13.3500      0.00000
    586      13.3717      0.00000
    587      13.4431      0.00000
    588      13.5187      0.00000
    589      13.5634      0.00000
    590      13.6021      0.00000
    591      13.7012      0.00000
    592      13.7528      0.00000
    593      13.7842      0.00000
    594      13.8074      0.00000
    595      13.8949      0.00000
    596      13.9257      0.00000
    597      13.9444      0.00000
    598      13.9915      0.00000
    599      14.0352      0.00000
    600      14.0856      0.00000
    601      14.1186      0.00000
    602      14.1426      0.00000
    603      14.1882      0.00000
    604      14.2007      0.00000
    605      14.2736      0.00000
    606      14.3574      0.00000
    607      14.3821      0.00000
    608      14.4665      0.00000
    609      14.5238      0.00000
    610      14.5741      0.00000
    611      14.6597      0.00000
    612      14.7385      0.00000
    613      14.7862      0.00000
    614      14.8523      0.00000
    615      14.8852      0.00000
    616      14.9332      0.00000
    617      15.0392      0.00000
    618      15.1013      0.00000
    619      15.1481      0.00000
    620      15.2081      0.00000
    621      15.3125      0.00000
    622      15.3816      0.00000
    623      15.5246      0.00000
    624      15.5810      0.00000
    625      15.7886      0.00000
    626      15.9888      0.00000
    627      16.0623      0.00000
    628      16.0965      0.00000
    629      16.1944      0.00000
    630      16.2930      0.00000
    631      16.4541      0.00000
    632      16.5602      0.00000

 k-point     2 :       0.5000    0.0000    0.0000
  band No.  band energies     occupation 
      1     -18.6165      2.00000
      2     -18.5299      2.00000
      3     -18.3685      2.00000
      4     -18.3087      2.00000
      5     -17.9608      2.00000
      6     -17.9582      2.00000
      7     -17.9031      2.00000
      8     -17.8916      2.00000
      9     -17.8906      2.00000
     10     -17.8637      2.00000
     11     -17.8215      2.00000
     12     -17.8035      2.00000
     13     -17.7850      2.00000
     14     -17.7701      2.00000
     15     -17.7297      2.00000
     16     -17.7175      2.00000
     17     -17.6453      2.00000
     18     -17.6123      2.00000
     19     -17.5635      2.00000
     20     -17.5582      2.00000
     21     -17.5506      2.00000
     22     -17.5220      2.00000
     23     -17.5163      2.00000
     24     -17.5062      2.00000
     25     -17.5024      2.00000
     26     -17.4657      2.00000
     27     -17.4492      2.00000
     28     -17.3805      2.00000
     29     -17.3757      2.00000
     30     -17.3681      2.00000
     31     -17.3565      2.00000
     32     -17.3490      2.00000
     33     -17.3269      2.00000
     34     -17.3197      2.00000
     35     -17.2958      2.00000
     36     -17.2477      2.00000
     37     -17.2398      2.00000
     38     -17.2240      2.00000
     39     -17.2142      2.00000
     40     -17.1872      2.00000
     41     -17.1744      2.00000
     42     -17.1659      2.00000
     43     -17.1525      2.00000
     44     -17.1475      2.00000
     45     -17.1131      2.00000
     46     -17.0946      2.00000
     47     -17.0699      2.00000
     48     -17.0591      2.00000
     49     -17.0511      2.00000
     50     -17.0131      2.00000
     51     -17.0110      2.00000
     52     -16.9971      2.00000
     53     -16.9850      2.00000
     54     -16.9601      2.00000
     55     -16.9558      2.00000
     56     -16.9478      2.00000
     57     -16.9354      2.00000
     58     -16.9291      2.00000
     59     -16.9052      2.00000
     60     -16.9004      2.00000
     61     -16.8830      2.00000
     62     -16.8770      2.00000
     63     -16.8656      2.00000
     64     -16.8516      2.00000
     65     -16.8500      2.00000
     66     -16.8174      2.00000
     67     -16.8090      2.00000
     68     -16.7923      2.00000
     69     -16.5526      2.00000
     70     -16.3186      2.00000
     71     -16.2221      2.00000
     72     -13.6787      2.00000
     73     -13.1062      2.00000
     74     -13.0953      2.00000
     75     -13.0782      2.00000
     76     -13.0697      2.00000
     77     -13.0612      2.00000
     78     -13.0541      2.00000
     79     -13.0490      2.00000
     80     -13.0439      2.00000
     81     -13.0393      2.00000
     82     -13.0366      2.00000
     83     -13.0282      2.00000
     84     -13.0244      2.00000
     85     -13.0214      2.00000
     86     -13.0099      2.00000
     87     -13.0078      2.00000
     88     -13.0043      2.00000
     89     -12.9977      2.00000
     90     -12.9938      2.00000
     91     -12.9921      2.00000
     92     -12.9859      2.00000
     93     -12.9848      2.00000
     94     -12.9818      2.00000
     95     -12.9770      2.00000
     96     -12.9746      2.00000
     97     -12.9738      2.00000
     98     -12.9714      2.00000
     99     -12.9684      2.00000
    100     -12.9662      2.00000
    101     -12.9584      2.00000
    102     -12.9581      2.00000
    103     -12.9569      2.00000
    104     -12.9547      2.00000
    105     -12.9494      2.00000
    106     -12.9454      2.00000
    107     -12.9438      2.00000
    108     -12.9427      2.00000
    109     -12.9410      2.00000
    110     -12.9342      2.00000
    111     -12.9321      2.00000
    112     -12.9294      2.00000
    113     -12.9249      2.00000
    114     -12.9183      2.00000
    115     -12.9162      2.00000
    116     -12.9130      2.00000
    117     -12.9106      2.00000
    118     -12.9084      2.00000
    119     -12.8971      2.00000
    120     -12.8929      2.00000
    121     -12.8850      2.00000
    122     -12.8837      2.00000
    123     -12.8795      2.00000
    124     -12.8733      2.00000
    125     -12.8725      2.00000
    126     -12.8712      2.00000
    127     -12.8675      2.00000
    128     -12.8652      2.00000
    129     -12.8635      2.00000
    130     -12.8604      2.00000
    131     -12.8571      2.00000
    132     -12.8457      2.00000
    133     -12.8445      2.00000
    134     -12.8426      2.00000
    135     -12.8424      2.00000
    136     -12.8400      2.00000
    137     -12.8389      2.00000
    138     -12.8365      2.00000
    139     -12.8342      2.00000
    140     -12.8326      2.00000
    141     -12.8289      2.00000
    142     -12.8276      2.00000
    143     -12.8219      2.00000
    144     -12.8208      2.00000
    145     -12.8187      2.00000
    146     -12.8162      2.00000
    147     -12.8137      2.00000
    148     -12.8131      2.00000
    149     -12.8119      2.00000
    150     -12.8085      2.00000
    151     -12.8067      2.00000
    152     -12.8023      2.00000
    153     -12.7994      2.00000
    154     -12.7984      2.00000
    155     -12.7976      2.00000
    156     -12.7957      2.00000
    157     -12.7931      2.00000
    158     -12.7907      2.00000
    159     -12.7895      2.00000
    160     -12.7885      2.00000
    161     -12.7861      2.00000
    162     -12.7828      2.00000
    163     -12.7813      2.00000
    164     -12.7790      2.00000
    165     -12.7756      2.00000
    166     -12.7732      2.00000
    167     -12.7718      2.00000
    168     -12.7690      2.00000
    169     -12.7671      2.00000
    170     -12.7655      2.00000
    171     -12.7616      2.00000
    172     -12.7590      2.00000
    173     -12.7524      2.00000
    174     -12.7502      2.00000
    175     -12.7493      2.00000
    176     -12.7456      2.00000
    177     -12.7442      2.00000
    178     -12.7400      2.00000
    179     -12.7372      2.00000
    180     -12.7299      2.00000
    181     -12.7273      2.00000
    182     -12.7230      2.00000
    183     -12.7150      2.00000
    184     -12.7099      2.00000
    185     -12.7080      2.00000
    186     -12.7071      2.00000
    187     -12.7053      2.00000
    188     -12.7009      2.00000
    189     -12.6991      2.00000
    190     -12.6977      2.00000
    191     -12.6947      2.00000
    192     -12.6933      2.00000
    193     -12.6889      2.00000
    194     -12.6854      2.00000
    195     -12.6852      2.00000
    196     -12.6818      2.00000
    197     -12.6795      2.00000
    198     -12.6764      2.00000
    199     -12.6730      2.00000
    200     -12.6715      2.00000
    201     -12.6704      2.00000
    202     -12.6690      2.00000
    203     -12.6687      2.00000
    204     -12.6676      2.00000
    205     -12.6655      2.00000
    206     -12.6642      2.00000
    207     -12.6585      2.00000
    208     -12.6549      2.00000
    209     -12.6506      2.00000
    210     -12.6458      2.00000
    211     -12.6449      2.00000
    212     -12.6436      2.00000
    213     -12.6385      2.00000
    214     -12.6294      2.00000
    215     -12.6284      2.00000
    216     -12.6247      2.00000
    217     -12.6229      2.00000
    218     -12.6196      2.00000
    219     -12.6163      2.00000
    220     -12.6137      2.00000
    221     -12.6095      2.00000
    222     -12.6076      2.00000
    223     -12.6032      2.00000
    224     -12.5958      2.00000
    225     -12.5939      2.00000
    226     -12.5887      2.00000
    227     -12.5866      2.00000
    228     -12.5835      2.00000
    229     -12.5810      2.00000
    230     -12.5769      2.00000
    231     -12.5746      2.00000
    232     -12.5720      2.00000
    233     -12.5679      2.00000
    234     -12.5653      2.00000
    235     -12.5608      2.00000
    236     -12.5593      2.00000
    237     -12.5559      2.00000
    238     -12.5460      2.00000
    239     -12.5439      2.00000
    240     -12.5409      2.00000
    241     -12.5349      2.00000
    242     -12.5294      2.00000
    243     -12.5278      2.00000
    244     -12.5231      2.00000
    245     -12.5194      2.00000
    246     -12.5130      2.00000
    247     -12.5081      2.00000
    248     -12.4971      2.00000
    249     -12.4911      2.00000
    250     -12.4903      2.00000
    251     -12.4863      2.00000
    252     -12.4842      2.00000
    253     -12.4772      2.00000
    254     -12.4745      2.00000
    255     -12.4674      2.00000
    256     -12.4628      2.00000
    257     -12.4542      2.00000
    258     -12.4480      2.00000
    259     -12.4417      2.00000
    260     -12.4367      2.00000
    261     -12.4208      2.00000
    262     -12.4177      2.00000
    263     -12.4083      2.00000
    264     -12.4012      2.00000
    265     -12.3936      2.00000
    266     -12.3910      2.00000
    267     -12.3868      2.00000
    268     -12.3785      2.00000
    269     -12.3666      2.00000
    270     -12.3616      2.00000
    271     -12.3304      2.00000
    272     -12.3236      2.00000
    273     -12.2948      2.00000
    274     -12.2011      2.00000
    275     -12.1940      2.00000
    276     -12.1906      2.00000
    277     -12.1830      2.00000
    278     -12.1768      2.00000
    279     -12.1594      2.00000
    280     -12.1225      2.00000
    281     -12.1146      2.00000
    282     -12.1046      2.00000
    283     -12.0617      2.00000
    284     -12.0280      2.00000
    285     -12.0209      2.00000
    286     -11.9977      2.00000
    287     -11.9829      2.00000
    288     -11.9757      2.00000
    289     -11.9674      2.00000
    290     -11.9317      2.00000
    291     -11.9179      2.00000
    292     -11.9006      2.00000
    293     -11.8924      2.00000
    294     -11.8772      2.00000
    295     -11.8511      2.00000
    296     -11.8421      2.00000
    297     -11.8337      2.00000
    298     -11.8191      2.00000
    299     -11.8093      2.00000
    300     -11.7986      2.00000
    301     -11.7742      2.00000
    302     -11.7627      2.00000
    303     -11.7477      2.00000
    304     -11.7369      2.00000
    305     -11.7251      2.00000
    306     -11.6335      2.00000
    307     -10.9257      2.00000
    308      -5.2016      2.00000
    309      -5.0722      2.00000
    310      -4.7614      2.00000
    311      -4.7511      2.00000
    312      -4.6754      2.00000
    313      -4.6024      2.00000
    314      -4.3657      2.00000
    315      -4.3615      2.00000
    316      -4.3079      2.00000
    317      -4.2833      2.00000
    318      -4.2781      2.00000
    319      -4.2533      2.00000
    320      -4.2327      2.00000
    321      -4.2067      2.00000
    322      -4.1853      2.00000
    323      -4.1604      2.00000
    324      -4.1403      2.00000
    325      -4.1376      2.00000
    326      -4.1302      2.00000
    327      -4.0942      2.00000
    328      -4.0728      2.00000
    329      -4.0671      2.00000
    330      -4.0460      2.00000
    331      -4.0358      2.00000
    332      -3.9286      2.00000
    333      -3.7575      2.00000
    334      -3.6230      2.00000
    335      -3.5547      2.00000
    336      -3.4338      2.00000
    337      -3.4196      2.00000
    338      -3.3901      2.00000
    339      -3.3327      2.00000
    340      -3.2348      2.00000
    341      -3.2215      2.00000
    342      -3.1792      2.00000
    343      -3.1711      2.00000
    344      -3.1311      2.00000
    345      -3.1144      2.00000
    346      -3.0964      2.00000
    347      -3.0587      2.00000
    348      -3.0393      2.00000
    349      -3.0037      2.00000
    350      -2.9666      2.00000
    351      -2.7447      2.00000
    352      -2.7036      2.00000
    353      -2.6691      2.00000
    354      -2.6586      2.00000
    355      -2.5863      2.00000
    356      -2.5667      2.00000
    357      -2.5272      2.00000
    358      -2.5178      2.00000
    359      -2.4796      2.00000
    360      -2.4605      2.00000
    361      -2.2686      2.00000
    362      -2.2442      2.00000
    363      -2.2384      2.00000
    364      -2.2199      2.00000
    365      -2.1973      2.00000
    366      -2.1085      2.00000
    367      -2.0878      2.00000
    368      -2.0625      2.00000
    369      -2.0006      2.00000
    370      -1.9152      2.00000
    371      -1.8649      2.00000
    372      -1.8317      2.00000
    373      -1.8126      2.00000
    374      -1.7815      2.00000
    375      -1.7365      2.00000
    376      -1.7050      2.00000
    377      -1.6692      2.00000
    378      -1.6482      2.00000
    379      -1.6000      2.00000
    380      -1.5079      2.00000
    381      -1.4598      2.00000
    382      -1.4441      2.00000
    383      -1.4347      2.00000
    384      -1.4143      2.00000
    385      -1.3895      2.00000
    386      -1.3489      2.00000
    387      -1.2757      2.00000
    388      -1.2548      2.00000
    389      -1.2393      2.00000
    390      -1.1828      2.00000
    391      -1.1526      2.00000
    392      -1.1253      2.00000
    393      -1.0883      2.00000
    394      -1.0610      2.00000
    395      -1.0361      2.00000
    396      -0.9963      2.00000
    397      -0.9901      2.00000
    398      -0.9608      2.00000
    399      -0.9432      2.00000
    400      -0.9134      2.00000
    401      -0.8842      2.00000
    402      -0.8675      2.00000
    403      -0.8293      2.00000
    404      -0.8187      2.00000
    405      -0.7988      2.00000
    406      -0.7470      2.00000
    407      -0.7129      2.00000
    408      -0.6988      2.00000
    409      -0.6511      2.00000
    410      -0.6381      2.00000
    411      -0.6148      2.00000
    412      -0.5944      2.00000
    413      -0.5755      2.00000
    414      -0.5486      2.00000
    415      -0.5258      2.00000
    416      -0.5158      2.00000
    417      -0.4414      2.00000
    418      -0.4017      2.00000
    419      -0.3631      2.00000
    420      -0.2917      2.00000
    421      -0.2634      2.00000
    422      -0.2411      2.00000
    423      -0.2136      2.00000
    424      -0.1947      2.00000
    425      -0.1784      2.00000
    426      -0.1648      2.00000
    427      -0.1472      2.00000
    428      -0.1200      2.00000
    429      -0.0761      2.00000
    430      -0.0417      2.00000
    431      -0.0123      2.00000
    432       0.0125      2.00000
    433       0.0211      2.00000
    434       0.0626      2.00000
    435       0.0698      2.00000
    436       0.0867      2.00000
    437       0.0985      2.00000
    438       0.1098      2.00000
    439       0.1275      2.00000
    440       0.1497      2.00000
    441       0.1630      2.00000
    442       0.1837      2.00000
    443       0.2218      2.00000
    444       0.2304      2.00000
    445       0.2514      2.00000
    446       0.2913      2.00000
    447       0.3597      2.00000
    448       0.4708      2.00000
    449       0.5124      2.00000
    450       0.5871      2.00000
    451       0.6015      2.00000
    452       0.6212      2.00000
    453       0.6281      2.00000
    454       0.6383      2.00000
    455       0.6503      2.00000
    456       0.7336      2.00000
    457       0.7432      2.00000
    458       0.7504      2.00000
    459       0.7658      2.00000
    460       0.7965      2.00000
    461       0.8001      2.00000
    462       0.8405      2.00000
    463       0.8701      2.00000
    464       0.8834      2.00000
    465       0.8935      2.00000
    466       0.9054      2.00000
    467       0.9353      2.00000
    468       0.9578      2.00000
    469       0.9991      2.00000
    470       1.0061      2.00000
    471       1.0406      2.00000
    472       1.0493      2.00000
    473       1.0568      2.00000
    474       1.0934      2.00000
    475       1.0994      2.00000
    476       1.1193      2.00000
    477       1.1290      2.00000
    478       1.1667      2.00000
    479       1.1867      2.00000
    480       1.1984      2.00000
    481       1.2040      2.00000
    482       1.2269      2.00000
    483       1.2312      2.00000
    484       1.2384      2.00000
    485       1.2601      2.00000
    486       1.2745      2.00000
    487       1.2879      2.00000
    488       1.3005      2.00000
    489       1.3100      2.00000
    490       1.3325      2.00000
    491       1.3402      2.00000
    492       1.3612      2.00000
    493       1.3689      2.00000
    494       1.3906      2.00000
    495       1.4029      2.00000
    496       1.4095      2.00000
    497       1.4362      2.00000
    498       1.4434      2.00000
    499       1.4710      2.00000
    500       1.4769      2.00000
    501       1.4788      2.00000
    502       1.4885      2.00000
    503       1.4998      2.00000
    504       1.5144      2.00000
    505       1.5255      2.00000
    506       1.5379      2.00000
    507       1.5551      2.00000
    508       1.5827      2.00000
    509       1.6293      2.00000
    510       1.6459      2.00000
    511       1.6570      2.00000
    512       1.6686      2.00000
    513       1.6952      2.00000
    514       1.6983      2.00000
    515       1.7348      2.00000
    516       1.8046      2.00000
    517       1.8762      2.00000
    518       1.8882      2.00000
    519       1.9153      2.00000
    520       1.9298      2.00000
    521       1.9527      2.00000
    522       1.9809      2.00000
    523       2.0957      2.00000
    524       2.1925      2.00000
    525       2.6772      2.00000
    526       2.8397      2.00000
    527       3.2063      2.00000
    528       5.5459      0.00000
    529       7.5620      0.00000
    530       7.6524      0.00000
    531       9.2780      0.00000
    532       9.3512      0.00000
    533       9.7913      0.00000
    534       9.9761      0.00000
    535      10.0949      0.00000
    536      10.2179      0.00000
    537      10.2289      0.00000
    538      10.2640      0.00000
    539      10.3148      0.00000
    540      10.4051      0.00000
    541      10.6213      0.00000
    542      10.6267      0.00000
    543      10.6776      0.00000
    544      10.6890      0.00000
    545      10.7394      0.00000
    546      10.8127      0.00000
    547      10.8812      0.00000
    548      10.9022      0.00000
    549      10.9136      0.00000
    550      10.9444      0.00000
    551      11.0179      0.00000
    552      11.0640      0.00000
    553      11.2614      0.00000
    554      11.2823      0.00000
    555      11.3002      0.00000
    556      11.3023      0.00000
    557      11.3813      0.00000
    558      11.3844      0.00000
    559      11.4142      0.00000
    560      11.4204      0.00000
    561      11.5357      0.00000
    562      11.6064      0.00000
    563      11.6087      0.00000
    564      11.8519      0.00000
    565      12.0491      0.00000
    566      12.1641      0.00000
    567      12.2653      0.00000
    568      12.3798      0.00000
    569      12.4181      0.00000
    570      12.4745      0.00000
    571      12.4881      0.00000
    572      12.5065      0.00000
    573      12.5134      0.00000
    574      12.5317      0.00000
    575      12.5590      0.00000
    576      12.5789      0.00000
    577      12.6573      0.00000
    578      12.6983      0.00000
    579      12.8660      0.00000
    580      12.8717      0.00000
    581      12.8765      0.00000
    582      13.0552      0.00000
    583      13.1150      0.00000
    584      13.1206      0.00000
    585      13.3199      0.00000
    586      13.3807      0.00000
    587      13.3896      0.00000
    588      13.4900      0.00000
    589      13.5502      0.00000
    590      13.5852      0.00000
    591      13.6024      0.00000
    592      13.6619      0.00000
    593      13.7208      0.00000
    594      13.7499      0.00000
    595      13.8091      0.00000
    596      13.8840      0.00000
    597      13.9122      0.00000
    598      13.9437      0.00000
    599      13.9807      0.00000
    600      14.0390      0.00000
    601      14.1117      0.00000
    602      14.1258      0.00000
    603      14.1295      0.00000
    604      14.1994      0.00000
    605      14.2716      0.00000
    606      14.2995      0.00000
    607      14.3471      0.00000
    608      14.4406      0.00000
    609      14.4869      0.00000
    610      14.5306      0.00000
    611      14.5882      0.00000
    612      14.7004      0.00000
    613      14.8281      0.00000
    614      14.9054      0.00000
    615      15.0374      0.00000
    616      15.0945      0.00000
    617      15.1532      0.00000
    618      15.2146      0.00000
    619      15.2974      0.00000
    620      15.3884      0.00000
    621      15.5154      0.00000
    622      15.5873      0.00000
    623      15.7417      0.00000
    624      15.7996      0.00000
    625      15.8940      0.00000
    626      15.9684      0.00000
    627      16.0322      0.00000
    628      16.1120      0.00000
    629      16.2752      0.00000
    630      16.3107      0.00000
    631      16.4601      0.00000
    632      16.6384      0.00000

 k-point     3 :       0.0000    0.5000    0.0000
  band No.  band energies     occupation 
      1     -18.5067      2.00000
      2     -18.4691      2.00000
      3     -18.2487      2.00000
      4     -18.2068      2.00000
      5     -18.1865      2.00000
      6     -18.1493      2.00000
      7     -18.1139      2.00000
      8     -18.0330      2.00000
      9     -18.0147      2.00000
     10     -17.9749      2.00000
     11     -17.8260      2.00000
     12     -17.7924      2.00000
     13     -17.7441      2.00000
     14     -17.7027      2.00000
     15     -17.6360      2.00000
     16     -17.5964      2.00000
     17     -17.5787      2.00000
     18     -17.5543      2.00000
     19     -17.5115      2.00000
     20     -17.5099      2.00000
     21     -17.5061      2.00000
     22     -17.4962      2.00000
     23     -17.4886      2.00000
     24     -17.4652      2.00000
     25     -17.4609      2.00000
     26     -17.4560      2.00000
     27     -17.4367      2.00000
     28     -17.4169      2.00000
     29     -17.3716      2.00000
     30     -17.3687      2.00000
     31     -17.3413      2.00000
     32     -17.3270      2.00000
     33     -17.2935      2.00000
     34     -17.2854      2.00000
     35     -17.2809      2.00000
     36     -17.2615      2.00000
     37     -17.2599      2.00000
     38     -17.2496      2.00000
     39     -17.2265      2.00000
     40     -17.2194      2.00000
     41     -17.2109      2.00000
     42     -17.2028      2.00000
     43     -17.1688      2.00000
     44     -17.1617      2.00000
     45     -17.1497      2.00000
     46     -17.1273      2.00000
     47     -17.0908      2.00000
     48     -17.0544      2.00000
     49     -17.0414      2.00000
     50     -17.0213      2.00000
     51     -16.9856      2.00000
     52     -16.9802      2.00000
     53     -16.9751      2.00000
     54     -16.9663      2.00000
     55     -16.9569      2.00000
     56     -16.9429      2.00000
     57     -16.9318      2.00000
     58     -16.9264      2.00000
     59     -16.9128      2.00000
     60     -16.8945      2.00000
     61     -16.8840      2.00000
     62     -16.8745      2.00000
     63     -16.8541      2.00000
     64     -16.8443      2.00000
     65     -16.8346      2.00000
     66     -16.8256      2.00000
     67     -16.8113      2.00000
     68     -16.7951      2.00000
     69     -16.5553      2.00000
     70     -16.3172      2.00000
     71     -16.2217      2.00000
     72     -13.6791      2.00000
     73     -13.0981      2.00000
     74     -13.0918      2.00000
     75     -13.0692      2.00000
     76     -13.0633      2.00000
     77     -13.0622      2.00000
     78     -13.0578      2.00000
     79     -13.0528      2.00000
     80     -13.0496      2.00000
     81     -13.0303      2.00000
     82     -13.0282      2.00000
     83     -13.0258      2.00000
     84     -13.0238      2.00000
     85     -13.0237      2.00000
     86     -13.0169      2.00000
     87     -13.0138      2.00000
     88     -13.0083      2.00000
     89     -13.0048      2.00000
     90     -13.0015      2.00000
     91     -12.9982      2.00000
     92     -12.9967      2.00000
     93     -12.9931      2.00000
     94     -12.9867      2.00000
     95     -12.9838      2.00000
     96     -12.9815      2.00000
     97     -12.9798      2.00000
     98     -12.9761      2.00000
     99     -12.9728      2.00000
    100     -12.9690      2.00000
    101     -12.9627      2.00000
    102     -12.9591      2.00000
    103     -12.9573      2.00000
    104     -12.9548      2.00000
    105     -12.9513      2.00000
    106     -12.9425      2.00000
    107     -12.9413      2.00000
    108     -12.9397      2.00000
    109     -12.9381      2.00000
    110     -12.9360      2.00000
    111     -12.9321      2.00000
    112     -12.9307      2.00000
    113     -12.9267      2.00000
    114     -12.9236      2.00000
    115     -12.9209      2.00000
    116     -12.9174      2.00000
    117     -12.9125      2.00000
    118     -12.9092      2.00000
    119     -12.9069      2.00000
    120     -12.8988      2.00000
    121     -12.8965      2.00000
    122     -12.8963      2.00000
    123     -12.8946      2.00000
    124     -12.8848      2.00000
    125     -12.8818      2.00000
    126     -12.8790      2.00000
    127     -12.8784      2.00000
    128     -12.8766      2.00000
    129     -12.8688      2.00000
    130     -12.8654      2.00000
    131     -12.8634      2.00000
    132     -12.8592      2.00000
    133     -12.8545      2.00000
    134     -12.8537      2.00000
    135     -12.8513      2.00000
    136     -12.8473      2.00000
    137     -12.8449      2.00000
    138     -12.8423      2.00000
    139     -12.8390      2.00000
    140     -12.8344      2.00000
    141     -12.8332      2.00000
    142     -12.8274      2.00000
    143     -12.8256      2.00000
    144     -12.8246      2.00000
    145     -12.8202      2.00000
    146     -12.8177      2.00000
    147     -12.8159      2.00000
    148     -12.8150      2.00000
    149     -12.8130      2.00000
    150     -12.8100      2.00000
    151     -12.8089      2.00000
    152     -12.8042      2.00000
    153     -12.8003      2.00000
    154     -12.7970      2.00000
    155     -12.7955      2.00000
    156     -12.7935      2.00000
    157     -12.7881      2.00000
    158     -12.7850      2.00000
    159     -12.7824      2.00000
    160     -12.7807      2.00000
    161     -12.7774      2.00000
    162     -12.7756      2.00000
    163     -12.7731      2.00000
    164     -12.7701      2.00000
    165     -12.7671      2.00000
    166     -12.7651      2.00000
    167     -12.7622      2.00000
    168     -12.7610      2.00000
    169     -12.7576      2.00000
    170     -12.7575      2.00000
    171     -12.7558      2.00000
    172     -12.7531      2.00000
    173     -12.7498      2.00000
    174     -12.7483      2.00000
    175     -12.7478      2.00000
    176     -12.7447      2.00000
    177     -12.7424      2.00000
    178     -12.7407      2.00000
    179     -12.7383      2.00000
    180     -12.7357      2.00000
    181     -12.7340      2.00000
    182     -12.7308      2.00000
    183     -12.7281      2.00000
    184     -12.7234      2.00000
    185     -12.7207      2.00000
    186     -12.7173      2.00000
    187     -12.7138      2.00000
    188     -12.7125      2.00000
    189     -12.7091      2.00000
    190     -12.7073      2.00000
    191     -12.7052      2.00000
    192     -12.7003      2.00000
    193     -12.6987      2.00000
    194     -12.6925      2.00000
    195     -12.6874      2.00000
    196     -12.6860      2.00000
    197     -12.6835      2.00000
    198     -12.6788      2.00000
    199     -12.6740      2.00000
    200     -12.6718      2.00000
    201     -12.6696      2.00000
    202     -12.6689      2.00000
    203     -12.6652      2.00000
    204     -12.6582      2.00000
    205     -12.6556      2.00000
    206     -12.6480      2.00000
    207     -12.6452      2.00000
    208     -12.6418      2.00000
    209     -12.6392      2.00000
    210     -12.6374      2.00000
    211     -12.6359      2.00000
    212     -12.6322      2.00000
    213     -12.6301      2.00000
    214     -12.6287      2.00000
    215     -12.6209      2.00000
    216     -12.6195      2.00000
    217     -12.6183      2.00000
    218     -12.6159      2.00000
    219     -12.6133      2.00000
    220     -12.6078      2.00000
    221     -12.6059      2.00000
    222     -12.6022      2.00000
    223     -12.5996      2.00000
    224     -12.5974      2.00000
    225     -12.5924      2.00000
    226     -12.5911      2.00000
    227     -12.5892      2.00000
    228     -12.5840      2.00000
    229     -12.5798      2.00000
    230     -12.5757      2.00000
    231     -12.5723      2.00000
    232     -12.5679      2.00000
    233     -12.5660      2.00000
    234     -12.5600      2.00000
    235     -12.5564      2.00000
    236     -12.5508      2.00000
    237     -12.5478      2.00000
    238     -12.5441      2.00000
    239     -12.5365      2.00000
    240     -12.5337      2.00000
    241     -12.5291      2.00000
    242     -12.5196      2.00000
    243     -12.5159      2.00000
    244     -12.5138      2.00000
    245     -12.5030      2.00000
    246     -12.4946      2.00000
    247     -12.4912      2.00000
    248     -12.4824      2.00000
    249     -12.4793      2.00000
    250     -12.4692      2.00000
    251     -12.4666      2.00000
    252     -12.4580      2.00000
    253     -12.4379      2.00000
    254     -12.4364      2.00000
    255     -12.4306      2.00000
    256     -12.4218      2.00000
    257     -12.4139      2.00000
    258     -12.4104      2.00000
    259     -12.4021      2.00000
    260     -12.3985      2.00000
    261     -12.3960      2.00000
    262     -12.3848      2.00000
    263     -12.3786      2.00000
    264     -12.3759      2.00000
    265     -12.3667      2.00000
    266     -12.3607      2.00000
    267     -12.3540      2.00000
    268     -12.3417      2.00000
    269     -12.3373      2.00000
    270     -12.3291      2.00000
    271     -12.3279      2.00000
    272     -12.3034      2.00000
    273     -12.2976      2.00000
    274     -12.2769      2.00000
    275     -12.2599      2.00000
    276     -12.2459      2.00000
    277     -12.2161      2.00000
    278     -12.2093      2.00000
    279     -12.1865      2.00000
    280     -12.1780      2.00000
    281     -12.1672      2.00000
    282     -12.1500      2.00000
    283     -12.1370      2.00000
    284     -12.1329      2.00000
    285     -12.1260      2.00000
    286     -12.1159      2.00000
    287     -12.0678      2.00000
    288     -12.0537      2.00000
    289     -12.0356      2.00000
    290     -12.0301      2.00000
    291     -11.9375      2.00000
    292     -11.9191      2.00000
    293     -11.8934      2.00000
    294     -11.8749      2.00000
    295     -11.8734      2.00000
    296     -11.8316      2.00000
    297     -11.8260      2.00000
    298     -11.7866      2.00000
    299     -11.7625      2.00000
    300     -11.7572      2.00000
    301     -11.7126      2.00000
    302     -11.6946      2.00000
    303     -11.6772      2.00000
    304     -11.6615      2.00000
    305     -11.6227      2.00000
    306     -11.5821      2.00000
    307     -10.9195      2.00000
    308      -5.0477      2.00000
    309      -5.0140      2.00000
    310      -4.9425      2.00000
    311      -4.8706      2.00000
    312      -4.8382      2.00000
    313      -4.8281      2.00000
    314      -4.7891      2.00000
    315      -4.6769      2.00000
    316      -4.5324      2.00000
    317      -4.5282      2.00000
    318      -4.4863      2.00000
    319      -4.3902      2.00000
    320      -4.2695      2.00000
    321      -4.2335      2.00000
    322      -4.1845      2.00000
    323      -4.1770      2.00000
    324      -4.1390      2.00000
    325      -4.0989      2.00000
    326      -4.0271      2.00000
    327      -3.9852      2.00000
    328      -3.9656      2.00000
    329      -3.9390      2.00000
    330      -3.9244      2.00000
    331      -3.9048      2.00000
    332      -3.8480      2.00000
    333      -3.6721      2.00000
    334      -3.5901      2.00000
    335      -3.5798      2.00000
    336      -3.5718      2.00000
    337      -3.5314      2.00000
    338      -3.5032      2.00000
    339      -3.4740      2.00000
    340      -3.4430      2.00000
    341      -3.2753      2.00000
    342      -3.2265      2.00000
    343      -3.1019      2.00000
    344      -3.0285      2.00000
    345      -2.9843      2.00000
    346      -2.9346      2.00000
    347      -2.8967      2.00000
    348      -2.8709      2.00000
    349      -2.8569      2.00000
    350      -2.8249      2.00000
    351      -2.8113      2.00000
    352      -2.7661      2.00000
    353      -2.6689      2.00000
    354      -2.6209      2.00000
    355      -2.5245      2.00000
    356      -2.4873      2.00000
    357      -2.4662      2.00000
    358      -2.2185      2.00000
    359      -2.1942      2.00000
    360      -2.1831      2.00000
    361      -2.0595      2.00000
    362      -2.0416      2.00000
    363      -2.0218      2.00000
    364      -1.9574      2.00000
    365      -1.9212      2.00000
    366      -1.8876      2.00000
    367      -1.8566      2.00000
    368      -1.8199      2.00000
    369      -1.8140      2.00000
    370      -1.7982      2.00000
    371      -1.7711      2.00000
    372      -1.7623      2.00000
    373      -1.7463      2.00000
    374      -1.7270      2.00000
    375      -1.7205      2.00000
    376      -1.7063      2.00000
    377      -1.6454      2.00000
    378      -1.6130      2.00000
    379      -1.5457      2.00000
    380      -1.5025      2.00000
    381      -1.4871      2.00000
    382      -1.4581      2.00000
    383      -1.4245      2.00000
    384      -1.4194      2.00000
    385      -1.3861      2.00000
    386      -1.3819      2.00000
    387      -1.3445      2.00000
    388      -1.3362      2.00000
    389      -1.3206      2.00000
    390      -1.2538      2.00000
    391      -1.2232      2.00000
    392      -1.1538      2.00000
    393      -1.1118      2.00000
    394      -1.0631      2.00000
    395      -1.0314      2.00000
    396      -0.9684      2.00000
    397      -0.9507      2.00000
    398      -0.9356      2.00000
    399      -0.9133      2.00000
    400      -0.9042      2.00000
    401      -0.8808      2.00000
    402      -0.8575      2.00000
    403      -0.8219      2.00000
    404      -0.7962      2.00000
    405      -0.7855      2.00000
    406      -0.7720      2.00000
    407      -0.7550      2.00000
    408      -0.7337      2.00000
    409      -0.7193      2.00000
    410      -0.6743      2.00000
    411      -0.6277      2.00000
    412      -0.5853      2.00000
    413      -0.5180      2.00000
    414      -0.4793      2.00000
    415      -0.4628      2.00000
    416      -0.4468      2.00000
    417      -0.4267      2.00000
    418      -0.4110      2.00000
    419      -0.3418      2.00000
    420      -0.3145      2.00000
    421      -0.2900      2.00000
    422      -0.2814      2.00000
    423      -0.2389      2.00000
    424      -0.2267      2.00000
    425      -0.2034      2.00000
    426      -0.1871      2.00000
    427      -0.1836      2.00000
    428      -0.1241      2.00000
    429      -0.1196      2.00000
    430      -0.0948      2.00000
    431      -0.0869      2.00000
    432      -0.0561      2.00000
    433      -0.0338      2.00000
    434      -0.0201      2.00000
    435       0.0530      2.00000
    436       0.0637      2.00000
    437       0.1024      2.00000
    438       0.1616      2.00000
    439       0.1812      2.00000
    440       0.1941      2.00000
    441       0.2082      2.00000
    442       0.2384      2.00000
    443       0.2711      2.00000
    444       0.3246      2.00000
    445       0.3323      2.00000
    446       0.3724      2.00000
    447       0.3845      2.00000
    448       0.3932      2.00000
    449       0.4300      2.00000
    450       0.4502      2.00000
    451       0.4844      2.00000
    452       0.4931      2.00000
    453       0.5154      2.00000
    454       0.5220      2.00000
    455       0.5433      2.00000
    456       0.5731      2.00000
    457       0.5871      2.00000
    458       0.6021      2.00000
    459       0.6363      2.00000
    460       0.6580      2.00000
    461       0.6950      2.00000
    462       0.7552      2.00000
    463       0.7649      2.00000
    464       0.7836      2.00000
    465       0.8317      2.00000
    466       0.8699      2.00000
    467       0.8919      2.00000
    468       0.9135      2.00000
    469       0.9232      2.00000
    470       0.9380      2.00000
    471       0.9709      2.00000
    472       0.9892      2.00000
    473       1.0075      2.00000
    474       1.0150      2.00000
    475       1.0862      2.00000
    476       1.1079      2.00000
    477       1.1130      2.00000
    478       1.1285      2.00000
    479       1.1348      2.00000
    480       1.1456      2.00000
    481       1.1813      2.00000
    482       1.1915      2.00000
    483       1.1971      2.00000
    484       1.2258      2.00000
    485       1.2367      2.00000
    486       1.2439      2.00000
    487       1.2586      2.00000
    488       1.2653      2.00000
    489       1.2715      2.00000
    490       1.2815      2.00000
    491       1.2984      2.00000
    492       1.3408      2.00000
    493       1.3581      2.00000
    494       1.3905      2.00000
    495       1.4020      2.00000
    496       1.4089      2.00000
    497       1.4176      2.00000
    498       1.4211      2.00000
    499       1.4249      2.00000
    500       1.4475      2.00000
    501       1.4516      2.00000
    502       1.4688      2.00000
    503       1.4784      2.00000
    504       1.5116      2.00000
    505       1.5336      2.00000
    506       1.5469      2.00000
    507       1.5608      2.00000
    508       1.5645      2.00000
    509       1.5851      2.00000
    510       1.6314      2.00000
    511       1.6395      2.00000
    512       1.6603      2.00000
    513       1.6671      2.00000
    514       1.7355      2.00000
    515       1.7489      2.00000
    516       1.7721      2.00000
    517       1.7755      2.00000
    518       1.8753      2.00000
    519       1.9201      2.00000
    520       1.9801      2.00000
    521       2.0134      2.00000
    522       2.0367      2.00000
    523       2.1358      2.00000
    524       2.2455      2.00000
    525       2.6714      2.00000
    526       2.8265      2.00000
    527       3.1039      2.00000
    528       5.5204      0.00000
    529       8.0388      0.00000
    530       8.0957      0.00000
    531       9.4967      0.00000
    532       9.5608      0.00000
    533       9.8149      0.00000
    534       9.8776      0.00000
    535       9.9091      0.00000
    536       9.9610      0.00000
    537      10.1293      0.00000
    538      10.2871      0.00000
    539      10.3010      0.00000
    540      10.3576      0.00000
    541      10.3993      0.00000
    542      10.4421      0.00000
    543      10.5022      0.00000
    544      10.5219      0.00000
    545      10.7219      0.00000
    546      10.8607      0.00000
    547      11.1456      0.00000
    548      11.3414      0.00000
    549      11.3594      0.00000
    550      11.3983      0.00000
    551      11.4415      0.00000
    552      11.5137      0.00000
    553      11.5457      0.00000
    554      11.5564      0.00000
    555      11.5642      0.00000
    556      11.5861      0.00000
    557      11.5877      0.00000
    558      11.6177      0.00000
    559      11.7114      0.00000
    560      11.7498      0.00000
    561      11.8522      0.00000
    562      11.8620      0.00000
    563      11.8871      0.00000
    564      11.9022      0.00000
    565      11.9283      0.00000
    566      12.0676      0.00000
    567      12.1676      0.00000
    568      12.2393      0.00000
    569      12.2579      0.00000
    570      12.3395      0.00000
    571      12.4850      0.00000
    572      12.5150      0.00000
    573      12.5364      0.00000
    574      12.5876      0.00000
    575      12.6011      0.00000
    576      12.6519      0.00000
    577      12.7134      0.00000
    578      12.7257      0.00000
    579      12.8597      0.00000
    580      12.8943      0.00000
    581      12.9264      0.00000
    582      13.0368      0.00000
    583      13.0757      0.00000
    584      13.0804      0.00000
    585      13.1330      0.00000
    586      13.1544      0.00000
    587      13.1628      0.00000
    588      13.1834      0.00000
    589      13.2083      0.00000
    590      13.2369      0.00000
    591      13.2502      0.00000
    592      13.2639      0.00000
    593      13.2900      0.00000
    594      13.3442      0.00000
    595      13.4165      0.00000
    596      13.4435      0.00000
    597      13.4769      0.00000
    598      13.6922      0.00000
    599      13.8026      0.00000
    600      13.9392      0.00000
    601      14.1971      0.00000
    602      14.2437      0.00000
    603      14.3455      0.00000
    604      14.3673      0.00000
    605      14.4354      0.00000
    606      14.4534      0.00000
    607      14.4945      0.00000
    608      14.6170      0.00000
    609      14.8152      0.00000
    610      14.8724      0.00000
    611      15.0257      0.00000
    612      15.0880      0.00000
    613      15.1208      0.00000
    614      15.1711      0.00000
    615      15.2135      0.00000
    616      15.2405      0.00000
    617      15.2453      0.00000
    618      15.3213      0.00000
    619      15.3537      0.00000
    620      15.4097      0.00000
    621      15.5006      0.00000
    622      15.5902      0.00000
    623      15.6593      0.00000
    624      15.7739      0.00000
    625      15.8099      0.00000
    626      15.8373      0.00000
    627      16.0043      0.00000
    628      16.0817      0.00000
    629      16.1914      0.00000
    630      16.2504      0.00000
    631      16.3997      0.00000
    632      16.5645      0.00000

 k-point     4 :       0.5000    0.5000    0.0000
  band No.  band energies     occupation 
      1     -18.4327      2.00000
      2     -18.4098      2.00000
      3     -18.3681      2.00000
      4     -18.3087      2.00000
      5     -18.2093      2.00000
      6     -18.1771      2.00000
      7     -18.1725      2.00000
      8     -18.0823      2.00000
      9     -17.7962      2.00000
     10     -17.7768      2.00000
     11     -17.7663      2.00000
     12     -17.7355      2.00000
     13     -17.7315      2.00000
     14     -17.6966      2.00000
     15     -17.6935      2.00000
     16     -17.6522      2.00000
     17     -17.6343      2.00000
     18     -17.5792      2.00000
     19     -17.5744      2.00000
     20     -17.5465      2.00000
     21     -17.5381      2.00000
     22     -17.5118      2.00000
     23     -17.5076      2.00000
     24     -17.4956      2.00000
     25     -17.4753      2.00000
     26     -17.4634      2.00000
     27     -17.4608      2.00000
     28     -17.4368      2.00000
     29     -17.3761      2.00000
     30     -17.3759      2.00000
     31     -17.3294      2.00000
     32     -17.3069      2.00000
     33     -17.2768      2.00000
     34     -17.2684      2.00000
     35     -17.2564      2.00000
     36     -17.2475      2.00000
     37     -17.2434      2.00000
     38     -17.2275      2.00000
     39     -17.2181      2.00000
     40     -17.2018      2.00000
     41     -17.1917      2.00000
     42     -17.1872      2.00000
     43     -17.1652      2.00000
     44     -17.1564      2.00000
     45     -17.1341      2.00000
     46     -17.1292      2.00000
     47     -17.1018      2.00000
     48     -17.0949      2.00000
     49     -17.0524      2.00000
     50     -17.0218      2.00000
     51     -16.9860      2.00000
     52     -16.9798      2.00000
     53     -16.9752      2.00000
     54     -16.9678      2.00000
     55     -16.9587      2.00000
     56     -16.9424      2.00000
     57     -16.9300      2.00000
     58     -16.9272      2.00000
     59     -16.9114      2.00000
     60     -16.8963      2.00000
     61     -16.8820      2.00000
     62     -16.8750      2.00000
     63     -16.8528      2.00000
     64     -16.8440      2.00000
     65     -16.8335      2.00000
     66     -16.8267      2.00000
     67     -16.8116      2.00000
     68     -16.7968      2.00000
     69     -16.5553      2.00000
     70     -16.3171      2.00000
     71     -16.2220      2.00000
     72     -13.6791      2.00000
     73     -13.0940      2.00000
     74     -13.0899      2.00000
     75     -13.0765      2.00000
     76     -13.0670      2.00000
     77     -13.0610      2.00000
     78     -13.0595      2.00000
     79     -13.0447      2.00000
     80     -13.0425      2.00000
     81     -13.0341      2.00000
     82     -13.0329      2.00000
     83     -13.0288      2.00000
     84     -13.0245      2.00000
     85     -13.0231      2.00000
     86     -13.0149      2.00000
     87     -13.0116      2.00000
     88     -13.0106      2.00000
     89     -13.0042      2.00000
     90     -13.0014      2.00000
     91     -12.9967      2.00000
     92     -12.9951      2.00000
     93     -12.9941      2.00000
     94     -12.9874      2.00000
     95     -12.9857      2.00000
     96     -12.9825      2.00000
     97     -12.9792      2.00000
     98     -12.9755      2.00000
     99     -12.9740      2.00000
    100     -12.9673      2.00000
    101     -12.9603      2.00000
    102     -12.9601      2.00000
    103     -12.9590      2.00000
    104     -12.9569      2.00000
    105     -12.9528      2.00000
    106     -12.9434      2.00000
    107     -12.9402      2.00000
    108     -12.9384      2.00000
    109     -12.9375      2.00000
    110     -12.9361      2.00000
    111     -12.9332      2.00000
    112     -12.9299      2.00000
    113     -12.9240      2.00000
    114     -12.9229      2.00000
    115     -12.9206      2.00000
    116     -12.9190      2.00000
    117     -12.9114      2.00000
    118     -12.9066      2.00000
    119     -12.9023      2.00000
    120     -12.9001      2.00000
    121     -12.8988      2.00000
    122     -12.8969      2.00000
    123     -12.8948      2.00000
    124     -12.8885      2.00000
    125     -12.8835      2.00000
    126     -12.8808      2.00000
    127     -12.8796      2.00000
    128     -12.8724      2.00000
    129     -12.8646      2.00000
    130     -12.8583      2.00000
    131     -12.8568      2.00000
    132     -12.8552      2.00000
    133     -12.8545      2.00000
    134     -12.8496      2.00000
    135     -12.8492      2.00000
    136     -12.8400      2.00000
    137     -12.8387      2.00000
    138     -12.8328      2.00000
    139     -12.8304      2.00000
    140     -12.8284      2.00000
    141     -12.8263      2.00000
    142     -12.8246      2.00000
    143     -12.8235      2.00000
    144     -12.8229      2.00000
    145     -12.8186      2.00000
    146     -12.8172      2.00000
    147     -12.8140      2.00000
    148     -12.8113      2.00000
    149     -12.8103      2.00000
    150     -12.8071      2.00000
    151     -12.8051      2.00000
    152     -12.8027      2.00000
    153     -12.8010      2.00000
    154     -12.7972      2.00000
    155     -12.7936      2.00000
    156     -12.7902      2.00000
    157     -12.7868      2.00000
    158     -12.7825      2.00000
    159     -12.7793      2.00000
    160     -12.7786      2.00000
    161     -12.7765      2.00000
    162     -12.7749      2.00000
    163     -12.7719      2.00000
    164     -12.7696      2.00000
    165     -12.7664      2.00000
    166     -12.7657      2.00000
    167     -12.7638      2.00000
    168     -12.7637      2.00000
    169     -12.7593      2.00000
    170     -12.7571      2.00000
    171     -12.7544      2.00000
    172     -12.7525      2.00000
    173     -12.7500      2.00000
    174     -12.7490      2.00000
    175     -12.7458      2.00000
    176     -12.7444      2.00000
    177     -12.7429      2.00000
    178     -12.7419      2.00000
    179     -12.7344      2.00000
    180     -12.7336      2.00000
    181     -12.7306      2.00000
    182     -12.7281      2.00000
    183     -12.7264      2.00000
    184     -12.7244      2.00000
    185     -12.7193      2.00000
    186     -12.7176      2.00000
    187     -12.7151      2.00000
    188     -12.7123      2.00000
    189     -12.7082      2.00000
    190     -12.7066      2.00000
    191     -12.7034      2.00000
    192     -12.6978      2.00000
    193     -12.6947      2.00000
    194     -12.6890      2.00000
    195     -12.6862      2.00000
    196     -12.6840      2.00000
    197     -12.6820      2.00000
    198     -12.6787      2.00000
    199     -12.6772      2.00000
    200     -12.6747      2.00000
    201     -12.6705      2.00000
    202     -12.6673      2.00000
    203     -12.6652      2.00000
    204     -12.6579      2.00000
    205     -12.6576      2.00000
    206     -12.6537      2.00000
    207     -12.6482      2.00000
    208     -12.6459      2.00000
    209     -12.6439      2.00000
    210     -12.6408      2.00000
    211     -12.6392      2.00000
    212     -12.6371      2.00000
    213     -12.6301      2.00000
    214     -12.6291      2.00000
    215     -12.6238      2.00000
    216     -12.6205      2.00000
    217     -12.6181      2.00000
    218     -12.6149      2.00000
    219     -12.6142      2.00000
    220     -12.6069      2.00000
    221     -12.6054      2.00000
    222     -12.6035      2.00000
    223     -12.6029      2.00000
    224     -12.6016      2.00000
    225     -12.5982      2.00000
    226     -12.5954      2.00000
    227     -12.5914      2.00000
    228     -12.5856      2.00000
    229     -12.5848      2.00000
    230     -12.5823      2.00000
    231     -12.5785      2.00000
    232     -12.5739      2.00000
    233     -12.5721      2.00000
    234     -12.5668      2.00000
    235     -12.5594      2.00000
    236     -12.5553      2.00000
    237     -12.5536      2.00000
    238     -12.5510      2.00000
    239     -12.5480      2.00000
    240     -12.5445      2.00000
    241     -12.5397      2.00000
    242     -12.5339      2.00000
    243     -12.5310      2.00000
    244     -12.5219      2.00000
    245     -12.5171      2.00000
    246     -12.5111      2.00000
    247     -12.5085      2.00000
    248     -12.5037      2.00000
    249     -12.4893      2.00000
    250     -12.4850      2.00000
    251     -12.4828      2.00000
    252     -12.4770      2.00000
    253     -12.4732      2.00000
    254     -12.4678      2.00000
    255     -12.4551      2.00000
    256     -12.4483      2.00000
    257     -12.4313      2.00000
    258     -12.4234      2.00000
    259     -12.4145      2.00000
    260     -12.3976      2.00000
    261     -12.3883      2.00000
    262     -12.3746      2.00000
    263     -12.3709      2.00000
    264     -12.3670      2.00000
    265     -12.3582      2.00000
    266     -12.3519      2.00000
    267     -12.3480      2.00000
    268     -12.3326      2.00000
    269     -12.3317      2.00000
    270     -12.3182      2.00000
    271     -12.3028      2.00000
    272     -12.2975      2.00000
    273     -12.2823      2.00000
    274     -12.2573      2.00000
    275     -12.2466      2.00000
    276     -12.2367      2.00000
    277     -12.2283      2.00000
    278     -12.2067      2.00000
    279     -12.1844      2.00000
    280     -12.1712      2.00000
    281     -12.1569      2.00000
    282     -12.1342      2.00000
    283     -12.1263      2.00000
    284     -12.1191      2.00000
    285     -12.0726      2.00000
    286     -12.0477      2.00000
    287     -12.0380      2.00000
    288     -12.0265      2.00000
    289     -12.0102      2.00000
    290     -11.9709      2.00000
    291     -11.9326      2.00000
    292     -11.9143      2.00000
    293     -11.8757      2.00000
    294     -11.8544      2.00000
    295     -11.8388      2.00000
    296     -11.8376      2.00000
    297     -11.8313      2.00000
    298     -11.8111      2.00000
    299     -11.7925      2.00000
    300     -11.7850      2.00000
    301     -11.7417      2.00000
    302     -11.7272      2.00000
    303     -11.6941      2.00000
    304     -11.6665      2.00000
    305     -11.6338      2.00000
    306     -11.6211      2.00000
    307     -10.9240      2.00000
    308      -5.0388      2.00000
    309      -5.0178      2.00000
    310      -5.0038      2.00000
    311      -4.9922      2.00000
    312      -4.9472      2.00000
    313      -4.8309      2.00000
    314      -4.7183      2.00000
    315      -4.6037      2.00000
    316      -4.4981      2.00000
    317      -4.4373      2.00000
    318      -4.2792      2.00000
    319      -4.2776      2.00000
    320      -4.1998      2.00000
    321      -4.1891      2.00000
    322      -4.1800      2.00000
    323      -4.1496      2.00000
    324      -4.1128      2.00000
    325      -4.0566      2.00000
    326      -4.0468      2.00000
    327      -4.0281      2.00000
    328      -4.0147      2.00000
    329      -3.9394      2.00000
    330      -3.9331      2.00000
    331      -3.9008      2.00000
    332      -3.8422      2.00000
    333      -3.7707      2.00000
    334      -3.7000      2.00000
    335      -3.6909      2.00000
    336      -3.6756      2.00000
    337      -3.6541      2.00000
    338      -3.6155      2.00000
    339      -3.3889      2.00000
    340      -3.3352      2.00000
    341      -3.3090      2.00000
    342      -3.2467      2.00000
    343      -3.1277      2.00000
    344      -3.1033      2.00000
    345      -3.0210      2.00000
    346      -2.9553      2.00000
    347      -2.9296      2.00000
    348      -2.8931      2.00000
    349      -2.8294      2.00000
    350      -2.8118      2.00000
    351      -2.8040      2.00000
    352      -2.6515      2.00000
    353      -2.6332      2.00000
    354      -2.6228      2.00000
    355      -2.6036      2.00000
    356      -2.5729      2.00000
    357      -2.3405      2.00000
    358      -2.2965      2.00000
    359      -2.2444      2.00000
    360      -2.1892      2.00000
    361      -2.1488      2.00000
    362      -2.1226      2.00000
    363      -2.0681      2.00000
    364      -1.9071      2.00000
    365      -1.8589      2.00000
    366      -1.8475      2.00000
    367      -1.8119      2.00000
    368      -1.7971      2.00000
    369      -1.7850      2.00000
    370      -1.7740      2.00000
    371      -1.7597      2.00000
    372      -1.7336      2.00000
    373      -1.6748      2.00000
    374      -1.6486      2.00000
    375      -1.6331      2.00000
    376      -1.6297      2.00000
    377      -1.6064      2.00000
    378      -1.5931      2.00000
    379      -1.5889      2.00000
    380      -1.5194      2.00000
    381      -1.4370      2.00000
    382      -1.4146      2.00000
    383      -1.4027      2.00000
    384      -1.3621      2.00000
    385      -1.3511      2.00000
    386      -1.3216      2.00000
    387      -1.3142      2.00000
    388      -1.2875      2.00000
    389      -1.2699      2.00000
    390      -1.2548      2.00000
    391      -1.2044      2.00000
    392      -1.1516      2.00000
    393      -1.1180      2.00000
    394      -1.0694      2.00000
    395      -1.0399      2.00000
    396      -1.0139      2.00000
    397      -0.9983      2.00000
    398      -0.9566      2.00000
    399      -0.9188      2.00000
    400      -0.9066      2.00000
    401      -0.8574      2.00000
    402      -0.8360      2.00000
    403      -0.8088      2.00000
    404      -0.7842      2.00000
    405      -0.7613      2.00000
    406      -0.7170      2.00000
    407      -0.6851      2.00000
    408      -0.6637      2.00000
    409      -0.6456      2.00000
    410      -0.6364      2.00000
    411      -0.6099      2.00000
    412      -0.5960      2.00000
    413      -0.5685      2.00000
    414      -0.5520      2.00000
    415      -0.5389      2.00000
    416      -0.5190      2.00000
    417      -0.4929      2.00000
    418      -0.4877      2.00000
    419      -0.4470      2.00000
    420      -0.4318      2.00000
    421      -0.4156      2.00000
    422      -0.3995      2.00000
    423      -0.3597      2.00000
    424      -0.3350      2.00000
    425      -0.2959      2.00000
    426      -0.2603      2.00000
    427      -0.2092      2.00000
    428      -0.1439      2.00000
    429      -0.0930      2.00000
    430      -0.0564      2.00000
    431      -0.0468      2.00000
    432      -0.0446      2.00000
    433      -0.0233      2.00000
    434       0.0175      2.00000
    435       0.0308      2.00000
    436       0.0757      2.00000
    437       0.0990      2.00000
    438       0.1292      2.00000
    439       0.1803      2.00000
    440       0.2083      2.00000
    441       0.2484      2.00000
    442       0.2978      2.00000
    443       0.3524      2.00000
    444       0.3613      2.00000
    445       0.3805      2.00000
    446       0.4022      2.00000
    447       0.4145      2.00000
    448       0.4308      2.00000
    449       0.4513      2.00000
    450       0.4675      2.00000
    451       0.4842      2.00000
    452       0.5083      2.00000
    453       0.5313      2.00000
    454       0.5460      2.00000
    455       0.6041      2.00000
    456       0.6397      2.00000
    457       0.6615      2.00000
    458       0.7212      2.00000
    459       0.7266      2.00000
    460       0.7457      2.00000
    461       0.7519      2.00000
    462       0.7599      2.00000
    463       0.7860      2.00000
    464       0.7894      2.00000
    465       0.7923      2.00000
    466       0.8071      2.00000
    467       0.8213      2.00000
    468       0.8532      2.00000
    469       0.8984      2.00000
    470       0.9229      2.00000
    471       0.9426      2.00000
    472       0.9482      2.00000
    473       0.9646      2.00000
    474       0.9835      2.00000
    475       0.9960      2.00000
    476       1.0558      2.00000
    477       1.0982      2.00000
    478       1.1177      2.00000
    479       1.1352      2.00000
    480       1.1476      2.00000
    481       1.1573      2.00000
    482       1.1651      2.00000
    483       1.1709      2.00000
    484       1.1902      2.00000
    485       1.2009      2.00000
    486       1.2233      2.00000
    487       1.2372      2.00000
    488       1.2539      2.00000
    489       1.2721      2.00000
    490       1.2855      2.00000
    491       1.2940      2.00000
    492       1.3039      2.00000
    493       1.3130      2.00000
    494       1.3339      2.00000
    495       1.3440      2.00000
    496       1.3518      2.00000
    497       1.3607      2.00000
    498       1.3679      2.00000
    499       1.3916      2.00000
    500       1.3983      2.00000
    501       1.4079      2.00000
    502       1.4270      2.00000
    503       1.4666      2.00000
    504       1.4920      2.00000
    505       1.5371      2.00000
    506       1.5656      2.00000
    507       1.5784      2.00000
    508       1.6107      2.00000
    509       1.6257      2.00000
    510       1.6794      2.00000
    511       1.6913      2.00000
    512       1.7195      2.00000
    513       1.7576      2.00000
    514       1.7706      2.00000
    515       1.7817      2.00000
    516       1.9182      2.00000
    517       1.9263      2.00000
    518       1.9367      2.00000
    519       1.9524      2.00000
    520       1.9636      2.00000
    521       1.9661      2.00000
    522       1.9709      2.00000
    523       2.1574      2.00000
    524       2.2295      2.00000
    525       2.6697      2.00000
    526       2.8333      2.00000
    527       3.1098      2.00000
    528       5.5212      0.00000
    529       8.4770      0.00000
    530       8.4872      0.00000
    531       8.5161      0.00000
    532       8.6468      0.00000
    533       9.9207      0.00000
    534       9.9272      0.00000
    535      10.0790      0.00000
    536      10.1456      0.00000
    537      10.2264      0.00000
    538      10.3861      0.00000
    539      10.4180      0.00000
    540      10.4624      0.00000
    541      10.5013      0.00000
    542      10.5100      0.00000
    543      10.5280      0.00000
    544      10.8317      0.00000
    545      10.8612      0.00000
    546      10.8794      0.00000
    547      11.3434      0.00000
    548      11.3780      0.00000
    549      11.5360      0.00000
    550      11.5510      0.00000
    551      11.5714      0.00000
    552      11.5718      0.00000
    553      11.5929      0.00000
    554      11.6041      0.00000
    555      11.6193      0.00000
    556      11.6301      0.00000
    557      11.6367      0.00000
    558      11.6563      0.00000
    559      11.6910      0.00000
    560      11.7308      0.00000
    561      11.7637      0.00000
    562      11.7919      0.00000
    563      11.8793      0.00000
    564      11.8807      0.00000
    565      12.0582      0.00000
    566      12.1408      0.00000
    567      12.2027      0.00000
    568      12.2340      0.00000
    569      12.2885      0.00000
    570      12.2923      0.00000
    571      12.3416      0.00000
    572      12.3745      0.00000
    573      12.6179      0.00000
    574      12.6218      0.00000
    575      12.6585      0.00000
    576      12.6737      0.00000
    577      12.7519      0.00000
    578      12.8891      0.00000
    579      12.9306      0.00000
    580      12.9383      0.00000
    581      12.9615      0.00000
    582      12.9876      0.00000
    583      13.0052      0.00000
    584      13.0257      0.00000
    585      13.0329      0.00000
    586      13.0686      0.00000
    587      13.0878      0.00000
    588      13.1140      0.00000
    589      13.1181      0.00000
    590      13.1680      0.00000
    591      13.1840      0.00000
    592      13.2308      0.00000
    593      13.2632      0.00000
    594      13.3624      0.00000
    595      13.4033      0.00000
    596      13.4376      0.00000
    597      13.4790      0.00000
    598      13.7210      0.00000
    599      13.7704      0.00000
    600      13.8149      0.00000
    601      14.0240      0.00000
    602      14.1041      0.00000
    603      14.1418      0.00000
    604      14.1994      0.00000
    605      14.2290      0.00000
    606      14.3251      0.00000
    607      14.5993      0.00000
    608      14.6427      0.00000
    609      15.0227      0.00000
    610      15.0475      0.00000
    611      15.0995      0.00000
    612      15.1413      0.00000
    613      15.1763      0.00000
    614      15.2204      0.00000
    615      15.2461      0.00000
    616      15.2710      0.00000
    617      15.3386      0.00000
    618      15.4032      0.00000
    619      15.4359      0.00000
    620      15.4838      0.00000
    621      15.5693      0.00000
    622      15.6270      0.00000
    623      15.6921      0.00000
    624      15.7566      0.00000
    625      15.8759      0.00000
    626      15.8972      0.00000
    627      15.9641      0.00000
    628      16.0464      0.00000
    629      16.1910      0.00000
    630      16.2618      0.00000
    631      16.3725      0.00000
    632      16.5189      0.00000

 k-point     5 :       0.0000    0.0000    0.5000
  band No.  band energies     occupation 
      1     -18.6179      2.00000
      2     -18.5332      2.00000
      3     -18.3393      2.00000
      4     -18.2835      2.00000
      5     -18.0457      2.00000
      6     -17.9680      2.00000
      7     -17.9643      2.00000
      8     -17.9611      2.00000
      9     -17.8861      2.00000
     10     -17.8763      2.00000
     11     -17.7598      2.00000
     12     -17.7531      2.00000
     13     -17.7439      2.00000
     14     -17.7149      2.00000
     15     -17.7117      2.00000
     16     -17.7006      2.00000
     17     -17.6312      2.00000
     18     -17.6244      2.00000
     19     -17.6132      2.00000
     20     -17.5849      2.00000
     21     -17.5673      2.00000
     22     -17.5555      2.00000
     23     -17.5366      2.00000
     24     -17.4673      2.00000
     25     -17.4634      2.00000
     26     -17.4363      2.00000
     27     -17.4297      2.00000
     28     -17.3799      2.00000
     29     -17.3683      2.00000
     30     -17.3666      2.00000
     31     -17.3645      2.00000
     32     -17.3619      2.00000
     33     -17.3167      2.00000
     34     -17.3052      2.00000
     35     -17.2975      2.00000
     36     -17.2773      2.00000
     37     -17.2343      2.00000
     38     -17.2224      2.00000
     39     -17.2125      2.00000
     40     -17.1840      2.00000
     41     -17.1718      2.00000
     42     -17.1666      2.00000
     43     -17.1545      2.00000
     44     -17.1434      2.00000
     45     -17.1028      2.00000
     46     -17.0824      2.00000
     47     -17.0595      2.00000
     48     -17.0475      2.00000
     49     -17.0413      2.00000
     50     -17.0274      2.00000
     51     -17.0210      2.00000
     52     -17.0133      2.00000
     53     -16.9960      2.00000
     54     -16.9908      2.00000
     55     -16.9828      2.00000
     56     -16.9638      2.00000
     57     -16.9535      2.00000
     58     -16.9449      2.00000
     59     -16.9260      2.00000
     60     -16.8894      2.00000
     61     -16.8721      2.00000
     62     -16.8560      2.00000
     63     -16.8520      2.00000
     64     -16.8482      2.00000
     65     -16.8475      2.00000
     66     -16.8094      2.00000
     67     -16.8017      2.00000
     68     -16.7835      2.00000
     69     -16.5514      2.00000
     70     -16.3187      2.00000
     71     -16.2215      2.00000
     72     -13.6786      2.00000
     73     -13.1010      2.00000
     74     -13.0953      2.00000
     75     -13.0853      2.00000
     76     -13.0716      2.00000
     77     -13.0699      2.00000
     78     -13.0533      2.00000
     79     -13.0490      2.00000
     80     -13.0454      2.00000
     81     -13.0385      2.00000
     82     -13.0367      2.00000
     83     -13.0258      2.00000
     84     -13.0218      2.00000
     85     -13.0211      2.00000
     86     -13.0101      2.00000
     87     -13.0030      2.00000
     88     -12.9970      2.00000
     89     -12.9923      2.00000
     90     -12.9885      2.00000
     91     -12.9883      2.00000
     92     -12.9828      2.00000
     93     -12.9803      2.00000
     94     -12.9777      2.00000
     95     -12.9731      2.00000
     96     -12.9726      2.00000
     97     -12.9723      2.00000
     98     -12.9675      2.00000
     99     -12.9665      2.00000
    100     -12.9641      2.00000
    101     -12.9616      2.00000
    102     -12.9581      2.00000
    103     -12.9553      2.00000
    104     -12.9509      2.00000
    105     -12.9472      2.00000
    106     -12.9437      2.00000
    107     -12.9421      2.00000
    108     -12.9358      2.00000
    109     -12.9327      2.00000
    110     -12.9313      2.00000
    111     -12.9301      2.00000
    112     -12.9274      2.00000
    113     -12.9247      2.00000
    114     -12.9172      2.00000
    115     -12.9151      2.00000
    116     -12.9093      2.00000
    117     -12.9044      2.00000
    118     -12.9004      2.00000
    119     -12.8962      2.00000
    120     -12.8943      2.00000
    121     -12.8909      2.00000
    122     -12.8896      2.00000
    123     -12.8864      2.00000
    124     -12.8846      2.00000
    125     -12.8782      2.00000
    126     -12.8734      2.00000
    127     -12.8695      2.00000
    128     -12.8658      2.00000
    129     -12.8643      2.00000
    130     -12.8612      2.00000
    131     -12.8606      2.00000
    132     -12.8583      2.00000
    133     -12.8539      2.00000
    134     -12.8509      2.00000
    135     -12.8456      2.00000
    136     -12.8414      2.00000
    137     -12.8392      2.00000
    138     -12.8390      2.00000
    139     -12.8360      2.00000
    140     -12.8350      2.00000
    141     -12.8314      2.00000
    142     -12.8282      2.00000
    143     -12.8260      2.00000
    144     -12.8250      2.00000
    145     -12.8232      2.00000
    146     -12.8202      2.00000
    147     -12.8177      2.00000
    148     -12.8165      2.00000
    149     -12.8133      2.00000
    150     -12.8125      2.00000
    151     -12.8121      2.00000
    152     -12.8101      2.00000
    153     -12.8044      2.00000
    154     -12.8042      2.00000
    155     -12.8028      2.00000
    156     -12.8005      2.00000
    157     -12.7981      2.00000
    158     -12.7968      2.00000
    159     -12.7951      2.00000
    160     -12.7927      2.00000
    161     -12.7902      2.00000
    162     -12.7891      2.00000
    163     -12.7886      2.00000
    164     -12.7834      2.00000
    165     -12.7807      2.00000
    166     -12.7798      2.00000
    167     -12.7766      2.00000
    168     -12.7760      2.00000
    169     -12.7720      2.00000
    170     -12.7689      2.00000
    171     -12.7653      2.00000
    172     -12.7643      2.00000
    173     -12.7604      2.00000
    174     -12.7576      2.00000
    175     -12.7461      2.00000
    176     -12.7452      2.00000
    177     -12.7418      2.00000
    178     -12.7401      2.00000
    179     -12.7378      2.00000
    180     -12.7298      2.00000
    181     -12.7251      2.00000
    182     -12.7208      2.00000
    183     -12.7145      2.00000
    184     -12.7102      2.00000
    185     -12.7075      2.00000
    186     -12.7055      2.00000
    187     -12.7013      2.00000
    188     -12.6985      2.00000
    189     -12.6980      2.00000
    190     -12.6935      2.00000
    191     -12.6925      2.00000
    192     -12.6915      2.00000
    193     -12.6894      2.00000
    194     -12.6883      2.00000
    195     -12.6869      2.00000
    196     -12.6860      2.00000
    197     -12.6845      2.00000
    198     -12.6798      2.00000
    199     -12.6785      2.00000
    200     -12.6747      2.00000
    201     -12.6716      2.00000
    202     -12.6709      2.00000
    203     -12.6696      2.00000
    204     -12.6660      2.00000
    205     -12.6627      2.00000
    206     -12.6613      2.00000
    207     -12.6572      2.00000
    208     -12.6545      2.00000
    209     -12.6520      2.00000
    210     -12.6500      2.00000
    211     -12.6478      2.00000
    212     -12.6445      2.00000
    213     -12.6436      2.00000
    214     -12.6366      2.00000
    215     -12.6333      2.00000
    216     -12.6312      2.00000
    217     -12.6276      2.00000
    218     -12.6199      2.00000
    219     -12.6195      2.00000
    220     -12.6168      2.00000
    221     -12.6141      2.00000
    222     -12.6087      2.00000
    223     -12.6062      2.00000
    224     -12.6019      2.00000
    225     -12.5996      2.00000
    226     -12.5930      2.00000
    227     -12.5901      2.00000
    228     -12.5863      2.00000
    229     -12.5839      2.00000
    230     -12.5791      2.00000
    231     -12.5721      2.00000
    232     -12.5686      2.00000
    233     -12.5641      2.00000
    234     -12.5611      2.00000
    235     -12.5583      2.00000
    236     -12.5556      2.00000
    237     -12.5543      2.00000
    238     -12.5491      2.00000
    239     -12.5465      2.00000
    240     -12.5435      2.00000
    241     -12.5414      2.00000
    242     -12.5292      2.00000
    243     -12.5273      2.00000
    244     -12.5199      2.00000
    245     -12.5152      2.00000
    246     -12.5073      2.00000
    247     -12.4997      2.00000
    248     -12.4876      2.00000
    249     -12.4846      2.00000
    250     -12.4839      2.00000
    251     -12.4761      2.00000
    252     -12.4688      2.00000
    253     -12.4626      2.00000
    254     -12.4562      2.00000
    255     -12.4490      2.00000
    256     -12.4367      2.00000
    257     -12.4321      2.00000
    258     -12.4212      2.00000
    259     -12.4173      2.00000
    260     -12.4030      2.00000
    261     -12.3969      2.00000
    262     -12.3871      2.00000
    263     -12.3809      2.00000
    264     -12.3767      2.00000
    265     -12.3646      2.00000
    266     -12.3557      2.00000
    267     -12.3507      2.00000
    268     -12.3250      2.00000
    269     -12.3166      2.00000
    270     -12.3065      2.00000
    271     -12.2920      2.00000
    272     -12.2811      2.00000
    273     -12.2736      2.00000
    274     -12.2432      2.00000
    275     -12.2351      2.00000
    276     -12.2172      2.00000
    277     -12.2117      2.00000
    278     -12.2042      2.00000
    279     -12.1929      2.00000
    280     -12.1646      2.00000
    281     -12.1325      2.00000
    282     -12.1235      2.00000
    283     -12.0968      2.00000
    284     -12.0938      2.00000
    285     -12.0763      2.00000
    286     -12.0415      2.00000
    287     -12.0239      2.00000
    288     -12.0063      2.00000
    289     -11.9925      2.00000
    290     -11.9837      2.00000
    291     -11.9648      2.00000
    292     -11.9436      2.00000
    293     -11.8863      2.00000
    294     -11.8783      2.00000
    295     -11.8610      2.00000
    296     -11.8428      2.00000
    297     -11.8390      2.00000
    298     -11.8208      2.00000
    299     -11.7914      2.00000
    300     -11.7841      2.00000
    301     -11.7639      2.00000
    302     -11.7550      2.00000
    303     -11.7367      2.00000
    304     -11.7059      2.00000
    305     -11.6643      2.00000
    306     -11.5650      2.00000
    307     -10.9194      2.00000
    308      -4.9110      2.00000
    309      -4.8485      2.00000
    310      -4.7114      2.00000
    311      -4.6672      2.00000
    312      -4.6596      2.00000
    313      -4.6147      2.00000
    314      -4.5977      2.00000
    315      -4.5094      2.00000
    316      -4.4254      2.00000
    317      -4.4128      2.00000
    318      -4.3338      2.00000
    319      -4.3128      2.00000
    320      -4.2123      2.00000
    321      -4.2026      2.00000
    322      -4.1810      2.00000
    323      -4.1739      2.00000
    324      -4.1014      2.00000
    325      -4.0982      2.00000
    326      -4.0838      2.00000
    327      -4.0658      2.00000
    328      -4.0322      2.00000
    329      -3.9295      2.00000
    330      -3.8417      2.00000
    331      -3.8326      2.00000
    332      -3.7886      2.00000
    333      -3.7643      2.00000
    334      -3.7629      2.00000
    335      -3.7459      2.00000
    336      -3.7346      2.00000
    337      -3.7117      2.00000
    338      -3.6644      2.00000
    339      -3.4847      2.00000
    340      -3.4266      2.00000
    341      -3.4105      2.00000
    342      -3.3887      2.00000
    343      -3.2143      2.00000
    344      -3.1899      2.00000
    345      -2.9981      2.00000
    346      -2.9934      2.00000
    347      -2.9031      2.00000
    348      -2.8800      2.00000
    349      -2.8090      2.00000
    350      -2.7955      2.00000
    351      -2.7317      2.00000
    352      -2.6686      2.00000
    353      -2.6529      2.00000
    354      -2.5961      2.00000
    355      -2.5848      2.00000
    356      -2.5424      2.00000
    357      -2.4908      2.00000
    358      -2.4665      2.00000
    359      -2.3721      2.00000
    360      -2.2916      2.00000
    361      -2.2419      2.00000
    362      -2.2321      2.00000
    363      -2.2234      2.00000
    364      -2.2116      2.00000
    365      -2.2065      2.00000
    366      -2.1914      2.00000
    367      -2.1784      2.00000
    368      -2.1659      2.00000
    369      -2.1397      2.00000
    370      -2.0631      2.00000
    371      -1.9986      2.00000
    372      -1.9657      2.00000
    373      -1.9291      2.00000
    374      -1.8998      2.00000
    375      -1.8036      2.00000
    376      -1.7330      2.00000
    377      -1.6823      2.00000
    378      -1.6581      2.00000
    379      -1.5860      2.00000
    380      -1.5273      2.00000
    381      -1.4780      2.00000
    382      -1.4322      2.00000
    383      -1.3949      2.00000
    384      -1.3721      2.00000
    385      -1.3499      2.00000
    386      -1.2951      2.00000
    387      -1.2595      2.00000
    388      -1.2400      2.00000
    389      -1.2201      2.00000
    390      -1.2004      2.00000
    391      -1.1790      2.00000
    392      -1.1348      2.00000
    393      -1.1169      2.00000
    394      -1.0568      2.00000
    395      -1.0189      2.00000
    396      -0.9776      2.00000
    397      -0.9705      2.00000
    398      -0.9457      2.00000
    399      -0.8947      2.00000
    400      -0.8688      2.00000
    401      -0.8500      2.00000
    402      -0.8355      2.00000
    403      -0.7865      2.00000
    404      -0.7350      2.00000
    405      -0.6827      2.00000
    406      -0.6659      2.00000
    407      -0.6286      2.00000
    408      -0.6148      2.00000
    409      -0.6088      2.00000
    410      -0.5738      2.00000
    411      -0.5518      2.00000
    412      -0.5062      2.00000
    413      -0.4878      2.00000
    414      -0.4589      2.00000
    415      -0.4309      2.00000
    416      -0.3743      2.00000
    417      -0.3451      2.00000
    418      -0.2936      2.00000
    419      -0.2505      2.00000
    420      -0.2234      2.00000
    421      -0.2059      2.00000
    422      -0.1831      2.00000
    423      -0.1544      2.00000
    424      -0.1361      2.00000
    425      -0.1296      2.00000
    426      -0.1100      2.00000
    427      -0.0942      2.00000
    428      -0.0748      2.00000
    429      -0.0642      2.00000
    430      -0.0253      2.00000
    431      -0.0100      2.00000
    432       0.0216      2.00000
    433       0.0417      2.00000
    434       0.0519      2.00000
    435       0.0639      2.00000
    436       0.0835      2.00000
    437       0.1111      2.00000
    438       0.1284      2.00000
    439       0.1551      2.00000
    440       0.1621      2.00000
    441       0.1946      2.00000
    442       0.2209      2.00000
    443       0.2517      2.00000
    444       0.2929      2.00000
    445       0.3030      2.00000
    446       0.3305      2.00000
    447       0.3655      2.00000
    448       0.3940      2.00000
    449       0.4171      2.00000
    450       0.4599      2.00000
    451       0.5095      2.00000
    452       0.5250      2.00000
    453       0.5681      2.00000
    454       0.5913      2.00000
    455       0.6047      2.00000
    456       0.6510      2.00000
    457       0.6700      2.00000
    458       0.6739      2.00000
    459       0.6856      2.00000
    460       0.7090      2.00000
    461       0.7415      2.00000
    462       0.7687      2.00000
    463       0.8330      2.00000
    464       0.8456      2.00000
    465       0.8669      2.00000
    466       0.9192      2.00000
    467       0.9248      2.00000
    468       0.9342      2.00000
    469       0.9442      2.00000
    470       0.9582      2.00000
    471       0.9688      2.00000
    472       0.9922      2.00000
    473       1.0099      2.00000
    474       1.0467      2.00000
    475       1.0642      2.00000
    476       1.0856      2.00000
    477       1.0874      2.00000
    478       1.1196      2.00000
    479       1.1274      2.00000
    480       1.1363      2.00000
    481       1.1601      2.00000
    482       1.1840      2.00000
    483       1.1906      2.00000
    484       1.2096      2.00000
    485       1.2170      2.00000
    486       1.2406      2.00000
    487       1.2565      2.00000
    488       1.2705      2.00000
    489       1.3073      2.00000
    490       1.3822      2.00000
    491       1.3967      2.00000
    492       1.4055      2.00000
    493       1.4365      2.00000
    494       1.4510      2.00000
    495       1.4579      2.00000
    496       1.4641      2.00000
    497       1.4687      2.00000
    498       1.4763      2.00000
    499       1.4850      2.00000
    500       1.4990      2.00000
    501       1.5231      2.00000
    502       1.5269      2.00000
    503       1.5420      2.00000
    504       1.5477      2.00000
    505       1.5504      2.00000
    506       1.5731      2.00000
    507       1.5754      2.00000
    508       1.6082      2.00000
    509       1.6199      2.00000
    510       1.6556      2.00000
    511       1.6631      2.00000
    512       1.6830      2.00000
    513       1.6967      2.00000
    514       1.7164      2.00000
    515       1.7567      2.00000
    516       1.7784      2.00000
    517       1.7936      2.00000
    518       1.8086      2.00000
    519       1.8158      2.00000
    520       1.8414      2.00000
    521       1.8877      2.00000
    522       1.9518      2.00000
    523       2.0850      2.00000
    524       2.1665      2.00000
    525       2.5994      2.00000
    526       2.8647      2.00000
    527       3.1958      2.00000
    528       5.5148      0.00000
    529       7.6316      0.00000
    530       7.7589      0.00000
    531       9.1204      0.00000
    532       9.2169      0.00000
    533       9.9266      0.00000
    534      10.0501      0.00000
    535      10.4275      0.00000
    536      10.5521      0.00000
    537      10.5745      0.00000
    538      10.5767      0.00000
    539      10.6072      0.00000
    540      10.6194      0.00000
    541      10.6553      0.00000
    542      10.7137      0.00000
    543      10.8185      0.00000
    544      10.8451      0.00000
    545      10.8503      0.00000
    546      10.8516      0.00000
    547      10.8565      0.00000
    548      10.8584      0.00000
    549      10.8745      0.00000
    550      10.8932      0.00000
    551      10.9317      0.00000
    552      10.9847      0.00000
    553      11.0268      0.00000
    554      11.0670      0.00000
    555      11.1462      0.00000
    556      11.2245      0.00000
    557      11.2532      0.00000
    558      11.3214      0.00000
    559      11.3747      0.00000
    560      11.3791      0.00000
    561      11.4400      0.00000
    562      11.4902      0.00000
    563      11.5863      0.00000
    564      11.7513      0.00000
    565      11.8082      0.00000
    566      11.8772      0.00000
    567      12.1316      0.00000
    568      12.2355      0.00000
    569      12.2595      0.00000
    570      12.2679      0.00000
    571      12.2828      0.00000
    572      12.3043      0.00000
    573      12.3247      0.00000
    574      12.3644      0.00000
    575      12.4311      0.00000
    576      12.5352      0.00000
    577      12.5712      0.00000
    578      12.6236      0.00000
    579      12.6852      0.00000
    580      12.7957      0.00000
    581      13.1294      0.00000
    582      13.1567      0.00000
    583      13.1649      0.00000
    584      13.3663      0.00000
    585      13.3792      0.00000
    586      13.4028      0.00000
    587      13.4332      0.00000
    588      13.5685      0.00000
    589      13.6682      0.00000
    590      13.6901      0.00000
    591      13.7867      0.00000
    592      13.8696      0.00000
    593      13.9148      0.00000
    594      13.9619      0.00000
    595      13.9734      0.00000
    596      13.9970      0.00000
    597      14.0085      0.00000
    598      14.0335      0.00000
    599      14.0598      0.00000
    600      14.1097      0.00000
    601      14.1196      0.00000
    602      14.1721      0.00000
    603      14.2128      0.00000
    604      14.2529      0.00000
    605      14.3478      0.00000
    606      14.4060      0.00000
    607      14.4916      0.00000
    608      14.5370      0.00000
    609      14.5983      0.00000
    610      14.6279      0.00000
    611      14.6755      0.00000
    612      14.7184      0.00000
    613      14.7476      0.00000
    614      14.8307      0.00000
    615      14.8334      0.00000
    616      14.8700      0.00000
    617      15.0088      0.00000
    618      15.0100      0.00000
    619      15.2827      0.00000
    620      15.3476      0.00000
    621      15.3868      0.00000
    622      15.4614      0.00000
    623      15.5330      0.00000
    624      15.6142      0.00000
    625      15.7989      0.00000
    626      15.8611      0.00000
    627      15.9737      0.00000
    628      16.0925      0.00000
    629      16.2043      0.00000
    630      16.3304      0.00000
    631      16.3828      0.00000
    632      16.5321      0.00000

 k-point     6 :       0.5000    0.0000    0.5000
  band No.  band energies     occupation 
      1     -18.5596      2.00000
      2     -18.5282      2.00000
      3     -18.4287      2.00000
      4     -18.3524      2.00000
      5     -17.9378      2.00000
      6     -17.9274      2.00000
      7     -17.9211      2.00000
      8     -17.9144      2.00000
      9     -17.8934      2.00000
     10     -17.8773      2.00000
     11     -17.8335      2.00000
     12     -17.8291      2.00000
     13     -17.7460      2.00000
     14     -17.7414      2.00000
     15     -17.6881      2.00000
     16     -17.6757      2.00000
     17     -17.6564      2.00000
     18     -17.6334      2.00000
     19     -17.6174      2.00000
     20     -17.5530      2.00000
     21     -17.5491      2.00000
     22     -17.5463      2.00000
     23     -17.5392      2.00000
     24     -17.4371      2.00000
     25     -17.4258      2.00000
     26     -17.4137      2.00000
     27     -17.4125      2.00000
     28     -17.4088      2.00000
     29     -17.4059      2.00000
     30     -17.3927      2.00000
     31     -17.3807      2.00000
     32     -17.3572      2.00000
     33     -17.3403      2.00000
     34     -17.3367      2.00000
     35     -17.3209      2.00000
     36     -17.2782      2.00000
     37     -17.2256      2.00000
     38     -17.2127      2.00000
     39     -17.2031      2.00000
     40     -17.1822      2.00000
     41     -17.1695      2.00000
     42     -17.1582      2.00000
     43     -17.1514      2.00000
     44     -17.1325      2.00000
     45     -17.1053      2.00000
     46     -17.0742      2.00000
     47     -17.0594      2.00000
     48     -17.0511      2.00000
     49     -17.0399      2.00000
     50     -17.0286      2.00000
     51     -17.0241      2.00000
     52     -17.0154      2.00000
     53     -16.9962      2.00000
     54     -16.9947      2.00000
     55     -16.9835      2.00000
     56     -16.9628      2.00000
     57     -16.9527      2.00000
     58     -16.9460      2.00000
     59     -16.9249      2.00000
     60     -16.8890      2.00000
     61     -16.8690      2.00000
     62     -16.8558      2.00000
     63     -16.8521      2.00000
     64     -16.8487      2.00000
     65     -16.8472      2.00000
     66     -16.8083      2.00000
     67     -16.8010      2.00000
     68     -16.7856      2.00000
     69     -16.5512      2.00000
     70     -16.3191      2.00000
     71     -16.2213      2.00000
     72     -13.6786      2.00000
     73     -13.1030      2.00000
     74     -13.0952      2.00000
     75     -13.0819      2.00000
     76     -13.0697      2.00000
     77     -13.0658      2.00000
     78     -13.0537      2.00000
     79     -13.0488      2.00000
     80     -13.0456      2.00000
     81     -13.0393      2.00000
     82     -13.0367      2.00000
     83     -13.0253      2.00000
     84     -13.0220      2.00000
     85     -13.0175      2.00000
     86     -13.0079      2.00000
     87     -13.0015      2.00000
     88     -12.9968      2.00000
     89     -12.9926      2.00000
     90     -12.9908      2.00000
     91     -12.9885      2.00000
     92     -12.9833      2.00000
     93     -12.9781      2.00000
     94     -12.9774      2.00000
     95     -12.9749      2.00000
     96     -12.9731      2.00000
     97     -12.9713      2.00000
     98     -12.9676      2.00000
     99     -12.9662      2.00000
    100     -12.9618      2.00000
    101     -12.9597      2.00000
    102     -12.9577      2.00000
    103     -12.9561      2.00000
    104     -12.9550      2.00000
    105     -12.9471      2.00000
    106     -12.9422      2.00000
    107     -12.9414      2.00000
    108     -12.9404      2.00000
    109     -12.9352      2.00000
    110     -12.9324      2.00000
    111     -12.9281      2.00000
    112     -12.9260      2.00000
    113     -12.9197      2.00000
    114     -12.9160      2.00000
    115     -12.9115      2.00000
    116     -12.9052      2.00000
    117     -12.9034      2.00000
    118     -12.9004      2.00000
    119     -12.8969      2.00000
    120     -12.8915      2.00000
    121     -12.8909      2.00000
    122     -12.8891      2.00000
    123     -12.8834      2.00000
    124     -12.8781      2.00000
    125     -12.8747      2.00000
    126     -12.8730      2.00000
    127     -12.8711      2.00000
    128     -12.8689      2.00000
    129     -12.8637      2.00000
    130     -12.8628      2.00000
    131     -12.8616      2.00000
    132     -12.8596      2.00000
    133     -12.8551      2.00000
    134     -12.8525      2.00000
    135     -12.8457      2.00000
    136     -12.8411      2.00000
    137     -12.8400      2.00000
    138     -12.8388      2.00000
    139     -12.8367      2.00000
    140     -12.8339      2.00000
    141     -12.8321      2.00000
    142     -12.8289      2.00000
    143     -12.8260      2.00000
    144     -12.8233      2.00000
    145     -12.8214      2.00000
    146     -12.8191      2.00000
    147     -12.8171      2.00000
    148     -12.8159      2.00000
    149     -12.8133      2.00000
    150     -12.8123      2.00000
    151     -12.8100      2.00000
    152     -12.8082      2.00000
    153     -12.8057      2.00000
    154     -12.8013      2.00000
    155     -12.8005      2.00000
    156     -12.8002      2.00000
    157     -12.7983      2.00000
    158     -12.7957      2.00000
    159     -12.7940      2.00000
    160     -12.7919      2.00000
    161     -12.7877      2.00000
    162     -12.7852      2.00000
    163     -12.7830      2.00000
    164     -12.7815      2.00000
    165     -12.7797      2.00000
    166     -12.7758      2.00000
    167     -12.7749      2.00000
    168     -12.7714      2.00000
    169     -12.7695      2.00000
    170     -12.7654      2.00000
    171     -12.7638      2.00000
    172     -12.7610      2.00000
    173     -12.7593      2.00000
    174     -12.7568      2.00000
    175     -12.7527      2.00000
    176     -12.7482      2.00000
    177     -12.7436      2.00000
    178     -12.7399      2.00000
    179     -12.7364      2.00000
    180     -12.7283      2.00000
    181     -12.7273      2.00000
    182     -12.7226      2.00000
    183     -12.7147      2.00000
    184     -12.7129      2.00000
    185     -12.7054      2.00000
    186     -12.7038      2.00000
    187     -12.7030      2.00000
    188     -12.7018      2.00000
    189     -12.6959      2.00000
    190     -12.6935      2.00000
    191     -12.6933      2.00000
    192     -12.6915      2.00000
    193     -12.6892      2.00000
    194     -12.6878      2.00000
    195     -12.6865      2.00000
    196     -12.6845      2.00000
    197     -12.6837      2.00000
    198     -12.6812      2.00000
    199     -12.6793      2.00000
    200     -12.6768      2.00000
    201     -12.6742      2.00000
    202     -12.6712      2.00000
    203     -12.6701      2.00000
    204     -12.6679      2.00000
    205     -12.6656      2.00000
    206     -12.6631      2.00000
    207     -12.6585      2.00000
    208     -12.6577      2.00000
    209     -12.6555      2.00000
    210     -12.6528      2.00000
    211     -12.6502      2.00000
    212     -12.6451      2.00000
    213     -12.6445      2.00000
    214     -12.6428      2.00000
    215     -12.6330      2.00000
    216     -12.6293      2.00000
    217     -12.6259      2.00000
    218     -12.6205      2.00000
    219     -12.6180      2.00000
    220     -12.6149      2.00000
    221     -12.6142      2.00000
    222     -12.6122      2.00000
    223     -12.6098      2.00000
    224     -12.6018      2.00000
    225     -12.5991      2.00000
    226     -12.5956      2.00000
    227     -12.5906      2.00000
    228     -12.5870      2.00000
    229     -12.5823      2.00000
    230     -12.5791      2.00000
    231     -12.5758      2.00000
    232     -12.5705      2.00000
    233     -12.5650      2.00000
    234     -12.5629      2.00000
    235     -12.5607      2.00000
    236     -12.5585      2.00000
    237     -12.5547      2.00000
    238     -12.5527      2.00000
    239     -12.5503      2.00000
    240     -12.5460      2.00000
    241     -12.5420      2.00000
    242     -12.5374      2.00000
    243     -12.5257      2.00000
    244     -12.5215      2.00000
    245     -12.5111      2.00000
    246     -12.5082      2.00000
    247     -12.5003      2.00000
    248     -12.4979      2.00000
    249     -12.4897      2.00000
    250     -12.4845      2.00000
    251     -12.4792      2.00000
    252     -12.4730      2.00000
    253     -12.4689      2.00000
    254     -12.4623      2.00000
    255     -12.4548      2.00000
    256     -12.4534      2.00000
    257     -12.4481      2.00000
    258     -12.4410      2.00000
    259     -12.4259      2.00000
    260     -12.4190      2.00000
    261     -12.4074      2.00000
    262     -12.4021      2.00000
    263     -12.3885      2.00000
    264     -12.3791      2.00000
    265     -12.3705      2.00000
    266     -12.3492      2.00000
    267     -12.3441      2.00000
    268     -12.3360      2.00000
    269     -12.3354      2.00000
    270     -12.3306      2.00000
    271     -12.3188      2.00000
    272     -12.3058      2.00000
    273     -12.2772      2.00000
    274     -12.2654      2.00000
    275     -12.2533      2.00000
    276     -12.2311      2.00000
    277     -12.2131      2.00000
    278     -12.1953      2.00000
    279     -12.1689      2.00000
    280     -12.1390      2.00000
    281     -12.1293      2.00000
    282     -12.0710      2.00000
    283     -12.0206      2.00000
    284     -12.0034      2.00000
    285     -11.9979      2.00000
    286     -11.9789      2.00000
    287     -11.9703      2.00000
    288     -11.9616      2.00000
    289     -11.9571      2.00000
    290     -11.9483      2.00000
    291     -11.9399      2.00000
    292     -11.9275      2.00000
    293     -11.9012      2.00000
    294     -11.8953      2.00000
    295     -11.8928      2.00000
    296     -11.8761      2.00000
    297     -11.8644      2.00000
    298     -11.8575      2.00000
    299     -11.8295      2.00000
    300     -11.8029      2.00000
    301     -11.7835      2.00000
    302     -11.7479      2.00000
    303     -11.7252      2.00000
    304     -11.7247      2.00000
    305     -11.6934      2.00000
    306     -11.6212      2.00000
    307     -10.9239      2.00000
    308      -5.0044      2.00000
    309      -4.9405      2.00000
    310      -4.5563      2.00000
    311      -4.5458      2.00000
    312      -4.5438      2.00000
    313      -4.5188      2.00000
    314      -4.4919      2.00000
    315      -4.4822      2.00000
    316      -4.4504      2.00000
    317      -4.4438      2.00000
    318      -4.3720      2.00000
    319      -4.3003      2.00000
    320      -4.2671      2.00000
    321      -4.2628      2.00000
    322      -4.2180      2.00000
    323      -4.2004      2.00000
    324      -4.1101      2.00000
    325      -4.0952      2.00000
    326      -4.0627      2.00000
    327      -4.0092      2.00000
    328      -4.0013      2.00000
    329      -3.9842      2.00000
    330      -3.9591      2.00000
    331      -3.9472      2.00000
    332      -3.9222      2.00000
    333      -3.9114      2.00000
    334      -3.8113      2.00000
    335      -3.7904      2.00000
    336      -3.7679      2.00000
    337      -3.7198      2.00000
    338      -3.6968      2.00000
    339      -3.3414      2.00000
    340      -3.2739      2.00000
    341      -3.2153      2.00000
    342      -3.1268      2.00000
    343      -3.1221      2.00000
    344      -3.1016      2.00000
    345      -3.0759      2.00000
    346      -3.0727      2.00000
    347      -3.0508      2.00000
    348      -3.0448      2.00000
    349      -3.0055      2.00000
    350      -2.9417      2.00000
    351      -2.7900      2.00000
    352      -2.7573      2.00000
    353      -2.7346      2.00000
    354      -2.7028      2.00000
    355      -2.6390      2.00000
    356      -2.4963      2.00000
    357      -2.4606      2.00000
    358      -2.4371      2.00000
    359      -2.3094      2.00000
    360      -2.3025      2.00000
    361      -2.2780      2.00000
    362      -2.2467      2.00000
    363      -2.1763      2.00000
    364      -2.1204      2.00000
    365      -2.0839      2.00000
    366      -2.0552      2.00000
    367      -2.0382      2.00000
    368      -2.0137      2.00000
    369      -1.9110      2.00000
    370      -1.8516      2.00000
    371      -1.7699      2.00000
    372      -1.7650      2.00000
    373      -1.7511      2.00000
    374      -1.7481      2.00000
    375      -1.7356      2.00000
    376      -1.7170      2.00000
    377      -1.6999      2.00000
    378      -1.6737      2.00000
    379      -1.6183      2.00000
    380      -1.5798      2.00000
    381      -1.5644      2.00000
    382      -1.5437      2.00000
    383      -1.5043      2.00000
    384      -1.4869      2.00000
    385      -1.4378      2.00000
    386      -1.3891      2.00000
    387      -1.3766      2.00000
    388      -1.3546      2.00000
    389      -1.3235      2.00000
    390      -1.3058      2.00000
    391      -1.2897      2.00000
    392      -1.2753      2.00000
    393      -1.1895      2.00000
    394      -1.1691      2.00000
    395      -1.1367      2.00000
    396      -1.0582      2.00000
    397      -0.9614      2.00000
    398      -0.9208      2.00000
    399      -0.9081      2.00000
    400      -0.8977      2.00000
    401      -0.8792      2.00000
    402      -0.8697      2.00000
    403      -0.8464      2.00000
    404      -0.8252      2.00000
    405      -0.7829      2.00000
    406      -0.7271      2.00000
    407      -0.6695      2.00000
    408      -0.6119      2.00000
    409      -0.5391      2.00000
    410      -0.4927      2.00000
    411      -0.4654      2.00000
    412      -0.4535      2.00000
    413      -0.4236      2.00000
    414      -0.3825      2.00000
    415      -0.3307      2.00000
    416      -0.3011      2.00000
    417      -0.2721      2.00000
    418      -0.2710      2.00000
    419      -0.2457      2.00000
    420      -0.2183      2.00000
    421      -0.1991      2.00000
    422      -0.1883      2.00000
    423      -0.1668      2.00000
    424      -0.1487      2.00000
    425      -0.1264      2.00000
    426      -0.1048      2.00000
    427      -0.0871      2.00000
    428      -0.0680      2.00000
    429      -0.0458      2.00000
    430      -0.0174      2.00000
    431       0.0315      2.00000
    432       0.0357      2.00000
    433       0.0477      2.00000
    434       0.0605      2.00000
    435       0.0766      2.00000
    436       0.0892      2.00000
    437       0.1245      2.00000
    438       0.1594      2.00000
    439       0.1915      2.00000
    440       0.2215      2.00000
    441       0.2320      2.00000
    442       0.2575      2.00000
    443       0.2784      2.00000
    444       0.3244      2.00000
    445       0.3373      2.00000
    446       0.3874      2.00000
    447       0.4045      2.00000
    448       0.4385      2.00000
    449       0.4639      2.00000
    450       0.5178      2.00000
    451       0.5378      2.00000
    452       0.5526      2.00000
    453       0.5719      2.00000
    454       0.6139      2.00000
    455       0.6258      2.00000
    456       0.6342      2.00000
    457       0.6473      2.00000
    458       0.6769      2.00000
    459       0.6823      2.00000
    460       0.7092      2.00000
    461       0.7232      2.00000
    462       0.7335      2.00000
    463       0.7659      2.00000
    464       0.7918      2.00000
    465       0.8176      2.00000
    466       0.8332      2.00000
    467       0.8382      2.00000
    468       0.8491      2.00000
    469       0.8733      2.00000
    470       0.8825      2.00000
    471       1.0016      2.00000
    472       1.0149      2.00000
    473       1.0189      2.00000
    474       1.0397      2.00000
    475       1.0428      2.00000
    476       1.0538      2.00000
    477       1.0996      2.00000
    478       1.1173      2.00000
    479       1.1245      2.00000
    480       1.1419      2.00000
    481       1.1676      2.00000
    482       1.1909      2.00000
    483       1.2169      2.00000
    484       1.2273      2.00000
    485       1.2369      2.00000
    486       1.2548      2.00000
    487       1.2650      2.00000
    488       1.2768      2.00000
    489       1.3133      2.00000
    490       1.3320      2.00000
    491       1.3531      2.00000
    492       1.3798      2.00000
    493       1.3959      2.00000
    494       1.4101      2.00000
    495       1.4206      2.00000
    496       1.4335      2.00000
    497       1.4416      2.00000
    498       1.4595      2.00000
    499       1.4685      2.00000
    500       1.4797      2.00000
    501       1.5048      2.00000
    502       1.5188      2.00000
    503       1.5460      2.00000
    504       1.5518      2.00000
    505       1.5631      2.00000
    506       1.5834      2.00000
    507       1.6147      2.00000
    508       1.6230      2.00000
    509       1.6296      2.00000
    510       1.6368      2.00000
    511       1.6673      2.00000
    512       1.6771      2.00000
    513       1.7095      2.00000
    514       1.7268      2.00000
    515       1.7421      2.00000
    516       1.7481      2.00000
    517       1.7944      2.00000
    518       1.8035      2.00000
    519       1.8535      2.00000
    520       1.9161      2.00000
    521       1.9699      2.00000
    522       1.9894      2.00000
    523       2.0708      2.00000
    524       2.1774      2.00000
    525       2.6053      2.00000
    526       2.8668      2.00000
    527       3.1975      2.00000
    528       5.5228      0.00000
    529       7.9457      0.00000
    530       8.0114      0.00000
    531       8.5377      0.00000
    532       8.8034      0.00000
    533      10.4170      0.00000
    534      10.5124      0.00000
    535      10.5222      0.00000
    536      10.6021      0.00000
    537      10.6056      0.00000
    538      10.6162      0.00000
    539      10.6276      0.00000
    540      10.6565      0.00000
    541      10.6638      0.00000
    542      10.6699      0.00000
    543      10.6700      0.00000
    544      10.6885      0.00000
    545      10.7127      0.00000
    546      10.7185      0.00000
    547      10.7233      0.00000
    548      10.7888      0.00000
    549      10.8079      0.00000
    550      10.9911      0.00000
    551      11.0084      0.00000
    552      11.0093      0.00000
    553      11.0409      0.00000
    554      11.1563      0.00000
    555      11.1700      0.00000
    556      11.1893      0.00000
    557      11.2431      0.00000
    558      11.3632      0.00000
    559      11.4028      0.00000
    560      11.5619      0.00000
    561      11.6390      0.00000
    562      11.6530      0.00000
    563      11.6880      0.00000
    564      11.7019      0.00000
    565      11.7503      0.00000
    566      11.8389      0.00000
    567      11.9999      0.00000
    568      12.0198      0.00000
    569      12.0671      0.00000
    570      12.3714      0.00000
    571      12.4702      0.00000
    572      12.5593      0.00000
    573      12.5661      0.00000
    574      12.5854      0.00000
    575      12.5998      0.00000
    576      12.6893      0.00000
    577      12.7136      0.00000
    578      12.7327      0.00000
    579      12.8201      0.00000
    580      12.8524      0.00000
    581      12.9014      0.00000
    582      12.9414      0.00000
    583      13.0683      0.00000
    584      13.2619      0.00000
    585      13.2995      0.00000
    586      13.3559      0.00000
    587      13.3900      0.00000
    588      13.4306      0.00000
    589      13.5244      0.00000
    590      13.5676      0.00000
    591      13.5921      0.00000
    592      13.6537      0.00000
    593      13.7018      0.00000
    594      13.7299      0.00000
    595      13.7396      0.00000
    596      13.7870      0.00000
    597      13.8606      0.00000
    598      13.9463      0.00000
    599      13.9737      0.00000
    600      13.9945      0.00000
    601      14.1131      0.00000
    602      14.1156      0.00000
    603      14.2324      0.00000
    604      14.3127      0.00000
    605      14.4128      0.00000
    606      14.4341      0.00000
    607      14.4509      0.00000
    608      14.4714      0.00000
    609      14.5146      0.00000
    610      14.5331      0.00000
    611      14.6100      0.00000
    612      14.6276      0.00000
    613      14.7408      0.00000
    614      14.8677      0.00000
    615      14.9586      0.00000
    616      15.0496      0.00000
    617      15.0900      0.00000
    618      15.1982      0.00000
    619      15.2435      0.00000
    620      15.3815      0.00000
    621      15.4744      0.00000
    622      15.5498      0.00000
    623      15.6349      0.00000
    624      15.7228      0.00000
    625      15.7848      0.00000
    626      15.8615      0.00000
    627      15.9159      0.00000
    628      16.0077      0.00000
    629      16.1041      0.00000
    630      16.1365      0.00000
    631      16.3382      0.00000
    632      16.5940      0.00000

 k-point     7 :       0.0000    0.5000    0.5000
  band No.  band energies     occupation 
      1     -18.4364      2.00000
      2     -18.4128      2.00000
      3     -18.3708      2.00000
      4     -18.3137      2.00000
      5     -18.1810      2.00000
      6     -18.1396      2.00000
      7     -18.1384      2.00000
      8     -18.0687      2.00000
      9     -17.9288      2.00000
     10     -17.8941      2.00000
     11     -17.8576      2.00000
     12     -17.7915      2.00000
     13     -17.6617      2.00000
     14     -17.6380      2.00000
     15     -17.6242      2.00000
     16     -17.6145      2.00000
     17     -17.6016      2.00000
     18     -17.5765      2.00000
     19     -17.5654      2.00000
     20     -17.5554      2.00000
     21     -17.5354      2.00000
     22     -17.5047      2.00000
     23     -17.4882      2.00000
     24     -17.4805      2.00000
     25     -17.4719      2.00000
     26     -17.4375      2.00000
     27     -17.4254      2.00000
     28     -17.4200      2.00000
     29     -17.3726      2.00000
     30     -17.3653      2.00000
     31     -17.3362      2.00000
     32     -17.3118      2.00000
     33     -17.2946      2.00000
     34     -17.2821      2.00000
     35     -17.2721      2.00000
     36     -17.2627      2.00000
     37     -17.2478      2.00000
     38     -17.2338      2.00000
     39     -17.2192      2.00000
     40     -17.2160      2.00000
     41     -17.1866      2.00000
     42     -17.1813      2.00000
     43     -17.1572      2.00000
     44     -17.1460      2.00000
     45     -17.1169      2.00000
     46     -17.1021      2.00000
     47     -17.0912      2.00000
     48     -17.0827      2.00000
     49     -17.0628      2.00000
     50     -17.0285      2.00000
     51     -17.0202      2.00000
     52     -17.0132      2.00000
     53     -16.9910      2.00000
     54     -16.9851      2.00000
     55     -16.9784      2.00000
     56     -16.9705      2.00000
     57     -16.9659      2.00000
     58     -16.9304      2.00000
     59     -16.8966      2.00000
     60     -16.8799      2.00000
     61     -16.8765      2.00000
     62     -16.8594      2.00000
     63     -16.8451      2.00000
     64     -16.8426      2.00000
     65     -16.8274      2.00000
     66     -16.8207      2.00000
     67     -16.7969      2.00000
     68     -16.7896      2.00000
     69     -16.5542      2.00000
     70     -16.3175      2.00000
     71     -16.2214      2.00000
     72     -13.6790      2.00000
     73     -13.0963      2.00000
     74     -13.0902      2.00000
     75     -13.0720      2.00000
     76     -13.0653      2.00000
     77     -13.0603      2.00000
     78     -13.0562      2.00000
     79     -13.0530      2.00000
     80     -13.0506      2.00000
     81     -13.0355      2.00000
     82     -13.0326      2.00000
     83     -13.0298      2.00000
     84     -13.0282      2.00000
     85     -13.0224      2.00000
     86     -13.0148      2.00000
     87     -13.0122      2.00000
     88     -13.0044      2.00000
     89     -13.0041      2.00000
     90     -13.0014      2.00000
     91     -12.9949      2.00000
     92     -12.9933      2.00000
     93     -12.9895      2.00000
     94     -12.9885      2.00000
     95     -12.9838      2.00000
     96     -12.9787      2.00000
     97     -12.9738      2.00000
     98     -12.9694      2.00000
     99     -12.9688      2.00000
    100     -12.9620      2.00000
    101     -12.9609      2.00000
    102     -12.9582      2.00000
    103     -12.9534      2.00000
    104     -12.9520      2.00000
    105     -12.9515      2.00000
    106     -12.9469      2.00000
    107     -12.9438      2.00000
    108     -12.9433      2.00000
    109     -12.9397      2.00000
    110     -12.9362      2.00000
    111     -12.9324      2.00000
    112     -12.9310      2.00000
    113     -12.9263      2.00000
    114     -12.9248      2.00000
    115     -12.9221      2.00000
    116     -12.9147      2.00000
    117     -12.9110      2.00000
    118     -12.9063      2.00000
    119     -12.9051      2.00000
    120     -12.9021      2.00000
    121     -12.8945      2.00000
    122     -12.8939      2.00000
    123     -12.8930      2.00000
    124     -12.8864      2.00000
    125     -12.8844      2.00000
    126     -12.8814      2.00000
    127     -12.8785      2.00000
    128     -12.8730      2.00000
    129     -12.8708      2.00000
    130     -12.8704      2.00000
    131     -12.8667      2.00000
    132     -12.8629      2.00000
    133     -12.8609      2.00000
    134     -12.8535      2.00000
    135     -12.8515      2.00000
    136     -12.8484      2.00000
    137     -12.8455      2.00000
    138     -12.8438      2.00000
    139     -12.8379      2.00000
    140     -12.8350      2.00000
    141     -12.8300      2.00000
    142     -12.8270      2.00000
    143     -12.8264      2.00000
    144     -12.8238      2.00000
    145     -12.8218      2.00000
    146     -12.8195      2.00000
    147     -12.8162      2.00000
    148     -12.8132      2.00000
    149     -12.8119      2.00000
    150     -12.8107      2.00000
    151     -12.8053      2.00000
    152     -12.8032      2.00000
    153     -12.8021      2.00000
    154     -12.8005      2.00000
    155     -12.7974      2.00000
    156     -12.7930      2.00000
    157     -12.7894      2.00000
    158     -12.7864      2.00000
    159     -12.7838      2.00000
    160     -12.7815      2.00000
    161     -12.7767      2.00000
    162     -12.7763      2.00000
    163     -12.7735      2.00000
    164     -12.7706      2.00000
    165     -12.7679      2.00000
    166     -12.7654      2.00000
    167     -12.7641      2.00000
    168     -12.7625      2.00000
    169     -12.7596      2.00000
    170     -12.7581      2.00000
    171     -12.7562      2.00000
    172     -12.7541      2.00000
    173     -12.7509      2.00000
    174     -12.7500      2.00000
    175     -12.7487      2.00000
    176     -12.7460      2.00000
    177     -12.7436      2.00000
    178     -12.7411      2.00000
    179     -12.7398      2.00000
    180     -12.7373      2.00000
    181     -12.7311      2.00000
    182     -12.7288      2.00000
    183     -12.7261      2.00000
    184     -12.7255      2.00000
    185     -12.7200      2.00000
    186     -12.7156      2.00000
    187     -12.7138      2.00000
    188     -12.7116      2.00000
    189     -12.7084      2.00000
    190     -12.7037      2.00000
    191     -12.7024      2.00000
    192     -12.6971      2.00000
    193     -12.6928      2.00000
    194     -12.6902      2.00000
    195     -12.6837      2.00000
    196     -12.6821      2.00000
    197     -12.6806      2.00000
    198     -12.6800      2.00000
    199     -12.6772      2.00000
    200     -12.6747      2.00000
    201     -12.6693      2.00000
    202     -12.6674      2.00000
    203     -12.6625      2.00000
    204     -12.6581      2.00000
    205     -12.6563      2.00000
    206     -12.6496      2.00000
    207     -12.6439      2.00000
    208     -12.6423      2.00000
    209     -12.6401      2.00000
    210     -12.6379      2.00000
    211     -12.6331      2.00000
    212     -12.6326      2.00000
    213     -12.6281      2.00000
    214     -12.6277      2.00000
    215     -12.6228      2.00000
    216     -12.6194      2.00000
    217     -12.6174      2.00000
    218     -12.6103      2.00000
    219     -12.6087      2.00000
    220     -12.6065      2.00000
    221     -12.6039      2.00000
    222     -12.6021      2.00000
    223     -12.5961      2.00000
    224     -12.5915      2.00000
    225     -12.5887      2.00000
    226     -12.5857      2.00000
    227     -12.5823      2.00000
    228     -12.5791      2.00000
    229     -12.5763      2.00000
    230     -12.5744      2.00000
    231     -12.5709      2.00000
    232     -12.5680      2.00000
    233     -12.5653      2.00000
    234     -12.5603      2.00000
    235     -12.5552      2.00000
    236     -12.5480      2.00000
    237     -12.5460      2.00000
    238     -12.5418      2.00000
    239     -12.5364      2.00000
    240     -12.5318      2.00000
    241     -12.5269      2.00000
    242     -12.5248      2.00000
    243     -12.5236      2.00000
    244     -12.5134      2.00000
    245     -12.5088      2.00000
    246     -12.5069      2.00000
    247     -12.4994      2.00000
    248     -12.4922      2.00000
    249     -12.4862      2.00000
    250     -12.4808      2.00000
    251     -12.4781      2.00000
    252     -12.4753      2.00000
    253     -12.4693      2.00000
    254     -12.4588      2.00000
    255     -12.4546      2.00000
    256     -12.4506      2.00000
    257     -12.4291      2.00000
    258     -12.4228      2.00000
    259     -12.4146      2.00000
    260     -12.4041      2.00000
    261     -12.3965      2.00000
    262     -12.3867      2.00000
    263     -12.3792      2.00000
    264     -12.3731      2.00000
    265     -12.3656      2.00000
    266     -12.3549      2.00000
    267     -12.3489      2.00000
    268     -12.3457      2.00000
    269     -12.3329      2.00000
    270     -12.3219      2.00000
    271     -12.3153      2.00000
    272     -12.3038      2.00000
    273     -12.2934      2.00000
    274     -12.2804      2.00000
    275     -12.2644      2.00000
    276     -12.2540      2.00000
    277     -12.2319      2.00000
    278     -12.2044      2.00000
    279     -12.1817      2.00000
    280     -12.1768      2.00000
    281     -12.1644      2.00000
    282     -12.1602      2.00000
    283     -12.1187      2.00000
    284     -12.0855      2.00000
    285     -12.0638      2.00000
    286     -12.0489      2.00000
    287     -12.0309      2.00000
    288     -12.0141      2.00000
    289     -11.9964      2.00000
    290     -11.9880      2.00000
    291     -11.9786      2.00000
    292     -11.9550      2.00000
    293     -11.9143      2.00000
    294     -11.8667      2.00000
    295     -11.8519      2.00000
    296     -11.8499      2.00000
    297     -11.8156      2.00000
    298     -11.8020      2.00000
    299     -11.7532      2.00000
    300     -11.7360      2.00000
    301     -11.7296      2.00000
    302     -11.7227      2.00000
    303     -11.6940      2.00000
    304     -11.6897      2.00000
    305     -11.6758      2.00000
    306     -11.5804      2.00000
    307     -10.9186      2.00000
    308      -4.7788      2.00000
    309      -4.7609      2.00000
    310      -4.7551      2.00000
    311      -4.7502      2.00000
    312      -4.7299      2.00000
    313      -4.7217      2.00000
    314      -4.6896      2.00000
    315      -4.6631      2.00000
    316      -4.5452      2.00000
    317      -4.5224      2.00000
    318      -4.5058      2.00000
    319      -4.5025      2.00000
    320      -4.4754      2.00000
    321      -4.4525      2.00000
    322      -4.3910      2.00000
    323      -4.3030      2.00000
    324      -4.2970      2.00000
    325      -4.2870      2.00000
    326      -4.2260      2.00000
    327      -3.9860      2.00000
    328      -3.9835      2.00000
    329      -3.9522      2.00000
    330      -3.9253      2.00000
    331      -3.7651      2.00000
    332      -3.7538      2.00000
    333      -3.7127      2.00000
    334      -3.6789      2.00000
    335      -3.6727      2.00000
    336      -3.6682      2.00000
    337      -3.6592      2.00000
    338      -3.5544      2.00000
    339      -3.5189      2.00000
    340      -3.4519      2.00000
    341      -3.4277      2.00000
    342      -3.3586      2.00000
    343      -2.9756      2.00000
    344      -2.9360      2.00000
    345      -2.9285      2.00000
    346      -2.9159      2.00000
    347      -2.8909      2.00000
    348      -2.8725      2.00000
    349      -2.8452      2.00000
    350      -2.8241      2.00000
    351      -2.7641      2.00000
    352      -2.5117      2.00000
    353      -2.4611      2.00000
    354      -2.4183      2.00000
    355      -2.4137      2.00000
    356      -2.3970      2.00000
    357      -2.3855      2.00000
    358      -2.3257      2.00000
    359      -2.3112      2.00000
    360      -2.2904      2.00000
    361      -2.2668      2.00000
    362      -2.2307      2.00000
    363      -2.0002      2.00000
    364      -1.9572      2.00000
    365      -1.9339      2.00000
    366      -1.9106      2.00000
    367      -1.8457      2.00000
    368      -1.8298      2.00000
    369      -1.8152      2.00000
    370      -1.7944      2.00000
    371      -1.7787      2.00000
    372      -1.7739      2.00000
    373      -1.7691      2.00000
    374      -1.7551      2.00000
    375      -1.7490      2.00000
    376      -1.7366      2.00000
    377      -1.6927      2.00000
    378      -1.6583      2.00000
    379      -1.5577      2.00000
    380      -1.5176      2.00000
    381      -1.4903      2.00000
    382      -1.4514      2.00000
    383      -1.3987      2.00000
    384      -1.3631      2.00000
    385      -1.3280      2.00000
    386      -1.3068      2.00000
    387      -1.2751      2.00000
    388      -1.2668      2.00000
    389      -1.2339      2.00000
    390      -1.2109      2.00000
    391      -1.1871      2.00000
    392      -1.1716      2.00000
    393      -1.1414      2.00000
    394      -1.1288      2.00000
    395      -1.0775      2.00000
    396      -1.0529      2.00000
    397      -0.9567      2.00000
    398      -0.9467      2.00000
    399      -0.9211      2.00000
    400      -0.9058      2.00000
    401      -0.8792      2.00000
    402      -0.8462      2.00000
    403      -0.7945      2.00000
    404      -0.7588      2.00000
    405      -0.7120      2.00000
    406      -0.6816      2.00000
    407      -0.6592      2.00000
    408      -0.6361      2.00000
    409      -0.6192      2.00000
    410      -0.6137      2.00000
    411      -0.6100      2.00000
    412      -0.5943      2.00000
    413      -0.5888      2.00000
    414      -0.5704      2.00000
    415      -0.5509      2.00000
    416      -0.5392      2.00000
    417      -0.5088      2.00000
    418      -0.4927      2.00000
    419      -0.4304      2.00000
    420      -0.3979      2.00000
    421      -0.3726      2.00000
    422      -0.3454      2.00000
    423      -0.2993      2.00000
    424      -0.1815      2.00000
    425      -0.1202      2.00000
    426      -0.0768      2.00000
    427      -0.0362      2.00000
    428       0.0294      2.00000
    429       0.0371      2.00000
    430       0.0673      2.00000
    431       0.0873      2.00000
    432       0.1058      2.00000
    433       0.1616      2.00000
    434       0.1751      2.00000
    435       0.1862      2.00000
    436       0.2030      2.00000
    437       0.2260      2.00000
    438       0.2491      2.00000
    439       0.2713      2.00000
    440       0.2846      2.00000
    441       0.3111      2.00000
    442       0.3198      2.00000
    443       0.3329      2.00000
    444       0.3569      2.00000
    445       0.3632      2.00000
    446       0.3740      2.00000
    447       0.3968      2.00000
    448       0.4060      2.00000
    449       0.4148      2.00000
    450       0.4451      2.00000
    451       0.4656      2.00000
    452       0.4924      2.00000
    453       0.5487      2.00000
    454       0.5669      2.00000
    455       0.5773      2.00000
    456       0.5935      2.00000
    457       0.6001      2.00000
    458       0.6253      2.00000
    459       0.6382      2.00000
    460       0.6454      2.00000
    461       0.6535      2.00000
    462       0.6729      2.00000
    463       0.6927      2.00000
    464       0.7018      2.00000
    465       0.7162      2.00000
    466       0.7489      2.00000
    467       0.7753      2.00000
    468       0.7784      2.00000
    469       0.8095      2.00000
    470       0.8340      2.00000
    471       0.8638      2.00000
    472       0.8706      2.00000
    473       0.8786      2.00000
    474       0.9059      2.00000
    475       0.9279      2.00000
    476       0.9952      2.00000
    477       1.0105      2.00000
    478       1.0467      2.00000
    479       1.1010      2.00000
    480       1.1197      2.00000
    481       1.1426      2.00000
    482       1.1474      2.00000
    483       1.1545      2.00000
    484       1.1632      2.00000
    485       1.1756      2.00000
    486       1.2063      2.00000
    487       1.2337      2.00000
    488       1.2537      2.00000
    489       1.2732      2.00000
    490       1.2799      2.00000
    491       1.3119      2.00000
    492       1.3188      2.00000
    493       1.3383      2.00000
    494       1.3494      2.00000
    495       1.3747      2.00000
    496       1.4034      2.00000
    497       1.4065      2.00000
    498       1.4676      2.00000
    499       1.4772      2.00000
    500       1.4806      2.00000
    501       1.4927      2.00000
    502       1.5120      2.00000
    503       1.5296      2.00000
    504       1.5447      2.00000
    505       1.5714      2.00000
    506       1.5844      2.00000
    507       1.5982      2.00000
    508       1.6187      2.00000
    509       1.6244      2.00000
    510       1.6489      2.00000
    511       1.6546      2.00000
    512       1.6653      2.00000
    513       1.6711      2.00000
    514       1.7147      2.00000
    515       1.7294      2.00000
    516       1.7387      2.00000
    517       1.7634      2.00000
    518       1.8031      2.00000
    519       1.8881      2.00000
    520       1.9319      2.00000
    521       1.9675      2.00000
    522       1.9969      2.00000
    523       2.0837      2.00000
    524       2.2475      2.00000
    525       2.6007      2.00000
    526       2.8399      2.00000
    527       3.0990      2.00000
    528       5.4975      0.00000
    529       8.6428      0.00000
    530       8.6714      0.00000
    531       8.7474      0.00000
    532       8.8372      0.00000
    533       9.7762      0.00000
    534       9.9567      0.00000
    535      10.0553      0.00000
    536      10.1399      0.00000
    537      10.3247      0.00000
    538      10.3284      0.00000
    539      10.4010      0.00000
    540      10.4902      0.00000
    541      10.5691      0.00000
    542      10.5936      0.00000
    543      10.6275      0.00000
    544      10.6762      0.00000
    545      10.7968      0.00000
    546      10.8155      0.00000
    547      10.8372      0.00000
    548      10.9418      0.00000
    549      11.2621      0.00000
    550      11.2781      0.00000
    551      11.3371      0.00000
    552      11.4361      0.00000
    553      11.6457      0.00000
    554      11.6573      0.00000
    555      11.6890      0.00000
    556      11.7184      0.00000
    557      11.7547      0.00000
    558      11.7604      0.00000
    559      11.8280      0.00000
    560      11.8546      0.00000
    561      11.8705      0.00000
    562      11.8797      0.00000
    563      11.9061      0.00000
    564      11.9399      0.00000
    565      11.9574      0.00000
    566      12.0488      0.00000
    567      12.0990      0.00000
    568      12.1637      0.00000
    569      12.3453      0.00000
    570      12.3481      0.00000
    571      12.3989      0.00000
    572      12.4131      0.00000
    573      12.4202      0.00000
    574      12.4329      0.00000
    575      12.4859      0.00000
    576      12.4911      0.00000
    577      12.4995      0.00000
    578      12.5791      0.00000
    579      12.5949      0.00000
    580      12.6462      0.00000
    581      12.6635      0.00000
    582      12.7048      0.00000
    583      12.7617      0.00000
    584      13.0150      0.00000
    585      13.0683      0.00000
    586      13.1412      0.00000
    587      13.1700      0.00000
    588      13.2945      0.00000
    589      13.3422      0.00000
    590      13.3822      0.00000
    591      13.4072      0.00000
    592      13.4487      0.00000
    593      13.5244      0.00000
    594      13.5786      0.00000
    595      13.6227      0.00000
    596      13.6423      0.00000
    597      13.7087      0.00000
    598      13.7298      0.00000
    599      13.7665      0.00000
    600      13.9850      0.00000
    601      14.4205      0.00000
    602      14.4715      0.00000
    603      14.5046      0.00000
    604      14.5514      0.00000
    605      14.6051      0.00000
    606      14.6477      0.00000
    607      14.6755      0.00000
    608      14.7149      0.00000
    609      14.7380      0.00000
    610      14.7845      0.00000
    611      14.8213      0.00000
    612      14.8489      0.00000
    613      14.8806      0.00000
    614      14.9255      0.00000
    615      14.9359      0.00000
    616      15.0438      0.00000
    617      15.1017      0.00000
    618      15.1813      0.00000
    619      15.3076      0.00000
    620      15.4032      0.00000
    621      15.4811      0.00000
    622      15.5690      0.00000
    623      15.6521      0.00000
    624      15.7074      0.00000
    625      15.7925      0.00000
    626      15.9118      0.00000
    627      15.9309      0.00000
    628      16.1218      0.00000
    629      16.1974      0.00000
    630      16.2696      0.00000
    631      16.5193      0.00000
    632      16.6201      0.00000

 k-point     8 :       0.5000    0.5000    0.5000
  band No.  band energies     occupation 
      1     -18.3824      2.00000
      2     -18.3591      2.00000
      3     -18.3558      2.00000
      4     -18.3217      2.00000
      5     -18.2660      2.00000
      6     -18.2301      2.00000
      7     -18.2215      2.00000
      8     -18.1051      2.00000
      9     -17.8205      2.00000
     10     -17.8041      2.00000
     11     -17.7957      2.00000
     12     -17.7579      2.00000
     13     -17.6176      2.00000
     14     -17.6139      2.00000
     15     -17.6040      2.00000
     16     -17.5904      2.00000
     17     -17.5816      2.00000
     18     -17.5795      2.00000
     19     -17.5748      2.00000
     20     -17.5656      2.00000
     21     -17.5632      2.00000
     22     -17.5621      2.00000
     23     -17.5470      2.00000
     24     -17.5358      2.00000
     25     -17.5012      2.00000
     26     -17.4740      2.00000
     27     -17.4334      2.00000
     28     -17.4250      2.00000
     29     -17.3780      2.00000
     30     -17.3746      2.00000
     31     -17.3249      2.00000
     32     -17.3103      2.00000
     33     -17.2802      2.00000
     34     -17.2729      2.00000
     35     -17.2652      2.00000
     36     -17.2492      2.00000
     37     -17.2438      2.00000
     38     -17.2322      2.00000
     39     -17.2260      2.00000
     40     -17.2163      2.00000
     41     -17.1888      2.00000
     42     -17.1751      2.00000
     43     -17.1651      2.00000
     44     -17.1394      2.00000
     45     -17.1302      2.00000
     46     -17.0998      2.00000
     47     -17.0822      2.00000
     48     -17.0767      2.00000
     49     -17.0551      2.00000
     50     -17.0311      2.00000
     51     -17.0223      2.00000
     52     -17.0124      2.00000
     53     -16.9937      2.00000
     54     -16.9853      2.00000
     55     -16.9823      2.00000
     56     -16.9703      2.00000
     57     -16.9663      2.00000
     58     -16.9306      2.00000
     59     -16.8943      2.00000
     60     -16.8788      2.00000
     61     -16.8704      2.00000
     62     -16.8661      2.00000
     63     -16.8453      2.00000
     64     -16.8385      2.00000
     65     -16.8292      2.00000
     66     -16.8200      2.00000
     67     -16.7970      2.00000
     68     -16.7909      2.00000
     69     -16.5541      2.00000
     70     -16.3179      2.00000
     71     -16.2212      2.00000
     72     -13.6790      2.00000
     73     -13.0915      2.00000
     74     -13.0883      2.00000
     75     -13.0771      2.00000
     76     -13.0684      2.00000
     77     -13.0602      2.00000
     78     -13.0589      2.00000
     79     -13.0504      2.00000
     80     -13.0476      2.00000
     81     -13.0366      2.00000
     82     -13.0335      2.00000
     83     -13.0313      2.00000
     84     -13.0241      2.00000
     85     -13.0228      2.00000
     86     -13.0153      2.00000
     87     -13.0105      2.00000
     88     -13.0066      2.00000
     89     -13.0036      2.00000
     90     -13.0007      2.00000
     91     -12.9952      2.00000
     92     -12.9927      2.00000
     93     -12.9904      2.00000
     94     -12.9858      2.00000
     95     -12.9829      2.00000
     96     -12.9769      2.00000
     97     -12.9738      2.00000
     98     -12.9713      2.00000
     99     -12.9698      2.00000
    100     -12.9630      2.00000
    101     -12.9603      2.00000
    102     -12.9592      2.00000
    103     -12.9554      2.00000
    104     -12.9536      2.00000
    105     -12.9519      2.00000
    106     -12.9494      2.00000
    107     -12.9465      2.00000
    108     -12.9425      2.00000
    109     -12.9403      2.00000
    110     -12.9377      2.00000
    111     -12.9343      2.00000
    112     -12.9316      2.00000
    113     -12.9251      2.00000
    114     -12.9241      2.00000
    115     -12.9204      2.00000
    116     -12.9124      2.00000
    117     -12.9064      2.00000
    118     -12.9058      2.00000
    119     -12.9045      2.00000
    120     -12.9015      2.00000
    121     -12.9005      2.00000
    122     -12.8937      2.00000
    123     -12.8897      2.00000
    124     -12.8879      2.00000
    125     -12.8841      2.00000
    126     -12.8798      2.00000
    127     -12.8763      2.00000
    128     -12.8704      2.00000
    129     -12.8697      2.00000
    130     -12.8645      2.00000
    131     -12.8593      2.00000
    132     -12.8536      2.00000
    133     -12.8515      2.00000
    134     -12.8495      2.00000
    135     -12.8476      2.00000
    136     -12.8449      2.00000
    137     -12.8442      2.00000
    138     -12.8403      2.00000
    139     -12.8332      2.00000
    140     -12.8319      2.00000
    141     -12.8303      2.00000
    142     -12.8266      2.00000
    143     -12.8239      2.00000
    144     -12.8211      2.00000
    145     -12.8173      2.00000
    146     -12.8151      2.00000
    147     -12.8134      2.00000
    148     -12.8116      2.00000
    149     -12.8095      2.00000
    150     -12.8076      2.00000
    151     -12.8053      2.00000
    152     -12.8041      2.00000
    153     -12.8003      2.00000
    154     -12.7993      2.00000
    155     -12.7968      2.00000
    156     -12.7925      2.00000
    157     -12.7883      2.00000
    158     -12.7828      2.00000
    159     -12.7813      2.00000
    160     -12.7791      2.00000
    161     -12.7752      2.00000
    162     -12.7739      2.00000
    163     -12.7722      2.00000
    164     -12.7701      2.00000
    165     -12.7680      2.00000
    166     -12.7658      2.00000
    167     -12.7621      2.00000
    168     -12.7607      2.00000
    169     -12.7593      2.00000
    170     -12.7565      2.00000
    171     -12.7552      2.00000
    172     -12.7534      2.00000
    173     -12.7476      2.00000
    174     -12.7460      2.00000
    175     -12.7456      2.00000
    176     -12.7433      2.00000
    177     -12.7427      2.00000
    178     -12.7414      2.00000
    179     -12.7362      2.00000
    180     -12.7316      2.00000
    181     -12.7297      2.00000
    182     -12.7286      2.00000
    183     -12.7258      2.00000
    184     -12.7235      2.00000
    185     -12.7220      2.00000
    186     -12.7193      2.00000
    187     -12.7156      2.00000
    188     -12.7111      2.00000
    189     -12.7068      2.00000
    190     -12.7055      2.00000
    191     -12.7033      2.00000
    192     -12.6977      2.00000
    193     -12.6936      2.00000
    194     -12.6870      2.00000
    195     -12.6842      2.00000
    196     -12.6829      2.00000
    197     -12.6815      2.00000
    198     -12.6776      2.00000
    199     -12.6764      2.00000
    200     -12.6748      2.00000
    201     -12.6707      2.00000
    202     -12.6675      2.00000
    203     -12.6653      2.00000
    204     -12.6601      2.00000
    205     -12.6526      2.00000
    206     -12.6481      2.00000
    207     -12.6440      2.00000
    208     -12.6426      2.00000
    209     -12.6415      2.00000
    210     -12.6393      2.00000
    211     -12.6354      2.00000
    212     -12.6318      2.00000
    213     -12.6301      2.00000
    214     -12.6244      2.00000
    215     -12.6217      2.00000
    216     -12.6197      2.00000
    217     -12.6191      2.00000
    218     -12.6137      2.00000
    219     -12.6105      2.00000
    220     -12.6097      2.00000
    221     -12.6062      2.00000
    222     -12.6042      2.00000
    223     -12.6018      2.00000
    224     -12.5985      2.00000
    225     -12.5921      2.00000
    226     -12.5906      2.00000
    227     -12.5892      2.00000
    228     -12.5852      2.00000
    229     -12.5813      2.00000
    230     -12.5798      2.00000
    231     -12.5790      2.00000
    232     -12.5751      2.00000
    233     -12.5698      2.00000
    234     -12.5665      2.00000
    235     -12.5632      2.00000
    236     -12.5593      2.00000
    237     -12.5517      2.00000
    238     -12.5501      2.00000
    239     -12.5416      2.00000
    240     -12.5406      2.00000
    241     -12.5348      2.00000
    242     -12.5315      2.00000
    243     -12.5224      2.00000
    244     -12.5201      2.00000
    245     -12.5159      2.00000
    246     -12.5132      2.00000
    247     -12.5107      2.00000
    248     -12.5017      2.00000
    249     -12.5002      2.00000
    250     -12.4971      2.00000
    251     -12.4889      2.00000
    252     -12.4824      2.00000
    253     -12.4771      2.00000
    254     -12.4732      2.00000
    255     -12.4706      2.00000
    256     -12.4632      2.00000
    257     -12.4569      2.00000
    258     -12.4483      2.00000
    259     -12.4344      2.00000
    260     -12.4298      2.00000
    261     -12.4259      2.00000
    262     -12.4121      2.00000
    263     -12.3974      2.00000
    264     -12.3860      2.00000
    265     -12.3698      2.00000
    266     -12.3685      2.00000
    267     -12.3651      2.00000
    268     -12.3523      2.00000
    269     -12.3462      2.00000
    270     -12.3364      2.00000
    271     -12.3209      2.00000
    272     -12.2619      2.00000
    273     -12.2462      2.00000
    274     -12.2288      2.00000
    275     -12.2166      2.00000
    276     -12.1984      2.00000
    277     -12.1857      2.00000
    278     -12.1750      2.00000
    279     -12.1742      2.00000
    280     -12.1670      2.00000
    281     -12.1463      2.00000
    282     -12.1381      2.00000
    283     -12.1137      2.00000
    284     -12.0823      2.00000
    285     -12.0614      2.00000
    286     -12.0475      2.00000
    287     -11.9903      2.00000
    288     -11.9761      2.00000
    289     -11.9629      2.00000
    290     -11.9401      2.00000
    291     -11.9191      2.00000
    292     -11.9070      2.00000
    293     -11.9010      2.00000
    294     -11.8733      2.00000
    295     -11.8548      2.00000
    296     -11.8527      2.00000
    297     -11.8336      2.00000
    298     -11.8123      2.00000
    299     -11.7698      2.00000
    300     -11.7686      2.00000
    301     -11.7483      2.00000
    302     -11.7437      2.00000
    303     -11.7290      2.00000
    304     -11.7200      2.00000
    305     -11.6942      2.00000
    306     -11.6208      2.00000
    307     -10.9236      2.00000
    308      -4.8643      2.00000
    309      -4.8551      2.00000
    310      -4.8225      2.00000
    311      -4.7964      2.00000
    312      -4.7882      2.00000
    313      -4.7751      2.00000
    314      -4.7433      2.00000
    315      -4.7148      2.00000
    316      -4.4735      2.00000
    317      -4.4496      2.00000
    318      -4.4422      2.00000
    319      -4.4375      2.00000
    320      -4.4292      2.00000
    321      -4.4198      2.00000
    322      -4.3280      2.00000
    323      -4.2202      2.00000
    324      -4.1603      2.00000
    325      -4.1329      2.00000
    326      -4.0710      2.00000
    327      -3.8893      2.00000
    328      -3.8322      2.00000
    329      -3.8110      2.00000
    330      -3.8034      2.00000
    331      -3.7917      2.00000
    332      -3.7766      2.00000
    333      -3.7509      2.00000
    334      -3.7375      2.00000
    335      -3.7102      2.00000
    336      -3.7037      2.00000
    337      -3.6667      2.00000
    338      -3.6485      2.00000
    339      -3.5236      2.00000
    340      -3.4719      2.00000
    341      -3.4599      2.00000
    342      -3.4478      2.00000
    343      -3.3388      2.00000
    344      -3.2239      2.00000
    345      -3.1960      2.00000
    346      -3.1667      2.00000
    347      -2.9610      2.00000
    348      -2.9488      2.00000
    349      -2.9055      2.00000
    350      -2.8799      2.00000
    351      -2.7176      2.00000
    352      -2.5706      2.00000
    353      -2.5650      2.00000
    354      -2.5084      2.00000
    355      -2.4700      2.00000
    356      -2.3352      2.00000
    357      -2.3163      2.00000
    358      -2.2951      2.00000
    359      -2.2823      2.00000
    360      -2.0518      2.00000
    361      -1.9915      2.00000
    362      -1.9839      2.00000
    363      -1.9278      2.00000
    364      -1.8909      2.00000
    365      -1.8703      2.00000
    366      -1.8581      2.00000
    367      -1.8467      2.00000
    368      -1.8407      2.00000
    369      -1.8322      2.00000
    370      -1.7755      2.00000
    371      -1.7548      2.00000
    372      -1.7162      2.00000
    373      -1.6824      2.00000
    374      -1.6547      2.00000
    375      -1.6480      2.00000
    376      -1.6114      2.00000
    377      -1.5965      2.00000
    378      -1.5764      2.00000
    379      -1.5559      2.00000
    380      -1.5011      2.00000
    381      -1.4856      2.00000
    382      -1.4417      2.00000
    383      -1.4276      2.00000
    384      -1.4098      2.00000
    385      -1.3768      2.00000
    386      -1.3367      2.00000
    387      -1.3267      2.00000
    388      -1.3114      2.00000
    389      -1.2998      2.00000
    390      -1.2708      2.00000
    391      -1.1708      2.00000
    392      -1.1119      2.00000
    393      -1.0507      2.00000
    394      -1.0302      2.00000
    395      -0.9920      2.00000
    396      -0.9533      2.00000
    397      -0.9416      2.00000
    398      -0.8934      2.00000
    399      -0.8777      2.00000
    400      -0.8547      2.00000
    401      -0.8362      2.00000
    402      -0.8082      2.00000
    403      -0.7832      2.00000
    404      -0.7695      2.00000
    405      -0.7577      2.00000
    406      -0.7481      2.00000
    407      -0.7369      2.00000
    408      -0.7269      2.00000
    409      -0.7118      2.00000
    410      -0.6868      2.00000
    411      -0.6370      2.00000
    412      -0.6148      2.00000
    413      -0.5786      2.00000
    414      -0.5462      2.00000
    415      -0.4985      2.00000
    416      -0.4752      2.00000
    417      -0.4489      2.00000
    418      -0.4388      2.00000
    419      -0.4309      2.00000
    420      -0.4030      2.00000
    421      -0.3641      2.00000
    422      -0.3511      2.00000
    423      -0.3226      2.00000
    424      -0.2579      2.00000
    425      -0.2361      2.00000
    426      -0.2167      2.00000
    427      -0.1964      2.00000
    428      -0.1461      2.00000
    429      -0.0888      2.00000
    430      -0.0593      2.00000
    431      -0.0295      2.00000
    432       0.0230      2.00000
    433       0.0369      2.00000
    434       0.0560      2.00000
    435       0.0794      2.00000
    436       0.0961      2.00000
    437       0.1341      2.00000
    438       0.1499      2.00000
    439       0.1807      2.00000
    440       0.1983      2.00000
    441       0.2087      2.00000
    442       0.2274      2.00000
    443       0.2469      2.00000
    444       0.2743      2.00000
    445       0.3647      2.00000
    446       0.4200      2.00000
    447       0.4356      2.00000
    448       0.4631      2.00000
    449       0.4951      2.00000
    450       0.5026      2.00000
    451       0.5159      2.00000
    452       0.5315      2.00000
    453       0.5390      2.00000
    454       0.5674      2.00000
    455       0.5898      2.00000
    456       0.6276      2.00000
    457       0.6480      2.00000
    458       0.6518      2.00000
    459       0.6744      2.00000
    460       0.6831      2.00000
    461       0.7036      2.00000
    462       0.7239      2.00000
    463       0.7943      2.00000
    464       0.8102      2.00000
    465       0.8328      2.00000
    466       0.8426      2.00000
    467       0.8667      2.00000
    468       0.8904      2.00000
    469       0.9134      2.00000
    470       0.9402      2.00000
    471       0.9497      2.00000
    472       0.9600      2.00000
    473       0.9776      2.00000
    474       1.0142      2.00000
    475       1.0239      2.00000
    476       1.0533      2.00000
    477       1.0789      2.00000
    478       1.0894      2.00000
    479       1.1157      2.00000
    480       1.1293      2.00000
    481       1.1459      2.00000
    482       1.1578      2.00000
    483       1.1622      2.00000
    484       1.1826      2.00000
    485       1.1838      2.00000
    486       1.2013      2.00000
    487       1.2291      2.00000
    488       1.2351      2.00000
    489       1.2543      2.00000
    490       1.2664      2.00000
    491       1.2804      2.00000
    492       1.2964      2.00000
    493       1.3084      2.00000
    494       1.3200      2.00000
    495       1.3551      2.00000
    496       1.3702      2.00000
    497       1.3936      2.00000
    498       1.4069      2.00000
    499       1.4233      2.00000
    500       1.4609      2.00000
    501       1.4820      2.00000
    502       1.4867      2.00000
    503       1.5079      2.00000
    504       1.5279      2.00000
    505       1.5413      2.00000
    506       1.5491      2.00000
    507       1.5616      2.00000
    508       1.5708      2.00000
    509       1.5757      2.00000
    510       1.5842      2.00000
    511       1.5918      2.00000
    512       1.6176      2.00000
    513       1.6257      2.00000
    514       1.6513      2.00000
    515       1.7689      2.00000
    516       1.8556      2.00000
    517       1.8667      2.00000
    518       1.8854      2.00000
    519       1.9039      2.00000
    520       1.9341      2.00000
    521       1.9487      2.00000
    522       1.9710      2.00000
    523       2.0718      2.00000
    524       2.2226      2.00000
    525       2.5970      2.00000
    526       2.8369      2.00000
    527       3.0977      2.00000
    528       5.4974      0.00000
    529       8.8673      0.00000
    530       8.8927      0.00000
    531       8.9185      0.00000
    532       8.9643      0.00000
    533       9.2968      0.00000
    534       9.3186      0.00000
    535       9.5019      0.00000
    536       9.6014      0.00000
    537      10.5811      0.00000
    538      10.6113      0.00000
    539      10.6440      0.00000
    540      10.6951      0.00000
    541      10.7037      0.00000
    542      10.7204      0.00000
    543      10.7648      0.00000
    544      10.7784      0.00000
    545      10.8422      0.00000
    546      10.8666      0.00000
    547      10.9597      0.00000
    548      11.1279      0.00000
    549      11.1372      0.00000
    550      11.1850      0.00000
    551      11.1970      0.00000
    552      11.3576      0.00000
    553      11.7493      0.00000
    554      11.7745      0.00000
    555      11.7746      0.00000
    556      11.8092      0.00000
    557      11.8311      0.00000
    558      11.8373      0.00000
    559      11.8734      0.00000
    560      11.9142      0.00000
    561      11.9243      0.00000
    562      11.9370      0.00000
    563      11.9863      0.00000
    564      12.0556      0.00000
    565      12.2073      0.00000
    566      12.2291      0.00000
    567      12.2486      0.00000
    568      12.2624      0.00000
    569      12.3258      0.00000
    570      12.3409      0.00000
    571      12.3473      0.00000
    572      12.3775      0.00000
    573      12.4075      0.00000
    574      12.4198      0.00000
    575      12.4279      0.00000
    576      12.4308      0.00000
    577      12.4413      0.00000
    578      12.4465      0.00000
    579      12.4674      0.00000
    580      12.5065      0.00000
    581      12.5123      0.00000
    582      12.5705      0.00000
    583      12.7922      0.00000
    584      13.0305      0.00000
    585      13.1963      0.00000
    586      13.2146      0.00000
    587      13.2555      0.00000
    588      13.2973      0.00000
    589      13.3085      0.00000
    590      13.3183      0.00000
    591      13.3576      0.00000
    592      13.3748      0.00000
    593      13.4080      0.00000
    594      13.4523      0.00000
    595      13.5157      0.00000
    596      13.5867      0.00000
    597      13.8042      0.00000
    598      13.8348      0.00000
    599      13.8579      0.00000
    600      13.9479      0.00000
    601      14.0110      0.00000
    602      14.0942      0.00000
    603      14.1112      0.00000
    604      14.2233      0.00000
    605      14.4776      0.00000
    606      14.5162      0.00000
    607      14.5495      0.00000
    608      14.5920      0.00000
    609      14.6386      0.00000
    610      14.6978      0.00000
    611      14.7457      0.00000
    612      14.8153      0.00000
    613      14.8767      0.00000
    614      14.9327      0.00000
    615      15.0405      0.00000
    616      15.0835      0.00000
    617      15.1895      0.00000
    618      15.2285      0.00000
    619      15.2996      0.00000
    620      15.5336      0.00000
    621      15.5582      0.00000
    622      15.6183      0.00000
    623      15.6604      0.00000
    624      15.7247      0.00000
    625      15.8069      0.00000
    626      15.8850      0.00000
    627      15.9838      0.00000
    628      16.1839      0.00000
    629      16.2574      0.00000
    630      16.4713      0.00000
    631      16.6035      0.00000
    632      16.7249      0.00000


--------------------------------------------------------------------------------------------------------


 soft charge-density along one line, spin component            1
         0         1         2         3         4         5         6         7         8         9
 total charge-density along one line
 
 pseudopotential strength for first ion, spin component:            1
 -8.837   0.002   0.001  -0.009   0.000  -1.330  -0.001  -0.001
  0.002  -8.866  -0.006  -0.001   0.007  -0.001  -1.312   0.005
  0.001  -0.006  -8.881   0.001   0.004  -0.001   0.005  -1.304
 -0.009  -0.001   0.001  -8.876   0.002   0.007   0.000  -0.000
  0.000   0.007   0.004   0.002  -8.842   0.000  -0.001   0.001
 -1.330  -0.001  -0.001   0.007   0.000   5.916   0.000   0.000
 -0.001  -1.312   0.005   0.000  -0.001   0.000   5.905  -0.004
 -0.001   0.005  -1.304  -0.000   0.001   0.000  -0.004   5.902
  0.007   0.000  -0.000  -1.300  -0.001  -0.006  -0.000   0.000
  0.000  -0.001   0.001  -0.001  -1.321  -0.000  -0.001  -0.003
 -0.000  -0.001  -0.002   0.000  -0.000   0.000   0.000   0.002
  0.000   0.001   0.005  -0.001   0.001  -0.000  -0.000  -0.002
  0.001  -0.005   0.001  -0.000   0.003  -0.000   0.001  -0.000
 -0.000  -0.001  -0.006   0.000   0.001   0.000  -0.000   0.002
 -0.001  -0.000  -0.000  -0.002   0.001  -0.001   0.000   0.000
 -0.000   0.006  -0.002   0.000  -0.005  -0.000   0.001   0.000
  0.000  -0.001   0.006   0.000  -0.005  -0.000   0.003   0.001
 -0.002   0.000   0.001  -0.003  -0.000   0.004  -0.000  -0.000
 total augmentation occupancy for first ion, spin component:            1
  1.993  -0.000  -0.000   0.000   0.000  -0.004   0.000   0.000   0.006   0.000   0.000  -0.000   0.000  -0.000   0.004  -0.000
 -0.000   1.992   0.000   0.000   0.002   0.000  -0.001   0.004  -0.000   0.013  -0.001  -0.001  -0.002   0.004  -0.000   0.000
 -0.000   0.000   1.993  -0.000   0.001   0.000   0.004  -0.003  -0.000   0.010   0.000  -0.002   0.004   0.000  -0.000   0.000
  0.000   0.000  -0.000   1.995  -0.000   0.006  -0.000  -0.000   0.020   0.000  -0.000   0.000  -0.000  -0.001   0.012  -0.000
  0.000   0.002   0.001  -0.000   1.996   0.000   0.013   0.010   0.000   0.022   0.000  -0.000   0.006   0.007  -0.000   0.001
 -0.004   0.000   0.000   0.006   0.000   0.053   0.000   0.000   0.035   0.001  -0.001  -0.000  -0.000  -0.001   0.039  -0.000
  0.000  -0.001   0.004  -0.000   0.013   0.000   0.073   0.022  -0.000   0.064  -0.021  -0.002  -0.012   0.037  -0.001  -0.000
  0.000   0.004  -0.003  -0.000   0.010   0.000   0.022   0.058  -0.000   0.056  -0.030  -0.002   0.024  -0.005  -0.002   0.001
  0.006  -0.000  -0.000   0.020   0.000   0.035  -0.000  -0.000   0.191   0.001   0.001   0.000  -0.001  -0.007   0.084  -0.000
  0.000   0.013   0.010   0.000   0.022   0.001   0.064   0.056   0.001   0.181  -0.004  -0.000   0.040   0.054  -0.002   0.002
  0.000  -0.001   0.000  -0.000   0.000  -0.001  -0.021  -0.030   0.001  -0.004   1.001   0.055   0.015   0.055  -0.005   0.001
 -0.000  -0.001  -0.002   0.000  -0.000  -0.000  -0.002  -0.002   0.000  -0.000   0.055   0.004   0.000   0.002  -0.000   0.000
  0.000  -0.002   0.004  -0.000   0.006  -0.000  -0.012   0.024  -0.001   0.040   0.015   0.000   0.864  -0.037  -0.001   0.029
 -0.000   0.004   0.000  -0.001   0.007  -0.001   0.037  -0.005  -0.007   0.054   0.055   0.002  -0.037   0.755   0.002  -0.002
  0.004  -0.000  -0.000   0.012  -0.000   0.039  -0.001  -0.002   0.084  -0.002  -0.005  -0.000  -0.001   0.002   0.844  -0.000
 -0.000   0.000   0.000  -0.000   0.001  -0.000  -0.000   0.001  -0.000   0.002   0.001   0.000   0.029  -0.002  -0.000   0.001
 -0.000   0.001   0.000  -0.000   0.001  -0.000   0.001  -0.000  -0.000   0.002   0.002   0.000  -0.002   0.024   0.000  -0.000
  0.001  -0.000  -0.000   0.002  -0.000   0.001  -0.000  -0.000   0.003  -0.000  -0.000  -0.000  -0.000   0.000   0.028  -0.000


------------------------ aborting loop because EDIFF is reached ----------------------------------------


    FORLOC:  cpu time      0.0127: real time      0.0127
    FORHF :  cpu time    590.2709: real time    590.1520
    FORNL :  cpu time      1.0257: real time      1.0254
    STRESS:  cpu time      3.1357: real time      3.1348
    FORCOR:  cpu time      1.4243: real time      1.4240
    OFIELD:  cpu time      0.0023: real time      0.0023

  FORCE on cell =-STRESS in cart. coord.  units (eV):
  Direction    XX          YY          ZZ          XY          YZ          ZX
  --------------------------------------------------------------------------------------
  Alpha Z  5489.43240  5489.43240  5489.43240
  Ewald  -25005.92942-32119.03104-31226.99369  -107.40647 -1781.31085    28.16545
  Hartree 14047.48017  9548.80751 10165.92524   -53.54731 -1207.08835    12.86133
  E(xc)   -4090.23771 -4093.06920 -4092.34939    -0.10101    -0.51002     0.02138
  Local   -5918.12378  5539.93310  4017.65827   152.27499  2953.62641   -38.33669
  n-local  5974.32265  5919.96984  5934.39071     5.01862    -7.21090    -0.99622
  augment  5486.82159  5507.70491  5512.49034     5.00018     6.93752    -1.29796
  Kinetic 12441.56560 12637.61372 12623.92091     7.65269    38.44876    -2.72753
  Fock    -8453.12575 -8454.58767 -8448.13183    -7.70814    -1.56511     1.95881
  -------------------------------------------------------------------------------------
  Total     -27.79425   -23.22643   -23.65704     1.18355     1.32746    -0.35143
  in kB     -35.09706   -29.32906   -29.87281     1.49452     1.67625    -0.44377
  external pressure =      -31.43 kB  Pullay stress =        0.00 kB


 VOLUME and BASIS-vectors are now :
 -----------------------------------------------------------------------------
  energy-cutoff  :      450.00
  volume of cell :     1268.81
      direct lattice vectors                 reciprocal lattice vectors
     0.000000000 12.280473709  0.000000000     0.000000000  0.081430084 -0.019947422
     9.142701149  0.000000000  0.000000000     0.109376866 -0.000000000  0.000000000
     0.000000000 -2.768261641-11.300697481     0.000000000  0.000000000 -0.088490113

  length of vectors
    12.280473709  9.142701149 11.634819984     0.083837689  0.109376866  0.088490113


 FORCES acting on ions:
    Electron-Ion                     Ewald-Force                    Non-Local-Force
 -----------------------------------------------------------------------------------------------
   -.896E+01 0.301E+02 -.840E+02   0.845E+01 -.284E+02 0.880E+02   0.460E+00 -.156E+01 -.382E+01
   -.170E+01 0.318E+02 -.731E+02   0.157E+01 -.313E+02 0.778E+02   0.119E+00 -.370E+00 -.448E+01
   0.151E+02 0.289E+02 -.836E+02   -.146E+02 -.279E+02 0.877E+02   -.448E+00 -.872E+00 -.389E+01
   0.449E+01 0.325E+02 -.730E+02   -.434E+01 -.322E+02 0.779E+02   -.139E+00 -.215E+00 -.455E+01
   -.616E+01 0.320E+02 -.866E+02   0.613E+01 -.311E+02 0.903E+02   0.273E-01 -.787E+00 -.355E+01
   -.283E+01 0.352E+02 -.731E+02   0.283E+01 -.347E+02 0.781E+02   -.165E-02 -.379E+00 -.464E+01
   0.454E+01 -.125E+03 0.964E+02   -.519E+01 0.130E+03 -.101E+03   0.527E+00 -.558E+01 0.477E+01
   0.259E+01 -.561E+02 0.919E+02   -.276E+01 0.560E+02 -.967E+02   0.148E+00 0.172E-01 0.446E+01
   0.173E+02 -.853E+02 0.899E+02   -.169E+02 0.852E+02 -.940E+02   -.316E+00 -.165E+00 0.399E+01
   0.498E+01 -.558E+02 0.863E+02   -.472E+01 0.555E+02 -.910E+02   -.244E+00 0.160E+00 0.438E+01
   -.247E+02 -.772E+02 0.847E+02   0.247E+02 0.830E+02 -.898E+02   -.945E-02 -.542E+01 0.482E+01
   -.717E+01 -.505E+02 0.876E+02   0.710E+01 0.505E+02 -.924E+02   0.588E-01 -.539E-01 0.452E+01
   0.314E+01 -.421E+02 0.291E+02   -.304E+01 0.393E+02 -.304E+02   -.866E-01 0.243E+01 0.126E+01
   0.275E+01 -.587E+02 0.298E+02   -.274E+01 0.568E+02 -.320E+02   -.890E-02 0.167E+01 0.203E+01
   0.154E+01 -.424E+02 0.342E+02   -.139E+01 0.398E+02 -.351E+02   -.140E+00 0.236E+01 0.942E+00
   0.147E+01 -.539E+02 0.263E+02   -.147E+01 0.521E+02 -.286E+02   0.198E-02 0.167E+01 0.219E+01
   -.510E+01 -.410E+02 0.315E+02   0.480E+01 0.385E+02 -.325E+02   0.265E+00 0.221E+01 0.993E+00
   -.408E+01 -.566E+02 0.271E+02   0.408E+01 0.549E+02 -.294E+02   0.738E-02 0.157E+01 0.219E+01
   -.160E+02 0.168E+02 -.326E+01   0.154E+02 -.151E+02 0.428E+01   0.563E+00 -.146E+01 -.957E+00
   -.129E+02 -.636E+01 -.319E+02   0.124E+02 0.791E+01 0.342E+02   0.463E+00 -.137E+01 -.226E+01
   0.245E+02 0.240E+02 -.204E+02   -.243E+02 -.221E+02 0.217E+02   -.302E+00 -.157E+01 -.119E+01
   0.195E+02 0.777E+01 -.257E+02   -.190E+02 -.614E+01 0.278E+02   -.406E+00 -.144E+01 -.200E+01
   -.930E+01 0.282E+02 -.208E+02   0.950E+01 -.261E+02 0.221E+02   -.176E+00 -.184E+01 -.126E+01
   -.663E+01 0.162E+02 -.242E+02   0.664E+01 -.144E+02 0.262E+02   -.129E-01 -.159E+01 -.193E+01
   -.507E+01 0.829E+02 -.785E+02   0.280E+01 -.819E+02 0.809E+02   0.201E+01 -.850E+00 -.231E+01
   -.335E+01 0.783E+02 -.111E+03   0.807E+00 -.762E+02 0.117E+03   0.225E+01 -.182E+01 -.572E+01
   0.226E+01 0.591E+02 -.793E+02   -.224E+01 -.588E+02 0.831E+02   0.359E-02 -.191E+00 -.356E+01
   0.473E+01 0.549E+02 -.970E+02   -.461E+01 -.542E+02 0.102E+03   -.987E-01 -.603E+00 -.503E+01
   0.970E-01 0.736E+02 -.725E+02   0.205E+01 -.735E+02 0.740E+02   -.190E+01 0.405E-01 -.152E+01
   -.565E+01 0.679E+02 -.110E+03   0.783E+01 -.663E+02 0.117E+03   -.194E+01 -.139E+01 -.673E+01
   -.874E+00 -.110E+02 0.928E+02   0.531E+00 0.688E+01 -.963E+02   0.294E+00 0.366E+01 0.340E+01
   -.192E+01 -.243E+02 0.790E+02   0.175E+01 0.232E+02 -.831E+02   0.151E+00 0.920E+00 0.390E+01
   0.126E+01 -.112E+02 0.860E+02   -.167E+01 0.106E+02 -.904E+02   0.366E+00 0.497E+00 0.416E+01
   -.322E+01 -.227E+02 0.797E+02   0.277E+01 0.220E+02 -.835E+02   0.389E+00 0.537E+00 0.361E+01
   0.614E+00 -.898E+01 0.879E+02   0.892E-01 0.830E+01 -.923E+02   -.617E+00 0.533E+00 0.420E+01
   0.492E+01 -.238E+02 0.803E+02   -.435E+01 0.230E+02 -.840E+02   -.502E+00 0.592E+00 0.348E+01
   -.604E+01 -.318E+02 0.274E+02   0.603E+01 0.307E+02 -.295E+02   0.147E-01 0.982E+00 0.200E+01
   0.479E+02 -.160E+02 0.229E+02   -.505E+02 0.111E+02 -.234E+02   0.309E+01 0.498E+01 0.339E+00
   0.718E+01 -.405E+02 0.293E+02   -.730E+01 0.383E+02 -.310E+02   0.716E-01 0.190E+01 0.168E+01
   -.335E+02 -.692E+02 0.294E+02   0.367E+02 0.636E+02 -.301E+02   -.294E+01 0.515E+01 0.721E+00
   -.152E+01 -.428E+02 0.292E+02   0.161E+01 0.407E+02 -.309E+02   -.629E-01 0.182E+01 0.166E+01
   0.634E+01 0.596E+02 -.309E+02   -.606E+01 -.582E+02 0.320E+02   -.249E+00 -.122E+01 -.105E+01
   0.127E+01 0.659E+02 -.432E+02   -.122E+01 -.638E+02 0.453E+02   -.496E-01 -.184E+01 -.196E+01
   0.228E+01 0.631E+02 -.318E+02   -.216E+01 -.610E+02 0.331E+02   -.106E+00 -.192E+01 -.123E+01
   0.127E+00 0.669E+02 -.422E+02   -.772E-01 -.648E+02 0.442E+02   -.442E-01 -.187E+01 -.190E+01
   -.819E+01 0.594E+02 -.309E+02   0.785E+01 -.581E+02 0.318E+02   0.304E+00 -.110E+01 -.924E+00
   -.175E+01 0.664E+02 -.451E+02   0.163E+01 -.645E+02 0.474E+02   0.112E+00 -.175E+01 -.209E+01
   0.462E+01 -.208E+02 0.328E+02   -.456E+01 0.285E+02 -.377E+02   -.376E-01 -.667E+01 0.425E+01
   0.477E+01 -.327E+02 -.142E+00   -.479E+01 0.407E+02 -.260E+01   0.332E-01 -.698E+01 0.237E+01
   0.358E+01 -.238E+02 0.176E+02   -.352E+01 0.314E+02 -.210E+02   -.471E-01 -.654E+01 0.296E+01
   0.337E+01 -.261E+02 0.166E+02   -.323E+01 0.334E+02 -.209E+02   -.124E+00 -.633E+01 0.372E+01
   -.888E+01 -.265E+02 0.215E+02   0.885E+01 0.349E+02 -.243E+02   0.102E-01 -.719E+01 0.244E+01
   -.858E+01 -.314E+02 0.131E+02   0.847E+01 0.391E+02 -.178E+02   0.895E-01 -.661E+01 0.401E+01
   0.172E+01 0.272E+02 -.183E+02   -.205E+01 -.352E+02 0.224E+02   0.290E+00 0.693E+01 -.356E+01
   -.916E+00 0.177E+02 -.138E+02   0.927E+00 -.254E+02 0.175E+02   -.124E-01 0.657E+01 -.323E+01
   -.177E+01 0.229E+02 -.156E+02   0.211E+01 -.304E+02 0.194E+02   -.296E+00 0.644E+01 -.334E+01
   0.389E+00 0.190E+02 -.142E+02   -.416E+00 -.267E+02 0.180E+02   0.267E-01 0.656E+01 -.325E+01
   0.300E-01 0.258E+02 -.145E+02   -.158E-01 -.336E+02 0.183E+02   -.142E-01 0.668E+01 -.327E+01
   0.639E+00 0.194E+02 -.146E+02   -.656E+00 -.270E+02 0.184E+02   0.981E-02 0.660E+01 -.329E+01
   0.583E+00 0.620E+02 0.275E+02   -.676E+00 -.611E+02 -.220E+02   0.862E-01 -.760E+00 -.480E+01
   0.156E+01 0.566E+02 0.433E+02   -.162E+01 -.544E+02 -.387E+02   0.512E-01 -.191E+01 -.399E+01
   0.208E+01 0.606E+02 0.359E+02   -.213E+01 -.581E+02 -.314E+02   0.410E-01 -.218E+01 -.391E+01
   0.577E+00 0.567E+02 0.429E+02   -.542E+00 -.544E+02 -.383E+02   -.299E-01 -.205E+01 -.393E+01
   -.276E+01 0.569E+02 0.354E+02   0.292E+01 -.541E+02 -.310E+02   -.135E+00 -.234E+01 -.385E+01
   -.211E+01 0.559E+02 0.431E+02   0.213E+01 -.535E+02 -.385E+02   -.148E-01 -.203E+01 -.396E+01
   -.919E+01 -.900E+02 -.219E+02   0.932E+01 0.884E+02 0.160E+02   -.806E-01 0.140E+01 0.504E+01
   -.219E+01 -.805E+02 -.344E+02   0.215E+01 0.793E+02 0.301E+02   0.316E-01 0.102E+01 0.377E+01
   0.190E+02 -.830E+02 -.229E+02   -.199E+02 0.811E+02 0.172E+02   0.811E+00 0.173E+01 0.479E+01
   0.398E+01 -.772E+02 -.326E+02   -.406E+01 0.755E+02 0.278E+02   0.660E-01 0.151E+01 0.415E+01
   -.725E+01 -.770E+02 -.329E+02   0.785E+01 0.750E+02 0.275E+02   -.523E+00 0.169E+01 0.460E+01
   -.299E+01 -.759E+02 -.329E+02   0.327E+01 0.744E+02 0.282E+02   -.242E+00 0.127E+01 0.402E+01
   -.330E+01 0.104E+03 0.552E+02   0.270E+01 -.119E+03 -.510E+02   0.558E+00 0.128E+02 -.358E+01
   -.292E+01 0.109E+03 0.715E+02   0.285E+01 -.121E+03 -.690E+02   0.519E-01 0.101E+02 -.217E+01
   0.890E+01 0.104E+03 0.553E+02   -.889E+01 -.118E+03 -.511E+02   -.507E-01 0.119E+02 -.359E+01
   0.468E+01 0.111E+03 0.662E+02   -.466E+01 -.123E+03 -.627E+02   -.721E-02 0.105E+02 -.301E+01
   -.421E+01 0.115E+03 0.601E+02   0.461E+01 -.129E+03 -.558E+02   -.346E+00 0.119E+02 -.369E+01
   -.107E+01 0.115E+03 0.657E+02   0.103E+01 -.127E+03 -.626E+02   0.295E-01 0.106E+02 -.267E+01
   0.167E+01 -.132E+03 -.584E+02   -.176E+01 0.144E+03 0.544E+02   0.744E-01 -.108E+02 0.342E+01
   -.305E+00 -.120E+03 -.602E+02   0.331E+00 0.132E+03 0.571E+02   -.210E-01 -.105E+02 0.267E+01
   0.215E+00 -.129E+03 -.632E+02   -.518E-01 0.141E+03 0.592E+02   -.145E+00 -.110E+02 0.336E+01
   0.577E+00 -.117E+03 -.604E+02   -.572E+00 0.129E+03 0.572E+02   -.374E-02 -.104E+02 0.278E+01
   -.165E+01 -.130E+03 -.617E+02   0.152E+01 0.143E+03 0.578E+02   0.117E+00 -.109E+02 0.332E+01
   -.255E+00 -.116E+03 -.610E+02   0.242E+00 0.128E+03 0.580E+02   0.806E-02 -.104E+02 0.256E+01
   -.129E+01 -.121E+02 0.151E+02   0.128E+01 0.192E+02 -.187E+02   0.487E-02 -.604E+01 0.311E+01
   0.600E+00 -.141E+02 0.135E+02   -.708E+00 0.213E+02 -.176E+02   0.935E-01 -.618E+01 0.353E+01
   0.133E+01 -.142E+02 0.132E+02   -.136E+01 0.214E+02 -.168E+02   0.241E-01 -.623E+01 0.304E+01
   0.809E+00 -.118E+02 0.138E+02   -.970E+00 0.188E+02 -.178E+02   0.140E+00 -.596E+01 0.352E+01
   -.196E+00 -.151E+02 0.124E+02   0.235E+00 0.227E+02 -.158E+02   -.353E-01 -.649E+01 0.295E+01
   -.157E+01 -.123E+02 0.132E+02   0.188E+01 0.193E+02 -.172E+02   -.269E+00 -.601E+01 0.352E+01
   -.320E+00 0.139E+02 -.176E+02   0.399E+00 -.208E+02 0.218E+02   -.592E-01 0.597E+01 -.361E+01
   0.758E+01 -.295E+01 -.459E+01   -.698E+01 -.221E+01 0.720E+01   -.605E+00 0.441E+01 -.225E+01
   0.234E+01 0.138E+02 -.161E+02   -.233E+01 -.208E+02 0.200E+02   -.110E-01 0.599E+01 -.335E+01
   -.889E+02 -.527E+02 0.200E+01   0.101E+03 0.535E+02 -.165E+00   -.103E+02 -.818E+00 -.156E+01
   -.210E+01 0.136E+02 -.177E+02   0.205E+01 -.206E+02 0.218E+02   0.328E-01 0.596E+01 -.357E+01
   0.841E+01 0.138E+03 0.943E+02   -.921E+01 -.144E+03 -.968E+02   0.710E+00 0.516E+01 0.232E+01
   -.716E+00 0.789E+02 0.234E+02   0.473E+00 -.773E+02 -.177E+02   0.207E+00 -.141E+01 -.498E+01
   0.686E+01 0.819E+02 0.510E+02   -.697E+01 -.801E+02 -.472E+02   0.899E-01 -.153E+01 -.330E+01
   0.505E+01 0.776E+02 0.238E+02   -.535E+01 -.760E+02 -.183E+02   0.262E+00 -.138E+01 -.475E+01
   -.185E+01 0.788E+02 0.545E+02   0.137E+01 -.773E+02 -.510E+02   0.399E+00 -.132E+01 -.298E+01
   -.292E+01 0.754E+02 0.260E+02   0.326E+01 -.738E+02 -.206E+02   -.300E+00 -.132E+01 -.466E+01
   0.457E+01 -.549E+02 -.326E+02   -.527E+01 0.527E+02 0.271E+02   0.614E+00 0.191E+01 0.472E+01
   -.107E-01 -.549E+02 -.426E+02   -.291E+00 0.527E+02 0.381E+02   0.280E+00 0.192E+01 0.386E+01
   0.173E+00 -.548E+02 -.365E+02   -.156E+00 0.526E+02 0.316E+02   -.209E-01 0.191E+01 0.420E+01
   0.536E+00 -.542E+02 -.453E+02   -.502E+00 0.519E+02 0.409E+02   -.307E-01 0.197E+01 0.380E+01
   -.480E+01 -.535E+02 -.335E+02   0.543E+01 0.509E+02 0.282E+02   -.545E+00 0.227E+01 0.452E+01
   -.444E+00 -.523E+02 -.450E+02   0.676E+00 0.496E+02 0.409E+02   -.213E+00 0.234E+01 0.356E+01
   0.265E+01 0.134E+03 0.559E+02   -.280E+01 -.146E+03 -.519E+02   0.142E+00 0.104E+02 -.340E+01
   -.128E+00 0.129E+03 0.620E+02   0.105E+00 -.142E+03 -.585E+02   0.257E-01 0.108E+02 -.305E+01
   -.667E+00 0.135E+03 0.597E+02   0.699E+00 -.148E+03 -.559E+02   -.334E-01 0.107E+02 -.327E+01
   0.965E+00 0.129E+03 0.616E+02   -.926E+00 -.141E+03 -.582E+02   -.335E-01 0.108E+02 -.295E+01
   -.322E+01 0.138E+03 0.566E+02   0.337E+01 -.150E+03 -.528E+02   -.135E+00 0.106E+02 -.329E+01
   -.107E+01 0.129E+03 0.624E+02   0.108E+01 -.142E+03 -.589E+02   -.865E-02 0.108E+02 -.297E+01
   -.588E+00 -.109E+03 -.579E+02   0.215E+00 0.121E+03 0.535E+02   0.315E+00 -.106E+02 0.381E+01
   0.103E+02 -.106E+03 -.138E+03   -.113E+02 0.120E+03 0.142E+03   0.921E+00 -.122E+02 -.379E+01
   0.634E+01 -.105E+03 -.582E+02   -.680E+01 0.117E+03 0.539E+02   0.407E+00 -.101E+02 0.371E+01
   0.579E+01 -.112E+03 -.805E+02   -.585E+01 0.124E+03 0.782E+02   0.358E-01 -.110E+02 0.205E+01
   -.478E+01 -.111E+03 -.583E+02   0.546E+01 0.123E+03 0.541E+02   -.598E+00 -.105E+02 0.363E+01
   0.184E+00 -.119E+03 -.818E+02   -.764E+00 0.132E+03 0.800E+02   0.484E+00 -.111E+02 0.160E+01
   0.367E+02 -.201E+02 0.896E+01   -.352E+02 0.162E+02 -.965E+01   -.221E+01 0.385E+01 0.697E+00
   0.138E+02 0.259E+01 -.145E+02   -.178E+02 -.539E+01 0.173E+02   0.326E+01 0.289E+01 -.276E+01
 -----------------------------------------------------------------------------------------------
   0.637E+01 0.525E+01 -.439E+00   0.284E-12 -.139E-11 0.931E-12   -.583E+01 -.414E+01 -.113E+00
 
 
 POSITION                                       TOTAL-FORCE (eV/Angst)
 -----------------------------------------------------------------------------------
      9.13156      7.65809     -1.75649        -0.018929      0.087437      0.009601
      9.13979      6.28083     -7.42554        -0.004484      0.065686      0.007986
      3.05273      7.65790     -1.76027         0.017282      0.054895      0.010768
      3.04536      6.27610     -7.42897         0.001710      0.064603      0.010307
      6.08954      7.66209     -1.76596        -0.000211      0.071358     -0.003366
      6.09351      6.27772     -7.42881         0.002453      0.066815      0.017000
      1.50868      9.32494     -3.89549        -0.076438     -0.454074      0.041537
      1.51863      8.00031     -9.53857        -0.006282     -0.031494     -0.030442
      4.57096      9.38600     -3.87357         0.054308     -0.109900      0.008372
      4.57180      8.00627     -9.53518        -0.000931     -0.059536     -0.020635
      7.61483      9.38605     -3.88764        -0.008152      0.064778     -0.018638
      7.62167      8.00321     -9.54325         0.006250     -0.045672     -0.025619
      1.51902      6.15396     -4.49636         0.004201     -0.044989      0.018904
      1.52161      4.76335    -10.13927        -0.002359     -0.023260      0.008426
      4.57153      6.18209     -4.49868         0.002337     -0.050019      0.029432
      4.56920      4.76677    -10.13607        -0.000641     -0.020636     -0.000076
      7.61698      6.16990     -4.49272        -0.008377     -0.041301      0.024390
      7.61353      4.76160    -10.13409         0.004607     -0.021572     -0.001034
      9.13690     10.88477     -1.19986         0.022902      0.082223      0.007177
      9.13266      9.48795     -6.77455         0.000737      0.025017     -0.059739
      3.05360     10.87653     -1.17024        -0.043827      0.075796      0.037256
      3.04843      9.48395     -6.79098        -0.009509      0.013838     -0.063821
      6.09706     10.88535     -1.16935         0.017437      0.036373     -0.000368
      6.09293      9.48619     -6.78766         0.011502      0.018719     -0.037462
      1.50438      1.53791     -1.80856        -0.120770      0.049302      0.001486
      1.50799      0.15336     -7.38962        -0.131356      0.117990      0.029350
      4.57253      1.52305     -1.78740         0.015930      0.073465      0.009945
      4.57182      0.13088     -7.39880         0.023084      0.074740      0.011407
      7.63077      1.52865     -1.80737         0.107057      0.056479     -0.054519
      7.62179      0.13730     -7.38615         0.102227      0.114426      0.086889
      9.13534      3.22678     -3.89041        -0.025147     -0.187091      0.018550
      9.13866      1.83963     -9.52611        -0.005416     -0.102453      0.015571
      3.04948      3.25398     -3.88161        -0.013211     -0.051988     -0.006386
      3.04567      1.84335     -9.51973        -0.028851     -0.070340      0.013959
      6.09246      3.24985     -3.88240         0.033054     -0.074045     -0.007664
      6.09328      1.84079     -9.52078         0.031495     -0.074153      0.017491
      9.14188     -1.36373    -10.14602         0.008872      0.006874     -0.003300
      3.04250     -0.00358     -4.47431         0.418997      0.280944     -0.075477
      3.04553     -1.35427    -10.15089        -0.028825     -0.048841      0.016200
      6.16915     -0.01680     -4.48055         0.072942     -0.038721      0.010992
      6.09724     -1.35647    -10.15348         0.011715     -0.029625      0.019058
      1.52387      4.74469     -1.15083         0.002031     -0.000644     -0.022828
      1.51984      3.35740     -6.81214        -0.003909      0.004612     -0.025738
      4.56990      4.73741     -1.15090         0.002373      0.022055     -0.018821
      4.57086      3.36049     -6.81164        -0.000531      0.018598     -0.009310
      7.61114      4.74502     -1.15294        -0.002629     -0.008360     -0.026496
      7.61855      3.35272     -6.81616        -0.001748     -0.000154     -0.004587
      1.53066     11.87619     -1.50118         0.016197     -0.217665      0.185647
      1.51956     10.50460     -7.02635         0.013315     -0.226926      0.098030
      4.57161     11.88971     -1.44135        -0.002157     -0.191788      0.097878
      4.56865     10.49039     -7.08458        -0.005393     -0.181949      0.143857
      7.61496     11.89706     -1.42524        -0.017039     -0.219335      0.095606
      7.61564     10.48993     -7.08718        -0.005782     -0.199163      0.147411
      9.13723      5.15794     -4.21004         0.012168      0.197006     -0.126381
      9.14008      3.76017     -9.85978        -0.001914      0.185402     -0.118914
      3.05293      5.17098     -4.21547        -0.011912      0.184723     -0.122726
      3.04679      3.76212     -9.85780         0.004609      0.184943     -0.118335
      6.08870      5.17112     -4.21720        -0.003811      0.194475     -0.119248
      6.08902      3.75993     -9.85443        -0.003043      0.185541     -0.120344
      1.52645      7.46784     -3.15857         0.008302      0.009903     -0.145296
      1.52005      6.10423     -8.83229         0.003115     -0.042605     -0.107618
      4.56980      7.47551     -3.15338        -0.002225     -0.043358     -0.109485
      4.56709      6.10710     -8.83067         0.001338     -0.052168     -0.108493
      7.60640      7.47578     -3.15463        -0.002321     -0.052182     -0.113557
      7.62098      6.10705     -8.83303        -0.005038     -0.045854     -0.104178
      9.12262      9.51114     -2.45539         0.046877      0.016095      0.099225
      0.00109      8.17754     -8.13270        -0.002496      0.005260      0.116638
      3.07479      9.52904     -2.45837        -0.033824      0.074963      0.050159
      3.04148      8.17415     -8.13482         0.009451      0.026127      0.131056
      6.07692      9.53894     -2.46131        -0.019441      0.035253      0.115164
      6.09331      8.17254     -8.13347        -0.011392      0.018654      0.120538
      9.12149      8.86168     -5.04586         0.076772      0.491781     -0.061734
      0.00430      7.63231    -10.70948        -0.010780      0.355101     -0.035233
      3.07029      8.90772     -5.04280        -0.065928      0.499223     -0.040000
      3.04498      7.62216    -10.69392         0.013861      0.372939     -0.070238
      6.07561      8.91956     -5.03707         0.000888      0.455469     -0.088682
      6.09306      7.61651    -10.69279        -0.003906      0.385988     -0.063028
      1.52369      8.04257     -0.60325         0.003836     -0.395492      0.077371
      1.52351      6.65101     -6.27199         0.000395     -0.378198      0.067447
      4.57042      8.04672     -0.59610        -0.009506     -0.396880      0.073893
      4.56873      6.65543     -6.27862         0.000805     -0.373266      0.067747
      7.60962      8.04194     -0.59562         0.006715     -0.396186      0.077882
      7.61453      6.65007     -6.27366        -0.001932     -0.373200      0.060827
      9.13969      5.74672     -1.42422         0.001734     -0.151635      0.108442
      9.14037      4.36121     -7.10904         0.003567     -0.160777      0.122857
      3.04961      5.74799     -1.42113         0.000780     -0.161489      0.106239
      3.04596      4.36043     -7.10892         0.006704     -0.151002      0.123945
      6.08698      5.75078     -1.41814        -0.001059     -0.170669      0.103952
      6.09393      4.36072     -7.11195        -0.012769     -0.151991      0.121972
      1.52575     -2.36447     -9.85183         0.007496      0.158548     -0.123079
      4.59995     -0.98874     -4.22272        -0.129821      0.089148     -0.076058
      4.57064     -2.35987     -9.86462         0.001668      0.157026     -0.122185
      7.62162     11.22689     -4.20827        -0.428760     -0.151146     -0.032951
      7.61657     -2.36413     -9.85714        -0.011559      0.148340     -0.122532
      9.12417      1.41694     -3.14263         0.064185      0.317693      0.257410
      0.00246     -0.04429     -8.82372         0.000973     -0.029981     -0.158651
      3.06311      1.36464     -3.17780        -0.022051     -0.096246     -0.131005
      3.04076     -0.04710     -8.80862         0.019587     -0.019463     -0.125950
      6.09350      1.35152     -3.18280        -0.008023     -0.030713     -0.064111
      6.09386     -0.04702     -8.81236        -0.018164     -0.022042     -0.132775
      1.54664      3.44692     -2.48308         0.023328      0.043845      0.128349
      1.53295      2.04118     -8.14250         0.027370      0.054545      0.101672
      4.57224      3.42669     -2.48103        -0.007685      0.041264      0.114152
      4.56906      2.02639     -8.12705        -0.003143      0.043210      0.107099
      7.58996      3.44759     -2.48250        -0.013660      0.056408      0.124798
      7.60645      2.03771     -8.14685        -0.017014      0.060171      0.095431
      1.53127      2.89029     -5.04067         0.015930      0.355588     -0.085191
      1.52398      1.45993    -10.68535         0.008236      0.402365     -0.079006
      4.56998      2.87601     -5.04166        -0.009102      0.388072     -0.078268
      4.56756      1.45038    -10.68244         0.000097      0.398954     -0.072398
      7.60481      2.88871     -5.04490        -0.011831      0.389089     -0.090034
      7.61445      1.45728    -10.68767        -0.006389      0.404392     -0.076850
      0.00343      1.92016     -0.60525        -0.000186     -0.386319      0.122745
      9.12430      0.62712     -6.30582         0.131284     -0.494080     -0.295181
      3.03756      1.90042     -0.62436         0.029294     -0.363596      0.083257
      3.05318      0.53435     -6.25416        -0.027711     -0.433918      0.114762
      6.09808      1.91356     -0.62357        -0.029793     -0.385176      0.089787
      6.09234      0.53103     -6.25372        -0.003140     -0.419698      0.021533
      0.17612      0.02181     -4.52495         0.253703     -0.190703      0.041276
      1.52812     11.21490     -4.16970        -0.265853      0.411202     -0.242061
 -----------------------------------------------------------------------------------
    total drift:                                0.016467      0.045630     -0.017863


--------------------------------------------------------------------------------------------------------



  FREE ENERGIE OF THE ION-ELECTRON SYSTEM (eV)
  ---------------------------------------------------
  free  energy   TOTEN  =      -947.05484283 eV

  energy  without entropy=     -947.05484283  energy(sigma->0) =     -947.05484283
 


--------------------------------------------------------------------------------------------------------


    POTLOK:  cpu time      2.0591: real time      2.0653


--------------------------------------------------------------------------------------------------------


 writing wavefunctions
     LOOP+:  cpu time  43528.7191: real time  43523.0469
    4ORBIT:  cpu time      0.0000: real time      0.0000

 total amount of memory used by VASP MPI-rank0  7513452. kBytes
=======================================================================

   base      :      30000. kBytes
   nonlr-proj:      47158. kBytes
   fftplans  :      51012. kBytes
   grid      :     114966. kBytes
   one-center:       1866. kBytes
   HF        :        259. kBytes
   wavefun   :    7038921. kBytes
   fock_wrk  :     229270. kBytes
 
  
  
 General timing and accounting informations for this job:
 ========================================================
  
                  Total CPU time used (sec):    43561.430
                            User time (sec):    43523.032
                          System time (sec):       38.400
                         Elapsed time (sec):    43557.861
  
                   Maximum memory used (kb):    13345024.
                   Average memory used (kb):          N/A
  
                          Minor page faults:     20310494
                          Major page faults:            4
                 Voluntary context switches:       809590
