       N       E                     dE             d eps       ncg     rms          rms(c)
DAV:   1     0.123794707502E+05    0.12379E+05   -0.58447E+05 10584   0.706E+03
DAV:   2    -0.309919060206E+05   -0.43371E+05   -0.42006E+05 13536   0.119E+03
DAV:   3    -0.354082022887E+05   -0.44163E+04   -0.39830E+04 14432   0.346E+02
DAV:   4    -0.358836285300E+05   -0.47543E+03   -0.40502E+03 16968   0.991E+01
DAV:   5    -0.359281778900E+05   -0.44549E+02   -0.40564E+02 19360   0.289E+01    0.710E+02
DAV:   6    -0.107587726787E+05    0.25169E+05   -0.16738E+04 14408   0.243E+02    0.416E+02
DAV:   7    -0.267374654171E+04    0.80850E+04   -0.11247E+04 15312   0.222E+02    0.191E+02
DAV:   8    -0.938863307082E+03    0.17349E+04   -0.61605E+03 15768   0.212E+02    0.131E+02
DAV:   9    -0.774668781276E+03    0.16419E+03   -0.77843E+02 13360   0.117E+02    0.731E+01
DAV:  10    -0.742090299521E+03    0.32578E+02   -0.10465E+03 14888   0.613E+01    0.423E+01
DAV:  11    -0.713974412066E+03    0.28116E+02   -0.15826E+02 15248   0.463E+01    0.240E+01
DAV:  12    -0.706590985947E+03    0.73834E+01   -0.52117E+01 14960   0.279E+01    0.122E+01
DAV:  13    -0.706162374546E+03    0.42861E+00   -0.19122E+01 13592   0.143E+01    0.595E+00
DAV:  14    -0.706418867484E+03   -0.25649E+00   -0.58077E+00 15248   0.141E+01    0.466E+00
DAV:  15    -0.706282804453E+03    0.13606E+00   -0.31195E+00 13688   0.715E+00    0.247E+00
DAV:  16    -0.706307523639E+03   -0.24719E-01   -0.13797E+00 14952   0.289E+00    0.153E+00
DAV:  17    -0.706296246490E+03    0.11277E-01   -0.36573E-01 14944   0.312E+00    0.761E-01
DAV:  18    -0.706301541990E+03   -0.52955E-02   -0.14523E-01 14120   0.146E+00    0.554E-01
DAV:  19    -0.706304467111E+03   -0.29251E-02   -0.95698E-02 14240   0.127E+00    0.345E-01
DAV:  20    -0.706303005153E+03    0.14620E-02   -0.19397E-02 15368   0.107E+00    0.175E-01
DAV:  21    -0.706304606024E+03   -0.16009E-02   -0.25530E-02 13680   0.508E-01    0.146E-01
DAV:  22    -0.706304635863E+03   -0.29839E-04   -0.54005E-03 15272   0.419E-01    0.873E-02
DAV:  23    -0.706304638404E+03   -0.25416E-05   -0.18724E-03 17000   0.190E-01    0.511E-02
DAV:  24    -0.706304665797E+03   -0.27392E-04   -0.10169E-03 16016   0.174E-01    0.251E-02
DAV:  25    -0.706304837705E+03   -0.17191E-03   -0.18283E-03 13272   0.866E-02    0.241E-02
DAV:  26    -0.706304850629E+03   -0.12923E-04   -0.23598E-04 10408   0.576E-02    0.178E-02
DAV:  27    -0.706304848053E+03    0.25760E-05   -0.35790E-05  7856   0.347E-02
   1 F= -.70630485E+03 E0= -.70630483E+03  d E =-.412863E-04
