       N       E                     dE             d eps       ncg     rms          ort
SDA:   1    -0.715986821670E+03   -0.71599E+03    0.00000E+00   633   0.500E+03 0.000E+00
CGA:   2    -0.874840526078E+03   -0.15885E+03   -0.15858E+03   633   0.267E+03 0.162E+01
CGA:   3    -0.930733003459E+03   -0.55892E+02   -0.55882E+02   633   0.476E+02 0.145E+01
CGA:   4    -0.946979321543E+03   -0.16246E+02   -0.16125E+02   633   0.197E+02 0.843E+00
CGA:   5    -0.952046059329E+03   -0.50667E+01   -0.50534E+01   633   0.619E+01 0.236E+00
CGA:   6    -0.954159039465E+03   -0.21130E+01   -0.21041E+01   633   0.242E+01 0.623E-01
CGA:   7    -0.954796274138E+03   -0.63723E+00   -0.63688E+00   633   0.683E+00 0.625E-02
CGA:   8    -0.954992674724E+03   -0.19640E+00   -0.19632E+00   633   0.208E+00 0.817E-03
CGA:   9    -0.955045984380E+03   -0.53310E-01   -0.53316E-01   633   0.629E-01-0.206E-03
CGA:  10    -0.955059721944E+03   -0.13738E-01   -0.13739E-01   633   0.144E-01 0.140E-03
CGA:  11    -0.955062956626E+03   -0.32347E-02   -0.32348E-02   633   0.401E-02 0.302E-04
CGA:  12    -0.955064049288E+03   -0.10927E-02   -0.10946E-02   633   0.121E-02-0.429E-04
CGA:  13    -0.955064319832E+03   -0.27054E-03   -0.27052E-03   633   0.426E-03-0.615E-05
CGA:  14    -0.955064414853E+03   -0.95021E-04   -0.95063E-04   633   0.152E-03 0.914E-05
CGA:  15    -0.955064450635E+03   -0.35782E-04   -0.35772E-04   633   0.546E-04 0.497E-05
CGA:  16    -0.955064463895E+03   -0.13260E-04   -0.13265E-04   633   0.257E-04-0.771E-06
CGA:  17    -0.955064469840E+03   -0.59447E-05   -0.59532E-05   633   0.111E-04-0.147E-05
   1 F= -.95506447E+03 E0= -.95505037E+03  d E =-.282095E-01
