Ga8 O12                                 
    1.000000000000000     
     0.0000000000000000   12.2804737091000007    0.0000000000000000
     9.1427011490000005    0.0000000000000000    0.0000000000000000
     0.0000000000000000   -2.7682616411000001  -11.3006974810000003
   Ga   O    Cu
    47    72     1
Direct
  0.6596217712451670  0.0001376154905598  0.1568131185511270
  0.6591037847524394  0.0000448570257833  0.6567340560497203
  0.6587026258185948  0.3333358044229495  0.1572497362618721
  0.6581951106243643  0.3333267820526080  0.6558591816918770
  0.6596418304947747  0.6665435213024498  0.1568087296459451
  0.6590837384854528  0.6666062014055074  0.6567353441356275
  0.8417524884746169  0.1669009801047922  0.3433717355787353
  0.8408786197387560  0.1670562165688863  0.8433894113009122
  0.8417459320541970  0.4997648979389401  0.3433709866915161
  0.8408765139377581  0.4996104121928318  0.8433867367564347
  0.8416171501877101  0.8333381323152269  0.3434929741800776
  0.8408763109117622  0.8333360609573734  0.8434473737523248
  0.5913587792128319  0.1678708091432660  0.3979077361609129
  0.5911534322006432  0.1667054247699040  0.8977807435246965
  0.5913593474067979  0.4987906326696153  0.3979022834607233
  0.5911524657934719  0.4999608601642113  0.8977753926713525
  0.5915558924902140  0.8333318942596675  0.3978649250903482
  0.5914876868692343  0.8333366806432395  0.8980129747884444
  0.9092625690491822  0.0002981116844473  0.1022069457745584
  0.9087153766960634  0.0002392405286273  0.6023812116592061
  0.9100088379030924  0.3333390278979819  0.1028484018483109
  0.9089016344318132  0.3333327512595906  0.6024303268339368
  0.9092794796735522  0.6663749347162934  0.1022062166148749
  0.9086989685976634  0.6664198225552328  0.6023766296753839
  0.1607783462850025  0.1673778821492785  0.1578392659599239
  0.1593443171346715  0.1666791241879855  0.6563139585047156
  0.1607957692144292  0.4993398776674082  0.1577946495863281
  0.1593404395325380  0.4999775741504656  0.6563057750330386
  0.1588607210090305  0.8333572961617610  0.1571932300845825
  0.1584748583090334  0.8333199160034920  0.6574678866129966
  0.3411176491403122  0.0017182395889992  0.3432202792530245
  0.3412040575265526  0.0001197329662127  0.8432842878666515
  0.3412287816623681  0.3333180980467961  0.8431425055647155
  0.3411280498831127  0.6648695906938922  0.3431298167046899
  0.3412081038766101  0.6665584653439464  0.8432338618169094
  0.0917807383669447  0.0001808385317902  0.3976822611135889
  0.0904775211420716  0.0000114053736412  0.8975872180175105
  0.0934786244118778  0.3333475022037986  0.3965014601679233
  0.0913403176074258  0.3333392899912018  0.8977130020477682
  0.0917633742796137  0.6665082099405357  0.3976706964291939
  0.0904349877750145  0.6667046622640252  0.8975389669970260
  0.4086465593554159  0.1659609132550631  0.1032660623436537
  0.4079647724673588  0.1658764801760371  0.6000489902721470
  0.4086637023755713  0.5007712536281324  0.1031972403141746
  0.4079421611661506  0.5006895406978851  0.5999807625176232
  0.4091464708766864  0.8333503562065671  0.1032188609884194
  0.4091449433837672  0.8333067034760870  0.6014324649434054
  0.9964375187093812  0.1664163490989791  0.1259060554013162
  0.9962211186396168  0.1667307860172187  0.6277860117567176
  0.9964430365676338  0.5002529873771483  0.1259061198042289
  0.9962199693984510  0.4999380727856140  0.6277811202831409
  0.9954264515770449  0.8333466441170151  0.1263942136884791
  0.9955313616329281  0.8333222831919663  0.6280291652583940
  0.5050459036418308  0.0001444290552140  0.3734333902835869
  0.5041103510546078 -0.0001443851450959  0.8731632918952816
  0.5066959839703625  0.3333322869973472  0.3748147685918942
  0.5039641700130100  0.3333317100543451  0.8729078387129274
  0.5050558185831989  0.6665217144442995  0.3734085010807923
  0.5041145788248890  0.6668155032531017  0.8731478534123543
  0.6734913959171384  0.1661965980931986  0.2802034832321290
  0.6727265765842162  0.1670768301985386  0.7808404136228058
  0.6734976220299639  0.5004740136668796  0.2802001232480214
  0.6727240569222790  0.4995856671813625  0.7808354215946343
  0.6733851308344800  0.8333397022349871  0.2805631440050489
  0.6730891941275995  0.8333213222669047  0.7809770992410990
  0.8281227642853106  0.0001306689806230  0.2196716208552388
  0.8275543719849099  0.0001506449911767  0.7198639263398429
  0.8280361480047004  0.3333329033412861  0.2196400256968032
  0.8273171207517604  0.3333322776391949  0.7196182078870685
  0.8281308845899316  0.6665451443325597  0.2196680058438243
  0.8275531486560368  0.6665136435291951  0.7198680020041183
  0.8321281036239880  0.0001294901273880  0.4458252769208118
  0.8319363305914607  0.0002085136300122  0.9456286565128611
  0.8319330675969809  0.3333315380074778  0.4459263417738629
  0.8324062136211423  0.3333349933618968  0.9461206496228768
  0.8321253864276722  0.6665409766513761  0.4458194546102517
  0.8319431889492980  0.6664622201088051  0.9456288532976023
  0.6684595719093016  0.1670382461434979  0.0542021993016187
  0.6693006970491090  0.1660211500094491  0.5550279319350827
  0.6684586149994859  0.4996322037640907  0.0541960665681142
  0.6693007252693990  0.5006364508925818  0.5550274037207228
  0.6694292968609482  0.8333467257187400  0.0542616316736384
  0.6689748519250414  0.8333220880146944  0.5546547652097854
  0.4975730545906147 -0.0004364330660947  0.1260866777441743
  0.4973907929832085 -0.0003202249535988  0.6291667181186397
  0.4959913151679352  0.3333539535890574  0.1267138170337989
  0.4956355259302910  0.3332961132708425  0.6272373004247117
  0.4975993416053923  0.6671595680297693  0.1260549352641546
  0.4973579833828352  0.6668967699175076  0.6291185689297908
  0.0040991068369656  0.1669556722235139  0.3739095939176889
  0.0033207043851287  0.1669988997599561  0.8718380367173617
  0.0040936811739915  0.4997259670697207  0.3739177820287144
  0.0033196543571883  0.4996783157110251  0.8718301468773795
  0.0036461513160222  0.8333438104706169  0.3737553270009343
  0.0029189717548281  0.8333645430651898  0.8714174348758963
  0.1705736978852243 -0.0019370878214307  0.2794309136234537
  0.1724996596034128 -0.0001088439866463  0.7809125530406223
  0.1674049505998282  0.3333577682514833  0.2754529330720664
  0.1725820554289820  0.3333325502068890  0.7803312277298922
  0.1705762969939155  0.6686176544883526  0.2794306559496012
  0.1724866774764728  0.6667703976702071  0.7808848872044889
  0.3259847323884474  0.1572017606720786  0.2165602529475684
  0.3277262336192335  0.1665857748110703  0.7197459296540454
  0.3259392223673150  0.5097621221081123  0.2163345824417151
  0.3277221818917219  0.5000706645689164  0.7196760391502894
  0.3276514218223173  0.8334225943462245  0.2195327659494243
  0.3275917210269564  0.8333392890210420  0.7193392924488938
  0.3255969624735339  0.1574901587325484  0.4482990356745294
  0.3332017434274027  0.1666320341607884  0.9455896078168127
  0.3257084054234371  0.5088337896745692  0.4481034238486882
  0.3331981748104933  0.5000545853757867  0.9455263018568176
  0.3329514974823566  0.8332373367483671  0.4452234984887252
  0.3328319360193174  0.8333226353124223  0.9458735608153164
  0.1657677557697516 -0.0006595510567902  0.0535453407213663
  0.1655630959701879 -0.0009791673459495  0.5551627402619087
  0.1689807177559400  0.3333369505367224  0.0530667873197929
  0.1666130420019964  0.3333321790622492  0.5544047602860666
  0.1656906843114887  0.6674121665258839  0.0535055213979973
  0.1656163523723032  0.6676067059978292  0.5551373955804013
  0.3400081576367414  0.3332515579437104  0.3438199430603676
 
  0.00000000E+00  0.00000000E+00  0.00000000E+00
  0.00000000E+00  0.00000000E+00  0.00000000E+00
  0.00000000E+00  0.00000000E+00  0.00000000E+00
  0.00000000E+00  0.00000000E+00  0.00000000E+00
  0.00000000E+00  0.00000000E+00  0.00000000E+00
  0.00000000E+00  0.00000000E+00  0.00000000E+00
  0.00000000E+00  0.00000000E+00  0.00000000E+00
  0.00000000E+00  0.00000000E+00  0.00000000E+00
  0.00000000E+00  0.00000000E+00  0.00000000E+00
  0.00000000E+00  0.00000000E+00  0.00000000E+00
  0.00000000E+00  0.00000000E+00  0.00000000E+00
  0.00000000E+00  0.00000000E+00  0.00000000E+00
  0.00000000E+00  0.00000000E+00  0.00000000E+00
  0.00000000E+00  0.00000000E+00  0.00000000E+00
  0.00000000E+00  0.00000000E+00  0.00000000E+00
  0.00000000E+00  0.00000000E+00  0.00000000E+00
  0.00000000E+00  0.00000000E+00  0.00000000E+00
  0.00000000E+00  0.00000000E+00  0.00000000E+00
  0.00000000E+00  0.00000000E+00  0.00000000E+00
  0.00000000E+00  0.00000000E+00  0.00000000E+00
  0.00000000E+00  0.00000000E+00  0.00000000E+00
  0.00000000E+00  0.00000000E+00  0.00000000E+00
  0.00000000E+00  0.00000000E+00  0.00000000E+00
  0.00000000E+00  0.00000000E+00  0.00000000E+00
  0.00000000E+00  0.00000000E+00  0.00000000E+00
  0.00000000E+00  0.00000000E+00  0.00000000E+00
  0.00000000E+00  0.00000000E+00  0.00000000E+00
  0.00000000E+00  0.00000000E+00  0.00000000E+00
  0.00000000E+00  0.00000000E+00  0.00000000E+00
  0.00000000E+00  0.00000000E+00  0.00000000E+00
  0.00000000E+00  0.00000000E+00  0.00000000E+00
  0.00000000E+00  0.00000000E+00  0.00000000E+00
  0.00000000E+00  0.00000000E+00  0.00000000E+00
  0.00000000E+00  0.00000000E+00  0.00000000E+00
  0.00000000E+00  0.00000000E+00  0.00000000E+00
  0.00000000E+00  0.00000000E+00  0.00000000E+00
  0.00000000E+00  0.00000000E+00  0.00000000E+00
  0.00000000E+00  0.00000000E+00  0.00000000E+00
  0.00000000E+00  0.00000000E+00  0.00000000E+00
  0.00000000E+00  0.00000000E+00  0.00000000E+00
  0.00000000E+00  0.00000000E+00  0.00000000E+00
  0.00000000E+00  0.00000000E+00  0.00000000E+00
  0.00000000E+00  0.00000000E+00  0.00000000E+00
  0.00000000E+00  0.00000000E+00  0.00000000E+00
  0.00000000E+00  0.00000000E+00  0.00000000E+00
  0.00000000E+00  0.00000000E+00  0.00000000E+00
  0.00000000E+00  0.00000000E+00  0.00000000E+00
  0.00000000E+00  0.00000000E+00  0.00000000E+00
  0.00000000E+00  0.00000000E+00  0.00000000E+00
  0.00000000E+00  0.00000000E+00  0.00000000E+00
  0.00000000E+00  0.00000000E+00  0.00000000E+00
  0.00000000E+00  0.00000000E+00  0.00000000E+00
  0.00000000E+00  0.00000000E+00  0.00000000E+00
  0.00000000E+00  0.00000000E+00  0.00000000E+00
  0.00000000E+00  0.00000000E+00  0.00000000E+00
  0.00000000E+00  0.00000000E+00  0.00000000E+00
  0.00000000E+00  0.00000000E+00  0.00000000E+00
  0.00000000E+00  0.00000000E+00  0.00000000E+00
  0.00000000E+00  0.00000000E+00  0.00000000E+00
  0.00000000E+00  0.00000000E+00  0.00000000E+00
  0.00000000E+00  0.00000000E+00  0.00000000E+00
  0.00000000E+00  0.00000000E+00  0.00000000E+00
  0.00000000E+00  0.00000000E+00  0.00000000E+00
  0.00000000E+00  0.00000000E+00  0.00000000E+00
  0.00000000E+00  0.00000000E+00  0.00000000E+00
  0.00000000E+00  0.00000000E+00  0.00000000E+00
  0.00000000E+00  0.00000000E+00  0.00000000E+00
  0.00000000E+00  0.00000000E+00  0.00000000E+00
  0.00000000E+00  0.00000000E+00  0.00000000E+00
  0.00000000E+00  0.00000000E+00  0.00000000E+00
  0.00000000E+00  0.00000000E+00  0.00000000E+00
  0.00000000E+00  0.00000000E+00  0.00000000E+00
  0.00000000E+00  0.00000000E+00  0.00000000E+00
  0.00000000E+00  0.00000000E+00  0.00000000E+00
  0.00000000E+00  0.00000000E+00  0.00000000E+00
  0.00000000E+00  0.00000000E+00  0.00000000E+00
  0.00000000E+00  0.00000000E+00  0.00000000E+00
  0.00000000E+00  0.00000000E+00  0.00000000E+00
  0.00000000E+00  0.00000000E+00  0.00000000E+00
  0.00000000E+00  0.00000000E+00  0.00000000E+00
  0.00000000E+00  0.00000000E+00  0.00000000E+00
  0.00000000E+00  0.00000000E+00  0.00000000E+00
  0.00000000E+00  0.00000000E+00  0.00000000E+00
  0.00000000E+00  0.00000000E+00  0.00000000E+00
  0.00000000E+00  0.00000000E+00  0.00000000E+00
  0.00000000E+00  0.00000000E+00  0.00000000E+00
  0.00000000E+00  0.00000000E+00  0.00000000E+00
  0.00000000E+00  0.00000000E+00  0.00000000E+00
  0.00000000E+00  0.00000000E+00  0.00000000E+00
  0.00000000E+00  0.00000000E+00  0.00000000E+00
  0.00000000E+00  0.00000000E+00  0.00000000E+00
  0.00000000E+00  0.00000000E+00  0.00000000E+00
  0.00000000E+00  0.00000000E+00  0.00000000E+00
  0.00000000E+00  0.00000000E+00  0.00000000E+00
  0.00000000E+00  0.00000000E+00  0.00000000E+00
  0.00000000E+00  0.00000000E+00  0.00000000E+00
  0.00000000E+00  0.00000000E+00  0.00000000E+00
  0.00000000E+00  0.00000000E+00  0.00000000E+00
  0.00000000E+00  0.00000000E+00  0.00000000E+00
  0.00000000E+00  0.00000000E+00  0.00000000E+00
  0.00000000E+00  0.00000000E+00  0.00000000E+00
  0.00000000E+00  0.00000000E+00  0.00000000E+00
  0.00000000E+00  0.00000000E+00  0.00000000E+00
  0.00000000E+00  0.00000000E+00  0.00000000E+00
  0.00000000E+00  0.00000000E+00  0.00000000E+00
  0.00000000E+00  0.00000000E+00  0.00000000E+00
  0.00000000E+00  0.00000000E+00  0.00000000E+00
  0.00000000E+00  0.00000000E+00  0.00000000E+00
  0.00000000E+00  0.00000000E+00  0.00000000E+00
  0.00000000E+00  0.00000000E+00  0.00000000E+00
  0.00000000E+00  0.00000000E+00  0.00000000E+00
  0.00000000E+00  0.00000000E+00  0.00000000E+00
  0.00000000E+00  0.00000000E+00  0.00000000E+00
  0.00000000E+00  0.00000000E+00  0.00000000E+00
  0.00000000E+00  0.00000000E+00  0.00000000E+00
  0.00000000E+00  0.00000000E+00  0.00000000E+00
  0.00000000E+00  0.00000000E+00  0.00000000E+00
  0.00000000E+00  0.00000000E+00  0.00000000E+00
  0.00000000E+00  0.00000000E+00  0.00000000E+00
  0.00000000E+00  0.00000000E+00  0.00000000E+00
