 running    4 mpi-ranks, on    1 nodes
 distrk:  each k-point on    1 cores,    4 groups
 distr:  one band on    1 cores,    1 groups
 OpenACC runtime initialized ...    4 GPUs detected
 vasp.6.4.2 20Jul23 (build Nov 12 2023 22:16:35) complex                         
 POSCAR found type information on POSCAR GaO Cu
 POSCAR found :  3 types and     120 ions
 scaLAPACK will be used selectively (only on CPU)
 LDA part: xc-table for Pade appr. of Perdew
 POSCAR, INCAR and KPOINTS ok, starting setup
 FFT: planning ... GRIDC
 FFT: planning ... GRID_SOFT
 FFT: planning ... GRID
 WAVECAR not read
 entering main loop
       N       E                     dE             d eps       ncg     rms          rms(c)
DAV:   1     0.220793574209E+05    0.22079E+05   -0.32741E+05 10176   0.281E+03
DAV:   2     0.489519956212E+04   -0.17184E+05   -0.16190E+05 10176   0.822E+02
DAV:   3    -0.139963631980E+03   -0.50352E+04   -0.47414E+04 13040   0.322E+02
DAV:   4    -0.778711170366E+03   -0.63875E+03   -0.62491E+03 12600   0.122E+02
DAV:   5    -0.823104812280E+03   -0.44394E+02   -0.44006E+02 14624   0.349E+01BRMIX: very serious problems
 the old and the new charge density differ
 old charge density:  1060.00000 new 1060.99972
BRMIX: very serious problems
 the old and the new charge density differ
 old charge density:  1060.00000 new 1060.99972
BRMIX: very serious problems
 the old and the new charge density differ
 old charge density:  1060.00000 new 1060.99972
BRMIX: very serious problems
 the old and the new charge density differ
 old charge density:  1060.00000 new 1060.99972
    0.736E+01
DAV:   6    -0.747002490787E+03    0.76102E+02   -0.78981E+02 17120   0.741E+01    0.143E+02
DAV:   7    -0.734104487076E+03    0.12898E+02   -0.14097E+02 12504   0.180E+01    0.686E+01
DAV:   8    -0.706965883219E+03    0.27139E+02   -0.54670E+01 12040   0.268E+01    0.131E+01
DAV:   9    -0.723797966992E+03   -0.16832E+02   -0.55662E+01 12744   0.411E+01    0.862E+01
DAV:  10    -0.706759660313E+03    0.17038E+02   -0.90215E+01 12696   0.774E+00    0.175E+01
DAV:  11    -0.707311020927E+03   -0.55136E+00   -0.73254E+00 11984   0.532E+00    0.198E+01
DAV:  12    -0.706772529867E+03    0.53849E+00   -0.50572E+00 12904   0.213E+00    0.157E+01
DAV:  13    -0.706461960500E+03    0.31057E+00   -0.81706E+00 13624   0.382E+00    0.724E+00
DAV:  14    -0.706222948766E+03    0.23901E+00   -0.34270E-01 13400   0.213E+00    0.496E+00
DAV:  15    -0.706120051379E+03    0.10290E+00   -0.88215E-02 13256   0.949E-01    0.343E+00
DAV:  16    -0.706110295778E+03    0.97556E-02   -0.76552E-02 13208   0.662E-01    0.261E+00
DAV:  17    -0.706141602172E+03   -0.31306E-01   -0.75011E-02 10880   0.414E-01    0.300E+00
DAV:  18    -0.706118899067E+03    0.22703E-01   -0.10438E-01 13392   0.593E-01    0.275E+00
DAV:  19    -0.706102370663E+03    0.16528E-01   -0.14433E-01 12728   0.749E-01    0.234E+00
DAV:  20    -0.706095382927E+03    0.69877E-02   -0.12270E-01 14768   0.315E-01    0.210E+00
DAV:  21    -0.706084433150E+03    0.10950E-01   -0.11627E-01 12368   0.336E-01    0.211E+00
DAV:  22    -0.706074150503E+03    0.10283E-01   -0.97555E-02 12648   0.232E-01    0.172E+00
DAV:  23    -0.706068576843E+03    0.55737E-02   -0.85733E-02 12824   0.277E-01    0.183E+00
DAV:  24    -0.706060519241E+03    0.80576E-02   -0.71806E-02 13240   0.260E-01    0.134E+00
DAV:  25    -0.706057726882E+03    0.27924E-02   -0.59171E-02 12872   0.215E-01    0.134E+00
DAV:  26    -0.706056007104E+03    0.17198E-02   -0.41737E-02 10752   0.173E-01    0.928E-01
DAV:  27    -0.706057371699E+03   -0.13646E-02   -0.33987E-02 10672   0.119E-01    0.126E+00
DAV:  28    -0.706054318521E+03    0.30532E-02   -0.24768E-02  8784   0.121E-01    0.650E-01
DAV:  29    -0.706055821725E+03   -0.15032E-02   -0.20360E-02  9488   0.804E-02    0.110E+00
DAV:  30    -0.706053098344E+03    0.27234E-02   -0.12381E-02  9464   0.111E-01    0.387E-01
DAV:  31    -0.706054976511E+03   -0.18782E-02   -0.10766E-02  9624   0.688E-02    0.101E+00
DAV:  32    -0.706052558749E+03    0.24178E-02   -0.55060E-03  9360   0.821E-02    0.378E-01
DAV:  33    -0.706054431154E+03   -0.18724E-02   -0.49081E-03  9344   0.547E-02    0.934E-01
DAV:  34    -0.706052748600E+03    0.16826E-02   -0.23962E-03  8736   0.509E-02    0.555E-01
DAV:  35    -0.706054073703E+03   -0.13251E-02   -0.18295E-03  8736   0.468E-02    0.846E-01
DAV:  36    -0.706053296270E+03    0.77743E-03   -0.10643E-03  8320   0.420E-02    0.699E-01
DAV:  37    -0.706053765885E+03   -0.46962E-03   -0.53819E-04  8512   0.391E-02    0.749E-01
DAV:  38    -0.706053766028E+03   -0.14300E-06   -0.58208E-04  8360   0.313E-02    0.775E-01
DAV:  39    -0.706053324079E+03    0.44195E-03   -0.23716E-04  9296   0.363E-02    0.659E-01
DAV:  40    -0.706053707575E+03   -0.38350E-03   -0.19736E-04  8120   0.201E-02    0.737E-01
DAV:  41    -0.706053115029E+03    0.59255E-03   -0.91767E-05  8224   0.212E-02    0.618E-01
DAV:  42    -0.706053567273E+03   -0.45224E-03   -0.65085E-05  7936   0.160E-02    0.685E-01
DAV:  43    -0.706053177546E+03    0.38973E-03   -0.33018E-05  7352   0.120E-02    0.596E-01
DAV:  44    -0.706053499020E+03   -0.32147E-03   -0.25093E-05  7168   0.116E-02    0.636E-01
DAV:  45    -0.706053225865E+03    0.27315E-03   -0.23248E-05  6264   0.872E-03    0.543E-01
DAV:  46    -0.706053377450E+03   -0.15158E-03   -0.97207E-05  6680   0.118E-02    0.529E-01
DAV:  47    -0.706053209169E+03    0.16828E-03   -0.23546E-05  6472   0.108E-02    0.483E-01
DAV:  48    -0.706053354422E+03   -0.14525E-03   -0.13836E-04  6360   0.106E-02    0.473E-01
DAV:  49    -0.706053125269E+03    0.22915E-03   -0.20833E-05  6824   0.117E-02    0.403E-01
DAV:  50    -0.706053250498E+03   -0.12523E-03   -0.24619E-05  6128   0.698E-03    0.425E-01
DAV:  51    -0.706053045350E+03    0.20515E-03   -0.27325E-04  8400   0.158E-02    0.339E-01
DAV:  52    -0.706053069771E+03   -0.24421E-04   -0.18641E-05  6520   0.125E-02    0.330E-01
DAV:  53    -0.706053063094E+03    0.66774E-05   -0.55907E-05  5832   0.812E-03
   1 F= -.70605306E+03 E0= -.70603374E+03  d E =-.706053E+03
 curvature:   0.00 expect dE= 0.000E+00 dE for cont linesearch  0.000E+00
 trial: gam= 0.00000 g(F)=  0.101E+01 g(S)=  0.000E+00 ort = 0.000E+00 (trialstep = 0.100E+01)
 search vector abs. value=  0.101E+01
 bond charge predicted
       N       E                     dE             d eps       ncg     rms          rms(c)
DAV:   1    -0.704844282758E+03    0.12088E+01   -0.22789E+02 10840   0.233E+01    0.364E+00
DAV:   2    -0.706412109685E+03   -0.15678E+01   -0.16601E+01 13960   0.737E+00    0.482E+00
DAV:   3    -0.706331544754E+03    0.80565E-01   -0.11071E+00 12888   0.210E+00    0.363E+00
DAV:   4    -0.706329718128E+03    0.18266E-02   -0.84291E-01 15040   0.138E+00    0.397E+00
DAV:   5    -0.706282758089E+03    0.46960E-01   -0.10231E+00 13888   0.270E+00    0.402E+00
DAV:   6    -0.706207087223E+03    0.75671E-01   -0.18610E-01 15328   0.280E+00    0.939E-01
DAV:   7    -0.706245620515E+03   -0.38533E-01   -0.13192E-01 11696   0.108E+00    0.235E+00
DAV:   8    -0.706222737106E+03    0.22883E-01   -0.40845E-02 12688   0.546E-01    0.896E-01
DAV:   9    -0.706248071265E+03   -0.25334E-01   -0.42719E-02 10896   0.284E-01    0.192E+00
DAV:  10    -0.706232194427E+03    0.15877E-01   -0.38515E-02 10840   0.397E-01    0.867E-01
DAV:  11    -0.706242438408E+03   -0.10244E-01   -0.41183E-02 11640   0.475E-01    0.866E-01
DAV:  12    -0.706242615596E+03   -0.17719E-03   -0.41030E-02 14088   0.254E-01    0.883E-01
DAV:  13    -0.706242522890E+03    0.92705E-04   -0.35871E-02 11792   0.157E-01    0.831E-01
DAV:  14    -0.706243313532E+03   -0.79064E-03   -0.31088E-02 10184   0.178E-01    0.957E-01
DAV:  15    -0.706243103582E+03    0.20995E-03   -0.28644E-02 10824   0.147E-01    0.111E+00
DAV:  16    -0.706241949094E+03    0.11545E-02   -0.23146E-02 13824   0.157E-01    0.951E-01
DAV:  17    -0.706243448177E+03   -0.14991E-02   -0.20108E-02 11840   0.140E-01    0.121E+00
DAV:  18    -0.706241360111E+03    0.20881E-02   -0.16951E-02 11152   0.140E-01    0.101E+00
DAV:  19    -0.706242758132E+03   -0.13980E-02   -0.10613E-02 11160   0.143E-01    0.111E+00
DAV:  20    -0.706241881046E+03    0.87709E-03   -0.89373E-03 10544   0.128E-01    0.105E+00
DAV:  21    -0.706241858827E+03    0.22219E-04   -0.42855E-03 10752   0.133E-01    0.961E-01
DAV:  22    -0.706242346742E+03   -0.48791E-03   -0.34410E-03 10832   0.128E-01    0.101E+00
DAV:  23    -0.706241376577E+03    0.97016E-03   -0.18674E-03 10664   0.122E-01    0.844E-01
DAV:  24    -0.706242413488E+03   -0.10369E-02   -0.15141E-03 10624   0.118E-01    0.926E-01
DAV:  25    -0.706241311415E+03    0.11021E-02   -0.12109E-03 10624   0.110E-01    0.754E-01
DAV:  26    -0.706242275524E+03   -0.96411E-03   -0.11182E-03 10592   0.105E-01    0.817E-01
DAV:  27    -0.706241437704E+03    0.83782E-03   -0.10938E-03 10512   0.970E-02    0.675E-01
DAV:  28    -0.706242104887E+03   -0.66718E-03   -0.11003E-03 10472   0.919E-02    0.706E-01
DAV:  29    -0.706241578929E+03    0.52596E-03   -0.10939E-03 10400   0.847E-02    0.597E-01
DAV:  30    -0.706241976078E+03   -0.39715E-03   -0.11076E-03 10280   0.795E-02    0.603E-01
DAV:  31    -0.706241673879E+03    0.30220E-03   -0.10734E-03 10136   0.732E-02    0.520E-01
DAV:  32    -0.706241898605E+03   -0.22473E-03   -0.10616E-03 10024   0.680E-02    0.513E-01
DAV:  33    -0.706241722423E+03    0.17618E-03   -0.10050E-03  9816   0.624E-02    0.444E-01
DAV:  34    -0.706241859040E+03   -0.13662E-03   -0.96493E-04  9640   0.573E-02    0.435E-01
DAV:  35    -0.706241741170E+03    0.11787E-03   -0.89744E-04  9416   0.526E-02    0.372E-01
DAV:  36    -0.706241840074E+03   -0.98904E-04   -0.83775E-04  9168   0.479E-02    0.367E-01
DAV:  37    -0.706241746710E+03    0.93365E-04   -0.76760E-04  9032   0.438E-02    0.308E-01
DAV:  38    -0.706241829064E+03   -0.82354E-04   -0.70053E-04  8920   0.397E-02    0.308E-01
DAV:  39    -0.706241748871E+03    0.80194E-04   -0.63361E-04  8840   0.363E-02    0.251E-01
DAV:  40    -0.706241819542E+03   -0.70672E-04   -0.56771E-04  8744   0.328E-02    0.257E-01
DAV:  41    -0.706241751549E+03    0.67993E-04   -0.50625E-04  8616   0.298E-02    0.204E-01
DAV:  42    -0.706241809840E+03   -0.58291E-04   -0.44621E-04  8536   0.269E-02    0.213E-01
DAV:  43    -0.706241755060E+03    0.54780E-04   -0.39130E-04  8416   0.243E-02    0.165E-01
DAV:  44    -0.706241800513E+03   -0.45453E-04   -0.33925E-04  8376   0.219E-02    0.174E-01
DAV:  45    -0.706241758831E+03    0.41681E-04   -0.29266E-04  8232   0.196E-02    0.132E-01
DAV:  46    -0.706241792425E+03   -0.33594E-04   -0.24954E-04  7992   0.176E-02    0.142E-01
DAV:  47    -0.706241761540E+03    0.30886E-04   -0.20937E-04  7904   0.156E-02    0.104E-01
DAV:  48    -0.706241786671E+03   -0.25132E-04   -0.17379E-04  7608   0.139E-02    0.115E-01
DAV:  49    -0.706241763384E+03    0.23287E-04   -0.14506E-04  7272   0.123E-02    0.813E-02
DAV:  50    -0.706241782136E+03   -0.18752E-04   -0.11852E-04  7000   0.109E-02    0.926E-02
DAV:  51    -0.706241765059E+03    0.17078E-04   -0.98274E-05  6688   0.949E-03    0.638E-02
DAV:  52    -0.706241778748E+03   -0.13689E-04   -0.78268E-05  6464   0.839E-03    0.746E-02
DAV:  53    -0.706241766324E+03    0.12424E-04   -0.61847E-05  6288   0.744E-03    0.497E-02
DAV:  54    -0.706241776289E+03   -0.99657E-05   -0.48393E-05  6208   0.662E-03
   2 F= -.70624178E+03 E0= -.70622406E+03  d E =-.188713E+00
 trial-energy change:   -0.188713  1 .order   -0.141538   -1.006071    0.722995
 step:   0.6204(harm=  0.5819)  dis= 0.03788  next Energy=  -706.376417 (dE=-0.323E+00)
 bond charge predicted
       N       E                     dE             d eps       ncg     rms          rms(c)
DAV:   1    -0.706199107520E+03    0.42659E-01   -0.32755E+01 10728   0.923E+00    0.139E+00
DAV:   2    -0.706390358819E+03   -0.19125E+00   -0.20460E+00 14752   0.312E+00    0.118E+00
DAV:   3    -0.706403489065E+03   -0.13130E-01   -0.25284E-01 12288   0.913E-01    0.264E+00
DAV:   4    -0.706387222115E+03    0.16267E-01   -0.16911E-01 12656   0.525E-01    0.230E+00
DAV:   5    -0.706390996884E+03   -0.37748E-02   -0.14415E-01 12208   0.705E-01    0.246E+00
DAV:   6    -0.706387731861E+03    0.32650E-02   -0.16386E-01 14760   0.143E+00    0.287E+00
DAV:   7    -0.706370857406E+03    0.16874E-01   -0.93432E-02 14544   0.561E-01    0.167E+00
DAV:   8    -0.706388218132E+03   -0.17361E-01   -0.76883E-02 11512   0.395E-01    0.223E+00
DAV:   9    -0.706373728819E+03    0.14489E-01   -0.62579E-02 10784   0.386E-01    0.137E+00
DAV:  10    -0.706385014034E+03   -0.11285E-01   -0.58922E-02 10992   0.326E-01    0.168E+00
DAV:  11    -0.706377001715E+03    0.80123E-02   -0.46625E-02 12336   0.194E-01    0.104E+00
DAV:  12    -0.706382928609E+03   -0.59269E-02   -0.40633E-02 10624   0.163E-01    0.120E+00
DAV:  13    -0.706379165738E+03    0.37629E-02   -0.32635E-02 11880   0.146E-01    0.851E-01
DAV:  14    -0.706381560018E+03   -0.23943E-02   -0.26921E-02 10968   0.112E-01    0.814E-01
DAV:  15    -0.706380268748E+03    0.12913E-02   -0.21231E-02 10784   0.933E-02    0.686E-01
DAV:  16    -0.706380888463E+03   -0.61971E-03   -0.16984E-02 10136   0.850E-02    0.547E-01
DAV:  17    -0.706380546235E+03    0.34223E-03   -0.13052E-02  9120   0.680E-02    0.546E-01
DAV:  18    -0.706380565069E+03   -0.18834E-04   -0.10302E-02  8984   0.556E-02    0.362E-01
DAV:  19    -0.706380554204E+03    0.10865E-04   -0.78234E-03  8552   0.491E-02    0.431E-01
DAV:  20    -0.706380411951E+03    0.14225E-03   -0.60510E-03  8440   0.388E-02    0.233E-01
DAV:  21    -0.706380488608E+03   -0.76657E-04   -0.45450E-03  8192   0.333E-02    0.341E-01
DAV:  22    -0.706380341613E+03    0.14699E-03   -0.34496E-03  7976   0.277E-02    0.146E-01
DAV:  23    -0.706380419971E+03   -0.78358E-04   -0.25520E-03  7616   0.233E-02    0.270E-01
DAV:  24    -0.706380310894E+03    0.10908E-03   -0.19125E-03  7344   0.196E-02    0.931E-02
DAV:  25    -0.706380366485E+03   -0.55591E-04   -0.13858E-03  6792   0.169E-02    0.216E-01
DAV:  26    -0.706380298912E+03    0.67573E-04   -0.10331E-03  6416   0.140E-02    0.713E-02
DAV:  27    -0.706380328860E+03   -0.29948E-04   -0.72765E-04  6136   0.126E-02    0.172E-01
DAV:  28    -0.706380295057E+03    0.33803E-04   -0.54437E-04  5848   0.105E-02    0.702E-02
DAV:  29    -0.706380303898E+03   -0.88412E-05   -0.36846E-04  5808   0.958E-03    0.138E-01
DAV:  30    -0.706380294207E+03    0.96918E-05   -0.28144E-04  5672   0.794E-03    0.759E-02
DAV:  31    -0.706380287832E+03    0.63749E-05   -0.18050E-04  5672   0.755E-03    0.110E-01
DAV:  32    -0.706380293954E+03   -0.61227E-05   -0.14333E-04  5624   0.612E-03    0.806E-02
DAV:  33    -0.706380277918E+03    0.16037E-04   -0.85426E-05  5640   0.603E-03    0.876E-02
DAV:  34    -0.706380293350E+03   -0.15433E-04   -0.71879E-05  5624   0.487E-03    0.827E-02
DAV:  35    -0.706380272189E+03    0.21161E-04   -0.38952E-05  5624   0.489E-03    0.701E-02
DAV:  36    -0.706380292237E+03   -0.20048E-04   -0.35500E-05  5576   0.394E-03    0.826E-02
DAV:  37    -0.706380269255E+03    0.22982E-04   -0.17010E-05  5576   0.401E-03    0.572E-02
DAV:  38    -0.706380290794E+03   -0.21539E-04   -0.17217E-05  5544   0.326E-03    0.808E-02
DAV:  39    -0.706380268201E+03    0.22593E-04   -0.70568E-06  5536   0.331E-03    0.485E-02
DAV:  40    -0.706380289326E+03   -0.21124E-04   -0.81567E-06  5488   0.278E-03    0.781E-02
DAV:  41    -0.706380268401E+03    0.20925E-04   -0.27305E-06  5472   0.275E-03    0.436E-02
DAV:  42    -0.706380287945E+03   -0.19544E-04   -0.38218E-06  5400   0.241E-03    0.749E-02
DAV:  43    -0.706380269315E+03    0.18630E-04   -0.79223E-07  5384   0.233E-03    0.414E-02
DAV:  44    -0.706380286685E+03   -0.17370E-04   -0.22495E-06  5304   0.216E-03    0.717E-02
DAV:  45    -0.706380270730E+03    0.15955E-04   -0.37853E-07  5304   0.200E-03    0.414E-02
DAV:  46    -0.706380285932E+03   -0.15202E-04   -0.14644E-06  5304   0.194E-03    0.690E-02
DAV:  47    -0.706380272802E+03    0.13130E-04   -0.39310E-07  5304   0.177E-03    0.446E-02
DAV:  48    -0.706380285608E+03   -0.12806E-04   -0.96727E-07  5304   0.176E-03    0.680E-02
DAV:  49    -0.706380274989E+03    0.10620E-04   -0.43680E-07  5304   0.155E-03    0.491E-02
DAV:  50    -0.706380285806E+03   -0.10817E-04   -0.69628E-07  5304   0.159E-03    0.675E-02
DAV:  51    -0.706380277670E+03    0.81358E-05   -0.32342E-07  5304   0.131E-03
   3 F= -.70638028E+03 E0= -.70636255E+03  d E =-.327215E+00
 curvature:  -0.29 expect dE=-0.584E-01 dE for cont linesearch -0.296E-04
 trial: gam= 0.21139 g(F)=  0.203E+00 g(S)=  0.000E+00 ort =-0.102E-01 (trialstep = 0.924E+00)
 search vector abs. value=  0.243E+00
 bond charge predicted
       N       E                     dE             d eps       ncg     rms          rms(c)
DAV:   1    -0.706266209611E+03    0.11408E+00   -0.53246E+01 10220   0.997E+00    0.166E+00
DAV:   2    -0.706509302161E+03   -0.24309E+00   -0.23677E+00 13728   0.314E+00    0.349E+00
DAV:   3    -0.706496818911E+03    0.12483E-01   -0.62372E-01 11632   0.991E-01    0.334E+00
DAV:   4    -0.706495270241E+03    0.15487E-02   -0.38210E-01 10968   0.746E-01    0.304E+00
DAV:   5    -0.706510589720E+03   -0.15319E-01   -0.61537E-01 12328   0.146E+00    0.350E+00
DAV:   6    -0.706463408079E+03    0.47182E-01   -0.20517E-01 14592   0.539E-01    0.119E+00
DAV:   7    -0.706496024294E+03   -0.32616E-01   -0.12408E-01 10936   0.462E-01    0.248E+00
DAV:   8    -0.706468227844E+03    0.27796E-01   -0.93197E-02 10936   0.281E-01    0.101E+00
DAV:   9    -0.706489558722E+03   -0.21331E-01   -0.81103E-02 11216   0.269E-01    0.164E+00
DAV:  10    -0.706480830234E+03    0.87285E-02   -0.56294E-02 11208   0.222E-01    0.591E-01
DAV:  11    -0.706488153064E+03   -0.73228E-02   -0.55597E-02 11832   0.156E-01    0.136E+00
DAV:  12    -0.706484587318E+03    0.35657E-02   -0.39764E-02 11160   0.158E-01    0.406E-01
DAV:  13    -0.706486464745E+03   -0.18774E-02   -0.28493E-02 10768   0.981E-02    0.107E+00
DAV:  14    -0.706485000816E+03    0.14639E-02   -0.23281E-02 10400   0.986E-02    0.558E-01
DAV:  15    -0.706484898011E+03    0.10281E-03   -0.14958E-02  8984   0.687E-02    0.777E-01
DAV:  16    -0.706485250081E+03   -0.35207E-03   -0.12938E-02  8568   0.628E-02    0.673E-01
DAV:  17    -0.706483815472E+03    0.14346E-02   -0.77038E-03  8520   0.631E-02    0.531E-01
DAV:  18    -0.706485348632E+03   -0.15332E-02   -0.68764E-03  8512   0.508E-02    0.712E-01
DAV:  19    -0.706483322935E+03    0.20257E-02   -0.39165E-03  8512   0.532E-02    0.344E-01
DAV:  20    -0.706485345367E+03   -0.20224E-02   -0.33835E-03  8536   0.471E-02    0.697E-01
DAV:  21    -0.706483266288E+03    0.20791E-02   -0.19417E-03  8528   0.445E-02    0.228E-01
DAV:  22    -0.706485305203E+03   -0.20389E-02   -0.16140E-03  8536   0.425E-02    0.660E-01
DAV:  23    -0.706483390584E+03    0.19146E-02   -0.94172E-04  8536   0.386E-02    0.170E-01
DAV:  24    -0.706485252711E+03   -0.18621E-02   -0.79029E-04  8520   0.378E-02    0.619E-01
DAV:  25    -0.706483561579E+03    0.16911E-02   -0.46163E-04  8504   0.339E-02    0.156E-01
DAV:  26    -0.706485184702E+03   -0.16231E-02   -0.39828E-04  8504   0.334E-02    0.574E-01
DAV:  27    -0.706483746939E+03    0.14378E-02   -0.23395E-04  8464   0.294E-02    0.164E-01
DAV:  28    -0.706485109033E+03   -0.13621E-02   -0.20634E-04  8464   0.289E-02    0.524E-01
DAV:  29    -0.706483946174E+03    0.11629E-02   -0.12146E-04  8392   0.249E-02    0.177E-01
DAV:  30    -0.706485043515E+03   -0.10973E-02   -0.11300E-04  8392   0.247E-02    0.473E-01
DAV:  31    -0.706484137372E+03    0.90614E-03   -0.68376E-05  8216   0.207E-02    0.188E-01
DAV:  32    -0.706484995168E+03   -0.85780E-03   -0.66976E-05  8216   0.209E-02    0.425E-01
DAV:  33    -0.706484308086E+03    0.68708E-03   -0.42142E-05  8056   0.170E-02    0.195E-01
DAV:  34    -0.706484964907E+03   -0.65682E-03   -0.43193E-05  8032   0.177E-02    0.381E-01
DAV:  35    -0.706484452322E+03    0.51258E-03   -0.28031E-05  7824   0.141E-02    0.197E-01
DAV:  36    -0.706484949626E+03   -0.49730E-03   -0.29648E-05  7832   0.149E-02    0.342E-01
DAV:  37    -0.706484571076E+03    0.37855E-03   -0.19190E-05  7360   0.116E-02    0.195E-01
DAV:  38    -0.706484944888E+03   -0.37381E-03   -0.20597E-05  7360   0.125E-02    0.308E-01
DAV:  39    -0.706484666975E+03    0.27791E-03   -0.13014E-05  6872   0.974E-03    0.191E-01
DAV:  40    -0.706484947348E+03   -0.28037E-03   -0.14360E-05  6904   0.105E-02    0.278E-01
DAV:  41    -0.706484744488E+03    0.20286E-03   -0.88305E-06  6456   0.830E-03    0.185E-01
DAV:  42    -0.706484954125E+03   -0.20964E-03   -0.10232E-05  6488   0.884E-03    0.252E-01
DAV:  43    -0.706484807176E+03    0.14695E-03   -0.62266E-06  6256   0.726E-03    0.178E-01
DAV:  44    -0.706484962840E+03   -0.15566E-03   -0.76377E-06  6344   0.770E-03    0.229E-01
DAV:  45    -0.706484857953E+03    0.10489E-03   -0.46977E-06  6096   0.641E-03    0.171E-01
DAV:  46    -0.706484970864E+03   -0.11291E-03   -0.61463E-06  6280   0.687E-03    0.208E-01
DAV:  47    -0.706484900235E+03    0.70628E-04   -0.37384E-06  5960   0.617E-03    0.165E-01
DAV:  48    -0.706484978543E+03   -0.78307E-04   -0.55177E-06  6224   0.638E-03    0.189E-01
DAV:  49    -0.706484936633E+03    0.41910E-04   -0.29066E-06  5744   0.472E-03    0.162E-01
DAV:  50    -0.706484981247E+03   -0.44614E-04   -0.34987E-06  6064   0.536E-03    0.176E-01
DAV:  51    -0.706484957599E+03    0.23648E-04   -0.19260E-06  5512   0.372E-03    0.160E-01
DAV:  52    -0.706484980775E+03   -0.23176E-04   -0.21736E-06  5840   0.437E-03    0.165E-01
DAV:  53    -0.706484970474E+03    0.10301E-04   -0.11397E-06  5352   0.303E-03    0.157E-01
DAV:  54    -0.706484980871E+03   -0.10397E-04   -0.16116E-06  5688   0.381E-03    0.156E-01
DAV:  55    -0.706484979772E+03    0.10996E-05   -0.13427E-06  5320   0.284E-03
   4 F= -.70648498E+03 E0= -.70646725E+03  d E =-.104702E+00
 trial-energy change:   -0.104702  1 .order   -0.104807   -0.185160   -0.024454
 step:   1.0647(harm=  1.0647)  dis= 0.03507  next Energy=  -706.486945 (dE=-0.107E+00)
 bond charge predicted
       N       E                     dE             d eps       ncg     rms          rms(c)
DAV:   1    -0.706481929020E+03    0.30519E-02   -0.12340E+00 10196   0.152E+00    0.280E-01
DAV:   2    -0.706487905432E+03   -0.59764E-02   -0.61667E-02 13592   0.474E-01    0.818E-01
DAV:   3    -0.706488052301E+03   -0.14687E-03   -0.35181E-02 11872   0.164E-01    0.883E-01
DAV:   4    -0.706488123401E+03   -0.71100E-04   -0.35299E-02 10680   0.139E-01    0.869E-01
DAV:   5    -0.706488276454E+03   -0.15305E-03   -0.33611E-02 10112   0.169E-01    0.957E-01
DAV:   6    -0.706486608302E+03    0.16682E-02   -0.17196E-02  9760   0.149E-01    0.495E-01
DAV:   7    -0.706487638328E+03   -0.10300E-02   -0.74135E-03 10824   0.122E-01    0.739E-01
DAV:   8    -0.706486319977E+03    0.13184E-02   -0.38282E-03 10648   0.976E-02    0.388E-01
DAV:   9    -0.706487216062E+03   -0.89608E-03   -0.90226E-04 10432   0.864E-02    0.518E-01
DAV:  10    -0.706486563314E+03    0.65275E-03   -0.48897E-04  9416   0.611E-02    0.338E-01
DAV:  11    -0.706487006053E+03   -0.44274E-03   -0.40619E-04  9456   0.493E-02    0.354E-01
DAV:  12    -0.706486774325E+03    0.23173E-03   -0.43105E-04  8856   0.493E-02    0.287E-01
DAV:  13    -0.706486942274E+03   -0.16795E-03   -0.72773E-04  8656   0.357E-02    0.263E-01
DAV:  14    -0.706486859750E+03    0.82523E-04   -0.76864E-04  8648   0.321E-02    0.244E-01
DAV:  15    -0.706486919472E+03   -0.59722E-04   -0.86972E-04  8448   0.298E-02    0.200E-01
DAV:  16    -0.706486889606E+03    0.29867E-04   -0.80067E-04  8240   0.243E-02    0.204E-01
DAV:  17    -0.706486904669E+03   -0.15063E-04   -0.76624E-04  8152   0.221E-02    0.151E-01
DAV:  18    -0.706486899108E+03    0.55607E-05   -0.66368E-04  8032   0.201E-02    0.170E-01
DAV:  19    -0.706486894122E+03    0.49859E-05   -0.58995E-04  7888   0.168E-02    0.111E-01
DAV:  20    -0.706486900138E+03   -0.60154E-05   -0.49221E-04  7568   0.154E-02    0.142E-01
DAV:  21    -0.706486887045E+03    0.13093E-04   -0.41566E-04  7200   0.130E-02    0.788E-02
DAV:  22    -0.706486897636E+03   -0.10591E-04   -0.33544E-04  6656   0.114E-02    0.119E-01
DAV:  23    -0.706486882654E+03    0.14982E-04   -0.27395E-04  6416   0.975E-03    0.535E-02
DAV:  24    -0.706486894226E+03   -0.11572E-04   -0.21481E-04  6216   0.850E-03    0.994E-02
DAV:  25    -0.706486880247E+03    0.13979E-04   -0.17250E-04  6096   0.727E-03    0.341E-02
DAV:  26    -0.706486891044E+03   -0.10798E-04   -0.13217E-04  5904   0.634E-03    0.838E-02
DAV:  27    -0.706486879120E+03    0.11924E-04   -0.10532E-04  5760   0.546E-03    0.201E-02
DAV:  28    -0.706486888388E+03   -0.92679E-05   -0.78986E-05  5552   0.476E-03
   5 F= -.70648689E+03 E0= -.70646914E+03  d E =-.106611E+00
 curvature:  -0.65 expect dE=-0.637E-01 dE for cont linesearch -0.637E-06
 trial: gam= 0.45485 g(F)=  0.986E-01 g(S)=  0.000E+00 ort = 0.490E-03 (trialstep = 0.952E+00)
 search vector abs. value=  0.149E+00
 bond charge predicted
       N       E                     dE             d eps       ncg     rms          rms(c)
DAV:   1    -0.706397327643E+03    0.89551E-01   -0.32574E+01 10556   0.824E+00    0.117E+00
DAV:   2    -0.706551161224E+03   -0.15383E+00   -0.14873E+00 15416   0.242E+00    0.277E+00
DAV:   3    -0.706542031340E+03    0.91299E-02   -0.33161E-01 11624   0.668E-01    0.282E+00
DAV:   4    -0.706541979527E+03    0.51812E-04   -0.25383E-01 10984   0.567E-01    0.266E+00
DAV:   5    -0.706551152519E+03   -0.91730E-02   -0.39180E-01 13512   0.890E-01    0.312E+00
DAV:   6    -0.706517595789E+03    0.33557E-01   -0.17355E-01 13984   0.486E-01    0.109E+00
DAV:   7    -0.706545278479E+03   -0.27683E-01   -0.92023E-02 10600   0.314E-01    0.225E+00
DAV:   8    -0.706521510801E+03    0.23768E-01   -0.65668E-02 10944   0.244E-01    0.849E-01
DAV:   9    -0.706538856288E+03   -0.17345E-01   -0.43070E-02 10528   0.251E-01    0.138E+00
DAV:  10    -0.706531245696E+03    0.76106E-02   -0.30763E-02 11232   0.145E-01    0.545E-01
DAV:  11    -0.706537181827E+03   -0.59361E-02   -0.27565E-02 12496   0.138E-01    0.940E-01
DAV:  12    -0.706534806143E+03    0.23757E-02   -0.19714E-02 10624   0.101E-01    0.311E-01
DAV:  13    -0.706536358460E+03   -0.15523E-02   -0.14152E-02 10680   0.730E-02    0.717E-01
DAV:  14    -0.706535260055E+03    0.10984E-02   -0.11230E-02  8744   0.699E-02    0.325E-01
DAV:  15    -0.706535703612E+03   -0.44356E-03   -0.72692E-03  8448   0.439E-02    0.534E-01
DAV:  16    -0.706535416894E+03    0.28672E-03   -0.60938E-03  7976   0.386E-02    0.389E-01
DAV:  17    -0.706535226816E+03    0.19008E-03   -0.36631E-03  7904   0.345E-02    0.392E-01
DAV:  18    -0.706535466850E+03   -0.24003E-03   -0.31851E-03  7792   0.277E-02    0.415E-01
DAV:  19    -0.706534998583E+03    0.46827E-03   -0.17873E-03  7784   0.251E-02    0.291E-01
DAV:  20    -0.706535487970E+03   -0.48939E-03   -0.16053E-03  7760   0.224E-02    0.416E-01
DAV:  21    -0.706534931935E+03    0.55604E-03   -0.86563E-04  7728   0.195E-02    0.234E-01
DAV:  22    -0.706535487536E+03   -0.55560E-03   -0.78222E-04  7608   0.180E-02    0.405E-01
DAV:  23    -0.706534946796E+03    0.54074E-03   -0.41632E-04  7552   0.159E-02    0.215E-01
DAV:  24    -0.706535474447E+03   -0.52765E-03   -0.37384E-04  7448   0.145E-02    0.388E-01
DAV:  25    -0.706534993838E+03    0.48061E-03   -0.19723E-04  7304   0.129E-02    0.214E-01
DAV:  26    -0.706535457869E+03   -0.46403E-03   -0.18031E-04  7240   0.120E-02    0.370E-01
DAV:  27    -0.706535052868E+03    0.40500E-03   -0.89871E-05  6896   0.103E-02    0.220E-01
DAV:  28    -0.706535446234E+03   -0.39337E-03   -0.93327E-05  6872   0.101E-02    0.351E-01
DAV:  29    -0.706535119718E+03    0.32652E-03   -0.36502E-05  6416   0.831E-03    0.227E-01
DAV:  30    -0.706535445952E+03   -0.32623E-03   -0.56448E-05  6432   0.859E-03    0.332E-01
DAV:  31    -0.706535203897E+03    0.24206E-03   -0.12211E-05  6176   0.701E-03    0.232E-01
DAV:  32    -0.706535474428E+03   -0.27053E-03   -0.38867E-05  6296   0.842E-03    0.311E-01
DAV:  33    -0.706535318138E+03    0.15629E-03   -0.74327E-06  5880   0.627E-03    0.235E-01
DAV:  34    -0.706535525824E+03   -0.20769E-03   -0.26133E-05  6400   0.820E-03    0.292E-01
DAV:  35    -0.706535428279E+03    0.97546E-04   -0.81306E-06  5616   0.521E-03    0.237E-01
DAV:  36    -0.706535566857E+03   -0.13858E-03   -0.15782E-05  6240   0.673E-03    0.279E-01
DAV:  37    -0.706535497540E+03    0.69317E-04   -0.79153E-06  5528   0.395E-03    0.238E-01
DAV:  38    -0.706535585406E+03   -0.87867E-04   -0.81962E-06  5800   0.427E-03    0.272E-01
DAV:  39    -0.706535523608E+03    0.61799E-04   -0.54373E-06  5576   0.308E-03    0.242E-01
DAV:  40    -0.706535578501E+03   -0.54893E-04   -0.34385E-06  5464   0.235E-03    0.266E-01
DAV:  41    -0.706535535513E+03    0.42987E-04   -0.25925E-06  5288   0.187E-03    0.246E-01
DAV:  42    -0.706535570724E+03   -0.35210E-04   -0.14796E-06  5288   0.140E-03    0.264E-01
DAV:  43    -0.706535536104E+03    0.34620E-04   -0.11380E-06  5288   0.142E-03    0.248E-01
DAV:  44    -0.706535566927E+03   -0.30822E-04   -0.75456E-07  5280   0.128E-03    0.261E-01
DAV:  45    -0.706535539393E+03    0.27534E-04   -0.54937E-07  5280   0.105E-03    0.250E-01
DAV:  46    -0.706535563579E+03   -0.24186E-04   -0.37281E-07  5280   0.974E-04    0.260E-01
DAV:  47    -0.706535540330E+03    0.23249E-04   -0.45814E-07  5280   0.155E-03    0.248E-01
DAV:  48    -0.706535565747E+03   -0.25417E-04   -0.51466E-07  5280   0.104E-03    0.259E-01
DAV:  49    -0.706535543720E+03    0.22027E-04   -0.33588E-07  5256   0.895E-04    0.250E-01
DAV:  50    -0.706535562838E+03   -0.19118E-04   -0.23640E-07  5256   0.759E-04    0.258E-01
DAV:  51    -0.706535545342E+03    0.17497E-04   -0.18941E-07  5256   0.688E-04    0.251E-01
DAV:  52    -0.706535560446E+03   -0.15104E-04   -0.26614E-07  5256   0.141E-03    0.256E-01
DAV:  53    -0.706535548929E+03    0.11517E-04   -0.19435E-06  5256   0.176E-03    0.241E-01
DAV:  54    -0.706535560455E+03   -0.11526E-04   -0.73206E-07  5256   0.217E-03    0.233E-01
DAV:  55    -0.706535571724E+03   -0.11269E-04   -0.19348E-07  5256   0.104E-03    0.233E-01
DAV:  56    -0.706535578304E+03   -0.65801E-05   -0.16670E-06  5256   0.134E-03
   6 F= -.70653558E+03 E0= -.70651763E+03  d E =-.486899E-01
 trial-energy change:   -0.048690  1 .order   -0.049028   -0.094059   -0.003997
 step:   0.9955(harm=  0.9945)  dis= 0.02167  next Energy=  -706.535669 (dE=-0.488E-01)
 bond charge predicted
       N       E                     dE             d eps       ncg     rms          rms(c)
DAV:   1    -0.706535357086E+03    0.21464E-03   -0.67451E-02 10588   0.374E-01    0.213E-01
DAV:   2    -0.706536855374E+03   -0.14983E-02   -0.11902E-02 13760   0.139E-01    0.875E-01
DAV:   3    -0.706536471135E+03    0.38424E-03   -0.31399E-02 10520   0.118E-01    0.881E-01
DAV:   4    -0.706536448367E+03    0.22769E-04   -0.28131E-02 11640   0.101E-01    0.783E-01
DAV:   5    -0.706536317402E+03    0.13096E-03   -0.19345E-02 10080   0.937E-02    0.725E-01
DAV:   6    -0.706535643054E+03    0.67435E-03   -0.10802E-02  9904   0.895E-02    0.456E-01
DAV:   7    -0.706535983706E+03   -0.34065E-03   -0.46338E-03  9800   0.680E-02    0.483E-01
DAV:   8    -0.706535527089E+03    0.45662E-03   -0.23598E-03  9152   0.597E-02    0.274E-01
DAV:   9    -0.706535796863E+03   -0.26977E-03   -0.66259E-04  8872   0.445E-02    0.296E-01
DAV:  10    -0.706535595298E+03    0.20156E-03   -0.24175E-04  8584   0.359E-02    0.170E-01
DAV:  11    -0.706535745142E+03   -0.14984E-03   -0.83712E-05  8320   0.284E-02    0.196E-01
DAV:  12    -0.706535646517E+03    0.98625E-04   -0.59033E-05  8184   0.214E-02    0.123E-01
DAV:  13    -0.706535723328E+03   -0.76811E-04   -0.84096E-05  8064   0.193E-02    0.135E-01
DAV:  14    -0.706535675686E+03    0.47642E-04   -0.87634E-05  7816   0.152E-02    0.945E-02
DAV:  15    -0.706535714127E+03   -0.38441E-04   -0.98903E-05  7488   0.133E-02    0.984E-02
DAV:  16    -0.706535688054E+03    0.26073E-04   -0.91699E-05  6944   0.108E-02    0.753E-02
DAV:  17    -0.706535708863E+03   -0.20809E-04   -0.82361E-05  6640   0.909E-03    0.738E-02
DAV:  18    -0.706535693247E+03    0.15615E-04   -0.68721E-05  6280   0.769E-03    0.612E-02
DAV:  19    -0.706535705409E+03   -0.12162E-04   -0.56376E-05  6192   0.635E-03    0.564E-02
DAV:  20    -0.706535695918E+03    0.94915E-05   -0.46555E-05  6080   0.556E-03
   7 F= -.70653570E+03 E0= -.70651784E+03  d E =-.488075E-01
 curvature:  -0.75 expect dE=-0.330E-01 dE for cont linesearch -0.119E-05
 trial: gam= 0.46612 g(F)=  0.440E-01 g(S)=  0.000E+00 ort =-0.487E-03 (trialstep = 0.961E+00)
 search vector abs. value=  0.760E-01
 bond charge predicted
       N       E                     dE             d eps       ncg     rms          rms(c)
DAV:   1    -0.706430785758E+03    0.10492E+00   -0.17538E+01 10432   0.718E+00    0.946E-01
DAV:   2    -0.706558591074E+03   -0.12781E+00   -0.13383E+00 13168   0.216E+00    0.897E-01
DAV:   3    -0.706566948516E+03   -0.83574E-02   -0.66662E-02 12072   0.626E-01    0.201E+00
DAV:   4    -0.706558102763E+03    0.88458E-02   -0.70085E-02 11832   0.358E-01    0.176E+00
DAV:   5    -0.706565836383E+03   -0.77336E-02   -0.70918E-02 11880   0.775E-01    0.225E+00
DAV:   6    -0.706553475870E+03    0.12361E-01   -0.47155E-02 12168   0.346E-01    0.155E+00
DAV:   7    -0.706562127570E+03   -0.86517E-02   -0.35921E-02 11656   0.266E-01    0.169E+00
DAV:   8    -0.706555015459E+03    0.71121E-02   -0.11338E-02 13032   0.259E-01    0.102E+00
DAV:   9    -0.706561138990E+03   -0.61235E-02   -0.93985E-03 11584   0.211E-01    0.124E+00
DAV:  10    -0.706556579433E+03    0.45596E-02   -0.82590E-03 11448   0.173E-01    0.751E-01
DAV:  11    -0.706559732999E+03   -0.31536E-02   -0.73377E-03 11368   0.169E-01    0.720E-01
DAV:  12    -0.706558616776E+03    0.11162E-02   -0.56822E-03 10376   0.108E-01    0.608E-01
DAV:  13    -0.706559023597E+03   -0.40682E-03   -0.49876E-03 10648   0.844E-02    0.378E-01
DAV:  14    -0.706559234796E+03   -0.21120E-03   -0.35401E-03 10312   0.807E-02    0.472E-01
DAV:  15    -0.706558839774E+03    0.39502E-03   -0.28457E-03  9008   0.490E-02    0.181E-01
DAV:  16    -0.706559259056E+03   -0.41928E-03   -0.20562E-03  8800   0.426E-02    0.375E-01
DAV:  17    -0.706558821057E+03    0.43800E-03   -0.15764E-03  8592   0.340E-02    0.723E-02
DAV:  18    -0.706559170209E+03   -0.34915E-03   -0.11001E-03  8256   0.250E-02    0.308E-01
DAV:  19    -0.706558838025E+03    0.33218E-03   -0.83313E-04  8016   0.224E-02    0.731E-02
DAV:  20    -0.706559077402E+03   -0.23938E-03   -0.55551E-04  7560   0.155E-02    0.259E-01
DAV:  21    -0.706558861886E+03    0.21552E-03   -0.42558E-04  7016   0.134E-02    0.110E-01
DAV:  22    -0.706559006633E+03   -0.14475E-03   -0.26579E-04  6376   0.978E-03    0.224E-01
DAV:  23    -0.706558881189E+03    0.12544E-03   -0.21070E-04  6208   0.788E-03    0.136E-01
DAV:  24    -0.706558960868E+03   -0.79679E-04   -0.12134E-04  5696   0.652E-03    0.200E-01
DAV:  25    -0.706558894116E+03    0.66753E-04   -0.10281E-04  5576   0.483E-03    0.149E-01
DAV:  26    -0.706558934775E+03   -0.40659E-04   -0.53341E-05  5488   0.455E-03    0.183E-01
DAV:  27    -0.706558901986E+03    0.32790E-04   -0.49433E-05  5480   0.303E-03    0.155E-01
DAV:  28    -0.706558921695E+03   -0.19709E-04   -0.23010E-05  5480   0.299E-03    0.172E-01
DAV:  29    -0.706558907288E+03    0.14407E-04   -0.21559E-05  5416   0.207E-03    0.157E-01
DAV:  30    -0.706558917609E+03   -0.10321E-04   -0.11580E-05  5352   0.188E-03    0.166E-01
DAV:  31    -0.706558911236E+03    0.63725E-05   -0.94000E-06  5352   0.150E-03
   8 F= -.70655891E+03 E0= -.70654090E+03  d E =-.232153E-01
 trial-energy change:   -0.023215  1 .order   -0.023499   -0.042027   -0.004970
 step:   1.0969(harm=  1.0897)  dis= 0.01260  next Energy=  -706.559262 (dE=-0.236E-01)
 bond charge predicted
       N       E                     dE             d eps       ncg     rms          rms(c)
DAV:   1    -0.706556690578E+03    0.22270E-02   -0.35160E-01 10452   0.102E+00    0.198E-01
DAV:   2    -0.706559859454E+03   -0.31689E-02   -0.27972E-02 13056   0.309E-01    0.611E-01
DAV:   3    -0.706559723619E+03    0.13584E-03   -0.80411E-03 11024   0.122E-01    0.722E-01
DAV:   4    -0.706559509550E+03    0.21407E-03   -0.75921E-03 10704   0.995E-02    0.670E-01
DAV:   5    -0.706559778854E+03   -0.26930E-03   -0.52247E-03  9952   0.106E-01    0.719E-01
DAV:   6    -0.706558815402E+03    0.96345E-03   -0.28920E-03  9576   0.964E-02    0.422E-01
DAV:   7    -0.706559818108E+03   -0.10027E-02   -0.12040E-03 10360   0.782E-02    0.584E-01
DAV:   8    -0.706558718576E+03    0.10995E-02   -0.66548E-04 10120   0.718E-02    0.258E-01
DAV:   9    -0.706559607573E+03   -0.88900E-03   -0.30648E-04 10040   0.624E-02    0.391E-01
DAV:  10    -0.706559006040E+03    0.60153E-03   -0.19734E-04  8736   0.486E-02    0.171E-01
DAV:  11    -0.706559467972E+03   -0.46193E-03   -0.26202E-04  8528   0.311E-02    0.255E-01
DAV:  12    -0.706559195779E+03    0.27219E-03   -0.23594E-04  8456   0.271E-02    0.120E-01
DAV:  13    -0.706559406056E+03   -0.21028E-03   -0.25053E-04  8288   0.193E-02    0.173E-01
DAV:  14    -0.706559277973E+03    0.12808E-03   -0.20953E-04  7936   0.161E-02    0.916E-02
DAV:  15    -0.706559378458E+03   -0.10049E-03   -0.17433E-04  7576   0.131E-02    0.126E-01
DAV:  16    -0.706559310122E+03    0.68336E-04   -0.13905E-04  6888   0.108E-02    0.758E-02
DAV:  17    -0.706559363819E+03   -0.53697E-04   -0.10597E-04  6472   0.864E-03    0.947E-02
DAV:  18    -0.706559326347E+03    0.37473E-04   -0.83254E-05  6216   0.729E-03    0.670E-02
DAV:  19    -0.706559356071E+03   -0.29724E-04   -0.60168E-05  6112   0.594E-03    0.746E-02
DAV:  20    -0.706559335558E+03    0.20513E-04   -0.48041E-05  5792   0.475E-03    0.625E-02
DAV:  21    -0.706559352041E+03   -0.16483E-04   -0.33233E-05  5736   0.411E-03    0.621E-02
DAV:  22    -0.706559341099E+03    0.10941E-04   -0.26896E-05  5432   0.330E-03    0.597E-02
DAV:  23    -0.706559350243E+03   -0.91437E-05   -0.17875E-05  5360   0.287E-03
   9 F= -.70655935E+03 E0= -.70654142E+03  d E =-.236543E-01
 curvature:  -0.94 expect dE=-0.236E-01 dE for cont linesearch -0.175E-05
 trial: gam= 0.57397 g(F)=  0.250E-01 g(S)=  0.000E+00 ort =-0.376E-03 (trialstep = 0.988E+00)
 search vector abs. value=  0.496E-01
 bond charge predicted
       N       E                     dE             d eps       ncg     rms          rms(c)
DAV:   1    -0.706450819197E+03    0.10852E+00   -0.12086E+01 10412   0.670E+00    0.965E-01
DAV:   2    -0.706575749592E+03   -0.12493E+00   -0.12920E+00 13320   0.188E+00    0.129E+00
DAV:   3    -0.706584030988E+03   -0.82814E-02   -0.14790E-01 12008   0.533E-01    0.233E+00
DAV:   4    -0.706572266238E+03    0.11765E-01   -0.12542E-01 11032   0.366E-01    0.196E+00
DAV:   5    -0.706580385057E+03   -0.81188E-02   -0.12088E-01 12376   0.499E-01    0.221E+00
DAV:   6    -0.706569071907E+03    0.11313E-01   -0.89541E-02 12056   0.366E-01    0.148E+00
DAV:   7    -0.706577959894E+03   -0.88880E-02   -0.46186E-02 11624   0.249E-01    0.170E+00
DAV:   8    -0.706569665569E+03    0.82943E-02   -0.32567E-02 12552   0.241E-01    0.887E-01
DAV:   9    -0.706576724314E+03   -0.70587E-02   -0.16147E-02 11032   0.212E-01    0.118E+00
DAV:  10    -0.706571694232E+03    0.50301E-02   -0.12734E-02 11152   0.175E-01    0.529E-01
DAV:  11    -0.706575534561E+03   -0.38403E-02   -0.70583E-03 10744   0.110E-01    0.752E-01
DAV:  12    -0.706573309337E+03    0.22252E-02   -0.57356E-03 10632   0.950E-02    0.356E-01
DAV:  13    -0.706574927194E+03   -0.16179E-02   -0.42200E-03 10032   0.621E-02    0.484E-01
DAV:  14    -0.706574009409E+03    0.91779E-03   -0.33810E-03  9472   0.506E-02    0.255E-01
DAV:  15    -0.706574659407E+03   -0.65000E-03   -0.23800E-03  8768   0.406E-02    0.321E-01
DAV:  16    -0.706574264123E+03    0.39528E-03   -0.18750E-03  8528   0.311E-02    0.203E-01
DAV:  17    -0.706574531241E+03   -0.26712E-03   -0.12651E-03  8176   0.251E-02    0.213E-01
DAV:  18    -0.706574378003E+03    0.15324E-03   -0.98385E-04  7912   0.203E-02    0.175E-01
DAV:  19    -0.706574476208E+03   -0.98205E-04   -0.63696E-04  7352   0.154E-02    0.143E-01
DAV:  20    -0.706574431647E+03    0.44561E-04   -0.49591E-04  6464   0.129E-02    0.157E-01
DAV:  21    -0.706574458574E+03   -0.26927E-04   -0.30788E-04  6280   0.960E-03    0.102E-01
DAV:  22    -0.706574459976E+03   -0.14019E-05   -0.24628E-04  5616   0.804E-03    0.145E-01
DAV:  23    -0.706574457980E+03    0.19960E-05   -0.14696E-04  5608   0.679E-03    0.802E-02
DAV:  24    -0.706574477588E+03   -0.19608E-04   -0.12171E-04  5480   0.554E-03    0.134E-01
DAV:  25    -0.706574465627E+03    0.11961E-04   -0.68912E-05  5480   0.518E-03    0.744E-02
DAV:  26    -0.706574489453E+03   -0.23827E-04   -0.59515E-05  5480   0.456E-03    0.126E-01
DAV:  27    -0.706574477203E+03    0.12251E-04   -0.31505E-05  5520   0.448E-03    0.810E-02
DAV:  28    -0.706574494883E+03   -0.17680E-04   -0.18297E-05  5472   0.445E-03    0.117E-01
DAV:  29    -0.706574478743E+03    0.16140E-04   -0.10936E-05  5368   0.266E-03    0.876E-02
DAV:  30    -0.706574492931E+03   -0.14188E-04   -0.75773E-06  5336   0.258E-03    0.112E-01
DAV:  31    -0.706574482304E+03    0.10627E-04   -0.43907E-06  5328   0.237E-03    0.928E-02
DAV:  32    -0.706574491637E+03   -0.93332E-05   -0.32527E-06  5416   0.368E-03
  10 F= -.70657449E+03 E0= -.70655657E+03  d E =-.151414E-01
 trial-energy change:   -0.015141  1 .order   -0.015149   -0.024520   -0.005777
 step:   1.2926(harm=  1.2926)  dis= 0.01249  next Energy=  -706.575389 (dE=-0.160E-01)
 bond charge predicted
       N       E                     dE             d eps       ncg     rms          rms(c)
DAV:   1    -0.706563679363E+03    0.10803E-01   -0.11480E+00 10424   0.207E+00    0.297E-01
DAV:   2    -0.706575609377E+03   -0.11930E-01   -0.12548E-01 13328   0.581E-01    0.472E-01
DAV:   3    -0.706576635872E+03   -0.10265E-02   -0.25006E-02 12048   0.165E-01    0.824E-01
DAV:   4    -0.706576107356E+03    0.52852E-03   -0.28811E-02 11120   0.114E-01    0.680E-01
DAV:   5    -0.706576724504E+03   -0.61715E-03   -0.29355E-02  9992   0.168E-01    0.861E-01
DAV:   6    -0.706575394599E+03    0.13299E-02   -0.18972E-02 10728   0.105E-01    0.451E-01
DAV:   7    -0.706576033148E+03   -0.63855E-03   -0.10075E-02 10504   0.904E-02    0.644E-01
DAV:   8    -0.706575075644E+03    0.95750E-03   -0.52291E-03 10624   0.933E-02    0.277E-01
DAV:   9    -0.706575636114E+03   -0.56047E-03   -0.14358E-03 10624   0.767E-02    0.416E-01
DAV:  10    -0.706575176337E+03    0.45978E-03   -0.68985E-04  8752   0.542E-02    0.220E-01
DAV:  11    -0.706575480640E+03   -0.30430E-03   -0.15101E-04  8488   0.365E-02    0.264E-01
DAV:  12    -0.706575310164E+03    0.17048E-03   -0.10690E-04  8536   0.352E-02    0.197E-01
DAV:  13    -0.706575426797E+03   -0.11663E-03   -0.20873E-04  8392   0.248E-02    0.175E-01
DAV:  14    -0.706575377677E+03    0.49120E-04   -0.22102E-04  8128   0.225E-02    0.174E-01
DAV:  15    -0.706575407944E+03   -0.30267E-04   -0.26809E-04  8048   0.184E-02    0.121E-01
DAV:  16    -0.706575402395E+03    0.55489E-05   -0.24190E-04  7776   0.155E-02    0.153E-01
DAV:  17    -0.706575398945E+03    0.34502E-05   -0.23169E-04  7600   0.137E-02    0.839E-02
DAV:  18    -0.706575410053E+03   -0.11108E-04   -0.18820E-04  6952   0.115E-02    0.133E-01
DAV:  19    -0.706575394261E+03    0.15792E-04   -0.16752E-04  6752   0.989E-03    0.575E-02
DAV:  20    -0.706575411305E+03   -0.17044E-04   -0.12872E-04  6376   0.873E-03    0.116E-01
DAV:  21    -0.706575392312E+03    0.18993E-04   -0.10834E-04  6240   0.722E-03    0.419E-02
DAV:  22    -0.706575409895E+03   -0.17582E-04   -0.81021E-05  5992   0.637E-03    0.103E-01
DAV:  23    -0.706575391745E+03    0.18149E-04   -0.66875E-05  5968   0.531E-03    0.360E-02
DAV:  24    -0.706575407484E+03   -0.15739E-04   -0.47918E-05  5672   0.471E-03    0.919E-02
DAV:  25    -0.706575391759E+03    0.15725E-04   -0.39415E-05  5664   0.395E-03    0.368E-02
DAV:  26    -0.706575404893E+03   -0.13134E-04   -0.26980E-05  5480   0.351E-03    0.831E-02
DAV:  27    -0.706575391900E+03    0.12993E-04   -0.22520E-05  5408   0.293E-03    0.401E-02
DAV:  28    -0.706575402395E+03   -0.10495E-04   -0.14442E-05  5256   0.264E-03    0.762E-02
DAV:  29    -0.706575391855E+03    0.10540E-04   -0.13100E-05  5256   0.220E-03    0.431E-02
DAV:  30    -0.706575399977E+03   -0.81218E-05   -0.75227E-06  5256   0.197E-03
  11 F= -.70657540E+03 E0= -.70655750E+03  d E =-.160497E-01
 curvature:  -1.29 expect dE=-0.228E-01 dE for cont linesearch -0.107E-06
 trial: gam= 0.68448 g(F)=  0.177E-01 g(S)=  0.000E+00 ort = 0.640E-04 (trialstep = 0.105E+01)
 search vector abs. value=  0.410E-01
 bond charge predicted
       N       E                     dE             d eps       ncg     rms          rms(c)
DAV:   1    -0.706490783731E+03    0.84608E-01   -0.11410E+01 10420   0.611E+00    0.851E-01
DAV:   2    -0.706587125632E+03   -0.96342E-01   -0.99248E-01 13744   0.172E+00    0.134E+00
DAV:   3    -0.706592522601E+03   -0.53970E-02   -0.14629E-01 12208   0.478E-01    0.212E+00
DAV:   4    -0.706585486176E+03    0.70364E-02   -0.13456E-01 10864   0.326E-01    0.184E+00
DAV:   5    -0.706591113778E+03   -0.56276E-02   -0.13979E-01 11552   0.514E-01    0.214E+00
DAV:   6    -0.706579058202E+03    0.12056E-01   -0.84448E-02 11608   0.314E-01    0.115E+00
DAV:   7    -0.706589259834E+03   -0.10202E-01   -0.40898E-02 11832   0.245E-01    0.167E+00
DAV:   8    -0.706579029868E+03    0.10230E-01   -0.27764E-02 10736   0.230E-01    0.730E-01
DAV:   9    -0.706587011476E+03   -0.79816E-02   -0.91697E-03 10768   0.210E-01    0.109E+00
DAV:  10    -0.706582101107E+03    0.49104E-02   -0.72697E-03 10520   0.142E-01    0.530E-01
DAV:  11    -0.706585763498E+03   -0.36624E-02   -0.67785E-03 10776   0.102E-01    0.678E-01
DAV:  12    -0.706583997020E+03    0.17665E-02   -0.58753E-03 10768   0.917E-02    0.410E-01
DAV:  13    -0.706585296976E+03   -0.13000E-02   -0.51703E-03 10448   0.617E-02    0.448E-01
DAV:  14    -0.706584605421E+03    0.69156E-03   -0.43051E-03  9096   0.536E-02    0.330E-01
DAV:  15    -0.706585076560E+03   -0.47114E-03   -0.32739E-03  8592   0.395E-02    0.303E-01
DAV:  16    -0.706584805874E+03    0.27069E-03   -0.27277E-03  8360   0.316E-02    0.287E-01
DAV:  17    -0.706584957566E+03   -0.15169E-03   -0.19395E-03  8088   0.272E-02    0.202E-01
DAV:  18    -0.706584885446E+03    0.72120E-04   -0.15676E-03  7808   0.210E-02    0.255E-01
DAV:  19    -0.706584905229E+03   -0.19783E-04   -0.10635E-03  7336   0.180E-02    0.139E-01
DAV:  20    -0.706584918460E+03   -0.13231E-04   -0.84508E-04  6720   0.148E-02    0.231E-01
DAV:  21    -0.706584890008E+03    0.28452E-04   -0.55193E-04  6504   0.117E-02    0.109E-01
DAV:  22    -0.706584933819E+03   -0.43811E-04   -0.43956E-04  5752   0.104E-02    0.213E-01
DAV:  23    -0.706584892245E+03    0.41574E-04   -0.28111E-04  5704   0.837E-03    0.105E-01
DAV:  24    -0.706584942399E+03   -0.50154E-04   -0.22591E-04  5488   0.694E-03    0.199E-01
DAV:  25    -0.706584901726E+03    0.40674E-04   -0.14327E-04  5464   0.647E-03    0.112E-01
DAV:  26    -0.706584947553E+03   -0.45828E-04   -0.11468E-04  5456   0.547E-03    0.188E-01
DAV:  27    -0.706584913623E+03    0.33930E-04   -0.73426E-05  5456   0.510E-03    0.121E-01
DAV:  28    -0.706584950693E+03   -0.37070E-04   -0.57688E-05  5464   0.470E-03    0.178E-01
DAV:  29    -0.706584925363E+03    0.25330E-04   -0.38290E-05  5456   0.421E-03    0.130E-01
DAV:  30    -0.706584951366E+03   -0.26003E-04   -0.28754E-05  5560   0.429E-03    0.170E-01
DAV:  31    -0.706584934389E+03    0.16977E-04   -0.21271E-05  5432   0.359E-03    0.139E-01
DAV:  32    -0.706584947352E+03   -0.12963E-04   -0.14221E-05  5568   0.415E-03    0.165E-01
DAV:  33    -0.706584937220E+03    0.10131E-04   -0.14177E-05  5344   0.324E-03    0.148E-01
DAV:  34    -0.706584934712E+03    0.25085E-05   -0.72079E-06  5872   0.450E-03
  12 F= -.70658493E+03 E0= -.70656702E+03  d E =-.953474E-02
 trial-energy change:   -0.009535  1 .order   -0.009566   -0.018592   -0.000539
 step:   1.0803(harm=  1.0803)  dis= 0.00889  next Energy=  -706.584974 (dE=-0.957E-02)
 bond charge predicted
       N       E                     dE             d eps       ncg     rms          rms(c)
DAV:   1    -0.706584847886E+03    0.89335E-04   -0.10159E-02 10460   0.182E-01    0.147E-01
DAV:   2    -0.706585547991E+03   -0.70011E-03   -0.91028E-03 13296   0.790E-02    0.623E-01
DAV:   3    -0.706585564004E+03   -0.16013E-04   -0.22119E-02 11136   0.700E-02    0.592E-01
DAV:   4    -0.706585470917E+03    0.93087E-04   -0.18312E-02  8952   0.598E-02    0.489E-01
DAV:   5    -0.706585591960E+03   -0.12104E-03   -0.17420E-02  8144   0.559E-02    0.573E-01
DAV:   6    -0.706585151905E+03    0.44006E-03   -0.11287E-02  8136   0.500E-02    0.293E-01
DAV:   7    -0.706585247215E+03   -0.95310E-04   -0.69969E-03  8080   0.432E-02    0.390E-01
DAV:   8    -0.706584978152E+03    0.26906E-03   -0.39215E-03  7976   0.335E-02    0.143E-01
DAV:   9    -0.706585069130E+03   -0.90978E-04   -0.22412E-03  7840   0.268E-02    0.266E-01
DAV:  10    -0.706584931496E+03    0.13763E-03   -0.11902E-03  7544   0.219E-02    0.658E-02
DAV:  11    -0.706584990351E+03   -0.58856E-04   -0.57873E-04  7192   0.159E-02    0.180E-01
DAV:  12    -0.706584928228E+03    0.62124E-04   -0.32482E-04  6592   0.125E-02    0.530E-02
DAV:  13    -0.706584959481E+03   -0.31253E-04   -0.13232E-04  6312   0.992E-03    0.124E-01
DAV:  14    -0.706584933672E+03    0.25809E-04   -0.76920E-05  6120   0.743E-03    0.557E-02
DAV:  15    -0.706584947751E+03   -0.14079E-04   -0.24258E-05  6040   0.622E-03    0.880E-02
DAV:  16    -0.706584938317E+03    0.94338E-05   -0.14086E-05  5864   0.466E-03
  13 F= -.70658494E+03 E0= -.70656695E+03  d E =-.953834E-02
 curvature:  -1.25 expect dE=-0.912E-02 dE for cont linesearch -0.130E-06
 trial: gam= 0.41391 g(F)=  0.730E-02 g(S)=  0.000E+00 ort = 0.654E-04 (trialstep = 0.106E+01)
 search vector abs. value=  0.144E-01
 bond charge predicted
       N       E                     dE             d eps       ncg     rms          rms(c)
DAV:   1    -0.706568947233E+03    0.16001E-01   -0.39243E+00 10536   0.314E+00    0.437E-01
DAV:   2    -0.706591131565E+03   -0.22184E-01   -0.21235E-01 14184   0.895E-01    0.121E+00
DAV:   3    -0.706589822223E+03    0.13093E-02   -0.42321E-02 11848   0.285E-01    0.133E+00
DAV:   4    -0.706590165353E+03   -0.34313E-03   -0.38077E-02 11016   0.212E-01    0.135E+00
DAV:   5    -0.706590988032E+03   -0.82268E-03   -0.44727E-02 11912   0.293E-01    0.153E+00
DAV:   6    -0.706585775403E+03    0.52126E-02   -0.29043E-02 13064   0.210E-01    0.811E-01
DAV:   7    -0.706591218410E+03   -0.54430E-02   -0.13564E-02 11696   0.175E-01    0.122E+00
DAV:   8    -0.706585878929E+03    0.53395E-02   -0.10278E-02 10504   0.129E-01    0.555E-01
DAV:   9    -0.706590037010E+03   -0.41581E-02   -0.23694E-03 11648   0.132E-01    0.802E-01
DAV:  10    -0.706587515742E+03    0.25213E-02   -0.18627E-03 10896   0.920E-02    0.385E-01
DAV:  11    -0.706589411827E+03   -0.18961E-02   -0.24044E-03  9984   0.718E-02    0.519E-01
DAV:  12    -0.706588372688E+03    0.10391E-02   -0.19654E-03  9424   0.625E-02    0.267E-01
DAV:  13    -0.706589152799E+03   -0.78011E-03   -0.18317E-03  8912   0.446E-02    0.348E-01
DAV:  14    -0.706588692416E+03    0.46038E-03   -0.14676E-03  8656   0.373E-02    0.190E-01
DAV:  15    -0.706589037113E+03   -0.34470E-03   -0.11383E-03  8424   0.283E-02    0.245E-01
DAV:  16    -0.706588803459E+03    0.23365E-03   -0.90992E-04  8224   0.243E-02    0.146E-01
DAV:  17    -0.706588973962E+03   -0.17050E-03   -0.65956E-04  7976   0.185E-02    0.176E-01
DAV:  18    -0.706588854153E+03    0.11981E-03   -0.52052E-04  7488   0.162E-02    0.123E-01
DAV:  19    -0.706588940004E+03   -0.85851E-04   -0.35812E-04  7016   0.121E-02    0.130E-01
DAV:  20    -0.706588880757E+03    0.59247E-04   -0.28339E-04  6448   0.103E-02    0.111E-01
DAV:  21    -0.706588923205E+03   -0.42448E-04   -0.18519E-04  6280   0.826E-03    0.101E-01
DAV:  22    -0.706588895778E+03    0.27427E-04   -0.14949E-04  5808   0.664E-03    0.104E-01
DAV:  23    -0.706588915885E+03   -0.20107E-04   -0.93491E-05  5728   0.564E-03    0.851E-02
DAV:  24    -0.706588905388E+03    0.10498E-04   -0.78513E-05  5432   0.455E-03    0.100E-01
DAV:  25    -0.706588913693E+03   -0.83055E-05   -0.46920E-05  5432   0.398E-03
  14 F= -.70658891E+03 E0= -.70657086E+03  d E =-.397538E-02
 trial-energy change:   -0.003975  1 .order   -0.004044   -0.007729   -0.000359
 step:   1.1098(harm=  1.1066)  dis= 0.00701  next Energy=  -706.588923 (dE=-0.398E-02)
 bond charge predicted
       N       E                     dE             d eps       ncg     rms          rms(c)
DAV:   1    -0.706588866397E+03    0.38991E-04   -0.10559E-02 10584   0.163E-01    0.108E-01
DAV:   2    -0.706589310051E+03   -0.44365E-03   -0.40108E-03 13600   0.660E-02    0.498E-01
DAV:   3    -0.706589151503E+03    0.15855E-03   -0.10108E-02 10552   0.603E-02    0.452E-01
DAV:   4    -0.706589225176E+03   -0.73673E-04   -0.88506E-03  8824   0.524E-02    0.434E-01
DAV:   5    -0.706589147945E+03    0.77231E-04   -0.68371E-03  8688   0.485E-02    0.398E-01
DAV:   6    -0.706588960588E+03    0.18736E-03   -0.39895E-03  8672   0.464E-02    0.263E-01
DAV:   7    -0.706589049017E+03   -0.88429E-04   -0.21757E-03  8624   0.373E-02    0.285E-01
DAV:   8    -0.706588885043E+03    0.16397E-03   -0.11302E-03  8464   0.317E-02    0.152E-01
DAV:   9    -0.706588988804E+03   -0.10376E-03   -0.50272E-04  8264   0.250E-02    0.196E-01
DAV:  10    -0.706588887738E+03    0.10107E-03   -0.23863E-04  8024   0.207E-02    0.941E-02
DAV:  11    -0.706588961192E+03   -0.73454E-04   -0.91368E-05  7864   0.174E-02    0.137E-01
DAV:  12    -0.706588904082E+03    0.57110E-04   -0.43902E-05  7496   0.132E-02    0.673E-02
DAV:  13    -0.706588947674E+03   -0.43591E-04   -0.16571E-05  7212   0.114E-02    0.964E-02
DAV:  14    -0.706588916884E+03    0.30789E-04   -0.87587E-06  6640   0.914E-03    0.521E-02
DAV:  15    -0.706588941214E+03   -0.24330E-04   -0.75837E-06  6392   0.753E-03    0.700E-02
DAV:  16    -0.706588924364E+03    0.16850E-04   -0.65098E-06  6144   0.630E-03    0.430E-02
DAV:  17    -0.706588937958E+03   -0.13594E-04   -0.80266E-06  6064   0.518E-03    0.524E-02
DAV:  18    -0.706588928454E+03    0.95043E-05   -0.74115E-06  5896   0.442E-03
  15 F= -.70658893E+03 E0= -.70657094E+03  d E =-.399014E-02
 curvature:  -1.08 expect dE=-0.333E-02 dE for cont linesearch -0.579E-06
 trial: gam= 0.43613 g(F)=  0.308E-02 g(S)=  0.000E+00 ort =-0.877E-04 (trialstep = 0.107E+01)
 search vector abs. value=  0.574E-02
 bond charge predicted
       N       E                     dE             d eps       ncg     rms          rms(c)
DAV:   1    -0.706584401282E+03    0.45367E-02   -0.15897E+00 10560   0.185E+00    0.209E-01
DAV:   2    -0.706590701581E+03   -0.63003E-02   -0.66039E-02 14304   0.546E-01    0.167E-01
DAV:   3    -0.706591099037E+03   -0.39746E-03   -0.75319E-03 12224   0.160E-01    0.429E-01
DAV:   4    -0.706591020713E+03    0.78325E-04   -0.93548E-03 14456   0.752E-02    0.352E-01
DAV:   5    -0.706591189468E+03   -0.16876E-03   -0.11297E-02 12736   0.222E-01    0.509E-01
DAV:   6    -0.706590918521E+03    0.27095E-03   -0.10679E-02 10584   0.776E-02    0.327E-01
DAV:   7    -0.706591011222E+03   -0.92701E-04   -0.78732E-03 10856   0.533E-02    0.393E-01
DAV:   8    -0.706590787973E+03    0.22325E-03   -0.49241E-03  8344   0.543E-02    0.205E-01
DAV:   9    -0.706590820374E+03   -0.32401E-04   -0.28007E-03  8056   0.501E-02    0.254E-01
DAV:  10    -0.706590719730E+03    0.10064E-03   -0.15370E-03  7984   0.292E-02    0.123E-01
DAV:  11    -0.706590728444E+03   -0.87141E-05   -0.67160E-04  7800   0.294E-02    0.145E-01
DAV:  12    -0.706590706526E+03    0.21918E-04   -0.36920E-04  7240   0.212E-02    0.894E-02
DAV:  13    -0.706590699745E+03    0.67814E-05   -0.12773E-04  7008   0.141E-02    0.794E-02
DAV:  14    -0.706590705000E+03   -0.52551E-05   -0.58553E-05  6480   0.150E-02
  16 F= -.70659070E+03 E0= -.70657264E+03  d E =-.177655E-02
 trial-energy change:   -0.001777  1 .order   -0.001738   -0.003239   -0.000236
 step:   1.1498(harm=  1.1498)  dis= 0.00457  next Energy=  -706.590675 (dE=-0.175E-02)
 bond charge predicted
       N       E                     dE             d eps       ncg     rms          rms(c)
DAV:   1    -0.706590667743E+03    0.32002E-04   -0.98181E-03 10616   0.146E-01    0.528E-02
DAV:   2    -0.706590843174E+03   -0.17543E-03   -0.76361E-04 12816   0.512E-02    0.290E-01
DAV:   3    -0.706590622043E+03    0.22113E-03   -0.80684E-04 10408   0.354E-02    0.209E-01
DAV:   4    -0.706590812768E+03   -0.19072E-03   -0.69299E-04  8560   0.326E-02    0.270E-01
DAV:   5    -0.706590642754E+03    0.17001E-03   -0.49034E-04  8456   0.287E-02    0.175E-01
DAV:   6    -0.706590749302E+03   -0.10655E-03   -0.22345E-04  8448   0.268E-02    0.185E-01
DAV:   7    -0.706590673739E+03    0.75563E-04   -0.10883E-04  8328   0.233E-02    0.113E-01
DAV:   8    -0.706590725761E+03   -0.52022E-04   -0.44058E-05  8024   0.212E-02    0.116E-01
DAV:   9    -0.706590694380E+03    0.31380E-04   -0.20534E-05  7632   0.139E-02    0.689E-02
DAV:  10    -0.706590718905E+03   -0.24525E-04   -0.14351E-05  7128   0.115E-02    0.757E-02
DAV:  11    -0.706590703400E+03    0.15505E-04   -0.11392E-05  6464   0.867E-03    0.428E-02
DAV:  12    -0.706590716327E+03   -0.12927E-04   -0.10359E-05  6240   0.653E-03    0.530E-02
DAV:  13    -0.706590707053E+03    0.92743E-05   -0.97811E-06  6104   0.538E-03
  17 F= -.70659071E+03 E0= -.70657271E+03  d E =-.177860E-02
 curvature:  -1.09 expect dE=-0.155E-02 dE for cont linesearch -0.149E-06
 trial: gam= 0.43342 g(F)=  0.143E-02 g(S)=  0.000E+00 ort = 0.280E-04 (trialstep = 0.108E+01)
 search vector abs. value=  0.253E-02
 bond charge predicted
       N       E                     dE             d eps       ncg     rms          rms(c)
DAV:   1    -0.706588021130E+03    0.26952E-02   -0.68440E-01 10748   0.134E+00    0.183E-01
DAV:   2    -0.706591975896E+03   -0.39548E-02   -0.37441E-02 15192   0.400E-01    0.590E-01
DAV:   3    -0.706591542792E+03    0.43310E-03   -0.55724E-03 11664   0.120E-01    0.618E-01
DAV:   4    -0.706591745869E+03   -0.20308E-03   -0.50149E-03 10456   0.974E-02    0.634E-01
DAV:   5    -0.706591885493E+03   -0.13962E-03   -0.44212E-03  8888   0.127E-01    0.740E-01
DAV:   6    -0.706590775838E+03    0.11097E-02   -0.14162E-03  9520   0.972E-02    0.413E-01
DAV:   7    -0.706591974210E+03   -0.11984E-02   -0.74044E-04  9688   0.812E-02    0.616E-01
DAV:   8    -0.706590722845E+03    0.12514E-02   -0.49399E-04 10368   0.714E-02    0.301E-01
DAV:   9    -0.706591712765E+03   -0.98992E-03   -0.41726E-04  9528   0.642E-02    0.420E-01
DAV:  10    -0.706591073776E+03    0.63899E-03   -0.33508E-04  8904   0.502E-02    0.211E-01
DAV:  11    -0.706591560027E+03   -0.48625E-03   -0.40065E-04  8728   0.398E-02    0.277E-01
DAV:  12    -0.706591278042E+03    0.28199E-03   -0.33284E-04  8496   0.342E-02    0.150E-01
DAV:  13    -0.706591489760E+03   -0.21172E-03   -0.34775E-04  8304   0.251E-02    0.184E-01
DAV:  14    -0.706591368368E+03    0.12139E-03   -0.28269E-04  8128   0.216E-02    0.107E-01
DAV:  15    -0.706591459359E+03   -0.90991E-04   -0.24988E-04  7880   0.162E-02    0.125E-01
DAV:  16    -0.706591402608E+03    0.56750E-04   -0.19902E-04  7384   0.134E-02    0.783E-02
DAV:  17    -0.706591444239E+03   -0.41630E-04   -0.15973E-04  6888   0.105E-02    0.859E-02
DAV:  18    -0.706591417031E+03    0.27207E-04   -0.12447E-04  6328   0.854E-03    0.611E-02
DAV:  19    -0.706591436295E+03   -0.19264E-04   -0.94068E-05  6176   0.671E-03    0.594E-02
DAV:  20    -0.706591423707E+03    0.12589E-04   -0.72579E-05  5864   0.562E-03    0.509E-02
DAV:  21    -0.706591432248E+03   -0.85411E-05   -0.52545E-05  5696   0.441E-03
  18 F= -.70659143E+03 E0= -.70657347E+03  d E =-.725195E-03
 trial-energy change:   -0.000725  1 .order   -0.000737   -0.001556    0.000083
 step:   1.0279(harm=  1.0279)  dis= 0.00239  next Energy=  -706.591446 (dE=-0.739E-03)
 bond charge predicted
       N       E                     dE             d eps       ncg     rms          rms(c)
DAV:   1    -0.706591419610E+03    0.40964E-05   -0.17949E-03 10708   0.680E-02    0.419E-02
DAV:   2    -0.706591505233E+03   -0.85623E-04   -0.10134E-03 10192   0.269E-02    0.217E-01
DAV:   3    -0.706591478920E+03    0.26313E-04   -0.21843E-03  7040   0.232E-02    0.166E-01
DAV:   4    -0.706591508538E+03   -0.29618E-04   -0.20202E-03  7152   0.206E-02    0.194E-01
DAV:   5    -0.706591487529E+03    0.21009E-04   -0.19998E-03  6848   0.191E-02    0.164E-01
DAV:   6    -0.706591480250E+03    0.72788E-05   -0.15380E-03  6816   0.172E-02    0.146E-01
DAV:   7    -0.706591459366E+03    0.20884E-04   -0.10088E-03  6496   0.150E-02    0.104E-01
DAV:   8    -0.706591451644E+03    0.77227E-05   -0.60885E-04  5972   0.131E-02    0.891E-02
DAV:   9    -0.706591443258E+03    0.83853E-05   -0.38654E-04  5492   0.997E-03    0.656E-02
DAV:  10    -0.706591438919E+03    0.43393E-05   -0.21332E-04  5420   0.812E-03    0.492E-02
DAV:  11    -0.706591436627E+03    0.22924E-05   -0.12580E-04  5348   0.576E-03    0.399E-02
DAV:  12    -0.706591434540E+03    0.20869E-05   -0.67148E-05  5348   0.459E-03
  19 F= -.70659143E+03 E0= -.70657343E+03  d E =-.727487E-03
 curvature:  -0.90 expect dE=-0.589E-03 dE for cont linesearch -0.764E-07
 trial: gam= 0.47609 g(F)=  0.652E-03 g(S)=  0.000E+00 ort =-0.146E-04 (trialstep = 0.107E+01)
 search vector abs. value=  0.121E-02
 bond charge predicted
       N       E                     dE             d eps       ncg     rms          rms(c)
DAV:   1    -0.706589879478E+03    0.15571E-02   -0.31680E-01 10948   0.975E-01    0.104E-01
DAV:   2    -0.706591840525E+03   -0.19610E-02   -0.20388E-02 15528   0.278E-01    0.908E-02
DAV:   3    -0.706591929400E+03   -0.88875E-04   -0.11651E-03 12120   0.629E-02    0.222E-01
DAV:   4    -0.706591853914E+03    0.75486E-04   -0.11693E-03 10408   0.340E-02    0.194E-01
DAV:   5    -0.706591958725E+03   -0.10481E-03   -0.15006E-03  8416   0.808E-02    0.297E-01
DAV:   6    -0.706591762487E+03    0.19624E-03   -0.99762E-04  8872   0.347E-02    0.177E-01
DAV:   7    -0.706591896320E+03   -0.13383E-03   -0.41953E-04  8480   0.310E-02    0.231E-01
DAV:   8    -0.706591762300E+03    0.13402E-03   -0.22252E-04  8392   0.304E-02    0.132E-01
DAV:   9    -0.706591859375E+03   -0.97074E-04   -0.73082E-05  8232   0.269E-02    0.161E-01
DAV:  10    -0.706591792693E+03    0.66682E-04   -0.34987E-05  7952   0.194E-02    0.102E-01
DAV:  11    -0.706591839308E+03   -0.46615E-04   -0.34356E-05  7824   0.177E-02    0.105E-01
DAV:  12    -0.706591816442E+03    0.22865E-04   -0.30407E-05  7280   0.128E-02    0.817E-02
DAV:  13    -0.706591830374E+03   -0.13932E-04   -0.42177E-05  7008   0.110E-02    0.677E-02
DAV:  14    -0.706591826506E+03    0.38681E-05   -0.38865E-05  6408   0.940E-03
  20 F= -.70659183E+03 E0= -.70657387E+03  d E =-.391966E-03
 trial-energy change:   -0.000392  1 .order   -0.000394   -0.000692   -0.000097
 step:   1.2461(harm=  1.2461)  dis= 0.00189  next Energy=  -706.591837 (dE=-0.402E-03)
 reached required accuracy - stopping structural energy minimisation
Warning: ieee_invalid is signaling
Warning: ieee_divide_by_zero is signaling
Warning: ieee_overflow is signaling
Warning: ieee_underflow is signaling
Warning: ieee_inexact is signaling
FORTRAN STOP
Warning: ieee_invalid is signaling
Warning: ieee_divide_by_zero is signaling
Warning: ieee_overflow is signaling
Warning: ieee_underflow is signaling
Warning: ieee_inexact is signaling
FORTRAN STOP
Warning: ieee_invalid is signaling
Warning: ieee_divide_by_zero is signaling
Warning: ieee_overflow is signaling
Warning: ieee_underflow is signaling
Warning: ieee_inexact is signaling
FORTRAN STOP
Warning: ieee_invalid is signaling
Warning: ieee_divide_by_zero is signaling
Warning: ieee_overflow is signaling
Warning: ieee_underflow is signaling
Warning: ieee_inexact is signaling
FORTRAN STOP
