       N       E                     dE             d eps       ncg     rms          rms(c)
DAV:   1     0.220793574209E+05    0.22079E+05   -0.32741E+05 10176   0.281E+03
DAV:   2     0.489519956211E+04   -0.17184E+05   -0.16190E+05 10176   0.822E+02
DAV:   3    -0.139963631980E+03   -0.50352E+04   -0.47414E+04 13040   0.322E+02
DAV:   4    -0.778711170365E+03   -0.63875E+03   -0.62491E+03 12600   0.122E+02
DAV:   5    -0.823104812279E+03   -0.44394E+02   -0.44006E+02 14624   0.349E+01    0.736E+01
DAV:   6    -0.747002490787E+03    0.76102E+02   -0.78981E+02 17120   0.741E+01    0.143E+02
DAV:   7    -0.734104487075E+03    0.12898E+02   -0.14097E+02 12504   0.180E+01    0.686E+01
DAV:   8    -0.706965883219E+03    0.27139E+02   -0.54670E+01 12040   0.268E+01    0.131E+01
DAV:   9    -0.723797966990E+03   -0.16832E+02   -0.55662E+01 12744   0.411E+01    0.862E+01
DAV:  10    -0.706759660314E+03    0.17038E+02   -0.90215E+01 12696   0.774E+00    0.175E+01
DAV:  11    -0.707311020927E+03   -0.55136E+00   -0.73254E+00 11984   0.532E+00    0.198E+01
DAV:  12    -0.706772529866E+03    0.53849E+00   -0.50572E+00 12904   0.213E+00    0.157E+01
DAV:  13    -0.706461960500E+03    0.31057E+00   -0.81706E+00 13624   0.382E+00    0.724E+00
DAV:  14    -0.706222948766E+03    0.23901E+00   -0.34270E-01 13400   0.213E+00    0.496E+00
DAV:  15    -0.706120051380E+03    0.10290E+00   -0.88215E-02 13256   0.949E-01    0.343E+00
DAV:  16    -0.706110295778E+03    0.97556E-02   -0.76552E-02 13208   0.662E-01    0.261E+00
DAV:  17    -0.706141602172E+03   -0.31306E-01   -0.75011E-02 10880   0.414E-01    0.300E+00
DAV:  18    -0.706118899067E+03    0.22703E-01   -0.10438E-01 13392   0.593E-01    0.275E+00
DAV:  19    -0.706102370663E+03    0.16528E-01   -0.14433E-01 12728   0.749E-01    0.234E+00
DAV:  20    -0.706095382927E+03    0.69877E-02   -0.12270E-01 14768   0.315E-01    0.210E+00
DAV:  21    -0.706084433150E+03    0.10950E-01   -0.11627E-01 12368   0.336E-01    0.211E+00
DAV:  22    -0.706074150504E+03    0.10283E-01   -0.97555E-02 12648   0.232E-01    0.172E+00
DAV:  23    -0.706068576842E+03    0.55737E-02   -0.85733E-02 12824   0.277E-01    0.183E+00
DAV:  24    -0.706060519242E+03    0.80576E-02   -0.71806E-02 13240   0.260E-01    0.134E+00
DAV:  25    -0.706057726882E+03    0.27924E-02   -0.59171E-02 12872   0.215E-01    0.134E+00
DAV:  26    -0.706056007104E+03    0.17198E-02   -0.41737E-02 10752   0.173E-01    0.928E-01
DAV:  27    -0.706057371698E+03   -0.13646E-02   -0.33987E-02 10672   0.119E-01    0.126E+00
DAV:  28    -0.706054318521E+03    0.30532E-02   -0.24768E-02  8784   0.121E-01    0.650E-01
DAV:  29    -0.706055821725E+03   -0.15032E-02   -0.20360E-02  9488   0.804E-02    0.110E+00
DAV:  30    -0.706053098343E+03    0.27234E-02   -0.12381E-02  9464   0.111E-01    0.387E-01
DAV:  31    -0.706054976511E+03   -0.18782E-02   -0.10766E-02  9624   0.688E-02    0.101E+00
DAV:  32    -0.706052558748E+03    0.24178E-02   -0.55060E-03  9360   0.821E-02    0.378E-01
DAV:  33    -0.706054431154E+03   -0.18724E-02   -0.49081E-03  9344   0.547E-02    0.934E-01
DAV:  34    -0.706052748600E+03    0.16826E-02   -0.23962E-03  8736   0.509E-02    0.555E-01
DAV:  35    -0.706054073703E+03   -0.13251E-02   -0.18295E-03  8736   0.468E-02    0.846E-01
DAV:  36    -0.706053296270E+03    0.77743E-03   -0.10643E-03  8320   0.420E-02    0.699E-01
DAV:  37    -0.706053765886E+03   -0.46962E-03   -0.53819E-04  8512   0.391E-02    0.749E-01
DAV:  38    -0.706053766028E+03   -0.14190E-06   -0.58208E-04  8360   0.313E-02    0.775E-01
DAV:  39    -0.706053324080E+03    0.44195E-03   -0.23716E-04  9296   0.363E-02    0.659E-01
DAV:  40    -0.706053707575E+03   -0.38350E-03   -0.19736E-04  8120   0.201E-02    0.737E-01
DAV:  41    -0.706053115029E+03    0.59255E-03   -0.91767E-05  8224   0.212E-02    0.618E-01
DAV:  42    -0.706053567273E+03   -0.45224E-03   -0.65085E-05  7936   0.160E-02    0.685E-01
DAV:  43    -0.706053177546E+03    0.38973E-03   -0.33018E-05  7352   0.120E-02    0.596E-01
DAV:  44    -0.706053499019E+03   -0.32147E-03   -0.25093E-05  7168   0.116E-02    0.636E-01
DAV:  45    -0.706053225865E+03    0.27315E-03   -0.23248E-05  6264   0.872E-03    0.543E-01
DAV:  46    -0.706053377449E+03   -0.15158E-03   -0.97207E-05  6680   0.118E-02    0.529E-01
DAV:  47    -0.706053209169E+03    0.16828E-03   -0.23546E-05  6472   0.108E-02    0.483E-01
DAV:  48    -0.706053354422E+03   -0.14525E-03   -0.13836E-04  6360   0.106E-02    0.473E-01
DAV:  49    -0.706053125269E+03    0.22915E-03   -0.20833E-05  6824   0.117E-02    0.403E-01
DAV:  50    -0.706053250498E+03   -0.12523E-03   -0.24619E-05  6128   0.698E-03    0.425E-01
DAV:  51    -0.706053045351E+03    0.20515E-03   -0.27325E-04  8400   0.158E-02    0.339E-01
DAV:  52    -0.706053069772E+03   -0.24421E-04   -0.18641E-05  6520   0.125E-02    0.330E-01
DAV:  53    -0.706053063094E+03    0.66778E-05   -0.55907E-05  5832   0.812E-03
   1 F= -.70605306E+03 E0= -.70603374E+03  d E =-.706053E+03
       N       E                     dE             d eps       ncg     rms          rms(c)
DAV:   1    -0.704844282757E+03    0.12088E+01   -0.22789E+02 10840   0.233E+01    0.364E+00
DAV:   2    -0.706412109680E+03   -0.15678E+01   -0.16601E+01 13960   0.737E+00    0.482E+00
DAV:   3    -0.706331544749E+03    0.80565E-01   -0.11071E+00 12888   0.210E+00    0.363E+00
DAV:   4    -0.706329718123E+03    0.18266E-02   -0.84291E-01 15040   0.138E+00    0.397E+00
DAV:   5    -0.706282758084E+03    0.46960E-01   -0.10231E+00 13888   0.270E+00    0.402E+00
DAV:   6    -0.706207087218E+03    0.75671E-01   -0.18610E-01 15328   0.280E+00    0.939E-01
DAV:   7    -0.706245620507E+03   -0.38533E-01   -0.13192E-01 11696   0.108E+00    0.235E+00
DAV:   8    -0.706222737099E+03    0.22883E-01   -0.40845E-02 12688   0.546E-01    0.896E-01
DAV:   9    -0.706248071272E+03   -0.25334E-01   -0.42719E-02 10896   0.284E-01    0.192E+00
DAV:  10    -0.706232194410E+03    0.15877E-01   -0.38515E-02 10840   0.397E-01    0.867E-01
DAV:  11    -0.706242438406E+03   -0.10244E-01   -0.41182E-02 11640   0.475E-01    0.866E-01
DAV:  12    -0.706242615579E+03   -0.17717E-03   -0.41030E-02 14088   0.254E-01    0.883E-01
DAV:  13    -0.706242522885E+03    0.92694E-04   -0.35871E-02 11792   0.157E-01    0.831E-01
DAV:  14    -0.706243313522E+03   -0.79064E-03   -0.31088E-02 10184   0.178E-01    0.957E-01
DAV:  15    -0.706243103574E+03    0.20995E-03   -0.28644E-02 10824   0.147E-01    0.111E+00
DAV:  16    -0.706241949089E+03    0.11545E-02   -0.23146E-02 13824   0.157E-01    0.951E-01
DAV:  17    -0.706243448168E+03   -0.14991E-02   -0.20107E-02 11840   0.140E-01    0.121E+00
DAV:  18    -0.706241360107E+03    0.20881E-02   -0.16951E-02 11152   0.140E-01    0.101E+00
DAV:  19    -0.706242758124E+03   -0.13980E-02   -0.10613E-02 11160   0.143E-01    0.111E+00
DAV:  20    -0.706241881042E+03    0.87708E-03   -0.89373E-03 10544   0.128E-01    0.105E+00
DAV:  21    -0.706241858820E+03    0.22222E-04   -0.42855E-03 10752   0.133E-01    0.961E-01
DAV:  22    -0.706242346737E+03   -0.48792E-03   -0.34410E-03 10832   0.128E-01    0.101E+00
DAV:  23    -0.706241376570E+03    0.97017E-03   -0.18674E-03 10664   0.122E-01    0.844E-01
DAV:  24    -0.706242413483E+03   -0.10369E-02   -0.15141E-03 10624   0.118E-01    0.926E-01
DAV:  25    -0.706241311408E+03    0.11021E-02   -0.12109E-03 10624   0.110E-01    0.754E-01
DAV:  26    -0.706242275519E+03   -0.96411E-03   -0.11182E-03 10592   0.105E-01    0.817E-01
DAV:  27    -0.706241437697E+03    0.83782E-03   -0.10938E-03 10512   0.970E-02    0.675E-01
DAV:  28    -0.706242104882E+03   -0.66718E-03   -0.11003E-03 10472   0.919E-02    0.706E-01
DAV:  29    -0.706241578923E+03    0.52596E-03   -0.10939E-03 10400   0.847E-02    0.597E-01
DAV:  30    -0.706241976074E+03   -0.39715E-03   -0.11076E-03 10280   0.795E-02    0.603E-01
DAV:  31    -0.706241673874E+03    0.30220E-03   -0.10734E-03 10136   0.732E-02    0.520E-01
DAV:  32    -0.706241898600E+03   -0.22473E-03   -0.10616E-03 10024   0.680E-02    0.513E-01
DAV:  33    -0.706241722418E+03    0.17618E-03   -0.10050E-03  9816   0.624E-02    0.444E-01
DAV:  34    -0.706241859035E+03   -0.13662E-03   -0.96493E-04  9640   0.573E-02    0.435E-01
DAV:  35    -0.706241741165E+03    0.11787E-03   -0.89744E-04  9416   0.526E-02    0.372E-01
DAV:  36    -0.706241840070E+03   -0.98905E-04   -0.83775E-04  9168   0.479E-02    0.367E-01
DAV:  37    -0.706241746705E+03    0.93365E-04   -0.76760E-04  9032   0.438E-02    0.308E-01
DAV:  38    -0.706241829059E+03   -0.82354E-04   -0.70052E-04  8920   0.397E-02    0.308E-01
DAV:  39    -0.706241748865E+03    0.80194E-04   -0.63360E-04  8840   0.363E-02    0.251E-01
DAV:  40    -0.706241819537E+03   -0.70672E-04   -0.56771E-04  8744   0.328E-02    0.257E-01
DAV:  41    -0.706241751544E+03    0.67993E-04   -0.50625E-04  8616   0.298E-02    0.204E-01
DAV:  42    -0.706241809834E+03   -0.58290E-04   -0.44621E-04  8536   0.269E-02    0.213E-01
DAV:  43    -0.706241755054E+03    0.54781E-04   -0.39130E-04  8416   0.243E-02    0.165E-01
DAV:  44    -0.706241800507E+03   -0.45454E-04   -0.33925E-04  8376   0.219E-02    0.174E-01
DAV:  45    -0.706241758826E+03    0.41681E-04   -0.29266E-04  8232   0.196E-02    0.132E-01
DAV:  46    -0.706241792420E+03   -0.33594E-04   -0.24954E-04  7992   0.176E-02    0.142E-01
DAV:  47    -0.706241761535E+03    0.30886E-04   -0.20937E-04  7904   0.156E-02    0.104E-01
DAV:  48    -0.706241786666E+03   -0.25131E-04   -0.17379E-04  7608   0.139E-02    0.115E-01
DAV:  49    -0.706241763380E+03    0.23286E-04   -0.14506E-04  7272   0.123E-02    0.813E-02
DAV:  50    -0.706241782131E+03   -0.18751E-04   -0.11852E-04  7000   0.109E-02    0.926E-02
DAV:  51    -0.706241765054E+03    0.17077E-04   -0.98273E-05  6688   0.949E-03    0.638E-02
DAV:  52    -0.706241778742E+03   -0.13688E-04   -0.78268E-05  6464   0.839E-03    0.746E-02
DAV:  53    -0.706241766319E+03    0.12423E-04   -0.61847E-05  6288   0.744E-03    0.497E-02
DAV:  54    -0.706241776284E+03   -0.99648E-05   -0.48392E-05  6208   0.662E-03
   2 F= -.70624178E+03 E0= -.70622406E+03  d E =-.188713E+00
       N       E                     dE             d eps       ncg     rms          rms(c)
DAV:   1    -0.706199107517E+03    0.42659E-01   -0.32755E+01 10728   0.923E+00    0.139E+00
DAV:   2    -0.706390358817E+03   -0.19125E+00   -0.20460E+00 14752   0.312E+00    0.118E+00
DAV:   3    -0.706403489056E+03   -0.13130E-01   -0.25284E-01 12288   0.913E-01    0.264E+00
DAV:   4    -0.706387222118E+03    0.16267E-01   -0.16911E-01 12656   0.525E-01    0.230E+00
DAV:   5    -0.706390996883E+03   -0.37748E-02   -0.14415E-01 12208   0.705E-01    0.246E+00
DAV:   6    -0.706387731859E+03    0.32650E-02   -0.16386E-01 14760   0.143E+00    0.287E+00
DAV:   7    -0.706370857408E+03    0.16874E-01   -0.93432E-02 14544   0.561E-01    0.167E+00
DAV:   8    -0.706388218131E+03   -0.17361E-01   -0.76883E-02 11512   0.395E-01    0.223E+00
DAV:   9    -0.706373728821E+03    0.14489E-01   -0.62579E-02 10784   0.386E-01    0.137E+00
DAV:  10    -0.706385014033E+03   -0.11285E-01   -0.58922E-02 10992   0.326E-01    0.168E+00
DAV:  11    -0.706377001717E+03    0.80123E-02   -0.46625E-02 12336   0.194E-01    0.104E+00
DAV:  12    -0.706382928609E+03   -0.59269E-02   -0.40633E-02 10624   0.163E-01    0.120E+00
DAV:  13    -0.706379165739E+03    0.37629E-02   -0.32635E-02 11880   0.146E-01    0.851E-01
DAV:  14    -0.706381560018E+03   -0.23943E-02   -0.26922E-02 10968   0.112E-01    0.814E-01
DAV:  15    -0.706380268749E+03    0.12913E-02   -0.21231E-02 10784   0.933E-02    0.686E-01
DAV:  16    -0.706380888462E+03   -0.61971E-03   -0.16984E-02 10136   0.850E-02    0.547E-01
DAV:  17    -0.706380546235E+03    0.34223E-03   -0.13052E-02  9120   0.680E-02    0.546E-01
DAV:  18    -0.706380565069E+03   -0.18834E-04   -0.10302E-02  8984   0.556E-02    0.362E-01
DAV:  19    -0.706380554203E+03    0.10865E-04   -0.78234E-03  8552   0.491E-02    0.431E-01
DAV:  20    -0.706380411950E+03    0.14225E-03   -0.60510E-03  8440   0.388E-02    0.233E-01
DAV:  21    -0.706380488607E+03   -0.76658E-04   -0.45450E-03  8192   0.333E-02    0.341E-01
DAV:  22    -0.706380341612E+03    0.14700E-03   -0.34496E-03  7976   0.277E-02    0.146E-01
DAV:  23    -0.706380419970E+03   -0.78358E-04   -0.25520E-03  7616   0.233E-02    0.270E-01
DAV:  24    -0.706380310893E+03    0.10908E-03   -0.19125E-03  7344   0.196E-02    0.931E-02
DAV:  25    -0.706380366484E+03   -0.55591E-04   -0.13858E-03  6792   0.169E-02    0.216E-01
DAV:  26    -0.706380298912E+03    0.67572E-04   -0.10331E-03  6416   0.140E-02    0.713E-02
DAV:  27    -0.706380328860E+03   -0.29948E-04   -0.72765E-04  6136   0.126E-02    0.172E-01
DAV:  28    -0.706380295057E+03    0.33803E-04   -0.54437E-04  5848   0.105E-02    0.702E-02
DAV:  29    -0.706380303897E+03   -0.88403E-05   -0.36846E-04  5808   0.958E-03    0.138E-01
DAV:  30    -0.706380294206E+03    0.96909E-05   -0.28144E-04  5672   0.794E-03    0.759E-02
DAV:  31    -0.706380287830E+03    0.63761E-05   -0.18050E-04  5672   0.755E-03    0.110E-01
DAV:  32    -0.706380293954E+03   -0.61239E-05   -0.14333E-04  5624   0.612E-03    0.806E-02
DAV:  33    -0.706380277918E+03    0.16037E-04   -0.85426E-05  5640   0.603E-03    0.876E-02
DAV:  34    -0.706380293350E+03   -0.15432E-04   -0.71879E-05  5624   0.487E-03    0.827E-02
DAV:  35    -0.706380272188E+03    0.21162E-04   -0.38952E-05  5624   0.489E-03    0.701E-02
DAV:  36    -0.706380292236E+03   -0.20048E-04   -0.35500E-05  5576   0.394E-03    0.826E-02
DAV:  37    -0.706380269254E+03    0.22983E-04   -0.17010E-05  5576   0.401E-03    0.572E-02
DAV:  38    -0.706380290794E+03   -0.21540E-04   -0.17217E-05  5544   0.326E-03    0.808E-02
DAV:  39    -0.706380268201E+03    0.22593E-04   -0.70568E-06  5536   0.331E-03    0.485E-02
DAV:  40    -0.706380289325E+03   -0.21124E-04   -0.81567E-06  5488   0.278E-03    0.781E-02
DAV:  41    -0.706380268400E+03    0.20925E-04   -0.27305E-06  5472   0.275E-03    0.436E-02
DAV:  42    -0.706380287944E+03   -0.19544E-04   -0.38218E-06  5400   0.241E-03    0.749E-02
DAV:  43    -0.706380269314E+03    0.18630E-04   -0.79223E-07  5384   0.233E-03    0.414E-02
DAV:  44    -0.706380286684E+03   -0.17370E-04   -0.22495E-06  5304   0.216E-03    0.717E-02
DAV:  45    -0.706380270730E+03    0.15954E-04   -0.37853E-07  5304   0.200E-03    0.414E-02
DAV:  46    -0.706380285931E+03   -0.15201E-04   -0.14644E-06  5304   0.194E-03    0.690E-02
DAV:  47    -0.706380272801E+03    0.13130E-04   -0.39310E-07  5304   0.177E-03    0.446E-02
DAV:  48    -0.706380285608E+03   -0.12807E-04   -0.96726E-07  5304   0.176E-03    0.680E-02
DAV:  49    -0.706380274988E+03    0.10621E-04   -0.43680E-07  5304   0.155E-03    0.491E-02
DAV:  50    -0.706380285805E+03   -0.10818E-04   -0.69628E-07  5304   0.159E-03    0.675E-02
DAV:  51    -0.706380277670E+03    0.81358E-05   -0.32341E-07  5304   0.131E-03
   3 F= -.70638028E+03 E0= -.70636255E+03  d E =-.327215E+00
       N       E                     dE             d eps       ncg     rms          rms(c)
DAV:   1    -0.706266209621E+03    0.11408E+00   -0.53246E+01 10220   0.997E+00    0.166E+00
DAV:   2    -0.706509302155E+03   -0.24309E+00   -0.23677E+00 13728   0.314E+00    0.349E+00
DAV:   3    -0.706496818916E+03    0.12483E-01   -0.62372E-01 11632   0.991E-01    0.334E+00
DAV:   4    -0.706495270240E+03    0.15487E-02   -0.38210E-01 10968   0.746E-01    0.304E+00
DAV:   5    -0.706510589718E+03   -0.15319E-01   -0.61537E-01 12328   0.146E+00    0.350E+00
DAV:   6    -0.706463408082E+03    0.47182E-01   -0.20517E-01 14592   0.539E-01    0.119E+00
DAV:   7    -0.706496024296E+03   -0.32616E-01   -0.12408E-01 10936   0.462E-01    0.248E+00
DAV:   8    -0.706468227847E+03    0.27796E-01   -0.93197E-02 10936   0.281E-01    0.101E+00
DAV:   9    -0.706489558724E+03   -0.21331E-01   -0.81103E-02 11216   0.269E-01    0.164E+00
DAV:  10    -0.706480830238E+03    0.87285E-02   -0.56294E-02 11208   0.222E-01    0.591E-01
DAV:  11    -0.706488153067E+03   -0.73228E-02   -0.55597E-02 11832   0.156E-01    0.136E+00
DAV:  12    -0.706484587321E+03    0.35657E-02   -0.39764E-02 11160   0.158E-01    0.406E-01
DAV:  13    -0.706486464747E+03   -0.18774E-02   -0.28493E-02 10768   0.981E-02    0.107E+00
DAV:  14    -0.706485000818E+03    0.14639E-02   -0.23281E-02 10400   0.986E-02    0.558E-01
DAV:  15    -0.706484898012E+03    0.10281E-03   -0.14958E-02  8984   0.687E-02    0.777E-01
DAV:  16    -0.706485250083E+03   -0.35207E-03   -0.12938E-02  8568   0.628E-02    0.673E-01
DAV:  17    -0.706483815474E+03    0.14346E-02   -0.77038E-03  8520   0.631E-02    0.531E-01
DAV:  18    -0.706485348635E+03   -0.15332E-02   -0.68764E-03  8512   0.508E-02    0.712E-01
DAV:  19    -0.706483322938E+03    0.20257E-02   -0.39165E-03  8512   0.532E-02    0.344E-01
DAV:  20    -0.706485345370E+03   -0.20224E-02   -0.33835E-03  8536   0.471E-02    0.697E-01
DAV:  21    -0.706483266290E+03    0.20791E-02   -0.19417E-03  8528   0.445E-02    0.228E-01
DAV:  22    -0.706485305206E+03   -0.20389E-02   -0.16140E-03  8536   0.425E-02    0.660E-01
DAV:  23    -0.706483390586E+03    0.19146E-02   -0.94172E-04  8536   0.386E-02    0.170E-01
DAV:  24    -0.706485252713E+03   -0.18621E-02   -0.79029E-04  8520   0.378E-02    0.619E-01
DAV:  25    -0.706483561582E+03    0.16911E-02   -0.46163E-04  8504   0.339E-02    0.156E-01
DAV:  26    -0.706485184705E+03   -0.16231E-02   -0.39828E-04  8504   0.334E-02    0.574E-01
DAV:  27    -0.706483746941E+03    0.14378E-02   -0.23395E-04  8464   0.294E-02    0.164E-01
DAV:  28    -0.706485109035E+03   -0.13621E-02   -0.20634E-04  8464   0.289E-02    0.524E-01
DAV:  29    -0.706483946176E+03    0.11629E-02   -0.12146E-04  8392   0.249E-02    0.177E-01
DAV:  30    -0.706485043517E+03   -0.10973E-02   -0.11300E-04  8392   0.247E-02    0.473E-01
DAV:  31    -0.706484137375E+03    0.90614E-03   -0.68376E-05  8216   0.207E-02    0.188E-01
DAV:  32    -0.706484995171E+03   -0.85780E-03   -0.66976E-05  8216   0.209E-02    0.425E-01
DAV:  33    -0.706484308088E+03    0.68708E-03   -0.42142E-05  8056   0.170E-02    0.195E-01
DAV:  34    -0.706484964909E+03   -0.65682E-03   -0.43193E-05  8032   0.177E-02    0.381E-01
DAV:  35    -0.706484452325E+03    0.51258E-03   -0.28031E-05  7824   0.141E-02    0.197E-01
DAV:  36    -0.706484949628E+03   -0.49730E-03   -0.29648E-05  7832   0.149E-02    0.342E-01
DAV:  37    -0.706484571078E+03    0.37855E-03   -0.19190E-05  7360   0.116E-02    0.195E-01
DAV:  38    -0.706484944889E+03   -0.37381E-03   -0.20597E-05  7360   0.125E-02    0.308E-01
DAV:  39    -0.706484666977E+03    0.27791E-03   -0.13014E-05  6872   0.974E-03    0.191E-01
DAV:  40    -0.706484947350E+03   -0.28037E-03   -0.14360E-05  6904   0.105E-02    0.278E-01
DAV:  41    -0.706484744489E+03    0.20286E-03   -0.88305E-06  6456   0.830E-03    0.185E-01
DAV:  42    -0.706484954127E+03   -0.20964E-03   -0.10232E-05  6488   0.884E-03    0.252E-01
DAV:  43    -0.706484807178E+03    0.14695E-03   -0.62266E-06  6256   0.726E-03    0.178E-01
DAV:  44    -0.706484962842E+03   -0.15566E-03   -0.76377E-06  6344   0.770E-03    0.229E-01
DAV:  45    -0.706484857955E+03    0.10489E-03   -0.46977E-06  6096   0.641E-03    0.171E-01
DAV:  46    -0.706484970867E+03   -0.11291E-03   -0.61463E-06  6280   0.687E-03    0.208E-01
DAV:  47    -0.706484900237E+03    0.70629E-04   -0.37384E-06  5960   0.617E-03    0.165E-01
DAV:  48    -0.706484978545E+03   -0.78307E-04   -0.55177E-06  6224   0.638E-03    0.189E-01
DAV:  49    -0.706484936635E+03    0.41910E-04   -0.29066E-06  5744   0.472E-03    0.162E-01
DAV:  50    -0.706484981250E+03   -0.44615E-04   -0.34987E-06  6064   0.536E-03    0.176E-01
DAV:  51    -0.706484957601E+03    0.23648E-04   -0.19260E-06  5512   0.372E-03    0.160E-01
DAV:  52    -0.706484980777E+03   -0.23176E-04   -0.21736E-06  5840   0.437E-03    0.165E-01
DAV:  53    -0.706484970477E+03    0.10300E-04   -0.11397E-06  5352   0.303E-03    0.157E-01
DAV:  54    -0.706484980874E+03   -0.10398E-04   -0.16116E-06  5688   0.381E-03    0.156E-01
DAV:  55    -0.706484979774E+03    0.11001E-05   -0.13427E-06  5320   0.284E-03
   4 F= -.70648498E+03 E0= -.70646725E+03  d E =-.104702E+00
       N       E                     dE             d eps       ncg     rms          rms(c)
DAV:   1    -0.706481929020E+03    0.30519E-02   -0.12340E+00 10196   0.152E+00    0.280E-01
DAV:   2    -0.706487905432E+03   -0.59764E-02   -0.61667E-02 13592   0.474E-01    0.818E-01
DAV:   3    -0.706488052300E+03   -0.14687E-03   -0.35181E-02 11872   0.164E-01    0.883E-01
DAV:   4    -0.706488123402E+03   -0.71101E-04   -0.35299E-02 10680   0.139E-01    0.869E-01
DAV:   5    -0.706488276454E+03   -0.15305E-03   -0.33611E-02 10112   0.169E-01    0.957E-01
DAV:   6    -0.706486608302E+03    0.16682E-02   -0.17196E-02  9760   0.149E-01    0.495E-01
DAV:   7    -0.706487638328E+03   -0.10300E-02   -0.74135E-03 10824   0.122E-01    0.739E-01
DAV:   8    -0.706486319977E+03    0.13184E-02   -0.38282E-03 10648   0.976E-02    0.388E-01
DAV:   9    -0.706487216062E+03   -0.89608E-03   -0.90226E-04 10432   0.864E-02    0.518E-01
DAV:  10    -0.706486563313E+03    0.65275E-03   -0.48897E-04  9416   0.611E-02    0.338E-01
DAV:  11    -0.706487006053E+03   -0.44274E-03   -0.40619E-04  9456   0.493E-02    0.354E-01
DAV:  12    -0.706486774325E+03    0.23173E-03   -0.43105E-04  8856   0.493E-02    0.287E-01
DAV:  13    -0.706486942273E+03   -0.16795E-03   -0.72773E-04  8656   0.357E-02    0.263E-01
DAV:  14    -0.706486859750E+03    0.82523E-04   -0.76864E-04  8648   0.321E-02    0.244E-01
DAV:  15    -0.706486919472E+03   -0.59722E-04   -0.86972E-04  8448   0.298E-02    0.200E-01
DAV:  16    -0.706486889606E+03    0.29866E-04   -0.80067E-04  8240   0.243E-02    0.204E-01
DAV:  17    -0.706486904669E+03   -0.15063E-04   -0.76624E-04  8152   0.221E-02    0.151E-01
DAV:  18    -0.706486899108E+03    0.55615E-05   -0.66368E-04  8032   0.201E-02    0.170E-01
DAV:  19    -0.706486894123E+03    0.49850E-05   -0.58995E-04  7888   0.168E-02    0.111E-01
DAV:  20    -0.706486900138E+03   -0.60153E-05   -0.49221E-04  7568   0.154E-02    0.142E-01
DAV:  21    -0.706486887046E+03    0.13092E-04   -0.41566E-04  7200   0.130E-02    0.788E-02
DAV:  22    -0.706486897637E+03   -0.10591E-04   -0.33544E-04  6656   0.114E-02    0.119E-01
DAV:  23    -0.706486882654E+03    0.14983E-04   -0.27395E-04  6416   0.975E-03    0.535E-02
DAV:  24    -0.706486894226E+03   -0.11572E-04   -0.21481E-04  6216   0.850E-03    0.994E-02
DAV:  25    -0.706486880247E+03    0.13979E-04   -0.17250E-04  6096   0.727E-03    0.341E-02
DAV:  26    -0.706486891045E+03   -0.10798E-04   -0.13217E-04  5904   0.634E-03    0.838E-02
DAV:  27    -0.706486879121E+03    0.11924E-04   -0.10532E-04  5760   0.546E-03    0.201E-02
DAV:  28    -0.706486888387E+03   -0.92669E-05   -0.78986E-05  5552   0.476E-03
   5 F= -.70648689E+03 E0= -.70646914E+03  d E =-.106611E+00
       N       E                     dE             d eps       ncg     rms          rms(c)
DAV:   1    -0.706397327639E+03    0.89551E-01   -0.32574E+01 10556   0.824E+00    0.117E+00
DAV:   2    -0.706551161226E+03   -0.15383E+00   -0.14873E+00 15416   0.242E+00    0.277E+00
DAV:   3    -0.706542031340E+03    0.91299E-02   -0.33161E-01 11624   0.668E-01    0.282E+00
DAV:   4    -0.706541979528E+03    0.51812E-04   -0.25383E-01 10984   0.567E-01    0.266E+00
DAV:   5    -0.706551152516E+03   -0.91730E-02   -0.39180E-01 13512   0.890E-01    0.312E+00
DAV:   6    -0.706517595790E+03    0.33557E-01   -0.17355E-01 13984   0.486E-01    0.109E+00
DAV:   7    -0.706545278479E+03   -0.27683E-01   -0.92023E-02 10600   0.314E-01    0.225E+00
DAV:   8    -0.706521510801E+03    0.23768E-01   -0.65668E-02 10944   0.244E-01    0.849E-01
DAV:   9    -0.706538856288E+03   -0.17345E-01   -0.43070E-02 10528   0.251E-01    0.138E+00
DAV:  10    -0.706531245698E+03    0.76106E-02   -0.30763E-02 11232   0.145E-01    0.545E-01
DAV:  11    -0.706537181826E+03   -0.59361E-02   -0.27565E-02 12496   0.138E-01    0.940E-01
DAV:  12    -0.706534806144E+03    0.23757E-02   -0.19714E-02 10624   0.101E-01    0.311E-01
DAV:  13    -0.706536358460E+03   -0.15523E-02   -0.14152E-02 10680   0.730E-02    0.717E-01
DAV:  14    -0.706535260055E+03    0.10984E-02   -0.11231E-02  8744   0.699E-02    0.325E-01
DAV:  15    -0.706535703612E+03   -0.44356E-03   -0.72692E-03  8448   0.439E-02    0.534E-01
DAV:  16    -0.706535416894E+03    0.28672E-03   -0.60938E-03  7976   0.386E-02    0.389E-01
DAV:  17    -0.706535226815E+03    0.19008E-03   -0.36631E-03  7904   0.345E-02    0.392E-01
DAV:  18    -0.706535466851E+03   -0.24004E-03   -0.31851E-03  7792   0.277E-02    0.415E-01
DAV:  19    -0.706534998584E+03    0.46827E-03   -0.17873E-03  7784   0.251E-02    0.291E-01
DAV:  20    -0.706535487971E+03   -0.48939E-03   -0.16053E-03  7760   0.224E-02    0.416E-01
DAV:  21    -0.706534931935E+03    0.55604E-03   -0.86563E-04  7728   0.195E-02    0.234E-01
DAV:  22    -0.706535487536E+03   -0.55560E-03   -0.78222E-04  7608   0.180E-02    0.405E-01
DAV:  23    -0.706534946796E+03    0.54074E-03   -0.41632E-04  7552   0.159E-02    0.215E-01
DAV:  24    -0.706535474447E+03   -0.52765E-03   -0.37384E-04  7448   0.145E-02    0.388E-01
DAV:  25    -0.706534993837E+03    0.48061E-03   -0.19723E-04  7304   0.129E-02    0.214E-01
DAV:  26    -0.706535457868E+03   -0.46403E-03   -0.18031E-04  7240   0.120E-02    0.370E-01
DAV:  27    -0.706535052868E+03    0.40500E-03   -0.89871E-05  6896   0.103E-02    0.220E-01
DAV:  28    -0.706535446234E+03   -0.39337E-03   -0.93327E-05  6872   0.101E-02    0.351E-01
DAV:  29    -0.706535119717E+03    0.32652E-03   -0.36502E-05  6416   0.831E-03    0.227E-01
DAV:  30    -0.706535445952E+03   -0.32624E-03   -0.56448E-05  6432   0.859E-03    0.332E-01
DAV:  31    -0.706535203897E+03    0.24206E-03   -0.12211E-05  6176   0.701E-03    0.232E-01
DAV:  32    -0.706535474429E+03   -0.27053E-03   -0.38867E-05  6296   0.842E-03    0.311E-01
DAV:  33    -0.706535318138E+03    0.15629E-03   -0.74327E-06  5880   0.627E-03    0.235E-01
DAV:  34    -0.706535525825E+03   -0.20769E-03   -0.26133E-05  6400   0.820E-03    0.292E-01
DAV:  35    -0.706535428279E+03    0.97546E-04   -0.81306E-06  5616   0.521E-03    0.237E-01
DAV:  36    -0.706535566856E+03   -0.13858E-03   -0.15782E-05  6240   0.673E-03    0.279E-01
DAV:  37    -0.706535497540E+03    0.69316E-04   -0.79153E-06  5528   0.395E-03    0.238E-01
DAV:  38    -0.706535585406E+03   -0.87866E-04   -0.81962E-06  5800   0.427E-03    0.272E-01
DAV:  39    -0.706535523608E+03    0.61798E-04   -0.54373E-06  5576   0.308E-03    0.242E-01
DAV:  40    -0.706535578501E+03   -0.54892E-04   -0.34385E-06  5464   0.235E-03    0.266E-01
DAV:  41    -0.706535535513E+03    0.42988E-04   -0.25925E-06  5288   0.187E-03    0.246E-01
DAV:  42    -0.706535570723E+03   -0.35211E-04   -0.14796E-06  5288   0.140E-03    0.264E-01
DAV:  43    -0.706535536104E+03    0.34619E-04   -0.11380E-06  5288   0.142E-03    0.248E-01
DAV:  44    -0.706535566927E+03   -0.30823E-04   -0.75455E-07  5280   0.128E-03    0.261E-01
DAV:  45    -0.706535539392E+03    0.27535E-04   -0.54936E-07  5280   0.105E-03    0.250E-01
DAV:  46    -0.706535563579E+03   -0.24186E-04   -0.37281E-07  5280   0.974E-04    0.260E-01
DAV:  47    -0.706535540329E+03    0.23249E-04   -0.45814E-07  5280   0.155E-03    0.248E-01
DAV:  48    -0.706535565748E+03   -0.25418E-04   -0.51467E-07  5280   0.104E-03    0.259E-01
DAV:  49    -0.706535543719E+03    0.22028E-04   -0.33587E-07  5256   0.895E-04    0.250E-01
DAV:  50    -0.706535562838E+03   -0.19118E-04   -0.23640E-07  5256   0.759E-04    0.258E-01
DAV:  51    -0.706535545342E+03    0.17496E-04   -0.18940E-07  5256   0.688E-04    0.251E-01
DAV:  52    -0.706535560445E+03   -0.15104E-04   -0.26614E-07  5256   0.141E-03    0.256E-01
DAV:  53    -0.706535548928E+03    0.11517E-04   -0.19434E-06  5256   0.176E-03    0.241E-01
DAV:  54    -0.706535560454E+03   -0.11526E-04   -0.73206E-07  5256   0.217E-03    0.233E-01
DAV:  55    -0.706535571724E+03   -0.11270E-04   -0.19349E-07  5256   0.104E-03    0.233E-01
DAV:  56    -0.706535578305E+03   -0.65803E-05   -0.16670E-06  5256   0.134E-03
   6 F= -.70653558E+03 E0= -.70651763E+03  d E =-.486899E-01
       N       E                     dE             d eps       ncg     rms          rms(c)
DAV:   1    -0.706535357086E+03    0.21464E-03   -0.67451E-02 10588   0.374E-01    0.213E-01
DAV:   2    -0.706536855382E+03   -0.14983E-02   -0.11902E-02 13760   0.139E-01    0.875E-01
DAV:   3    -0.706536471146E+03    0.38424E-03   -0.31399E-02 10520   0.118E-01    0.881E-01
DAV:   4    -0.706536448375E+03    0.22771E-04   -0.28131E-02 11640   0.101E-01    0.783E-01
DAV:   5    -0.706536317412E+03    0.13096E-03   -0.19345E-02 10080   0.937E-02    0.725E-01
DAV:   6    -0.706535643057E+03    0.67436E-03   -0.10802E-02  9904   0.895E-02    0.456E-01
DAV:   7    -0.706535983709E+03   -0.34065E-03   -0.46339E-03  9800   0.680E-02    0.483E-01
DAV:   8    -0.706535527090E+03    0.45662E-03   -0.23598E-03  9152   0.597E-02    0.274E-01
DAV:   9    -0.706535796864E+03   -0.26977E-03   -0.66261E-04  8872   0.445E-02    0.296E-01
DAV:  10    -0.706535595297E+03    0.20157E-03   -0.24176E-04  8584   0.359E-02    0.170E-01
DAV:  11    -0.706535745143E+03   -0.14985E-03   -0.83713E-05  8320   0.284E-02    0.196E-01
DAV:  12    -0.706535646516E+03    0.98626E-04   -0.59032E-05  8184   0.214E-02    0.123E-01
DAV:  13    -0.706535723329E+03   -0.76812E-04   -0.84095E-05  8064   0.193E-02    0.135E-01
DAV:  14    -0.706535675686E+03    0.47643E-04   -0.87633E-05  7816   0.152E-02    0.945E-02
DAV:  15    -0.706535714126E+03   -0.38441E-04   -0.98902E-05  7488   0.133E-02    0.984E-02
DAV:  16    -0.706535688054E+03    0.26072E-04   -0.91699E-05  6944   0.108E-02    0.753E-02
DAV:  17    -0.706535708863E+03   -0.20809E-04   -0.82361E-05  6640   0.909E-03    0.738E-02
DAV:  18    -0.706535693247E+03    0.15616E-04   -0.68721E-05  6280   0.769E-03    0.612E-02
DAV:  19    -0.706535705409E+03   -0.12161E-04   -0.56376E-05  6192   0.635E-03    0.564E-02
DAV:  20    -0.706535695917E+03    0.94917E-05   -0.46555E-05  6080   0.556E-03
   7 F= -.70653570E+03 E0= -.70651784E+03  d E =-.488075E-01
       N       E                     dE             d eps       ncg     rms          rms(c)
DAV:   1    -0.706430785747E+03    0.10492E+00   -0.17538E+01 10432   0.718E+00    0.946E-01
DAV:   2    -0.706558591076E+03   -0.12781E+00   -0.13383E+00 13168   0.216E+00    0.897E-01
DAV:   3    -0.706566948524E+03   -0.83574E-02   -0.66662E-02 12072   0.626E-01    0.201E+00
DAV:   4    -0.706558102783E+03    0.88457E-02   -0.70086E-02 11832   0.358E-01    0.176E+00
DAV:   5    -0.706565836397E+03   -0.77336E-02   -0.70919E-02 11880   0.775E-01    0.225E+00
DAV:   6    -0.706553475867E+03    0.12361E-01   -0.47154E-02 12168   0.346E-01    0.155E+00
DAV:   7    -0.706562127570E+03   -0.86517E-02   -0.35921E-02 11656   0.266E-01    0.169E+00
DAV:   8    -0.706555015462E+03    0.71121E-02   -0.11338E-02 13032   0.259E-01    0.102E+00
DAV:   9    -0.706561138979E+03   -0.61235E-02   -0.93985E-03 11584   0.211E-01    0.124E+00
DAV:  10    -0.706556579453E+03    0.45595E-02   -0.82590E-03 11448   0.173E-01    0.751E-01
DAV:  11    -0.706559732988E+03   -0.31535E-02   -0.73378E-03 11368   0.169E-01    0.720E-01
DAV:  12    -0.706558616793E+03    0.11162E-02   -0.56822E-03 10376   0.108E-01    0.608E-01
DAV:  13    -0.706559023593E+03   -0.40680E-03   -0.49877E-03 10648   0.844E-02    0.378E-01
DAV:  14    -0.706559234802E+03   -0.21121E-03   -0.35401E-03 10312   0.807E-02    0.472E-01
DAV:  15    -0.706558839774E+03    0.39503E-03   -0.28458E-03  9008   0.490E-02    0.181E-01
DAV:  16    -0.706559259058E+03   -0.41928E-03   -0.20563E-03  8800   0.426E-02    0.375E-01
DAV:  17    -0.706558821060E+03    0.43800E-03   -0.15764E-03  8592   0.340E-02    0.723E-02
DAV:  18    -0.706559170211E+03   -0.34915E-03   -0.11001E-03  8256   0.250E-02    0.308E-01
DAV:  19    -0.706558838027E+03    0.33218E-03   -0.83315E-04  8016   0.224E-02    0.731E-02
DAV:  20    -0.706559077404E+03   -0.23938E-03   -0.55552E-04  7560   0.155E-02    0.259E-01
DAV:  21    -0.706558861888E+03    0.21552E-03   -0.42559E-04  7016   0.134E-02    0.110E-01
DAV:  22    -0.706559006634E+03   -0.14475E-03   -0.26579E-04  6376   0.978E-03    0.224E-01
DAV:  23    -0.706558881191E+03    0.12544E-03   -0.21070E-04  6208   0.788E-03    0.136E-01
DAV:  24    -0.706558960870E+03   -0.79679E-04   -0.12135E-04  5696   0.652E-03    0.200E-01
DAV:  25    -0.706558894118E+03    0.66751E-04   -0.10282E-04  5576   0.483E-03    0.149E-01
DAV:  26    -0.706558934777E+03   -0.40659E-04   -0.53342E-05  5488   0.455E-03    0.183E-01
DAV:  27    -0.706558901988E+03    0.32789E-04   -0.49434E-05  5480   0.303E-03    0.155E-01
DAV:  28    -0.706558921696E+03   -0.19708E-04   -0.23010E-05  5480   0.299E-03    0.172E-01
DAV:  29    -0.706558907290E+03    0.14405E-04   -0.21559E-05  5416   0.207E-03    0.157E-01
DAV:  30    -0.706558917610E+03   -0.10320E-04   -0.11580E-05  5352   0.188E-03    0.166E-01
DAV:  31    -0.706558911239E+03    0.63717E-05   -0.94002E-06  5352   0.150E-03
   8 F= -.70655891E+03 E0= -.70654090E+03  d E =-.232153E-01
       N       E                     dE             d eps       ncg     rms          rms(c)
DAV:   1    -0.706556690581E+03    0.22270E-02   -0.35160E-01 10452   0.102E+00    0.198E-01
DAV:   2    -0.706559859447E+03   -0.31689E-02   -0.27972E-02 13056   0.309E-01    0.611E-01
DAV:   3    -0.706559723620E+03    0.13583E-03   -0.80412E-03 11024   0.122E-01    0.722E-01
DAV:   4    -0.706559509550E+03    0.21407E-03   -0.75921E-03 10704   0.995E-02    0.670E-01
DAV:   5    -0.706559778852E+03   -0.26930E-03   -0.52247E-03  9952   0.106E-01    0.719E-01
DAV:   6    -0.706558815409E+03    0.96344E-03   -0.28920E-03  9576   0.964E-02    0.422E-01
DAV:   7    -0.706559818103E+03   -0.10027E-02   -0.12040E-03 10360   0.782E-02    0.584E-01
DAV:   8    -0.706558718582E+03    0.10995E-02   -0.66548E-04 10120   0.718E-02    0.258E-01
DAV:   9    -0.706559607570E+03   -0.88899E-03   -0.30647E-04 10040   0.624E-02    0.391E-01
DAV:  10    -0.706559006043E+03    0.60153E-03   -0.19734E-04  8736   0.486E-02    0.171E-01
DAV:  11    -0.706559467970E+03   -0.46193E-03   -0.26202E-04  8528   0.311E-02    0.255E-01
DAV:  12    -0.706559195781E+03    0.27219E-03   -0.23594E-04  8456   0.271E-02    0.120E-01
DAV:  13    -0.706559406055E+03   -0.21027E-03   -0.25053E-04  8288   0.193E-02    0.173E-01
DAV:  14    -0.706559277973E+03    0.12808E-03   -0.20953E-04  7936   0.161E-02    0.916E-02
DAV:  15    -0.706559378457E+03   -0.10048E-03   -0.17433E-04  7576   0.131E-02    0.126E-01
DAV:  16    -0.706559310122E+03    0.68335E-04   -0.13905E-04  6888   0.108E-02    0.758E-02
DAV:  17    -0.706559363819E+03   -0.53697E-04   -0.10597E-04  6472   0.864E-03    0.947E-02
DAV:  18    -0.706559326347E+03    0.37472E-04   -0.83254E-05  6216   0.729E-03    0.670E-02
DAV:  19    -0.706559356069E+03   -0.29723E-04   -0.60169E-05  6112   0.594E-03    0.746E-02
DAV:  20    -0.706559335557E+03    0.20513E-04   -0.48041E-05  5792   0.475E-03    0.625E-02
DAV:  21    -0.706559352041E+03   -0.16484E-04   -0.33233E-05  5736   0.411E-03    0.621E-02
DAV:  22    -0.706559341100E+03    0.10941E-04   -0.26896E-05  5432   0.330E-03    0.597E-02
DAV:  23    -0.706559350242E+03   -0.91428E-05   -0.17875E-05  5360   0.287E-03
   9 F= -.70655935E+03 E0= -.70654142E+03  d E =-.236543E-01
       N       E                     dE             d eps       ncg     rms          rms(c)
DAV:   1    -0.706450819217E+03    0.10852E+00   -0.12086E+01 10412   0.670E+00    0.965E-01
DAV:   2    -0.706575749581E+03   -0.12493E+00   -0.12920E+00 13320   0.188E+00    0.129E+00
DAV:   3    -0.706584030984E+03   -0.82814E-02   -0.14790E-01 12008   0.533E-01    0.233E+00
DAV:   4    -0.706572266241E+03    0.11765E-01   -0.12542E-01 11032   0.366E-01    0.196E+00
DAV:   5    -0.706580385052E+03   -0.81188E-02   -0.12088E-01 12376   0.499E-01    0.221E+00
DAV:   6    -0.706569071913E+03    0.11313E-01   -0.89541E-02 12056   0.366E-01    0.148E+00
DAV:   7    -0.706577959885E+03   -0.88880E-02   -0.46186E-02 11624   0.249E-01    0.170E+00
DAV:   8    -0.706569665580E+03    0.82943E-02   -0.32567E-02 12552   0.241E-01    0.887E-01
DAV:   9    -0.706576724304E+03   -0.70587E-02   -0.16147E-02 11032   0.212E-01    0.118E+00
DAV:  10    -0.706571694245E+03    0.50301E-02   -0.12734E-02 11152   0.175E-01    0.529E-01
DAV:  11    -0.706575534556E+03   -0.38403E-02   -0.70583E-03 10744   0.110E-01    0.752E-01
DAV:  12    -0.706573309344E+03    0.22252E-02   -0.57356E-03 10632   0.950E-02    0.356E-01
DAV:  13    -0.706574927192E+03   -0.16178E-02   -0.42200E-03 10032   0.621E-02    0.484E-01
DAV:  14    -0.706574009412E+03    0.91778E-03   -0.33810E-03  9472   0.506E-02    0.255E-01
DAV:  15    -0.706574659405E+03   -0.64999E-03   -0.23800E-03  8768   0.406E-02    0.321E-01
DAV:  16    -0.706574264124E+03    0.39528E-03   -0.18750E-03  8528   0.311E-02    0.203E-01
DAV:  17    -0.706574531240E+03   -0.26712E-03   -0.12651E-03  8176   0.251E-02    0.213E-01
DAV:  18    -0.706574378004E+03    0.15324E-03   -0.98386E-04  7912   0.203E-02    0.175E-01
DAV:  19    -0.706574476208E+03   -0.98204E-04   -0.63697E-04  7352   0.154E-02    0.143E-01
DAV:  20    -0.706574431648E+03    0.44560E-04   -0.49592E-04  6464   0.129E-02    0.157E-01
DAV:  21    -0.706574458574E+03   -0.26926E-04   -0.30788E-04  6280   0.960E-03    0.102E-01
DAV:  22    -0.706574459976E+03   -0.14022E-05   -0.24628E-04  5616   0.804E-03    0.145E-01
DAV:  23    -0.706574457980E+03    0.19963E-05   -0.14696E-04  5608   0.679E-03    0.802E-02
DAV:  24    -0.706574477588E+03   -0.19608E-04   -0.12171E-04  5480   0.554E-03    0.134E-01
DAV:  25    -0.706574465626E+03    0.11962E-04   -0.68913E-05  5480   0.518E-03    0.744E-02
DAV:  26    -0.706574489453E+03   -0.23827E-04   -0.59516E-05  5480   0.456E-03    0.126E-01
DAV:  27    -0.706574477202E+03    0.12251E-04   -0.31505E-05  5520   0.448E-03    0.810E-02
DAV:  28    -0.706574494883E+03   -0.17681E-04   -0.18298E-05  5472   0.445E-03    0.117E-01
DAV:  29    -0.706574478743E+03    0.16141E-04   -0.10936E-05  5368   0.266E-03    0.876E-02
DAV:  30    -0.706574492931E+03   -0.14188E-04   -0.75774E-06  5336   0.258E-03    0.112E-01
DAV:  31    -0.706574482303E+03    0.10628E-04   -0.43908E-06  5328   0.237E-03    0.928E-02
DAV:  32    -0.706574491636E+03   -0.93334E-05   -0.32527E-06  5416   0.368E-03
  10 F= -.70657449E+03 E0= -.70655657E+03  d E =-.151414E-01
       N       E                     dE             d eps       ncg     rms          rms(c)
DAV:   1    -0.706563679354E+03    0.10803E-01   -0.11480E+00 10424   0.207E+00    0.297E-01
DAV:   2    -0.706575609378E+03   -0.11930E-01   -0.12548E-01 13328   0.581E-01    0.472E-01
DAV:   3    -0.706576635872E+03   -0.10265E-02   -0.25006E-02 12048   0.165E-01    0.824E-01
DAV:   4    -0.706576107347E+03    0.52852E-03   -0.28811E-02 11120   0.114E-01    0.680E-01
DAV:   5    -0.706576724500E+03   -0.61715E-03   -0.29355E-02  9992   0.168E-01    0.861E-01
DAV:   6    -0.706575394581E+03    0.13299E-02   -0.18972E-02 10728   0.105E-01    0.451E-01
DAV:   7    -0.706576033150E+03   -0.63857E-03   -0.10075E-02 10504   0.904E-02    0.644E-01
DAV:   8    -0.706575075629E+03    0.95752E-03   -0.52290E-03 10624   0.933E-02    0.277E-01
DAV:   9    -0.706575636116E+03   -0.56049E-03   -0.14357E-03 10624   0.767E-02    0.416E-01
DAV:  10    -0.706575176329E+03    0.45979E-03   -0.68983E-04  8752   0.542E-02    0.220E-01
DAV:  11    -0.706575480641E+03   -0.30431E-03   -0.15101E-04  8488   0.365E-02    0.264E-01
DAV:  12    -0.706575310160E+03    0.17048E-03   -0.10691E-04  8536   0.352E-02    0.197E-01
DAV:  13    -0.706575426797E+03   -0.11664E-03   -0.20874E-04  8392   0.248E-02    0.175E-01
DAV:  14    -0.706575377675E+03    0.49122E-04   -0.22103E-04  8128   0.225E-02    0.174E-01
DAV:  15    -0.706575407944E+03   -0.30269E-04   -0.26810E-04  8048   0.184E-02    0.121E-01
DAV:  16    -0.706575402394E+03    0.55506E-05   -0.24191E-04  7776   0.155E-02    0.153E-01
DAV:  17    -0.706575398945E+03    0.34484E-05   -0.23169E-04  7600   0.137E-02    0.839E-02
DAV:  18    -0.706575410052E+03   -0.11106E-04   -0.18820E-04  6952   0.115E-02    0.133E-01
DAV:  19    -0.706575394261E+03    0.15791E-04   -0.16752E-04  6752   0.989E-03    0.575E-02
DAV:  20    -0.706575411303E+03   -0.17042E-04   -0.12872E-04  6376   0.873E-03    0.116E-01
DAV:  21    -0.706575392312E+03    0.18992E-04   -0.10834E-04  6240   0.722E-03    0.419E-02
DAV:  22    -0.706575409894E+03   -0.17582E-04   -0.81021E-05  5992   0.637E-03    0.103E-01
DAV:  23    -0.706575391744E+03    0.18150E-04   -0.66876E-05  5968   0.531E-03    0.360E-02
DAV:  24    -0.706575407483E+03   -0.15739E-04   -0.47918E-05  5672   0.471E-03    0.919E-02
DAV:  25    -0.706575391759E+03    0.15724E-04   -0.39415E-05  5664   0.395E-03    0.368E-02
DAV:  26    -0.706575404892E+03   -0.13133E-04   -0.26981E-05  5480   0.351E-03    0.831E-02
DAV:  27    -0.706575391899E+03    0.12993E-04   -0.22520E-05  5408   0.293E-03    0.401E-02
DAV:  28    -0.706575402395E+03   -0.10496E-04   -0.14442E-05  5256   0.264E-03    0.762E-02
DAV:  29    -0.706575391854E+03    0.10541E-04   -0.13100E-05  5256   0.220E-03    0.431E-02
DAV:  30    -0.706575399976E+03   -0.81221E-05   -0.75227E-06  5256   0.197E-03
  11 F= -.70657540E+03 E0= -.70655750E+03  d E =-.160497E-01
       N       E                     dE             d eps       ncg     rms          rms(c)
DAV:   1    -0.706490783699E+03    0.84608E-01   -0.11410E+01 10420   0.611E+00    0.851E-01
DAV:   2    -0.706587125671E+03   -0.96342E-01   -0.99248E-01 13744   0.172E+00    0.134E+00
DAV:   3    -0.706592522607E+03   -0.53969E-02   -0.14630E-01 12208   0.478E-01    0.212E+00
DAV:   4    -0.706585486219E+03    0.70364E-02   -0.13456E-01 10864   0.326E-01    0.184E+00
DAV:   5    -0.706591113785E+03   -0.56276E-02   -0.13979E-01 11552   0.514E-01    0.214E+00
DAV:   6    -0.706579058193E+03    0.12056E-01   -0.84449E-02 11608   0.314E-01    0.115E+00
DAV:   7    -0.706589259851E+03   -0.10202E-01   -0.40898E-02 11832   0.245E-01    0.167E+00
DAV:   8    -0.706579029840E+03    0.10230E-01   -0.27764E-02 10736   0.230E-01    0.730E-01
DAV:   9    -0.706587011477E+03   -0.79816E-02   -0.91697E-03 10768   0.210E-01    0.109E+00
DAV:  10    -0.706582101093E+03    0.49104E-02   -0.72697E-03 10520   0.142E-01    0.530E-01
DAV:  11    -0.706585763496E+03   -0.36624E-02   -0.67785E-03 10776   0.102E-01    0.678E-01
DAV:  12    -0.706583997013E+03    0.17665E-02   -0.58753E-03 10768   0.917E-02    0.410E-01
DAV:  13    -0.706585296974E+03   -0.13000E-02   -0.51703E-03 10448   0.617E-02    0.448E-01
DAV:  14    -0.706584605417E+03    0.69156E-03   -0.43051E-03  9096   0.536E-02    0.330E-01
DAV:  15    -0.706585076558E+03   -0.47114E-03   -0.32740E-03  8592   0.395E-02    0.303E-01
DAV:  16    -0.706584805871E+03    0.27069E-03   -0.27277E-03  8360   0.316E-02    0.287E-01
DAV:  17    -0.706584957562E+03   -0.15169E-03   -0.19395E-03  8088   0.272E-02    0.202E-01
DAV:  18    -0.706584885443E+03    0.72120E-04   -0.15676E-03  7808   0.210E-02    0.255E-01
DAV:  19    -0.706584905226E+03   -0.19783E-04   -0.10635E-03  7336   0.180E-02    0.139E-01
DAV:  20    -0.706584918458E+03   -0.13231E-04   -0.84509E-04  6720   0.148E-02    0.231E-01
DAV:  21    -0.706584890005E+03    0.28453E-04   -0.55193E-04  6504   0.117E-02    0.109E-01
DAV:  22    -0.706584933818E+03   -0.43813E-04   -0.43956E-04  5752   0.104E-02    0.213E-01
DAV:  23    -0.706584892243E+03    0.41574E-04   -0.28111E-04  5704   0.837E-03    0.105E-01
DAV:  24    -0.706584942396E+03   -0.50153E-04   -0.22591E-04  5488   0.694E-03    0.199E-01
DAV:  25    -0.706584901723E+03    0.40673E-04   -0.14327E-04  5464   0.647E-03    0.112E-01
DAV:  26    -0.706584947550E+03   -0.45827E-04   -0.11468E-04  5456   0.547E-03    0.188E-01
DAV:  27    -0.706584913620E+03    0.33930E-04   -0.73427E-05  5456   0.510E-03    0.121E-01
DAV:  28    -0.706584950691E+03   -0.37071E-04   -0.57689E-05  5464   0.470E-03    0.178E-01
DAV:  29    -0.706584925360E+03    0.25331E-04   -0.38290E-05  5456   0.421E-03    0.130E-01
DAV:  30    -0.706584951364E+03   -0.26004E-04   -0.28754E-05  5560   0.429E-03    0.170E-01
DAV:  31    -0.706584934387E+03    0.16977E-04   -0.21271E-05  5432   0.359E-03    0.139E-01
DAV:  32    -0.706584947350E+03   -0.12963E-04   -0.14221E-05  5568   0.415E-03    0.165E-01
DAV:  33    -0.706584937218E+03    0.10132E-04   -0.14177E-05  5344   0.324E-03    0.148E-01
DAV:  34    -0.706584934709E+03    0.25084E-05   -0.72080E-06  5872   0.450E-03
  12 F= -.70658493E+03 E0= -.70656702E+03  d E =-.953473E-02
       N       E                     dE             d eps       ncg     rms          rms(c)
DAV:   1    -0.706584847886E+03    0.89332E-04   -0.10159E-02 10460   0.182E-01    0.147E-01
DAV:   2    -0.706585547999E+03   -0.70011E-03   -0.91029E-03 13296   0.790E-02    0.623E-01
DAV:   3    -0.706585564013E+03   -0.16014E-04   -0.22119E-02 11136   0.700E-02    0.592E-01
DAV:   4    -0.706585470924E+03    0.93089E-04   -0.18313E-02  8952   0.598E-02    0.489E-01
DAV:   5    -0.706585591968E+03   -0.12104E-03   -0.17420E-02  8144   0.559E-02    0.573E-01
DAV:   6    -0.706585151907E+03    0.44006E-03   -0.11287E-02  8136   0.500E-02    0.293E-01
DAV:   7    -0.706585247219E+03   -0.95312E-04   -0.69970E-03  8080   0.432E-02    0.390E-01
DAV:   8    -0.706584978153E+03    0.26907E-03   -0.39216E-03  7976   0.335E-02    0.143E-01
DAV:   9    -0.706585069131E+03   -0.90977E-04   -0.22412E-03  7840   0.268E-02    0.266E-01
DAV:  10    -0.706584931495E+03    0.13764E-03   -0.11903E-03  7544   0.219E-02    0.658E-02
DAV:  11    -0.706584990352E+03   -0.58857E-04   -0.57874E-04  7192   0.159E-02    0.180E-01
DAV:  12    -0.706584928227E+03    0.62125E-04   -0.32482E-04  6592   0.125E-02    0.530E-02
DAV:  13    -0.706584959482E+03   -0.31254E-04   -0.13232E-04  6312   0.992E-03    0.124E-01
DAV:  14    -0.706584933672E+03    0.25810E-04   -0.76922E-05  6120   0.743E-03    0.557E-02
DAV:  15    -0.706584947751E+03   -0.14079E-04   -0.24259E-05  6040   0.622E-03    0.880E-02
DAV:  16    -0.706584938317E+03    0.94340E-05   -0.14087E-05  5864   0.466E-03
  13 F= -.70658494E+03 E0= -.70656695E+03  d E =-.953834E-02
       N       E                     dE             d eps       ncg     rms          rms(c)
DAV:   1    -0.706568947254E+03    0.16000E-01   -0.39243E+00 10536   0.314E+00    0.437E-01
DAV:   2    -0.706591131563E+03   -0.22184E-01   -0.21235E-01 14184   0.895E-01    0.121E+00
DAV:   3    -0.706589822221E+03    0.13093E-02   -0.42321E-02 11848   0.285E-01    0.133E+00
DAV:   4    -0.706590165352E+03   -0.34313E-03   -0.38077E-02 11016   0.212E-01    0.135E+00
DAV:   5    -0.706590988030E+03   -0.82268E-03   -0.44727E-02 11912   0.293E-01    0.153E+00
DAV:   6    -0.706585775403E+03    0.52126E-02   -0.29043E-02 13064   0.210E-01    0.811E-01
DAV:   7    -0.706591218408E+03   -0.54430E-02   -0.13563E-02 11696   0.175E-01    0.122E+00
DAV:   8    -0.706585878928E+03    0.53395E-02   -0.10278E-02 10504   0.129E-01    0.555E-01
DAV:   9    -0.706590037009E+03   -0.41581E-02   -0.23694E-03 11648   0.132E-01    0.802E-01
DAV:  10    -0.706587515741E+03    0.25213E-02   -0.18627E-03 10896   0.920E-02    0.385E-01
DAV:  11    -0.706589411825E+03   -0.18961E-02   -0.24044E-03  9984   0.718E-02    0.519E-01
DAV:  12    -0.706588372687E+03    0.10391E-02   -0.19654E-03  9424   0.625E-02    0.267E-01
DAV:  13    -0.706589152797E+03   -0.78011E-03   -0.18317E-03  8912   0.446E-02    0.348E-01
DAV:  14    -0.706588692415E+03    0.46038E-03   -0.14676E-03  8656   0.373E-02    0.190E-01
DAV:  15    -0.706589037111E+03   -0.34470E-03   -0.11383E-03  8424   0.283E-02    0.245E-01
DAV:  16    -0.706588803457E+03    0.23365E-03   -0.90992E-04  8224   0.243E-02    0.146E-01
DAV:  17    -0.706588973961E+03   -0.17050E-03   -0.65956E-04  7976   0.185E-02    0.176E-01
DAV:  18    -0.706588854152E+03    0.11981E-03   -0.52052E-04  7488   0.162E-02    0.123E-01
DAV:  19    -0.706588940003E+03   -0.85851E-04   -0.35812E-04  7016   0.121E-02    0.130E-01
DAV:  20    -0.706588880756E+03    0.59246E-04   -0.28339E-04  6448   0.103E-02    0.111E-01
DAV:  21    -0.706588923204E+03   -0.42448E-04   -0.18519E-04  6280   0.826E-03    0.101E-01
DAV:  22    -0.706588895776E+03    0.27428E-04   -0.14949E-04  5808   0.664E-03    0.104E-01
DAV:  23    -0.706588915885E+03   -0.20108E-04   -0.93490E-05  5728   0.564E-03    0.851E-02
DAV:  24    -0.706588905386E+03    0.10498E-04   -0.78513E-05  5432   0.455E-03    0.100E-01
DAV:  25    -0.706588913692E+03   -0.83059E-05   -0.46920E-05  5432   0.398E-03
  14 F= -.70658891E+03 E0= -.70657086E+03  d E =-.397538E-02
       N       E                     dE             d eps       ncg     rms          rms(c)
DAV:   1    -0.706588866396E+03    0.38990E-04   -0.10559E-02 10584   0.163E-01    0.108E-01
DAV:   2    -0.706589310050E+03   -0.44365E-03   -0.40108E-03 13600   0.660E-02    0.498E-01
DAV:   3    -0.706589151501E+03    0.15855E-03   -0.10108E-02 10552   0.603E-02    0.452E-01
DAV:   4    -0.706589225175E+03   -0.73674E-04   -0.88506E-03  8824   0.524E-02    0.434E-01
DAV:   5    -0.706589147944E+03    0.77231E-04   -0.68370E-03  8688   0.485E-02    0.398E-01
DAV:   6    -0.706588960586E+03    0.18736E-03   -0.39895E-03  8672   0.464E-02    0.263E-01
DAV:   7    -0.706589049016E+03   -0.88430E-04   -0.21757E-03  8624   0.373E-02    0.285E-01
DAV:   8    -0.706588885042E+03    0.16397E-03   -0.11302E-03  8464   0.317E-02    0.152E-01
DAV:   9    -0.706588988803E+03   -0.10376E-03   -0.50272E-04  8264   0.250E-02    0.196E-01
DAV:  10    -0.706588887738E+03    0.10107E-03   -0.23863E-04  8024   0.207E-02    0.941E-02
DAV:  11    -0.706588961191E+03   -0.73454E-04   -0.91368E-05  7864   0.174E-02    0.137E-01
DAV:  12    -0.706588904082E+03    0.57109E-04   -0.43902E-05  7496   0.132E-02    0.673E-02
DAV:  13    -0.706588947673E+03   -0.43591E-04   -0.16571E-05  7212   0.114E-02    0.964E-02
DAV:  14    -0.706588916884E+03    0.30789E-04   -0.87587E-06  6640   0.914E-03    0.521E-02
DAV:  15    -0.706588941213E+03   -0.24329E-04   -0.75837E-06  6392   0.753E-03    0.700E-02
DAV:  16    -0.706588924363E+03    0.16849E-04   -0.65098E-06  6144   0.630E-03    0.430E-02
DAV:  17    -0.706588937958E+03   -0.13594E-04   -0.80266E-06  6064   0.518E-03    0.524E-02
DAV:  18    -0.706588928453E+03    0.95047E-05   -0.74115E-06  5896   0.442E-03
  15 F= -.70658893E+03 E0= -.70657094E+03  d E =-.399014E-02
       N       E                     dE             d eps       ncg     rms          rms(c)
DAV:   1    -0.706584401285E+03    0.45367E-02   -0.15897E+00 10560   0.185E+00    0.209E-01
DAV:   2    -0.706590701584E+03   -0.63003E-02   -0.66039E-02 14304   0.546E-01    0.167E-01
DAV:   3    -0.706591099034E+03   -0.39745E-03   -0.75318E-03 12224   0.160E-01    0.429E-01
DAV:   4    -0.706591020714E+03    0.78320E-04   -0.93547E-03 14464   0.752E-02    0.352E-01
DAV:   5    -0.706591189462E+03   -0.16875E-03   -0.11296E-02 12744   0.222E-01    0.509E-01
DAV:   6    -0.706590918518E+03    0.27094E-03   -0.10679E-02 10584   0.776E-02    0.327E-01
DAV:   7    -0.706591011209E+03   -0.92690E-04   -0.78728E-03 10856   0.533E-02    0.393E-01
DAV:   8    -0.706590787978E+03    0.22323E-03   -0.49240E-03  8344   0.543E-02    0.205E-01
DAV:   9    -0.706590820364E+03   -0.32386E-04   -0.28006E-03  8056   0.501E-02    0.254E-01
DAV:  10    -0.706590719739E+03    0.10063E-03   -0.15370E-03  7984   0.292E-02    0.123E-01
DAV:  11    -0.706590728440E+03   -0.87011E-05   -0.67159E-04  7800   0.294E-02    0.145E-01
DAV:  12    -0.706590706534E+03    0.21906E-04   -0.36920E-04  7240   0.212E-02    0.895E-02
DAV:  13    -0.706590699743E+03    0.67907E-05   -0.12774E-04  7008   0.141E-02    0.794E-02
DAV:  14    -0.706590705007E+03   -0.52639E-05   -0.58555E-05  6480   0.150E-02
  16 F= -.70659071E+03 E0= -.70657264E+03  d E =-.177655E-02
       N       E                     dE             d eps       ncg     rms          rms(c)
DAV:   1    -0.706590667741E+03    0.32002E-04   -0.98178E-03 10616   0.146E-01    0.528E-02
DAV:   2    -0.706590843171E+03   -0.17543E-03   -0.76343E-04 12816   0.511E-02    0.290E-01
DAV:   3    -0.706590622021E+03    0.22115E-03   -0.80646E-04 10408   0.354E-02    0.209E-01
DAV:   4    -0.706590812766E+03   -0.19075E-03   -0.69266E-04  8560   0.326E-02    0.270E-01
DAV:   5    -0.706590642741E+03    0.17003E-03   -0.49010E-04  8456   0.287E-02    0.175E-01
DAV:   6    -0.706590749305E+03   -0.10656E-03   -0.22335E-04  8448   0.268E-02    0.185E-01
DAV:   7    -0.706590673737E+03    0.75568E-04   -0.10879E-04  8328   0.233E-02    0.113E-01
DAV:   8    -0.706590725763E+03   -0.52027E-04   -0.44048E-05  8024   0.212E-02    0.116E-01
DAV:   9    -0.706590694381E+03    0.31382E-04   -0.20534E-05  7632   0.139E-02    0.689E-02
DAV:  10    -0.706590718907E+03   -0.24526E-04   -0.14354E-05  7128   0.115E-02    0.757E-02
DAV:  11    -0.706590703402E+03    0.15505E-04   -0.11394E-05  6464   0.867E-03    0.428E-02
DAV:  12    -0.706590716329E+03   -0.12927E-04   -0.10360E-05  6240   0.653E-03    0.530E-02
DAV:  13    -0.706590707055E+03    0.92733E-05   -0.97810E-06  6104   0.538E-03
  17 F= -.70659071E+03 E0= -.70657271E+03  d E =-.177860E-02
       N       E                     dE             d eps       ncg     rms          rms(c)
DAV:   1    -0.706588021148E+03    0.26952E-02   -0.68440E-01 10748   0.134E+00    0.183E-01
DAV:   2    -0.706591975899E+03   -0.39548E-02   -0.37441E-02 15192   0.400E-01    0.590E-01
DAV:   3    -0.706591542784E+03    0.43312E-03   -0.55720E-03 11664   0.120E-01    0.618E-01
DAV:   4    -0.706591745862E+03   -0.20308E-03   -0.50145E-03 10456   0.974E-02    0.634E-01
DAV:   5    -0.706591885495E+03   -0.13963E-03   -0.44209E-03  8888   0.127E-01    0.740E-01
DAV:   6    -0.706590775827E+03    0.11097E-02   -0.14161E-03  9520   0.972E-02    0.413E-01
DAV:   7    -0.706591974218E+03   -0.11984E-02   -0.74041E-04  9688   0.812E-02    0.616E-01
DAV:   8    -0.706590722841E+03    0.12514E-02   -0.49399E-04 10368   0.714E-02    0.301E-01
DAV:   9    -0.706591712771E+03   -0.98993E-03   -0.41728E-04  9528   0.642E-02    0.420E-01
DAV:  10    -0.706591073779E+03    0.63899E-03   -0.33509E-04  8904   0.502E-02    0.211E-01
DAV:  11    -0.706591560031E+03   -0.48625E-03   -0.40066E-04  8728   0.398E-02    0.277E-01
DAV:  12    -0.706591278044E+03    0.28199E-03   -0.33284E-04  8496   0.342E-02    0.150E-01
DAV:  13    -0.706591489764E+03   -0.21172E-03   -0.34774E-04  8304   0.251E-02    0.184E-01
DAV:  14    -0.706591368370E+03    0.12139E-03   -0.28269E-04  8128   0.216E-02    0.107E-01
DAV:  15    -0.706591459362E+03   -0.90992E-04   -0.24988E-04  7880   0.162E-02    0.125E-01
DAV:  16    -0.706591402612E+03    0.56750E-04   -0.19902E-04  7384   0.134E-02    0.783E-02
DAV:  17    -0.706591444241E+03   -0.41630E-04   -0.15973E-04  6888   0.105E-02    0.859E-02
DAV:  18    -0.706591417035E+03    0.27206E-04   -0.12447E-04  6328   0.854E-03    0.611E-02
DAV:  19    -0.706591436299E+03   -0.19264E-04   -0.94065E-05  6176   0.671E-03    0.594E-02
DAV:  20    -0.706591423710E+03    0.12589E-04   -0.72576E-05  5864   0.562E-03    0.509E-02
DAV:  21    -0.706591432251E+03   -0.85407E-05   -0.52543E-05  5696   0.441E-03
  18 F= -.70659143E+03 E0= -.70657347E+03  d E =-.725195E-03
       N       E                     dE             d eps       ncg     rms          rms(c)
DAV:   1    -0.706591419610E+03    0.41001E-05   -0.17948E-03 10708   0.680E-02    0.419E-02
DAV:   2    -0.706591505229E+03   -0.85619E-04   -0.10133E-03 10192   0.269E-02    0.217E-01
DAV:   3    -0.706591478914E+03    0.26315E-04   -0.21841E-03  7032   0.232E-02    0.166E-01
DAV:   4    -0.706591508513E+03   -0.29599E-04   -0.20197E-03  7152   0.206E-02    0.194E-01
DAV:   5    -0.706591487554E+03    0.20960E-04   -0.20000E-03  6848   0.191E-02    0.164E-01
DAV:   6    -0.706591480248E+03    0.73060E-05   -0.15384E-03  6816   0.172E-02    0.146E-01
DAV:   7    -0.706591459363E+03    0.20885E-04   -0.10086E-03  6496   0.150E-02    0.104E-01
DAV:   8    -0.706591451644E+03    0.77189E-05   -0.60880E-04  5972   0.131E-02    0.892E-02
DAV:   9    -0.706591443254E+03    0.83894E-05   -0.38650E-04  5492   0.997E-03    0.656E-02
DAV:  10    -0.706591438919E+03    0.43356E-05   -0.21327E-04  5420   0.812E-03    0.492E-02
DAV:  11    -0.706591436625E+03    0.22939E-05   -0.12578E-04  5348   0.576E-03    0.399E-02
DAV:  12    -0.706591434540E+03    0.20853E-05   -0.67131E-05  5348   0.459E-03
  19 F= -.70659143E+03 E0= -.70657343E+03  d E =-.727484E-03
       N       E                     dE             d eps       ncg     rms          rms(c)
DAV:   1    -0.706589879477E+03    0.15571E-02   -0.31680E-01 10948   0.975E-01    0.104E-01
DAV:   2    -0.706591840530E+03   -0.19611E-02   -0.20388E-02 15528   0.278E-01    0.908E-02
DAV:   3    -0.706591929439E+03   -0.88909E-04   -0.11662E-03 12120   0.629E-02    0.222E-01
DAV:   4    -0.706591853965E+03    0.75474E-04   -0.11712E-03 10408   0.340E-02    0.194E-01
DAV:   5    -0.706591958799E+03   -0.10483E-03   -0.15030E-03  8416   0.808E-02    0.297E-01
DAV:   6    -0.706591762537E+03    0.19626E-03   -0.99936E-04  8872   0.347E-02    0.177E-01
DAV:   7    -0.706591896350E+03   -0.13381E-03   -0.42040E-04  8480   0.310E-02    0.231E-01
DAV:   8    -0.706591762311E+03    0.13404E-03   -0.22301E-04  8392   0.304E-02    0.132E-01
DAV:   9    -0.706591859376E+03   -0.97065E-04   -0.73200E-05  8232   0.269E-02    0.161E-01
DAV:  10    -0.706591792696E+03    0.66679E-04   -0.35002E-05  7952   0.194E-02    0.102E-01
DAV:  11    -0.706591839302E+03   -0.46606E-04   -0.34322E-05  7824   0.177E-02    0.105E-01
DAV:  12    -0.706591816443E+03    0.22859E-04   -0.30369E-05  7280   0.128E-02    0.817E-02
DAV:  13    -0.706591830369E+03   -0.13926E-04   -0.42150E-05  7008   0.110E-02    0.677E-02
DAV:  14    -0.706591826506E+03    0.38625E-05   -0.38851E-05  6408   0.940E-03
  20 F= -.70659183E+03 E0= -.70657387E+03  d E =-.391967E-03
