 vasp.6.4.2 20Jul23 (build Nov 12 2023 22:16:35) complex                         
 executed on              LinuxNV date 2025.05.09  19:50:43
 running    4 mpi-ranks, on    1 nodes
 distrk:  each k-point on    1 cores,    4 groups
 distr:  one band on NCORE=   1 cores,    1 groups
 OpenACC runtime initialized ...    4 GPUs detected


--------------------------------------------------------------------------------------------------------


 INCAR:
   PREC = Normal
   ENCUT = 450
   NELM = 500
   IBRION = 2
   ISPIN = 1
   NSW = 300
   ISIF = 2
   EDIFF = 1E-5
   EDIFFG = -2E-2
   ALGO = Normal
   ISTART = 0
   ICHARG = 2
   ISMEAR = 0
   SIGMA = 0.05
   LWAVE = .F.
   LCHARG = .F.
   LREAL = Auto
   LPLANE = .TRUE.
   NPAR = 4
   KPAR = 4
   NCORE = 1
   ISYM = 0
   NELECT = 1061

 POTCAR:    PAW_PBE Ga_d 06Jul2010                
 POTCAR:    PAW_PBE O 08Apr2002                   
 POTCAR:    PAW_PBE Cu_pv 06Sep2000               
 POTCAR:    PAW_PBE Ga_d 06Jul2010                
   SHA256 =  a60ddf36e14f00ea098d9e3914b3745f1b7105e68786148f49ae384e44b4226c Ga_d/POTCAR           
   COPYR  = (c) Copyright 06Jul2010 Georg Kresse                                                    
   COPYR  = This file is part of the software VASP. Any use, copying, and all other rights are regul
   COPYR  = If you do not have a valid VASP license, you may not use, copy or distribute this file. 
   VRHFIN =Ga: s2p1                                                                                 
   LEXCH  = PE                                                                                      
   EATOM  =  2148.8298 eV,  157.9345 Ry                                                             
                                                                                                    
   TITEL  = PAW_PBE Ga_d 06Jul2010                                                                  
   LULTRA =        F    use ultrasoft PP ?                                                          
   IUNSCR =        1    unscreen: 0-lin 1-nonlin 2-no                                               
   RPACOR =    1.700    partial core radius                                                         
   POMASS =   69.723; ZVAL   =   13.000    mass and valenz                                          
   RCORE  =    2.300    outmost cutoff radius                                                       
   RWIGS  =    2.300; RWIGS  =    1.217    wigner-seitz radius (au A)                               
   ENMAX  =  282.691; ENMIN  =  212.018 eV                                                          
   ICORE  =        3    local potential                                                             
   LCOR   =        T    correct aug charges                                                         
   LPAW   =        T    paw PP                                                                      
   EAUG   =  490.690                                                                                
   DEXC   =    0.000                                                                                
   RMAX   =    2.341    core radius for proj-oper                                                   
   RAUG   =    1.300    factor for augmentation sphere                                              
   RDEP   =    2.413    radius for radial grids                                                     
   RDEPT  =    1.856    core radius for aug-charge                                                  
                                                                                                    
   Atomic configuration                                                                             
    9 entries                                                                                       
     n  l   j            E        occ.                                                              
     1  0  0.50    -10228.7831   2.0000                                                             
     2  0  0.50     -1262.1604   2.0000                                                             
     2  1  1.50     -1098.6333   6.0000                                                             
     3  0  0.50      -148.1110   2.0000                                                             
     3  1  1.50       -98.8436   6.0000                                                             
     3  2  2.50       -19.1549  10.0000                                                             
     4  0  0.50        -8.9483   2.0000                                                             
     4  1  0.50        -2.5791   1.0000                                                             
     4  3  2.50        -2.7416   0.0000                                                             
   Description                                                                                      
     l       E           TYP  RCUT    TYP  RCUT                                                     
     2    -19.1549037     23  2.300                                                                 
     2     -5.4423304     23  2.300                                                                 
     0     -8.9483111     23  2.300                                                                 
     0     68.0291300     23  2.300                                                                 
     1     -2.5790802     23  2.100                                                                 
     1     81.6349560     23  2.300                                                                 
     3      6.8029130     23  2.300                                                                 
  local pseudopotential read in
  partial core-charges read in
  partial kinetic energy density read in
  atomic valenz-charges read in
  non local Contribution for L=            2  read in
    real space projection operators read in
  non local Contribution for L=            2  read in
    real space projection operators read in
  non local Contribution for L=            0  read in
    real space projection operators read in
  non local Contribution for L=            0  read in
    real space projection operators read in
  non local Contribution for L=            1  read in
    real space projection operators read in
  non local Contribution for L=            1  read in
    real space projection operators read in
    PAW grid and wavefunctions read in
 
   number of l-projection  operators is LMAX  =            6
   number of lm-projection operators is LMMAX =           18
 
 POTCAR:    PAW_PBE O 08Apr2002                   
   SHA256 =  818f92134a0a090dccd8ba1447fa70422a3b330e708bb4f08108d8ae51209ddf O/POTCAR              
   COPYR  = (c) Copyright 08Apr2002 Georg Kresse                                                    
   COPYR  = This file is part of the software VASP. Any use, copying, and all other rights are regul
   COPYR  = If you do not have a valid VASP license, you may not use, copy or distribute this file. 
   VRHFIN =O: s2p4                                                                                  
   LEXCH  = PE                                                                                      
   EATOM  =   432.3788 eV,   31.7789 Ry                                                             
                                                                                                    
   TITEL  = PAW_PBE O 08Apr2002                                                                     
   LULTRA =        F    use ultrasoft PP ?                                                          
   IUNSCR =        1    unscreen: 0-lin 1-nonlin 2-no                                               
   RPACOR =    1.200    partial core radius                                                         
   POMASS =   16.000; ZVAL   =    6.000    mass and valenz                                          
   RCORE  =    1.520    outmost cutoff radius                                                       
   RWIGS  =    1.550; RWIGS  =    0.820    wigner-seitz radius (au A)                               
   ENMAX  =  400.000; ENMIN  =  300.000 eV                                                          
   ICORE  =        2    local potential                                                             
   LCOR   =        T    correct aug charges                                                         
   LPAW   =        T    paw PP                                                                      
   EAUG   =  605.392                                                                                
   DEXC   =    0.000                                                                                
   RMAX   =    1.553    core radius for proj-oper                                                   
   RAUG   =    1.300    factor for augmentation sphere                                              
   RDEP   =    1.550    radius for radial grids                                                     
   RDEPT  =    1.329    core radius for aug-charge                                                  
                                                                                                    
   Atomic configuration                                                                             
    4 entries                                                                                       
     n  l   j            E        occ.                                                              
     1  0  0.50      -514.6923   2.0000                                                             
     2  0  0.50       -23.9615   2.0000                                                             
     2  1  0.50        -9.0305   4.0000                                                             
     3  2  1.50        -9.5241   0.0000                                                             
   Description                                                                                      
     l       E           TYP  RCUT    TYP  RCUT                                                     
     0    -23.9615318     23  1.200                                                                 
     0     -9.5240782     23  1.200                                                                 
     1     -9.0304911     23  1.520                                                                 
     1      8.1634956     23  1.520                                                                 
     2     -9.5240782      7  1.500                                                                 
  local pseudopotential read in
  partial core-charges read in
  partial kinetic energy density read in
  kinetic energy density of atom read in
  atomic valenz-charges read in
  non local Contribution for L=            0  read in
    real space projection operators read in
  non local Contribution for L=            0  read in
    real space projection operators read in
  non local Contribution for L=            1  read in
    real space projection operators read in
  non local Contribution for L=            1  read in
    real space projection operators read in
    PAW grid and wavefunctions read in
 
   number of l-projection  operators is LMAX  =            4
   number of lm-projection operators is LMMAX =            8
 
 POTCAR:    PAW_PBE Cu_pv 06Sep2000               
   SHA256 =  cb7b504e2ea725fe1f25c85a9ac77d4012ce94cd394135b722c4e25ec297f1cb Cu_pv/POTCAR          
   COPYR  = (c) Copyright 06Sep2000 Georg Kresse                                                    
   COPYR  = This file is part of the software VASP. Any use, copying, and all other rights are regul
   COPYR  = If you do not have a valid VASP license, you may not use, copy or distribute this file. 
   VRHFIN =Cu: d10 p1                                                                               
   LEXCH  = PE                                                                                      
   EATOM  =  4120.1201 eV,  302.8203 Ry                                                             
                                                                                                    
   TITEL  = PAW_PBE Cu_pv 06Sep2000                                                                 
   LULTRA =        F    use ultrasoft PP ?                                                          
   IUNSCR =        1    unscreen: 0-lin 1-nonlin 2-no                                               
   RPACOR =    1.500    partial core radius                                                         
   POMASS =   63.546; ZVAL   =   17.000    mass and valenz                                          
   RCORE  =    2.000    outmost cutoff radius                                                       
   RWIGS  =    2.000; RWIGS  =    1.058    wigner-seitz radius (au A)                               
   ENMAX  =  368.648; ENMIN  =  276.486 eV                                                          
   RCLOC  =    1.304    cutoff for local pot                                                        
   LCOR   =        T    correct aug charges                                                         
   LPAW   =        T    paw PP                                                                      
   EAUG   =  758.233                                                                                
   DEXC   =    0.000                                                                                
   RMAX   =    2.046    core radius for proj-oper                                                   
   RAUG   =    1.300    factor for augmentation sphere                                              
   RDEP   =    2.025    radius for radial grids                                                     
   RDEPT  =    1.558    core radius for aug-charge                                                  
                                                                                                    
   Atomic configuration                                                                             
    8 entries                                                                                       
     n  l   j            E        occ.                                                              
     1  0  0.50     -8850.2467   2.0000                                                             
     2  0  0.50     -1062.3498   2.0000                                                             
     2  1  1.50      -916.8226   6.0000                                                             
     3  0  0.50      -114.6929   2.0000                                                             
     3  1  1.50       -72.1325   6.0000                                                             
     3  2  2.50        -5.0394  10.0000                                                             
     4  0  0.50        -4.6097   1.0000                                                             
     4  3  2.50        -1.3606   0.0000                                                             
   Description                                                                                      
     l       E           TYP  RCUT    TYP  RCUT                                                     
     1    -72.1324777     23  1.700                                                                 
     1     -1.3605826     23  1.700                                                                 
     2     -5.0393776     23  2.000                                                                 
     2     -6.3999602     23  2.000                                                                 
     0     -4.6097062     23  1.800                                                                 
     0     14.1620818     23  1.800                                                                 
  local pseudopotential read in
  partial core-charges read in
  partial kinetic energy density read in
  atomic valenz-charges read in
  non local Contribution for L=            1  read in
    real space projection operators read in
  non local Contribution for L=            1  read in
    real space projection operators read in
  non local Contribution for L=            2  read in
    real space projection operators read in
  non local Contribution for L=            2  read in
    real space projection operators read in
  non local Contribution for L=            0  read in
    real space projection operators read in
  non local Contribution for L=            0  read in
    real space projection operators read in
    PAW grid and wavefunctions read in
 
   number of l-projection  operators is LMAX  =            6
   number of lm-projection operators is LMMAX =           18
 
 Optimization of the real space projectors (new method)

 maximal supplied QI-value         = 16.25
 optimisation between [QCUT,QGAM] = [ 10.73, 21.61] = [ 32.22,130.83] Ry 
 Optimized for a Real-space Cutoff    1.42 Angstroem

   l    n(q)    QCUT    max X(q) W(low)/X(q) W(high)/X(q)  e(spline) 
   2      8    10.726     7.143    0.22E-03    0.16E-03    0.73E-07
   2      8    10.726     5.586    0.40E-03    0.26E-03    0.10E-06
   0      9    10.726    12.382    0.25E-04    0.21E-05    0.37E-07
   0      9    10.726     6.622    0.42E-04    0.48E-05    0.77E-07
   1      9    10.726     7.935    0.27E-03    0.13E-04    0.16E-06
   1      9    10.726     2.425    0.23E-03    0.15E-04    0.14E-06
 Optimization of the real space projectors (new method)

 maximal supplied QI-value         = 24.76
 optimisation between [QCUT,QGAM] = [ 10.64, 21.54] = [ 31.73,129.89] Ry 
 Optimized for a Real-space Cutoff    1.23 Angstroem

   l    n(q)    QCUT    max X(q) W(low)/X(q) W(high)/X(q)  e(spline) 
   0      8    10.645    20.381    0.38E-03    0.60E-03    0.15E-06
   0      8    10.645    15.268    0.40E-03    0.65E-03    0.17E-06
   1      7    10.645     5.964    0.30E-03    0.63E-03    0.18E-06
   1      7    10.645     5.382    0.24E-03    0.53E-03    0.16E-06
 Optimization of the real space projectors (new method)

 maximal supplied QI-value         = 18.90
 optimisation between [QCUT,QGAM] = [ 10.77, 21.73] = [ 32.49,132.25] Ry 
 Optimized for a Real-space Cutoff    1.38 Angstroem

   l    n(q)    QCUT    max X(q) W(low)/X(q) W(high)/X(q)  e(spline) 
   1      8    10.771     3.172    0.49E-04    0.35E-04    0.14E-06
   1      8    10.771     4.083    0.10E-03    0.50E-04    0.27E-06
   2      8    10.771    65.342    0.42E-03    0.12E-03    0.42E-06
   2      8    10.771    61.381    0.42E-03    0.12E-03    0.43E-06
   0      9    10.771    65.742    0.56E-04    0.39E-05    0.90E-07
   0      9    10.771    30.431    0.51E-04    0.36E-05    0.83E-07
  PAW_PBE Ga_d 06Jul2010                :
 energy of atom  1       EATOM=-2148.8298
 kinetic energy error for atom=    0.0038 (will be added to EATOM!!)
  PAW_PBE O 08Apr2002                   :
 energy of atom  2       EATOM= -432.3788
 kinetic energy error for atom=    0.0389 (will be added to EATOM!!)
  PAW_PBE Cu_pv 06Sep2000               :
 energy of atom  3       EATOM=-4120.1201
 kinetic energy error for atom=    0.0898 (will be added to EATOM!!)
 
 
 POSCAR: Ga8 O12
  positions in direct lattice
  No initial velocities read in
 exchange correlation table for  LEXCH =        8
   RHO(1)=    0.500       N(1)  =     2000
   RHO(2)=  100.500       N(2)  =     4000
 


--------------------------------------------------------------------------------------------------------


 ion  position               nearest neighbor table
   1  0.659  0.000  0.157-  84 1.94  82 1.95  78 1.95  66 2.01  60 2.08  64 2.08
   2  0.659  0.000  0.657-  85 1.94  83 1.95  79 1.95  67 2.01  61 2.08  65 2.08
   3  0.659  0.333  0.157-  86 1.94  78 1.95  80 1.95  68 2.01  60 2.08  62 2.08
   4  0.659  0.333  0.657-  87 1.94  79 1.95  81 1.95  69 2.01  61 2.08  63 2.08
   5  0.659  0.667  0.157-  88 1.94  82 1.95  80 1.95  70 2.01  64 2.08  62 2.08
   6  0.659  0.667  0.657-  89 1.94  83 1.95  81 1.95  71 2.01  65 2.08  63 2.08
   7  0.841  0.167  0.843-  91 1.94  75 1.95  73 1.95  61 2.01  69 2.08  67 2.08
   8  0.841  0.500  0.343-  92 1.94  76 1.95  74 1.95  62 2.01  70 2.08  68 2.08
   9  0.841  0.500  0.843-  93 1.94  77 1.95  75 1.95  63 2.01  71 2.08  69 2.08
  10  0.841  0.833  0.343-  94 1.94  76 1.95  72 1.95  64 2.01  70 2.08  66 2.08
  11  0.841  0.833  0.843-  95 1.94  77 1.95  73 1.95  65 2.01  71 2.08  67 2.08
  12  0.590  0.167  0.397-  79 1.84  56 1.84  54 1.84  60 1.87
  13  0.590  0.167  0.897-  78 1.84  57 1.84  55 1.84  61 1.87
  14  0.590  0.500  0.397-  81 1.84  58 1.84  56 1.84  62 1.87
  15  0.590  0.500  0.897-  80 1.84  59 1.84  57 1.84  63 1.87
  16  0.590  0.833  0.397-  83 1.84  58 1.84  54 1.84  64 1.87
  17  0.590  0.833  0.897-  82 1.84  59 1.84  55 1.84  65 1.87
  18  0.910  0.000  0.103-  73 1.84  52 1.84  48 1.84  66 1.87
  19  0.910  0.000  0.603-  72 1.84  53 1.84  49 1.84  67 1.87
  20  0.910  0.333  0.103-  75 1.84  48 1.84  50 1.84  68 1.87
  21  0.910  0.333  0.603-  74 1.84  49 1.84  51 1.84  69 1.87
  22  0.910  0.667  0.103-  77 1.84  52 1.84  50 1.84  70 1.87
  23  0.910  0.667  0.603-  76 1.84  53 1.84  51 1.84  71 1.87
  24  0.159  0.167  0.157-  48 1.94 116 1.95 114 1.95 102 2.01  98 2.08  96 2.08
  25  0.159  0.167  0.657-  49 1.94 117 1.95 115 1.95 103 2.01  99 2.08  97 2.08
  26  0.159  0.500  0.157-  50 1.94 116 1.95 118 1.95 104 2.01 100 2.08  98 2.08
  27  0.159  0.500  0.657-  51 1.94 117 1.95 119 1.95 105 2.01 101 2.08  99 2.08
  28  0.159  0.833  0.157-  52 1.94 118 1.95 114 1.95 106 2.01 100 2.08  96 2.08
  29  0.159  0.833  0.657-  53 1.94 119 1.95 115 1.95 107 2.01 101 2.08  97 2.08
  30  0.341  0.000  0.343-  54 1.94 108 1.95 112 1.95  96 2.01 102 2.08 106 2.08
  31  0.341  0.000  0.843-  55 1.94 109 1.95 113 1.95  97 2.01 103 2.08 107 2.08
  32  0.341  0.333  0.343-  56 1.94 108 1.95 110 1.95  98 2.01 102 2.08 104 2.08
  33  0.341  0.333  0.843-  57 1.94 109 1.95 111 1.95  99 2.01 103 2.08 105 2.08
  34  0.341  0.667  0.343-  58 1.94 112 1.95 110 1.95 100 2.01 106 2.08 104 2.08
  35  0.341  0.667  0.843-  59 1.94 113 1.95 111 1.95 101 2.01 107 2.08 105 2.08
  36  0.090  0.000  0.397- 115 1.84  94 1.84  90 1.84  96 1.87
  37  0.090  0.000  0.897- 114 1.84  95 1.84  91 1.84  97 1.87
  38  0.090  0.333  0.397- 117 1.84  90 1.84  92 1.84  98 1.87
  39  0.090  0.333  0.897- 116 1.84  91 1.84  93 1.84  99 1.87
  40  0.090  0.667  0.397- 119 1.84  94 1.84  92 1.84 100 1.87
  41  0.090  0.667  0.897- 118 1.84  95 1.84  93 1.84 101 1.87
  42  0.410  0.167  0.103- 109 1.84  86 1.84  84 1.84 102 1.87
  43  0.410  0.167  0.603- 108 1.84  87 1.84  85 1.84 103 1.87
  44  0.410  0.500  0.103- 111 1.84  88 1.84  86 1.84 104 1.87
  45  0.410  0.500  0.603- 110 1.84  89 1.84  87 1.84 105 1.87
  46  0.410  0.833  0.103- 113 1.84  88 1.84  84 1.84 106 1.87
  47  0.410  0.833  0.603- 112 1.84  89 1.84  85 1.84 107 1.87
  48  0.996  0.167  0.128-  20 1.84  18 1.84  24 1.94
  49  0.996  0.167  0.628-  21 1.84  19 1.84  25 1.94
  50  0.996  0.500  0.128-  20 1.84  22 1.84  26 1.94
  51  0.996  0.500  0.628-  21 1.84  23 1.84  27 1.94
  52  0.996  0.833  0.128-  22 1.84  18 1.84  28 1.94
  53  0.996  0.833  0.628-  23 1.84  19 1.84  29 1.94
  54  0.504  0.000  0.372-  12 1.84  16 1.84  30 1.94
  55  0.504  0.000  0.872-  13 1.84  17 1.84  31 1.94
  56  0.504  0.333  0.372-  12 1.84  14 1.84  32 1.94
  57  0.504  0.333  0.872-  13 1.84  15 1.84  33 1.94
  58  0.504  0.667  0.372-  16 1.84  14 1.84  34 1.94
  59  0.504  0.667  0.872-  17 1.84  15 1.84  35 1.94
  60  0.673  0.167  0.282-  12 1.87 120 2.01   3 2.08   1 2.08
  61  0.673  0.167  0.782-  13 1.87   7 2.01   4 2.08   2 2.08
  62  0.673  0.500  0.282-  14 1.87   8 2.01   3 2.08   5 2.08
  63  0.673  0.500  0.782-  15 1.87   9 2.01   4 2.08   6 2.08
  64  0.673  0.833  0.282-  16 1.87  10 2.01   5 2.08   1 2.08
  65  0.673  0.833  0.782-  17 1.87  11 2.01   6 2.08   2 2.08
  66  0.827  0.000  0.218-  18 1.87   1 2.01  10 2.08 120 2.08
  67  0.827  0.000  0.718-  19 1.87   2 2.01  11 2.08   7 2.08
  68  0.827  0.333  0.218-  20 1.87   3 2.01 120 2.08   8 2.08
  69  0.827  0.333  0.718-  21 1.87   4 2.01   7 2.08   9 2.08
  70  0.827  0.667  0.218-  22 1.87   5 2.01  10 2.08   8 2.08
  71  0.827  0.667  0.718-  23 1.87   6 2.01  11 2.08   9 2.08
  72  0.835  0.000  0.445-  19 1.84  10 1.95 120 1.95
  73  0.835  0.000  0.945-  18 1.84  11 1.95   7 1.95
  74  0.835  0.333  0.445-  21 1.84 120 1.95   8 1.95
  75  0.835  0.333  0.945-  20 1.84   7 1.95   9 1.95
  76  0.835  0.667  0.445-  23 1.84  10 1.95   8 1.95
  77  0.835  0.667  0.945-  22 1.84  11 1.95   9 1.95
  78  0.665  0.167  0.055-  13 1.84   3 1.95   1 1.95
  79  0.665  0.167  0.555-  12 1.84   4 1.95   2 1.95
  80  0.665  0.500  0.055-  15 1.84   5 1.95   3 1.95
  81  0.665  0.500  0.555-  14 1.84   6 1.95   4 1.95
  82  0.665  0.833  0.055-  17 1.84   5 1.95   1 1.95
  83  0.665  0.833  0.555-  16 1.84   6 1.95   2 1.95
  84  0.496  0.000  0.128-  42 1.84  46 1.84   1 1.94
  85  0.496  0.000  0.628-  43 1.84  47 1.84   2 1.94
  86  0.496  0.333  0.128-  42 1.84  44 1.84   3 1.94
  87  0.496  0.333  0.628-  43 1.84  45 1.84   4 1.94
  88  0.496  0.667  0.128-  46 1.84  44 1.84   5 1.94
  89  0.496  0.667  0.628-  47 1.84  45 1.84   6 1.94
  90  0.004  0.167  0.372-  38 1.84  36 1.84 120 1.94
  91  0.004  0.167  0.872-  39 1.84  37 1.84   7 1.94
  92  0.004  0.500  0.372-  38 1.84  40 1.84   8 1.94
  93  0.004  0.500  0.872-  39 1.84  41 1.84   9 1.94
  94  0.004  0.833  0.372-  40 1.84  36 1.84  10 1.94
  95  0.004  0.833  0.872-  41 1.84  37 1.84  11 1.94
  96  0.173  0.000  0.282-  36 1.87  30 2.01  24 2.08  28 2.08
  97  0.173  0.000  0.782-  37 1.87  31 2.01  25 2.08  29 2.08
  98  0.173  0.333  0.282-  38 1.87  32 2.01  24 2.08  26 2.08
  99  0.173  0.333  0.782-  39 1.87  33 2.01  25 2.08  27 2.08
 100  0.173  0.667  0.282-  40 1.87  34 2.01  28 2.08  26 2.08
 101  0.173  0.667  0.782-  41 1.87  35 2.01  29 2.08  27 2.08
 102  0.327  0.167  0.218-  42 1.87  24 2.01  32 2.08  30 2.08
 103  0.327  0.167  0.718-  43 1.87  25 2.01  33 2.08  31 2.08
 104  0.327  0.500  0.218-  44 1.87  26 2.01  34 2.08  32 2.08
 105  0.327  0.500  0.718-  45 1.87  27 2.01  35 2.08  33 2.08
 106  0.327  0.833  0.218-  46 1.87  28 2.01  34 2.08  30 2.08
 107  0.327  0.833  0.718-  47 1.87  29 2.01  35 2.08  31 2.08
 108  0.335  0.167  0.445-  43 1.84  32 1.95  30 1.95
 109  0.335  0.167  0.945-  42 1.84  33 1.95  31 1.95
 110  0.335  0.500  0.445-  45 1.84  34 1.95  32 1.95
 111  0.335  0.500  0.945-  44 1.84  35 1.95  33 1.95
 112  0.335  0.833  0.445-  47 1.84  34 1.95  30 1.95
 113  0.335  0.833  0.945-  46 1.84  35 1.95  31 1.95
 114  0.165  0.000  0.055-  37 1.84  28 1.95  24 1.95
 115  0.165  0.000  0.555-  36 1.84  29 1.95  25 1.95
 116  0.165  0.333  0.055-  39 1.84  24 1.95  26 1.95
 117  0.165  0.333  0.555-  38 1.84  25 1.95  27 1.95
 118  0.165  0.667  0.055-  41 1.84  28 1.95  26 1.95
 119  0.165  0.667  0.555-  40 1.84  29 1.95  27 1.95
 120  0.841  0.167  0.343-  90 1.94  74 1.95  72 1.95  60 2.01  68 2.08  66 2.08
 

IMPORTANT INFORMATION: All symmetrisations will be switched off!
NOSYMM: (Re-)initialisation of all symmetry stuff for point group C_1.


----------------------------------------------------------------------------------------

                                     Primitive cell                                     

  volume of cell :    1268.8050

  direct lattice vectors                    reciprocal lattice vectors
     0.000000000 12.280473709  0.000000000     0.000000000  0.081430084 -0.019947422
     9.142701149  0.000000000  0.000000000     0.109376866 -0.000000000  0.000000000
     0.000000000 -2.768261641-11.300697481     0.000000000  0.000000000 -0.088490113

  length of vectors
    12.280473709  9.142701149 11.634819984     0.083837689  0.109376866  0.088490113

  position of ions in fractional coordinates (direct lattice)
     0.658838000  0.000000000  0.157365000
     0.658838000  0.000000000  0.657365000
     0.658838000  0.333333000  0.157365000
     0.658838000  0.333333000  0.657365000
     0.658838000  0.666667000  0.157365000
     0.658838000  0.666667000  0.657365000
     0.841162000  0.166667000  0.842635000
     0.841162000  0.500000000  0.342635000
     0.841162000  0.500000000  0.842635000
     0.841162000  0.833333000  0.342635000
     0.841162000  0.833333000  0.842635000
     0.590474000  0.166667000  0.397393000
     0.590474000  0.166667000  0.897393000
     0.590474000  0.500000000  0.397393000
     0.590474000  0.500000000  0.897393000
     0.590474000  0.833333000  0.397393000
     0.590474000  0.833333000  0.897393000
     0.909526000  0.000000000  0.102607000
     0.909526000  0.000000000  0.602607000
     0.909526000  0.333333000  0.102607000
     0.909526000  0.333333000  0.602607000
     0.909526000  0.666667000  0.102607000
     0.909526000  0.666667000  0.602607000
     0.158838000  0.166667000  0.157365000
     0.158838000  0.166667000  0.657365000
     0.158838000  0.500000000  0.157365000
     0.158838000  0.500000000  0.657365000
     0.158838000  0.833333000  0.157365000
     0.158838000  0.833333000  0.657365000
     0.341162000  0.000000000  0.342635000
     0.341162000  0.000000000  0.842635000
     0.341162000  0.333333000  0.342635000
     0.341162000  0.333333000  0.842635000
     0.341162000  0.666667000  0.342635000
     0.341162000  0.666667000  0.842635000
     0.090474000  0.000000000  0.397393000
     0.090474000  0.000000000  0.897393000
     0.090474000  0.333333000  0.397393000
     0.090474000  0.333333000  0.897393000
     0.090474000  0.666667000  0.397393000
     0.090474000  0.666667000  0.897393000
     0.409526000  0.166667000  0.102607000
     0.409526000  0.166667000  0.602607000
     0.409526000  0.500000000  0.102607000
     0.409526000  0.500000000  0.602607000
     0.409526000  0.833333000  0.102607000
     0.409526000  0.833333000  0.602607000
     0.996469000  0.166667000  0.128332000
     0.996469000  0.166667000  0.628332000
     0.996469000  0.500000000  0.128332000
     0.996469000  0.500000000  0.628332000
     0.996469000  0.833333000  0.128332000
     0.996469000  0.833333000  0.628332000
     0.503531000  0.000000000  0.371668000
     0.503531000  0.000000000  0.871668000
     0.503531000  0.333333000  0.371668000
     0.503531000  0.333333000  0.871668000
     0.503531000  0.666667000  0.371668000
     0.503531000  0.666667000  0.871668000
     0.673371000  0.166667000  0.281615000
     0.673371000  0.166667000  0.781615000
     0.673371000  0.500000000  0.281615000
     0.673371000  0.500000000  0.781615000
     0.673371000  0.833333000  0.281615000
     0.673371000  0.833333000  0.781615000
     0.826629000  0.000000000  0.218385000
     0.826629000  0.000000000  0.718385000
     0.826629000  0.333333000  0.218385000
     0.826629000  0.333333000  0.718385000
     0.826629000  0.666667000  0.218385000
     0.826629000  0.666667000  0.718385000
     0.835495000  0.000000000  0.445423000
     0.835495000  0.000000000  0.945423000
     0.835495000  0.333333000  0.445423000
     0.835495000  0.333333000  0.945423000
     0.835495000  0.666667000  0.445423000
     0.835495000  0.666667000  0.945423000
     0.664505000  0.166667000  0.054577000
     0.664505000  0.166667000  0.554577000
     0.664505000  0.500000000  0.054577000
     0.664505000  0.500000000  0.554577000
     0.664505000  0.833333000  0.054577000
     0.664505000  0.833333000  0.554577000
     0.496469000  0.000000000  0.128332000
     0.496469000  0.000000000  0.628332000
     0.496469000  0.333333000  0.128332000
     0.496469000  0.333333000  0.628332000
     0.496469000  0.666667000  0.128332000
     0.496469000  0.666667000  0.628332000
     0.003531000  0.166667000  0.371668000
     0.003531000  0.166667000  0.871668000
     0.003531000  0.500000000  0.371668000
     0.003531000  0.500000000  0.871668000
     0.003531000  0.833333000  0.371668000
     0.003531000  0.833333000  0.871668000
     0.173371000  0.000000000  0.281615000
     0.173371000  0.000000000  0.781615000
     0.173371000  0.333333000  0.281615000
     0.173371000  0.333333000  0.781615000
     0.173371000  0.666667000  0.281615000
     0.173371000  0.666667000  0.781615000
     0.326629000  0.166667000  0.218385000
     0.326629000  0.166667000  0.718385000
     0.326629000  0.500000000  0.218385000
     0.326629000  0.500000000  0.718385000
     0.326629000  0.833333000  0.218385000
     0.326629000  0.833333000  0.718385000
     0.335495000  0.166667000  0.445423000
     0.335495000  0.166667000  0.945423000
     0.335495000  0.500000000  0.445423000
     0.335495000  0.500000000  0.945423000
     0.335495000  0.833333000  0.445423000
     0.335495000  0.833333000  0.945423000
     0.164505000  0.000000000  0.054577000
     0.164505000  0.000000000  0.554577000
     0.164505000  0.333333000  0.054577000
     0.164505000  0.333333000  0.554577000
     0.164505000  0.666667000  0.054577000
     0.164505000  0.666667000  0.554577000
     0.841162000  0.166667000  0.342635000

  ion indices of the primitive-cell ions
   primitive index   ion index
                 1           1
                 2           2
                 3           3
                 4           4
                 5           5
                 6           6
                 7           7
                 8           8
                 9           9
                10          10
                11          11
                12          12
                13          13
                14          14
                15          15
                16          16
                17          17
                18          18
                19          19
                20          20
                21          21
                22          22
                23          23
                24          24
                25          25
                26          26
                27          27
                28          28
                29          29
                30          30
                31          31
                32          32
                33          33
                34          34
                35          35
                36          36
                37          37
                38          38
                39          39
                40          40
                41          41
                42          42
                43          43
                44          44
                45          45
                46          46
                47          47
                48          48
                49          49
                50          50
                51          51
                52          52
                53          53
                54          54
                55          55
                56          56
                57          57
                58          58
                59          59
                60          60
                61          61
                62          62
                63          63
                64          64
                65          65
                66          66
                67          67
                68          68
                69          69
                70          70
                71          71
                72          72
                73          73
                74          74
                75          75
                76          76
                77          77
                78          78
                79          79
                80          80
                81          81
                82          82
                83          83
                84          84
                85          85
                86          86
                87          87
                88          88
                89          89
                90          90
                91          91
                92          92
                93          93
                94          94
                95          95
                96          96
                97          97
                98          98
                99          99
               100         100
               101         101
               102         102
               103         103
               104         104
               105         105
               106         106
               107         107
               108         108
               109         109
               110         110
               111         111
               112         112
               113         113
               114         114
               115         115
               116         116
               117         117
               118         118
               119         119
               120         120

----------------------------------------------------------------------------------------

 
 
 KPOINTS: Automatic mesh                          

Automatic generation of k-mesh.
 Grid dimensions read from file:
 generate k-points for:    2    2    2

 Generating k-lattice:

  Cartesian coordinates                     Fractional coordinates (reciprocal lattice)
     0.000000000  0.040715042 -0.009973711     0.500000000  0.000000000 -0.000000000
     0.054688433 -0.000000000  0.000000000     0.000000000  0.500000000  0.000000000
     0.000000000  0.000000000 -0.044245057     0.000000000  0.000000000  0.500000000

  Length of vectors
     0.041918845  0.054688433  0.044245057

  Shift w.r.t. Gamma in fractional coordinates (k-lattice)
     0.000000000  0.000000000  0.000000000

 
 Subroutine IBZKPT returns following result:
 ===========================================
 
 Found      8 irreducible k-points:
 
 Following reciprocal coordinates:
            Coordinates               Weight
  0.000000  0.000000  0.000000      1.000000
  0.500000  0.000000  0.000000      1.000000
  0.000000  0.500000  0.000000      1.000000
  0.500000  0.500000  0.000000      1.000000
  0.000000  0.000000  0.500000      1.000000
  0.500000  0.000000  0.500000      1.000000
  0.000000  0.500000  0.500000      1.000000
  0.500000  0.500000  0.500000      1.000000
 
 Following cartesian coordinates:
            Coordinates               Weight
  0.000000  0.000000 -0.000000      1.000000
  0.000000  0.040715 -0.009974      1.000000
  0.054688  0.000000 -0.000000      1.000000
  0.054688  0.040715 -0.009974      1.000000
  0.000000  0.000000 -0.044245      1.000000
  0.000000  0.040715 -0.054219      1.000000
  0.054688  0.000000 -0.044245      1.000000
  0.054688  0.040715 -0.054219      1.000000
 


--------------------------------------------------------------------------------------------------------




 Dimension of arrays:
   k-points           NKPTS =      8   k-points in BZ     NKDIM =      8   number of bands    NBANDS=    636
   number of dos      NEDOS =    301   number of ions     NIONS =    120
   non local maximal  LDIM  =      6   non local SUM 2l+1 LMDIM =     18
   total plane-waves  NPLWV = 184320
   max r-space proj   IRMAX =   1800   max aug-charges    IRDMAX=   5704
   dimension x,y,z NGX =    64 NGY =   48 NGZ =   60
   dimension x,y,z NGXF=   128 NGYF=   96 NGZF=  120
   support grid    NGXF=   128 NGYF=   96 NGZF=  120
   ions per type =              47  72   1
   NGX,Y,Z   is equivalent  to a cutoff of   8.66,  8.73,  8.57 a.u.
   NGXF,Y,Z  is equivalent  to a cutoff of  17.33, 17.46, 17.15 a.u.

 SYSTEM =  unknown system                          
 POSCAR =  Ga8 O12                                 

 Startparameter for this run:
   NWRITE =      2    write-flag & timer
   PREC   = normal    normal or accurate (medium, high low for compatibility)
   ISTART =      0    job   : 0-new  1-cont  2-samecut
   ICHARG =      2    charge: 1-file 2-atom 10-const
   ISPIN  =      1    spin polarized calculation?
   LNONCOLLINEAR =      F non collinear calculations
   LSORBIT =      F    spin-orbit coupling
   INIWAV =      1    electr: 0-lowe 1-rand  2-diag
   LASPH  =      F    aspherical Exc in radial PAW
 Electronic Relaxation 1
   ENCUT  =  450.0 eV  33.07 Ry    5.75 a.u.  21.24 15.81 20.12*2*pi/ulx,y,z
   ENINI  =  450.0     initial cutoff
   ENAUG  =  758.2 eV  augmentation charge cutoff
   NELM   =    500;   NELMIN=  2; NELMDL= -5     # of ELM steps 
   EDIFF  = 0.1E-04   stopping-criterion for ELM
   LREAL  =      T    real-space projection
   NLSPLINE    = F    spline interpolate recip. space projectors
   LCOMPAT=      F    compatible to vasp.4.4
   GGA_COMPAT  = T    GGA compatible to vasp.4.4-vasp.4.6
   LMAXPAW     = -100 max onsite density
   LMAXMIX     =    2 max onsite mixed and CHGCAR
   VOSKOWN=      0    Vosko Wilk Nusair interpolation
   ROPT   =   -0.00050  -0.00050  -0.00050
 Ionic relaxation
   EDIFFG = -.2E-01   stopping-criterion for IOM
   NSW    =    300    number of steps for IOM
   NBLOCK =      1;   KBLOCK =    300    inner block; outer block 
   IBRION =      2    ionic relax: 0-MD 1-quasi-New 2-CG
   NFREE  =      1    steps in history (QN), initial steepest desc. (CG)
   ISIF   =      2    stress and relaxation
   IWAVPR =     11    prediction:  0-non 1-charg 2-wave 3-comb
   ISYM   =      0    0-nonsym 1-usesym 2-fastsym
   LCORR  =      T    Harris-Foulkes like correction to forces

   POTIM  = 0.5000    time-step for ionic-motion
   TEIN   =    0.0    initial temperature
   TEBEG  =    0.0;   TEEND  =   0.0 temperature during run
   SMASS  =  -3.00    Nose mass-parameter (am)
   estimated Nose-frequenzy (Omega)   =  0.10E-29 period in steps = 0.13E+47 mass=  -0.345E-26a.u.
   SCALEE = 1.0000    scale energy and forces
   NPACO  =    256;   APACO  = 10.0  distance and # of slots for P.C.
   PSTRESS=    0.0 pullay stress

  Mass of Ions in am
   POMASS =  69.72 16.00 63.55
  Ionic Valenz
   ZVAL   =  13.00  6.00 17.00
  Atomic Wigner-Seitz radii
   RWIGS  =  -1.00 -1.00 -1.00
  virtual crystal weights 
   VCA    =   1.00  1.00  1.00
   NELECT =    1061.0000    total number of electrons
   NUPDOWN=      -1.0000    fix difference up-down

 DOS related values:
   EMIN   =  10.00;   EMAX   =-10.00  energy-range for DOS
   EFERMI =   0.00;   METHOD = LEGACY      
   ISMEAR =     0;   SIGMA  =   0.05  broadening in eV -4-tet -1-fermi 0-gaus

 Electronic relaxation 2 (details)
   IALGO  =     38    algorithm
   LDIAG  =      T    sub-space diagonalisation (order eigenvalues)
   LSUBROT=      F    optimize rotation matrix (better conditioning)
   TURBO    =      0    0=normal 1=particle mesh
   IRESTART =      0    0=no restart 2=restart with 2 vectors
   NREBOOT  =      0    no. of reboots
   NMIN     =      0    reboot dimension
   EREF     =   0.00    reference energy to select bands
   IMIX   =      4    mixing-type and parameters
     AMIX     =   0.40;   BMIX     =  1.00
     AMIX_MAG =   1.60;   BMIX_MAG =  1.00
     AMIN     =   0.10
     WC   =   100.;   INIMIX=   1;  MIXPRE=   1;  MAXMIX= -45

 Intra band minimization:
   WEIMIN = 0.0010     energy-eigenvalue tresh-hold
   EBREAK =  0.39E-08  absolut break condition
   DEPER  =   0.30     relativ break condition  

   TIME   =   0.40     timestep for ELM

  volume/ion in A,a.u.               =      10.57        71.35
  Fermi-wavevector in a.u.,A,eV,Ry     =   1.542345  2.914610 32.365941  2.378830
  Thomas-Fermi vector in A             =   2.648163
 
 Write flags
   LWAVE        =      F    write WAVECAR
   LDOWNSAMPLE  =      F    k-point downsampling of WAVECAR
   LCHARG       =      F    write CHGCAR
   LVTOT        =      F    write LOCPOT, total local potential
   LVHAR        =      F    write LOCPOT, Hartree potential only
   LELF         =      F    write electronic localiz. function (ELF)
   LORBIT       =      0    0 simple, 1 ext, 2 COOP (PROOUT), +10 PAW based schemes


 Dipole corrections
   LMONO  =      F    monopole corrections only (constant potential shift)
   LDIPOL =      F    correct potential (dipole corrections)
   IDIPOL =      0    1-x, 2-y, 3-z, 4-all directions 
   EPSILON=  1.0000000 bulk dielectric constant

 Exchange correlation treatment:
   GGA     =    --    GGA type
   LEXCH   =     8    internal setting for exchange type
   LIBXC   =     F    Libxc                    
   VOSKOWN =     0    Vosko Wilk Nusair interpolation
   LHFCALC =     F    Hartree Fock is set to
   LHFONE  =     F    Hartree Fock one center treatment
   AEXX    =    0.0000 exact exchange contribution

 Linear response parameters
   LEPSILON=     F    determine dielectric tensor
   LRPA    =     F    only Hartree local field effects (RPA)
   LNABLA  =     F    use nabla operator in PAW spheres
   LVEL    =     F    velocity operator in full k-point grid
   CSHIFT  =0.1000    complex shift for real part using Kramers Kronig
   OMEGAMAX=  -1.0    maximum frequency
   DEG_THRESHOLD= 0.2000000E-02 threshold for treating states as degnerate
   RTIME   =   -0.100 relaxation time in fs
  (WPLASMAI=    0.000 imaginary part of plasma frequency in eV, 0.658/RTIME)
   DFIELD  = 0.0000000 0.0000000 0.0000000 field for delta impulse in time
 
  Optional k-point grid parameters
   LKPOINTS_OPT  =     F    use optional k-point grid
   KPOINTS_OPT_MODE=     1    mode for optional k-point grid
 
 Orbital magnetization related:
   ORBITALMAG=     F  switch on orbital magnetization
   LCHIMAG   =     F  perturbation theory with respect to B field
   DQ        =  0.001000  dq finite difference perturbation B field
   LLRAUG    =     F  two centre corrections for induced B field
   LBONE     =     F  B-component reconstruction in AE one-centre
   LVGVCALC  =     T  calculate vGv susceptibility
   LVGVAPPL  =     F  apply vGv susceptibility instead of pGv for G=0

 Random number generation:
   RANDOM_GENERATOR = DEFAULT
   PCG_SEED         = not used


--------------------------------------------------------------------------------------------------------


 conjugate gradient relaxation of ions
 charge density and potential will be updated during run
 non-spin polarized calculation
 Variant of blocked Davidson
 Davidson routine will perform the subspace rotation
 perform sub-space diagonalisation
    after iterative eigenvector-optimisation
 modified Broyden-mixing scheme, WC =      100.0
 initial mixing is a Kerker type mixing with AMIX =  0.4000 and BMIX =      1.0000
 Hartree-type preconditioning will be used
 using additional bands           105
 real space projection scheme for non local part
 use partial core corrections
 calculate Harris-corrections to forces 
   (improved forces if not selfconsistent)
 use gradient corrections 
 use of overlap-Matrix (Vanderbilt PP)
 Gauss-broadening in eV      SIGMA  =   0.05


--------------------------------------------------------------------------------------------------------


  energy-cutoff  :      450.00
  volume of cell :     1268.81
      direct lattice vectors                 reciprocal lattice vectors
     0.000000000 12.280473709  0.000000000     0.000000000  0.081430084 -0.019947422
     9.142701149  0.000000000  0.000000000     0.109376866 -0.000000000  0.000000000
     0.000000000 -2.768261641-11.300697481     0.000000000  0.000000000 -0.088490113

  length of vectors
    12.280473709  9.142701149 11.634819984     0.083837689  0.109376866  0.088490113


 
 k-points in units of 2pi/SCALE and weight: Automatic mesh                          
   0.00000000  0.00000000 -0.00000000       0.125
   0.00000000  0.04071504 -0.00997371       0.125
   0.05468843  0.00000000 -0.00000000       0.125
   0.05468843  0.04071504 -0.00997371       0.125
   0.00000000  0.00000000 -0.04424506       0.125
   0.00000000  0.04071504 -0.05421877       0.125
   0.05468843  0.00000000 -0.04424506       0.125
   0.05468843  0.04071504 -0.05421877       0.125
 
 k-points in reciprocal lattice and weights: Automatic mesh                          
   0.00000000  0.00000000  0.00000000       0.125
   0.50000000  0.00000000  0.00000000       0.125
   0.00000000  0.50000000  0.00000000       0.125
   0.50000000  0.50000000  0.00000000       0.125
   0.00000000  0.00000000  0.50000000       0.125
   0.50000000  0.00000000  0.50000000       0.125
   0.00000000  0.50000000  0.50000000       0.125
   0.50000000  0.50000000  0.50000000       0.125
 
 position of ions in fractional coordinates (direct lattice) 
   0.65883800  0.00000000  0.15736500
   0.65883800  0.00000000  0.65736500
   0.65883800  0.33333300  0.15736500
   0.65883800  0.33333300  0.65736500
   0.65883800  0.66666700  0.15736500
   0.65883800  0.66666700  0.65736500
   0.84116200  0.16666700  0.84263500
   0.84116200  0.50000000  0.34263500
   0.84116200  0.50000000  0.84263500
   0.84116200  0.83333300  0.34263500
   0.84116200  0.83333300  0.84263500
   0.59047400  0.16666700  0.39739300
   0.59047400  0.16666700  0.89739300
   0.59047400  0.50000000  0.39739300
   0.59047400  0.50000000  0.89739300
   0.59047400  0.83333300  0.39739300
   0.59047400  0.83333300  0.89739300
   0.90952600  0.00000000  0.10260700
   0.90952600  0.00000000  0.60260700
   0.90952600  0.33333300  0.10260700
   0.90952600  0.33333300  0.60260700
   0.90952600  0.66666700  0.10260700
   0.90952600  0.66666700  0.60260700
   0.15883800  0.16666700  0.15736500
   0.15883800  0.16666700  0.65736500
   0.15883800  0.50000000  0.15736500
   0.15883800  0.50000000  0.65736500
   0.15883800  0.83333300  0.15736500
   0.15883800  0.83333300  0.65736500
   0.34116200  0.00000000  0.34263500
   0.34116200  0.00000000  0.84263500
   0.34116200  0.33333300  0.34263500
   0.34116200  0.33333300  0.84263500
   0.34116200  0.66666700  0.34263500
   0.34116200  0.66666700  0.84263500
   0.09047400  0.00000000  0.39739300
   0.09047400  0.00000000  0.89739300
   0.09047400  0.33333300  0.39739300
   0.09047400  0.33333300  0.89739300
   0.09047400  0.66666700  0.39739300
   0.09047400  0.66666700  0.89739300
   0.40952600  0.16666700  0.10260700
   0.40952600  0.16666700  0.60260700
   0.40952600  0.50000000  0.10260700
   0.40952600  0.50000000  0.60260700
   0.40952600  0.83333300  0.10260700
   0.40952600  0.83333300  0.60260700
   0.99646900  0.16666700  0.12833200
   0.99646900  0.16666700  0.62833200
   0.99646900  0.50000000  0.12833200
   0.99646900  0.50000000  0.62833200
   0.99646900  0.83333300  0.12833200
   0.99646900  0.83333300  0.62833200
   0.50353100  0.00000000  0.37166800
   0.50353100  0.00000000  0.87166800
   0.50353100  0.33333300  0.37166800
   0.50353100  0.33333300  0.87166800
   0.50353100  0.66666700  0.37166800
   0.50353100  0.66666700  0.87166800
   0.67337100  0.16666700  0.28161500
   0.67337100  0.16666700  0.78161500
   0.67337100  0.50000000  0.28161500
   0.67337100  0.50000000  0.78161500
   0.67337100  0.83333300  0.28161500
   0.67337100  0.83333300  0.78161500
   0.82662900  0.00000000  0.21838500
   0.82662900  0.00000000  0.71838500
   0.82662900  0.33333300  0.21838500
   0.82662900  0.33333300  0.71838500
   0.82662900  0.66666700  0.21838500
   0.82662900  0.66666700  0.71838500
   0.83549500  0.00000000  0.44542300
   0.83549500  0.00000000  0.94542300
   0.83549500  0.33333300  0.44542300
   0.83549500  0.33333300  0.94542300
   0.83549500  0.66666700  0.44542300
   0.83549500  0.66666700  0.94542300
   0.66450500  0.16666700  0.05457700
   0.66450500  0.16666700  0.55457700
   0.66450500  0.50000000  0.05457700
   0.66450500  0.50000000  0.55457700
   0.66450500  0.83333300  0.05457700
   0.66450500  0.83333300  0.55457700
   0.49646900  0.00000000  0.12833200
   0.49646900  0.00000000  0.62833200
   0.49646900  0.33333300  0.12833200
   0.49646900  0.33333300  0.62833200
   0.49646900  0.66666700  0.12833200
   0.49646900  0.66666700  0.62833200
   0.00353100  0.16666700  0.37166800
   0.00353100  0.16666700  0.87166800
   0.00353100  0.50000000  0.37166800
   0.00353100  0.50000000  0.87166800
   0.00353100  0.83333300  0.37166800
   0.00353100  0.83333300  0.87166800
   0.17337100  0.00000000  0.28161500
   0.17337100  0.00000000  0.78161500
   0.17337100  0.33333300  0.28161500
   0.17337100  0.33333300  0.78161500
   0.17337100  0.66666700  0.28161500
   0.17337100  0.66666700  0.78161500
   0.32662900  0.16666700  0.21838500
   0.32662900  0.16666700  0.71838500
   0.32662900  0.50000000  0.21838500
   0.32662900  0.50000000  0.71838500
   0.32662900  0.83333300  0.21838500
   0.32662900  0.83333300  0.71838500
   0.33549500  0.16666700  0.44542300
   0.33549500  0.16666700  0.94542300
   0.33549500  0.50000000  0.44542300
   0.33549500  0.50000000  0.94542300
   0.33549500  0.83333300  0.44542300
   0.33549500  0.83333300  0.94542300
   0.16450500  0.00000000  0.05457700
   0.16450500  0.00000000  0.55457700
   0.16450500  0.33333300  0.05457700
   0.16450500  0.33333300  0.55457700
   0.16450500  0.66666700  0.05457700
   0.16450500  0.66666700  0.55457700
   0.84116200  0.16666700  0.34263500
 
 position of ions in cartesian coordinates  (Angst):
   0.00000000  7.65521524 -1.77833426
   0.00000000  6.27108442 -7.42868300
   3.04756400  7.65521524 -1.77833426
   3.04756400  6.27108442 -7.42868300
   6.09513715  7.65521524 -1.77833426
   6.09513715  6.27108442 -7.42868300
   1.52378657  7.99723368 -9.52236322
   4.57135057  9.38136450 -3.87201448
   4.57135057  7.99723368 -9.52236322
   7.61891458  9.38136450 -3.87201448
   7.61891458  7.99723368 -9.52236322
   1.52378657  6.15121263 -4.49081807
   1.52378657  4.76708181-10.14116681
   4.57135057  6.15121263 -4.49081807
   4.57135057  4.76708181-10.14116681
   7.61891458  6.15121263 -4.49081807
   7.61891458  4.76708181-10.14116681
   0.00000000 10.88536711 -1.15953067
   0.00000000  9.50123629 -6.80987941
   3.04756400 10.88536711 -1.15953067
   3.04756400  9.50123629 -6.80987941
   6.09513715 10.88536711 -1.15953067
   6.09513715  9.50123629 -6.80987941
   1.52378657  1.51497839 -1.77833426
   1.52378657  0.13084757 -7.42868300
   4.57135057  1.51497839 -1.77833426
   4.57135057  0.13084757 -7.42868300
   7.61891458  1.51497839 -1.77833426
   7.61891458  0.13084757 -7.42868300
   0.00000000  3.24112764 -3.87201448
   0.00000000  1.85699682 -9.52236322
   3.04756400  3.24112764 -3.87201448
   3.04756400  1.85699682 -9.52236322
   6.09513715  3.24112764 -3.87201448
   6.09513715  1.85699682 -9.52236322
   0.00000000  0.01097578 -4.49081807
   0.00000000 -1.37315504-10.14116681
   3.04756400  0.01097578 -4.49081807
   3.04756400 -1.37315504-10.14116681
   6.09513715  0.01097578 -4.49081807
   6.09513715 -1.37315504-10.14116681
   1.52378657  4.74513025 -1.15953067
   1.52378657  3.36099943 -6.80987941
   4.57135057  4.74513025 -1.15953067
   4.57135057  3.36099943 -6.80987941
   7.61891458  4.74513025 -1.15953067
   7.61891458  3.36099943 -6.80987941
   1.52378657 11.88185480 -1.45024111
   1.52378657 10.49772398 -7.10058985
   4.57135057 11.88185480 -1.45024111
   4.57135057 10.49772398 -7.10058985
   7.61891458 11.88185480 -1.45024111
   7.61891458 10.49772398 -7.10058985
   0.00000000  5.15472494 -4.20010763
   0.00000000  3.77059412 -9.85045637
   3.04756400  5.15472494 -4.20010763
   3.04756400  3.77059412 -9.85045637
   6.09513715  5.15472494 -4.20010763
   6.09513715  3.77059412 -9.85045637
   1.52378657  7.48973086 -3.18244592
   1.52378657  6.10560004 -8.83279466
   4.57135057  7.48973086 -3.18244592
   4.57135057  6.10560004 -8.83279466
   7.61891458  7.48973086 -3.18244592
   7.61891458  6.10560004 -8.83279466
   0.00000000  9.54684888 -2.46790282
   0.00000000  8.16271806 -8.11825156
   3.04756400  9.54684888 -2.46790282
   3.04756400  8.16271806 -8.11825156
   6.09513715  9.54684888 -2.46790282
   6.09513715  8.16271806 -8.11825156
   0.00000000  9.02722698 -5.03359057
   0.00000000  7.64309616-10.68393931
   3.04756400  9.02722698 -5.03359057
   3.04756400  7.64309616-10.68393931
   6.09513715  9.02722698 -5.03359057
   6.09513715  7.64309616-10.68393931
   1.52378657  8.00935277 -0.61675817
   1.52378657  6.62522195 -6.26710691
   4.57135057  8.00935277 -0.61675817
   4.57135057  6.62522195 -6.26710691
   7.61891458  8.00935277 -0.61675817
   7.61891458  6.62522195 -6.26710691
   0.00000000  5.74161795 -1.45024111
   0.00000000  4.35748713 -7.10058985
   3.04756400  5.74161795 -1.45024111
   3.04756400  4.35748713 -7.10058985
   6.09513715  5.74161795 -1.45024111
   6.09513715  4.35748713 -7.10058985
   1.52378657 -0.98551191 -4.20010763
   1.52378657 -2.36964274 -9.85045637
   4.57135057 -0.98551191 -4.20010763
   4.57135057 -2.36964274 -9.85045637
   7.61891458 -0.98551191 -4.20010763
   7.61891458 -2.36964274 -9.85045637
   0.00000000  1.34949401 -3.18244592
   0.00000000 -0.03463682 -8.83279466
   3.04756400  1.34949401 -3.18244592
   3.04756400 -0.03463682 -8.83279466
   6.09513715  1.34949401 -3.18244592
   6.09513715 -0.03463682 -8.83279466
   1.52378657  3.40661203 -2.46790282
   1.52378657  2.02248121 -8.11825156
   4.57135057  3.40661203 -2.46790282
   4.57135057  2.02248121 -8.11825156
   7.61891458  3.40661203 -2.46790282
   7.61891458  2.02248121 -8.11825156
   1.52378657  2.88699012 -5.03