       N       E                     dE             d eps       ncg     rms          ort
SDA:   1    -0.717103998712E+03   -0.71710E+03    0.00000E+00   633   0.499E+03 0.000E+00
CGA:   2    -0.875513347266E+03   -0.15841E+03   -0.15814E+03   633   0.266E+03 0.160E+01
CGA:   3    -0.931285122985E+03   -0.55772E+02   -0.55761E+02   633   0.476E+02 0.145E+01
CGA:   4    -0.947526749420E+03   -0.16242E+02   -0.16120E+02   633   0.197E+02 0.844E+00
CGA:   5    -0.952585332890E+03   -0.50586E+01   -0.50453E+01   633   0.616E+01 0.235E+00
CGA:   6    -0.954685024530E+03   -0.20997E+01   -0.20910E+01   633   0.243E+01 0.613E-01
CGA:   7    -0.955324005833E+03   -0.63898E+00   -0.63863E+00   633   0.685E+00 0.627E-02
CGA:   8    -0.955520741711E+03   -0.19674E+00   -0.19666E+00   633   0.207E+00 0.810E-03
CGA:   9    -0.955573859024E+03   -0.53117E-01   -0.53124E-01   633   0.630E-01-0.209E-03
CGA:  10    -0.955587553240E+03   -0.13694E-01   -0.13696E-01   633   0.143E-01 0.138E-03
CGA:  11    -0.955590747561E+03   -0.31943E-02   -0.31944E-02   633   0.394E-02 0.288E-04
CGA:  12    -0.955591829336E+03   -0.10818E-02   -0.10839E-02   633   0.117E-02-0.455E-04
CGA:  13    -0.955592095762E+03   -0.26643E-03   -0.26643E-03   633   0.415E-03-0.577E-05
CGA:  14    -0.955592187860E+03   -0.92098E-04   -0.92152E-04   633   0.149E-03 0.921E-05
CGA:  15    -0.955592222896E+03   -0.35036E-04   -0.35031E-04   633   0.535E-04 0.458E-05
CGA:  16    -0.955592236131E+03   -0.13236E-04   -0.13250E-04   633   0.258E-04-0.125E-05
CGA:  17    -0.955592241832E+03   -0.57012E-05   -0.56969E-05   633   0.112E-04-0.144E-05
   1 F= -.95559224E+03 E0= -.95557814E+03  d E =-.282095E-01
