Ga48 O72                                
    1.000000000000000     
     0.0000000000000000   12.2804734172212839    0.0000000000000000
     9.1427020537309431    0.0000000000000000    0.0000000000000000
     0.0000000000000000   -2.7682617730220320  -11.3006977184464645
   Ga   O    N 
    48    71     1
Direct
  0.6593896741185569 -0.0000000000000000  0.1566036847709514
  0.6591187576023871 -0.0000000000000000  0.6565701472636830
  0.6596390207451714  0.3335951618850806  0.1564390897607237
  0.6590581548991199  0.3333446869367829  0.6567137610972794
  0.6596390207451714  0.6664048381149192  0.1564390897607237
  0.6590581548991199  0.6666553130632168  0.6567137610972794
  0.8401849518755371  0.1668415446722089  0.3439678934102806
  0.8407604695986963  0.1667163160064173  0.8432900638902415
  0.8408584690011650  0.5000000000000000  0.3436405191396200
  0.8411850521392275  0.5000000000000000  0.8433600005345374
  0.8401849518755371  0.8331584553277910  0.3439678934102806
  0.8407604695986963  0.8332836839935827  0.8432900638902415
  0.5905268680097924  0.1664946656652384  0.3972619009606517
  0.5910272712511430  0.1667076688097329  0.8975807892985936
  0.5922983089788174  0.5000000000000000  0.3979333867269738
  0.5911325018873869  0.5000000000000000  0.8977023759028280
  0.5905268680097924  0.8335053343347617  0.3972619009606517
  0.5910272712511430  0.8332923311902670  0.8975807892985936
  0.9080768775248474 -0.0000000000000000  0.1024096520041618
  0.9087065822217640 -0.0000000000000000  0.6020583586704408
  0.9084415533675390  0.3335694516031857  0.1024298675724243
  0.9085440335082501  0.3334635231354788  0.6022891203278092
  0.9084415533675390  0.6664305483968145  0.1024298675724243
  0.9085440335082501  0.6665364768645211  0.6022891203278092
  0.1605956479929614  0.1647621326578340  0.1597484737172349
  0.1583236964420174  0.1664572042496766  0.6559684607863671
  0.1586894840692975  0.5000000000000000  0.1575091790237812
  0.1586508256466253  0.5000000000000000  0.6568943068852540
  0.1605956479929614  0.8352378673421660  0.1597484737172349
  0.1583236964420174  0.8335427957503235  0.6559684607863671
  0.3399476087293533 -0.0000000000000000  0.3411678771131312
  0.3405358800564415 -0.0000000000000000  0.8429212431008459
  0.3417805941580762  0.3341266024459911  0.3426889561022760
  0.3406263348230725  0.3335162465381975  0.8430630218852345
  0.3417805941580762  0.6658733975540088  0.3426889561022760
  0.3406263348230725  0.6664837534618023  0.8430630218852345
  0.0911984268076012 -0.0000000000000000  0.3946613910711825
  0.0903327953672388 -0.0000000000000000  0.8966599895896927
  0.0904287283929836  0.3330147991436823  0.3978245186443478
  0.0914479991879319  0.3329910475565899  0.8986915215835292
  0.0904287283929836  0.6669852008563175  0.3978245186443478
  0.0914479991879319  0.6670089524434101  0.8986915215835292
  0.4104228864484699  0.1673205440324212  0.1015155172053135
  0.4090999930358219  0.1666761896217104  0.6029104880064785
  0.4091709876897500  0.5000000000000000  0.1022950350102571
  0.4088671686381183  0.5000000000000000  0.6024051784731131
  0.4104228864484699  0.8326794559675789  0.1015155172053135
  0.4090999930358219  0.8333238103782900  0.6029104880064785
  0.9956843154136481  0.1666075815245299  0.1257178075845491
  0.9957981890852518  0.1668369971661136  0.6277804865959942
  0.9958780085981851  0.5000000000000000  0.1275313343129935
  0.9960809089174424  0.5000000000000000  0.6274716810126190
  0.9956843154136481  0.8333924184754697  0.1257178075845491
  0.9957981890852518  0.8331630028338863  0.6277804865959942
  0.5028046661493113 -0.0000000000000000  0.3722295305024395
  0.5034834084915828 -0.0000000000000000  0.8724830088193816
  0.5044559497522312  0.3339833759539146  0.3729997185996393
  0.5034734799504057  0.3333836022207453  0.8725766025271268
  0.5044559497522312  0.6660166240460850  0.3729997185996393
  0.5034734799504057  0.6666163977792546  0.8725766025271268
  0.6721275252902157  0.1666114459202662  0.2801735706788843
  0.6724211871182290  0.1666827516787397  0.7803671361859548
  0.6728196171452324  0.5000000000000000  0.2801167937059005
  0.6725185371547030  0.5000000000000000  0.7805403198677660
  0.6721275252902157  0.8333885540797338  0.2801735706788843
  0.6724211871182290  0.8333172483212600  0.7803671361859548
  0.8272763628702426 -0.0000000000000000  0.2199349822310732
  0.8272889223453130 -0.0000000000000000  0.7194805960670426
  0.8273640062637525  0.3332778539899939  0.2197906130135231
  0.8273240674291470  0.3333858435319697  0.7196883073445214
  0.8273640062637525  0.6667221460100061  0.2197906130135231
  0.8273240674291470  0.6666141564680307  0.7196883073445214
  0.8304893769288952 -0.0000000000000000  0.4460390671362711
  0.8316799838845890 -0.0000000000000000  0.9456057985667362
  0.8306879273297336  0.3337883737657171  0.4460845990891038
  0.8319172201128359  0.3333903789401099  0.9456993653205409
  0.8306879273297336  0.6662116262342831  0.4460845990891038
  0.8319172201128359  0.6666096210598901  0.9456993653205409
  0.6682780555416911  0.1666578864289981  0.0540046654558152
  0.6671955443676669  0.1665825645426035  0.5540451193367236
  0.6690977933604644  0.5000000000000000  0.0538524968702176
  0.6681009519520956  0.5000000000000000  0.5547373781117103
  0.6682780555416911  0.8333421135710019  0.0540046654558152
  0.6671955443676669  0.8334174354573963  0.5540451193367236
  0.4969985959801499 -0.0000000000000000  0.1263574451197929
  0.4964305607050845 -0.0000000000000000  0.6280861664581757
  0.4975054389098869  0.3341984966434628  0.1261178579447113
  0.4964316115296115  0.3333533471769752  0.6280243798899490
  0.4975054389098869  0.6658015033565373  0.1261178579447113
  0.4964316115296115  0.6666466528230252  0.6280243798899490
  0.0018702487988441  0.1673497138914349  0.3744903262418850
  0.0032398430826655  0.1668046851965730  0.8727509080511597
  0.0031079659065885  0.5000000000000000  0.3733340006330586
  0.0040616712942729  0.5000000000000000  0.8733945562243313
  0.0018702487988441  0.8326502861085651  0.3744903262418850
  0.0032398430826655  0.8331953148034268  0.8727509080511597
  0.1721678639102362 -0.0000000000000000  0.7799870974847469
  0.1728667476334548  0.3354664009395387  0.2816815928791969
  0.1723154600546556  0.3330925833047321  0.7807772807902220
  0.1728667476334548  0.6645335990604614  0.2816815928791969
  0.1723154600546556  0.6669074166952680  0.7807772807902220
  0.3308377947999414  0.1711459983105869  0.2189906221027736
  0.3270284844095082  0.1664903544613602  0.7192417961431945
  0.3278297526584825  0.5000000000000000  0.2192483515784874
  0.3272753578856295  0.5000000000000000  0.7195541105702616
  0.3308377947999414  0.8288540016894131  0.2189906221027736
  0.3270284844095082  0.8335096455386395  0.7192417961431945
  0.3339675950332205  0.1674838700026141  0.4458504500984138
  0.3323925740597958  0.1667608594532732  0.9453782667570317
  0.3332952669047025  0.5000000000000000  0.4458747798292018
  0.3316741951464455  0.5000000000000000  0.9458361213183600
  0.3339675950332205  0.8325161299973857  0.4458504500984138
  0.3323925740597958  0.8332391405467268  0.9453782667570317
  0.1703587629997615 -0.0000000000000000  0.0519656826665189
  0.1658128202529516 -0.0000000000000000  0.5536387493553044
  0.1671347250047699  0.3322498263652281  0.0557395211823214
  0.1677273889358568  0.3334568310976367  0.5544208330520835
  0.1671347250047699  0.6677501736347722  0.0557395211823214
  0.1677273889358568  0.6665431689023632  0.5544208330520835
  0.1734020807917691 -0.0000000000000000  0.2783570840489475
 
  0.00000000E+00  0.00000000E+00  0.00000000E+00
  0.00000000E+00  0.00000000E+00  0.00000000E+00
  0.00000000E+00  0.00000000E+00  0.00000000E+00
  0.00000000E+00  0.00000000E+00  0.00000000E+00
  0.00000000E+00  0.00000000E+00  0.00000000E+00
  0.00000000E+00  0.00000000E+00  0.00000000E+00
  0.00000000E+00  0.00000000E+00  0.00000000E+00
  0.00000000E+00  0.00000000E+00  0.00000000E+00
  0.00000000E+00  0.00000000E+00  0.00000000E+00
  0.00000000E+00  0.00000000E+00  0.00000000E+00
  0.00000000E+00  0.00000000E+00  0.00000000E+00
  0.00000000E+00  0.00000000E+00  0.00000000E+00
  0.00000000E+00  0.00000000E+00  0.00000000E+00
  0.00000000E+00  0.00000000E+00  0.00000000E+00
  0.00000000E+00  0.00000000E+00  0.00000000E+00
  0.00000000E+00  0.00000000E+00  0.00000000E+00
  0.00000000E+00  0.00000000E+00  0.00000000E+00
  0.00000000E+00  0.00000000E+00  0.00000000E+00
  0.00000000E+00  0.00000000E+00  0.00000000E+00
  0.00000000E+00  0.00000000E+00  0.00000000E+00
  0.00000000E+00  0.00000000E+00  0.00000000E+00
  0.00000000E+00  0.00000000E+00  0.00000000E+00
  0.00000000E+00  0.00000000E+00  0.00000000E+00
  0.00000000E+00  0.00000000E+00  0.00000000E+00
  0.00000000E+00  0.00000000E+00  0.00000000E+00
  0.00000000E+00  0.00000000E+00  0.00000000E+00
  0.00000000E+00  0.00000000E+00  0.00000000E+00
  0.00000000E+00  0.00000000E+00  0.00000000E+00
  0.00000000E+00  0.00000000E+00  0.00000000E+00
  0.00000000E+00  0.00000000E+00  0.00000000E+00
  0.00000000E+00  0.00000000E+00  0.00000000E+00
  0.00000000E+00  0.00000000E+00  0.00000000E+00
  0.00000000E+00  0.00000000E+00  0.00000000E+00
  0.00000000E+00  0.00000000E+00  0.00000000E+00
  0.00000000E+00  0.00000000E+00  0.00000000E+00
  0.00000000E+00  0.00000000E+00  0.00000000E+00
  0.00000000E+00  0.00000000E+00  0.00000000E+00
  0.00000000E+00  0.00000000E+00  0.00000000E+00
  0.00000000E+00  0.00000000E+00  0.00000000E+00
  0.00000000E+00  0.00000000E+00  0.00000000E+00
  0.00000000E+00  0.00000000E+00  0.00000000E+00
  0.00000000E+00  0.00000000E+00  0.00000000E+00
  0.00000000E+00  0.00000000E+00  0.00000000E+00
  0.00000000E+00  0.00000000E+00  0.00000000E+00
  0.00000000E+00  0.00000000E+00  0.00000000E+00
  0.00000000E+00  0.00000000E+00  0.00000000E+00
  0.00000000E+00  0.00000000E+00  0.00000000E+00
  0.00000000E+00  0.00000000E+00  0.00000000E+00
  0.00000000E+00  0.00000000E+00  0.00000000E+00
  0.00000000E+00  0.00000000E+00  0.00000000E+00
  0.00000000E+00  0.00000000E+00  0.00000000E+00
  0.00000000E+00  0.00000000E+00  0.00000000E+00
  0.00000000E+00  0.00000000E+00  0.00000000E+00
  0.00000000E+00  0.00000000E+00  0.00000000E+00
  0.00000000E+00  0.00000000E+00  0.00000000E+00
  0.00000000E+00  0.00000000E+00  0.00000000E+00
  0.00000000E+00  0.00000000E+00  0.00000000E+00
  0.00000000E+00  0.00000000E+00  0.00000000E+00
  0.00000000E+00  0.00000000E+00  0.00000000E+00
  0.00000000E+00  0.00000000E+00  0.00000000E+00
  0.00000000E+00  0.00000000E+00  0.00000000E+00
  0.00000000E+00  0.00000000E+00  0.00000000E+00
  0.00000000E+00  0.00000000E+00  0.00000000E+00
  0.00000000E+00  0.00000000E+00  0.00000000E+00
  0.00000000E+00  0.00000000E+00  0.00000000E+00
  0.00000000E+00  0.00000000E+00  0.00000000E+00
  0.00000000E+00  0.00000000E+00  0.00000000E+00
  0.00000000E+00  0.00000000E+00  0.00000000E+00
  0.00000000E+00  0.00000000E+00  0.00000000E+00
  0.00000000E+00  0.00000000E+00  0.00000000E+00
  0.00000000E+00  0.00000000E+00  0.00000000E+00
  0.00000000E+00  0.00000000E+00  0.00000000E+00
  0.00000000E+00  0.00000000E+00  0.00000000E+00
  0.00000000E+00  0.00000000E+00  0.00000000E+00
  0.00000000E+00  0.00000000E+00  0.00000000E+00
  0.00000000E+00  0.00000000E+00  0.00000000E+00
  0.00000000E+00  0.00000000E+00  0.00000000E+00
  0.00000000E+00  0.00000000E+00  0.00000000E+00
  0.00000000E+00  0.00000000E+00  0.00000000E+00
  0.00000000E+00  0.00000000E+00  0.00000000E+00
  0.00000000E+00  0.00000000E+00  0.00000000E+00
  0.00000000E+00  0.00000000E+00  0.00000000E+00
  0.00000000E+00  0.00000000E+00  0.00000000E+00
  0.00000000E+00  0.00000000E+00  0.00000000E+00
  0.00000000E+00  0.00000000E+00  0.00000000E+00
  0.00000000E+00  0.00000000E+00  0.00000000E+00
  0.00000000E+00  0.00000000E+00  0.00000000E+00
  0.00000000E+00  0.00000000E+00  0.00000000E+00
  0.00000000E+00  0.00000000E+00  0.00000000E+00
  0.00000000E+00  0.00000000E+00  0.00000000E+00
  0.00000000E+00  0.00000000E+00  0.00000000E+00
  0.00000000E+00  0.00000000E+00  0.00000000E+00
  0.00000000E+00  0.00000000E+00  0.00000000E+00
  0.00000000E+00  0.00000000E+00  0.00000000E+00
  0.00000000E+00  0.00000000E+00  0.00000000E+00
  0.00000000E+00  0.00000000E+00  0.00000000E+00
  0.00000000E+00  0.00000000E+00  0.00000000E+00
  0.00000000E+00  0.00000000E+00  0.00000000E+00
  0.00000000E+00  0.00000000E+00  0.00000000E+00
  0.00000000E+00  0.00000000E+00  0.00000000E+00
  0.00000000E+00  0.00000000E+00  0.00000000E+00
  0.00000000E+00  0.00000000E+00  0.00000000E+00
  0.00000000E+00  0.00000000E+00  0.00000000E+00
  0.00000000E+00  0.00000000E+00  0.00000000E+00
  0.00000000E+00  0.00000000E+00  0.00000000E+00
  0.00000000E+00  0.00000000E+00  0.00000000E+00
  0.00000000E+00  0.00000000E+00  0.00000000E+00
  0.00000000E+00  0.00000000E+00  0.00000000E+00
  0.00000000E+00  0.00000000E+00  0.00000000E+00
  0.00000000E+00  0.00000000E+00  0.00000000E+00
  0.00000000E+00  0.00000000E+00  0.00000000E+00
  0.00000000E+00  0.00000000E+00  0.00000000E+00
  0.00000000E+00  0.00000000E+00  0.00000000E+00
  0.00000000E+00  0.00000000E+00  0.00000000E+00
  0.00000000E+00  0.00000000E+00  0.00000000E+00
  0.00000000E+00  0.00000000E+00  0.00000000E+00
  0.00000000E+00  0.00000000E+00  0.00000000E+00
  0.00000000E+00  0.00000000E+00  0.00000000E+00
  0.00000000E+00  0.00000000E+00  0.00000000E+00
  0.00000000E+00  0.00000000E+00  0.00000000E+00
