       N       E                     dE             d eps       ncg     rms          rms(c)
DAV:   1     0.220183109927E+05    0.22018E+05   -0.32724E+05 10176   0.281E+03
DAV:   2     0.488558313251E+04   -0.17133E+05   -0.16133E+05 10176   0.821E+02
DAV:   3    -0.139278499192E+03   -0.50249E+04   -0.47268E+04 13032   0.322E+02
DAV:   4    -0.779174973712E+03   -0.63990E+03   -0.62587E+03 12584   0.122E+02
DAV:   5    -0.824634031338E+03   -0.45459E+02   -0.45057E+02 14608   0.351E+01    0.812E+01
RMM:   6    -0.780504393983E+03    0.44130E+02   -0.84125E+02 13674   0.330E+01    0.152E+02
RMM:   7    -0.755623749382E+03    0.24881E+02   -0.11853E+02 15866   0.118E+01    0.106E+02
RMM:   8    -0.707150054478E+03    0.48474E+02   -0.11344E+02 11072   0.135E+01    0.224E+01
RMM:   9    -0.706274490901E+03    0.87556E+00   -0.14099E+01 13334   0.354E+00    0.277E+01
RMM:  10    -0.707369357093E+03   -0.10949E+01   -0.85692E+00 11878   0.420E+00    0.154E+01
RMM:  11    -0.707374359360E+03   -0.50023E-02   -0.67108E+00 13237   0.276E+00    0.140E+01
RMM:  12    -0.707158836299E+03    0.21552E+00   -0.12188E+00 14021   0.148E+00    0.180E+01
RMM:  13    -0.705228181808E+03    0.19307E+01   -0.19140E+00 13750   0.175E+00    0.969E+00
RMM:  14    -0.705207871493E+03    0.20310E-01   -0.34469E-01 15365   0.697E-01    0.944E+00
RMM:  15    -0.705180656188E+03    0.27215E-01   -0.75779E-02 15300   0.316E-01    0.833E+00
RMM:  16    -0.705162629777E+03    0.18026E-01   -0.34903E-02 13728   0.191E-01    0.788E+00
RMM:  17    -0.705010903525E+03    0.15173E+00   -0.20551E-01 14380   0.561E-01    0.416E+00
RMM:  18    -0.704999732414E+03    0.11171E-01   -0.95119E-02 14215   0.328E-01    0.390E+00
RMM:  19    -0.704961614305E+03    0.38118E-01   -0.78215E-02 14590   0.326E-01    0.163E+00
RMM:  20    -0.704963481273E+03   -0.18670E-02   -0.31456E-02 14402   0.223E-01    0.128E+00
RMM:  21    -0.704961987728E+03    0.14935E-02   -0.13523E-02 15886   0.142E-01    0.615E-01
RMM:  22    -0.704969373456E+03   -0.73857E-02   -0.11567E-02 14015   0.107E-01    0.167E+00
RMM:  23    -0.704963200086E+03    0.61734E-02   -0.24719E-03 14615   0.670E-02    0.683E-01
RMM:  24    -0.704963486037E+03   -0.28595E-03   -0.98269E-04 13193   0.464E-02    0.863E-01
RMM:  25    -0.704964709821E+03   -0.12238E-02   -0.21289E-03 13330   0.510E-02    0.112E+00
RMM:  26    -0.704962440442E+03    0.22694E-02   -0.10742E-03 14015   0.600E-02    0.614E-01
RMM:  27    -0.704962671313E+03   -0.23087E-03   -0.69174E-04 12852   0.478E-02    0.429E-01
RMM:  28    -0.704962096072E+03    0.57524E-03   -0.31616E-04 12109   0.311E-02    0.251E-01
RMM:  29    -0.704962161898E+03   -0.65826E-04   -0.14331E-04 11501   0.211E-02    0.219E-01
RMM:  30    -0.704962041472E+03    0.12043E-03   -0.60694E-05  9844   0.139E-02    0.131E-01
RMM:  31    -0.704962035051E+03    0.64215E-05   -0.38268E-05  9606   0.102E-02    0.106E-01
RMM:  32    -0.704962016621E+03    0.18430E-04   -0.22411E-05  9933   0.732E-03    0.764E-02
RMM:  33    -0.704962007510E+03    0.91118E-05   -0.14125E-05  9286   0.612E-03    0.467E-02
RMM:  34    -0.704962006086E+03    0.14234E-05   -0.70860E-06  8324   0.411E-03    0.362E-02
RMM:  35    -0.704962002978E+03    0.31082E-05   -0.33224E-06  6829   0.301E-03    0.190E-02
RMM:  36    -0.704962003279E+03   -0.30111E-06   -0.13566E-06  6103   0.192E-03
   1 F= -.70496200E+03 E0= -.70493848E+03  d E =-.704962E+03
       N       E                     dE             d eps       ncg     rms          rms(c)
DAV:   1    -0.696609388227E+03    0.83526E+01   -0.36425E+02 11168   0.497E+01    0.148E+01
RMM:   2    -0.707626202945E+03   -0.11017E+02   -0.98890E+01 14385   0.157E+01    0.264E+01
RMM:   3    -0.705394554829E+03    0.22316E+01   -0.19009E+01 12996   0.643E+00    0.712E+00
RMM:   4    -0.705442438324E+03   -0.47883E-01   -0.32761E+00 15459   0.205E+00    0.640E+00
RMM:   5    -0.705577084919E+03   -0.13465E+00   -0.65687E-01 14293   0.108E+00    0.625E+00
RMM:   6    -0.705366412101E+03    0.21067E+00   -0.21734E-01 13856   0.510E-01    0.454E+00
RMM:   7    -0.705290434519E+03    0.75978E-01   -0.11110E-01 13933   0.319E-01    0.293E+00
RMM:   8    -0.705268874057E+03    0.21560E-01   -0.55123E-02 13494   0.257E-01    0.130E+00
RMM:   9    -0.705277182364E+03   -0.83083E-02   -0.27977E-02 13767   0.217E-01    0.113E+00
RMM:  10    -0.705277557925E+03   -0.37556E-03   -0.10733E-02 15093   0.144E-01    0.107E+00
RMM:  11    -0.705276781800E+03    0.77612E-03   -0.43999E-03 12868   0.104E-01    0.601E-01
RMM:  12    -0.705277119958E+03   -0.33816E-03   -0.22097E-03 12987   0.683E-02    0.704E-01
RMM:  13    -0.705275699381E+03    0.14206E-02   -0.16267E-03 12862   0.621E-02    0.418E-01
RMM:  14    -0.705275967064E+03   -0.26768E-03   -0.80129E-04 14601   0.462E-02    0.374E-01
RMM:  15    -0.705275661072E+03    0.30599E-03   -0.35977E-04 12249   0.309E-02    0.289E-01
RMM:  16    -0.705275584768E+03    0.76304E-04   -0.22800E-04 12189   0.266E-02    0.201E-01
RMM:  17    -0.705275538640E+03    0.46127E-04   -0.11479E-04 10364   0.180E-02    0.162E-01
RMM:  18    -0.705275521986E+03    0.16654E-04   -0.61515E-05 10017   0.136E-02    0.137E-01
RMM:  19    -0.705275482303E+03    0.39682E-04   -0.38827E-05  9590   0.107E-02    0.890E-02
RMM:  20    -0.705275493246E+03   -0.10942E-04   -0.21825E-05  9153   0.806E-03    0.961E-02
RMM:  21    -0.705275462705E+03    0.30541E-04   -0.14201E-05  8582   0.658E-03    0.482E-02
RMM:  22    -0.705275475737E+03   -0.13033E-04   -0.83464E-06  7762   0.497E-03    0.659E-02
RMM:  23    -0.705275457834E+03    0.17903E-04   -0.48935E-06  7069   0.383E-03    0.247E-02
RMM:  24    -0.705275466706E+03   -0.88722E-05   -0.27849E-06  6588   0.296E-03    0.447E-02
RMM:  25    -0.705275457378E+03    0.93285E-05   -0.14628E-06  6147   0.210E-03    0.113E-02
RMM:  26    -0.705275462599E+03   -0.52208E-05   -0.81755E-07  5839   0.165E-03    0.308E-02
RMM:  27    -0.705275457908E+03    0.46902E-05   -0.40551E-07  4938   0.116E-03    0.595E-03
RMM:  28    -0.705275460805E+03   -0.28968E-05   -0.23229E-07  4304   0.918E-04    0.221E-02
RMM:  29    -0.705275458480E+03    0.23255E-05   -0.11652E-07  3811   0.658E-04    0.646E-03
RMM:  30    -0.705275460044E+03   -0.15645E-05   -0.69966E-08  3586   0.550E-04    0.169E-02
RMM:  31    -0.705275458878E+03    0.11664E-05   -0.36653E-08  3368   0.408E-04    0.784E-03
RMM:  32    -0.705275459714E+03   -0.83647E-06   -0.22682E-08  3209   0.373E-04
   2 F= -.70527546E+03 E0= -.70525517E+03  d E =-.313456E+00
       N       E                     dE             d eps       ncg     rms          rms(c)
DAV:   1    -0.704228541040E+03    0.10469E+01   -0.49000E+01 11296   0.200E+01    0.465E+00
RMM:   2    -0.706022414458E+03   -0.17939E+01   -0.13474E+01 14463   0.528E+00    0.978E+00
RMM:   3    -0.705458544006E+03    0.56387E+00   -0.15946E+00 13545   0.193E+00    0.197E+00
RMM:   4    -0.705473186692E+03   -0.14643E-01   -0.28465E-01 14892   0.715E-01    0.266E+00
RMM:   5    -0.705457212779E+03    0.15974E-01   -0.59347E-02 15115   0.274E-01    0.132E+00
RMM:   6    -0.705456246202E+03    0.96658E-03   -0.18212E-02 14532   0.153E-01    0.136E+00
RMM:   7    -0.705451917821E+03    0.43284E-02   -0.69757E-03 14078   0.102E-01    0.120E+00
RMM:   8    -0.705444713406E+03    0.72044E-02   -0.79403E-03 12937   0.101E-01    0.688E-01
RMM:   9    -0.705443040021E+03    0.16734E-02   -0.11292E-02 13490   0.113E-01    0.677E-01
RMM:  10    -0.705441694347E+03    0.13457E-02   -0.33247E-03 15141   0.779E-02    0.500E-01
RMM:  11    -0.705441816089E+03   -0.12174E-03   -0.97111E-04 12714   0.469E-02    0.385E-01
RMM:  12    -0.705441821631E+03   -0.55425E-05   -0.51061E-04 12544   0.296E-02    0.363E-01
RMM:  13    -0.705441758489E+03    0.63142E-04   -0.31800E-04 12574   0.257E-02    0.209E-01
RMM:  14    -0.705441864944E+03   -0.10646E-03   -0.15563E-04 11168   0.216E-02    0.185E-01
RMM:  15    -0.705441819323E+03    0.45621E-04   -0.70000E-05 10025   0.123E-02    0.117E-01
RMM:  16    -0.705441800932E+03    0.18391E-04   -0.46824E-05 10035   0.112E-02    0.456E-02
RMM:  17    -0.705441822456E+03   -0.21523E-04   -0.17551E-05  9137   0.677E-03    0.711E-02
RMM:  18    -0.705441801744E+03    0.20712E-04   -0.90727E-06  8162   0.470E-03    0.278E-02
RMM:  19    -0.705441812065E+03   -0.10321E-04   -0.49626E-06  7281   0.352E-03    0.451E-02
RMM:  20    -0.705441802695E+03    0.93701E-05   -0.23700E-06  6529   0.247E-03    0.113E-02
RMM:  21    -0.705441808058E+03   -0.53635E-05   -0.12249E-06  6198   0.188E-03    0.306E-02
RMM:  22    -0.705441803569E+03    0.44888E-05   -0.56073E-07  5317   0.130E-03    0.573E-03
RMM:  23    -0.705441806356E+03   -0.27868E-05   -0.31129E-07  4900   0.100E-03    0.215E-02
RMM:  24    -0.705441804276E+03    0.20796E-05   -0.15711E-07  4050   0.715E-04    0.628E-03
RMM:  25    -0.705441805673E+03   -0.13967E-05   -0.10348E-07  3695   0.611E-04    0.157E-02
RMM:  26    -0.705441804736E+03    0.93718E-06   -0.48032E-08  3356   0.459E-04
   3 F= -.70544180E+03 E0= -.70541964E+03  d E =-.479801E+00
       N       E                     dE             d eps       ncg     rms          rms(c)
DAV:   1    -0.704635900904E+03    0.80590E+00   -0.42176E+01 10880   0.170E+01    0.344E+00
RMM:   2    -0.705562414338E+03   -0.92651E+00   -0.86537E+00 14026   0.424E+00    0.577E+00
RMM:   3    -0.705638039876E+03   -0.75626E-01   -0.10838E+00 15268   0.137E+00    0.490E+00
RMM:   4    -0.705542838318E+03    0.95202E-01   -0.22016E-01 13780   0.663E-01    0.173E+00
RMM:   5    -0.705546147817E+03   -0.33095E-02   -0.58226E-02 15171   0.243E-01    0.193E+00
RMM:   6    -0.705533300251E+03    0.12848E-01   -0.13393E-02 13661   0.162E-01    0.109E+00
RMM:   7    -0.705535839124E+03   -0.25389E-02   -0.53586E-03 14120   0.946E-02    0.126E+00
RMM:   8    -0.705530171790E+03    0.56673E-02   -0.36160E-03 12577   0.743E-02    0.814E-01
RMM:   9    -0.705528552825E+03    0.16190E-02   -0.94951E-03 13835   0.119E-01    0.625E-01
RMM:  10    -0.705528047026E+03    0.50580E-03   -0.35426E-03 13908   0.786E-02    0.544E-01
RMM:  11    -0.705527897456E+03    0.14957E-03   -0.90668E-04 14210   0.510E-02    0.411E-01
RMM:  12    -0.705527484403E+03    0.41305E-03   -0.60249E-04 12732   0.364E-02    0.259E-01
RMM:  13    -0.705527438002E+03    0.46402E-04   -0.20316E-04 11633   0.235E-02    0.203E-01
RMM:  14    -0.705527360650E+03    0.77351E-04   -0.10284E-04 10346   0.168E-02    0.148E-01
RMM:  15    -0.705527340857E+03    0.19793E-04   -0.56264E-05  9814   0.125E-02    0.116E-01
RMM:  16    -0.705527322433E+03    0.18425E-04   -0.28776E-05  9021   0.932E-03    0.878E-02
RMM:  17    -0.705527309522E+03    0.12910E-04   -0.18142E-05  8975   0.709E-03    0.605E-02
RMM:  18    -0.705527310570E+03   -0.10476E-05   -0.89900E-06  8041   0.512E-03    0.569E-02
RMM:  19    -0.705527300576E+03    0.99944E-05   -0.52003E-06  7220   0.378E-03    0.327E-02
RMM:  20    -0.705527304777E+03   -0.42013E-05   -0.25325E-06  6578   0.275E-03    0.391E-02
RMM:  21    -0.705527298687E+03    0.60899E-05   -0.13961E-06  6074   0.206E-03    0.180E-02
RMM:  22    -0.705527302719E+03   -0.40321E-05   -0.65045E-07  5278   0.138E-03    0.308E-02
RMM:  23    -0.705527298458E+03    0.42608E-05   -0.46383E-07  5211   0.129E-03    0.129E-02
RMM:  24    -0.705527301618E+03   -0.31594E-05   -0.21226E-07  4276   0.864E-04    0.275E-02
RMM:  25    -0.705527298566E+03    0.30514E-05   -0.19077E-07  5079   0.893E-04    0.156E-02
RMM:  26    -0.705527300747E+03   -0.21807E-05   -0.96896E-08  3683   0.639E-04    0.263E-02
RMM:  27    -0.705527298691E+03    0.20566E-05   -0.89099E-08  4646   0.646E-04    0.186E-02
RMM:  28    -0.705527300144E+03   -0.14532E-05   -0.47617E-08  3399   0.504E-04    0.254E-02
RMM:  29    -0.705527298840E+03    0.13035E-05   -0.36957E-08  4272   0.486E-04    0.199E-02
RMM:  30    -0.705527299843E+03   -0.10025E-05   -0.20337E-08  3172   0.391E-04    0.238E-02
RMM:  31    -0.705527299100E+03    0.74256E-06   -0.12731E-08  3182   0.353E-04
   4 F= -.70552730E+03 E0= -.70550750E+03  d E =-.854944E-01
       N       E                     dE             d eps       ncg     rms          rms(c)
DAV:   1    -0.705525693547E+03    0.16063E-02   -0.84469E-02 11448   0.763E-01    0.141E-01
RMM:   2    -0.705527900974E+03   -0.22074E-02   -0.18144E-02 13998   0.190E-01    0.437E-01
RMM:   3    -0.705527697549E+03    0.20342E-03   -0.17374E-03 14372   0.631E-02    0.341E-01
RMM:   4    -0.705527619142E+03    0.78407E-04   -0.47630E-04 12909   0.329E-02    0.199E-01
RMM:   5    -0.705527536908E+03    0.82235E-04   -0.13338E-04 10901   0.198E-02    0.137E-01
RMM:   6    -0.705527496896E+03    0.40012E-04   -0.47958E-05  9018   0.122E-02    0.979E-02
RMM:   7    -0.705527479811E+03    0.17085E-04   -0.22103E-05  8437   0.790E-03    0.742E-02
RMM:   8    -0.705527464823E+03    0.14988E-04   -0.28968E-05 10121   0.780E-03    0.557E-02
RMM:   9    -0.705527458537E+03    0.62861E-05   -0.12483E-05  9148   0.591E-03    0.331E-02
RMM:  10    -0.705527460393E+03   -0.18562E-05   -0.44322E-06  7597   0.376E-03    0.378E-02
RMM:  11    -0.705527454565E+03    0.58282E-05   -0.21453E-06  6564   0.279E-03    0.881E-03
RMM:  12    -0.705527458121E+03   -0.35562E-05   -0.78241E-07  6058   0.172E-03    0.272E-02
RMM:  13    -0.705527454535E+03    0.35863E-05   -0.41894E-07  5996   0.132E-03    0.692E-03
RMM:  14    -0.705527456756E+03   -0.22217E-05   -0.19731E-07  5512   0.930E-04    0.213E-02
RMM:  15    -0.705527454910E+03    0.18467E-05   -0.10814E-07  4332   0.671E-04    0.103E-02
RMM:  16    -0.705527456100E+03   -0.11904E-05   -0.61633E-08  3783   0.575E-04    0.178E-02
RMM:  17    -0.705527455212E+03    0.88752E-06   -0.30585E-08  3284   0.430E-04
   5 F= -.70552746E+03 E0= -.70550774E+03  d E =-.856505E-01
       N       E                     dE             d eps       ncg     rms          rms(c)
DAV:   1    -0.704958998430E+03    0.56846E+00   -0.39136E+01 10552   0.144E+01    0.251E+00
RMM:   2    -0.705579302649E+03   -0.62030E+00   -0.62891E+00 13964   0.366E+00    0.323E+00
RMM:   3    -0.705663709876E+03   -0.84407E-01   -0.57743E-01 15325   0.109E+00    0.403E+00
RMM:   4    -0.705599042425E+03    0.64667E-01   -0.12245E-01 14268   0.524E-01    0.170E+00
RMM:   5    -0.705602715457E+03   -0.36730E-02   -0.30710E-02 15031   0.203E-01    0.139E+00
RMM:   6    -0.705595305039E+03    0.74104E-02   -0.85312E-03 13623   0.135E-01    0.934E-01
RMM:   7    -0.705594168330E+03    0.11367E-02   -0.39810E-03 13253   0.868E-02    0.765E-01
RMM:   8    -0.705591933044E+03    0.22353E-02   -0.31940E-03 12700   0.702E-02    0.706E-01
RMM:   9    -0.705590492820E+03    0.14402E-02   -0.51564E-03 13593   0.914E-02    0.491E-01
RMM:  10    -0.705590066370E+03    0.42645E-03   -0.17028E-03 14997   0.601E-02    0.280E-01
RMM:  11    -0.705590318483E+03   -0.25211E-03   -0.42637E-04 12325   0.343E-02    0.325E-01
RMM:  12    -0.705589901289E+03    0.41719E-03   -0.23751E-04 12107   0.232E-02    0.123E-01
RMM:  13    -0.705590063503E+03   -0.16221E-03   -0.17277E-04 12204   0.202E-02    0.192E-01
RMM:  14    -0.705589901267E+03    0.16224E-03   -0.56100E-05  9780   0.128E-02    0.727E-02
RMM:  15    -0.705589972772E+03   -0.71504E-04   -0.31432E-05  9719   0.916E-03    0.107E-01
RMM:  16    -0.705589918594E+03    0.54178E-04   -0.14275E-05  8777   0.631E-03    0.364E-02
RMM:  17    -0.705589946879E+03   -0.28285E-04   -0.85149E-06  8187   0.481E-03    0.691E-02
RMM:  18    -0.705589925086E+03    0.21793E-04   -0.38573E-06  7086   0.321E-03    0.227E-02
RMM:  19    -0.705589937827E+03   -0.12741E-04   -0.21399E-06  6482   0.253E-03    0.456E-02
RMM:  20    -0.705589929364E+03    0.84624E-05   -0.81762E-07  5749   0.153E-03    0.202E-02
RMM:  21    -0.705589934826E+03   -0.54615E-05   -0.57307E-07  5307   0.137E-03    0.325E-02
RMM:  22    -0.705589931621E+03    0.32048E-05   -0.23535E-07  4242   0.845E-04    0.185E-02
RMM:  23    -0.705589933910E+03   -0.22886E-05   -0.28708E-07  5166   0.971E-04    0.216E-02
RMM:  24    -0.705589933590E+03    0.31947E-06   -0.23885E-07  4400   0.796E-04
   6 F= -.70558993E+03 E0= -.70557164E+03  d E =-.624784E-01
       N       E                     dE             d eps       ncg     rms          rms(c)
DAV:   1    -0.705531355982E+03    0.58578E-01   -0.39837E+00 11184   0.461E+00    0.699E-01
RMM:   2    -0.705594661911E+03   -0.63306E-01   -0.62158E-01 13839   0.115E+00    0.134E+00
RMM:   3    -0.705599416394E+03   -0.47545E-02   -0.59170E-02 15155   0.356E-01    0.136E+00
RMM:   4    -0.705595749501E+03    0.36669E-02   -0.10833E-02 14272   0.164E-01    0.756E-01
RMM:   5    -0.705595272818E+03    0.47668E-03   -0.29545E-03 14420   0.772E-02    0.458E-01
RMM:   6    -0.705594441290E+03    0.83153E-03   -0.93445E-04 11989   0.500E-02    0.329E-01
RMM:   7    -0.705594185522E+03    0.25577E-03   -0.55061E-04 12535   0.318E-02    0.297E-01
RMM:   8    -0.705593764189E+03    0.42133E-03   -0.73152E-04 13223   0.360E-02    0.126E-01
RMM:   9    -0.705593943045E+03   -0.17886E-03   -0.21531E-04 13427   0.226E-02    0.213E-01
RMM:  10    -0.705593728366E+03    0.21468E-03   -0.70395E-05 10256   0.144E-02    0.776E-02
RMM:  11    -0.705593813149E+03   -0.84783E-04   -0.36605E-05  9754   0.978E-03    0.131E-01
RMM:  12    -0.705593743963E+03    0.69186E-04   -0.20947E-05  9681   0.703E-03    0.654E-02
RMM:  13    -0.705593778026E+03   -0.34063E-04   -0.11203E-05  8715   0.593E-03    0.864E-02
RMM:  14    -0.705593756128E+03    0.21898E-04   -0.46735E-06  7412   0.352E-03    0.497E-02
RMM:  15    -0.705593770140E+03   -0.14012E-04   -0.25586E-06  6657   0.282E-03    0.601E-02
RMM:  16    -0.705593763957E+03    0.61832E-05   -0.11386E-06  6202   0.191E-03    0.379E-02
RMM:  17    -0.705593769774E+03   -0.58174E-05   -0.96984E-07  6107   0.191E-03    0.390E-02
RMM:  18    -0.705593769055E+03    0.71889E-06   -0.48620E-07  5523   0.131E-03
   7 F= -.70559377E+03 E0= -.70557591E+03  d E =-.663138E-01
       N       E                     dE             d eps       ncg     rms          rms(c)
DAV:   1    -0.705232125696E+03    0.36164E+00   -0.31836E+01 10552   0.118E+01    0.173E+00
RMM:   2    -0.705604612027E+03   -0.37249E+00   -0.39188E+00 13858   0.312E+00    0.121E+00
RMM:   3    -0.705659809013E+03   -0.55197E-01   -0.36665E-01 15513   0.921E-01    0.283E+00
RMM:   4    -0.705631465436E+03    0.28344E-01   -0.65527E-02 14841   0.393E-01    0.108E+00
RMM:   5    -0.705634073547E+03   -0.26081E-02   -0.15382E-02 15045   0.159E-01    0.927E-01
RMM:   6    -0.705629773826E+03    0.42997E-02   -0.41364E-03 14193   0.931E-02    0.516E-01
RMM:   7    -0.705629817379E+03   -0.43553E-04   -0.19975E-03 13202   0.594E-02    0.606E-01
RMM:   8    -0.705627300856E+03    0.25165E-02   -0.26446E-03 12817   0.622E-02    0.254E-01
RMM:   9    -0.705627680278E+03   -0.37942E-03   -0.26588E-03 13483   0.653E-02    0.341E-01
RMM:  10    -0.705627153014E+03    0.52726E-03   -0.55683E-04 14739   0.379E-02    0.122E-01
RMM:  11    -0.705627372567E+03   -0.21955E-03   -0.17303E-04 11942   0.188E-02    0.237E-01
RMM:  12    -0.705627116023E+03    0.25654E-03   -0.10578E-04 11557   0.143E-02    0.123E-01
RMM:  13    -0.705627229036E+03   -0.11301E-03   -0.53731E-05 10678   0.114E-02    0.152E-01
RMM:  14    -0.705627167762E+03    0.61273E-04   -0.19650E-05  9480   0.696E-03    0.789E-02
RMM:  15    -0.705627222429E+03   -0.54667E-04   -0.12076E-05  8975   0.551E-03    0.912E-02
RMM:  16    -0.705627208441E+03    0.13988E-04   -0.52804E-06  7859   0.358E-03    0.494E-02
RMM:  17    -0.705627227473E+03   -0.19032E-04   -0.41245E-06  7314   0.354E-03    0.496E-02
RMM:  18    -0.705627225230E+03    0.22428E-05   -0.16015E-06  6380   0.232E-03    0.279E-02
RMM:  19    -0.705627230783E+03   -0.55531E-05   -0.13359E-06  6204   0.231E-03    0.244E-02
RMM:  20    -0.705627231337E+03   -0.55360E-06   -0.91132E-07  6085   0.189E-03
   8 F= -.70562723E+03 E0= -.70561008E+03  d E =-.334623E-01
       N       E                     dE             d eps       ncg     rms          rms(c)
DAV:   1    -0.705626955842E+03    0.27494E-03   -0.24249E-02 11312   0.326E-01    0.478E-02
RMM:   2    -0.705627254885E+03   -0.29904E-03   -0.30018E-03 13803   0.856E-02    0.765E-02
RMM:   3    -0.705627284532E+03   -0.29647E-04   -0.27672E-04 15089   0.265E-02    0.956E-02
RMM:   4    -0.705627263486E+03    0.21047E-04   -0.60067E-05 12013   0.122E-02    0.482E-02
RMM:   5    -0.705627263468E+03    0.17288E-07   -0.14734E-05  9145   0.643E-03    0.317E-02
RMM:   6    -0.705627258464E+03    0.50041E-05   -0.48850E-06  7422   0.378E-03    0.197E-02
RMM:   7    -0.705627258487E+03   -0.22948E-07   -0.62542E-06  8930   0.328E-03
   9 F= -.70562726E+03 E0= -.70561014E+03  d E =-.334894E-01
       N       E                     dE             d eps       ncg     rms          rms(c)
DAV:   1    -0.705460300201E+03    0.16696E+00   -0.15374E+01 10640   0.831E+00    0.122E+00
RMM:   2    -0.705640437631E+03   -0.18014E+00   -0.18448E+00 13775   0.222E+00    0.135E+00
RMM:   3    -0.705665375991E+03   -0.24938E-01   -0.18398E-01 15592   0.669E-01    0.221E+00
RMM:   4    -0.705649411329E+03    0.15965E-01   -0.33174E-02 14331   0.298E-01    0.743E-01
RMM:   5    -0.705651252769E+03   -0.18414E-02   -0.78314E-03 15054   0.118E-01    0.763E-01
RMM:   6    -0.705648481372E+03    0.27714E-02   -0.21990E-03 13660   0.721E-02    0.367E-01
RMM:   7    -0.705648439294E+03    0.42077E-04   -0.14952E-03 12588   0.497E-02    0.473E-01
RMM:   8    -0.705647212679E+03    0.12266E-02   -0.18706E-03 12915   0.529E-02    0.193E-01
RMM:   9    -0.705647724424E+03   -0.51174E-03   -0.47298E-04 14668   0.327E-02    0.351E-01
RMM:  10    -0.705647279873E+03    0.44455E-03   -0.10426E-04 10967   0.157E-02    0.184E-01
RMM:  11    -0.705647535229E+03   -0.25536E-03   -0.54859E-05 10260   0.108E-02    0.240E-01
RMM:  12    -0.705647389897E+03    0.14533E-03   -0.29840E-05 10086   0.798E-03    0.133E-01
RMM:  13    -0.705647522010E+03   -0.13211E-03   -0.17318E-05  9103   0.716E-03    0.153E-01
RMM:  14    -0.705647489124E+03    0.32887E-04   -0.94135E-06  8703   0.474E-03    0.791E-02
RMM:  15    -0.705647548153E+03   -0.59029E-04   -0.10231E-05  8898   0.568E-03    0.701E-02
RMM:  16    -0.705647549221E+03   -0.10684E-05   -0.48047E-06  7813   0.387E-03    0.306E-02
RMM:  17    -0.705647563057E+03   -0.13836E-04   -0.24778E-06  6619   0.334E-03    0.401E-02
RMM:  18    -0.705647560416E+03    0.26407E-05   -0.12478E-06  6177   0.229E-03    0.133E-02
RMM:  19    -0.705647565025E+03   -0.46093E-05   -0.10105E-06  6114   0.229E-03    0.201E-02
RMM:  20    -0.705647563824E+03    0.12010E-05   -0.42764E-07  5877   0.147E-03    0.107E-02
RMM:  21    -0.705647564993E+03   -0.11685E-05   -0.26755E-07  5660   0.118E-03    0.144E-02
RMM:  22    -0.705647564572E+03    0.42088E-06   -0.13191E-07  4933   0.825E-04
  10 F= -.70564756E+03 E0= -.70563112E+03  d E =-.203061E-01
       N       E                     dE             d eps       ncg     rms          rms(c)
DAV:   1    -0.705627089838E+03    0.20475E-01   -0.18008E+00 11072   0.285E+00    0.415E-01
RMM:   2    -0.705648220265E+03   -0.21130E-01   -0.21578E-01 13761   0.757E-01    0.475E-01
RMM:   3    -0.705650898906E+03   -0.26786E-02   -0.21072E-02 15534   0.229E-01    0.774E-01
RMM:   4    -0.705649190655E+03    0.17083E-02   -0.38646E-03 14282   0.103E-01    0.294E-01
RMM:   5    -0.705649382708E+03   -0.19205E-03   -0.92926E-04 14837   0.420E-02    0.260E-01
RMM:   6    -0.705649055877E+03    0.32683E-03   -0.26249E-04 12104   0.257E-02    0.127E-01
RMM:   7    -0.705649026937E+03    0.28940E-04   -0.29520E-04 12534   0.218E-02    0.180E-01
RMM:   8    -0.705648869736E+03    0.15720E-03   -0.20783E-04 12728   0.192E-02    0.782E-02
RMM:   9    -0.705648939911E+03   -0.70175E-04   -0.35240E-05 10402   0.102E-02    0.137E-01
RMM:  10    -0.705648874478E+03    0.65433E-04   -0.11196E-05  9370   0.513E-03    0.699E-02
RMM:  11    -0.705648916008E+03   -0.41530E-04   -0.79751E-06  8677   0.458E-03    0.897E-02
RMM:  12    -0.705648897902E+03    0.18106E-04   -0.30102E-06  7016   0.290E-03    0.534E-02
RMM:  13    -0.705648916285E+03   -0.18383E-04   -0.17418E-06  6388   0.255E-03    0.617E-02
RMM:  14    -0.705648911058E+03    0.52269E-05   -0.80981E-07  6081   0.176E-03    0.403E-02
RMM:  15    -0.705648919184E+03   -0.81266E-05   -0.12972E-06  6151   0.214E-03    0.314E-02
RMM:  16    -0.705648921146E+03   -0.19613E-05   -0.10232E-06  6102   0.204E-03    0.127E-02
RMM:  17    -0.705648923793E+03   -0.26478E-05   -0.72187E-07  5977   0.190E-03    0.162E-02
RMM:  18    -0.705648923336E+03    0.45756E-06   -0.30466E-07  5464   0.128E-03
  11 F= -.70564892E+03 E0= -.70563268E+03  d E =-.216648E-01
       N       E                     dE             d eps       ncg     rms          rms(c)
DAV:   1    -0.705550069369E+03    0.98854E-01   -0.13070E+01 10664   0.671E+00    0.876E-01
RMM:   2    -0.705653231677E+03   -0.10316E+00   -0.10822E+00 13658   0.182E+00    0.548E-01
RMM:   3    -0.705666332109E+03   -0.13100E-01   -0.11910E-01 15575   0.566E-01    0.106E+00
RMM:   4    -0.705663694348E+03    0.26378E-02   -0.16979E-02 15089   0.216E-01    0.611E-01
RMM:   5    -0.705663631101E+03    0.63247E-04   -0.35885E-03 15173   0.920E-02    0.424E-01
RMM:   6    -0.705662910669E+03    0.72043E-03   -0.10556E-03 14605   0.459E-02    0.257E-01
RMM:   7    -0.705662113152E+03    0.79752E-03   -0.25787E-03 13035   0.641E-02    0.162E-01
RMM:   8    -0.705662063314E+03    0.49838E-04   -0.74984E-04 13096   0.384E-02    0.901E-02
RMM:   9    -0.705662087485E+03   -0.24170E-04   -0.11297E-04 12567   0.177E-02    0.129E-01
RMM:  10    -0.705661991606E+03    0.95879E-04   -0.48247E-05 10478   0.101E-02    0.430E-02
RMM:  11    -0.705662028253E+03   -0.36647E-04   -0.40893E-05 10725   0.856E-03    0.898E-02
RMM:  12    -0.705661994329E+03    0.33924E-04   -0.11385E-05  9036   0.580E-03    0.301E-02
RMM:  13    -0.705662015687E+03   -0.21358E-04   -0.51604E-06  7779   0.363E-03    0.544E-02
RMM:  14    -0.705662004586E+03    0.11101E-04   -0.20894E-06  6706   0.228E-03    0.262E-02
RMM:  15    -0.705662012543E+03   -0.79563E-05   -0.10476E-06  6222   0.187E-03    0.354E-02
RMM:  16    -0.705662009762E+03    0.27804E-05   -0.56573E-07  6043   0.136E-03    0.188E-02
RMM:  17    -0.705662012925E+03   -0.31632E-05   -0.36443E-07  5735   0.126E-03    0.237E-02
RMM:  18    -0.705662011918E+03    0.10071E-05   -0.20364E-07  5027   0.925E-04    0.147E-02
RMM:  19    -0.705662013173E+03   -0.12553E-05   -0.19713E-07  5406   0.916E-04    0.157E-02
RMM:  20    -0.705662012967E+03    0.20611E-06   -0.80480E-08  4154   0.644E-04
  12 F= -.70566201E+03 E0= -.70564598E+03  d E =-.130896E-01
       N       E                     dE             d eps       ncg     rms          rms(c)
DAV:   1    -0.705658206855E+03    0.38063E-02   -0.48936E-01 11360   0.130E+00    0.175E-01
RMM:   2    -0.705662075570E+03   -0.38687E-02   -0.40350E-02 13659   0.349E-01    0.144E-01
RMM:   3    -0.705662608419E+03   -0.53285E-03   -0.44362E-03 15542   0.110E-01    0.262E-01
RMM:   4    -0.705662433617E+03    0.17480E-03   -0.78409E-04 14533   0.461E-02    0.136E-01
RMM:   5    -0.705662438871E+03   -0.52547E-05   -0.16432E-04 14534   0.188E-02    0.894E-02
RMM:   6    -0.705662402880E+03    0.35991E-04   -0.47005E-05 10295   0.104E-02    0.521E-02
RMM:   7    -0.705662381076E+03    0.21804E-04   -0.12836E-04 12900   0.142E-02    0.562E-02
RMM:   8    -0.705662366046E+03    0.15030E-04   -0.24282E-05 10770   0.793E-03    0.181E-02
RMM:   9    -0.705662373211E+03   -0.71650E-05   -0.50583E-06  8099   0.402E-03    0.410E-02
RMM:  10    -0.705662364922E+03    0.82887E-05   -0.21662E-06  7053   0.250E-03    0.163E-02
RMM:  11    -0.705662369096E+03   -0.41738E-05   -0.14158E-06  6432   0.193E-03    0.264E-02
RMM:  12    -0.705662366934E+03    0.21624E-05   -0.48295E-07  5987   0.140E-03    0.138E-02
RMM:  13    -0.705662368708E+03   -0.17746E-05   -0.22176E-07  5951   0.929E-04    0.187E-02
RMM:  14    -0.705662367954E+03    0.75395E-06   -0.10761E-07  4652   0.673E-04
  13 F= -.70566237E+03 E0= -.70564638E+03  d E =-.134446E-01
       N       E                     dE             d eps       ncg     rms          rms(c)
DAV:   1    -0.705573889896E+03    0.88479E-01   -0.83592E+00 10680   0.600E+00    0.793E-01
RMM:   2    -0.705663497343E+03   -0.89607E-01   -0.94076E-01 13791   0.161E+00    0.418E-01
RMM:   3    -0.705672871438E+03   -0.93741E-02   -0.88660E-02 15560   0.477E-01    0.898E-01
RMM:   4    -0.705670840863E+03    0.20306E-02   -0.12237E-02 15218   0.176E-01    0.426E-01
RMM:   5    -0.705671017387E+03   -0.17652E-03   -0.25288E-03 15176   0.770E-02    0.382E-01
RMM:   6    -0.705670429433E+03    0.58795E-03   -0.71010E-04 14723   0.356E-02    0.220E-01
RMM:   7    -0.705669829346E+03    0.60009E-03   -0.21549E-03 13237   0.563E-02    0.122E-01
RMM:   8    -0.705669807549E+03    0.21798E-04   -0.43401E-04 13287   0.290E-02    0.656E-02
RMM:   9    -0.705669828242E+03   -0.20693E-04   -0.69822E-05 12500   0.136E-02    0.979E-02
RMM:  10    -0.705669773487E+03    0.54755E-04   -0.37814E-05 10843   0.799E-03    0.544E-02
RMM:  11    -0.705669789394E+03   -0.15907E-04   -0.29550E-05 10820   0.693E-03    0.717E-02
RMM:  12    -0.705669776916E+03    0.12478E-04   -0.73136E-06  8952   0.435E-03    0.390E-02
RMM:  13    -0.705669787824E+03   -0.10908E-04   -0.30916E-06  7400   0.282E-03    0.430E-02
RMM:  14    -0.705669785433E+03    0.23907E-05   -0.12134E-06  6228   0.185E-03    0.305E-02
RMM:  15    -0.705669788890E+03   -0.34567E-05   -0.62592E-07  6060   0.155E-03    0.275E-02
RMM:  16    -0.705669789512E+03   -0.62231E-06   -0.56187E-07  6037   0.144E-03
  14 F= -.70566979E+03 E0= -.70565406E+03  d E =-.742156E-02
       N       E                     dE             d eps       ncg     rms          rms(c)
DAV:   1    -0.705669627484E+03    0.16141E-03   -0.15542E-02 11336   0.259E-01    0.412E-02
RMM:   2    -0.705669800821E+03   -0.17334E-03   -0.17512E-03 13763   0.693E-02    0.500E-02
RMM:   3    -0.705669824395E+03   -0.23575E-04   -0.17397E-04 15210   0.219E-02    0.766E-02
RMM:   4    -0.705669805765E+03    0.18630E-04   -0.37268E-05 11834   0.102E-02    0.260E-02
RMM:   5    -0.705669809090E+03   -0.33254E-05   -0.84675E-06  8636   0.500E-03    0.244E-02
RMM:   6    -0.705669805606E+03    0.34847E-05   -0.25968E-06  6732   0.281E-03    0.100E-02
RMM:   7    -0.705669806162E+03   -0.55617E-06   -0.39835E-06  8007   0.256E-03
  15 F= -.70566981E+03 E0= -.70565411E+03  d E =-.743821E-02
       N       E                     dE             d eps       ncg     rms          rms(c)
DAV:   1    -0.705636122255E+03    0.33683E-01   -0.32881E+00 10856   0.376E+00    0.517E-01
RMM:   2    -0.705671724365E+03   -0.35602E-01   -0.36748E-01 13755   0.102E+00    0.506E-01
RMM:   3    -0.705676426093E+03   -0.47017E-02   -0.36805E-02 15435   0.314E-01    0.909E-01
RMM:   4    -0.705673804080E+03    0.26220E-02   -0.64064E-03 14515   0.137E-01    0.311E-01
RMM:   5    -0.705674118626E+03   -0.31455E-03   -0.13721E-03 15047   0.520E-02    0.285E-01
RMM:   6    -0.705673696104E+03    0.42252E-03   -0.34083E-04 13791   0.288E-02    0.135E-01
RMM:   7    -0.705673599715E+03    0.96389E-04   -0.76686E-04 13068   0.335E-02    0.191E-01
RMM:   8    -0.705673440749E+03    0.15897E-03   -0.18102E-04 12910   0.194E-02    0.994E-02
RMM:   9    -0.705673511466E+03   -0.70716E-04   -0.31979E-05 11209   0.967E-03    0.143E-01
RMM:  10    -0.705673454909E+03    0.56557E-04   -0.14177E-05  9821   0.503E-03    0.918E-02
RMM:  11    -0.705673489731E+03   -0.34822E-04   -0.13012E-05  9600   0.490E-03    0.898E-02
RMM:  12    -0.705673486776E+03    0.29542E-05   -0.33170E-06  7444   0.312E-03    0.747E-02
RMM:  13    -0.705673496727E+03   -0.99507E-05   -0.18235E-06  6682   0.222E-03    0.668E-02
RMM:  14    -0.705673499459E+03   -0.27324E-05   -0.12973E-06  6244   0.211E-03    0.471E-02
RMM:  15    -0.705673508221E+03   -0.87616E-05   -0.14869E-06  6278   0.241E-03    0.366E-02
RMM:  16    -0.705673510993E+03   -0.27715E-05   -0.11607E-06  6155   0.230E-03    0.240E-02
RMM:  17    -0.705673513746E+03   -0.27537E-05   -0.64550E-07  5933   0.192E-03    0.235E-02
RMM:  18    -0.705673513834E+03   -0.87399E-07   -0.27759E-07  5546   0.132E-03
  16 F= -.70567351E+03 E0= -.70565796E+03  d E =-.370767E-02
       N       E                     dE             d eps       ncg     rms          rms(c)
DAV:   1    -0.705672217583E+03    0.12962E-02   -0.12238E-01 11720   0.724E-01    0.106E-01
RMM:   2    -0.705673547498E+03   -0.13299E-02   -0.13583E-02 13747   0.196E-01    0.119E-01
RMM:   3    -0.705673718779E+03   -0.17128E-03   -0.13365E-03 15324   0.613E-02    0.193E-01
RMM:   4    -0.705673605319E+03    0.11346E-03   -0.28379E-04 14008   0.279E-02    0.669E-02
RMM:   5    -0.705673621996E+03   -0.16677E-04   -0.57860E-05 12437   0.111E-02    0.583E-02
RMM:   6    -0.705673603248E+03    0.18747E-04   -0.14711E-05  8559   0.649E-03    0.269E-02
RMM:   7    -0.705673601700E+03    0.15485E-05   -0.31629E-05 11242   0.709E-03    0.468E-02
RMM:   8    -0.705673591643E+03    0.10057E-04   -0.80307E-06  9406   0.460E-03    0.235E-02
RMM:   9    -0.705673595769E+03   -0.41262E-05   -0.16284E-06  6394   0.252E-03    0.331E-02
RMM:  10    -0.705673592950E+03    0.28196E-05   -0.56161E-07  6039   0.151E-03    0.214E-02
RMM:  11    -0.705673594847E+03   -0.18970E-05   -0.51295E-07  6012   0.129E-03    0.206E-02
RMM:  12    -0.705673594839E+03    0.74506E-08   -0.19145E-07  5947   0.980E-04
  17 F= -.70567359E+03 E0= -.70565807E+03  d E =-.378868E-02
       N       E                     dE             d eps       ncg     rms          rms(c)
DAV:   1    -0.705659062538E+03    0.14532E-01   -0.22200E+00 10880   0.269E+00    0.369E-01
RMM:   2    -0.705674518874E+03   -0.15456E-01   -0.16108E-01 13634   0.733E-01    0.292E-01
RMM:   3    -0.705676610832E+03   -0.20920E-02   -0.20914E-02 15534   0.242E-01    0.444E-01
RMM:   4    -0.705676160335E+03    0.45050E-03   -0.30096E-03 14967   0.949E-02    0.253E-01
RMM:   5    -0.705676140259E+03    0.20076E-04   -0.61659E-04 15056   0.394E-02    0.184E-01
RMM:   6    -0.705676010318E+03    0.12994E-03   -0.19066E-04 14019   0.198E-02    0.103E-01
RMM:   7    -0.705675889872E+03    0.12045E-03   -0.41383E-04 13089   0.255E-02    0.711E-02
RMM:   8    -0.705675880550E+03    0.93215E-05   -0.10103E-04 12872   0.142E-02    0.296E-02
RMM:   9    -0.705675882849E+03   -0.22992E-05   -0.15824E-05  9697   0.727E-03    0.437E-02
RMM:  10    -0.705675872738E+03    0.10111E-04   -0.95485E-06  9459   0.403E-03    0.175E-02
RMM:  11    -0.705675875685E+03   -0.29471E-05   -0.52563E-06  8288   0.328E-03    0.214E-02
RMM:  12    -0.705675873629E+03    0.20560E-05   -0.15270E-06  6313   0.221E-03    0.976E-03
RMM:  13    -0.705675874623E+03   -0.99346E-06   -0.51637E-07  5938   0.126E-03
  18 F= -.70567587E+03 E0= -.70566040E+03  d E =-.227978E-02
       N       E                     dE             d eps       ncg     rms          rms(c)
DAV:   1    -0.705675141196E+03    0.73243E-03   -0.10722E-01 11688   0.590E-01    0.797E-02
RMM:   2    -0.705675885915E+03   -0.74472E-03   -0.77570E-03 13625   0.161E-01    0.621E-02
RMM:   3    -0.705675998962E+03   -0.11305E-03   -0.10049E-03 15498   0.535E-02    0.115E-01
RMM:   4    -0.705675962161E+03    0.36801E-04   -0.16462E-04 14373   0.220E-02    0.522E-02
RMM:   5    -0.705675966260E+03   -0.40986E-05   -0.33826E-05 12193   0.912E-03    0.403E-02
RMM:   6    -0.705675958973E+03    0.72867E-05   -0.99515E-06  8592   0.508E-03    0.216E-02
RMM:   7    -0.705675953912E+03    0.50613E-05   -0.19991E-05 10810   0.583E-03    0.183E-02
RMM:   8    -0.705675952931E+03    0.98091E-06   -0.56145E-06  9264   0.373E-03
  19 F= -.70567595E+03 E0= -.70566049E+03  d E =-.235809E-02
       N       E                     dE             d eps       ncg     rms          rms(c)
DAV:   1    -0.705659634398E+03    0.16320E-01   -0.17358E+00 10960   0.267E+00    0.352E-01
RMM:   2    -0.705676293908E+03   -0.16660E-01   -0.17483E-01 13642   0.715E-01    0.197E-01
RMM:   3    -0.705677927913E+03   -0.16340E-02   -0.17929E-02 15640   0.219E-01    0.288E-01
RMM:   4    -0.705677871474E+03    0.56440E-04   -0.23701E-03 15283   0.781E-02    0.195E-01
RMM:   5    -0.705677844677E+03    0.26796E-04   -0.51376E-04 14916   0.356E-02    0.185E-01
RMM:   6    -0.705677676584E+03    0.16809E-03   -0.19434E-04 12943   0.188E-02    0.935E-02
RMM:   7    -0.705677630321E+03    0.46263E-04   -0.30138E-04 12825   0.224E-02    0.626E-02
RMM:   8    -0.705677624734E+03    0.55878E-05   -0.60698E-05 12418   0.116E-02    0.325E-02
RMM:   9    -0.705677623985E+03    0.74847E-06   -0.10608E-05  9363   0.525E-03    0.399E-02
RMM:  10    -0.705677614627E+03    0.93584E-05   -0.12722E-05 10297   0.451E-03    0.167E-02
RMM:  11    -0.705677616707E+03   -0.20798E-05   -0.51082E-06  8770   0.337E-03    0.174E-02
RMM:  12    -0.705677615697E+03    0.10093E-05   -0.12647E-06  6166   0.217E-03    0.818E-03
RMM:  13    -0.705677616348E+03   -0.65064E-06   -0.43546E-07  6021   0.130E-03
  20 F= -.70567762E+03 E0= -.70566223E+03  d E =-.166342E-02
       N       E                     dE             d eps       ncg     rms          rms(c)
DAV:   1    -0.705676494949E+03    0.11207E-02   -0.11620E-01 11704   0.691E-01    0.896E-02
RMM:   2    -0.705677606580E+03   -0.11116E-02   -0.11657E-02 13639   0.184E-01    0.474E-02
RMM:   3    -0.705677726454E+03   -0.11987E-03   -0.11826E-03 15610   0.564E-02    0.965E-02
RMM:   4    -0.705677706820E+03    0.19634E-04   -0.17269E-04 14696   0.213E-02    0.447E-02
RMM:   5    -0.705677709134E+03   -0.23140E-05   -0.35185E-05 12381   0.944E-03    0.452E-02
RMM:   6    -0.705677701048E+03    0.80860E-05   -0.10973E-05  9005   0.478E-03    0.276E-02
RMM:   7    -0.705677695720E+03    0.53284E-05   -0.27291E-05 11137   0.673E-03    0.187E-02
RMM:   8    -0.705677695068E+03    0.65201E-06   -0.49555E-06  8816   0.363E-03
  21 F= -.70567770E+03 E0= -.70566234E+03  d E =-.174214E-02
       N       E                     dE             d eps       ncg     rms          rms(c)
DAV:   1    -0.705665670403E+03    0.12025E-01   -0.17014E+00 11040   0.242E+00    0.294E-01
RMM:   2    -0.705677796150E+03   -0.12126E-01   -0.12628E-01 13525   0.648E-01    0.225E-01
RMM:   3    -0.705679781762E+03   -0.19856E-02   -0.16527E-02 15416   0.219E-01    0.486E-01
RMM:   4    -0.705679091071E+03    0.69069E-03   -0.25432E-03 14823   0.898E-02    0.184E-01
RMM:   5    -0.705679168169E+03   -0.77097E-04   -0.51921E-04 15085   0.334E-02    0.149E-01
RMM:   6    -0.705679048592E+03    0.11958E-03   -0.13443E-04 13378   0.173E-02    0.743E-02
RMM:   7    -0.705679014301E+03    0.34290E-04   -0.35407E-04 13234   0.234E-02    0.887E-02
RMM:   8    -0.705678977376E+03    0.36925E-04   -0.46723E-05 12828   0.112E-02    0.403E-02
RMM:   9    -0.705678992402E+03   -0.15026E-04   -0.96907E-06  9295   0.468E-03    0.619E-02
RMM:  10    -0.705678979641E+03    0.12761E-04   -0.50384E-06  8516   0.313E-03    0.416E-02
RMM:  11    -0.705678985060E+03   -0.54182E-05   -0.58910E-06  8838   0.313E-03    0.390E-02
RMM:  12    -0.705678984925E+03    0.13505E-06   -0.12344E-06  6187   0.215E-03
  22 F= -.70567898E+03 E0= -.70566375E+03  d E =-.128986E-02
       N       E                     dE             d eps       ncg     rms          rms(c)
DAV:   1    -0.705678690308E+03    0.29475E-03   -0.40715E-02 11896   0.375E-01    0.574E-02
RMM:   2    -0.705679010626E+03   -0.32032E-03   -0.30405E-03 13528   0.100E-01    0.983E-02
RMM:   3    -0.705679043338E+03   -0.32712E-04   -0.42802E-04 15015   0.364E-02    0.105E-01
RMM:   4    -0.705679012388E+03    0.30950E-04   -0.75388E-05 13071   0.155E-02    0.338E-02
RMM:   5    -0.705679017421E+03   -0.50329E-05   -0.17446E-05 10660   0.731E-03    0.321E-02
RMM:   6    -0.705679010129E+03    0.72920E-05   -0.56378E-06  7985   0.412E-03    0.131E-02
RMM:   7    -0.705679011783E+03   -0.16546E-05   -0.62387E-06  8949   0.343E-03    0.277E-02
RMM:   8    -0.705679008595E+03    0.31881E-05   -0.18539E-06  6516   0.246E-03    0.158E-02
RMM:   9    -0.705679009947E+03   -0.13521E-05   -0.49232E-07  5977   0.151E-03    0.190E-02
RMM:  10    -0.705679009314E+03    0.63323E-06   -0.20052E-07  5950   0.937E-04
  23 F= -.70567901E+03 E0= -.70566376E+03  d E =-.131425E-02
       N       E                     dE             d eps       ncg     rms          rms(c)
DAV:   1    -0.705668448199E+03    0.10562E-01   -0.11340E+00 11064   0.218E+00    0.263E-01
RMM:   2    -0.705678963792E+03   -0.10516E-01   -0.10918E-01 13560   0.569E-01    0.213E-01
RMM:   3    -0.705680481429E+03   -0.15176E-02   -0.12278E-02 15407   0.185E-01    0.446E-01
RMM:   4    -0.705679881730E+03    0.59970E-03   -0.19757E-03 14788   0.776E-02    0.164E-01
RMM:   5    -0.705679950180E+03   -0.68450E-04   -0.40614E-04 14922   0.287E-02    0.134E-01
RMM:   6    -0.705679848186E+03    0.10199E-03   -0.10151E-04 12159   0.151E-02    0.653E-02
RMM:   7    -0.705679837571E+03    0.10614E-04   -0.26162E-04 13670   0.202E-02    0.991E-02
RMM:   8    -0.705679791304E+03    0.46267E-04   -0.35781E-05 11917   0.983E-03    0.479E-02
RMM:   9    -0.705679810764E+03   -0.19460E-04   -0.73050E-06  8976   0.416E-03    0.678E-02
RMM:  10    -0.705679797052E+03    0.13712E-04   -0.55443E-06  8966   0.323E-03    0.457E-02
RMM:  11    -0.705679804323E+03   -0.72714E-05   -0.44229E-06  8295   0.284E-03    0.427E-02
RMM:  12    -0.705679804671E+03   -0.34745E-06   -0.11003E-06  6110   0.208E-03
  24 F= -.70567980E+03 E0= -.70566469E+03  d E =-.795357E-03
       N       E                     dE             d eps       ncg     rms          rms(c)
DAV:   1    -0.705679342084E+03    0.46224E-03   -0.48050E-02 11784   0.450E-01    0.675E-02
RMM:   2    -0.705679829954E+03   -0.48787E-03   -0.46701E-03 13562   0.117E-01    0.116E-01
RMM:   3    -0.705679871347E+03   -0.41392E-04   -0.56158E-04 15000   0.411E-02    0.123E-01
RMM:   4    -0.705679829944E+03    0.41403E-04   -0.10918E-04 13479   0.179E-02    0.384E-02
RMM:   5    -0.705679837174E+03   -0.72308E-05   -0.23621E-05 10773   0.792E-03    0.375E-02
RMM:   6    -0.705679826668E+03    0.10506E-04   -0.70444E-06  8291   0.461E-03    0.153E-02
RMM:   7    -0.705679829809E+03   -0.31407E-05   -0.85749E-06  9630   0.392E-03    0.354E-02
RMM:   8    -0.705679824646E+03    0.51625E-05   -0.21289E-06  6719   0.272E-03    0.216E-02
RMM:   9    -0.705679826670E+03   -0.20235E-05   -0.54781E-07  6000   0.156E-03    0.243E-02
RMM:  10    -0.705679825831E+03    0.83855E-06   -0.33079E-07  5986   0.109E-03
  25 F= -.70567983E+03 E0= -.70566469E+03  d E =-.816517E-03
       N       E                     dE             d eps       ncg     rms          rms(c)
DAV:   1    -0.705669258394E+03    0.10568E-01   -0.86978E-01 10960   0.211E+00    0.270E-01
RMM:   2    -0.705679716274E+03   -0.10458E-01   -0.10756E-01 13635   0.530E-01    0.291E-01
RMM:   3    -0.705681080699E+03   -0.13644E-02   -0.11338E-02 15490   0.169E-01    0.479E-01
RMM:   4    -0.705680413588E+03    0.66711E-03   -0.20293E-03 14496   0.747E-02    0.171E-01
RMM:   5    -0.705680486898E+03   -0.73310E-04   -0.42903E-04 14817   0.274E-02    0.135E-01
RMM:   6    -0.705680380331E+03    0.10657E-03   -0.10404E-04 11790   0.152E-02    0.681E-02
RMM:   7    -0.705680361159E+03    0.19172E-04   -0.23383E-04 13087   0.188E-02    0.981E-02
RMM:   8    -0.705680316118E+03    0.45041E-04   -0.37260E-05 11969   0.979E-03    0.499E-02
RMM:   9    -0.705680335058E+03   -0.18940E-04   -0.74456E-06  8900   0.443E-03    0.691E-02
RMM:  10    -0.705680321818E+03    0.13240E-04   -0.50243E-06  8703   0.318E-03    0.477E-02
RMM:  11    -0.705680328772E+03   -0.69539E-05   -0.41813E-06  8265   0.278E-03    0.429E-02
RMM:  12    -0.705680329796E+03   -0.10242E-05   -0.97889E-07  6092   0.198E-03    0.373E-02
RMM:  13    -0.705680331222E+03   -0.14261E-05   -0.54078E-07  6036   0.141E-03    0.276E-02
RMM:  14    -0.705680333314E+03   -0.20921E-05   -0.25102E-07  5954   0.118E-03    0.281E-02
RMM:  15    -0.705680333318E+03   -0.36962E-08   -0.10099E-07  5080   0.739E-04
  26 F= -.70568033E+03 E0= -.70566529E+03  d E =-.507487E-03
       N       E                     dE             d eps       ncg     rms          rms(c)
DAV:   1    -0.705680322428E+03    0.10886E-04   -0.78754E-04 11500   0.635E-02    0.299E-02
RMM:   2    -0.705680356359E+03   -0.33930E-04   -0.11920E-04 13434   0.168E-02    0.805E-02
RMM:   3    -0.705680342894E+03    0.13465E-04   -0.37427E-05  9451   0.993E-03    0.556E-02
RMM:   4    -0.705680336665E+03    0.62289E-05   -0.67311E-06  7469   0.465E-03    0.212E-02
RMM:   5    -0.705680336903E+03   -0.23775E-06   -0.20762E-06  6426   0.297E-03
  27 F= -.70568034E+03 E0= -.70566529E+03  d E =-.511071E-03
       N       E                     dE             d eps       ncg     rms          rms(c)
DAV:   1    -0.705674807220E+03    0.55294E-02   -0.49717E-01 10976   0.154E+00    0.188E-01
RMM:   2    -0.705680362295E+03   -0.55551E-02   -0.57287E-02 13659   0.395E-01    0.199E-01
RMM:   3    -0.705681054036E+03   -0.69174E-03   -0.59567E-03 15464   0.126E-01    0.319E-01
RMM:   4    -0.705680758449E+03    0.29559E-03   -0.10160E-03 14539   0.541E-02    0.132E-01
RMM:   5    -0.705680783350E+03   -0.24901E-04   -0.22658E-04 14808   0.203E-02    0.865E-02
RMM:   6    -0.705680723951E+03    0.59399E-04   -0.58462E-05 11556   0.118E-02    0.434E-02
RMM:   7    -0.705680715529E+03    0.84214E-05   -0.12558E-04 12819   0.138E-02    0.592E-02
RMM:   8    -0.705680699061E+03    0.16468E-04   -0.17963E-05 10629   0.703E-03    0.274E-02
RMM:   9    -0.705680705361E+03   -0.62998E-05   -0.38718E-06  7576   0.352E-03    0.395E-02
RMM:  10    -0.705680699322E+03    0.60390E-05   -0.45528E-06  8349   0.292E-03    0.244E-02
RMM:  11    -0.705680702088E+03   -0.27661E-05   -0.20431E-06  6865   0.214E-03    0.240E-02
RMM:  12    -0.705680701976E+03    0.11230E-06   -0.58419E-07  5994   0.162E-03
  28 F= -.70568070E+03 E0= -.70566568E+03  d E =-.365073E-03
       N       E                     dE             d eps       ncg     rms          rms(c)
DAV:   1    -0.705680639563E+03    0.62525E-04   -0.55948E-03 12000   0.163E-01    0.290E-02
RMM:   2    -0.705680716330E+03   -0.76767E-04   -0.65224E-04 13639   0.418E-02    0.670E-02
RMM:   3    -0.705680712691E+03    0.36387E-05   -0.79082E-05 13923   0.154E-02    0.495E-02
RMM:   4    -0.705680707670E+03    0.50207E-05   -0.17215E-05 10168   0.688E-03    0.178E-02
RMM:   5    -0.705680708008E+03   -0.33747E-06   -0.38490E-06  7463   0.368E-03
  29 F= -.70568071E+03 E0= -.70566569E+03  d E =-.371105E-03
       N       E                     dE             d eps       ncg     rms          rms(c)
DAV:   1    -0.705675822900E+03    0.48848E-02   -0.43263E-01 11048   0.145E+00    0.173E-01
RMM:   2    -0.705680571204E+03   -0.47483E-02   -0.49563E-02 13597   0.372E-01    0.101E-01
RMM:   3    -0.705681170892E+03   -0.59969E-03   -0.51760E-03 15580   0.115E-01    0.249E-01
RMM:   4    -0.705681004328E+03    0.16656E-03   -0.80142E-04 14804   0.460E-02    0.972E-02
RMM:   5    -0.705681021727E+03   -0.17399E-04   -0.16851E-04 14812   0.177E-02    0.774E-02
RMM:   6    -0.705680989400E+03    0.32326E-04   -0.41321E-05 11019   0.908E-03    0.464E-02
RMM:   7    -0.705680970539E+03    0.18862E-04   -0.12227E-04 13266   0.136E-02    0.429E-02
RMM:   8    -0.705680963043E+03    0.74957E-05   -0.16061E-05 10511   0.654E-03    0.209E-02
RMM:   9    -0.705680965885E+03   -0.28422E-05   -0.32062E-06  7215   0.320E-03    0.296E-02
RMM:  10    -0.705680961821E+03    0.40643E-05   -0.28399E-06  7076   0.257E-03    0.191E-02
RMM:  11    -0.705680962998E+03   -0.11774E-05   -0.22305E-06  7085   0.219E-03    0.175E-02
RMM:  12    -0.705680962971E+03    0.27263E-07   -0.51603E-07  5989   0.152E-03
  30 F= -.70568096E+03 E0= -.70566596E+03  d E =-.254963E-03
       N       E                     dE             d eps       ncg     rms          rms(c)
DAV:   1    -0.705680963120E+03   -0.12199E-06   -0.10085E-05 10172   0.712E-03    0.104E-02
RMM:   2    -0.705680966448E+03   -0.33273E-05   -0.41166E-06  7406   0.293E-03    0.265E-02
RMM:   3    -0.705680964979E+03    0.14684E-05   -0.31500E-06  6598   0.296E-03    0.193E-02
RMM:   4    -0.705680964016E+03    0.96337E-06   -0.49072E-07  6009   0.134E-03
  31 F= -.70568096E+03 E0= -.70566592E+03  d E =-.256008E-03
       N       E                     dE             d eps       ncg     rms          rms(c)
DAV:   1    -0.705679508553E+03    0.14564E-02   -0.20445E-01 10992   0.859E-01    0.941E-02
RMM:   2    -0.705680966393E+03   -0.14578E-02   -0.15252E-02 13623   0.232E-01    0.339E-02
RMM:   3    -0.705681127733E+03   -0.16134E-03   -0.19687E-03 15401   0.777E-02    0.376E-02
RMM:   4    -0.705681147013E+03   -0.19280E-04   -0.25581E-04 15411   0.265E-02    0.370E-02
RMM:   5    -0.705681143348E+03    0.36649E-05   -0.40302E-05 14149   0.963E-03    0.385E-02
RMM:   6    -0.705681131551E+03    0.11797E-04   -0.18594E-05 10436   0.678E-03    0.192E-02
RMM:   7    -0.705681131867E+03   -0.31557E-06   -0.26973E-05 11028   0.672E-03    0.177E-02
RMM:   8    -0.705681130564E+03    0.13031E-05   -0.35842E-06  8467   0.365E-03    0.879E-03
RMM:   9    -0.705681129835E+03    0.72871E-06   -0.12416E-06  6303   0.206E-03
  32 F= -.70568113E+03 E0= -.70566612E+03  d E =-.165819E-03
       N       E                     dE             d eps       ncg     rms          rms(c)
DAV:   1    -0.705681128788E+03    0.17755E-05   -0.41080E-05 10920   0.135E-02    0.284E-03
RMM:   2    -0.705681129249E+03   -0.46091E-06   -0.45315E-06  8367   0.449E-03
  33 F= -.70568113E+03 E0= -.70566612E+03  d E =-.165233E-03
       N       E                     dE             d eps       ncg     rms          rms(c)
DAV:   1    -0.705681129222E+03   -0.43400E-06   -0.37832E-05 11056   0.121E-02    0.266E-03
RMM:   2    -0.705681129965E+03   -0.74237E-06   -0.36282E-06  7471   0.382E-03
  34 F= -.70568113E+03 E0= -.70566614E+03  d E =-.165949E-03
       N       E                     dE             d eps       ncg     rms          rms(c)
DAV:   1    -0.705680590850E+03    0.53837E-03   -0.12360E-01 11032   0.584E-01    0.615E-02
RMM:   2    -0.705681139221E+03   -0.54837E-03   -0.57511E-03 13437   0.156E-01    0.272E-02
RMM:   3    -0.705681238227E+03   -0.99007E-04   -0.10904E-03 15257   0.580E-02    0.491E-02
RMM:   4    -0.705681244114E+03   -0.58862E-05   -0.14165E-04 15416   0.206E-02    0.361E-02
RMM:   5    -0.705681241738E+03    0.23754E-05   -0.22483E-05 12767   0.808E-03    0.248E-02
RMM:   6    -0.705681236574E+03    0.51642E-05   -0.96604E-06  9758   0.473E-03    0.159E-02
RMM:   7    -0.705681234658E+03    0.19162E-05   -0.15985E-05 10642   0.561E-03    0.997E-03
RMM:   8    -0.705681234778E+03   -0.12047E-06   -0.34321E-06  7722   0.337E-03
  35 F= -.70568123E+03 E0= -.70566621E+03  d E =-.104814E-03
       N       E                     dE             d eps       ncg     rms          rms(c)
DAV:   1    -0.705681231952E+03    0.27064E-05   -0.27721E-04 11444   0.277E-02    0.661E-03
RMM:   2    -0.705681233465E+03   -0.15131E-05   -0.16958E-05 12470   0.829E-03    0.590E-03
RMM:   3    -0.705681233709E+03   -0.24445E-06   -0.34575E-06  7614   0.361E-03
  36 F= -.70568123E+03 E0= -.70566621E+03  d E =-.103744E-03
       N       E                     dE             d eps       ncg     rms          rms(c)
DAV:   1    -0.705680370062E+03    0.86340E-03   -0.10217E-01 11272   0.645E-01    0.760E-02
RMM:   2    -0.705681231059E+03   -0.86100E-03   -0.89482E-03 13519   0.171E-01    0.505E-02
RMM:   3    -0.705681359045E+03   -0.12799E-03   -0.11068E-03 15403   0.564E-02    0.117E-01
RMM:   4    -0.705681322363E+03    0.36682E-04   -0.17006E-04 14586   0.230E-02    0.436E-02
RMM:   5    -0.705681325704E+03   -0.33405E-05   -0.33830E-05 12566   0.890E-03    0.356E-02
RMM:   6    -0.705681319680E+03    0.60235E-05   -0.84848E-06  8709   0.478E-03    0.201E-02
RMM:   7    -0.705681316938E+03    0.27427E-05   -0.21657E-05 11254   0.609E-03    0.182E-02
RMM:   8    -0.705681315330E+03    0.16074E-05   -0.29152E-06  7507   0.324E-03    0.855E-03
RMM:   9    -0.705681316072E+03   -0.74232E-06   -0.65722E-07  6025   0.172E-03
  37 F= -.70568132E+03 E0= -.70566634E+03  d E =-.823634E-04
       N       E                     dE             d eps       ncg     rms          rms(c)
DAV:   1    -0.705681310676E+03    0.46537E-05   -0.80023E-04 12400   0.566E-02    0.114E-02
RMM:   2    -0.705681319462E+03   -0.87855E-05   -0.73622E-05 13424   0.150E-02    0.207E-02
RMM:   3    -0.705681319972E+03   -0.50959E-06   -0.10226E-05 10378   0.578E-03    0.214E-02
RMM:   4    -0.705681318551E+03    0.14207E-05   -0.23170E-06  6342   0.330E-03    0.563E-03
RMM:   5    -0.705681318865E+03   -0.31468E-06   -0.63713E-07  6046   0.188E-03
  38 F= -.70568132E+03 E0= -.70566634E+03  d E =-.851564E-04
       N       E                     dE             d eps       ncg     rms          rms(c)
DAV:   1    -0.705681094639E+03    0.22391E-03   -0.38719E-02 11104   0.361E-01    0.393E-02
RMM:   2    -0.705681343364E+03   -0.24872E-03   -0.25947E-03 13605   0.974E-02    0.242E-02
RMM:   3    -0.705681381344E+03   -0.37980E-04   -0.35809E-04 15387   0.331E-02    0.563E-02
RMM:   4    -0.705681373366E+03    0.79786E-05   -0.51439E-05 13451   0.131E-02    0.257E-02
RMM:   5    -0.705681373759E+03   -0.39365E-06   -0.12356E-05 10909   0.635E-03    0.171E-02
RMM:   6    -0.705681371927E+03    0.18317E-05   -0.34000E-06  7402   0.324E-03    0.967E-03
RMM:   7    -0.705681370951E+03    0.97688E-06   -0.92301E-06 10566   0.389E-03
  39 F= -.70568137E+03 E0= -.70566639E+03  d E =-.520851E-04
       N       E                     dE             d eps       ncg     rms          rms(c)
DAV:   1    -0.705681320548E+03    0.51379E-04   -0.65512E-03 11688   0.149E-01    0.185E-02
RMM:   2    -0.705681363229E+03   -0.42681E-04   -0.44933E-04 13602   0.410E-02    0.880E-03
RMM:   3    -0.705681370392E+03   -0.71636E-05   -0.64654E-05 15010   0.142E-02    0.245E-02
RMM:   4    -0.705681368922E+03    0.14702E-05   -0.10536E-05 11735   0.607E-03    0.998E-03
RMM:   5    -0.705681369206E+03   -0.28405E-06   -0.25957E-06  6722   0.322E-03
  40 F= -.70568137E+03 E0= -.70566639E+03  d E =-.503407E-04
       N       E                     dE             d eps       ncg     rms          rms(c)
DAV:   1    -0.705681361940E+03    0.69821E-05   -0.11860E-03 11196   0.632E-02    0.903E-03
RMM:   2    -0.705681369898E+03   -0.79578E-05   -0.83798E-05 13567   0.173E-02    0.470E-03
RMM:   3    -0.705681370804E+03   -0.90635E-06   -0.11229E-05 12497   0.624E-03    0.547E-03
RMM:   4    -0.705681370936E+03   -0.13129E-06   -0.23219E-06  6356   0.334E-03
  41 F= -.70568137E+03 E0= -.70566636E+03  d E =-.520701E-04
       N       E                     dE             d eps       ncg     rms          rms(c)
DAV:   1    -0.705681368555E+03    0.22489E-05   -0.19926E-04 12008   0.261E-02    0.493E-03
RMM:   2    -0.705681370411E+03   -0.18557E-05   -0.15682E-05 10778   0.719E-03    0.122E-02
RMM:   3    -0.705681369992E+03    0.41966E-06   -0.22047E-06  6430   0.313E-03
  42 F= -.70568137E+03 E0= -.70566639E+03  d E =-.511260E-04
       N       E                     dE             d eps       ncg     rms          rms(c)
DAV:   1    -0.705681370358E+03    0.53071E-07   -0.69095E-05 10536   0.155E-02    0.460E-03
RMM:   2    -0.705681371357E+03   -0.99900E-06   -0.58495E-06  8693   0.452E-03
  43 F= -.70568137E+03 E0= -.70566640E+03  d E =-.524916E-04
       N       E                     dE             d eps       ncg     rms          rms(c)
DAV:   1    -0.705681370683E+03   -0.32502E-06   -0.17858E-05 11128   0.860E-03    0.681E-03
RMM:   2    -0.705681374023E+03   -0.33399E-05   -0.36001E-06  6573   0.344E-03    0.298E-02
RMM:   3    -0.705681370314E+03    0.37090E-05   -0.13184E-06  5619   0.210E-03    0.802E-03
RMM:   4    -0.705681370985E+03   -0.67087E-06   -0.35227E-07  5477   0.124E-03
  44 F= -.70568137E+03 E0= -.70566639E+03  d E =-.521193E-04
       N       E                     dE             d eps       ncg     rms          rms(c)
DAV:   1    -0.705681134555E+03    0.23576E-03   -0.40790E-02 11176   0.364E-01    0.385E-02
RMM:   2    -0.705681370064E+03   -0.23551E-03   -0.24590E-03 13510   0.972E-02    0.166E-02
RMM:   3    -0.705681405685E+03   -0.35621E-04   -0.37261E-04 15294   0.342E-02    0.412E-02
RMM:   4    -0.705681404756E+03    0.92958E-06   -0.52863E-05 14128   0.130E-02    0.202E-02
RMM:   5    -0.705681404403E+03    0.35243E-06   -0.10896E-05 10614   0.577E-03    0.141E-02
RMM:   6    -0.705681403076E+03    0.13275E-05   -0.31077E-06  7315   0.310E-03    0.941E-03
RMM:   7    -0.705681402175E+03    0.90052E-06   -0.87813E-06 10395   0.387E-03
  45 F= -.70568140E+03 E0= -.70566641E+03  d E =-.311903E-04
