Ga8 O12                                 
    1.000000000000000     
     0.0000000000000000   12.2804737091000007    0.0000000000000000
     9.1427011490000005    0.0000000000000000    0.0000000000000000
     0.0000000000000000   -2.7682616411000001  -11.3006974810000003
   Ga   O    Cu
    47    72     1
Direct
  0.6597189917888002  0.0014448546335544  0.1562233591080542
  0.6570790056090203  0.9995085625931281  0.6571170119915735
  0.6597189917888002  0.3318881453664488  0.1562233591080542
  0.6570790056090203  0.3338244374068751  0.6571170119915735
  0.6594749836404148  0.6666669999999968  0.1581316702678919
  0.6580733047187834  0.6666669999999968  0.6551808235803449
  0.8395032226263694  0.1666669999999968  0.3412138889705716
  0.8396808162081797  0.1666669999999968  0.8436132595196142
  0.8412400690868580  0.4997705312126186  0.3430208636411720
  0.8406198588459688  0.4999957005533275  0.8429229615222269
  0.8412400690868580  0.8335624687873846  0.3430208636411720
  0.8406198588459688  0.8333372994466757  0.8429229615222269
  0.5893116702422390  0.1666669999999968  0.8974314997794792
  0.5900276864543699  0.4966320626761416  0.3972768416983428
  0.5907281552965529  0.4999702770659695  0.8981814739863339
  0.5900276864543699  0.8367009373238616  0.3972768416983428
  0.5907281552965529  0.8333627229340337  0.8981814739863339
  0.9106087646352918  0.9997623674770324  0.1024275811861486
  0.9076645584463634  0.0004040557162739  0.6021220865643997
  0.9106087646352918  0.3335706325229708  0.1024275811861486
  0.9076645584463634  0.3329289442837293  0.6021220865643997
  0.9095075881997445  0.6666669999999968  0.1022925266688333
  0.9084186295563370  0.6666669999999968  0.6024495319953047
  0.1607851404948448  0.1666669999999968  0.1573102032265368
  0.1586748640316600  0.1666669999999968  0.6565016094463445
  0.1602085944894256  0.5000371728755511  0.1572080425206437
  0.1579887946255667  0.4998962276806935  0.6567315379023171
  0.1602085944894256  0.8332958271244522  0.1572080425206437
  0.1579887946255667  0.8334367723193097  0.6567315379023171
  0.3446509708090346  0.0006987732205630  0.3447445603249122
  0.3403696495525708  0.0003521791995098  0.8437344920314942
  0.3446509708090346  0.3326342267794402  0.3447445603249122
  0.3403696495525708  0.3329808208004934  0.8437344920314942
  0.3425795145056654  0.6666669999999968  0.3433997100925268
  0.3403217374641088  0.6666669999999968  0.8431173022281158
  0.0918265926503778  0.0003457010539023  0.3969526554776550
  0.0903484880544738  0.0001335736349759  0.8977575831365172
  0.0918265926503778  0.3329872989461009  0.3969526554776550
  0.0903484880544738  0.3331994263650273  0.8977575831365172
  0.0917486022888667  0.6666669999999968  0.3973083486059750
  0.0909173715907983  0.6666669999999968  0.8980101354607868
  0.4109619980902224  0.1666669999999968  0.1046179180347195
  0.4091106144822305  0.1666669999999968  0.6009184129059761
  0.4091504068929552  0.5000706435147606  0.1024811694861683
  0.4070896660185355  0.5004947342839614  0.6014532149640957
  0.4091504068929552  0.8332623564852426  0.1024811694861683
  0.4070896660185355  0.8328382657160418  0.6014532149640957
  0.9977588826983137  0.1666669999999968  0.1270629068740163
  0.9957713841370435  0.1666669999999968  0.6276449453465460
  0.9975273161456357  0.5005878263275392  0.1269494272335194
  0.9954408741764667  0.4995995514055167  0.6275667724195984
  0.9975273161456357  0.8327451736724640  0.1269494272335194
  0.9954408741764667  0.8337334485944865  0.6275667724195984
  0.5018477825702092  0.9971755708759744  0.3721483669360239
  0.5025228925212772  0.9992891375133652  0.8726266676839316
  0.5018477825702092  0.3361574291240288  0.3721483669360239
  0.5025228925212772  0.3340438624866380  0.8726266676839316
  0.5045951295699354  0.6666669999999968  0.3736829805070343
  0.5031461030915594  0.6666669999999968  0.8728046577014368
  0.6733992601311485  0.1666669999999968  0.2702965953910521
  0.6730897079735740  0.1666669999999968  0.7842383590634014
  0.6736291502968612  0.5005190003036191  0.2805989266396480
  0.6721336788326511  0.5003091741121750  0.7809238573909951
  0.6736291502968612  0.8328139996963841  0.2805989266396480
  0.6721336788326511  0.8330238258878282  0.7809238573909951
  0.8298593180962470  0.9980831379201547  0.2192971296218289
  0.8274223422772522  0.9996305895459940  0.7201792318408948
  0.8298593180962470  0.3352498620798485  0.2192971296218289
  0.8274223422772522  0.3337024104540092  0.7201792318408948
  0.8285869510621993  0.6666669999999968  0.2194709396280459
  0.8272144010008944  0.6666669999999968  0.7197683965510038
  0.8323820106591668  0.0006919662757170  0.4452291058994433
  0.8338557408934193  0.9991588230294042  0.9461676948287163
  0.8323820106591668  0.3326410337242862  0.4452291058994433
  0.8338557408934193  0.3341741769705990  0.9461676948287163
  0.8336282889500026  0.6666669999999968  0.4456569691420782
  0.8325273531206179  0.6666669999999968  0.9457632253734758
  0.6701019429792794  0.1666669999999968  0.0509364861607651
  0.6639684919308948  0.1666669999999968  0.5624343875252649
  0.6683209802389456  0.5002377328156840  0.0543551845761669
  0.6682895806261584  0.5001749498237373  0.5547361791732115
  0.6683209802389456  0.8330952671843193  0.0543551845761669
  0.6682895806261584  0.8331580501762659  0.5547361791732115
  0.4966502085809594  0.9991061311169744  0.1244621933973917
  0.4944415648775902  0.9987038862708104  0.6296067682731064
  0.4966502085809594  0.3342268688830288  0.1244621933973917
  0.4944415648775902  0.3346291137291928  0.6296067682731064
  0.4966329315468414  0.6666669999999968  0.1265514146380298
  0.4953023299901744  0.6666669999999968  0.6276598056441856
  0.0036808692156782  0.1666669999999968  0.3724618178349459
  0.0029871474374872  0.1666669999999968  0.8725462967300359
  0.0043418648382101  0.4998736574918468  0.3729727401618916
  0.0034853160462518  0.5002273648277225  0.8724825674441021
  0.0043418648382101  0.8334593425081565  0.3729727401618916
  0.0034853160462518  0.8331056351722808  0.8724825674441021
  0.1736189227954696  0.9997968681034379  0.2803064891006386
  0.1719235244045336  0.0002482046377850  0.7806679067295832
  0.1736189227954696  0.3335361318965653  0.2803064891006386
  0.1719235244045336  0.3330847953622182  0.7806679067295832
  0.1726154800287745  0.6666669999999968  0.2800634464577598
  0.1714866029651105  0.6666669999999968  0.7803263582476134
  0.3272005077053279  0.1666669999999968  0.2189856053606576
  0.3269074246892529  0.1666669999999968  0.7192818825107636
  0.3271064908532253  0.5014771549615133  0.2186362884240083
  0.3260815003540074  0.5005054725792561  0.7194538055288930
  0.3271064908532253  0.8318558450384899  0.2186362884240083
  0.3260815003540074  0.8328275274207471  0.7194538055288930
  0.3283746686710387  0.1666669999999968  0.4460934893459196
  0.3327823660737721  0.1666669999999968  0.9469004478409744
  0.3289055729896333  0.5011354144056455  0.4456048717320442
  0.3314795891627611  0.5003639943643989  0.9456929283416500
  0.3289055729896333  0.8321975855943577  0.4456048717320442
  0.3314795891627611  0.8329690056356043  0.9456929283416500
  0.1677335256746417  0.9998777986744898  0.0538596409198391
  0.1665157988090797  0.9998766464669373  0.5544166894095426
  0.1677335256746417  0.3334552013255134  0.0538596409198391
  0.1665157988090797  0.3334563535330659  0.5544166894095426
  0.1679583778192963  0.6666669999999968  0.0539322669014410
  0.1662997604055079  0.6666669999999968  0.5546122377688292
  0.6052419787121934  0.1666669999999968  0.4007335021742549
 
  0.00000000E+00  0.00000000E+00  0.00000000E+00
  0.00000000E+00  0.00000000E+00  0.00000000E+00
  0.00000000E+00  0.00000000E+00  0.00000000E+00
  0.00000000E+00  0.00000000E+00  0.00000000E+00
  0.00000000E+00  0.00000000E+00  0.00000000E+00
  0.00000000E+00  0.00000000E+00  0.00000000E+00
  0.00000000E+00  0.00000000E+00  0.00000000E+00
  0.00000000E+00  0.00000000E+00  0.00000000E+00
  0.00000000E+00  0.00000000E+00  0.00000000E+00
  0.00000000E+00  0.00000000E+00  0.00000000E+00
  0.00000000E+00  0.00000000E+00  0.00000000E+00
  0.00000000E+00  0.00000000E+00  0.00000000E+00
  0.00000000E+00  0.00000000E+00  0.00000000E+00
  0.00000000E+00  0.00000000E+00  0.00000000E+00
  0.00000000E+00  0.00000000E+00  0.00000000E+00
  0.00000000E+00  0.00000000E+00  0.00000000E+00
  0.00000000E+00  0.00000000E+00  0.00000000E+00
  0.00000000E+00  0.00000000E+00  0.00000000E+00
  0.00000000E+00  0.00000000E+00  0.00000000E+00
  0.00000000E+00  0.00000000E+00  0.00000000E+00
  0.00000000E+00  0.00000000E+00  0.00000000E+00
  0.00000000E+00  0.00000000E+00  0.00000000E+00
  0.00000000E+00  0.00000000E+00  0.00000000E+00
  0.00000000E+00  0.00000000E+00  0.00000000E+00
  0.00000000E+00  0.00000000E+00  0.00000000E+00
  0.00000000E+00  0.00000000E+00  0.00000000E+00
  0.00000000E+00  0.00000000E+00  0.00000000E+00
  0.00000000E+00  0.00000000E+00  0.00000000E+00
  0.00000000E+00  0.00000000E+00  0.00000000E+00
  0.00000000E+00  0.00000000E+00  0.00000000E+00
  0.00000000E+00  0.00000000E+00  0.00000000E+00
  0.00000000E+00  0.00000000E+00  0.00000000E+00
  0.00000000E+00  0.00000000E+00  0.00000000E+00
  0.00000000E+00  0.00000000E+00  0.00000000E+00
  0.00000000E+00  0.00000000E+00  0.00000000E+00
  0.00000000E+00  0.00000000E+00  0.00000000E+00
  0.00000000E+00  0.00000000E+00  0.00000000E+00
  0.00000000E+00  0.00000000E+00  0.00000000E+00
  0.00000000E+00  0.00000000E+00  0.00000000E+00
  0.00000000E+00  0.00000000E+00  0.00000000E+00
  0.00000000E+00  0.00000000E+00  0.00000000E+00
  0.00000000E+00  0.00000000E+00  0.00000000E+00
  0.00000000E+00  0.00000000E+00  0.00000000E+00
  0.00000000E+00  0.00000000E+00  0.00000000E+00
  0.00000000E+00  0.00000000E+00  0.00000000E+00
  0.00000000E+00  0.00000000E+00  0.00000000E+00
  0.00000000E+00  0.00000000E+00  0.00000000E+00
  0.00000000E+00  0.00000000E+00  0.00000000E+00
  0.00000000E+00  0.00000000E+00  0.00000000E+00
  0.00000000E+00  0.00000000E+00  0.00000000E+00
  0.00000000E+00  0.00000000E+00  0.00000000E+00
  0.00000000E+00  0.00000000E+00  0.00000000E+00
  0.00000000E+00  0.00000000E+00  0.00000000E+00
  0.00000000E+00  0.00000000E+00  0.00000000E+00
  0.00000000E+00  0.00000000E+00  0.00000000E+00
  0.00000000E+00  0.00000000E+00  0.00000000E+00
  0.00000000E+00  0.00000000E+00  0.00000000E+00
  0.00000000E+00  0.00000000E+00  0.00000000E+00
  0.00000000E+00  0.00000000E+00  0.00000000E+00
  0.00000000E+00  0.00000000E+00  0.00000000E+00
  0.00000000E+00  0.00000000E+00  0.00000000E+00
  0.00000000E+00  0.00000000E+00  0.00000000E+00
  0.00000000E+00  0.00000000E+00  0.00000000E+00
  0.00000000E+00  0.00000000E+00  0.00000000E+00
  0.00000000E+00  0.00000000E+00  0.00000000E+00
  0.00000000E+00  0.00000000E+00  0.00000000E+00
  0.00000000E+00  0.00000000E+00  0.00000000E+00
  0.00000000E+00  0.00000000E+00  0.00000000E+00
  0.00000000E+00  0.00000000E+00  0.00000000E+00
  0.00000000E+00  0.00000000E+00  0.00000000E+00
  0.00000000E+00  0.00000000E+00  0.00000000E+00
  0.00000000E+00  0.00000000E+00  0.00000000E+00
  0.00000000E+00  0.00000000E+00  0.00000000E+00
  0.00000000E+00  0.00000000E+00  0.00000000E+00
  0.00000000E+00  0.00000000E+00  0.00000000E+00
  0.00000000E+00  0.00000000E+00  0.00000000E+00
  0.00000000E+00  0.00000000E+00  0.00000000E+00
  0.00000000E+00  0.00000000E+00  0.00000000E+00
  0.00000000E+00  0.00000000E+00  0.00000000E+00
  0.00000000E+00  0.00000000E+00  0.00000000E+00
  0.00000000E+00  0.00000000E+00  0.00000000E+00
  0.00000000E+00  0.00000000E+00  0.00000000E+00
  0.00000000E+00  0.00000000E+00  0.00000000E+00
  0.00000000E+00  0.00000000E+00  0.00000000E+00
  0.00000000E+00  0.00000000E+00  0.00000000E+00
  0.00000000E+00  0.00000000E+00  0.00000000E+00
  0.00000000E+00  0.00000000E+00  0.00000000E+00
  0.00000000E+00  0.00000000E+00  0.00000000E+00
  0.00000000E+00  0.00000000E+00  0.00000000E+00
  0.00000000E+00  0.00000000E+00  0.00000000E+00
  0.00000000E+00  0.00000000E+00  0.00000000E+00
  0.00000000E+00  0.00000000E+00  0.00000000E+00
  0.00000000E+00  0.00000000E+00  0.00000000E+00
  0.00000000E+00  0.00000000E+00  0.00000000E+00
  0.00000000E+00  0.00000000E+00  0.00000000E+00
  0.00000000E+00  0.00000000E+00  0.00000000E+00
  0.00000000E+00  0.00000000E+00  0.00000000E+00
  0.00000000E+00  0.00000000E+00  0.00000000E+00
  0.00000000E+00  0.00000000E+00  0.00000000E+00
  0.00000000E+00  0.00000000E+00  0.00000000E+00
  0.00000000E+00  0.00000000E+00  0.00000000E+00
  0.00000000E+00  0.00000000E+00  0.00000000E+00
  0.00000000E+00  0.00000000E+00  0.00000000E+00
  0.00000000E+00  0.00000000E+00  0.00000000E+00
  0.00000000E+00  0.00000000E+00  0.00000000E+00
  0.00000000E+00  0.00000000E+00  0.00000000E+00
  0.00000000E+00  0.00000000E+00  0.00000000E+00
  0.00000000E+00  0.00000000E+00  0.00000000E+00
  0.00000000E+00  0.00000000E+00  0.00000000E+00
  0.00000000E+00  0.00000000E+00  0.00000000E+00
  0.00000000E+00  0.00000000E+00  0.00000000E+00
  0.00000000E+00  0.00000000E+00  0.00000000E+00
  0.00000000E+00  0.00000000E+00  0.00000000E+00
  0.00000000E+00  0.00000000E+00  0.00000000E+00
  0.00000000E+00  0.00000000E+00  0.00000000E+00
  0.00000000E+00  0.00000000E+00  0.00000000E+00
  0.00000000E+00  0.00000000E+00  0.00000000E+00
  0.00000000E+00  0.00000000E+00  0.00000000E+00
  0.00000000E+00  0.00000000E+00  0.00000000E+00
  0.00000000E+00  0.00000000E+00  0.00000000E+00
