Ga8 O12                                 
    1.000000000000000     
     0.0000000000000000   12.2804737091000007    0.0000000000000000
     9.1427011490000005    0.0000000000000000    0.0000000000000000
     0.0000000000000000   -2.7682616411000001  -11.3006974810000003
   Ga   O    Cu
    47    72     1
Direct
  0.6597189917888013  0.0014448546335561  0.1562233591080535
  0.6570790056090207 -0.0004914374068729  0.6571170119915732
  0.6597189917888013  0.3318881453664471  0.1562233591080535
  0.6570790056090207  0.3338244374068760  0.6571170119915732
  0.6594749836404179  0.6666669999999968  0.1581316702678892
  0.6580733047187863  0.6666669999999968  0.6551808235803470
  0.8395032226263665  0.1666669999999968  0.3412138889705706
  0.8396808162081826  0.1666669999999968  0.8436132595196135
  0.8412400690868552  0.4997705312126166  0.3430208636411701
  0.8406198588459692  0.4999957005533258  0.8429229615222267
  0.8412400690868552  0.8335624687873858  0.3430208636411701
  0.8406198588459692  0.8333372994466772  0.8429229615222267
  0.5893116702422364  0.1666669999999968  0.8974314997794771
  0.5900276864543702  0.4966320626761399  0.3972768416983415
  0.5907281552965552  0.4999702770659730  0.8981814739863342
  0.5900276864543702  0.8367009373238634  0.3972768416983415
  0.5907281552965552  0.8333627229340304  0.8981814739863342
  0.9106087646352901 -0.0002376325229707  0.1024275811861452
  0.9076645584463604  0.0004040557162706  0.6021220865644009
  0.9106087646352901  0.3335706325229740  0.1024275811861452
  0.9076645584463604  0.3329289442837327  0.6021220865644009
  0.9095075881997435  0.6666669999999968  0.1022925266688341
  0.9084186295563363  0.6666669999999968  0.6024495319953082
  0.1607851404948454  0.1666669999999968  0.1573102032265379
  0.1586748640316569  0.1666669999999968  0.6565016094463424
  0.1602085944894231  0.5000371728755495  0.1572080425206420
  0.1579887946255669  0.4998962276806902  0.6567315379023196
  0.1602085944894231  0.8332958271244539  0.1572080425206420
  0.1579887946255669  0.8334367723193130  0.6567315379023196
  0.3446509708090332  0.0006987732205601  0.3447445603249120
  0.3403696495525741  0.0003521791995099  0.8437344920314943
  0.3446509708090332  0.3326342267794433  0.3447445603249120
  0.3403696495525741  0.3329808208004933  0.8437344920314943
  0.3425795145056654  0.6666669999999968  0.3433997100925301
  0.3403217374641113  0.6666669999999968  0.8431173022281170
  0.0918265926503792  0.0003457010539054  0.3969526554776568
  0.0903484880544710  0.0001335736349734  0.8977575831365155
  0.0918265926503792  0.3329872989460978  0.3969526554776568
  0.0903484880544710  0.3331994263650297  0.8977575831365155
  0.0917486022888686  0.6666669999999968  0.3973083486059723
  0.0909173715907962  0.6666669999999968  0.8980101354607871
  0.4109619980902195  0.1666669999999968  0.1046179180347186
  0.4091106144822275  0.1666669999999968  0.6009184129059753
  0.4091504068929523  0.5000706435147581  0.1024811694861677
  0.4070896660185323  0.5004947342839642  0.6014532149640954
  0.4091504068929523  0.8332623564852453  0.1024811694861677
  0.4070896660185323  0.8328382657160390  0.6014532149640954
  0.9977588826983170  0.1666669999999968  0.1270629068740193
  0.9957713841370470  0.1666669999999968  0.6276449453465458
  0.9975273161456344  0.5005878263275417  0.1269494272335162
  0.9954408741764702  0.4995995514055150  0.6275667724195999
  0.9975273161456344  0.8327451736724615  0.1269494272335162
  0.9954408741764702  0.8337334485944884  0.6275667724195999
  0.5018477825702111 -0.0028244291240230  0.3721483669360273
  0.5025228925212779 -0.0007108624866365  0.8726266676839322
  0.5018477825702111  0.3361574291240263  0.3721483669360273
  0.5025228925212779  0.3340438624866397  0.8726266676839322
  0.5045951295699360  0.6666669999999968  0.3736829805070371
  0.5031461030915565  0.6666669999999968  0.8728046577014392
  0.6733992601311478  0.1666669999999968  0.2702965953910507
  0.6730897079735758  0.1666669999999968  0.7842383590634041
  0.6736291502968610  0.5005190003036217  0.2805989266396464
  0.6721336788326475  0.5003091741121758  0.7809238573909951
  0.6736291502968610  0.8328139996963815  0.2805989266396464
  0.6721336788326475  0.8330238258878274  0.7809238573909951
  0.8298593180962456 -0.0019168620798487  0.2192971296218284
  0.8274223422772500 -0.0003694104540074  0.7201792318408978
  0.8298593180962456  0.3352498620798519  0.2192971296218284
  0.8274223422772500  0.3337024104540106  0.7201792318408978
  0.8285869510621977  0.6666669999999968  0.2194709396280430
  0.8272144010008968  0.6666669999999968  0.7197683965510021
  0.8323820106591675  0.0006919662757204  0.4452291058994466
  0.8338557408934216 -0.0008411769705961  0.9461676948287148
  0.8323820106591675  0.3326410337242828  0.4452291058994466
  0.8338557408934216  0.3341741769705991  0.9461676948287148
  0.8336282889500030  0.6666669999999968  0.4456569691420768
  0.8325273531206201  0.6666669999999968  0.9457632253734758
  0.6701019429792787  0.1666669999999968  0.0509364861607683
  0.6639684919308920  0.1666669999999968  0.5624343875252628
  0.6683209802389445  0.5002377328156821  0.0543551845761669
  0.6682895806261555  0.5001749498237367  0.5547361791732138
  0.6683209802389445  0.8330952671843211  0.0543551845761669
  0.6682895806261555  0.8331580501762665  0.5547361791732138
  0.4966502085809605 -0.0008938688830282  0.1244621933973897
  0.4944415648775924 -0.0012961137291915  0.6296067682731059
  0.4966502085809605  0.3342268688830314  0.1244621933973897
  0.4944415648775924  0.3346291137291946  0.6296067682731059
  0.4966329315468405  0.6666669999999968  0.1265514146380272
  0.4953023299901751  0.6666669999999968  0.6276598056441881
  0.0036808692156780  0.1666669999999968  0.3724618178349463
  0.0029871474374887  0.1666669999999968  0.8725462967300366
  0.0043418648382124  0.4998736574918475  0.3729727401618917
  0.0034853160462553  0.5002273648277215  0.8724825674441011
  0.0043418648382124  0.8334593425081557  0.3729727401618917
  0.0034853160462553  0.8331056351722818  0.8724825674441011
  0.1736189227954678 -0.0002031318965621  0.2803064891006388
  0.1719235244045320  0.0002482046377854  0.7806679067295845
  0.1736189227954678  0.3335361318965651  0.2803064891006388
  0.1719235244045320  0.3330847953622180  0.7806679067295845
  0.1726154800287730  0.6666669999999968  0.2800634464577610
  0.1714866029651136  0.6666669999999968  0.7803263582476118
  0.3272005077053289  0.1666669999999968  0.2189856053606590
  0.3269074246892513  0.1666669999999968  0.7192818825107649
  0.3271064908532259  0.5014771549615143  0.2186362884240077
  0.3260815003540046  0.5005054725792540  0.7194538055288939
  0.3271064908532259  0.8318558450384889  0.2186362884240077
  0.3260815003540046  0.8328275274207492  0.7194538055288939
  0.3283746686710396  0.1666669999999968  0.4460934893459176
  0.3327823660737728  0.1666669999999968  0.9469004478409749
  0.3289055729896367  0.5011354144056421  0.4456048717320445
  0.3314795891627588  0.5003639943644007  0.9456929283416491
  0.3289055729896367  0.8321975855943611  0.4456048717320445
  0.3314795891627588  0.8329690056356025  0.9456929283416491
  0.1677335256746416 -0.0001222013255077  0.0538596409198375
  0.1665157988090797 -0.0001233535330648  0.5544166894095405
  0.1677335256746416  0.3334552013255108  0.0538596409198375
  0.1665157988090797  0.3334563535330679  0.5544166894095405
  0.1679583778192951  0.6666669999999968  0.0539322669014383
  0.1662997604055063  0.6666669999999968  0.5546122377688293
  0.6052419787121905  0.1666669999999968  0.4007335021742566
 
  0.00000000E+00  0.00000000E+00  0.00000000E+00
  0.00000000E+00  0.00000000E+00  0.00000000E+00
  0.00000000E+00  0.00000000E+00  0.00000000E+00
  0.00000000E+00  0.00000000E+00  0.00000000E+00
  0.00000000E+00  0.00000000E+00  0.00000000E+00
  0.00000000E+00  0.00000000E+00  0.00000000E+00
  0.00000000E+00  0.00000000E+00  0.00000000E+00
  0.00000000E+00  0.00000000E+00  0.00000000E+00
  0.00000000E+00  0.00000000E+00  0.00000000E+00
  0.00000000E+00  0.00000000E+00  0.00000000E+00
  0.00000000E+00  0.00000000E+00  0.00000000E+00
  0.00000000E+00  0.00000000E+00  0.00000000E+00
  0.00000000E+00  0.00000000E+00  0.00000000E+00
  0.00000000E+00  0.00000000E+00  0.00000000E+00
  0.00000000E+00  0.00000000E+00  0.00000000E+00
  0.00000000E+00  0.00000000E+00  0.00000000E+00
  0.00000000E+00  0.00000000E+00  0.00000000E+00
  0.00000000E+00  0.00000000E+00  0.00000000E+00
  0.00000000E+00  0.00000000E+00  0.00000000E+00
  0.00000000E+00  0.00000000E+00  0.00000000E+00
  0.00000000E+00  0.00000000E+00  0.00000000E+00
  0.00000000E+00  0.00000000E+00  0.00000000E+00
  0.00000000E+00  0.00000000E+00  0.00000000E+00
  0.00000000E+00  0.00000000E+00  0.00000000E+00
  0.00000000E+00  0.00000000E+00  0.00000000E+00
  0.00000000E+00  0.00000000E+00  0.00000000E+00
  0.00000000E+00  0.00000000E+00  0.00000000E+00
  0.00000000E+00  0.00000000E+00  0.00000000E+00
  0.00000000E+00  0.00000000E+00  0.00000000E+00
  0.00000000E+00  0.00000000E+00  0.00000000E+00
  0.00000000E+00  0.00000000E+00  0.00000000E+00
  0.00000000E+00  0.00000000E+00  0.00000000E+00
  0.00000000E+00  0.00000000E+00  0.00000000E+00
  0.00000000E+00  0.00000000E+00  0.00000000E+00
  0.00000000E+00  0.00000000E+00  0.00000000E+00
  0.00000000E+00  0.00000000E+00  0.00000000E+00
  0.00000000E+00  0.00000000E+00  0.00000000E+00
  0.00000000E+00  0.00000000E+00  0.00000000E+00
  0.00000000E+00  0.00000000E+00  0.00000000E+00
  0.00000000E+00  0.00000000E+00  0.00000000E+00
  0.00000000E+00  0.00000000E+00  0.00000000E+00
  0.00000000E+00  0.00000000E+00  0.00000000E+00
  0.00000000E+00  0.00000000E+00  0.00000000E+00
  0.00000000E+00  0.00000000E+00  0.00000000E+00
  0.00000000E+00  0.00000000E+00  0.00000000E+00
  0.00000000E+00  0.00000000E+00  0.00000000E+00
  0.00000000E+00  0.00000000E+00  0.00000000E+00
  0.00000000E+00  0.00000000E+00  0.00000000E+00
  0.00000000E+00  0.00000000E+00  0.00000000E+00
  0.00000000E+00  0.00000000E+00  0.00000000E+00
  0.00000000E+00  0.00000000E+00  0.00000000E+00
  0.00000000E+00  0.00000000E+00  0.00000000E+00
  0.00000000E+00  0.00000000E+00  0.00000000E+00
  0.00000000E+00  0.00000000E+00  0.00000000E+00
  0.00000000E+00  0.00000000E+00  0.00000000E+00
  0.00000000E+00  0.00000000E+00  0.00000000E+00
  0.00000000E+00  0.00000000E+00  0.00000000E+00
  0.00000000E+00  0.00000000E+00  0.00000000E+00
  0.00000000E+00  0.00000000E+00  0.00000000E+00
  0.00000000E+00  0.00000000E+00  0.00000000E+00
  0.00000000E+00  0.00000000E+00  0.00000000E+00
  0.00000000E+00  0.00000000E+00  0.00000000E+00
  0.00000000E+00  0.00000000E+00  0.00000000E+00
  0.00000000E+00  0.00000000E+00  0.00000000E+00
  0.00000000E+00  0.00000000E+00  0.00000000E+00
  0.00000000E+00  0.00000000E+00  0.00000000E+00
  0.00000000E+00  0.00000000E+00  0.00000000E+00
  0.00000000E+00  0.00000000E+00  0.00000000E+00
  0.00000000E+00  0.00000000E+00  0.00000000E+00
  0.00000000E+00  0.00000000E+00  0.00000000E+00
  0.00000000E+00  0.00000000E+00  0.00000000E+00
  0.00000000E+00  0.00000000E+00  0.00000000E+00
  0.00000000E+00  0.00000000E+00  0.00000000E+00
  0.00000000E+00  0.00000000E+00  0.00000000E+00
  0.00000000E+00  0.00000000E+00  0.00000000E+00
  0.00000000E+00  0.00000000E+00  0.00000000E+00
  0.00000000E+00  0.00000000E+00  0.00000000E+00
  0.00000000E+00  0.00000000E+00  0.00000000E+00
  0.00000000E+00  0.00000000E+00  0.00000000E+00
  0.00000000E+00  0.00000000E+00  0.00000000E+00
  0.00000000E+00  0.00000000E+00  0.00000000E+00
  0.00000000E+00  0.00000000E+00  0.00000000E+00
  0.00000000E+00  0.00000000E+00  0.00000000E+00
  0.00000000E+00  0.00000000E+00  0.00000000E+00
  0.00000000E+00  0.00000000E+00  0.00000000E+00
  0.00000000E+00  0.00000000E+00  0.00000000E+00
  0.00000000E+00  0.00000000E+00  0.00000000E+00
  0.00000000E+00  0.00000000E+00  0.00000000E+00
  0.00000000E+00  0.00000000E+00  0.00000000E+00
  0.00000000E+00  0.00000000E+00  0.00000000E+00
  0.00000000E+00  0.00000000E+00  0.00000000E+00
  0.00000000E+00  0.00000000E+00  0.00000000E+00
  0.00000000E+00  0.00000000E+00  0.00000000E+00
  0.00000000E+00  0.00000000E+00  0.00000000E+00
  0.00000000E+00  0.00000000E+00  0.00000000E+00
  0.00000000E+00  0.00000000E+00  0.00000000E+00
  0.00000000E+00  0.00000000E+00  0.00000000E+00
  0.00000000E+00  0.00000000E+00  0.00000000E+00
  0.00000000E+00  0.00000000E+00  0.00000000E+00
  0.00000000E+00  0.00000000E+00  0.00000000E+00
  0.00000000E+00  0.00000000E+00  0.00000000E+00
  0.00000000E+00  0.00000000E+00  0.00000000E+00
  0.00000000E+00  0.00000000E+00  0.00000000E+00
  0.00000000E+00  0.00000000E+00  0.00000000E+00
  0.00000000E+00  0.00000000E+00  0.00000000E+00
  0.00000000E+00  0.00000000E+00  0.00000000E+00
  0.00000000E+00  0.00000000E+00  0.00000000E+00
  0.00000000E+00  0.00000000E+00  0.00000000E+00
  0.00000000E+00  0.00000000E+00  0.00000000E+00
  0.00000000E+00  0.00000000E+00  0.00000000E+00
  0.00000000E+00  0.00000000E+00  0.00000000E+00
  0.00000000E+00  0.00000000E+00  0.00000000E+00
  0.00000000E+00  0.00000000E+00  0.00000000E+00
  0.00000000E+00  0.00000000E+00  0.00000000E+00
  0.00000000E+00  0.00000000E+00  0.00000000E+00
  0.00000000E+00  0.00000000E+00  0.00000000E+00
  0.00000000E+00  0.00000000E+00  0.00000000E+00
  0.00000000E+00  0.00000000E+00  0.00000000E+00
  0.00000000E+00  0.00000000E+00  0.00000000E+00
  0.00000000E+00  0.00000000E+00  0.00000000E+00
