Ga8 O12                                 
    1.000000000000000     
     0.0000000000000000   12.2804737091000007    0.0000000000000000
     9.1427011490000005    0.0000000000000000    0.0000000000000000
     0.0000000000000000   -2.7682616411000001  -11.3006974810000003
   Ga   O    Cu   N 
    47    71     1     1
Direct
  0.6585148709060675  0.0000001617350094  0.1587583929587666
  0.6586080410642268  0.9999995639033372  0.6570405219395425
  0.6559288720865553  0.3360304895638109  0.1576776832576954
  0.6578309089073500  0.3325197609947992  0.6585739855472426
  0.6559290571499972  0.6639690615112244  0.1576755204581346
  0.6578297048478277  0.6674803767780091  0.6585737594779744
  0.8404501010622880  0.1667831993675080  0.3429470125666256
  0.8415406347208503  0.1665130644368489  0.8440012379501525
  0.8358239589996046  0.5000001538413912  0.3434517104793429
  0.8404719842748705  0.5000002059222339  0.8447247714999975
  0.8404493136879410  0.8332150455800260  0.3429456392856949
  0.8415407426983066  0.8334875170337810  0.8440018056510539
  0.5914449492770402  0.1686128002145466  0.3981898921717786
  0.5906591789155371  0.1670950974341068  0.8993973390425936
  0.5894605459586089  0.4999990319537275  0.8975508393384146
  0.5914452192143287  0.8313860814473344  0.3981891971624876
  0.5906585967000382  0.8329050647648799  0.8993970778143847
  0.9098089217085459  0.0000004153117885  0.1031870195207247
  0.9086023573168447  0.0000001635186493  0.6027500816313207
  0.9092831806845965  0.3333461989141711  0.1035858744619915
  0.9090985449548299  0.3330790608629073  0.6034679533348566
  0.9092836975389460  0.6666543594781373  0.1035864708899936
  0.9090973613422619  0.6669208021274073  0.6034686973841730
  0.1597335804668418  0.1671745093616295  0.1579150298277909
  0.1583799878980230  0.1667324192829156  0.6558975499479303
  0.1598079024555332  0.5000001497319886  0.1578138439742105
  0.1590006175399878  0.5000003153972870  0.6556644181266762
  0.1597336749165450  0.8328262935646578  0.1579144403015320
  0.1583792731869025  0.8332672007755875  0.6558971408420788
  0.3428967666956737  0.9999994462118735  0.3430526852023306
  0.3401313877811774  0.9999987764187566  0.8415324300812159
  0.3465862827713195  0.3350488345123708  0.3434593345083243
  0.3400083772984743  0.3335812664323896  0.8427595670873131
  0.3465864424847993  0.6649521692388234  0.3434583682715484
  0.3400087290590506  0.6664151311794555  0.8427583428816021
  0.0908636415250612  0.9999997919106676  0.3971545661577309
  0.0922534912925386  0.0000002764793336  0.8981418286797123
  0.0903765775194643  0.3343338575808303  0.3962867739260432
  0.0912588520712205  0.3334757288349124  0.8978985040062284
  0.0903770090954978  0.6656662167748237  0.3962859302003565
  0.0912589697993340  0.6665243270924748  0.8978983480669456
  0.4064004051568091  0.1654918977287281  0.1002079980835902
  0.4082443469325483  0.1663287674025824  0.6016884875589739
  0.4085891074952315  0.4999996993265725  0.1020062894988740
  0.4100922317112463  0.5000006297994659  0.6009848588915929
  0.4064014767290587  0.8345078673359865  0.1002092179857001
  0.4082444258710254  0.8336717741656372  0.6016885194930097
  0.9973707109931098  0.1666251958268461  0.1275717307313116
  0.9963620860355960  0.1663586479807719  0.6281961426850771
  0.9970345718371050  0.4999998474388505  0.1274366788288646
  0.9963447438951007  0.5000005850559432  0.6279628456112434
  0.9973708269234862  0.8333751996557197  0.1275717732788308
  0.9963616135322653  0.8336408363216776  0.6281965182280302
  0.5046380791948764  0.9999997883551188  0.3742152994324144
  0.5031230254462287  0.0000001279830428  0.8731345212591606
  0.5066556336672861  0.3333125903231533  0.3702354032603239
  0.5020247765968193  0.3327789329657804  0.8710957815968996
  0.5066539310950944  0.6666892968711053  0.3702350091569144
  0.5020253889953494  0.6672201587852911  0.8710958820517476
  0.6733177663466066  0.1628170367774402  0.2813236687113871
  0.6727354138758628  0.1663766522276973  0.7823557967150663
  0.6735616460924163  0.4999995622922171  0.7840960008663558
  0.6733177079877279  0.8371830022321873  0.2813233596623661
  0.6727348379318698  0.8336240939853639  0.7823562421659602
  0.8286211345774390  0.9999997835526173  0.2196159425024646
  0.8277878274564756  0.9999998271381259  0.7205517290469530
  0.8293952427881948  0.3310962725760263  0.2207281655580147
  0.8277041964248610  0.3333046787891192  0.7205178664329850
  0.8293954503178327  0.6689040138059568  0.2207286888760009
  0.8277030922274804  0.6666972755728082  0.7205167095708092
  0.8337784658585292  0.9999998659458100  0.4462765860678388
  0.8329908226312526  0.9999999992555431  0.9466021461025917
  0.8319995638196431  0.3319669028817032  0.4475941414332922
  0.8347663525672431  0.3322691035865688  0.9465512414163442
  0.8320011025814722  0.6680289019182766  0.4475969862486053
  0.8347663469103423  0.6677311140669673  0.9465512320279004
  0.6671189204587620  0.1674554331409652  0.0557671642313551
  0.6679420254688679  0.1661845765534409  0.5559681961631924
  0.6726816914105598  0.4999995089180516  0.0492902916352094
  0.6607283085194666  0.4999998643318548  0.5617130620067243
  0.6671186600483381  0.8325442545118236  0.0557666825791188
  0.6679414999632627  0.8338148070874851  0.5559673096919227
  0.4947861952818258  0.0000000672785632  0.1258102107622321
  0.4958579195014465  0.0000012399262630  0.6286829401603740
  0.4920492973850372  0.3313870525453382  0.1188388360161952
  0.4953078347753888  0.3321241061027465  0.6291125325919324
  0.4920500178238640  0.6686126537364032  0.1188409201125964
  0.4953075185743074  0.6678784078155431  0.6291133574174665
  0.0038733466772172  0.1667444760761541  0.3731593248520824
  0.0043913851302264  0.1662967399355679  0.8729866535816981
  0.0014570767615183  0.5000004522355752  0.3731297427272509
  0.0037494918541370  0.5000001638959262  0.8727900051987945
  0.0038731409251298  0.8332552293212103  0.3731589843183798
  0.0043909460481402  0.8337034299622275  0.8729868217166228
  0.1732653583373889  0.0000002367121610  0.2810976330939141
  0.1714233848389455  0.9999994082953663  0.7791523618491496
  0.1737606335850330  0.3336481356698187  0.2809030398761152
  0.1717312925654326  0.3334294160697908  0.7796327046567555
  0.1737602992061369  0.6663526341610293  0.2809019637370085
  0.1717309237319355  0.6665706601262400  0.7796331077623222
  0.3272448184587020  0.1660568774334479  0.2190677822928961
  0.3262904764830878  0.1662434594758082  0.7184080383945286
  0.3273955975840650  0.5000004107797622  0.2189292341722293
  0.3268780697334321  0.5000002147991935  0.7179717956798584
  0.3272448317842347  0.8339434420668397  0.2190683797853836
  0.3262900961765141  0.8337565926666670  0.7184078367801661
  0.3329515156649236  0.1673529692310538  0.4449440115347230
  0.3289439100828417  0.1654825163617986  0.9435130496401385
  0.3315696749237276  0.5000008635826916  0.4454239056001867
  0.3300109136221394  0.4999992293489584  0.9445375750915801
  0.3329521901397214  0.8326470707012135  0.4449436668547619
  0.3289453690779851  0.8345190440370018  0.9435138806190366
  0.1683034111756285  0.9999997296739380  0.0548698019733678
  0.1678713436055119  0.9999998960451322  0.5536437765184203
  0.1681548794710039  0.3333899967833887  0.0543487870418247
  0.1668150646794189  0.3332058605246644  0.5533510928484660
  0.1681550947130290  0.6666109516789831  0.0543489794737297
  0.1668148496142905  0.6667943874282045  0.5533506381449129
  0.6121974459938784  0.4999990466990525  0.3997051545456429
  0.6667566177650883  0.5000001688695335  0.2692977193177413
 
  0.00000000E+00  0.00000000E+00  0.00000000E+00
  0.00000000E+00  0.00000000E+00  0.00000000E+00
  0.00000000E+00  0.00000000E+00  0.00000000E+00
  0.00000000E+00  0.00000000E+00  0.00000000E+00
  0.00000000E+00  0.00000000E+00  0.00000000E+00
  0.00000000E+00  0.00000000E+00  0.00000000E+00
  0.00000000E+00  0.00000000E+00  0.00000000E+00
  0.00000000E+00  0.00000000E+00  0.00000000E+00
  0.00000000E+00  0.00000000E+00  0.00000000E+00
  0.00000000E+00  0.00000000E+00  0.00000000E+00
  0.00000000E+00  0.00000000E+00  0.00000000E+00
  0.00000000E+00  0.00000000E+00  0.00000000E+00
  0.00000000E+00  0.00000000E+00  0.00000000E+00
  0.00000000E+00  0.00000000E+00  0.00000000E+00
  0.00000000E+00  0.00000000E+00  0.00000000E+00
  0.00000000E+00  0.00000000E+00  0.00000000E+00
  0.00000000E+00  0.00000000E+00  0.00000000E+00
  0.00000000E+00  0.00000000E+00  0.00000000E+00
  0.00000000E+00  0.00000000E+00  0.00000000E+00
  0.00000000E+00  0.00000000E+00  0.00000000E+00
  0.00000000E+00  0.00000000E+00  0.00000000E+00
  0.00000000E+00  0.00000000E+00  0.00000000E+00
  0.00000000E+00  0.00000000E+00  0.00000000E+00
  0.00000000E+00  0.00000000E+00  0.00000000E+00
  0.00000000E+00  0.00000000E+00  0.00000000E+00
  0.00000000E+00  0.00000000E+00  0.00000000E+00
  0.00000000E+00  0.00000000E+00  0.00000000E+00
  0.00000000E+00  0.00000000E+00  0.00000000E+00
  0.00000000E+00  0.00000000E+00  0.00000000E+00
  0.00000000E+00  0.00000000E+00  0.00000000E+00
  0.00000000E+00  0.00000000E+00  0.00000000E+00
  0.00000000E+00  0.00000000E+00  0.00000000E+00
  0.00000000E+00  0.00000000E+00  0.00000000E+00
  0.00000000E+00  0.00000000E+00  0.00000000E+00
  0.00000000E+00  0.00000000E+00  0.00000000E+00
  0.00000000E+00  0.00000000E+00  0.00000000E+00
  0.00000000E+00  0.00000000E+00  0.00000000E+00
  0.00000000E+00  0.00000000E+00  0.00000000E+00
  0.00000000E+00  0.00000000E+00  0.00000000E+00
  0.00000000E+00  0.00000000E+00  0.00000000E+00
  0.00000000E+00  0.00000000E+00  0.00000000E+00
  0.00000000E+00  0.00000000E+00  0.00000000E+00
  0.00000000E+00  0.00000000E+00  0.00000000E+00
  0.00000000E+00  0.00000000E+00  0.00000000E+00
  0.00000000E+00  0.00000000E+00  0.00000000E+00
  0.00000000E+00  0.00000000E+00  0.00000000E+00
  0.00000000E+00  0.00000000E+00  0.00000000E+00
  0.00000000E+00  0.00000000E+00  0.00000000E+00
  0.00000000E+00  0.00000000E+00  0.00000000E+00
  0.00000000E+00  0.00000000E+00  0.00000000E+00
  0.00000000E+00  0.00000000E+00  0.00000000E+00
  0.00000000E+00  0.00000000E+00  0.00000000E+00
  0.00000000E+00  0.00000000E+00  0.00000000E+00
  0.00000000E+00  0.00000000E+00  0.00000000E+00
  0.00000000E+00  0.00000000E+00  0.00000000E+00
  0.00000000E+00  0.00000000E+00  0.00000000E+00
  0.00000000E+00  0.00000000E+00  0.00000000E+00
  0.00000000E+00  0.00000000E+00  0.00000000E+00
  0.00000000E+00  0.00000000E+00  0.00000000E+00
  0.00000000E+00  0.00000000E+00  0.00000000E+00
  0.00000000E+00  0.00000000E+00  0.00000000E+00
  0.00000000E+00  0.00000000E+00  0.00000000E+00
  0.00000000E+00  0.00000000E+00  0.00000000E+00
  0.00000000E+00  0.00000000E+00  0.00000000E+00
  0.00000000E+00  0.00000000E+00  0.00000000E+00
  0.00000000E+00  0.00000000E+00  0.00000000E+00
  0.00000000E+00  0.00000000E+00  0.00000000E+00
  0.00000000E+00  0.00000000E+00  0.00000000E+00
  0.00000000E+00  0.00000000E+00  0.00000000E+00
  0.00000000E+00  0.00000000E+00  0.00000000E+00
  0.00000000E+00  0.00000000E+00  0.00000000E+00
  0.00000000E+00  0.00000000E+00  0.00000000E+00
  0.00000000E+00  0.00000000E+00  0.00000000E+00
  0.00000000E+00  0.00000000E+00  0.00000000E+00
  0.00000000E+00  0.00000000E+00  0.00000000E+00
  0.00000000E+00  0.00000000E+00  0.00000000E+00
  0.00000000E+00  0.00000000E+00  0.00000000E+00
  0.00000000E+00  0.00000000E+00  0.00000000E+00
  0.00000000E+00  0.00000000E+00  0.00000000E+00
  0.00000000E+00  0.00000000E+00  0.00000000E+00
  0.00000000E+00  0.00000000E+00  0.00000000E+00
  0.00000000E+00  0.00000000E+00  0.00000000E+00
  0.00000000E+00  0.00000000E+00  0.00000000E+00
  0.00000000E+00  0.00000000E+00  0.00000000E+00
  0.00000000E+00  0.00000000E+00  0.00000000E+00
  0.00000000E+00  0.00000000E+00  0.00000000E+00
  0.00000000E+00  0.00000000E+00  0.00000000E+00
  0.00000000E+00  0.00000000E+00  0.00000000E+00
  0.00000000E+00  0.00000000E+00  0.00000000E+00
  0.00000000E+00  0.00000000E+00  0.00000000E+00
  0.00000000E+00  0.00000000E+00  0.00000000E+00
  0.00000000E+00  0.00000000E+00  0.00000000E+00
  0.00000000E+00  0.00000000E+00  0.00000000E+00
  0.00000000E+00  0.00000000E+00  0.00000000E+00
  0.00000000E+00  0.00000000E+00  0.00000000E+00
  0.00000000E+00  0.00000000E+00  0.00000000E+00
  0.00000000E+00  0.00000000E+00  0.00000000E+00
  0.00000000E+00  0.00000000E+00  0.00000000E+00
  0.00000000E+00  0.00000000E+00  0.00000000E+00
  0.00000000E+00  0.00000000E+00  0.00000000E+00
  0.00000000E+00  0.00000000E+00  0.00000000E+00
  0.00000000E+00  0.00000000E+00  0.00000000E+00
  0.00000000E+00  0.00000000E+00  0.00000000E+00
  0.00000000E+00  0.00000000E+00  0.00000000E+00
  0.00000000E+00  0.00000000E+00  0.00000000E+00
  0.00000000E+00  0.00000000E+00  0.00000000E+00
  0.00000000E+00  0.00000000E+00  0.00000000E+00
  0.00000000E+00  0.00000000E+00  0.00000000E+00
  0.00000000E+00  0.00000000E+00  0.00000000E+00
  0.00000000E+00  0.00000000E+00  0.00000000E+00
  0.00000000E+00  0.00000000E+00  0.00000000E+00
  0.00000000E+00  0.00000000E+00  0.00000000E+00
  0.00000000E+00  0.00000000E+00  0.00000000E+00
  0.00000000E+00  0.00000000E+00  0.00000000E+00
  0.00000000E+00  0.00000000E+00  0.00000000E+00
  0.00000000E+00  0.00000000E+00  0.00000000E+00
  0.00000000E+00  0.00000000E+00  0.00000000E+00
  0.00000000E+00  0.00000000E+00  0.00000000E+00
  0.00000000E+00  0.00000000E+00  0.00000000E+00
  0.00000000E+00  0.00000000E+00  0.00000000E+00
