       N       E                     dE             d eps       ncg     rms          rms(c)
DAV:   1     0.828669118844E+02    0.82867E+02   -0.69296E+03   192   0.153E+03
DAV:   2    -0.141055340061E+02   -0.96972E+02   -0.91032E+02   196   0.291E+02
DAV:   3    -0.174050390656E+02   -0.32995E+01   -0.29732E+01   228   0.692E+01
DAV:   4    -0.174516671162E+02   -0.46628E-01   -0.45109E-01   208   0.714E+00
DAV:   5    -0.174520981409E+02   -0.43102E-03   -0.43069E-03   192   0.572E-01    0.172E+01
RMM:   6    -0.149853839006E+02    0.24667E+01   -0.29432E+01   192   0.987E+01    0.105E+01
RMM:   7    -0.135244812162E+02    0.14609E+01   -0.62880E+00   192   0.510E+01    0.219E+00
RMM:   8    -0.137480334861E+02   -0.22355E+00   -0.38767E-01   192   0.122E+01    0.774E+00
RMM:   9    -0.135587356655E+02    0.18930E+00   -0.55916E-02   192   0.330E+00    0.368E+00
RMM:  10    -0.135535631210E+02    0.51725E-02   -0.22627E-01   211   0.690E+00    0.342E+00
RMM:  11    -0.135431518090E+02    0.10411E-01   -0.30928E-02   195   0.262E+00    0.336E+00
RMM:  12    -0.135241893055E+02    0.18963E-01   -0.54728E-03   192   0.102E+00    0.634E-01
RMM:  13    -0.135198718047E+02    0.43175E-02   -0.21805E-03   195   0.695E-01    0.120E+00
RMM:  14    -0.135179783827E+02    0.18934E-02   -0.14572E-03   197   0.418E-01    0.185E-01
RMM:  15    -0.135173098553E+02    0.66853E-03   -0.50052E-04   178   0.229E-01    0.116E-01
RMM:  16    -0.135173659823E+02   -0.56127E-04   -0.86716E-05   145   0.996E-02    0.164E-01
RMM:  17    -0.135173303461E+02    0.35636E-04   -0.19702E-05   104   0.830E-02    0.121E-01
RMM:  18    -0.135173158470E+02    0.14499E-04   -0.42748E-06    98   0.359E-02    0.110E-01
RMM:  19    -0.135172982925E+02    0.17555E-04   -0.42422E-06    98   0.332E-02    0.884E-02
RMM:  20    -0.135172784217E+02    0.19871E-04   -0.91761E-06    98   0.446E-02    0.502E-02
RMM:  21    -0.135172741703E+02    0.42514E-05   -0.37630E-06    95   0.162E-02
   1 F= -.13517274E+02 E0= -.13505355E+02  d E =-.135173E+02
