 vasp.6.4.2 20Jul23 (build Nov 12 2023 22:16:35) complex                         
 executed on              LinuxNV date 2025.05.31  20:16:46
 running    4 mpi-ranks, on    1 nodes
 distrk:  each k-point on    1 cores,    4 groups
 distr:  one band on NCORE=   1 cores,    1 groups
 OpenACC runtime initialized ...    4 GPUs detected


--------------------------------------------------------------------------------------------------------


 INCAR:
   PREC = Normal
   ENCUT = 450
   IBRION = 2
   ISPIN = 1
   NSW = 300
   ISIF = 2
   EDIFF = 1E-5
   EDIFFG = -5E-3
   ALGO = Fast
   ISTART = 0
   ICHARG = 2
   ISMEAR = 0
   SIGMA = 0.05
   LWAVE = .F.
   LCHARG = .F.
   LREAL = Auto
   LPLANE = .TRUE.
   NPAR = 4
   KPAR = 4
   NCORE = 1
   ISYM = 0

 POTCAR:    PAW_PBE Fe 06Sep2000                  
 POTCAR:    PAW_PBE Fe 06Sep2000                  
   SHA256 =  cd5a22d9368cc8b5cc476bea79732366149640da08ac9009b0e1b7fc627eea28 Fe/POTCAR             
   COPYR  = (c) Copyright 06Sep2000 Georg Kresse                                                    
   COPYR  = This file is part of the software VASP. Any use, copying, and all other rights are regul
   COPYR  = If you do not have a valid VASP license, you may not use, copy or distribute this file. 
   VRHFIN =Fe:  d7 s1                                                                               
   LEXCH  = PE                                                                                      
   EATOM  =   594.3153 eV,   43.6809 Ry                                                             
                                                                                                    
   TITEL  = PAW_PBE Fe 06Sep2000                                                                    
   LULTRA =        F    use ultrasoft PP ?                                                          
   IUNSCR =        1    unscreen: 0-lin 1-nonlin 2-no                                               
   RPACOR =    2.000    partial core radius                                                         
   POMASS =   55.847; ZVAL   =    8.000    mass and valenz                                          
   RCORE  =    2.300    outmost cutoff radius                                                       
   RWIGS  =    2.460; RWIGS  =    1.302    wigner-seitz radius (au A)                               
   ENMAX  =  267.882; ENMIN  =  200.911 eV                                                          
   RCLOC  =    1.701    cutoff for local pot                                                        
   LCOR   =        T    correct aug charges                                                         
   LPAW   =        T    paw PP                                                                      
   EAUG   =  511.368                                                                                
   DEXC   =    0.000                                                                                
   RMAX   =    2.356    core radius for proj-oper                                                   
   RAUG   =    1.300    factor for augmentation sphere                                              
   RDEP   =    2.442    radius for radial grids                                                     
   RDEPT  =    1.890    core radius for aug-charge                                                  
                                                                                                    
   Atomic configuration                                                                             
    9 entries                                                                                       
     n  l   j            E        occ.                                                              
     1  0  0.50     -6993.8440   2.0000                                                             
     2  0  0.50      -814.6047   2.0000                                                             
     2  1  1.50      -693.3689   6.0000                                                             
     3  0  0.50       -89.4732   2.0000                                                             
     3  1  1.50       -55.6373   6.0000                                                             
     3  2  2.50        -3.8151   7.0000                                                             
     4  0  0.50        -4.2551   1.0000                                                             
     4  1  1.50        -3.4015   0.0000                                                             
     4  3  2.50        -1.3606   0.0000                                                             
   Description                                                                                      
     l       E           TYP  RCUT    TYP  RCUT                                                     
     2     -3.8151135     23  2.300                                                                 
     2     -5.1756961     23  2.300                                                                 
     0     -4.2550963     23  2.300                                                                 
     0      7.2035603     23  2.300                                                                 
     1     -2.7211652     23  2.300                                                                 
     1     18.4316424     23  2.300                                                                 
  local pseudopotential read in
  partial core-charges read in
  partial kinetic energy density read in
  atomic valenz-charges read in
  non local Contribution for L=            2  read in
    real space projection operators read in
  non local Contribution for L=            2  read in
    real space projection operators read in
  non local Contribution for L=            0  read in
    real space projection operators read in
  non local Contribution for L=            0  read in
    real space projection operators read in
  non local Contribution for L=            1  read in
    real space projection operators read in
  non local Contribution for L=            1  read in
    real space projection operators read in
    PAW grid and wavefunctions read in
 
   number of l-projection  operators is LMAX  =            6
   number of lm-projection operators is LMMAX =           18
 
 -----------------------------------------------------------------------------
|                                                                             |
|               ----> ADVICE to this user running VASP <----                  |
|                                                                             |
|     You have a (more or less) 'small supercell' and for smaller cells       |
|     it is recommended to use the reciprocal-space projection scheme!        |
|     The real-space optimization is not efficient for small cells and it     |
|     is also less accurate ...                                               |
|     Therefore, set LREAL=.FALSE. in the INCAR file.                         |
|                                                                             |
 -----------------------------------------------------------------------------

 Optimization of the real space projectors (new method)

 maximal supplied QI-value         = 16.25
 optimisation between [QCUT,QGAM] = [ 10.73, 21.61] = [ 32.22,130.83] Ry 
 Optimized for a Real-space Cutoff    1.38 Angstroem

   l    n(q)    QCUT    max X(q) W(low)/X(q) W(high)/X(q)  e(spline) 
   2      8    10.726    80.901    0.27E-03    0.52E-03    0.20E-06
   2      8    10.726    75.754    0.27E-03    0.52E-03    0.20E-06
   0      9    10.726    58.752    0.33E-03    0.19E-03    0.52E-07
   0      9    10.726    30.679    0.30E-03    0.18E-03    0.49E-07
   1      8    10.726    17.977    0.22E-03    0.18E-03    0.17E-06
   1      8    10.726    13.559    0.18E-03    0.14E-03    0.14E-06
  PAW_PBE Fe 06Sep2000                  :
 energy of atom  1       EATOM= -594.3153
 kinetic energy error for atom=    0.0034 (will be added to EATOM!!)
 
 
 POSCAR: Fe2
  positions in direct lattice
  No initial velocities read in
 exchange correlation table for  LEXCH =        8
   RHO(1)=    0.500       N(1)  =     2000
   RHO(2)=  100.500       N(2)  =     4000
 


--------------------------------------------------------------------------------------------------------


 ion  position               nearest neighbor table
   1  0.000  0.000  0.000-   2 2.48   2 2.48   2 2.48   2 2.48   2 2.48   2 2.48   2 2.48   2 2.48

   2  0.500  0.500  0.500-   1 2.48   1 2.48   1 2.48   1 2.48   1 2.48   1 2.48   1 2.48   1 2.48

 

IMPORTANT INFORMATION: All symmetrisations will be switched off!
NOSYMM: (Re-)initialisation of all symmetry stuff for point group C_1.


----------------------------------------------------------------------------------------

                                     Primitive cell                                     

  volume of cell :      23.4682

  direct lattice vectors                    reciprocal lattice vectors
     2.863035499  0.000000000  0.000000000     0.349279637  0.000000000 -0.000000000
    -0.000000000  2.863035499  0.000000000     0.000000000  0.349279637  0.000000000
     0.000000000  0.000000000  2.863035499    -0.000000000 -0.000000000  0.349279637

  length of vectors
     2.863035499  2.863035499  2.863035499     0.349279637  0.349279637  0.349279637

  position of ions in fractional coordinates (direct lattice)
     0.000000000  0.000000000  0.000000000
     0.500000000  0.500000000  0.500000000

  ion indices of the primitive-cell ions
   primitive index   ion index
                 1           1
                 2           2

----------------------------------------------------------------------------------------

 
 
 KPOINTS: Automatic mesh                          

Automatic generation of k-mesh.
 Grid dimensions read from file:
 generate k-points for:    2    2    2

 Generating k-lattice:

  Cartesian coordinates                     Fractional coordinates (reciprocal lattice)
     0.174639819  0.000000000 -0.000000000     0.500000000  0.000000000  0.000000000
     0.000000000  0.174639819  0.000000000     0.000000000  0.500000000  0.000000000
    -0.000000000 -0.000000000  0.174639819    -0.000000000  0.000000000  0.500000000

  Length of vectors
     0.174639819  0.174639819  0.174639819

  Shift w.r.t. Gamma in fractional coordinates (k-lattice)
     0.000000000  0.000000000  0.000000000

 
 Subroutine IBZKPT returns following result:
 ===========================================
 
 Found      8 irreducible k-points:
 
 Following reciprocal coordinates:
            Coordinates               Weight
  0.000000  0.000000  0.000000      1.000000
  0.500000  0.000000  0.000000      1.000000
  0.000000  0.500000  0.000000      1.000000
  0.000000  0.000000  0.500000      1.000000
  0.500000  0.500000  0.000000      1.000000
  0.000000  0.500000  0.500000      1.000000
  0.500000  0.000000  0.500000      1.000000
  0.500000  0.500000  0.500000      1.000000
 
 Following cartesian coordinates:
            Coordinates               Weight
  0.000000  0.000000  0.000000      1.000000
  0.174640  0.000000  0.000000      1.000000
  0.000000  0.174640  0.000000      1.000000
  0.000000  0.000000  0.174640      1.000000
  0.174640  0.174640  0.000000      1.000000
  0.000000  0.174640  0.174640      1.000000
  0.174640  0.000000  0.174640      1.000000
  0.174640  0.174640  0.174640      1.000000
 


--------------------------------------------------------------------------------------------------------




 Dimension of arrays:
   k-points           NKPTS =      8   k-points in BZ     NKDIM =      8   number of bands    NBANDS=     12
   number of dos      NEDOS =    301   number of ions     NIONS =      2
   non local maximal  LDIM  =      6   non local SUM 2l+1 LMDIM =     18
   total plane-waves  NPLWV =   4096
   max r-space proj   IRMAX =   1974   max aug-charges    IRDMAX=   6416
   dimension x,y,z NGX =    16 NGY =   16 NGZ =   16
   dimension x,y,z NGXF=    32 NGYF=   32 NGZF=   32
   support grid    NGXF=    32 NGYF=   32 NGZF=   32
   ions per type =               2
   NGX,Y,Z   is equivalent  to a cutoff of   9.29,  9.29,  9.29 a.u.
   NGXF,Y,Z  is equivalent  to a cutoff of  18.58, 18.58, 18.58 a.u.

 SYSTEM =  unknown system                          
 POSCAR =  Fe2                                     

 Startparameter for this run:
   NWRITE =      2    write-flag & timer
   PREC   = normal    normal or accurate (medium, high low for compatibility)
   ISTART =      0    job   : 0-new  1-cont  2-samecut
   ICHARG =      2    charge: 1-file 2-atom 10-const
   ISPIN  =      1    spin polarized calculation?
   LNONCOLLINEAR =      F non collinear calculations
   LSORBIT =      F    spin-orbit coupling
   INIWAV =      1    electr: 0-lowe 1-rand  2-diag
   LASPH  =      F    aspherical Exc in radial PAW
 Electronic Relaxation 1
   ENCUT  =  450.0 eV  33.07 Ry    5.75 a.u.   4.95  4.95  4.95*2*pi/ulx,y,z
   ENINI  =  450.0     initial cutoff
   ENAUG  =  511.4 eV  augmentation charge cutoff
   NELM   =     60;   NELMIN=  2; NELMDL= -5     # of ELM steps 
   EDIFF  = 0.1E-04   stopping-criterion for ELM
   LREAL  =      T    real-space projection
   NLSPLINE    = F    spline interpolate recip. space projectors
   LCOMPAT=      F    compatible to vasp.4.4
   GGA_COMPAT  = T    GGA compatible to vasp.4.4-vasp.4.6
   LMAXPAW     = -100 max onsite density
   LMAXMIX     =    2 max onsite mixed and CHGCAR
   VOSKOWN=      0    Vosko Wilk Nusair interpolation
   ROPT   =   -0.00050
 Ionic relaxation
   EDIFFG = -.5E-02   stopping-criterion for IOM
   NSW    =    300    number of steps for IOM
   NBLOCK =      1;   KBLOCK =    300    inner block; outer block 
   IBRION =      2    ionic relax: 0-MD 1-quasi-New 2-CG
   NFREE  =      1    steps in history (QN), initial steepest desc. (CG)
   ISIF   =      2    stress and relaxation
   IWAVPR =     11    prediction:  0-non 1-charg 2-wave 3-comb
   ISYM   =      0    0-nonsym 1-usesym 2-fastsym
   LCORR  =      T    Harris-Foulkes like correction to forces

   POTIM  = 0.5000    time-step for ionic-motion
   TEIN   =    0.0    initial temperature
   TEBEG  =    0.0;   TEEND  =   0.0 temperature during run
   SMASS  =  -3.00    Nose mass-parameter (am)
   estimated Nose-frequenzy (Omega)   =  0.10E-29 period in steps = 0.13E+47 mass=  -0.187E-27a.u.
   SCALEE = 1.0000    scale energy and forces
   NPACO  =    256;   APACO  = 10.0  distance and # of slots for P.C.
   PSTRESS=    0.0 pullay stress

  Mass of Ions in am
   POMASS =  55.85
  Ionic Valenz
   ZVAL   =   8.00
  Atomic Wigner-Seitz radii
   RWIGS  =  -1.00
  virtual crystal weights 
   VCA    =   1.00
   NELECT =      16.0000    total number of electrons
   NUPDOWN=      -1.0000    fix difference up-down

 DOS related values:
   EMIN   =  10.00;   EMAX   =-10.00  energy-range for DOS
   EFERMI =   0.00;   METHOD = LEGACY      
   ISMEAR =     0;   SIGMA  =   0.05  broadening in eV -4-tet -1-fermi 0-gaus

 Electronic relaxation 2 (details)
   IALGO  =     68    algorithm
   LDIAG  =      T    sub-space diagonalisation (order eigenvalues)
   LSUBROT=      F    optimize rotation matrix (better conditioning)
   TURBO    =      0    0=normal 1=particle mesh
   IRESTART =      0    0=no restart 2=restart with 2 vectors
   NREBOOT  =      0    no. of reboots
   NMIN     =      0    reboot dimension
   EREF     =   0.00    reference energy to select bands
   IMIX   =      4    mixing-type and parameters
     AMIX     =   0.40;   BMIX     =  1.00
     AMIX_MAG =   1.60;   BMIX_MAG =  1.00
     AMIN     =   0.10
     WC   =   100.;   INIMIX=   1;  MIXPRE=   1;  MAXMIX= -45

 Intra band minimization:
   WEIMIN = 0.0010     energy-eigenvalue tresh-hold
   EBREAK =  0.21E-06  absolut break condition
   DEPER  =   0.30     relativ break condition  

   TIME   =   0.40     timestep for ELM

  volume/ion in A,a.u.               =      11.73        79.19
  Fermi-wavevector in a.u.,A,eV,Ry     =   1.440859  2.722828 28.246703  2.076074
  Thomas-Fermi vector in A             =   2.559556
 
 Write flags
   LWAVE        =      F    write WAVECAR
   LDOWNSAMPLE  =      F    k-point downsampling of WAVECAR
   LCHARG       =      F    write CHGCAR
   LVTOT        =      F    write LOCPOT, total local potential
   LVHAR        =      F    write LOCPOT, Hartree potential only
   LELF         =      F    write electronic localiz. function (ELF)
   LORBIT       =      0    0 simple, 1 ext, 2 COOP (PROOUT), +10 PAW based schemes


 Dipole corrections
   LMONO  =      F    monopole corrections only (constant potential shift)
   LDIPOL =      F    correct potential (dipole corrections)
   IDIPOL =      0    1-x, 2-y, 3-z, 4-all directions 
   EPSILON=  1.0000000 bulk dielectric constant

 Exchange correlation treatment:
   GGA     =    --    GGA type
   LEXCH   =     8    internal setting for exchange type
   LIBXC   =     F    Libxc                    
   VOSKOWN =     0    Vosko Wilk Nusair interpolation
   LHFCALC =     F    Hartree Fock is set to
   LHFONE  =     F    Hartree Fock one center treatment
   AEXX    =    0.0000 exact exchange contribution

 Linear response parameters
   LEPSILON=     F    determine dielectric tensor
   LRPA    =     F    only Hartree local field effects (RPA)
   LNABLA  =     F    use nabla operator in PAW spheres
   LVEL    =     F    velocity operator in full k-point grid
   CSHIFT  =0.1000    complex shift for real part using Kramers Kronig
   OMEGAMAX=  -1.0    maximum frequency
   DEG_THRESHOLD= 0.2000000E-02 threshold for treating states as degnerate
   RTIME   =   -0.100 relaxation time in fs
  (WPLASMAI=    0.000 imaginary part of plasma frequency in eV, 0.658/RTIME)
   DFIELD  = 0.0000000 0.0000000 0.0000000 field for delta impulse in time
 
  Optional k-point grid parameters
   LKPOINTS_OPT  =     F    use optional k-point grid
   KPOINTS_OPT_MODE=     1    mode for optional k-point grid
 
 Orbital magnetization related:
   ORBITALMAG=     F  switch on orbital magnetization
   LCHIMAG   =     F  perturbation theory with respect to B field
   DQ        =  0.001000  dq finite difference perturbation B field
   LLRAUG    =     F  two centre corrections for induced B field
   LBONE     =     F  B-component reconstruction in AE one-centre
   LVGVCALC  =     T  calculate vGv susceptibility
   LVGVAPPL  =     F  apply vGv susceptibility instead of pGv for G=0

 Random number generation:
   RANDOM_GENERATOR = DEFAULT
   PCG_SEED         = not used


--------------------------------------------------------------------------------------------------------


 conjugate gradient relaxation of ions
 charge density and potential will be updated during run
 non-spin polarized calculation
 RMM-DIIS sequential band-by-band and
  variant of blocked Davidson during initial phase
 perform sub-space diagonalisation
    before iterative eigenvector-optimisation
 modified Broyden-mixing scheme, WC =      100.0
 initial mixing is a Kerker type mixing with AMIX =  0.4000 and BMIX =      1.0000
 Hartree-type preconditioning will be used
 using additional bands             4
 real space projection scheme for non local part
 use partial core corrections
 calculate Harris-corrections to forces 
   (improved forces if not selfconsistent)
 use gradient corrections 
 use of overlap-Matrix (Vanderbilt PP)
 Gauss-broadening in eV      SIGMA  =   0.05


--------------------------------------------------------------------------------------------------------


  energy-cutoff  :      450.00
  volume of cell :       23.47
      direct lattice vectors                 reciprocal lattice vectors
     2.863035499  0.000000000  0.000000000     0.349279637  0.000000000 -0.000000000
    -0.000000000  2.863035499  0.000000000     0.000000000  0.349279637  0.000000000
     0.000000000  0.000000000  2.863035499    -0.000000000 -0.000000000  0.349279637

  length of vectors
     2.863035499  2.863035499  2.863035499     0.349279637  0.349279637  0.349279637


 
 k-points in units of 2pi/SCALE and weight: Automatic mesh                          
   0.00000000  0.00000000  0.00000000       0.125
   0.17463982  0.00000000  0.00000000       0.125
   0.00000000  0.17463982  0.00000000       0.125
   0.00000000  0.00000000  0.17463982       0.125
   0.17463982  0.17463982  0.00000000       0.125
   0.00000000  0.17463982  0.17463982       0.125
   0.17463982  0.00000000  0.17463982       0.125
   0.17463982  0.17463982  0.17463982       0.125
 
 k-points in reciprocal lattice and weights: Automatic mesh                          
   0.00000000  0.00000000  0.00000000       0.125
   0.50000000  0.00000000  0.00000000       0.125
   0.00000000  0.50000000  0.00000000       0.125
   0.00000000  0.00000000  0.50000000       0.125
   0.50000000  0.50000000  0.00000000       0.125
   0.00000000  0.50000000  0.50000000       0.125
   0.50000000  0.00000000  0.50000000       0.125
   0.50000000  0.50000000  0.50000000       0.125
 
 position of ions in fractional coordinates (direct lattice) 
   0.00000000  0.00000000  0.00000000
   0.50000000  0.50000000  0.50000000
 
 position of ions in cartesian coordinates  (Angst):
   0.00000000  0.00000000  0.00000000
   1.43151775  1.43151775  1.43151775
 


--------------------------------------------------------------------------------------------------------


 k-point   1 :   0.0000 0.0000 0.0000  plane waves:     485
 k-point   2 :   0.5000 0.0000 0.0000  plane waves:     498
 k-point   3 :   0.0000 0.5000 0.0000  plane waves:     498
 k-point   4 :   0.0000 0.0000 0.5000  plane waves:     498
 k-point   5 :   0.5000 0.5000 0.0000  plane waves:     536
 k-point   6 :   0.0000 0.5000 0.5000  plane waves:     536
 k-point   7 :   0.5000 0.0000 0.5000  plane waves:     536
 k-point   8 :   0.5000 0.5000 0.5000  plane waves:     480

 maximum and minimum number of plane-waves per node :       536      480

 maximum number of plane-waves:       536
 maximum index in each direction: 
   IXMAX=    4   IYMAX=    4   IZMAX=    4
   IXMIN=   -5   IYMIN=   -5   IZMIN=   -5


 serial   3D FFT for wavefunctions
 parallel 3D FFT for charge:
    minimum data exchange during FFTs selected (reduces bandwidth)


 total amount of memory used by VASP MPI-rank0    34554. kBytes
=======================================================================

   base      :      30000. kBytes
   nonlr-proj:        655. kBytes
   fftplans  :       1184. kBytes
   grid      :       1806. kBytes
   one-center:         31. kBytes
   wavefun   :        878. kBytes
 
     INWAV:  cpu time      0.0000: real time      0.0001
 Broyden mixing: mesh for mixing (old mesh)
   NGX =  9   NGY =  9   NGZ =  9
  (NGX  = 32   NGY  = 32   NGZ  = 32)
  gives a total of    729 points

 initial charge density was supplied:
 charge density of overlapping atoms calculated
 number of electron      16.0000000 magnetization 
 keeping initial charge density in first step


--------------------------------------------------------------------------------------------------------


 Maximum index for non-local projection operator          1863
 Maximum index for augmentation-charges          6031 (set IRDMAX)


--------------------------------------------------------------------------------------------------------


 First call to EWALD:  gamma=   0.619
 Maximum number of real-space cells 3x 3x 3
 Maximum number of reciprocal cells 3x 3x 3

    FEWALD:  cpu time      0.0009: real time      0.0009


--------------------------------------- Ionic step        1  -------------------------------------------




--------------------------------------- Iteration      1(   1)  ---------------------------------------


    POTLOK:  cpu time      0.0203: real time      0.0203
    SETDIJ:  cpu time      0.0044: real time      0.0044
     EDDAV:  cpu time      0.0734: real time      0.0734
       DOS:  cpu time      0.0004: real time      0.0004
    --------------------------------------------
      LOOP:  cpu time      0.0986: real time      0.0986

 eigenvalue-minimisations  :   192
 total energy-change (2. order) : 0.8286691E+02  (-0.6929561E+03)
 number of electron      16.0000000 magnetization 
 augmentation part       16.0000000 magnetization 

 Free energy of the ion-electron system (eV)
  ---------------------------------------------------
  alpha Z        PSCENC =       117.79976220
  Ewald energy   TEWEN  =     -1171.43779597
  -Hartree energ DENC   =      -228.04061711
  -exchange      EXHF   =         0.00000000
  -V(xc)+E(xc)   XCENC  =         7.63534844
  PAW double counting   =      1109.69170683    -1125.09647265
  entropy T*S    EENTRO =        -0.00644381
  eigenvalues    EBANDS =       183.69756116
  atomic energy  EATOM  =      1188.62386280
  Solvation  Ediel_sol  =         0.00000000
  ---------------------------------------------------
  free energy    TOTEN  =        82.86691188 eV

  energy without entropy =       82.87335570  energy(sigma->0) =       82.87013379


--------------------------------------------------------------------------------------------------------




--------------------------------------- Iteration      1(   2)  ---------------------------------------


     EDDAV:  cpu time      0.0367: real time      0.0375
       DOS:  cpu time      0.0005: real time      0.0005
    --------------------------------------------
      LOOP:  cpu time      0.0372: real time      0.0380

 eigenvalue-minimisations  :   196
 total energy-change (2. order) :-0.9697245E+02  (-0.9103164E+02)
 number of electron      16.0000000 magnetization 
 augmentation part       16.0000000 magnetization 

 Free energy of the ion-electron system (eV)
  ---------------------------------------------------
  alpha Z        PSCENC =       117.79976220
  Ewald energy   TEWEN  =     -1171.43779597
  -Hartree energ DENC   =      -228.04061711
  -exchange      EXHF   =         0.00000000
  -V(xc)+E(xc)   XCENC  =         7.63534844
  PAW double counting   =      1109.69170683    -1125.09647265
  entropy T*S    EENTRO =        -0.00943650
  eigenvalues    EBANDS =        86.72810796
  atomic energy  EATOM  =      1188.62386280
  Solvation  Ediel_sol  =         0.00000000
  ---------------------------------------------------
  free energy    TOTEN  =       -14.10553401 eV

  energy without entropy =      -14.09609750  energy(sigma->0) =      -14.10081575


--------------------------------------------------------------------------------------------------------




--------------------------------------- Iteration      1(   3)  ---------------------------------------


     EDDAV:  cpu time      0.0442: real time      0.0445
       DOS:  cpu time      0.0005: real time      0.0005
    --------------------------------------------
      LOOP:  cpu time      0.0446: real time      0.0450

 eigenvalue-minimisations  :   228
 total energy-change (2. order) :-0.3299505E+01  (-0.2973185E+01)
 number of electron      16.0000000 magnetization 
 augmentation part       16.0000000 magnetization 

 Free energy of the ion-electron system (eV)
  ---------------------------------------------------
  alpha Z        PSCENC =       117.79976220
  Ewald energy   TEWEN  =     -1171.43779597
  -Hartree energ DENC   =      -228.04061711
  -exchange      EXHF   =         0.00000000
  -V(xc)+E(xc)   XCENC  =         7.63534844
  PAW double counting   =      1109.69170683    -1125.09647265
  entropy T*S    EENTRO =        -0.02632939
  eigenvalues    EBANDS =        83.44549579
  atomic energy  EATOM  =      1188.62386280
  Solvation  Ediel_sol  =         0.00000000
  ---------------------------------------------------
  free energy    TOTEN  =       -17.40503907 eV

  energy without entropy =      -17.37870967  energy(sigma->0) =      -17.39187437


--------------------------------------------------------------------------------------------------------




--------------------------------------- Iteration      1(   4)  ---------------------------------------


     EDDAV:  cpu time      0.0384: real time      0.0388
       DOS:  cpu time      0.0005: real time      0.0005
    --------------------------------------------
      LOOP:  cpu time      0.0389: real time      0.0393

 eigenvalue-minimisations  :   208
 total energy-change (2. order) :-0.4662805E-01  (-0.4510933E-01)
 number of electron      16.0000000 magnetization 
 augmentation part       16.0000000 magnetization 

 Free energy of the ion-electron system (eV)
  ---------------------------------------------------
  alpha Z        PSCENC =       117.79976220
  Ewald energy   TEWEN  =     -1171.43779597
  -Hartree energ DENC   =      -228.04061711
  -exchange      EXHF   =         0.00000000
  -V(xc)+E(xc)   XCENC  =         7.63534844
  PAW double counting   =      1109.69170683    -1125.09647265
  entropy T*S    EENTRO =        -0.02695017
  eigenvalues    EBANDS =        83.39948852
  atomic energy  EATOM  =      1188.62386280
  Solvation  Ediel_sol  =         0.00000000
  ---------------------------------------------------
  free energy    TOTEN  =       -17.45166712 eV

  energy without entropy =      -17.42471694  energy(sigma->0) =      -17.43819203


--------------------------------------------------------------------------------------------------------




--------------------------------------- Iteration      1(   5)  ---------------------------------------


     EDDAV:  cpu time      0.0344: real time      0.0348
       DOS:  cpu time      0.0004: real time      0.0004
    CHARGE:  cpu time      0.0068: real time      0.0068
    MIXING:  cpu time      0.0011: real time      0.0011
    --------------------------------------------
      LOOP:  cpu time      0.0428: real time      0.0431

 eigenvalue-minimisations  :   192
 total energy-change (2. order) :-0.4310246E-03  (-0.4306892E-03)
 number of electron      16.0000018 magnetization 
 augmentation part        6.8279498 magnetization 

 Broyden mixing:
  rms(total) = 0.17224E+01    rms(broyden)= 0.17194E+01
  rms(prec ) = 0.44142E+01
  weight for this iteration     100.00

 Free energy of the ion-electron system (eV)
  ---------------------------------------------------
  alpha Z        PSCENC =       117.79976220
  Ewald energy   TEWEN  =     -1171.43779597
  -Hartree energ DENC   =      -228.04061711
  -exchange      EXHF   =         0.00000000
  -V(xc)+E(xc)   XCENC  =         7.63534844
  PAW double counting   =      1109.69170683    -1125.09647265
  entropy T*S    EENTRO =        -0.02696184
  eigenvalues    EBANDS =        83.39906916
  atomic energy  EATOM  =      1188.62386280
  Solvation  Ediel_sol  =         0.00000000
  ---------------------------------------------------
  free energy    TOTEN  =       -17.45209814 eV

  energy without entropy =      -17.42513630  energy(sigma->0) =      -17.43861722


--------------------------------------------------------------------------------------------------------




--------------------------------------- Iteration      1(   6)  ---------------------------------------


    POTLOK:  cpu time      0.0031: real time      0.0035
    SETDIJ:  cpu time      0.0044: real time      0.0044
    EDDIAG:  cpu time      0.0048: real time      0.0048
  RMM-DIIS:  cpu time      0.0401: real time      0.0401
    ORTHCH:  cpu time      0.0009: real time      0.0009
       DOS:  cpu time      0.0006: real time      0.0006
    CHARGE:  cpu time      0.0067: real time      0.0067
    MIXING:  cpu time      0.0010: real time      0.0010
    --------------------------------------------
      LOOP:  cpu time      0.0616: real time      0.0620

 eigenvalue-minimisations  :   192
 total energy-change (2. order) : 0.2466714E+01  (-0.2943192E+01)
 number of electron      16.0000076 magnetization 
 augmentation part        9.2389090 magnetization 

 Broyden mixing:
  rms(total) = 0.10540E+01    rms(broyden)= 0.10535E+01
  rms(prec ) = 0.23518E+01
  weight for this iteration     100.00

 eigenvalues of (default mixing * dielectric matrix)
  average eigenvalue GAMMA=   0.6671
  0.6671

 Free energy of the ion-electron system (eV)
  ---------------------------------------------------
  alpha Z        PSCENC =       117.79976220
  Ewald energy   TEWEN  =     -1171.43779597
  -Hartree energ DENC   =      -185.96585322
  -exchange      EXHF   =         0.00000000
  -V(xc)+E(xc)   XCENC  =         5.60747284
  PAW double counting   =      1177.65340555    -1187.48081216
  entropy T*S    EENTRO =        -0.02298345
  eigenvalues    EBANDS =        40.23755752
  atomic energy  EATOM  =      1188.62386280
  Solvation  Ediel_sol  =         0.00000000
  ---------------------------------------------------
  free energy    TOTEN  =       -14.98538390 eV

  energy without entropy =      -14.96240045  energy(sigma->0) =      -14.97389218


--------------------------------------------------------------------------------------------------------




--------------------------------------- Iteration      1(   7)  ---------------------------------------


    POTLOK:  cpu time      0.0031: real time      0.0034
    SETDIJ:  cpu time      0.0046: real time      0.0046
    EDDIAG:  cpu time      0.0038: real time      0.0038
  RMM-DIIS:  cpu time      0.0336: real time      0.0336
    ORTHCH:  cpu time      0.0009: real time      0.0009
       DOS:  cpu time      0.0005: real time      0.0005
    CHARGE:  cpu time      0.0061: real time      0.0061
    MIXING:  cpu time      0.0010: real time      0.0010
    --------------------------------------------
      LOOP:  cpu time      0.0536: real time      0.0539

 eigenvalue-minimisations  :   192
 total energy-change (2. order) : 0.1460903E+01  (-0.6287967E+00)
 number of electron      16.0000063 magnetization 
 augmentation part        8.6119914 magnetization 

 Broyden mixing:
  rms(total) = 0.21945E+00    rms(broyden)= 0.21943E+00
  rms(prec ) = 0.52402E+00
  weight for this iteration     100.00

 eigenvalues of (default mixing * dielectric matrix)
  average eigenvalue GAMMA=   0.9048
  1.0132  0.7964

 Free energy of the ion-electron system (eV)
  ---------------------------------------------------
  alpha Z        PSCENC =       117.79976220
  Ewald energy   TEWEN  =     -1171.43779597
  -Hartree energ DENC   =      -199.97540320
  -exchange      EXHF   =         0.00000000
  -V(xc)+E(xc)   XCENC  =         6.33322130
  PAW double counting   =      1254.87539314    -1269.41502259
  entropy T*S    EENTRO =        -0.02585547
  eigenvalues    EBANDS =        59.69735656
  atomic energy  EATOM  =      1188.62386280
  Solvation  Ediel_sol  =         0.00000000
  ---------------------------------------------------
  free energy    TOTEN  =       -13.52448122 eV

  energy without entropy =      -13.49862575  energy(sigma->0) =      -13.51155348


--------------------------------------------------------------------------------------------------------




--------------------------------------- Iteration      1(   8)  ---------------------------------------


    POTLOK:  cpu time      0.0031: real time      0.0035
    SETDIJ:  cpu time      0.0037: real time      0.0037
    EDDIAG:  cpu time      0.0038: real time      0.0038
  RMM-DIIS:  cpu time      0.0336: real time      0.0336
    ORTHCH:  cpu time      0.0009: real time      0.0009
       DOS:  cpu time      0.0006: real time      0.0006
    CHARGE:  cpu time      0.0060: real time      0.0060
    MIXING:  cpu time      0.0010: real time      0.0010
    --------------------------------------------
      LOOP:  cpu time      0.0527: real time      0.0530

 eigenvalue-minimisations  :   192
 total energy-change (2. order) :-0.2235523E+00  (-0.3876730E-01)
 number of electron      16.0000025 magnetization 
 augmentation part        7.4601119 magnetization 

 Broyden mixing:
  rms(total) = 0.77438E+00    rms(broyden)= 0.77279E+00
  rms(prec ) = 0.22949E+01
  weight for this iteration     100.00

 eigenvalues of (default mixing * dielectric matrix)
  average eigenvalue GAMMA=   0.6865
  1.2052  0.6215  0.2328

 Free energy of the ion-electron system (eV)
  ---------------------------------------------------
  alpha Z        PSCENC =       117.79976220
  Ewald energy   TEWEN  =     -1171.43779597
  -Hartree energ DENC   =      -203.86552951
  -exchange      EXHF   =         0.00000000
  -V(xc)+E(xc)   XCENC  =         6.53605339
  PAW double counting   =      1317.30487090    -1333.21810991
  entropy T*S    EENTRO =        -0.01667779
  eigenvalues    EBANDS =        64.52553040
  atomic energy  EATOM  =      1188.62386280
  Solvation  Ediel_sol  =         0.00000000
  ---------------------------------------------------
  free energy    TOTEN  =       -13.74803349 eV

  energy without entropy =      -13.73135570  energy(sigma->0) =      -13.73969459


--------------------------------------------------------------------------------------------------------




--------------------------------------- Iteration      1(   9)  ---------------------------------------


    POTLOK:  cpu time      0.0031: real time      0.0034
    SETDIJ:  cpu time      0.0039: real time      0.0039
    EDDIAG:  cpu time      0.0037: real time      0.0037
  RMM-DIIS:  cpu time      0.0327: real time      0.0326
    ORTHCH:  cpu time      0.0009: real time      0.0009
       DOS:  cpu time      0.0005: real time      0.0005
    CHARGE:  cpu time      0.0060: real time      0.0060
    MIXING:  cpu time      0.0010: real time      0.0010
    --------------------------------------------
      LOOP:  cpu time      0.0517: real time      0.0520

 eigenvalue-minimisations  :   192
 total energy-change (2. order) : 0.1892978E+00  (-0.5591593E-02)
 number of electron      16.0000041 magnetization 
 augmentation part        7.9472602 magnetization 

 Broyden mixing:
  rms(total) = 0.36848E+00    rms(broyden)= 0.36744E+00
  rms(prec ) = 0.10536E+01
  weight for this iteration     100.00

 eigenvalues of (default mixing * dielectric matrix)
  average eigenvalue GAMMA=   0.6294
  1.3418  0.5394  0.5394  0.0971

 Free energy of the ion-electron system (eV)
  ---------------------------------------------------
  alpha Z        PSCENC =       117.79976220
  Ewald energy   TEWEN  =     -1171.43779597
  -Hartree energ DENC   =      -202.25659383
  -exchange      EXHF   =         0.00000000
  -V(xc)+E(xc)   XCENC  =         6.45872775
  PAW double counting   =      1320.83805015    -1336.85525729
  entropy T*S    EENTRO =        -0.03628900
  eigenvalues    EBANDS =        63.30679752
  atomic energy  EATOM  =      1188.62386280
  Solvation  Ediel_sol  =         0.00000000
  ---------------------------------------------------
  free energy    TOTEN  =       -13.55873567 eV

  energy without entropy =      -13.52244667  energy(sigma->0) =      -13.54059117


--------------------------------------------------------------------------------------------------------




--------------------------------------- Iteration      1(  10)  ---------------------------------------


    POTLOK:  cpu time      0.0030: real time      0.0034
    SETDIJ:  cpu time      0.0038: real time      0.0038
    EDDIAG:  cpu time      0.0037: real time      0.0037
  RMM-DIIS:  cpu time      0.0365: real time      0.0365
    ORTHCH:  cpu time      0.0009: real time      0.0009
       DOS:  cpu time      0.0005: real time      0.0005
    CHARGE:  cpu time      0.0058: real time      0.0058
    MIXING:  cpu time      0.0010: real time      0.0010
    --------------------------------------------
      LOOP:  cpu time      0.0552: real time      0.0556

 eigenvalue-minimisations  :   211
 total energy-change (2. order) : 0.5172544E-02  (-0.2262665E-01)
 number of electron      16.0000067 magnetization 
 augmentation part        8.7160167 magnetization 

 Broyden mixing:
  rms(total) = 0.34180E+00    rms(broyden)= 0.33961E+00
  rms(prec ) = 0.10518E+01
  weight for this iteration     100.00

 eigenvalues of (default mixing * dielectric matrix)
  average eigenvalue GAMMA=   0.8077
  2.0877  0.9136  0.7065  0.2542  0.0765

 Free energy of the ion-electron system (eV)
  ---------------------------------------------------
  alpha Z        PSCENC =       117.79976220
  Ewald energy   TEWEN  =     -1171.43779597
  -Hartree energ DENC   =      -198.63931197
  -exchange      EXHF   =         0.00000000
  -V(xc)+E(xc)   XCENC  =         6.29987632
  PAW double counting   =      1330.43426765    -1346.37445068
  entropy T*S    EENTRO =        -0.01906054
  eigenvalues    EBANDS =        59.75928708
  atomic energy  EATOM  =      1188.62386280
  Solvation  Ediel_sol  =         0.00000000
  ---------------------------------------------------
  free energy    TOTEN  =       -13.55356312 eV

  energy without entropy =      -13.53450258  energy(sigma->0) =      -13.54403285


--------------------------------------------------------------------------------------------------------




--------------------------------------- Iteration      1(  11)  ---------------------------------------


    POTLOK:  cpu time      0.0030: real time      0.0034
    SETDIJ:  cpu time      0.0038: real time      0.0038
    EDDIAG:  cpu time      0.0036: real time      0.0036
  RMM-DIIS:  cpu time      0.0327: real time      0.0327
    ORTHCH:  cpu time      0.0009: real time      0.0009
       DOS:  cpu time      0.0005: real time      0.0005
    CHARGE:  cpu time      0.0058: real time      0.0058
    MIXING:  cpu time      0.0011: real time      0.0011
    --------------------------------------------
      LOOP:  cpu time      0.0513: real time      0.0516

 eigenvalue-minimisations  :   195
 total energy-change (2. order) : 0.1041131E-01  (-0.3092810E-02)
 number of electron      16.0000063 magnetization 
 augmentation part        8.6251448 magnetization 

 Broyden mixing:
  rms(total) = 0.33572E+00    rms(broyden)= 0.33453E+00
  rms(prec ) = 0.10967E+01
  weight for this iteration     100.00

 eigenvalues of (default mixing * dielectric matrix)
  average eigenvalue GAMMA=   0.8571
  2.7758  0.9955  0.6806  0.3082  0.3082  0.0743

 Free energy of the ion-electron system (eV)
  ---------------------------------------------------
  alpha Z        PSCENC =       117.79976220
  Ewald energy   TEWEN  =     -1171.43779597
  -Hartree energ DENC   =      -199.05489104
  -exchange      EXHF   =         0.00000000
  -V(xc)+E(xc)   XCENC  =         6.33749127
  PAW double counting   =      1368.75712189    -1385.10234659
  entropy T*S    EENTRO =        -0.02040943
  eigenvalues    EBANDS =        60.55405305
  atomic energy  EATOM  =      1188.62386280
  Solvation  Ediel_sol  =         0.00000000
  ---------------------------------------------------
  free energy    TOTEN  =       -13.54315181 eV

  energy without entropy =      -13.52274238  energy(sigma->0) =      -13.53294710


--------------------------------------------------------------------------------------------------------




--------------------------------------- Iteration      1(  12)  ---------------------------------------


    POTLOK:  cpu time      0.0030: real time      0.0034
    SETDIJ:  cpu time      0.0037: real time      0.0037
    EDDIAG:  cpu time      0.0036: real time      0.0036
  RMM-DIIS:  cpu time      0.0316: real time      0.0316
    ORTHCH:  cpu time      0.0009: real time      0.0009
       DOS:  cpu time      0.0005: real time      0.0005
    CHARGE:  cpu time      0.0057: real time      0.0057
    MIXING:  cpu time      0.0011: real time      0.0011
    --------------------------------------------
      LOOP:  cpu time      0.0500: real time      0.0504

 eigenvalue-minimisations  :   192
 total energy-change (2. order) : 0.1896250E-01  (-0.5472834E-03)
 number of electron      16.0000055 magnetization 
 augmentation part        8.4442168 magnetization 

 Broyden mixing:
  rms(total) = 0.63385E-01    rms(broyden)= 0.61030E-01
  rms(prec ) = 0.17968E+00
  weight for this iteration     100.00

 eigenvalues of (default mixing * dielectric matrix)
  average eigenvalue GAMMA=   0.7453
  2.7569  0.9867  0.6837  0.3113  0.3113  0.0743  0.0929

 Free energy of the ion-electron system (eV)
  ---------------------------------------------------
  alpha Z        PSCENC =       117.79976220
  Ewald energy   TEWEN  =     -1171.43779597
  -Hartree energ DENC   =      -198.91969667
  -exchange      EXHF   =         0.00000000
  -V(xc)+E(xc)   XCENC  =         6.33703159
  PAW double counting   =      1382.91562238    -1399.42854225
  entropy T*S    EENTRO =        -0.02621249
  eigenvalues    EBANDS =        60.61177910
  atomic energy  EATOM  =      1188.62386280
  Solvation  Ediel_sol  =         0.00000000
  ---------------------------------------------------
  free energy    TOTEN  =       -13.52418931 eV

  energy without entropy =      -13.49797682  energy(sigma->0) =      -13.51108306


--------------------------------------------------------------------------------------------------------




--------------------------------------- Iteration      1(  13)  ---------------------------------------


    POTLOK:  cpu time      0.0030: real time      0.0034
    SETDIJ:  cpu time      0.0038: real time      0.0038
    EDDIAG:  cpu time      0.0036: real time      0.0036
  RMM-DIIS:  cpu time      0.0326: real time      0.0326
    ORTHCH:  cpu time      0.0008: real time      0.0008
       DOS:  cpu time      0.0004: real time      0.0004
    CHARGE:  cpu time      0.0058: real time      0.0058
    MIXING:  cpu time      0.0011: real time      0.0011
    --------------------------------------------
      LOOP:  cpu time      0.0512: real time      0.0516

 eigenvalue-minimisations  :   195
 total energy-change (2. order) : 0.4317501E-02  (-0.2180514E-03)
 number of electron      16.0000055 magnetization 
 augmentation part        8.4503777 magnetization 

 Broyden mixing:
  rms(total) = 0.11967E+00    rms(broyden)= 0.11951E+00
  rms(prec ) = 0.39786E+00
  weight for this iteration     100.00

 eigenvalues of (default mixing * dielectric matrix)
  average eigenvalue GAMMA=   0.8788
  3.0097  1.1599  0.7603  0.7603  0.6436  0.3111  0.3111  0.0743

 Free energy of the ion-electron system (eV)
  ---------------------------------------------------
  alpha Z        PSCENC =       117.79976220
  Ewald energy   TEWEN  =     -1171.43779597
  -Hartree energ DENC   =      -199.12760184
  -exchange      EXHF   =         0.00000000
  -V(xc)+E(xc)   XCENC  =         6.34704173
  PAW double counting   =      1385.91101937    -1402.45536102
  entropy T*S    EENTRO =        -0.02531042
  eigenvalues    EBANDS =        60.84451135
  atomic energy  EATOM  =      1188.62386280
  Solvation  Ediel_sol  =         0.00000000
  ---------------------------------------------------
  free energy    TOTEN  =       -13.51987180 eV

  energy without entropy =      -13.49456139  energy(sigma->0) =      -13.50721660


--------------------------------------------------------------------------------------------------------




--------------------------------------- Iteration      1(  14)  ---------------------------------------


    POTLOK:  cpu time      0.0029: real time      0.0033
    SETDIJ:  cpu time      0.0037: real time      0.0037
    EDDIAG:  cpu time      0.0036: real time      0.0036
  RMM-DIIS:  cpu time      0.0337: real time      0.0337
    ORTHCH:  cpu time      0.0008: real time      0.0008
       DOS:  cpu time      0.0005: real time      0.0005
    CHARGE:  cpu time      0.0058: real time      0.0058
    MIXING:  cpu time      0.0023: real time      0.0023
    --------------------------------------------
      LOOP:  cpu time      0.0533: real time      0.0537

 eigenvalue-minimisations  :   197
 total energy-change (2. order) : 0.1893422E-02  (-0.1457229E-03)
 number of electron      16.0000052 magnetization 
 augmentation part        8.3630489 magnetization 

 Broyden mixing:
  rms(total) = 0.18491E-01    rms(broyden)= 0.16932E-01
  rms(prec ) = 0.40046E-01
  weight for this iteration     100.00

 eigenvalues of (default mixing * dielectric matrix)
  average eigenvalue GAMMA=   0.8910
  3.1441  1.3531  0.9000  0.9000  0.6326  0.4381  0.2882  0.2882  0.0743

 Free energy of the ion-electron system (eV)
  ---------------------------------------------------
  alpha Z        PSCENC =       117.79976220
  Ewald energy   TEWEN  =     -1171.43779597
  -Hartree energ DENC   =      -199.33806596
  -exchange      EXHF   =         0.00000000
  -V(xc)+E(xc)   XCENC  =         6.35745889
  PAW double counting   =      1386.21922414    -1402.73855338
  entropy T*S    EENTRO =        -0.02353025
  eigenvalues    EBANDS =        61.01965915
  atomic energy  EATOM  =      1188.62386280
  Solvation  Ediel_sol  =         0.00000000
  ---------------------------------------------------
  free energy    TOTEN  =       -13.51797838 eV

  energy without entropy =      -13.49444813  energy(sigma->0) =      -13.50621326


--------------------------------------------------------------------------------------------------------




--------------------------------------- Iteration      1(  15)  ---------------------------------------


    POTLOK:  cpu time      0.0030: real time      0.0034
    SETDIJ:  cpu time      0.0038: real time      0.0038
    EDDIAG:  cpu time      0.0036: real time      0.0036
  RMM-DIIS:  cpu time      0.0340: real time      0.0340
    ORTHCH:  cpu time      0.0009: real time      0.0009
       DOS:  cpu time      0.0004: real time      0.0004
    CHARGE:  cpu time      0.0063: real time      0.0063
    MIXING:  cpu time      0.0012: real time      0.0012
    --------------------------------------------
      LOOP:  cpu time      0.0533: real time      0.0537

 eigenvalue-minimisations  :   178
 total energy-change (2. order) : 0.6685274E-03  (-0.5005159E-04)
 number of electron      16.0000052 magnetization 
 augmentation part        8.3628240 magnetization 

 Broyden mixing:
  rms(total) = 0.11563E-01    rms(broyden)= 0.11531E-01
  rms(prec ) = 0.22204E-01
  weight for this iteration     100.00

 eigenvalues of (default mixing * dielectric matrix)
  average eigenvalue GAMMA=   0.9084
  3.1963  1.3908  1.0701  1.0701  0.6571  0.6571  0.0743  0.4048  0.2816  0.2816

 Free energy of the ion-electron system (eV)
  ---------------------------------------------------
  alpha Z        PSCENC =       117.79976220
  Ewald energy   TEWEN  =     -1171.43779597
  -Hartree energ DENC   =      -199.43423803
  -exchange      EXHF   =         0.00000000
  -V(xc)+E(xc)   XCENC  =         6.36105270
  PAW double counting   =      1384.64099898    -1401.13393899
  entropy T*S    EENTRO =        -0.02364684
  eigenvalues    EBANDS =        61.08663329
  atomic energy  EATOM  =      1188.62386280
  Solvation  Ediel_sol  =         0.00000000
  ---------------------------------------------------
  free energy    TOTEN  =       -13.51730986 eV

  energy without entropy =      -13.49366302  energy(sigma->0) =      -13.50548644


--------------------------------------------------------------------------------------------------------




--------------------------------------- Iteration      1(  16)  ---------------------------------------


    POTLOK:  cpu time      0.0030: real time      0.0034
    SETDIJ:  cpu time      0.0038: real time      0.0038
    EDDIAG:  cpu time      0.0036: real time      0.0036
  RMM-DIIS:  cpu time      0.0255: real time      0.0255
    ORTHCH:  cpu time      0.0008: real time      0.0008
       DOS:  cpu time      0.0005: real time      0.0005
    CHARGE:  cpu time      0.0058: real time      0.0058
    MIXING:  cpu time      0.0013: real time      0.0013
    --------------------------------------------
      LOOP:  cpu time      0.0442: real time      0.0446

 eigenvalue-minimisations  :   145
 total energy-change (2. order) :-0.5612705E-04  (-0.8671578E-05)
 number of electron      16.0000051 magnetization 
 augmentation part        8.3513710 magnetization 

 Broyden mixing:
  rms(total) = 0.16382E-01    rms(broyden)= 0.16363E-01
  rms(prec ) = 0.43722E-01
  weight for this iteration     100.00

 eigenvalues of (default mixing * dielectric matrix)
  average eigenvalue GAMMA=   0.9918
  3.1660  1.9185  1.3873  1.0162  0.8593  0.8593  0.6602  0.0743  0.4082  0.2805
  0.2805

 Free energy of the ion-electron system (eV)
  ---------------------------------------------------
  alpha Z        PSCENC =       117.79976220
  Ewald energy   TEWEN  =     -1171.43779597
  -Hartree energ DENC   =      -199.51117617
  -exchange      EXHF   =         0.00000000
  -V(xc)+E(xc)   XCENC  =         6.36431353
  PAW double counting   =      1383.03130041    -1399.48890862
  entropy T*S    EENTRO =        -0.02308866
  eigenvalues    EBANDS =        61.12436450
  atomic energy  EATOM  =      1188.62386280
  Solvation  Ediel_sol  =         0.00000000
  ---------------------------------------------------
  free energy    TOTEN  =       -13.51736598 eV

  energy without entropy =      -13.49427732  energy(sigma->0) =      -13.50582165


--------------------------------------------------------------------------------------------------------




--------------------------------------- Iteration      1(  17)  ---------------------------------------


    POTLOK:  cpu time      0.0030: real time      0.0033
    SETDIJ:  cpu time      0.0037: real time      0.0037
    EDDIAG:  cpu time      0.0036: real time      0.0036
  RMM-DIIS:  cpu time      0.0192: real time      0.0192
    ORTHCH:  cpu time      0.0009: real time      0.0009
       DOS:  cpu time      0.0005: real time      0.0005
    CHARGE:  cpu time      0.0057: real time      0.0057
    MIXING:  cpu time      0.0014: real time      0.0014
    --------------------------------------------
      LOOP:  cpu time      0.0379: real time      0.0382

 eigenvalue-minimisations  :   104
 total energy-change (2. order) : 0.3563621E-04  (-0.1970228E-05)
 number of electron      16.0000052 magnetization 
 augmentation part        8.3560533 magnetization 

 Broyden mixing:
  rms(total) = 0.12102E-01    rms(broyden)= 0.12101E-01
  rms(prec ) = 0.35052E-01
  weight for this iteration     100.00

 eigenvalues of (default mixing * dielectric matrix)
  average eigenvalue GAMMA=   0.9797
  3.1790  2.3772  1.2725  0.9781  0.8703  0.8703  0.6254  0.5472  0.0743  0.4009
  0.2806  0.2806

 Free energy of the ion-electron system (eV)
  ---------------------------------------------------
  alpha Z        PSCENC =       117.79976220
  Ewald energy   TEWEN  =     -1171.43779597
  -Hartree energ DENC   =      -199.52531417
  -exchange      EXHF   =         0.00000000
  -V(xc)+E(xc)   XCENC  =         6.36478170
  PAW double counting   =      1381.06997497    -1397.49409963
  entropy T*S    EENTRO =        -0.02331982
  eigenvalues    EBANDS =        61.10481757
  atomic energy  EATOM  =      1188.62386280
  Solvation  Ediel_sol  =         0.00000000
  ---------------------------------------------------
  free energy    TOTEN  =       -13.51733035 eV

  energy without entropy =      -13.49401053  energy(sigma->0) =      -13.50567044


--------------------------------------------------------------------------------------------------------




--------------------------------------- Iteration      1(  18)  ---------------------------------------


    POTLOK:  cpu time      0.0030: real time      0.0033
    SETDIJ:  cpu time      0.0038: real time      0.0038
    EDDIAG:  cpu time      0.0036: real time      0.0036
  RMM-DIIS:  cpu time      0.0179: real time      0.0179
    ORTHCH:  cpu time      0.0009: real time      0.0008
       DOS:  cpu time      0.0004: real time      0.0004
    CHARGE:  cpu time      0.0058: real time      0.0058
    MIXING:  cpu time      0.0014: real time      0.0014
    --------------------------------------------
      LOOP:  cpu time      0.0368: real time      0.0370

 eigenvalue-minimisations  :    98
 total energy-change (2. order) : 0.1449910E-04  (-0.4274787E-06)
 number of electron      16.0000052 magnetization 
 augmentation part        8.3575652 magnetization 

 Broyden mixing:
  rms(total) = 0.11001E-01    rms(broyden)= 0.11001E-01
  rms(prec ) = 0.32838E-01
  weight for this iteration     100.00

 eigenvalues of (default mixing * dielectric matrix)
  average eigenvalue GAMMA=   0.9585
  3.1605  2.5501  1.2397  1.0209  0.8965  0.8965  0.6721  0.6721  0.0743  0.4012
  0.2802  0.2802  0.3168

 Free energy of the ion-electron system (eV)
  ---------------------------------------------------
  alpha Z        PSCENC =       117.79976220
  Ewald energy   TEWEN  =     -1171.43779597
  -Hartree energ DENC   =      -199.52159209
  -exchange      EXHF   =         0.00000000
  -V(xc)+E(xc)   XCENC  =         6.36460267
  PAW double counting   =      1380.35325020    -1396.76778126
  entropy T*S    EENTRO =        -0.02338744
  eigenvalues    EBANDS =        61.09176304
  atomic energy  EATOM  =      1188.62386280
  Solvation  Ediel_sol  =         0.00000000
  ---------------------------------------------------
  free energy    TOTEN  =       -13.51731585 eV

  energy without entropy =      -13.49392841  energy(sigma->0) =      -13.50562213


--------------------------------------------------------------------------------------------------------




--------------------------------------- Iteration      1(  19)  ---------------------------------------


    POTLOK:  cpu time      0.0030: real time      0.0034
    SETDIJ:  cpu time      0.0041: real time      0.0040
    EDDIAG:  cpu time      0.0038: real time      0.0038
  RMM-DIIS:  cpu time      0.0180: real time      0.0180
    ORTHCH:  cpu time      0.0009: real time      0.0009
       DOS:  cpu time      0.0005: real time      0.0005
    CHARGE:  cpu time      0.0058: real time      0.0058
    MIXING:  cpu time      0.0016: real time      0.0016
    --------------------------------------------
      LOOP:  cpu time      0.0375: real time      0.0379

 eigenvalue-minimisations  :    98
 total energy-change (2. order) : 0.1755450E-04  (-0.4242202E-06)
 number of electron      16.0000052 magnetization 
 augmentation part        8.3609404 magnetization 

 Broyden mixing:
  rms(total) = 0.88414E-02    rms(broyden)= 0.88394E-02
  rms(prec ) = 0.27213E-01
  weight for this iteration     100.00

 eigenvalues of (default mixing * dielectric matrix)
  average eigenvalue GAMMA=   0.9639
  3.0517  2.6449  1.3802  1.0703  0.9635  0.9635  0.7320  0.7320  0.6168  0.0743
  0.4078  0.2807  0.2807  0.2962

 Free energy of the ion-electron system (eV)
  ---------------------------------------------------
  alpha Z        PSCENC =       117.79976220
  Ewald energy   TEWEN  =     -1171.43779597
  -Hartree energ DENC   =      -199.50582161
  -exchange      EXHF   =         0.00000000
  -V(xc)+E(xc)   XCENC  =         6.36390358
  PAW double counting   =      1379.90435245    -1396.31721662
  entropy T*S    EENTRO =        -0.02354685
  eigenvalues    EBANDS =        61.07520172
  atomic energy  EATOM  =      1188.62386280
  Solvation  Ediel_sol  =         0.00000000
  ---------------------------------------------------
  free energy    TOTEN  =       -13.51729829 eV

  energy without entropy =      -13.49375144  energy(sigma->0) =      -13.50552487


--------------------------------------------------------------------------------------------------------




--------------------------------------- Iteration      1(  20)  ---------------------------------------


    POTLOK:  cpu time      0.0029: real time      0.0034
    SETDIJ:  cpu time      0.0038: real time      0.0038
    EDDIAG:  cpu time      0.0036: real time      0.0036
  RMM-DIIS:  cpu time      0.0180: real time      0.0179
    ORTHCH:  cpu time      0.0008: real time      0.0008
       DOS:  cpu time      0.0004: real time      0.0004
    CHARGE:  cpu time      0.0058: real time      0.0058
    MIXING:  cpu time      0.0016: real time      0.0016
    --------------------------------------------
      LOOP:  cpu time      0.0369: real time      0.0374

 eigenvalue-minimisations  :    98
 total energy-change (2. order) : 0.1987081E-04  (-0.9176092E-06)
 number of electron      16.0000052 magnetization 
 augmentation part        8.3661383 magnetization 

 Broyden mixing:
  rms(total) = 0.50207E-02    rms(broyden)= 0.50121E-02
  rms(prec ) = 0.16039E-01
  weight for this iteration     100.00

 eigenvalues of (default mixing * dielectric matrix)
  average eigenvalue GAMMA=   0.9498
  2.7940  2.7940  1.5980  1.0920  0.9661  0.9661  0.7725  0.7725  0.0743  0.5768
  0.5768  0.4052  0.2805  0.2805  0.2984

 Free energy of the ion-electron system (eV)
  ---------------------------------------------------
  alpha Z        PSCENC =       117.79976220
  Ewald energy   TEWEN  =     -1171.43779597
  -Hartree energ DENC   =      -199.47735691
  -exchange      EXHF   =         0.00000000
  -V(xc)+E(xc)   XCENC  =         6.36269298
  PAW double counting   =      1379.74514786    -1396.16091919
  entropy T*S    EENTRO =        -0.02378576
  eigenvalues    EBANDS =        61.05111358
  atomic energy  EATOM  =      1188.62386280
  Solvation  Ediel_sol  =         0.00000000
  ---------------------------------------------------
  free energy    TOTEN  =       -13.51727842 eV

  energy without entropy =      -13.49349266  energy(sigma->0) =      -13.50538554


--------------------------------------------------------------------------------------------------------




--------------------------------------- Iteration      1(  21)  ---------------------------------------


    POTLOK:  cpu time      0.0030: real time      0.0034
    SETDIJ:  cpu time      0.0037: real time      0.0037
    EDDIAG:  cpu time      0.0036: real time      0.0036
  RMM-DIIS:  cpu time      0.0169: real time      0.0169
    ORTHCH:  cpu time      0.0009: real time      0.0008
       DOS:  cpu time      0.0005: real time      0.0005
    --------------------------------------------
      LOOP:  cpu time      0.0285: real time      0.0288

 eigenvalue-minimisations  :    95
 total energy-change (2. order) : 0.4251397E-05  (-0.3763008E-06)
 number of electron      16.0000052 magnetization 
 augmentation part        8.3661383 magnetization 

 Free energy of the ion-electron system (eV)
  ---------------------------------------------------
  alpha Z        PSCENC =       117.79976220
  Ewald energy   TEWEN  =     -1171.43779597
  -Hartree energ DENC   =      -199.46582700
  -exchange      EXHF   =         0.00000000
  -V(xc)+E(xc)   XCENC  =         6.36222925
  PAW double counting   =      1379.73735431    -1396.15514195
  entropy T*S    EENTRO =        -0.02383877
  eigenvalues    EBANDS =        61.04212096
  atomic energy  EATOM  =      1188.62386280
  Solvation  Ediel_sol  =         0.00000000
  ---------------------------------------------------
  free energy    TOTEN  =       -13.51727417 eV

  energy without entropy =      -13.49343540  energy(sigma->0) =      -13.50535478


--------------------------------------------------------------------------------------------------------




 average (electrostatic) potential at core
  the test charge radii are     1.0103
  (the norm of the test charge is              1.0000)
       1 -43.4088       2 -43.4109
 
 
 
 E-fermi :   6.0516     XC(G=0): -12.9275     alpha+bet :-13.2097

 Fermi energy:         6.0516099583

 k-point     1 :       0.0000    0.0000    0.0000
  band No.  band energies     occupation 
      1      -2.6706      2.00000
      2       1.8448      2.00000
      3       1.8448      2.00000
      4       4.4228      2.00000
      5       4.4228      2.00000
      6       4.4228      2.00000
      7       5.8950      1.99999
      8       5.8950      1.99999
      9       6.8948      0.00000
     10       6.8948      0.00000
     11       6.8948      0.00000
     12      15.3618      0.00000

 k-point     2 :       0.5000    0.0000    0.0000
  band No.  band energies     occupation 
      1       1.3179      2.00000
      2       1.3182      2.00000
      3       3.8260      2.00000
      4       3.8271      2.00000
      5       4.8161      2.00000
      6       4.8161      2.00000
      7       4.8180      2.00000
      8       4.8181      2.00000
      9       5.6291      2.00000
     10       5.6313      2.00000
     11       6.8967      0.00000
     12       6.8978      0.00000

 k-point     3 :       0.0000    0.5000    0.0000
  band No.  band energies     occupation 
      1       1.3179      2.00000
      2       1.3182      2.00000
      3       3.8260      2.00000
      4       3.8271      2.00000
      5       4.8161      2.00000
      6       4.8161      2.00000
      7       4.8181      2.00000
      8       4.8181      2.00000
      9       5.6291      2.00000
     10       5.6313      2.00000
     11       6.8967      0.00000
     12       6.8978      0.00000

 k-point     4 :       0.0000    0.0000    0.5000
  band No.  band energies     occupation 
      1       1.3179      2.00000
      2       1.3182      2.00000
      3       3.8260      2.00000
      4       3.8271      2.00000
      5       4.8161      2.00000
      6       4.8161      2.00000
      7       4.8180      2.00000
      8       4.8181      2.00000
      9       5.6291      2.00000
     10       5.6313      2.00000
     11       6.8967      0.00000
     12       6.8978      0.00000

 k-point     5 :       0.5000    0.5000    0.0000
  band No.  band energies     occupation 
      1       1.5099      2.00000
      2       1.5103      2.00000
      3       3.2774      2.00000
      4       3.2774      2.00000
      5       5.8838      2.00000
      6       5.8840      2.00000
      7       6.0724      0.55734
      8       6.0724      0.55728
      9       6.1083      0.10892
     10       6.1095      0.10140
     11       7.1708      0.00000
     12       7.1708      0.00000

 k-point     6 :       0.0000    0.5000    0.5000
  band No.  band energies     occupation 
      1       1.5099      2.00000
      2       1.5103      2.00000
      3       3.2774      2.00000
      4       3.2774      2.00000
      5       5.8838      2.00000
      6       5.8840      2.00000
      7       6.0724      0.55733
      8       6.0724      0.55722
      9       6.1083      0.10895
     10       6.1095      0.10134
     11       7.1708      0.00000
     12       7.1708      0.00000

 k-point     7 :       0.5000    0.0000    0.5000
  band No.  band energies     occupation 
      1       1.5099      2.00000
      2       1.5103      2.00000
      3       3.2774      2.00000
      4       3.2774      2.00000
      5       5.8838      2.00000
      6       5.8840      2.00000
      7       6.0724      0.55744
      8       6.0724      0.55738
      9       6.1082      0.10919
     10       6.1095      0.10140
     11       7.1708      0.00000
     12       7.1708      0.00000

 k-point     8 :       0.5000    0.5000    0.5000
  band No.  band energies     occupation 
      1       3.2413      2.00000
      2       3.2413      2.00000
      3       3.2413      2.00000
      4       3.2427      2.00000
      5       3.2427      2.00000
      6       3.2427      2.00000
      7       6.1477      0.00656
      8       6.1478      0.00653
      9       6.1490      0.00588
     10       6.1490      0.00587
     11      14.4134      0.00000
     12      14.4137      0.00000


--------------------------------------------------------------------------------------------------------


 soft charge-density along one line, spin component            1
         0         1         2         3         4         5         6         7         8         9
 total charge-density along one line
 
 pseudopotential strength for first ion, spin component:            1
 -4.891   0.000   0.000   0.000   0.000  -5.445   0.000   0.000
  0.000  -4.891   0.000  -0.000  -0.000   0.000  -5.445   0.000
  0.000   0.000  -4.961   0.000   0.000   0.000   0.000  -5.512
  0.000  -0.000   0.000  -4.891   0.000   0.000  -0.000   0.000
  0.000  -0.000   0.000   0.000  -4.961   0.000  -0.000   0.000
 -5.445   0.000   0.000   0.000   0.000  -5.956   0.000   0.000
  0.000  -5.445   0.000  -0.000  -0.000   0.000  -5.956   0.000
  0.000   0.000  -5.512   0.000   0.000   0.000   0.000  -6.021
  0.000  -0.000   0.000  -5.445   0.000   0.000  -0.000   0.000
  0.000  -0.000   0.000   0.000  -5.512   0.000  -0.000   0.000
  0.000   0.000   0.000  -0.000   0.000   0.000   0.000   0.000
  0.000   0.000   0.000  -0.000   0.000   0.000   0.000   0.000
 -0.000  -0.000  -0.000   0.000  -0.000  -0.000  -0.000  -0.000
  0.000   0.000  -0.000  -0.000   0.000   0.000   0.000  -0.000
  0.000   0.000   0.000  -0.000  -0.000   0.000   0.000   0.000
 -0.000  -0.000  -0.000   0.000  -0.000  -0.000  -0.000  -0.000
  0.000   0.000  -0.000  -0.000   0.000   0.000   0.000  -0.000
  0.000   0.000   0.000  -0.000  -0.000   0.000   0.000   0.000
 total augmentation occupancy for first ion, spin component:            1
  1.971   0.000  -0.000  -0.000  -0.000  -0.865  -0.000   0.000   0.000   0.000  -0.000   0.000   0.000   0.000   0.000   0.000
  0.000   1.971  -0.000   0.000   0.000  -0.000  -0.865   0.000   0.000  -0.000   0.000  -0.000  -0.000   0.000   0.000  -0.000
 -0.000  -0.000   2.216   0.000  -0.000   0.000   0.000  -1.500  -0.000   0.000  -0.000   0.000  -0.000  -0.000  -0.000   0.000
 -0.000   0.000   0.000   1.971   0.000   0.000   0.000  -0.000  -0.865  -0.000  -0.000   0.000   0.000  -0.000   0.000  -0.000
 -0.000   0.000  -0.000   0.000   2.216   0.000  -0.000   0.000  -0.000  -1.500  -0.000   0.000   0.000  -0.000   0.000   0.000
 -0.865  -0.000   0.000   0.000   0.000   1.312   0.000  -0.000  -0.000  -0.000  -0.000  -0.000  -0.000  -0.000  -0.000   0.000
 -0.000  -0.865   0.000   0.000  -0.000   0.000   1.312  -0.000  -0.000   0.000  -0.000   0.000  -0.000  -0.000  -0.000  -0.000
  0.000   0.000  -1.500  -0.000   0.000  -0.000  -0.000   1.853   0.000  -0.000   0.000  -0.000   0.000   0.000   0.000  -0.000
  0.000   0.000  -0.000  -0.865  -0.000  -0.000  -0.000   0.000   1.312   0.000  -0.000   0.000   0.000   0.000  -0.000  -0.000
  0.000  -0.000   0.000  -0.000  -1.500  -0.000   0.000  -0.000   0.000   1.853   0.000  -0.000  -0.000   0.000  -0.000  -0.000
 -0.000   0.000  -0.000  -0.000  -0.000  -0.000  -0.000   0.000  -0.000   0.000   2.257  -0.271  -0.000   0.000  -0.000  -0.000
  0.000  -0.000   0.000   0.000   0.000  -0.000   0.000  -0.000   0.000  -0.000  -0.271   0.036  -0.000  -0.000   0.000   0.000
  0.000  -0.000  -0.000   0.000   0.000  -0.000  -0.000   0.000   0.000  -0.000  -0.000  -0.000   0.237  -0.000   0.000  -0.017
  0.000   0.000  -0.000  -0.000  -0.000  -0.000  -0.000   0.000   0.000   0.000   0.000  -0.000  -0.000   0.237   0.000  -0.000
  0.000   0.000  -0.000   0.000   0.000  -0.000  -0.000   0.000  -0.000  -0.000  -0.000   0.000   0.000   0.000   0.237   0.000
  0.000  -0.000   0.000  -0.000   0.000   0.000  -0.000  -0.000  -0.000  -0.000  -0.000   0.000  -0.017  -0.000   0.000   0.002
  0.000  -0.000   0.000  -0.000  -0.000   0.000  -0.000  -0.000   0.000  -0.000  -0.000   0.000  -0.000  -0.017   0.000   0.000
 -0.000  -0.000   0.000   0.000   0.000  -0.000   0.000  -0.000  -0.000  -0.000   0.000  -0.000   0.000  -0.000  -0.017  -0.000


------------------------ aborting loop because EDIFF is reached ----------------------------------------


    CHARGE:  cpu time      0.0077: real time      0.0077
    FORLOC:  cpu time      0.0002: real time      0.0002
    FORNL :  cpu time      0.0280: real time      0.0280
    STRESS:  cpu time      0.0847: real time      0.0846
    FORCOR:  cpu time      0.0026: real time      0.0026
    FORHAR:  cpu time      0.0008: real time      0.0008
    MIXING:  cpu time      0.0020: real time      0.0020
    OFIELD:  cpu time      0.0000: real time      0.0000

  FORCE on cell =-STRESS in cart. coord.  units (eV):
  Direction    XX          YY          ZZ          XY          YZ          ZX
  --------------------------------------------------------------------------------------
  Alpha Z   117.79976   117.79976   117.79976
  Ewald    -390.47924  -390.47924  -390.47924    -0.00000     0.00000     0.00000
  Hartree    66.43321    66.43232    66.43312     0.00003    -0.00001     0.00001
  E(xc)     -77.66856   -77.66842   -77.66855    -0.00000     0.00000    -0.00000
  Local     116.66937   116.67178   116.66961    -0.00008     0.00003    -0.00002
  n-local   -58.54710   -58.54726   -58.54708     0.00000     0.00001    -0.00004
  augment    75.39766    75.39726    75.39765    -0.00002     0.00001    -0.00000
  Kinetic   148.60651   148.60497   148.60631     0.00006    -0.00002     0.00001
  Fock        0.00000     0.00000     0.00000     0.00000     0.00000     0.00000
  -------------------------------------------------------------------------------------
  Total      -1.78839    -1.78883    -1.78842    -0.00001     0.00001    -0.00004
  in kB    -122.09356  -122.12327  -122.09561    -0.00097     0.00087    -0.00273
  external pressure =     -122.10 kB  Pullay stress =        0.00 kB


 VOLUME and BASIS-vectors are now :
 -----------------------------------------------------------------------------
  energy-cutoff  :      450.00
  volume of cell :       23.47
      direct lattice vectors                 reciprocal lattice vectors
     2.863035499  0.000000000  0.000000000     0.349279637  0.000000000 -0.000000000
    -0.000000000  2.863035499  0.000000000     0.000000000  0.349279637  0.000000000
     0.000000000  0.000000000  2.863035499    -0.000000000 -0.000000000  0.349279637

  length of vectors
     2.863035499  2.863035499  2.863035499     0.349279637  0.349279637  0.349279637


 FORCES acting on ions
    electron-ion (+dipol)            ewald-force                    non-local-force                 convergence-correction
 -----------------------------------------------------------------------------------------------
   0.483E-05 -.466E-05 -.666E-05   -.625E-14 -.131E-14 -.219E-14   -.113E-05 0.224E-04 -.333E-06   -.137E-05 -.107E-04 0.785E-05
   -.186E-05 0.670E-06 0.572E-05   0.780E-14 0.125E-14 0.227E-14   0.461E-05 -.287E-04 0.530E-05   -.419E-05 0.211E-04 -.105E-04
 -----------------------------------------------------------------------------------------------
   0.297E-05 -.399E-05 -.942E-06   0.155E-14 -.561E-16 0.808E-16   0.348E-05 -.622E-05 0.497E-05   -.556E-05 0.103E-04 -.265E-05
 
 
 POSITION                                       TOTAL-FORCE (eV/Angst)
 -----------------------------------------------------------------------------------
      0.00000      0.00000      0.00000         0.000002      0.000007      0.000000
      1.43152      1.43152      1.43152        -0.000002     -0.000007     -0.000000
 -----------------------------------------------------------------------------------
    total drift:                                0.000001      0.000000      0.000001


--------------------------------------------------------------------------------------------------------



  FREE ENERGIE OF THE ION-ELECTRON SYSTEM (eV)
  ---------------------------------------------------
  free  energy   TOTEN  =       -13.51727417 eV

  energy  without entropy=      -13.49343540  energy(sigma->0) =      -13.50535478
 


--------------------------------------------------------------------------------------------------------


    POTLOK:  cpu time      0.0077: real time      0.0077


--------------------------------------------------------------------------------------------------------




--------------------------------------------------------------------------------------------------------


  
 reached required accuracy - stopping structural energy minimisation
     LOOP+:  cpu time      1.1618: real time      1.1749
    4ORBIT:  cpu time      0.0000: real time      0.0000

 total amount of memory used by VASP MPI-rank0    34554. kBytes
=======================================================================

   base      :      30000. kBytes
   nonlr-proj:        655. kBytes
   fftplans  :       1184. kBytes
   grid      :       1806. kBytes
   one-center:         31. kBytes
   wavefun   :        878. kBytes
 
  
  
 General timing and accounting informations for this job:
 ========================================================
  
                  Total CPU time used (sec):        4.375
                            User time (sec):        2.957
                          System time (sec):        1.418
                         Elapsed time (sec):        6.156
  
                   Maximum memory used (kb):     3569728.
                   Average memory used (kb):          N/A
  
                          Minor page faults:        60036
                          Major page faults:            3
                 Voluntary context switches:         3696
