<?xml version="1.0" encoding="ISO-8859-1"?>
<modeling>
 <generator>
  <i name="program" type="string">vasp </i>
  <i name="version" type="string">6.4.2  </i>
  <i name="subversion" type="string">20Jul23 (build Nov 12 2023 22:16:35) complex                          parallel </i>
  <i name="platform" type="string">LinuxNV </i>
  <i name="date" type="string">2025 05 31 </i>
  <i name="time" type="string">20:16:46 </i>
 </generator>
 <incar>
  <i type="int" name="ISTART">     0</i>
  <i type="string" name="PREC">Normal</i>
  <i type="string" name="ALGO">Fast</i>
  <i type="int" name="ISPIN">     1</i>
  <i type="int" name="ICHARG">     2</i>
  <i type="int" name="IBRION">     2</i>
  <i name="EDIFF">      0.00001000</i>
  <i name="EDIFFG">     -0.00500000</i>
  <i type="int" name="NSW">   300</i>
  <i type="int" name="ISIF">     2</i>
  <i type="int" name="ISYM">     0</i>
  <i name="ENCUT">    450.00000000</i>
  <i type="string" name="LREAL">Auto</i>
  <i type="logical" name="LPLANE"> T  </i>
  <i type="int" name="ISMEAR">     0</i>
  <i name="SIGMA">      0.05000000</i>
  <i type="logical" name="LWAVE"> F  </i>
  <i type="logical" name="LCHARG"> F  </i>
 </incar>
 <primitive_cell>
  <structure name="primitive_cell" >
   <crystal>
    <varray name="basis" >
     <v>       2.86303550       0.00000000       0.00000000 </v>
     <v>      -0.00000000       2.86303550       0.00000000 </v>
     <v>       0.00000000       0.00000000       2.86303550 </v>
    </varray>
    <i name="volume">     23.46822259 </i>
    <varray name="rec_basis" >
     <v>       0.34927964       0.00000000      -0.00000000 </v>
     <v>       0.00000000       0.34927964       0.00000000 </v>
     <v>      -0.00000000      -0.00000000       0.34927964 </v>
    </varray>
   </crystal>
   <varray name="positions" >
    <v>       0.00000000       0.00000000       0.00000000 </v>
    <v>       0.50000000       0.50000000       0.50000000 </v>
   </varray>
  </structure>
  <varray name="primitive_index" >
   <v type="int" >        1 </v>
   <v type="int" >        2 </v>
  </varray>
 </primitive_cell>
 <kpoints>
  <generation param="Gamma">
   <v type="int" name="divisions">       2        2        2 </v>
   <v name="usershift">      0.00000000       0.00000000       0.00000000 </v>
   <v name="genvec1">      0.50000000       0.00000000       0.00000000 </v>
   <v name="genvec2">      0.00000000       0.50000000       0.00000000 </v>
   <v name="genvec3">     -0.00000000       0.00000000       0.50000000 </v>
   <v name="shift">      0.00000000       0.00000000       0.00000000 </v>
  </generation>
  <varray name="kpointlist" >
   <v>       0.00000000       0.00000000       0.00000000 </v>
   <v>       0.50000000       0.00000000       0.00000000 </v>
   <v>       0.00000000       0.50000000       0.00000000 </v>
   <v>       0.00000000       0.00000000       0.50000000 </v>
   <v>       0.50000000       0.50000000       0.00000000 </v>
   <v>       0.00000000       0.50000000       0.50000000 </v>
   <v>       0.50000000       0.00000000       0.50000000 </v>
   <v>       0.50000000       0.50000000       0.50000000 </v>
  </varray>
  <varray name="weights" >
   <v>       0.12500000 </v>
   <v>       0.12500000 </v>
   <v>       0.12500000 </v>
   <v>       0.12500000 </v>
   <v>       0.12500000 </v>
   <v>       0.12500000 </v>
   <v>       0.12500000 </v>
   <v>       0.12500000 </v>
  </varray>
 </kpoints>
 <parameters>
  <separator name="general" >
   <i type="string" name="SYSTEM">unknown system</i>
   <i type="logical" name="LCOMPAT"> F  </i>
  </separator>
  <separator name="electronic" >
   <i type="string" name="PREC">normal</i>
   <i name="ENMAX">    450.00000000</i>
   <i name="ENAUG">    511.36800000</i>
   <i name="EDIFF">      0.00001000</i>
   <i type="int" name="IALGO">    68</i>
   <i type="int" name="IWAVPR">    11</i>
   <i type="int" name="NBANDS">    12</i>
   <i type="int" name="NBANDSLOW">    -1</i>
   <i type="int" name="NBANDSHIGH">    -1</i>
   <i name="NELECT">     16.00000000</i>
   <i type="int" name="TURBO">     0</i>
   <i type="int" name="IRESTART">     0</i>
   <i type="int" name="NREBOOT">     0</i>
   <i type="int" name="NMIN">     0</i>
   <i name="EREF">      0.00000000</i>
   <separator name="electronic smearing" >
    <i type="int" name="ISMEAR">     0</i>
    <i name="SIGMA">      0.05000000</i>
    <i name="KSPACING">      0.50000000</i>
    <i type="logical" name="KGAMMA"> T  </i>
    <i type="logical" name="KBLOWUP"> T  </i>
   </separator>
   <separator name="electronic projectors" >
    <i type="logical" name="LREAL"> T  </i>
    <v name="ROPT">     -0.00050000</v>
    <i type="int" name="LMAXPAW">  -100</i>
    <i type="int" name="LMAXMIX">     2</i>
    <i type="logical" name="NLSPLINE"> F  </i>
   </separator>
   <separator name="electronic startup" >
    <i type="int" name="ISTART">     0</i>
    <i type="int" name="ICHARG">     2</i>
    <i type="int" name="INIWAV">     1</i>
   </separator>
   <separator name="electronic spin" >
    <i type="int" name="ISPIN">     1</i>
    <i type="logical" name="LNONCOLLINEAR"> F  </i>
    <v name="MAGMOM">      1.00000000      1.00000000</v>
    <i name="NUPDOWN">     -1.00000000</i>
    <i type="logical" name="LSORBIT"> F  </i>
    <v name="SAXIS">      0.00000000      0.00000000      1.00000000</v>
    <i type="logical" name="LSPIRAL"> F  </i>
    <v name="QSPIRAL">      0.00000000      0.00000000      0.00000000</v>
    <i type="logical" name="LZEROZ"> F  </i>
   </separator>
   <separator name="electronic exchange-correlation" >
    <i type="logical" name="LASPH"> F  </i>
    <i type="logical" name="LMETAGGA"> F  </i>
   </separator>
   <separator name="electronic convergence" >
    <i type="int" name="NELM">    60</i>
    <i type="int" name="NELMDL">    -5</i>
    <i type="int" name="NELMIN">     2</i>
    <i name="ENINI">    450.00000000</i>
    <separator name="electronic convergence detail" >
     <i type="logical" name="LDIAG"> T  </i>
     <i type="logical" name="LSUBROT"> F  </i>
     <i name="WEIMIN">      0.00100000</i>
     <i name="EBREAK">      0.00000021</i>
     <i name="DEPER">      0.30000000</i>
     <i type="int" name="NRMM">     4</i>
     <i name="TIME">      0.40000000</i>
    </separator>
   </separator>
   <separator name="electronic mixer" >
    <i name="AMIX">      0.40000000</i>
    <i name="BMIX">      1.00000000</i>
    <i name="AMIN">      0.10000000</i>
    <i name="AMIX_MAG">      1.60000000</i>
    <i name="BMIX_MAG">      1.00000000</i>
    <separator name="electronic mixer details" >
     <i type="int" name="IMIX">     4</i>
     <i type="logical" name="MIXFIRST"> F  </i>
     <i type="int" name="MAXMIX">   -45</i>
     <i name="WC">    100.00000000</i>
     <i type="int" name="INIMIX">     1</i>
     <i type="int" name="MIXPRE">     1</i>
     <i type="int" name="MREMOVE">     5</i>
    </separator>
   </separator>
   <separator name="electronic dipolcorrection" >
    <i type="logical" name="LDIPOL"> F  </i>
    <i type="logical" name="LMONO"> F  </i>
    <i type="int" name="IDIPOL">     0</i>
    <i name="EPSILON">      1.00000000</i>
    <v name="DIPOL">   -100.00000000   -100.00000000   -100.00000000</v>
    <i name="EFIELD">      0.00000000</i>
   </separator>
  </separator>
  <separator name="grids" >
   <i type="int" name="NGX">    16</i>
   <i type="int" name="NGY">    16</i>
   <i type="int" name="NGZ">    16</i>
   <i type="int" name="NGXF">    32</i>
   <i type="int" name="NGYF">    32</i>
   <i type="int" name="NGZF">    32</i>
   <i type="logical" name="ADDGRID"> F  </i>
  </separator>
  <separator name="ionic" >
   <i type="int" name="NSW">   300</i>
   <i type="int" name="IBRION">     2</i>
   <i type="int" name="MDALGO">     0</i>
   <i type="int" name="ISIF">     2</i>
   <i name="PSTRESS">      0.00000000</i>
   <i name="EDIFFG">     -0.00500000</i>
   <i type="int" name="NFREE">     1</i>
   <i name="POTIM">      0.50000000</i>
   <i name="SMASS">     -3.00000000</i>
   <i name="SCALEE">      1.00000000</i>
  </separator>
  <separator name="ionic md" >
   <i name="TEBEG">      0.00010000</i>
   <i name="TEEND">      0.00010000</i>
   <i type="int" name="NBLOCK">     1</i>
   <i type="int" name="KBLOCK">   300</i>
   <i type="int" name="NPACO">   256</i>
   <i name="APACO">     10.00000000</i>
  </separator>
  <separator name="symmetry" >
   <i type="int" name="ISYM">     0</i>
   <i name="SYMPREC">      0.00001000</i>
  </separator>
  <separator name="dos" >
   <i type="int" name="LORBIT">     0</i>
   <v name="RWIGS">     -1.00000000</v>
   <i type="int" name="NEDOS">   301</i>
   <i name="EMIN">     10.00000000</i>
   <i name="EMAX">    -10.00000000</i>
   <i name="EFERMI">      0.00000000</i>
  </separator>
  <separator name="writing" >
   <i type="int" name="NWRITE">     2</i>
   <i type="logical" name="LWAVE"> F  </i>
   <i type="logical" name="LDOWNSAMPLE"> F  </i>
   <i type="logical" name="LCHARG"> F  </i>
   <i type="logical" name="LPARD"> F  </i>
   <i type="logical" name="LVTOT"> F  </i>
   <i type="logical" name="LVHAR"> F  </i>
   <i type="logical" name="LELF"> F  </i>
   <i type="logical" name="LOPTICS"> F  </i>
   <v name="STM">      0.00000000      0.00000000      0.00000000      0.00000000      0.00000000      0.00000000      0.00000000</v>
  </separator>
  <separator name="performance" >
   <i type="int" name="NPAR">     1</i>
   <i type="int" name="NSIM">     4</i>
   <i type="int" name="NBLK">    -1</i>
   <i type="logical" name="LPLANE"> T  </i>
   <i type="logical" name="LSCALAPACK"> T  </i>
   <i type="logical" name="LSCAAWARE"> F  </i>
   <i type="logical" name="LSCALU"> F  </i>
   <i type="logical" name="LASYNC"> F  </i>
   <i type="logical" name="LORBITALREAL"> F  </i>
  </separator>
  <separator name="miscellaneous" >
   <i type="int" name="IDIOT">     3</i>
   <i type="int" name="PHON_NSTRUCT">    -1</i>
   <i type="logical" name="LMUSIC"> F  </i>
   <v name="POMASS">     55.84700000</v>
   <v name="DARWINR">      0.00000000</v>
   <v name="DARWINV">      1.00000000</v>
   <i type="logical" name="LCORR"> T  </i>
  </separator>
  <i type="logical" name="GGA_COMPAT"> T  </i>
  <i type="logical" name="LBERRY"> F  </i>
  <i type="int" name="ICORELEVEL">     0</i>
  <i type="logical" name="LDAU"> F  </i>
  <i type="int" name="I_CONSTRAINED_M">     0</i>
  <separator name="electronic exchange-correlation" >
   <i type="string" name="GGA">--</i>
   <i type="int" name="VOSKOWN">     0</i>
   <i type="logical" name="LHFCALC"> F  </i>
   <i type="string" name="PRECFOCK"></i>
   <i type="logical" name="LSYMGRAD"> F  </i>
   <i type="logical" name="LHFONE"> F  </i>
   <i type="logical" name="LRHFCALC"> F  </i>
   <i type="logical" name="LTHOMAS"> F  </i>
   <i type="logical" name="LMODELHF"> F  </i>
   <i type="logical" name="LFOCKACE"> F  </i>
   <i name="ENCUT4O">     -1.00000000</i>
   <i type="int" name="EXXOEP">     0</i>
   <i type="int" name="FOURORBIT">     0</i>
   <i name="AEXX">      0.00000000</i>
   <i name="HFALPHA">      0.00000000</i>
   <i name="MCALPHA">      0.00000000</i>
   <i name="ALDAX">      1.00000000</i>
   <i name="AGGAX">      1.00000000</i>
   <i name="ALDAC">      1.00000000</i>
   <i name="AGGAC">      1.00000000</i>
   <i type="int" name="NKREDX">     1</i>
   <i type="int" name="NKREDY">     1</i>
   <i type="int" name="NKREDZ">     1</i>
   <i type="logical" name="SHIFTRED"> F  </i>
   <i type="logical" name="ODDONLY"> F  </i>
   <i type="logical" name="EVENONLY"> F  </i>
   <i type="int" name="LMAXFOCK">     0</i>
   <i type="int" name="NMAXFOCKAE">     0</i>
   <i type="logical" name="LFOCKAEDFT"> F  </i>
   <i name="HFSCREEN">      0.00000000</i>
   <i name="HFSCREENC">      0.00000000</i>
   <i type="int" name="NBANDSGWLOW">     0</i>
  </separator>
  <separator name="vdW DFT" >
   <i type="logical" name="LUSE_VDW"> F  </i>
   <i type="int" name="IVDW_NL">     1</i>
   <i type="logical" name="LSPIN_VDW"> F  </i>
   <i name="Zab_VDW">     -0.84910000</i>
   <i name="PARAM1">      0.12340000</i>
   <i name="PARAM2">      1.00000000</i>
   <i name="PARAM3">      0.00000000</i>
  </separator>
  <separator name="model GW" >
   <i type="int" name="MODEL_GW">     0</i>
   <i name="MODEL_EPS0">      7.04046678</i>
   <i name="MODEL_ALPHA">      1.00000000</i>
  </separator>
  <separator name="linear response parameters" >
   <i type="logical" name="LEPSILON"> F  </i>
   <i type="logical" name="LRPA"> F  </i>
   <i type="logical" name="LNABLA"> F  </i>
   <i type="logical" name="LVEL"> F  </i>
   <i name="CSHIFT">      0.10000000</i>
   <i name="OMEGAMAX">     -1.00000000</i>
   <i name="DEG_THRESHOLD">      0.00200000</i>
   <i name="RTIME">     -0.10000000</i>
   <i name="WPLASMAI">      0.00000000</i>
   <v name="DFIELD">      0.00000000      0.00000000      0.00000000</v>
   <v name="WPLASMA">      0.00000000      0.00000000      0.00000000      0.00000000      0.00000000      0.00000000      0.00000000      0.00000000      0.00000000</v>
  </separator>
  <separator name="orbital magnetization" >
   <i type="logical" name="NUCIND"> F  </i>
   <v name="MAGPOS">      0.00000000      0.00000000      0.00000000</v>
   <i type="logical" name="LNICSALL"> T  </i>
   <i type="logical" name="ORBITALMAG"> F  </i>
   <i type="logical" name="LMAGBLOCH"> F  </i>
   <i type="logical" name="LCHIMAG"> F  </i>
   <i type="logical" name="LGAUGE"> T  </i>
   <i type="int" name="MAGATOM">     0</i>
   <v name="MAGDIPOL">      0.00000000      0.00000000      0.00000000</v>
   <v name="AVECCONST">      0.00000000      0.00000000      0.00000000</v>
  </separator>
  <separator name="response functions" >
   <i type="logical" name="LALL_IN_ONE"> F  </i>
   <i type="int" name="IALL_IN_ONE">    -1</i>
   <i type="int" name="NBANDS_WAVE">    -1</i>
   <i type="logical" name="LFINITE_TEMPERATURE"> F  </i>
   <i type="logical" name="LADDER"> F  </i>
   <i type="logical" name="LRPAFORCE"> F  </i>
   <i type="logical" name="LFXC"> F  </i>
   <i type="logical" name="LHARTREE"> T  </i>
   <i type="int" name="IBSE">     0</i>
   <v type="int" name="KPOINT">    -1     0     0     0</v>
   <i type="logical" name="LTCTC"> F  </i>
   <i type="logical" name="LTCTE"> F  </i>
   <i type="logical" name="LTETE"> F  </i>
   <i type="logical" name="LTRIPLET"> F  </i>
   <i type="logical" name="LFXCEPS"> F  </i>
   <i type="logical" name="LFXHEG"> F  </i>
   <i type="int" name="NATURALO">     2</i>
   <i type="logical" name="LHOLEGF"> F  </i>
   <i type="logical" name="L2ORDER"> F  </i>
   <i type="logical" name="LDMP1"> F  </i>
   <i type="logical" name="LMP2LT"> F  </i>
   <i type="logical" name="LSMP2LT"> F  </i>
   <i type="logical" name="LGWLF"> F  </i>
   <i name="ENCUTGW">     -1.60000002</i>
   <i name="ENCUTGWSOFT">     -1.60000002</i>
   <i name="ENCUTLF">     -1.00000000</i>
   <i type="logical" name="LESF_SPLINES"> F  </i>
   <i type="int" name="LMAXMP2">    -1</i>
   <i name="SCISSOR">      0.00000000</i>
   <i type="int" name="NOMEGA">     0</i>
   <i type="int" name="NOMEGAR">     0</i>
   <i type="int" name="NBANDSGW">    -1</i>
   <i type="int" name="NBANDSO">    -1</i>
   <i type="int" name="NBANDSV">    -1</i>
   <i type="int" name="NELMGW">     1</i>
   <i type="int" name="NELMHF">     1</i>
   <i type="int" name="DIM">     3</i>
   <i type="int" name="IESPILON">     4</i>
   <i type="int" name="ANTIRES">     0</i>
   <i name="OMEGAMAX">    -30.00000000</i>
   <i name="OMEGAMIN">    -30.00000000</i>
   <i name="OMEGATL">   -200.00000000</i>
   <i type="int" name="OMEGAGRID">     0</i>
   <i name="CSHIFT">     -0.10000000</i>
   <i type="logical" name="LSELFENERGY"> F  </i>
   <i type="logical" name="LSPECTRAL"> F  </i>
   <i type="logical" name="LSPECTRALGW"> F  </i>
   <i type="logical" name="LSINGLES"> F  </i>
   <i type="logical" name="LFERMIGW"> F  </i>
   <i type="logical" name="ODDONLYGW"> F  </i>
   <i type="logical" name="EVENONLYGW"> F  </i>
   <i type="int" name="NKREDLFX">     1</i>
   <i type="int" name="NKREDLFY">     1</i>
   <i type="int" name="NKREDLFZ">     1</i>
   <i type="int" name="MAXMEM">  2800</i>
   <i type="int" name="TELESCOPE">     0</i>
   <i type="int" name="NTAUPAR">    -1</i>
   <i type="int" name="NOMEGAPAR">    -1</i>
   <i name="DAMP_NEWTON">      0.80000001</i>
   <i name="LAMBDA">      1.00000000</i>
  </separator>
  <separator name="External order field" >
   <i name="OFIELD_KAPPA">      0.00000000</i>
   <v name="OFIELD_K">      0.00000000      0.00000000      0.00000000</v>
   <i name="OFIELD_Q6_NEAR">      0.00000000</i>
   <i name="OFIELD_Q6_FAR">      0.00000000</i>
   <i name="OFIELD_A">      0.00000000</i>
  </separator>
  <separator name="optional k-points parameters" >
   <i type="int" name="KPOINTS_OPT_MODE">     1</i>
   <i type="logical" name="LKPOINTS_OPT"> F  </i>
  </separator>
 </parameters>
 <atominfo>
  <atoms>       2 </atoms>
  <types>       1 </types>
  <array name="atoms" >
   <dimension dim="1">ion</dimension>
   <field type="string">element</field>
   <field type="int">atomtype</field>
   <set>
    <rc><c>Fe</c><c>   1</c></rc>
    <rc><c>Fe</c><c>   1</c></rc>
   </set>
  </array>
  <array name="atomtypes" >
   <dimension dim="1">type</dimension>
   <field type="int">atomspertype</field>
   <field type="string">element</field>
   <field>mass</field>
   <field>valence</field>
   <field type="string">pseudopotential</field>
   <set>
    <rc><c>   2</c><c>Fe</c><c>     55.84700000</c><c>      8.00000000</c><c>  PAW_PBE Fe 06Sep2000                  </c></rc>
   </set>
  </array>
 </atominfo>
 <structure name="initialpos" >
  <crystal>
   <varray name="basis" >
    <v>       2.86303550       0.00000000       0.00000000 </v>
    <v>      -0.00000000       2.86303550       0.00000000 </v>
    <v>       0.00000000       0.00000000       2.86303550 </v>
   </varray>
   <i name="volume">     23.46822259 </i>
   <varray name="rec_basis" >
    <v>       0.34927964       0.00000000      -0.00000000 </v>
    <v>       0.00000000       0.34927964       0.00000000 </v>
    <v>      -0.00000000      -0.00000000       0.34927964 </v>
   </varray>
  </crystal>
  <varray name="positions" >
   <v>       0.00000000       0.00000000       0.00000000 </v>
   <v>       0.50000000       0.50000000       0.50000000 </v>
  </varray>
 </structure>
 <calculation>
  <scstep>
   <time name="dav">    0.07    0.07</time>
   <time name="total">    0.10    0.10</time>
   <energy>
    <i name="alphaZ">    117.79976220 </i>
    <i name="ewald">  -1171.43779597 </i>
    <i name="hartreedc">   -228.04061711 </i>
    <i name="XCdc">      7.63534844 </i>
    <i name="pawpsdc">   1109.69170683 </i>
    <i name="pawaedc">  -1125.09647265 </i>
    <i name="eentropy">     -0.00644381 </i>
    <i name="bandstr">    183.69756116 </i>
    <i name="atom">   1188.62386280 </i>
    <i name="e_fr_energy">     82.86691188 </i>
    <i name="e_wo_entrp">     82.87335570 </i>
    <i name="e_0_energy">     82.87013379 </i>
   </energy>
  </scstep>
  <scstep>
   <time name="dav">    0.04    0.04</time>
   <time name="total">    0.04    0.04</time>
   <energy>
    <i name="e_fr_energy">    -14.10553401 </i>
    <i name="e_wo_entrp">    -14.09609750 </i>
    <i name="e_0_energy">    -14.10081575 </i>
   </energy>
  </scstep>
  <scstep>
   <time name="dav">    0.04    0.04</time>
   <time name="total">    0.04    0.05</time>
   <energy>
    <i name="e_fr_energy">    -17.40503907 </i>
    <i name="e_wo_entrp">    -17.37870967 </i>
    <i name="e_0_energy">    -17.39187437 </i>
   </energy>
  </scstep>
  <scstep>
   <time name="dav">    0.04    0.04</time>
   <time name="total">    0.04    0.04</time>
   <energy>
    <i name="e_fr_energy">    -17.45166712 </i>
    <i name="e_wo_entrp">    -17.42471694 </i>
    <i name="e_0_energy">    -17.43819203 </i>
   </energy>
  </scstep>
  <scstep>
   <time name="dav">    0.03    0.03</time>
   <time name="total">    0.04    0.04</time>
   <energy>
    <i name="e_fr_energy">    -17.45209814 </i>
    <i name="e_wo_entrp">    -17.42513630 </i>
    <i name="e_0_energy">    -17.43861722 </i>
   </energy>
  </scstep>
  <scstep>
   <time name="diag">    0.00    0.00</time>
   <time name="diis">    0.04    0.04</time>
   <time name="orth">    0.00    0.00</time>
   <time name="total">    0.06    0.06</time>
   <energy>
    <i name="e_fr_energy">    -14.98538390 </i>
    <i name="e_wo_entrp">    -14.96240045 </i>
    <i name="e_0_energy">    -14.97389218 </i>
   </energy>
  </scstep>
  <scstep>
   <time name="diag">    0.00    0.00</time>
   <time name="diis">    0.03    0.03</time>
   <time name="orth">    0.00    0.00</time>
   <time name="total">    0.05    0.05</time>
   <energy>
    <i name="e_fr_energy">    -13.52448122 </i>
    <i name="e_wo_entrp">    -13.49862575 </i>
    <i name="e_0_energy">    -13.51155348 </i>
   </energy>
  </scstep>
  <scstep>
   <time name="diag">    0.00    0.00</time>
   <time name="diis">    0.03    0.03</time>
   <time name="orth">    0.00    0.00</time>
   <time name="total">    0.05    0.05</time>
   <energy>
    <i name="e_fr_energy">    -13.74803349 </i>
    <i name="e_wo_entrp">    -13.73135570 </i>
    <i name="e_0_energy">    -13.73969459 </i>
   </energy>
  </scstep>
  <scstep>
   <time name="diag">    0.00    0.00</time>
   <time name="diis">    0.03    0.03</time>
   <time name="orth">    0.00    0.00</time>
   <time name="total">    0.05    0.05</time>
   <energy>
    <i name="e_fr_energy">    -13.55873567 </i>
    <i name="e_wo_entrp">    -13.52244667 </i>
    <i name="e_0_energy">    -13.54059117 </i>
   </energy>
  </scstep>
  <scstep>
   <time name="diag">    0.00    0.00</time>
   <time name="diis">    0.04    0.04</time>
   <time name="orth">    0.00    0.00</time>
   <time name="total">    0.06    0.06</time>
   <energy>
    <i name="e_fr_energy">    -13.55356312 </i>
    <i name="e_wo_entrp">    -13.53450258 </i>
    <i name="e_0_energy">    -13.54403285 </i>
   </energy>
  </scstep>
  <scstep>
   <time name="diag">    0.00    0.00</time>
   <time name="diis">    0.03    0.03</time>
   <time name="orth">    0.00    0.00</time>
   <time name="total">    0.05    0.05</time>
   <energy>
    <i name="e_fr_energy">    -13.54315181 </i>
    <i name="e_wo_entrp">    -13.52274238 </i>
    <i name="e_0_energy">    -13.53294710 </i>
   </energy>
  </scstep>
  <scstep>
   <time name="diag">    0.00    0.00</time>
   <time name="diis">    0.03    0.03</time>
   <time name="orth">    0.00    0.00</time>
   <time name="total">    0.05    0.05</time>
   <energy>
    <i name="e_fr_energy">    -13.52418931 </i>
    <i name="e_wo_entrp">    -13.49797682 </i>
    <i name="e_0_energy">    -13.51108306 </i>
   </energy>
  </scstep>
  <scstep>
   <time name="diag">    0.00    0.00</time>
   <time name="diis">    0.03    0.03</time>
   <time name="orth">    0.00    0.00</time>
   <time name="total">    0.05    0.05</time>
   <energy>
    <i name="e_fr_energy">    -13.51987180 </i>
    <i name="e_wo_entrp">    -13.49456139 </i>
    <i name="e_0_energy">    -13.50721660 </i>
   </energy>
  </scstep>
  <scstep>
   <time name="diag">    0.00    0.00</time>
   <time name="diis">    0.03    0.03</time>
   <time name="orth">    0.00    0.00</time>
   <time name="total">    0.05    0.05</time>
   <energy>
    <i name="e_fr_energy">    -13.51797838 </i>
    <i name="e_wo_entrp">    -13.49444813 </i>
    <i name="e_0_energy">    -13.50621326 </i>
   </energy>
  </scstep>
  <scstep>
   <time name="diag">    0.00    0.00</time>
   <time name="diis">    0.03    0.03</time>
   <time name="orth">    0.00    0.00</time>
   <time name="total">    0.05    0.05</time>
   <energy>
    <i name="e_fr_energy">    -13.51730986 </i>
    <i name="e_wo_entrp">    -13.49366302 </i>
    <i name="e_0_energy">    -13.50548644 </i>
   </energy>
  </scstep>
  <scstep>
   <time name="diag">    0.00    0.00</time>
   <time name="diis">    0.03    0.03</time>
   <time name="orth">    0.00    0.00</time>
   <time name="total">    0.04    0.04</time>
   <energy>
    <i name="e_fr_energy">    -13.51736598 </i>
    <i name="e_wo_entrp">    -13.49427732 </i>
    <i name="e_0_energy">    -13.50582165 </i>
   </energy>
  </scstep>
  <scstep>
   <time name="diag">    0.00    0.00</time>
   <time name="diis">    0.02    0.02</time>
   <time name="orth">    0.00    0.00</time>
   <time name="total">    0.04    0.04</time>
   <energy>
    <i name="e_fr_energy">    -13.51733035 </i>
    <i name="e_wo_entrp">    -13.49401053 </i>
    <i name="e_0_energy">    -13.50567044 </i>
   </energy>
  </scstep>
  <scstep>
   <time name="diag">    0.00    0.00</time>
   <time name="diis">    0.02    0.02</time>
   <time name="orth">    0.00    0.00</time>
   <time name="total">    0.04    0.04</time>
   <energy>
    <i name="e_fr_energy">    -13.51731585 </i>
    <i name="e_wo_entrp">    -13.49392841 </i>
    <i name="e_0_energy">    -13.50562213 </i>
   </energy>
  </scstep>
  <scstep>
   <time name="diag">    0.00    0.00</time>
   <time name="diis">    0.02    0.02</time>
   <time name="orth">    0.00    0.00</time>
   <time name="total">    0.04    0.04</time>
   <energy>
    <i name="e_fr_energy">    -13.51729829 </i>
    <i name="e_wo_entrp">    -13.49375144 </i>
    <i name="e_0_energy">    -13.50552487 </i>
   </energy>
  </scstep>
  <scstep>
   <time name="diag">    0.00    0.00</time>
   <time name="diis">    0.02    0.02</time>
   <time name="orth">    0.00    0.00</time>
   <time name="total">    0.04    0.04</time>
   <energy>
    <i name="e_fr_energy">    -13.51727842 </i>
    <i name="e_wo_entrp">    -13.49349266 </i>
    <i name="e_0_energy">    -13.50538554 </i>
   </energy>
  </scstep>
  <scstep>
   <time name="diag">    0.00    0.00</time>
   <time name="diis">    0.02    0.02</time>
   <time name="orth">    0.00    0.00</time>
   <time name="total">    0.03    0.03</time>
   <energy>
    <i name="alphaZ">    117.79976220 </i>
    <i name="ewald">  -1171.43779597 </i>
    <i name="hartreedc">   -199.46582700 </i>
    <i name="XCdc">      6.36222925 </i>
    <i name="pawpsdc">   1379.73735431 </i>
    <i name="pawaedc">  -1396.15514195 </i>
    <i name="eentropy">     -0.02383877 </i>
    <i name="bandstr">     61.04212096 </i>
    <i name="atom">   1188.62386280 </i>
    <i name="e_fr_energy">    -13.51727417 </i>
    <i name="e_wo_entrp">    -13.49343540 </i>
    <i name="e_0_energy">    -13.50535478 </i>
   </energy>
  </scstep>
  <structure>
   <crystal>
    <varray name="basis" >
     <v>       2.86303550       0.00000000       0.00000000 </v>
     <v>      -0.00000000       2.86303550       0.00000000 </v>
     <v>       0.00000000       0.00000000       2.86303550 </v>
    </varray>
    <i name="volume">     23.46822259 </i>
    <varray name="rec_basis" >
     <v>       0.34927964       0.00000000      -0.00000000 </v>
     <v>       0.00000000       0.34927964       0.00000000 </v>
     <v>      -0.00000000      -0.00000000       0.34927964 </v>
    </varray>
   </crystal>
   <varray name="positions" >
    <v>       0.00000000       0.00000000       0.00000000 </v>
    <v>       0.50000000       0.50000000       0.50000000 </v>
   </varray>
  </structure>
  <varray name="forces" >
   <v>       0.00000188       0.00000699       0.00000017 </v>
   <v>      -0.00000188      -0.00000699      -0.00000017 </v>
  </varray>
  <varray name="stress" >
   <v>    -122.09356112      -0.00096578      -0.00273099 </v>
   <v>      -0.00096581    -122.12326966       0.00087138 </v>
   <v>      -0.00273051       0.00087111    -122.09561251 </v>
  </varray>
  <energy>
   <i name="e_fr_energy">    -13.51727417 </i>
   <i name="e_wo_entrp">    -13.49343540 </i>
   <i name="e_0_energy">    -13.50535478 </i>
  </energy>
  <time name="totalsc">    1.16    1.17</time>
  <eigenvalues>
   <array>
    <dimension dim="1">band</dimension>
    <dimension dim="2">kpoint</dimension>
    <dimension dim="3">spin</dimension>
    <field>eigene</field>
    <field>occ</field>
    <set>
     <set comment="spin 1">
      <set comment="kpoint 1">
       <r>   -2.6706    1.0000 </r>
       <r>    1.8448    1.0000 </r>
       <r>    1.8448    1.0000 </r>
       <r>    4.4228    1.0000 </r>
       <r>    4.4228    1.0000 </r>
       <r>    4.4228    1.0000 </r>
       <r>    5.8950    1.0000 </r>
       <r>    5.8950    1.0000 </r>
       <r>    6.8948    0.0000 </r>
       <r>    6.8948    0.0000 </r>
       <r>    6.8948    0.0000 </r>
       <r>   15.3618    0.0000 </r>
      </set>
      <set comment="kpoint 2">
       <r>    1.3179    1.0000 </r>
       <r>    1.3182    1.0000 </r>
       <r>    3.8260    1.0000 </r>
       <r>    3.8271    1.0000 </r>
       <r>    4.8161    1.0000 </r>
       <r>    4.8161    1.0000 </r>
       <r>    4.8180    1.0000 </r>
       <r>    4.8181    1.0000 </r>
       <r>    5.6291    1.0000 </r>
       <r>    5.6313    1.0000 </r>
       <r>    6.8967    0.0000 </r>
       <r>    6.8978    0.0000 </r>
      </set>
      <set comment="kpoint 3">
       <r>    1.3179    1.0000 </r>
       <r>    1.3182    1.0000 </r>
       <r>    3.8260    1.0000 </r>
       <r>    3.8271    1.0000 </r>
       <r>    4.8161    1.0000 </r>
       <r>    4.8161    1.0000 </r>
       <r>    4.8181    1.0000 </r>
       <r>    4.8181    1.0000 </r>
       <r>    5.6291    1.0000 </r>
       <r>    5.6313    1.0000 </r>
       <r>    6.8967    0.0000 </r>
       <r>    6.8978    0.0000 </r>
      </set>
      <set comment="kpoint 4">
       <r>    1.3179    1.0000 </r>
       <r>    1.3182    1.0000 </r>
       <r>    3.8260    1.0000 </r>
       <r>    3.8271    1.0000 </r>
       <r>    4.8161    1.0000 </r>
       <r>    4.8161    1.0000 </r>
       <r>    4.8180    1.0000 </r>
       <r>    4.8181    1.0000 </r>
       <r>    5.6291    1.0000 </r>
       <r>    5.6313    1.0000 </r>
       <r>    6.8967    0.0000 </r>
       <r>    6.8978    0.0000 </r>
      </set>
      <set comment="kpoint 5">
       <r>    1.5099    1.0000 </r>
       <r>    1.5103    1.0000 </r>
       <r>    3.2774    1.0000 </r>
       <r>    3.2774    1.0000 </r>
       <r>    5.8838    1.0000 </r>
       <r>    5.8840    1.0000 </r>
       <r>    6.0724    0.2787 </r>
       <r>    6.0724    0.2786 </r>
       <r>    6.1083    0.0545 </r>
       <r>    6.1095    0.0507 </r>
       <r>    7.1708    0.0000 </r>
       <r>    7.1708    0.0000 </r>
      </set>
      <set comment="kpoint 6">
       <r>    1.5099    1.0000 </r>
       <r>    1.5103    1.0000 </r>
       <r>    3.2774    1.0000 </r>
       <r>    3.2774    1.0000 </r>
       <r>    5.8838    1.0000 </r>
       <r>    5.8840    1.0000 </r>
       <r>    6.0724    0.2787 </r>
       <r>    6.0724    0.2786 </r>
       <r>    6.1083    0.0545 </r>
       <r>    6.1095    0.0507 </r>
       <r>    7.1708    0.0000 </r>
       <r>    7.1708    0.0000 </r>
      </set>
      <set comment="kpoint 7">
       <r>    1.5099    1.0000 </r>
       <r>    1.5103    1.0000 </r>
       <r>    3.2774    1.0000 </r>
       <r>    3.2774    1.0000 </r>
       <r>    5.8838    1.0000 </r>
       <r>    5.8840    1.0000 </r>
       <r>    6.0724    0.2787 </r>
       <r>    6.0724    0.2787 </r>
       <r>    6.1082    0.0546 </r>
       <r>    6.1095    0.0507 </r>
       <r>    7.1708    0.0000 </r>
       <r>    7.1708    0.0000 </r>
      </set>
      <set comment="kpoint 8">
       <r>    3.2413    1.0000 </r>
       <r>    3.2413    1.0000 </r>
       <r>    3.2413    1.0000 </r>
       <r>    3.2427    1.0000 </r>
       <r>    3.2427    1.0000 </r>
       <r>    3.2427    1.0000 </r>
       <r>    6.1477    0.0033 </r>
       <r>    6.1478    0.0033 </r>
       <r>    6.1490    0.0029 </r>
       <r>    6.1490    0.0029 </r>
       <r>   14.4134    0.0000 </r>
       <r>   14.4137    0.0000 </r>
      </set>
     </set>
    </set>
   </array>
  </eigenvalues>
  <separator name="orbital magnetization" >
   <v name="MAGDIPOLOUT">      0.00000000      0.00000000      0.00000000</v>
  </separator>
  <dos>
   <i name="efermi">      6.05160996 </i>
   <total>
    <array>
     <dimension dim="1">gridpoints</dimension>
     <dimension dim="2">spin</dimension>
     <field>energy</field>
     <field>total</field>
     <field>integrated</field>
     <set>
      <set comment="spin 1">
       <r>    -3.5722     0.0000     0.0000 </r>
       <r>    -3.5061     0.0000     0.0000 </r>
       <r>    -3.4400     0.0000     0.0000 </r>
       <r>    -3.3739     0.0000     0.0000 </r>
       <r>    -3.3077     0.0000     0.0000 </r>
       <r>    -3.2416     0.0000     0.0000 </r>
       <r>    -3.1755     0.0000     0.0000 </r>
       <r>    -3.1094     0.0000     0.0000 </r>
       <r>    -3.0433     0.0000     0.0000 </r>
       <r>    -2.9772     0.0000     0.0000 </r>
       <r>    -2.9110     0.0000     0.0000 </r>
       <r>    -2.8449     0.0000     0.0000 </r>
       <r>    -2.7788     0.0042     0.0003 </r>
       <r>    -2.7127     0.4382     0.0293 </r>
       <r>    -2.6466     2.4000     0.1879 </r>
       <r>    -2.5804     0.9182     0.2487 </r>
       <r>    -2.5143     0.0203     0.2500 </r>
       <r>    -2.4482     0.0000     0.2500 </r>
       <r>    -2.3821     0.0000     0.2500 </r>
       <r>    -2.3160     0.0000     0.2500 </r>
       <r>    -2.2498     0.0000     0.2500 </r>
       <r>    -2.1837     0.0000     0.2500 </r>
       <r>    -2.1176     0.0000     0.2500 </r>
       <r>    -2.0515     0.0000     0.2500 </r>
       <r>    -1.9854     0.0000     0.2500 </r>
       <r>    -1.9192     0.0000     0.2500 </r>
       <r>    -1.8531     0.0000     0.2500 </r>
       <r>    -1.7870     0.0000     0.2500 </r>
       <r>    -1.7209     0.0000     0.2500 </r>
       <r>    -1.6548     0.0000     0.2500 </r>
       <r>    -1.5887     0.0000     0.2500 </r>
       <r>    -1.5225     0.0000     0.2500 </r>
       <r>    -1.4564     0.0000     0.2500 </r>
       <r>    -1.3903     0.0000     0.2500 </r>
       <r>    -1.3242     0.0000     0.2500 </r>
       <r>    -1.2581     0.0000     0.2500 </r>
       <r>    -1.1919     0.0000     0.2500 </r>
       <r>    -1.1258     0.0000     0.2500 </r>
       <r>    -1.0597     0.0000     0.2500 </r>
       <r>    -0.9936     0.0000     0.2500 </r>
       <r>    -0.9275     0.0000     0.2500 </r>
       <r>    -0.8613     0.0000     0.2500 </r>
       <r>    -0.7952     0.0000     0.2500 </r>
       <r>    -0.7291     0.0000     0.2500 </r>
       <r>    -0.6630     0.0000     0.2500 </r>
       <r>    -0.5969     0.0000     0.2500 </r>
       <r>    -0.5307     0.0000     0.2500 </r>
       <r>    -0.4646     0.0000     0.2500 </r>
       <r>    -0.3985     0.0000     0.2500 </r>
       <r>    -0.3324     0.0000     0.2500 </r>
       <r>    -0.2663     0.0000     0.2500 </r>
       <r>    -0.2002     0.0000     0.2500 </r>
       <r>    -0.1340     0.0000     0.2500 </r>
       <r>    -0.0679     0.0000     0.2500 </r>
       <r>    -0.0018     0.0000     0.2500 </r>
       <r>     0.0643     0.0000     0.2500 </r>
       <r>     0.1304     0.0000     0.2500 </r>
       <r>     0.1966     0.0000     0.2500 </r>
       <r>     0.2627     0.0000     0.2500 </r>
       <r>     0.3288     0.0000     0.2500 </r>
       <r>     0.3949     0.0000     0.2500 </r>
       <r>     0.4610     0.0000     0.2500 </r>
       <r>     0.5272     0.0000     0.2500 </r>
       <r>     0.5933     0.0000     0.2500 </r>
       <r>     0.6594     0.0000     0.2500 </r>
       <r>     0.7255     0.0000     0.2500 </r>
       <r>     0.7916     0.0000     0.2500 </r>
       <r>     0.8577     0.0000     0.2500 </r>
       <r>     0.9239     0.0000     0.2500 </r>
       <r>     0.9900     0.0000     0.2500 </r>
       <r>     1.0561     0.0000     0.2500 </r>
       <r>     1.1222     0.0000     0.2500 </r>
       <r>     1.1883     0.0028     0.2502 </r>
       <r>     1.2545     0.8161     0.3041 </r>
       <r>     1.3206    11.1773     1.0432 </r>
       <r>     1.3867    10.1047     1.7113 </r>
       <r>     1.4528     1.7794     1.8289 </r>
       <r>     1.5189    12.3960     2.6486 </r>
       <r>     1.5851     8.7115     3.2246 </r>
       <r>     1.6512     0.3841     3.2500 </r>
       <r>     1.7173     0.0019     3.2501 </r>
       <r>     1.7834     0.3102     3.2706 </r>
       <r>     1.8495     3.8695     3.5264 </r>
       <r>     1.9157     3.2104     3.7387 </r>
       <r>     1.9818     0.1704     3.7500 </r>
       <r>     2.0479     0.0004     3.7500 </r>
       <r>     2.1140     0.0000     3.7500 </r>
       <r>     2.1801     0.0000     3.7500 </r>
       <r>     2.2462     0.0000     3.7500 </r>
       <r>     2.3124     0.0000     3.7500 </r>
       <r>     2.3785     0.0000     3.7500 </r>
       <r>     2.4446     0.0000     3.7500 </r>
       <r>     2.5107     0.0000     3.7500 </r>
       <r>     2.5768     0.0000     3.7500 </r>
       <r>     2.6430     0.0000     3.7500 </r>
       <r>     2.7091     0.0000     3.7500 </r>
       <r>     2.7752     0.0000     3.7500 </r>
       <r>     2.8413     0.0000     3.7500 </r>
       <r>     2.9074     0.0000     3.7500 </r>
       <r>     2.9736     0.0000     3.7500 </r>
       <r>     3.0397     0.0000     3.7500 </r>
       <r>     3.1058     0.0013     3.7501 </r>
       <r>     3.1719     0.5685     3.7877 </r>
       <r>     3.2380    12.7652     4.6317 </r>
       <r>     3.3041    26.0477     6.3539 </r>
       <r>     3.3703     5.8891     6.7433 </r>
       <r>     3.4364     0.1009     6.7500 </r>
       <r>     3.5025     0.0001     6.7500 </r>
       <r>     3.5686     0.0000     6.7500 </r>
       <r>     3.6347     0.0000     6.7500 </r>
       <r>     3.7009     0.0043     6.7503 </r>
       <r>     3.7670     1.0402     6.8191 </r>
       <r>     3.8331    11.9670     7.6103 </r>
       <r>     3.8992     9.2228     8.2201 </r>
       <r>     3.9653     0.4510     8.2499 </r>
       <r>     4.0315     0.0010     8.2500 </r>
       <r>     4.0976     0.0000     8.2500 </r>
       <r>     4.1637     0.0000     8.2500 </r>
       <r>     4.2298     0.0000     8.2500 </r>
       <r>     4.2959     0.0019     8.2501 </r>
       <r>     4.3621     0.4849     8.2822 </r>
       <r>     4.4282     5.8712     8.6704 </r>
       <r>     4.4943     4.7406     8.9838 </r>
       <r>     4.5604     0.2441     9.0000 </r>
       <r>     4.6265     0.0006     9.0000 </r>
       <r>     4.6926     0.0099     9.0007 </r>
       <r>     4.7588     2.2429     9.1490 </r>
       <r>     4.8249    24.4042    10.7625 </r>
       <r>     4.8910    17.8862    11.9451 </r>
       <r>     4.9571     0.8279    11.9999 </r>
       <r>     5.0232     0.0017    12.0000 </r>
       <r>     5.0894     0.0000    12.0000 </r>
       <r>     5.1555     0.0000    12.0000 </r>
       <r>     5.2216     0.0000    12.0000 </r>
       <r>     5.2877     0.0000    12.0000 </r>
       <r>     5.3538     0.0000    12.0000 </r>
       <r>     5.4200     0.0000    12.0000 </r>
       <r>     5.4861     0.0005    12.0000 </r>
       <r>     5.5522     0.3107    12.0206 </r>
       <r>     5.6183     8.0467    12.5526 </r>
       <r>     5.6844    12.9080    13.4061 </r>
       <r>     5.7506     1.4150    13.4996 </r>
       <r>     5.8167     0.7547    13.5495 </r>
       <r>     5.8828    13.0622    14.4132 </r>
       <r>     5.9489    15.2116    15.4190 </r>
       <r>     6.0150     2.5017    15.5844 </r>
       <r>     6.0811    17.6328    16.7502 </r>
       <r>     6.1473    30.2964    18.7534 </r>
       <r>     6.2134    10.7563    19.4646 </r>
       <r>     6.2795     0.5338    19.4999 </r>
       <r>     6.3456     0.0016    19.5000 </r>
       <r>     6.4117     0.0000    19.5000 </r>
       <r>     6.4779     0.0000    19.5000 </r>
       <r>     6.5440     0.0000    19.5000 </r>
       <r>     6.6101     0.0000    19.5000 </r>
       <r>     6.6762     0.0000    19.5000 </r>
       <r>     6.7423     0.0002    19.5000 </r>
       <r>     6.8085     0.2191    19.5145 </r>
       <r>     6.8746     8.9121    20.1038 </r>
       <r>     6.9407    21.3099    21.5127 </r>
       <r>     7.0068     3.5575    21.7480 </r>
       <r>     7.0729     0.0947    21.7542 </r>
       <r>     7.1390     4.1246    22.0269 </r>
       <r>     7.2052    14.7441    23.0018 </r>
       <r>     7.2713     3.7029    23.2466 </r>
       <r>     7.3374     0.0508    23.2500 </r>
       <r>     7.4035     0.0000    23.2500 </r>
       <r>     7.4696     0.0000    23.2500 </r>
       <r>     7.5358     0.0000    23.2500 </r>
       <r>     7.6019     0.0000    23.2500 </r>
       <r>     7.6680     0.0000    23.2500 </r>
       <r>     7.7341     0.0000    23.2500 </r>
       <r>     7.8002     0.0000    23.2500 </r>
       <r>     7.8664     0.0000    23.2500 </r>
       <r>     7.9325     0.0000    23.2500 </r>
       <r>     7.9986     0.0000    23.2500 </r>
       <r>     8.0647     0.0000    23.2500 </r>
       <r>     8.1308     0.0000    23.2500 </r>
       <r>     8.1970     0.0000    23.2500 </r>
       <r>     8.2631     0.0000    23.2500 </r>
       <r>     8.3292     0.0000    23.2500 </r>
       <r>     8.3953     0.0000    23.2500 </r>
       <r>     8.4614     0.0000    23.2500 </r>
       <r>     8.5275     0.0000    23.2500 </r>
       <r>     8.5937     0.0000    23.2500 </r>
       <r>     8.6598     0.0000    23.2500 </r>
       <r>     8.7259     0.0000    23.2500 </r>
       <r>     8.7920     0.0000    23.2500 </r>
       <r>     8.8581     0.0000    23.2500 </r>
       <r>     8.9243     0.0000    23.2500 </r>
       <r>     8.9904     0.0000    23.2500 </r>
       <r>     9.0565     0.0000    23.2500 </r>
       <r>     9.1226     0.0000    23.2500 </r>
       <r>     9.1887     0.0000    23.2500 </r>
       <r>     9.2549     0.0000    23.2500 </r>
       <r>     9.3210     0.0000    23.2500 </r>
       <r>     9.3871     0.0000    23.2500 </r>
       <r>     9.4532     0.0000    23.2500 </r>
       <r>     9.5193     0.0000    23.2500 </r>
       <r>     9.5854     0.0000    23.2500 </r>
       <r>     9.6516     0.0000    23.2500 </r>
       <r>     9.7177     0.0000    23.2500 </r>
       <r>     9.7838     0.0000    23.2500 </r>
       <r>     9.8499     0.0000    23.2500 </r>
       <r>     9.9160     0.0000    23.2500 </r>
       <r>     9.9822     0.0000    23.2500 </r>
       <r>    10.0483     0.0000    23.2500 </r>
       <r>    10.1144     0.0000    23.2500 </r>
       <r>    10.1805     0.0000    23.2500 </r>
       <r>    10.2466     0.0000    23.2500 </r>
       <r>    10.3128     0.0000    23.2500 </r>
       <r>    10.3789     0.0000    23.2500 </r>
       <r>    10.4450     0.0000    23.2500 </r>
       <r>    10.5111     0.0000    23.2500 </r>
       <r>    10.5772     0.0000    23.2500 </r>
       <r>    10.6434     0.0000    23.2500 </r>
       <r>    10.7095     0.0000    23.2500 </r>
       <r>    10.7756     0.0000    23.2500 </r>
       <r>    10.8417     0.0000    23.2500 </r>
       <r>    10.9078     0.0000    23.2500 </r>
       <r>    10.9739     0.0000    23.2500 </r>
       <r>    11.0401     0.0000    23.2500 </r>
       <r>    11.1062     0.0000    23.2500 </r>
       <r>    11.1723     0.0000    23.2500 </r>
       <r>    11.2384     0.0000    23.2500 </r>
       <r>    11.3045     0.0000    23.2500 </r>
       <r>    11.3707     0.0000    23.2500 </r>
       <r>    11.4368     0.0000    23.2500 </r>
       <r>    11.5029     0.0000    23.2500 </r>
       <r>    11.5690     0.0000    23.2500 </r>
       <r>    11.6351     0.0000    23.2500 </r>
       <r>    11.7013     0.0000    23.2500 </r>
       <r>    11.7674     0.0000    23.2500 </r>
       <r>    11.8335     0.0000    23.2500 </r>
       <r>    11.8996     0.0000    23.2500 </r>
       <r>    11.9657     0.0000    23.2500 </r>
       <r>    12.0318     0.0000    23.2500 </r>
       <r>    12.0980     0.0000    23.2500 </r>
       <r>    12.1641     0.0000    23.2500 </r>
       <r>    12.2302     0.0000    23.2500 </r>
       <r>    12.2963     0.0000    23.2500 </r>
       <r>    12.3624     0.0000    23.2500 </r>
       <r>    12.4286     0.0000    23.2500 </r>
       <r>    12.4947     0.0000    23.2500 </r>
       <r>    12.5608     0.0000    23.2500 </r>
       <r>    12.6269     0.0000    23.2500 </r>
       <r>    12.6930     0.0000    23.2500 </r>
       <r>    12.7592     0.0000    23.2500 </r>
       <r>    12.8253     0.0000    23.2500 </r>
       <r>    12.8914     0.0000    23.2500 </r>
       <r>    12.9575     0.0000    23.2500 </r>
       <r>    13.0236     0.0000    23.2500 </r>
       <r>    13.0898     0.0000    23.2500 </r>
       <r>    13.1559     0.0000    23.2500 </r>
       <r>    13.2220     0.0000    23.2500 </r>
       <r>    13.2881     0.0000    23.2500 </r>
       <r>    13.3542     0.0000    23.2500 </r>
       <r>    13.4203     0.0000    23.2500 </r>
       <r>    13.4865     0.0000    23.2500 </r>
       <r>    13.5526     0.0000    23.2500 </r>
       <r>    13.6187     0.0000    23.2500 </r>
       <r>    13.6848     0.0000    23.2500 </r>
       <r>    13.7509     0.0000    23.2500 </r>
       <r>    13.8171     0.0000    23.2500 </r>
       <r>    13.8832     0.0000    23.2500 </r>
       <r>    13.9493     0.0000    23.2500 </r>
       <r>    14.0154     0.0000    23.2500 </r>
       <r>    14.0815     0.0000    23.2500 </r>
       <r>    14.1477     0.0000    23.2500 </r>
       <r>    14.2138     0.0000    23.2500 </r>
       <r>    14.2799     0.0006    23.2500 </r>
       <r>    14.3460     0.2116    23.2640 </r>
       <r>    14.4121     3.4481    23.4920 </r>
       <r>    14.4783     3.6476    23.7332 </r>
       <r>    14.5444     0.2534    23.7499 </r>
       <r>    14.6105     0.0008    23.7500 </r>
       <r>    14.6766     0.0000    23.7500 </r>
       <r>    14.7427     0.0000    23.7500 </r>
       <r>    14.8088     0.0000    23.7500 </r>
       <r>    14.8750     0.0000    23.7500 </r>
       <r>    14.9411     0.0000    23.7500 </r>
       <r>    15.0072     0.0000    23.7500 </r>
       <r>    15.0733     0.0000    23.7500 </r>
       <r>    15.1394     0.0000    23.7500 </r>
       <r>    15.2056     0.0000    23.7500 </r>
       <r>    15.2717     0.0203    23.7513 </r>
       <r>    15.3378     0.9182    23.8121 </r>
       <r>    15.4039     2.4000    23.9707 </r>
       <r>    15.4700     0.4382    23.9997 </r>
       <r>    15.5362     0.0042    24.0000 </r>
       <r>    15.6023     0.0000    24.0000 </r>
       <r>    15.6684     0.0000    24.0000 </r>
       <r>    15.7345     0.0000    24.0000 </r>
       <r>    15.8006     0.0000    24.0000 </r>
       <r>    15.8667     0.0000    24.0000 </r>
       <r>    15.9329     0.0000    24.0000 </r>
       <r>    15.9990     0.0000    24.0000 </r>
       <r>    16.0651     0.0000    24.0000 </r>
       <r>    16.1312     0.0000    24.0000 </r>
       <r>    16.1973     0.0000    24.0000 </r>
       <r>    16.2635     0.0000    24.0000 </r>
      </set>
     </set>
    </array>
   </total>
  </dos>
 </calculation>
 <structure name="finalpos" >
  <crystal>
   <varray name="basis" >
    <v>       2.86303550       0.00000000       0.00000000 </v>
    <v>      -0.00000000       2.86303550       0.00000000 </v>
    <v>       0.00000000       0.00000000       2.86303550 </v>
   </varray>
   <i name="volume">     23.46822259 </i>
   <varray name="rec_basis" >
    <v>       0.34927964       0.00000000      -0.00000000 </v>
    <v>       0.00000000       0.34927964       0.00000000 </v>
    <v>      -0.00000000      -0.00000000       0.34927964 </v>
   </varray>
  </crystal>
  <varray name="positions" >
   <v>       0.00000000       0.00000000       0.00000000 </v>
   <v>       0.50000000       0.50000000       0.50000000 </v>
  </varray>
 </structure>
</modeling>
