Ga8 O12                                 
    1.000000000000000     
     0.0000000000000000   12.2804737091000007    0.0000000000000000
     9.1427011490000005    0.0000000000000000    0.0000000000000000
     0.0000000000000000   -2.7682616411000001  -11.3006974810000003
   Ga   O    Cu   N 
    47    71     1     1
Direct
  0.6589698883400956  0.0000003310551264  0.1580257394022055
  0.6590272833772346  0.9999999353744045  0.6571427875206624
  0.6566548143986992  0.3323808801250649  0.1581276895225088
  0.6578774639001210  0.3314186438445361  0.6583858183153808
  0.6566553525336545  0.6676193502583772  0.1581292572980431
  0.6578775231188771  0.6685812311562742  0.6583870907376337
  0.8411619443066485  0.1664174965256393  0.3437752787801429
  0.8413241162901812  0.1664752772148788  0.8440688507677905
  0.8420957864758591  0.4999999100121357  0.3443813893400147
  0.8407210717643352  0.4999999450805959  0.8437406890808887
  0.8411622120806044  0.8335826483073490  0.3437760080607219
  0.8413240718827666  0.8335245718385238  0.8440694458339735
  0.5923960121753638  0.1669066752796198  0.3985475967890864
  0.5909682455425127  0.1666880338916030  0.8988760062549446
  0.5896685349687161  0.4999997548635733  0.8977834490133603
  0.5923956449402752  0.8330933062789612  0.3985504980073458
  0.5909683626466204  0.8333114795164107  0.8988765558327856
  0.9093475221544267  0.0000001906839131  0.1028932351285690
  0.9088697926144036  0.0000000440318573  0.6031425964251369
  0.9087331911793086  0.3336800967799078  0.1027353944303329
  0.9093569036815126  0.3332783886087611  0.6031671056031840
  0.9087333153701351  0.6663201721515932  0.1027357204145076
  0.9093566638428499  0.6667215812404308  0.6031669183226285
  0.1590093708936138  0.1669880539076516  0.1572809766620225
  0.1587686676952913  0.1665922355447478  0.6563540620055619
  0.1592019193511476  0.4999995576802405  0.1569437058210852
  0.1593703335845191  0.4999998517927153  0.6562256032527714
  0.1590092236478853  0.8330118011037015  0.1572803261904454
  0.1587685312032434  0.8334074985783246  0.6563538223728003
  0.3423954409604306  0.0000003696178652  0.3428572909376939
  0.3404451166814653  0.9999998051670858  0.8421806699708156
  0.3439416943684392  0.3345911861642605  0.3426683063156943
  0.3402896131004240  0.3333801671646199  0.8428641812776334
  0.3439413487213798  0.6654087864403735  0.3426676259524655
  0.3402897859550009  0.6666193200191302  0.8428643326114624
  0.0907854574094529  0.9999995984343926  0.3973115888566596
  0.0913963354035303  0.9999997480789204  0.8977101636318068
  0.0920106824484606  0.3332929396495743  0.3973259301268470
  0.0912256423439644  0.3334815959985633  0.8977121388965585
  0.0920111211511951  0.6667069800898631  0.3973259840889227
  0.0912254695848702  0.6665180217343618  0.8977118750934778
  0.4067420554089836  0.1652235502620698  0.1007751478338790
  0.4084222920496217  0.1661722311694973  0.6020565410325247
  0.4083065843054143  0.4999992504805064  0.1018374376366040
  0.4095348840261366  0.4999999948394489  0.6013981434754925
  0.4067419748765673  0.8347761681866785  0.1007757672844107
  0.4084217986442269  0.8338276128528577  0.6020563592439245
  0.9963520410750277  0.1670891864014905  0.1276387499512879
  0.9963194928619643  0.1666268783810665  0.6274420939644614
  0.9964646754383963  0.5000000488653313  0.1274031375558025
  0.9965971373391795  0.4999999981070928  0.6271476460769136
  0.9963517816160348  0.8329111168143726  0.1276382598442751
  0.9963192941969226  0.8333730768324656  0.6274422978467982
  0.5046460493608578  0.0000000993722651  0.3736118972783942
  0.5035024060993152  0.9999997307887298  0.8733338487484303
  0.5062966936196247  0.3321981876053286  0.3706099033789130
  0.5028898782966209  0.3328424011105113  0.8721869721034139
  0.5062978320489719  0.6678002068573079  0.3706116411210658
  0.5028900877986615  0.6671571772304006  0.8721878971712869
  0.6735591558702865  0.1635592874360370  0.2811848167378770
  0.6726947306763762  0.1663770535918374  0.7817212816062096
  0.6722470676001535  0.4999999787950742  0.7819845362690288
  0.6735620501891830  0.8364516512876179  0.2811938076686147
  0.6726950039923949  0.8336230055562197  0.7817221226245863
  0.8285268272069786  0.9999992643598432  0.2200721636717802
  0.8277734295502626  0.9999999576900223  0.7205619046704754
  0.8281322701015483  0.3341376464817003  0.2208433466644948
  0.8268881931200056  0.3342630944467544  0.7194144977295167
  0.8281319810773624  0.6658625906838935  0.2208434271210109
  0.8268880446434537  0.6657367940020222  0.7194143071750929
  0.8329893884813941  0.0000005413811479  0.4465739546414511
  0.8323289927656177  0.0000001882145568  0.9464387120088631
  0.8320598145372102  0.3336164311840477  0.4464963306283778
  0.8325729956642149  0.3331321219154475  0.9460270888343416
  0.8320601909308110  0.6663833612776315  0.4464961735767972
  0.8325736786246409  0.6668675868589986  0.9460274012568419
  0.6680309183274105  0.1670910893597011  0.0554072220511515
  0.6687013025511988  0.1663164547333125  0.5555555721622127
  0.6698713864550925  0.4999999641137620  0.0528828433967803
  0.6599358961146038  0.5000002376848869  0.5575652988887612
  0.6680308209017483  0.8329082120708478  0.0554089382653302
  0.6687014313294029  0.8336832971491859  0.5555571297164761
  0.4956028355883362  0.9999999939443427  0.1262988807346872
  0.4963261867524693  0.9999999357985629  0.6278899454183957
  0.4932644292738999  0.3316542112455423  0.1219375591180381
  0.4957030680753860  0.3324174154231443  0.6279382685467425
  0.4932643906009702  0.6683450031720355  0.1219387853922882
  0.4957029209186459  0.6675824781152642  0.6279396066730598
  0.0038356550986762  0.1671084835823962  0.3730218964262093
  0.0037652043527245  0.1667136784328704  0.8727687638952091
  0.0042774218543471  0.5000000602790564  0.3733995633679612
  0.0035179139471921  0.4999996887464135  0.8726709272725941
  0.0038356275538689  0.8328910110760432  0.3730215983252378
  0.0037650601476358  0.8332860466252114  0.8727688321212952
  0.1729239267581306  0.9999998260414813  0.2808718732473992
  0.1716215837880242  0.9999998352038659  0.7795168048168861
  0.1735778620469759  0.3334992227408762  0.2805219001154953
  0.1720419376261972  0.3334531931459495  0.7798794211376148
  0.1735775172695568  0.6665007715254774  0.2805214391637350
  0.1720420211185356  0.6665464211938357  0.7798793444992569
  0.3272958452680683  0.1661618625491457  0.2192444361652122
  0.3269703572766005  0.1662628586349513  0.7190334641051521
  0.3276561119608843  0.5000002118255864  0.2191482604298614
  0.3276417987695126  0.4999996066602463  0.7188690426228348
  0.3272970208998700  0.8338383914355063  0.2192459296648508
  0.3269703126849066  0.8337369710675233  0.7190337388293244
  0.3335191602742213  0.1674800928463611  0.4449704587619934
  0.3299457527469514  0.1659519662193816  0.9442500252706338
  0.3324875511616341  0.5000001852139420  0.4451757876566802
  0.3310597850607451  0.4999995461968965  0.9449230680904606
  0.3335189296088785  0.8325193589955546  0.4449701682621097
  0.3299458214401341  0.8340477411750342  0.9442502660067191
  0.1674846547317159  0.9999999601978402  0.0545923321742023
  0.1681527201004229  0.9999999222861007  0.5537209976778001
  0.1679563294809370  0.3333401366148294  0.0542872532634746
  0.1681530192555272  0.3331080769068180  0.5540703194887939
  0.1679558214609216  0.6666593349689833  0.0542872450225502
  0.1681530209194477  0.6668915894381726  0.5540704392526052
  0.6038635694870678  0.5000002395945842  0.3972995015616263
  0.6635428527766010  0.5000004831622888  0.2721015315605086
 
  0.00000000E+00  0.00000000E+00  0.00000000E+00
  0.00000000E+00  0.00000000E+00  0.00000000E+00
  0.00000000E+00  0.00000000E+00  0.00000000E+00
  0.00000000E+00  0.00000000E+00  0.00000000E+00
  0.00000000E+00  0.00000000E+00  0.00000000E+00
  0.00000000E+00  0.00000000E+00  0.00000000E+00
  0.00000000E+00  0.00000000E+00  0.00000000E+00
  0.00000000E+00  0.00000000E+00  0.00000000E+00
  0.00000000E+00  0.00000000E+00  0.00000000E+00
  0.00000000E+00  0.00000000E+00  0.00000000E+00
  0.00000000E+00  0.00000000E+00  0.00000000E+00
  0.00000000E+00  0.00000000E+00  0.00000000E+00
  0.00000000E+00  0.00000000E+00  0.00000000E+00
  0.00000000E+00  0.00000000E+00  0.00000000E+00
  0.00000000E+00  0.00000000E+00  0.00000000E+00
  0.00000000E+00  0.00000000E+00  0.00000000E+00
  0.00000000E+00  0.00000000E+00  0.00000000E+00
  0.00000000E+00  0.00000000E+00  0.00000000E+00
  0.00000000E+00  0.00000000E+00  0.00000000E+00
  0.00000000E+00  0.00000000E+00  0.00000000E+00
  0.00000000E+00  0.00000000E+00  0.00000000E+00
  0.00000000E+00  0.00000000E+00  0.00000000E+00
  0.00000000E+00  0.00000000E+00  0.00000000E+00
  0.00000000E+00  0.00000000E+00  0.00000000E+00
  0.00000000E+00  0.00000000E+00  0.00000000E+00
  0.00000000E+00  0.00000000E+00  0.00000000E+00
  0.00000000E+00  0.00000000E+00  0.00000000E+00
  0.00000000E+00  0.00000000E+00  0.00000000E+00
  0.00000000E+00  0.00000000E+00  0.00000000E+00
  0.00000000E+00  0.00000000E+00  0.00000000E+00
  0.00000000E+00  0.00000000E+00  0.00000000E+00
  0.00000000E+00  0.00000000E+00  0.00000000E+00
  0.00000000E+00  0.00000000E+00  0.00000000E+00
  0.00000000E+00  0.00000000E+00  0.00000000E+00
  0.00000000E+00  0.00000000E+00  0.00000000E+00
  0.00000000E+00  0.00000000E+00  0.00000000E+00
  0.00000000E+00  0.00000000E+00  0.00000000E+00
  0.00000000E+00  0.00000000E+00  0.00000000E+00
  0.00000000E+00  0.00000000E+00  0.00000000E+00
  0.00000000E+00  0.00000000E+00  0.00000000E+00
  0.00000000E+00  0.00000000E+00  0.00000000E+00
  0.00000000E+00  0.00000000E+00  0.00000000E+00
  0.00000000E+00  0.00000000E+00  0.00000000E+00
  0.00000000E+00  0.00000000E+00  0.00000000E+00
  0.00000000E+00  0.00000000E+00  0.00000000E+00
  0.00000000E+00  0.00000000E+00  0.00000000E+00
  0.00000000E+00  0.00000000E+00  0.00000000E+00
  0.00000000E+00  0.00000000E+00  0.00000000E+00
  0.00000000E+00  0.00000000E+00  0.00000000E+00
  0.00000000E+00  0.00000000E+00  0.00000000E+00
  0.00000000E+00  0.00000000E+00  0.00000000E+00
  0.00000000E+00  0.00000000E+00  0.00000000E+00
  0.00000000E+00  0.00000000E+00  0.00000000E+00
  0.00000000E+00  0.00000000E+00  0.00000000E+00
  0.00000000E+00  0.00000000E+00  0.00000000E+00
  0.00000000E+00  0.00000000E+00  0.00000000E+00
  0.00000000E+00  0.00000000E+00  0.00000000E+00
  0.00000000E+00  0.00000000E+00  0.00000000E+00
  0.00000000E+00  0.00000000E+00  0.00000000E+00
  0.00000000E+00  0.00000000E+00  0.00000000E+00
  0.00000000E+00  0.00000000E+00  0.00000000E+00
  0.00000000E+00  0.00000000E+00  0.00000000E+00
  0.00000000E+00  0.00000000E+00  0.00000000E+00
  0.00000000E+00  0.00000000E+00  0.00000000E+00
  0.00000000E+00  0.00000000E+00  0.00000000E+00
  0.00000000E+00  0.00000000E+00  0.00000000E+00
  0.00000000E+00  0.00000000E+00  0.00000000E+00
  0.00000000E+00  0.00000000E+00  0.00000000E+00
  0.00000000E+00  0.00000000E+00  0.00000000E+00
  0.00000000E+00  0.00000000E+00  0.00000000E+00
  0.00000000E+00  0.00000000E+00  0.00000000E+00
  0.00000000E+00  0.00000000E+00  0.00000000E+00
  0.00000000E+00  0.00000000E+00  0.00000000E+00
  0.00000000E+00  0.00000000E+00  0.00000000E+00
  0.00000000E+00  0.00000000E+00  0.00000000E+00
  0.00000000E+00  0.00000000E+00  0.00000000E+00
  0.00000000E+00  0.00000000E+00  0.00000000E+00
  0.00000000E+00  0.00000000E+00  0.00000000E+00
  0.00000000E+00  0.00000000E+00  0.00000000E+00
  0.00000000E+00  0.00000000E+00  0.00000000E+00
  0.00000000E+00  0.00000000E+00  0.00000000E+00
  0.00000000E+00  0.00000000E+00  0.00000000E+00
  0.00000000E+00  0.00000000E+00  0.00000000E+00
  0.00000000E+00  0.00000000E+00  0.00000000E+00
  0.00000000E+00  0.00000000E+00  0.00000000E+00
  0.00000000E+00  0.00000000E+00  0.00000000E+00
  0.00000000E+00  0.00000000E+00  0.00000000E+00
  0.00000000E+00  0.00000000E+00  0.00000000E+00
  0.00000000E+00  0.00000000E+00  0.00000000E+00
  0.00000000E+00  0.00000000E+00  0.00000000E+00
  0.00000000E+00  0.00000000E+00  0.00000000E+00
  0.00000000E+00  0.00000000E+00  0.00000000E+00
  0.00000000E+00  0.00000000E+00  0.00000000E+00
  0.00000000E+00  0.00000000E+00  0.00000000E+00
  0.00000000E+00  0.00000000E+00  0.00000000E+00
  0.00000000E+00  0.00000000E+00  0.00000000E+00
  0.00000000E+00  0.00000000E+00  0.00000000E+00
  0.00000000E+00  0.00000000E+00  0.00000000E+00
  0.00000000E+00  0.00000000E+00  0.00000000E+00
  0.00000000E+00  0.00000000E+00  0.00000000E+00
  0.00000000E+00  0.00000000E+00  0.00000000E+00
  0.00000000E+00  0.00000000E+00  0.00000000E+00
  0.00000000E+00  0.00000000E+00  0.00000000E+00
  0.00000000E+00  0.00000000E+00  0.00000000E+00
  0.00000000E+00  0.00000000E+00  0.00000000E+00
  0.00000000E+00  0.00000000E+00  0.00000000E+00
  0.00000000E+00  0.00000000E+00  0.00000000E+00
  0.00000000E+00  0.00000000E+00  0.00000000E+00
  0.00000000E+00  0.00000000E+00  0.00000000E+00
  0.00000000E+00  0.00000000E+00  0.00000000E+00
  0.00000000E+00  0.00000000E+00  0.00000000E+00
  0.00000000E+00  0.00000000E+00  0.00000000E+00
  0.00000000E+00  0.00000000E+00  0.00000000E+00
  0.00000000E+00  0.00000000E+00  0.00000000E+00
  0.00000000E+00  0.00000000E+00  0.00000000E+00
  0.00000000E+00  0.00000000E+00  0.00000000E+00
  0.00000000E+00  0.00000000E+00  0.00000000E+00
  0.00000000E+00  0.00000000E+00  0.00000000E+00
  0.00000000E+00  0.00000000E+00  0.00000000E+00
  0.00000000E+00  0.00000000E+00  0.00000000E+00
