Ga48 O72                                
    1.000000000000000     
     0.0000000000000000   12.2804734172212839    0.0000000000000000
     9.1427020537309431    0.0000000000000000    0.0000000000000000
     0.0000000000000000   -2.7682617730220320  -11.3006977184464645
   Ga   O    N 
    48    71     1
Direct
  0.6596285529833921  0.0000000000000000  0.1569142312083471
  0.6573465502420532  0.0000000000000000  0.6561809368145788
  0.6597355404652916  0.3331062553139432  0.1570558546262006
  0.6569352958478945  0.3329061601466350  0.6564704460076598
  0.6597355404652916  0.6668937446860568  0.1570558546262006
  0.6569352958478945  0.6670938398533650  0.6564704460076598
  0.8424141264103184  0.1662627012376134  0.3438007975014656
  0.8400371201195753  0.1664514103267933  0.8428962047680670
  0.8416929082556308  0.5000000000000000  0.3434098070666423
  0.8403596551780268  0.5000000000000000  0.8424822900376441
  0.8424141264103184  0.8337372987623866  0.3438007975014656
  0.8400371201195753  0.8335485896732067  0.8428962047680670
  0.5906981935257676  0.1664186989631418  0.3973493986842840
  0.5899570407857837  0.1667410118103945  0.8976683942953443
  0.5920005321846347  0.5000000000000000  0.3974964708905517
  0.5918714429657825  0.5000000000000000  0.8985841540707469
  0.5906981935257676  0.8335813010368582  0.3973493986842840
  0.5899570407857837  0.8332589881896055  0.8976683942953443
  0.9091066274089243  0.0000000000000000  0.1025694709524174
  0.9100675315419551  0.0000000000000000  0.6028941876401106
  0.9084028136153606  0.3333151943049657  0.1016745070272620
  0.9082924771238865  0.3330353125283239  0.6025796643742396
  0.9084028136153606  0.6666848056950343  0.1016745070272620
  0.9082924771238865  0.6669646874716761  0.6025796643742396
  0.1586716983560734  0.1662294299428311  0.1571869313484058
  0.1606370050703916  0.1617721372862704  0.6510926024652122
  0.1583663780899798  0.5000000000000000  0.1559195103516231
  0.1584811365572634  0.5000000000000000  0.6572089434404376
  0.1586716983560734  0.8337705700571689  0.1571869313484058
  0.1606370050703916  0.8382278627137296  0.6510926024652122
  0.3394780168120732  0.0000000000000000  0.3436646405306689
  0.3394288608263594  0.0000000000000000  0.8448846995236394
  0.3416017355572549  0.3340935293485572  0.3424382004011122
  0.3405106123118813  0.3332080716904713  0.8431831659115758
  0.3416017355572549  0.6659064706514428  0.3424382004011122
  0.3405106123118813  0.6667919283095287  0.8431831659115758
  0.0961447598385377  0.0000000000000000  0.4049682940707058
  0.0903776809476682  0.0000000000000000  0.8980622104028626
  0.0908183543356103  0.3324908443935897  0.3976438220739311
  0.0908260107117016  0.3328050664442372  0.8962124934473863
  0.0908183543356103  0.6675091556064103  0.3976438220739311
  0.0908260107117016  0.6671949335557628  0.8962124934473863
  0.4097883698280569  0.1668087606705839  0.1033495392625881
  0.4044939704127302  0.1647889909977565  0.6022806320824117
  0.4095220071887979  0.5000000000000000  0.1018779933158598
  0.4086535904393713  0.5000000000000000  0.6025455577055894
  0.4097883698280569  0.8331912393294161  0.1033495392625881
  0.4044939704127302  0.8352110090022435  0.6022806320824117
  0.9956732388526959  0.1670069642124616  0.1259758082938021
  0.9956649746363126  0.1675781791101514  0.6287197863603282
  0.9955631482477827  0.5000000000000000  0.1265276780082090
  0.9950749803687771  0.5000000000000000  0.6271115616342939
  0.9956732388526959  0.8329930357875384  0.1259758082938021
  0.9956649746363126  0.8324218208898486  0.6287197863603282
  0.5032751956226562  0.0000000000000000  0.3716341152722364
  0.5031644271627087  0.0000000000000000  0.8743682385193239
  0.5045627396425303  0.3338949357289636  0.3712375934365753
  0.5042729418020642  0.3343440609162940  0.8747402169402960
  0.5045627396425303  0.6661050642710435  0.3712375934365753
  0.5042729418020642  0.6656559390837060  0.8747402169402960
  0.6731665458606315  0.1665778487381502  0.2808077416421426
  0.6714311137850757  0.1664160344723911  0.7803480305457242
  0.6734818420571074  0.5000000000000000  0.2805448654508993
  0.6714499863756913  0.5000000000000000  0.7800028681566360
  0.6731665458606315  0.8334221512618498  0.2808077416421426
  0.6714311137850757  0.8335839655276089  0.7803480305457242
  0.8271296187386170  0.0000000000000000  0.2191410956666573
  0.8262775191301017  0.0000000000000000  0.7191037999972352
  0.8274977236168084  0.3332708936543511  0.2192607500687060
  0.8258709271073030  0.3334703943782316  0.7192650331103749
  0.8274977236168084  0.6667291063456489  0.2192607500687060
  0.8258709271073030  0.6665296056217684  0.7192650331103749
  0.8321862329475778  0.0000000000000000  0.4461300089098330
  0.8312996744323513  0.0000000000000000  0.9458663727439856
  0.8318558552627380  0.3334135537410461  0.4456224387196954
  0.8307955138237944  0.3336075036687731  0.9452695857843381
  0.8318558552627380  0.6665864462589539  0.4456224387196954
  0.8307955138237944  0.6663924963312198  0.9452695857843381
  0.6679025228716213  0.1666566843205572  0.0541915250354705
  0.6672411862309602  0.1666261312505171  0.5540166950322956
  0.6690780743473539  0.5000000000000000  0.0549671220647809
  0.6668694106203574  0.5000000000000000  0.5545120146731577
  0.6679025228716213  0.8333433156794428  0.0541915250354705
  0.6672411862309602  0.8333738687494829  0.5540166950322956
  0.4972647969007298  0.0000000000000000  0.1282704457276083
  0.4949420201969588  0.0000000000000000  0.6268086258002370
  0.4973188917220170  0.3337127334150694  0.1279450866119163
  0.4947521450598558  0.3318670214743236  0.6266200346741400
  0.4973188917220170  0.6662872665849306  0.1279450866119163
  0.4947521450598558  0.6681329785256764  0.6266200346741400
  0.0034555899206907  0.1660889186717611  0.3698482727000112
  0.0022749494749306  0.1667463110991179  0.8732760984732337
  0.0034793336611969  0.5000000000000000  0.3716692097963374
  0.0030043821963091  0.5000000000000000  0.8725375303646103
  0.0034555899206907  0.8339110813282318  0.3698482727000112
  0.0022749494749306  0.8332536889008821  0.8732760984732337
  0.1719576067621560  0.0000000000000000  0.2791398138673955
  0.1742468421270829  0.0000000000000000  0.7857661548979848
  0.1724858018773290  0.3340123354960056  0.2800168683291844
  0.1720320095856636  0.3331928111955307  0.7795489571628451
  0.1724858018773290  0.6659876645039944  0.2800168683291844
  0.1720320095856636  0.6668071888044693  0.7795489571628451
  0.3274739227692436  0.1673196381897171  0.2190714735483397
  0.3312769049220066  0.1705176465778209  0.7251709988383084
  0.3274338287842440  0.5000000000000000  0.2184060819241935
  0.3279628982503127  0.5000000000000000  0.7201521476472834
  0.3274739227692436  0.8326803618102829  0.2190714735483397
  0.3312769049220066  0.8294823534221791  0.7251709988383084
  0.3352602111697394  0.1690204296192590  0.4437887451560130
  0.3328135607910667  0.1677029376778947  0.9478879257774082
  0.3337656299592027  0.5000000000000000  0.4450909638825991
  0.3318608120130122  0.5000000000000000  0.9459942933757333
  0.3352602111697394  0.8309795703807410  0.4437887451560130
  0.3328135607910667  0.8322970623221053  0.9478879257774082
  0.1668566778386875  0.0000000000000000  0.0545477364957137
  0.1663523275249617  0.3331816825269556  0.0536503131891877
  0.1682789183500120  0.3362796242164308  0.5536796094440817
  0.1663523275249617  0.6668183174730444  0.0536503131891877
  0.1682789183500120  0.6637203757835692  0.5536796094440817
  0.1827870675232575  0.0000000000000000  0.5563593707975016
 
  0.00000000E+00  0.00000000E+00  0.00000000E+00
  0.00000000E+00  0.00000000E+00  0.00000000E+00
  0.00000000E+00  0.00000000E+00  0.00000000E+00
  0.00000000E+00  0.00000000E+00  0.00000000E+00
  0.00000000E+00  0.00000000E+00  0.00000000E+00
  0.00000000E+00  0.00000000E+00  0.00000000E+00
  0.00000000E+00  0.00000000E+00  0.00000000E+00
  0.00000000E+00  0.00000000E+00  0.00000000E+00
  0.00000000E+00  0.00000000E+00  0.00000000E+00
  0.00000000E+00  0.00000000E+00  0.00000000E+00
  0.00000000E+00  0.00000000E+00  0.00000000E+00
  0.00000000E+00  0.00000000E+00  0.00000000E+00
  0.00000000E+00  0.00000000E+00  0.00000000E+00
  0.00000000E+00  0.00000000E+00  0.00000000E+00
  0.00000000E+00  0.00000000E+00  0.00000000E+00
  0.00000000E+00  0.00000000E+00  0.00000000E+00
  0.00000000E+00  0.00000000E+00  0.00000000E+00
  0.00000000E+00  0.00000000E+00  0.00000000E+00
  0.00000000E+00  0.00000000E+00  0.00000000E+00
  0.00000000E+00  0.00000000E+00  0.00000000E+00
  0.00000000E+00  0.00000000E+00  0.00000000E+00
  0.00000000E+00  0.00000000E+00  0.00000000E+00
  0.00000000E+00  0.00000000E+00  0.00000000E+00
  0.00000000E+00  0.00000000E+00  0.00000000E+00
  0.00000000E+00  0.00000000E+00  0.00000000E+00
  0.00000000E+00  0.00000000E+00  0.00000000E+00
  0.00000000E+00  0.00000000E+00  0.00000000E+00
  0.00000000E+00  0.00000000E+00  0.00000000E+00
  0.00000000E+00  0.00000000E+00  0.00000000E+00
  0.00000000E+00  0.00000000E+00  0.00000000E+00
  0.00000000E+00  0.00000000E+00  0.00000000E+00
  0.00000000E+00  0.00000000E+00  0.00000000E+00
  0.00000000E+00  0.00000000E+00  0.00000000E+00
  0.00000000E+00  0.00000000E+00  0.00000000E+00
  0.00000000E+00  0.00000000E+00  0.00000000E+00
  0.00000000E+00  0.00000000E+00  0.00000000E+00
  0.00000000E+00  0.00000000E+00  0.00000000E+00
  0.00000000E+00  0.00000000E+00  0.00000000E+00
  0.00000000E+00  0.00000000E+00  0.00000000E+00
  0.00000000E+00  0.00000000E+00  0.00000000E+00
  0.00000000E+00  0.00000000E+00  0.00000000E+00
  0.00000000E+00  0.00000000E+00  0.00000000E+00
  0.00000000E+00  0.00000000E+00  0.00000000E+00
  0.00000000E+00  0.00000000E+00  0.00000000E+00
  0.00000000E+00  0.00000000E+00  0.00000000E+00
  0.00000000E+00  0.00000000E+00  0.00000000E+00
  0.00000000E+00  0.00000000E+00  0.00000000E+00
  0.00000000E+00  0.00000000E+00  0.00000000E+00
  0.00000000E+00  0.00000000E+00  0.00000000E+00
  0.00000000E+00  0.00000000E+00  0.00000000E+00
  0.00000000E+00  0.00000000E+00  0.00000000E+00
  0.00000000E+00  0.00000000E+00  0.00000000E+00
  0.00000000E+00  0.00000000E+00  0.00000000E+00
  0.00000000E+00  0.00000000E+00  0.00000000E+00
  0.00000000E+00  0.00000000E+00  0.00000000E+00
  0.00000000E+00  0.00000000E+00  0.00000000E+00
  0.00000000E+00  0.00000000E+00  0.00000000E+00
  0.00000000E+00  0.00000000E+00  0.00000000E+00
  0.00000000E+00  0.00000000E+00  0.00000000E+00
  0.00000000E+00  0.00000000E+00  0.00000000E+00
  0.00000000E+00  0.00000000E+00  0.00000000E+00
  0.00000000E+00  0.00000000E+00  0.00000000E+00
  0.00000000E+00  0.00000000E+00  0.00000000E+00
  0.00000000E+00  0.00000000E+00  0.00000000E+00
  0.00000000E+00  0.00000000E+00  0.00000000E+00
  0.00000000E+00  0.00000000E+00  0.00000000E+00
  0.00000000E+00  0.00000000E+00  0.00000000E+00
  0.00000000E+00  0.00000000E+00  0.00000000E+00
  0.00000000E+00  0.00000000E+00  0.00000000E+00
  0.00000000E+00  0.00000000E+00  0.00000000E+00
  0.00000000E+00  0.00000000E+00  0.00000000E+00
  0.00000000E+00  0.00000000E+00  0.00000000E+00
  0.00000000E+00  0.00000000E+00  0.00000000E+00
  0.00000000E+00  0.00000000E+00  0.00000000E+00
  0.00000000E+00  0.00000000E+00  0.00000000E+00
  0.00000000E+00  0.00000000E+00  0.00000000E+00
  0.00000000E+00  0.00000000E+00  0.00000000E+00
  0.00000000E+00  0.00000000E+00  0.00000000E+00
  0.00000000E+00  0.00000000E+00  0.00000000E+00
  0.00000000E+00  0.00000000E+00  0.00000000E+00
  0.00000000E+00  0.00000000E+00  0.00000000E+00
  0.00000000E+00  0.00000000E+00  0.00000000E+00
  0.00000000E+00  0.00000000E+00  0.00000000E+00
  0.00000000E+00  0.00000000E+00  0.00000000E+00
  0.00000000E+00  0.00000000E+00  0.00000000E+00
  0.00000000E+00  0.00000000E+00  0.00000000E+00
  0.00000000E+00  0.00000000E+00  0.00000000E+00
  0.00000000E+00  0.00000000E+00  0.00000000E+00
  0.00000000E+00  0.00000000E+00  0.00000000E+00
  0.00000000E+00  0.00000000E+00  0.00000000E+00
  0.00000000E+00  0.00000000E+00  0.00000000E+00
  0.00000000E+00  0.00000000E+00  0.00000000E+00
  0.00000000E+00  0.00000000E+00  0.00000000E+00
  0.00000000E+00  0.00000000E+00  0.00000000E+00
  0.00000000E+00  0.00000000E+00  0.00000000E+00
  0.00000000E+00  0.00000000E+00  0.00000000E+00
  0.00000000E+00  0.00000000E+00  0.00000000E+00
  0.00000000E+00  0.00000000E+00  0.00000000E+00
  0.00000000E+00  0.00000000E+00  0.00000000E+00
  0.00000000E+00  0.00000000E+00  0.00000000E+00
  0.00000000E+00  0.00000000E+00  0.00000000E+00
  0.00000000E+00  0.00000000E+00  0.00000000E+00
  0.00000000E+00  0.00000000E+00  0.00000000E+00
  0.00000000E+00  0.00000000E+00  0.00000000E+00
  0.00000000E+00  0.00000000E+00  0.00000000E+00
  0.00000000E+00  0.00000000E+00  0.00000000E+00
  0.00000000E+00  0.00000000E+00  0.00000000E+00
  0.00000000E+00  0.00000000E+00  0.00000000E+00
  0.00000000E+00  0.00000000E+00  0.00000000E+00
  0.00000000E+00  0.00000000E+00  0.00000000E+00
  0.00000000E+00  0.00000000E+00  0.00000000E+00
  0.00000000E+00  0.00000000E+00  0.00000000E+00
  0.00000000E+00  0.00000000E+00  0.00000000E+00
  0.00000000E+00  0.00000000E+00  0.00000000E+00
  0.00000000E+00  0.00000000E+00  0.00000000E+00
  0.00000000E+00  0.00000000E+00  0.00000000E+00
  0.00000000E+00  0.00000000E+00  0.00000000E+00
  0.00000000E+00  0.00000000E+00  0.00000000E+00
  0.00000000E+00  0.00000000E+00  0.00000000E+00
  0.00000000E+00  0.00000000E+00  0.00000000E+00
