Ga8 O12                                 
    1.000000000000000     
     0.0000000000000000   12.2804737091000007    0.0000000000000000
     9.1427011490000005    0.0000000000000000    0.0000000000000000
     0.0000000000000000   -2.7682616411000001  -11.3006974810000003
   Ga   O    N    Fe
    47    71     1     1
Direct
  0.6589832026385452  0.0003313123213360  0.1574995517997309
  0.6582982983251995  0.9999359065543985  0.6563900610205877
  0.6590302808883095  0.3333858390074980  0.1574417979432923
  0.6589376809759102  0.3329358686544310  0.6560842667254221
  0.6589712000880823  0.6662764959295657  0.1574194859279601
  0.6576202344132867  0.6657635987140438  0.6560392444764034
  0.8417406516686086  0.1673291673543318  0.3440521287070339
  0.8407856747310589  0.1664983492896752  0.8432857881985072
  0.8412857616590159  0.4997405707292586  0.3441290144842313
  0.8407687735304066  0.5000615015148000  0.8433002989077067
  0.8414910830156614  0.8335538843688823  0.3437490650050208
  0.8405863746144036  0.8331726761883544  0.8431373581835686
  0.5884311850440014  0.1681059100566600  0.3974904285295153
  0.5916914442133532  0.1666650085756629  0.8980543935397094
  0.5869087188749802  0.4992863827593652  0.3967445716297462
  0.5915183252017968  0.4998448318408677  0.8978361411464348
  0.5910001364103792  0.8335108874907036  0.3977223363893145
  0.5917757572184428  0.8332935563223316  0.8984581132564387
  0.9089401606312393  0.0011227664487379  0.1025084158144836
  0.9092102438433827  0.9998513427787401  0.6028065022427569
  0.9091648607059071  0.3336698850290247  0.1026945505456993
  0.9100545061329299  0.3334562286134926  0.6028229851096327
  0.9092418709287955  0.6670309139725177  0.1027196551993725
  0.9092988498294758  0.6665224114750288  0.6028650179356490
  0.1606568927934120  0.1673629427413275  0.1569800086476008
  0.1598690738155994  0.1662513250934623  0.6573149624657617
  0.1598358183940789  0.5004927402071502  0.1559603174907735
  0.1606600785739261  0.5000384084220499  0.6569879310423374
  0.1590288711040486  0.8338220761234894  0.1569550397386550
  0.1597479046854389  0.8332095419859726  0.6566220228256796
  0.3406804769388145  0.0039322496474696  0.3437503098042001
  0.3417986657146628  0.9999808322525823  0.8435830230268948
  0.3417748481733369  0.3333196501060272  0.8431634362856926
  0.3383734848096722  0.6645028724254232  0.3458874818491466
  0.3419532703015093  0.6659524118097551  0.8433145626985876
  0.0912690096372302  0.0007711426804491  0.3975383591833292
  0.0909482442255722  0.9997907886349964  0.8975210008935477
  0.0954041115697919  0.3339713083263760  0.3977719021504100
  0.0907191717109441  0.3330879265992124  0.8969969766186097
  0.0912116438604542  0.6663040909511153  0.3970589172433634
  0.0909893134710131  0.6666540704833253  0.8969077392994009
  0.4084600440774580  0.1664984143498955  0.1036936038717897
  0.4084623087348831  0.1678694386457238  0.5994757481624475
  0.4086764105183107  0.4989347539803219  0.1032466842118325
  0.4066588636604109  0.4953640405940831  0.5971007614098838
  0.4083671790936023  0.8326610600805466  0.1036344524165642
  0.4091747409724107  0.8320443453233182  0.6018700140544553
  0.9968242254252928  0.1673563736834325  0.1271490170181764
  0.9967673142451901  0.1662636568878639  0.6281557396249298
  0.9964469340731839  0.5001543977626426  0.1266778963404107
  0.9972256100415464  0.5003291434564616  0.6279619866695469
  0.9956242918886673  0.8343046804633332  0.1261271477997568
  0.9967630755087953  0.8332137973559881  0.6276012356288732
  0.5036419379819819  0.9997989976604060  0.3727519601671503
  0.5044718931179304  0.9999076623699139  0.8732674397663232
  0.4998781989534464  0.3327414982008534  0.3718531108759962
  0.5045327784445490  0.3331493144749089  0.8752665605915482
  0.5032361552174720  0.6683644421332673  0.3714024018040192
  0.5045833528024062  0.6667306959061605  0.8736989897374414
  0.6725119724457755  0.1672965271261901  0.2815440164343883
  0.6734559997934184  0.1657656289858309  0.7811635648497628
  0.6722369122094918  0.4997226082752277  0.2813951610792245
  0.6733062473054332  0.5000236968215219  0.7809872919885663
  0.6733307044992216  0.8337622738595840  0.2809324279723739
  0.6725261493257975  0.8330705354012977  0.7806472460030918
  0.8278518995430417  0.0009659584205863  0.2201127540138472
  0.8272518527118891  0.9995355826934045  0.7194037837926288
  0.8276416684978116  0.3336115420759072  0.2199684350706690
  0.8275028034313792  0.3332805309115585  0.7192829083106744
  0.8278648462211251  0.6664662753617066  0.2201449636521033
  0.8270038414907290  0.6664104208803252  0.7192282224867768
  0.8329561542658226  0.0002818404294800  0.4461522435480347
  0.8321209003783494  0.0000034318316722  0.9458334530043899
  0.8326662212171740  0.3334229240097031  0.4465392688102696
  0.8323698293300126  0.3332846466422552  0.9459242134249592
  0.8328872691233187  0.6667233667167736  0.4462234637526947
  0.8322988147186337  0.6667210564581580  0.9459723311258799
  0.6687694624666705  0.1665105130245266  0.0548653120010414
  0.6679526777172313  0.1662762515863889  0.5538180424439503
  0.6686795398437226  0.4999900172862937  0.0547027993564910
  0.6667815328807762  0.4994893678245020  0.5532646783499615
  0.6686778142464433  0.8333514211157578  0.0550806012447111
  0.6679401840200754  0.8330623860828865  0.5544608322945521
  0.4964672948933426  0.9995391549882839  0.1272861872539934
  0.4960202848962254  0.9998482658406900  0.6271562466166287
  0.4968431385493659  0.3327296333190759  0.1271552430205674
  0.4987922564415470  0.3312958407311939  0.6337456854547483
  0.4964974123710348  0.6661122778999413  0.1270104080281698
  0.4957315829432218  0.6646259925820388  0.6283194913851631
  0.0047292845762286  0.1684118347594534  0.3731890172409962
  0.0031712237890815  0.1663024421661703  0.8720350010830202
  0.0043884168619002  0.4988777546392171  0.3730741221309941
  0.0032683205844677  0.5000096001830130  0.8719042754220041
  0.0037369059161776  0.8337179093220186  0.3734039457752658
  0.0032089529338819  0.8332399989023074  0.8717777736824388
  0.1713867588159630  0.0006042317841732  0.2797681007505801
  0.1728892832131592  0.9995886111459100  0.7808028331609407
  0.1742916392716012  0.3335382706190373  0.2788207524529014
  0.1728464602921136  0.3328591869216098  0.7808136850263949
  0.1682817826335850  0.6697872632854640  0.2769960958868509
  0.1729188998122098  0.6667215147444168  0.7802835288771988
  0.3271657107254171  0.1660937437873926  0.2199285103376525
  0.3281452890140244  0.1661574282518146  0.7194500748882433
  0.3254571845291139  0.4996424001778479  0.2175823165771220
  0.3286763446253431  0.4995740836878824  0.7204185355746091
  0.3267915387875533  0.8334532791529554  0.2201001397862825
  0.3279555732761992  0.8332047876691959  0.7198497464184399
  0.3307522359032475  0.1715500741078131  0.4440169069816662
  0.3330489494845352  0.1665200542422269  0.9460851676725213
  0.3327215966544941  0.4998073705719719  0.9460591147145649
  0.3309022196405351  0.8365685258950748  0.4459633680943753
  0.3333239486714206  0.8330254331218896  0.9459974530783271
  0.1675558256192460  0.0000626573581926  0.0537631116072035
  0.1675736007816298  0.9999876084245329  0.5544558768161920
  0.1671550107545272  0.3331151120612503  0.0529120596813186
  0.1668301802554737  0.3328248847263993  0.5556407768218676
  0.1675600357717570  0.6675066659033178  0.0529670848733446
  0.1678923330535795  0.6667985019532736  0.5539943358154318
  0.3304118928563895  0.4902964390516118  0.4388203781648627
  0.3375738629968694  0.3404959743907909  0.3403047197027362
 
  0.00000000E+00  0.00000000E+00  0.00000000E+00
  0.00000000E+00  0.00000000E+00  0.00000000E+00
  0.00000000E+00  0.00000000E+00  0.00000000E+00
  0.00000000E+00  0.00000000E+00  0.00000000E+00
  0.00000000E+00  0.00000000E+00  0.00000000E+00
  0.00000000E+00  0.00000000E+00  0.00000000E+00
  0.00000000E+00  0.00000000E+00  0.00000000E+00
  0.00000000E+00  0.00000000E+00  0.00000000E+00
  0.00000000E+00  0.00000000E+00  0.00000000E+00
  0.00000000E+00  0.00000000E+00  0.00000000E+00
  0.00000000E+00  0.00000000E+00  0.00000000E+00
  0.00000000E+00  0.00000000E+00  0.00000000E+00
  0.00000000E+00  0.00000000E+00  0.00000000E+00
  0.00000000E+00  0.00000000E+00  0.00000000E+00
  0.00000000E+00  0.00000000E+00  0.00000000E+00
  0.00000000E+00  0.00000000E+00  0.00000000E+00
  0.00000000E+00  0.00000000E+00  0.00000000E+00
  0.00000000E+00  0.00000000E+00  0.00000000E+00
  0.00000000E+00  0.00000000E+00  0.00000000E+00
  0.00000000E+00  0.00000000E+00  0.00000000E+00
  0.00000000E+00  0.00000000E+00  0.00000000E+00
  0.00000000E+00  0.00000000E+00  0.00000000E+00
  0.00000000E+00  0.00000000E+00  0.00000000E+00
  0.00000000E+00  0.00000000E+00  0.00000000E+00
  0.00000000E+00  0.00000000E+00  0.00000000E+00
  0.00000000E+00  0.00000000E+00  0.00000000E+00
  0.00000000E+00  0.00000000E+00  0.00000000E+00
  0.00000000E+00  0.00000000E+00  0.00000000E+00
  0.00000000E+00  0.00000000E+00  0.00000000E+00
  0.00000000E+00  0.00000000E+00  0.00000000E+00
  0.00000000E+00  0.00000000E+00  0.00000000E+00
  0.00000000E+00  0.00000000E+00  0.00000000E+00
  0.00000000E+00  0.00000000E+00  0.00000000E+00
  0.00000000E+00  0.00000000E+00  0.00000000E+00
  0.00000000E+00  0.00000000E+00  0.00000000E+00
  0.00000000E+00  0.00000000E+00  0.00000000E+00
  0.00000000E+00  0.00000000E+00  0.00000000E+00
  0.00000000E+00  0.00000000E+00  0.00000000E+00
  0.00000000E+00  0.00000000E+00  0.00000000E+00
  0.00000000E+00  0.00000000E+00  0.00000000E+00
  0.00000000E+00  0.00000000E+00  0.00000000E+00
  0.00000000E+00  0.00000000E+00  0.00000000E+00
  0.00000000E+00  0.00000000E+00  0.00000000E+00
  0.00000000E+00  0.00000000E+00  0.00000000E+00
  0.00000000E+00  0.00000000E+00  0.00000000E+00
  0.00000000E+00  0.00000000E+00  0.00000000E+00
  0.00000000E+00  0.00000000E+00  0.00000000E+00
  0.00000000E+00  0.00000000E+00  0.00000000E+00
  0.00000000E+00  0.00000000E+00  0.00000000E+00
  0.00000000E+00  0.00000000E+00  0.00000000E+00
  0.00000000E+00  0.00000000E+00  0.00000000E+00
  0.00000000E+00  0.00000000E+00  0.00000000E+00
  0.00000000E+00  0.00000000E+00  0.00000000E+00
  0.00000000E+00  0.00000000E+00  0.00000000E+00
  0.00000000E+00  0.00000000E+00  0.00000000E+00
  0.00000000E+00  0.00000000E+00  0.00000000E+00
  0.00000000E+00  0.00000000E+00  0.00000000E+00
  0.00000000E+00  0.00000000E+00  0.00000000E+00
  0.00000000E+00  0.00000000E+00  0.00000000E+00
  0.00000000E+00  0.00000000E+00  0.00000000E+00
  0.00000000E+00  0.00000000E+00  0.00000000E+00
  0.00000000E+00  0.00000000E+00  0.00000000E+00
  0.00000000E+00  0.00000000E+00  0.00000000E+00
  0.00000000E+00  0.00000000E+00  0.00000000E+00
  0.00000000E+00  0.00000000E+00  0.00000000E+00
  0.00000000E+00  0.00000000E+00  0.00000000E+00
  0.00000000E+00  0.00000000E+00  0.00000000E+00
  0.00000000E+00  0.00000000E+00  0.00000000E+00
  0.00000000E+00  0.00000000E+00  0.00000000E+00
  0.00000000E+00  0.00000000E+00  0.00000000E+00
  0.00000000E+00  0.00000000E+00  0.00000000E+00
  0.00000000E+00  0.00000000E+00  0.00000000E+00
  0.00000000E+00  0.00000000E+00  0.00000000E+00
  0.00000000E+00  0.00000000E+00  0.00000000E+00
  0.00000000E+00  0.00000000E+00  0.00000000E+00
  0.00000000E+00  0.00000000E+00  0.00000000E+00
  0.00000000E+00  0.00000000E+00  0.00000000E+00
  0.00000000E+00  0.00000000E+00  0.00000000E+00
  0.00000000E+00  0.00000000E+00  0.00000000E+00
  0.00000000E+00  0.00000000E+00  0.00000000E+00
  0.00000000E+00  0.00000000E+00  0.00000000E+00
  0.00000000E+00  0.00000000E+00  0.00000000E+00
  0.00000000E+00  0.00000000E+00  0.00000000E+00
  0.00000000E+00  0.00000000E+00  0.00000000E+00
  0.00000000E+00  0.00000000E+00  0.00000000E+00
  0.00000000E+00  0.00000000E+00  0.00000000E+00
  0.00000000E+00  0.00000000E+00  0.00000000E+00
  0.00000000E+00  0.00000000E+00  0.00000000E+00
  0.00000000E+00  0.00000000E+00  0.00000000E+00
  0.00000000E+00  0.00000000E+00  0.00000000E+00
  0.00000000E+00  0.00000000E+00  0.00000000E+00
  0.00000000E+00  0.00000000E+00  0.00000000E+00
  0.00000000E+00  0.00000000E+00  0.00000000E+00
  0.00000000E+00  0.00000000E+00  0.00000000E+00
  0.00000000E+00  0.00000000E+00  0.00000000E+00
  0.00000000E+00  0.00000000E+00  0.00000000E+00
  0.00000000E+00  0.00000000E+00  0.00000000E+00
  0.00000000E+00  0.00000000E+00  0.00000000E+00
  0.00000000E+00  0.00000000E+00  0.00000000E+00
  0.00000000E+00  0.00000000E+00  0.00000000E+00
  0.00000000E+00  0.00000000E+00  0.00000000E+00
  0.00000000E+00  0.00000000E+00  0.00000000E+00
  0.00000000E+00  0.00000000E+00  0.00000000E+00
  0.00000000E+00  0.00000000E+00  0.00000000E+00
  0.00000000E+00  0.00000000E+00  0.00000000E+00
  0.00000000E+00  0.00000000E+00  0.00000000E+00
  0.00000000E+00  0.00000000E+00  0.00000000E+00
  0.00000000E+00  0.00000000E+00  0.00000000E+00
  0.00000000E+00  0.00000000E+00  0.00000000E+00
  0.00000000E+00  0.00000000E+00  0.00000000E+00
  0.00000000E+00  0.00000000E+00  0.00000000E+00
  0.00000000E+00  0.00000000E+00  0.00000000E+00
  0.00000000E+00  0.00000000E+00  0.00000000E+00
  0.00000000E+00  0.00000000E+00  0.00000000E+00
  0.00000000E+00  0.00000000E+00  0.00000000E+00
  0.00000000E+00  0.00000000E+00  0.00000000E+00
  0.00000000E+00  0.00000000E+00  0.00000000E+00
  0.00000000E+00  0.00000000E+00  0.00000000E+00
  0.00000000E+00  0.00000000E+00  0.00000000E+00
  0.00000000E+00  0.00000000E+00  0.00000000E+00
