Ga8 O12                                 
    1.000000000000000     
     0.0000000000000000   12.2804737091000007    0.0000000000000000
     9.1427011490000005    0.0000000000000000    0.0000000000000000
     0.0000000000000000   -2.7682616411000001  -11.3006974810000003
   Ga   O    N    Fe
    47    71     1     1
Direct
  0.6585918050888395  0.0000000000000000  0.1577824015216933
  0.6586090792504109  0.0000000000000000  0.6569914777411654
  0.6578657128081247  0.3364973660023196  0.1603733844049415
  0.6585210143964559  0.3330627697779178  0.6557719610525083
  0.6578657128081247  0.6635026339976804  0.1603733844049415
  0.6585210143964559  0.6669372302220822  0.6557719610525083
  0.8412477757778376  0.1665975994995037  0.3428858912673149
  0.8409064737945116  0.1666236119852726  0.8433159566630550
  0.8355597352793609  0.5000000000000000  0.3441091617251786
  0.8406715297030658  0.5000000000000000  0.8432632933995095
  0.8412477757778376  0.8334024005004963  0.3428858912673149
  0.8409064737945116  0.8333763880147274  0.8433159566630550
  0.5909345230499596  0.1687078775113164  0.3976041815883420
  0.5917142406932214  0.1671777661842455  0.8994411436157108
  0.5911658194007785  0.5000000000000000  0.8975337440245710
  0.5909345230499596  0.8312921224886836  0.3976041815883420
  0.5917142406932214  0.8328222338157545  0.8994411436157108
  0.9090998405035364  0.0000000000000000  0.1025666283301234
  0.9091263736818149  0.0000000000000000  0.6024297449664360
  0.9085858660797044  0.3330980809591182  0.1026600716794306
  0.9102949550994381  0.3328643511410903  0.6032389980288571
  0.9085858660797044  0.6669019190408818  0.1026600716794306
  0.9102949550994381  0.6671356488589097  0.6032389980288571
  0.1592351870729303  0.1669052347031723  0.1571514398202538
  0.1594204414461586  0.1666868869917906  0.6564982227954630
  0.1587801976211125  0.5000000000000000  0.1568002637873178
  0.1596768639938730  0.5000000000000000  0.6562736202728772
  0.1592351870729303  0.8330947652968277  0.1571514398202538
  0.1594204414461586  0.8333131130082094  0.6564982227954630
  0.3419956159811690  0.0000000000000000  0.3431083757152322
  0.3412001076168139  0.0000000000000000  0.8425853024394314
  0.3422549642136801  0.3347699533328097  0.3434582099036945
  0.3410936503822768  0.3336775704485575  0.8436231671428303
  0.3422549642136801  0.6652300466671903  0.3434582099036945
  0.3410936503822768  0.6663224295514425  0.8436231671428303
  0.0919544825442955  0.0000000000000000  0.3978168259510824
  0.0918349492350359  0.0000000000000000  0.8977808450748199
  0.0896937513814109  0.3343706883182804  0.3969234697004609
  0.0912842198803077  0.3333139634614071  0.8976523550202984
  0.0896937513814109  0.6656293116817196  0.3969234697004609
  0.0912842198803077  0.6666860365385929  0.8976523550202984
  0.4072766683152764  0.1659254932106009  0.1010835887625916
  0.4087227250249086  0.1666359229589744  0.6021012934360002
  0.4091948273712802  0.5000000000000000  0.1030846978328057
  0.4095084002597886  0.5000000000000000  0.6015677508604043
  0.4072766683152764  0.8340745067893991  0.1010835887625916
  0.4087227250249086  0.8333640770410256  0.6021012934360002
  0.9969167223217426  0.1664671970406104  0.1262676890501169
  0.9973756039749588  0.1659914913891285  0.6286183021307679
  0.9962993907665947  0.5000000000000000  0.1263857041770819
  0.9972270116075634  0.5000000000000000  0.6284008655708959
  0.9969167223217426  0.8335328029593896  0.1262676890501169
  0.9973756039749588  0.8340085086108715  0.6286183021307679
  0.5040659687420543  0.0000000000000000  0.3734856666285964
  0.5040321784836266  0.0000000000000000  0.8732357747125405
  0.5049473539636722  0.3371621899438253  0.3733048182050567
  0.5032671579407904  0.3331942782911383  0.8715166756531119
  0.5049473539636722  0.6628378100561747  0.3733048182050567
  0.5032671579407904  0.6668057217088617  0.8715166756531119
  0.6728253065608527  0.1634008216523384  0.2815428283668595
  0.6725325453659181  0.1667451641705000  0.7810231084562815
  0.6724704959106518  0.5000000000000000  0.7796638421395485
  0.6728253065608527  0.8365991783476616  0.2815428283668595
  0.6725325453659181  0.8332548358295000  0.7810231084562815
  0.8282424547227407  0.0000000000000000  0.2195799152294811
  0.8275305121319505  0.0000000000000000  0.7196440480219195
  0.8295523936711007  0.3301813712732908  0.2203712427472055
  0.8275298331077821  0.3336786085344627  0.7192518206513938
  0.8295523936711007  0.6698186287267092  0.2203712427472055
  0.8275298331077821  0.6663213914655373  0.7192518206513938
  0.8338221794138008  0.0000000000000000  0.4460515417640494
  0.8319461719675871  0.0000000000000000  0.9458954405974538
  0.8336784552313290  0.3309475194573679  0.4476028898027380
  0.8329604823786170  0.3330564987512190  0.9454932556611837
  0.8336784552313290  0.6690524805426321  0.4476028898027380
  0.8329604823786170  0.6669435012487810  0.9454932556611837
  0.6673197828854001  0.1679478922318012  0.0561273468845584
  0.6675234276737072  0.1661099009016311  0.5546095614032822
  0.6703483350575254  0.5000000000000000  0.0520295089322786
  0.6623501215914303  0.5000000000000000  0.5524050563545870
  0.6673197828854001  0.8320521077681988  0.0561273468845584
  0.6675234276737072  0.8338900990983689  0.5546095614032822
  0.4951343260130940  0.0000000000000000  0.1265211551513730
  0.4960311234928554  0.0000000000000000  0.6277872655726853
  0.4936357856746127  0.3317294548553846  0.1229798399247812
  0.4959822426897915  0.3328505873381573  0.6275785417565345
  0.4936357856746127  0.6682705451446154  0.1229798399247812
  0.4959822426897915  0.6671494126618427  0.6275785417565345
  0.0044495296481699  0.1660850423214839  0.3730385905718734
  0.0038538532305168  0.1664491735396894  0.8727955024170910
  0.0011541453711104  0.5000000000000000  0.3729058173121729
  0.0037400289223939  0.5000000000000000  0.8726872212512617
  0.0044495296481699  0.8339149576785161  0.3730385905718734
  0.0038538532305168  0.8335508264603106  0.8727955024170910
  0.1731518903104572  0.0000000000000000  0.2805114587476680
  0.1725135300148679  0.0000000000000000  0.7799645756940450
  0.1723542360587089  0.3335951466892908  0.2805083120156624
  0.1726153986311729  0.3334592739485132  0.7802504882208723
  0.1723542360587089  0.6664048533107092  0.2805083120156624
  0.1726153986311729  0.6665407260514868  0.7802504882208723
  0.3275107232019536  0.1668512482837841  0.2197554218539892
  0.3273512593253685  0.1666792024176047  0.7192087380003684
  0.3267762655143756  0.5000000000000000  0.2194735815110818
  0.3276063157175386  0.5000000000000000  0.7190458398892261
  0.3275107232019536  0.8331487517162159  0.2197554218539892
  0.3273512593253685  0.8333207975823953  0.7192087380003684
  0.3327680747644806  0.1670949352986000  0.4453203517868971
  0.3303407132806200  0.1660097353919596  0.9444519683534054
  0.3301972303492278  0.5000000000000000  0.4459625018047149
  0.3315137493251115  0.5000000000000000  0.9456951140348266
  0.3327680747644806  0.8329050647014000  0.4453203517868971
  0.3303407132806200  0.8339902646080404  0.9444519683534054
  0.1687710671101783  0.0000000000000000  0.0544634694840411
  0.1691571274029045  0.0000000000000000  0.5542687303057647
  0.1682187145404512  0.3333066250652195  0.0542031535057390
  0.1673885643202908  0.3332759692380804  0.5536684523815865
  0.1682187145404512  0.6666933749347805  0.0542031535057390
  0.1673885643202908  0.6667240307619196  0.5536684523815865
  0.6681688401910151  0.5000000000000000  0.2793903396042978
  0.5968792526217612  0.5000000000000000  0.3943069624995843
 
  0.00000000E+00  0.00000000E+00  0.00000000E+00
  0.00000000E+00  0.00000000E+00  0.00000000E+00
  0.00000000E+00  0.00000000E+00  0.00000000E+00
  0.00000000E+00  0.00000000E+00  0.00000000E+00
  0.00000000E+00  0.00000000E+00  0.00000000E+00
  0.00000000E+00  0.00000000E+00  0.00000000E+00
  0.00000000E+00  0.00000000E+00  0.00000000E+00
  0.00000000E+00  0.00000000E+00  0.00000000E+00
  0.00000000E+00  0.00000000E+00  0.00000000E+00
  0.00000000E+00  0.00000000E+00  0.00000000E+00
  0.00000000E+00  0.00000000E+00  0.00000000E+00
  0.00000000E+00  0.00000000E+00  0.00000000E+00
  0.00000000E+00  0.00000000E+00  0.00000000E+00
  0.00000000E+00  0.00000000E+00  0.00000000E+00
  0.00000000E+00  0.00000000E+00  0.00000000E+00
  0.00000000E+00  0.00000000E+00  0.00000000E+00
  0.00000000E+00  0.00000000E+00  0.00000000E+00
  0.00000000E+00  0.00000000E+00  0.00000000E+00
  0.00000000E+00  0.00000000E+00  0.00000000E+00
  0.00000000E+00  0.00000000E+00  0.00000000E+00
  0.00000000E+00  0.00000000E+00  0.00000000E+00
  0.00000000E+00  0.00000000E+00  0.00000000E+00
  0.00000000E+00  0.00000000E+00  0.00000000E+00
  0.00000000E+00  0.00000000E+00  0.00000000E+00
  0.00000000E+00  0.00000000E+00  0.00000000E+00
  0.00000000E+00  0.00000000E+00  0.00000000E+00
  0.00000000E+00  0.00000000E+00  0.00000000E+00
  0.00000000E+00  0.00000000E+00  0.00000000E+00
  0.00000000E+00  0.00000000E+00  0.00000000E+00
  0.00000000E+00  0.00000000E+00  0.00000000E+00
  0.00000000E+00  0.00000000E+00  0.00000000E+00
  0.00000000E+00  0.00000000E+00  0.00000000E+00
  0.00000000E+00  0.00000000E+00  0.00000000E+00
  0.00000000E+00  0.00000000E+00  0.00000000E+00
  0.00000000E+00  0.00000000E+00  0.00000000E+00
  0.00000000E+00  0.00000000E+00  0.00000000E+00
  0.00000000E+00  0.00000000E+00  0.00000000E+00
  0.00000000E+00  0.00000000E+00  0.00000000E+00
  0.00000000E+00  0.00000000E+00  0.00000000E+00
  0.00000000E+00  0.00000000E+00  0.00000000E+00
  0.00000000E+00  0.00000000E+00  0.00000000E+00
  0.00000000E+00  0.00000000E+00  0.00000000E+00
  0.00000000E+00  0.00000000E+00  0.00000000E+00
  0.00000000E+00  0.00000000E+00  0.00000000E+00
  0.00000000E+00  0.00000000E+00  0.00000000E+00
  0.00000000E+00  0.00000000E+00  0.00000000E+00
  0.00000000E+00  0.00000000E+00  0.00000000E+00
  0.00000000E+00  0.00000000E+00  0.00000000E+00
  0.00000000E+00  0.00000000E+00  0.00000000E+00
  0.00000000E+00  0.00000000E+00  0.00000000E+00
  0.00000000E+00  0.00000000E+00  0.00000000E+00
  0.00000000E+00  0.00000000E+00  0.00000000E+00
  0.00000000E+00  0.00000000E+00  0.00000000E+00
  0.00000000E+00  0.00000000E+00  0.00000000E+00
  0.00000000E+00  0.00000000E+00  0.00000000E+00
  0.00000000E+00  0.00000000E+00  0.00000000E+00
  0.00000000E+00  0.00000000E+00  0.00000000E+00
  0.00000000E+00  0.00000000E+00  0.00000000E+00
  0.00000000E+00  0.00000000E+00  0.00000000E+00
  0.00000000E+00  0.00000000E+00  0.00000000E+00
  0.00000000E+00  0.00000000E+00  0.00000000E+00
  0.00000000E+00  0.00000000E+00  0.00000000E+00
  0.00000000E+00  0.00000000E+00  0.00000000E+00
  0.00000000E+00  0.00000000E+00  0.00000000E+00
  0.00000000E+00  0.00000000E+00  0.00000000E+00
  0.00000000E+00  0.00000000E+00  0.00000000E+00
  0.00000000E+00  0.00000000E+00  0.00000000E+00
  0.00000000E+00  0.00000000E+00  0.00000000E+00
  0.00000000E+00  0.00000000E+00  0.00000000E+00
  0.00000000E+00  0.00000000E+00  0.00000000E+00
  0.00000000E+00  0.00000000E+00  0.00000000E+00
  0.00000000E+00  0.00000000E+00  0.00000000E+00
  0.00000000E+00  0.00000000E+00  0.00000000E+00
  0.00000000E+00  0.00000000E+00  0.00000000E+00
  0.00000000E+00  0.00000000E+00  0.00000000E+00
  0.00000000E+00  0.00000000E+00  0.00000000E+00
  0.00000000E+00  0.00000000E+00  0.00000000E+00
  0.00000000E+00  0.00000000E+00  0.00000000E+00
  0.00000000E+00  0.00000000E+00  0.00000000E+00
  0.00000000E+00  0.00000000E+00  0.00000000E+00
  0.00000000E+00  0.00000000E+00  0.00000000E+00
  0.00000000E+00  0.00000000E+00  0.00000000E+00
  0.00000000E+00  0.00000000E+00  0.00000000E+00
  0.00000000E+00  0.00000000E+00  0.00000000E+00
  0.00000000E+00  0.00000000E+00  0.00000000E+00
  0.00000000E+00  0.00000000E+00  0.00000000E+00
  0.00000000E+00  0.00000000E+00  0.00000000E+00
  0.00000000E+00  0.00000000E+00  0.00000000E+00
  0.00000000E+00  0.00000000E+00  0.00000000E+00
  0.00000000E+00  0.00000000E+00  0.00000000E+00
  0.00000000E+00  0.00000000E+00  0.00000000E+00
  0.00000000E+00  0.00000000E+00  0.00000000E+00
  0.00000000E+00  0.00000000E+00  0.00000000E+00
  0.00000000E+00  0.00000000E+00  0.00000000E+00
  0.00000000E+00  0.00000000E+00  0.00000000E+00
  0.00000000E+00  0.00000000E+00  0.00000000E+00
  0.00000000E+00  0.00000000E+00  0.00000000E+00
  0.00000000E+00  0.00000000E+00  0.00000000E+00
  0.00000000E+00  0.00000000E+00  0.00000000E+00
  0.00000000E+00  0.00000000E+00  0.00000000E+00
  0.00000000E+00  0.00000000E+00  0.00000000E+00
  0.00000000E+00  0.00000000E+00  0.00000000E+00
  0.00000000E+00  0.00000000E+00  0.00000000E+00
  0.00000000E+00  0.00000000E+00  0.00000000E+00
  0.00000000E+00  0.00000000E+00  0.00000000E+00
  0.00000000E+00  0.00000000E+00  0.00000000E+00
  0.00000000E+00  0.00000000E+00  0.00000000E+00
  0.00000000E+00  0.00000000E+00  0.00000000E+00
  0.00000000E+00  0.00000000E+00  0.00000000E+00
  0.00000000E+00  0.00000000E+00  0.00000000E+00
  0.00000000E+00  0.00000000E+00  0.00000000E+00
  0.00000000E+00  0.00000000E+00  0.00000000E+00
  0.00000000E+00  0.00000000E+00  0.00000000E+00
  0.00000000E+00  0.00000000E+00  0.00000000E+00
  0.00000000E+00  0.00000000E+00  0.00000000E+00
  0.00000000E+00  0.00000000E+00  0.00000000E+00
  0.00000000E+00  0.00000000E+00  0.00000000E+00
  0.00000000E+00  0.00000000E+00  0.00000000E+00
  0.00000000E+00  0.00000000E+00  0.00000000E+00
  0.00000000E+00  0.00000000E+00  0.00000000E+00
