Ga8 O12                                 
    1.000000000000000     
     0.0000000000000000   12.2804737091000007    0.0000000000000000
     9.1427011490000005    0.0000000000000000    0.0000000000000000
     0.0000000000000000   -2.7682616411000001  -11.3006974810000003
   Ga   O    Cu   N 
    47    71     1     1
Direct
  0.6585148709060694  0.0000001617350082  0.1587583929587683
  0.6586080410642242 -0.0000004360966648  0.6570405219395431
  0.6559288720865574  0.3360304895638123  0.1576776832576946
  0.6578309089073531  0.3325197609947967  0.6585739855472396
  0.6559290571499949  0.6639690615112229  0.1576755204581317
  0.6578297048478294  0.6674803767780122  0.6585737594779728
  0.8404501010622893  0.1667831993675063  0.3429470125666282
  0.8415406347208498  0.1665130644368455  0.8440012379501504
  0.8358239589996035  0.5000001538413932  0.3434517104793419
  0.8404719842748681  0.5000002059222375  0.8447247714999975
  0.8404493136879401  0.8332150455800289  0.3429456392856974
  0.8415407426983057  0.8334875170337821  0.8440018056510546
  0.5914449492770432  0.1686128002145484  0.3981898921717816
  0.5906591789155371  0.1670950974341043  0.8993973390425916
  0.5894605459586096  0.4999990319537269  0.8975508393384166
  0.5914452192143291  0.8313860814473311  0.3981891971624905
  0.5906585967000388  0.8329050647648771  0.8993970778143844
  0.9098089217085442  0.0000004153117874  0.1031870195207264
  0.9086023573168444  0.0000001635186517  0.6027500816313217
  0.9092831806845975  0.3333461989141688  0.1035858744619945
  0.9090985449548308  0.3330790608629089  0.6034679533348545
  0.9092836975389434  0.6666543594781401  0.1035864708899901
  0.9090973613422610  0.6669208021274061  0.6034686973841761
  0.1597335804668411  0.1671745093616264  0.1579150298277880
  0.1583799878980206  0.1667324192829150  0.6558975499479305
  0.1598079024555341  0.5000001497319867  0.1578138439742078
  0.1590006175399912  0.5000003153972900  0.6556644181266769
  0.1597336749165478  0.8328262935646543  0.1579144403015299
  0.1583792731869057  0.8332672007755858  0.6558971408420817
  0.3428967666956753 -0.0000005537881267  0.3430526852023301
  0.3401313877811749 -0.0000012235812401  0.8415324300812151
  0.3465862827713229  0.3350488345123738  0.3434593345083221
  0.3400083772984742  0.3335812664323869  0.8427595670873121
  0.3465864424847989  0.6649521692388217  0.3434583682715476
  0.3400087290590482  0.6664151311794583  0.8427583428816036
  0.0908636415250596 -0.0000002080893338  0.3971545661577319
  0.0922534912925392  0.0000002764793321  0.8981418286797133
  0.0903765775194657  0.3343338575808280  0.3962867739260448
  0.0912588520712229  0.3334757288349153  0.8978985040062315
  0.0903770090954986  0.6656662167748221  0.3962859302003592
  0.0912589697993368  0.6665243270924757  0.8978983480669428
  0.4064004051568104  0.1654918977287315  0.1002079980835895
  0.4082443469325477  0.1663287674025805  0.6016884875589711
  0.4085891074952281  0.4999996993265732  0.1020062894988727
  0.4100922317112440  0.5000006297994681  0.6009848588915910
  0.4064014767290598  0.8345078673359864  0.1002092179856981
  0.4082444258710230  0.8336717741656384  0.6016885194930073
  0.9973707109931100  0.1666251958268478  0.1275717307313115
  0.9963620860355943  0.1663586479807710  0.6281961426850738
  0.9970345718371023  0.4999998474388473  0.1274366788288643
  0.9963447438951040  0.5000005850559442  0.6279628456112455
  0.9973708269234842  0.8333751996557172  0.1275717732788311
  0.9963616135322685  0.8336408363216812  0.6281965182280276
  0.5046380791948770 -0.0000002116448830  0.3742152994324159
  0.5031230254462257  0.0000001279830452  0.8731345212591637
  0.5066556336672892  0.3333125903231549  0.3702354032603264
  0.5020247765968208  0.3327789329657776  0.8710957815968979
  0.5066539310950919  0.6666892968711040  0.3702350091569125
  0.5020253889953512  0.6672201587852894  0.8710958820517489
  0.6733177663466048  0.1628170367774396  0.2813236687113869
  0.6727354138758607  0.1663766522276989  0.7823557967150697
  0.6735616460924176  0.4999995622922199  0.7840960008663523
  0.6733177079877258  0.8371830022321896  0.2813233596623627
  0.6727348379318712  0.8336240939853670  0.7823562421659606
  0.8286211345774405 -0.0000002164473824  0.2196159425024677
  0.8277878274564768 -0.0000001728618746  0.7205517290469531
  0.8293952427881964  0.3310962725760230  0.2207281655580140
  0.8277041964248614  0.3333046787891217  0.7205178664329863
  0.8293954503178351  0.6689040138059564  0.2207286888760009
  0.8277030922274804  0.6666972755728094  0.7205167095708086
  0.8337784658585295 -0.0000001340541919  0.4462765860678355
  0.8329908226312560 -0.0000000007444543  0.9466021461025937
  0.8319995638196439  0.3319669028817031  0.4475941414332893
  0.8347663525672462  0.3322691035865716  0.9465512414163454
  0.8320011025814722  0.6680289019182760  0.4475969862486062
  0.8347663469103406  0.6677311140669688  0.9465512320278990
  0.6671189204587649  0.1674554331409670  0.0557671642313540
  0.6679420254688675  0.1661845765534428  0.5559681961631918
  0.6726816914105613  0.4999995089180527  0.0492902916352066
  0.6607283085194670  0.4999998643318514  0.5617130620067254
  0.6671186600483361  0.8325442545118209  0.0557666825791177
  0.6679414999632661  0.8338148070874846  0.5559673096919210
  0.4947861952818242  0.0000000672785648  0.1258102107622328
  0.4958579195014476  0.0000012399262664  0.6286829401603728
  0.4920492973850354  0.3313870525453389  0.1188388360161980
  0.4953078347753861  0.3321241061027465  0.6291125325919306
  0.4920500178238648  0.6686126537364047  0.1188409201125943
  0.4953075185743070  0.6678784078155452  0.6291133574174669
  0.0038733466772145  0.1667444760761567  0.3731593248520826
  0.0043913851302232  0.1662967399355668  0.8729866535816982
  0.0014570767615175  0.5000004522355740  0.3731297427272532
  0.0037494918541352  0.5000001638959295  0.8727900051987978
  0.0038731409251321  0.8332552293212120  0.3731589843183778
  0.0043909460481426  0.8337034299622241  0.8729868217166226
  0.1732653583373898  0.0000002367121595  0.2810976330939132
  0.1714233848389445 -0.0000005917046345  0.7791523618491502
  0.1737606335850308  0.3336481356698186  0.2809030398761151
  0.1717312925654298  0.3334294160697896  0.7796327046567554
  0.1737602992061389  0.6663526341610282  0.2809019637370050
  0.1717309237319372  0.6665706601262418  0.7796331077623194
  0.3272448184586993  0.1660568774334454  0.2190677822928985
  0.3262904764830873  0.1662434594758064  0.7184080383945298
  0.3273955975840666  0.5000004107797608  0.2189292341722271
  0.3268780697334307  0.5000002147991918  0.7179717956798550
  0.3272448317842349  0.8339434420668411  0.2190683797853815
  0.3262900961765165  0.8337565926666695  0.7184078367801628
  0.3329515156649215  0.1673529692310521  0.4449440115347261
  0.3289439100828419  0.1654825163617979  0.9435130496401400
  0.3315696749237279  0.5000008635826928  0.4454239056001884
  0.3300109136221392  0.4999992293489600  0.9445375750915835
  0.3329521901397193  0.8326470707012169  0.4449436668547644
  0.3289453690779830  0.8345190440370037  0.9435138806190362
  0.1683034111756317 -0.0000002703260618  0.0548698019733651
  0.1678713436055152 -0.0000001039548673  0.5536437765184172
  0.1681548794710033  0.3333899967833882  0.0543487870418260
  0.1668150646794210  0.3332058605246620  0.5533510928484657
  0.1681550947130319  0.6666109516789834  0.0543489794737312
  0.1668148496142872  0.6667943874282012  0.5533506381449158
  0.6121974459938764  0.4999990466990490  0.3997051545456459
  0.6667566177650877  0.5000001688695342  0.2692977193177387
 
  0.00000000E+00  0.00000000E+00  0.00000000E+00
  0.00000000E+00  0.00000000E+00  0.00000000E+00
  0.00000000E+00  0.00000000E+00  0.00000000E+00
  0.00000000E+00  0.00000000E+00  0.00000000E+00
  0.00000000E+00  0.00000000E+00  0.00000000E+00
  0.00000000E+00  0.00000000E+00  0.00000000E+00
  0.00000000E+00  0.00000000E+00  0.00000000E+00
  0.00000000E+00  0.00000000E+00  0.00000000E+00
  0.00000000E+00  0.00000000E+00  0.00000000E+00
  0.00000000E+00  0.00000000E+00  0.00000000E+00
  0.00000000E+00  0.00000000E+00  0.00000000E+00
  0.00000000E+00  0.00000000E+00  0.00000000E+00
  0.00000000E+00  0.00000000E+00  0.00000000E+00
  0.00000000E+00  0.00000000E+00  0.00000000E+00
  0.00000000E+00  0.00000000E+00  0.00000000E+00
  0.00000000E+00  0.00000000E+00  0.00000000E+00
  0.00000000E+00  0.00000000E+00  0.00000000E+00
  0.00000000E+00  0.00000000E+00  0.00000000E+00
  0.00000000E+00  0.00000000E+00  0.00000000E+00
  0.00000000E+00  0.00000000E+00  0.00000000E+00
  0.00000000E+00  0.00000000E+00  0.00000000E+00
  0.00000000E+00  0.00000000E+00  0.00000000E+00
  0.00000000E+00  0.00000000E+00  0.00000000E+00
  0.00000000E+00  0.00000000E+00  0.00000000E+00
  0.00000000E+00  0.00000000E+00  0.00000000E+00
  0.00000000E+00  0.00000000E+00  0.00000000E+00
  0.00000000E+00  0.00000000E+00  0.00000000E+00
  0.00000000E+00  0.00000000E+00  0.00000000E+00
  0.00000000E+00  0.00000000E+00  0.00000000E+00
  0.00000000E+00  0.00000000E+00  0.00000000E+00
  0.00000000E+00  0.00000000E+00  0.00000000E+00
  0.00000000E+00  0.00000000E+00  0.00000000E+00
  0.00000000E+00  0.00000000E+00  0.00000000E+00
  0.00000000E+00  0.00000000E+00  0.00000000E+00
  0.00000000E+00  0.00000000E+00  0.00000000E+00
  0.00000000E+00  0.00000000E+00  0.00000000E+00
  0.00000000E+00  0.00000000E+00  0.00000000E+00
  0.00000000E+00  0.00000000E+00  0.00000000E+00
  0.00000000E+00  0.00000000E+00  0.00000000E+00
  0.00000000E+00  0.00000000E+00  0.00000000E+00
  0.00000000E+00  0.00000000E+00  0.00000000E+00
  0.00000000E+00  0.00000000E+00  0.00000000E+00
  0.00000000E+00  0.00000000E+00  0.00000000E+00
  0.00000000E+00  0.00000000E+00  0.00000000E+00
  0.00000000E+00  0.00000000E+00  0.00000000E+00
  0.00000000E+00  0.00000000E+00  0.00000000E+00
  0.00000000E+00  0.00000000E+00  0.00000000E+00
  0.00000000E+00  0.00000000E+00  0.00000000E+00
  0.00000000E+00  0.00000000E+00  0.00000000E+00
  0.00000000E+00  0.00000000E+00  0.00000000E+00
  0.00000000E+00  0.00000000E+00  0.00000000E+00
  0.00000000E+00  0.00000000E+00  0.00000000E+00
  0.00000000E+00  0.00000000E+00  0.00000000E+00
  0.00000000E+00  0.00000000E+00  0.00000000E+00
  0.00000000E+00  0.00000000E+00  0.00000000E+00
  0.00000000E+00  0.00000000E+00  0.00000000E+00
  0.00000000E+00  0.00000000E+00  0.00000000E+00
  0.00000000E+00  0.00000000E+00  0.00000000E+00
  0.00000000E+00  0.00000000E+00  0.00000000E+00
  0.00000000E+00  0.00000000E+00  0.00000000E+00
  0.00000000E+00  0.00000000E+00  0.00000000E+00
  0.00000000E+00  0.00000000E+00  0.00000000E+00
  0.00000000E+00  0.00000000E+00  0.00000000E+00
  0.00000000E+00  0.00000000E+00  0.00000000E+00
  0.00000000E+00  0.00000000E+00  0.00000000E+00
  0.00000000E+00  0.00000000E+00  0.00000000E+00
  0.00000000E+00  0.00000000E+00  0.00000000E+00
  0.00000000E+00  0.00000000E+00  0.00000000E+00
  0.00000000E+00  0.00000000E+00  0.00000000E+00
  0.00000000E+00  0.00000000E+00  0.00000000E+00
  0.00000000E+00  0.00000000E+00  0.00000000E+00
  0.00000000E+00  0.00000000E+00  0.00000000E+00
  0.00000000E+00  0.00000000E+00  0.00000000E+00
  0.00000000E+00  0.00000000E+00  0.00000000E+00
  0.00000000E+00  0.00000000E+00  0.00000000E+00
  0.00000000E+00  0.00000000E+00  0.00000000E+00
  0.00000000E+00  0.00000000E+00  0.00000000E+00
  0.00000000E+00  0.00000000E+00  0.00000000E+00
  0.00000000E+00  0.00000000E+00  0.00000000E+00
  0.00000000E+00  0.00000000E+00  0.00000000E+00
  0.00000000E+00  0.00000000E+00  0.00000000E+00
  0.00000000E+00  0.00000000E+00  0.00000000E+00
  0.00000000E+00  0.00000000E+00  0.00000000E+00
  0.00000000E+00  0.00000000E+00  0.00000000E+00
  0.00000000E+00  0.00000000E+00  0.00000000E+00
  0.00000000E+00  0.00000000E+00  0.00000000E+00
  0.00000000E+00  0.00000000E+00  0.00000000E+00
  0.00000000E+00  0.00000000E+00  0.00000000E+00
  0.00000000E+00  0.00000000E+00  0.00000000E+00
  0.00000000E+00  0.00000000E+00  0.00000000E+00
  0.00000000E+00  0.00000000E+00  0.00000000E+00
  0.00000000E+00  0.00000000E+00  0.00000000E+00
  0.00000000E+00  0.00000000E+00  0.00000000E+00
  0.00000000E+00  0.00000000E+00  0.00000000E+00
  0.00000000E+00  0.00000000E+00  0.00000000E+00
  0.00000000E+00  0.00000000E+00  0.00000000E+00
  0.00000000E+00  0.00000000E+00  0.00000000E+00
  0.00000000E+00  0.00000000E+00  0.00000000E+00
  0.00000000E+00  0.00000000E+00  0.00000000E+00
  0.00000000E+00  0.00000000E+00  0.00000000E+00
  0.00000000E+00  0.00000000E+00  0.00000000E+00
  0.00000000E+00  0.00000000E+00  0.00000000E+00
  0.00000000E+00  0.00000000E+00  0.00000000E+00
  0.00000000E+00  0.00000000E+00  0.00000000E+00
  0.00000000E+00  0.00000000E+00  0.00000000E+00
  0.00000000E+00  0.00000000E+00  0.00000000E+00
  0.00000000E+00  0.00000000E+00  0.00000000E+00
  0.00000000E+00  0.00000000E+00  0.00000000E+00
  0.00000000E+00  0.00000000E+00  0.00000000E+00
  0.00000000E+00  0.00000000E+00  0.00000000E+00
  0.00000000E+00  0.00000000E+00  0.00000000E+00
  0.00000000E+00  0.00000000E+00  0.00000000E+00
  0.00000000E+00  0.00000000E+00  0.00000000E+00
  0.00000000E+00  0.00000000E+00  0.00000000E+00
  0.00000000E+00  0.00000000E+00  0.00000000E+00
  0.00000000E+00  0.00000000E+00  0.00000000E+00
  0.00000000E+00  0.00000000E+00  0.00000000E+00
  0.00000000E+00  0.00000000E+00  0.00000000E+00
  0.00000000E+00  0.00000000E+00  0.00000000E+00
  0.00000000E+00  0.00000000E+00  0.00000000E+00
