       N       E                     dE             d eps       ncg     rms          ort
SDA:   1    -0.281250114534E+01   -0.28125E+01    0.00000E+00    48   0.497E-01 0.000E+00
CGA:   2    -0.283215892419E+01   -0.19658E-01   -0.19634E-01    48   0.973E-02 0.123E-03
CGA:   3    -0.283800131693E+01   -0.58424E-02   -0.58593E-02    48   0.284E-02-0.451E-04
CGA:   4    -0.283949874512E+01   -0.14974E-02    0.20670E-02    48   0.628E-02 0.369E-02
CGA:   5    -0.284331186501E+01   -0.38131E-02    0.22267E-02    48   0.179E-01 0.102E-01
CGA:   6    -0.285382171506E+01   -0.10510E-01    0.73476E-02    48   0.459E-01 0.269E-01
CGA:   7    -0.287651336932E+01   -0.22692E-01    0.67017E-01    48   0.738E-01 0.484E-01
CGA:   8    -0.291087679872E+01   -0.34363E-01   -0.34101E-01    48   0.873E-02 0.763E-02
CGA:   9    -0.291244113723E+01   -0.15643E-02   -0.18070E-02    48   0.917E-03 0.122E-02
CGA:  10    -0.291263113893E+01   -0.19000E-03   -0.20987E-03    48   0.117E-03 0.189E-03
CGA:  11    -0.291267771073E+01   -0.46572E-04   -0.42921E-04    48   0.149E-04 0.351E-04
CGA:  12    -0.291268703976E+01   -0.93290E-05   -0.91340E-05    48   0.147E-05 0.792E-06
   1 F= -.29126870E+01 E0= -.29126870E+01  d E =-.402793E-11
