 vasp.6.4.2 20Jul23 (build Nov 12 2023 22:16:35) complex                         
 executed on              LinuxNV date 2025.05.31  20:23:06
 running    4 mpi-ranks, on    1 nodes
 distrk:  each k-point on    1 cores,    4 groups
 distr:  one band on NCORE=   1 cores,    1 groups
 OpenACC runtime initialized ...    4 GPUs detected


--------------------------------------------------------------------------------------------------------


 INCAR:
   PREC = Normal
   ENCUT = 450
   NELM = 500
   IBRION = -1
   ISPIN = 1
   NSW = 0
   ISIF = 2
   EDIFF = 1E-5
   EDIFFG = -5E-3
   ISTART = 1
   ICHARG = 1
   ISMEAR = 0
   SIGMA = 0.05
   LWAVE = .T.
   LCHARG = .T.
   LREAL = Auto
   LPLANE = .TRUE.
   NPAR = 1
   KPAR = 4
   NCORE = 1
   ALGO = All
   LHFCALC = .TRUE.
   HSE06 = .TRUE.
   HFSCREEN = 0.2
   TIME = 0.4
   AEXX = 0.32
   LMAXFOCK = 4
   PRECFOCK = Fast
   ICORELEVEL = 1
   ISYM = 0

 POTCAR:    PAW_PBE Mg 13Apr2007                  
 POTCAR:    PAW_PBE Mg 13Apr2007                  
   SHA256 =  a90315392b5cf46bd986ff2010bfd53a40dec98e36f8d1f6277412e9d0e81a9f Mg/POTCAR             
   COPYR  = (c) Copyright 13Apr2007 Georg Kresse                                                    
   COPYR  = This file is part of the software VASP. Any use, copying, and all other rights are regul
   COPYR  = If you do not have a valid VASP license, you may not use, copy or distribute this file. 
   VRHFIN =Mg: s2p0                                                                                 
   LEXCH  = PE                                                                                      
   EATOM  =    23.0369 eV,    1.6932 Ry                                                             
                                                                                                    
   TITEL  = PAW_PBE Mg 13Apr2007                                                                    
   LULTRA =        F    use ultrasoft PP ?                                                          
   IUNSCR =        1    unscreen: 0-lin 1-nonlin 2-no                                               
   RPACOR =    1.500    partial core radius                                                         
   POMASS =   24.305; ZVAL   =    2.000    mass and valenz                                          
   RCORE  =    2.000    outmost cutoff radius                                                       
   RWIGS  =    2.880; RWIGS  =    1.524    wigner-seitz radius (au A)                               
   ENMAX  =  200.000; ENMIN  =  100.000 eV                                                          
   RCLOC  =    1.506    cutoff for local pot                                                        
   LCOR   =        T    correct aug charges                                                         
   LPAW   =        T    paw PP                                                                      
   EAUG   =  454.734                                                                                
   DEXC   =    0.000                                                                                
   RMAX   =    2.045    core radius for proj-oper                                                   
   RAUG   =    1.300    factor for augmentation sphere                                              
   RDEP   =    2.025    radius for radial grids                                                     
   RDEPT  =    1.942    core radius for aug-charge                                                  
                                                                                                    
   Atomic configuration                                                                             
    6 entries                                                                                       
     n  l   j            E        occ.                                                              
     1  0  0.50     -1259.6230   2.0000                                                             
     2  0  0.50       -79.8442   2.0000                                                             
     2  1  1.50       -46.6121   6.0000                                                             
     3  0  0.50        -4.7055   2.0000                                                             
     3  1  0.50        -1.3660   0.0000                                                             
     3  2  1.50        -1.3606   0.0000                                                             
   Description                                                                                      
     l       E           TYP  RCUT    TYP  RCUT                                                     
     0     -4.7054661     23  2.000                                                                 
     0     27.2116520     23  2.000                                                                 
     1      1.3605826     23  2.000                                                                 
     1     27.2116520     23  2.000                                                                 
     2     -1.3605826     23  2.000                                                                 
  local pseudopotential read in
  partial core-charges read in
  partial kinetic energy density read in
  atomic valenz-charges read in
  non local Contribution for L=            0  read in
    real space projection operators read in
  non local Contribution for L=            0  read in
    real space projection operators read in
  non local Contribution for L=            1  read in
    real space projection operators read in
  non local Contribution for L=            1  read in
    real space projection operators read in
  non local Contribution for L=            2  read in
    real space projection operators read in
    PAW grid and wavefunctions read in
 
   number of l-projection  operators is LMAX  =            5
   number of lm-projection operators is LMMAX =           13
 
 -----------------------------------------------------------------------------
|                                                                             |
|               ----> ADVICE to this user running VASP <----                  |
|                                                                             |
|     You have a (more or less) 'small supercell' and for smaller cells       |
|     it is recommended to use the reciprocal-space projection scheme!        |
|     The real-space optimization is not efficient for small cells and it     |
|     is also less accurate ...                                               |
|     Therefore, set LREAL=.FALSE. in the INCAR file.                         |
|                                                                             |
 -----------------------------------------------------------------------------

 Optimization of the real space projectors (new method)

 maximal supplied QI-value         = 18.90
 optimisation between [QCUT,QGAM] = [ 10.77, 21.73] = [ 32.49,132.25] Ry 
 Optimized for a Real-space Cutoff    1.26 Angstroem

   l    n(q)    QCUT    max X(q) W(low)/X(q) W(high)/X(q)  e(spline) 
   0      8    10.771    28.265    0.12E-03    0.25E-03    0.47E-07
   0      8    10.771    10.429    0.91E-04    0.19E-03    0.38E-07
   1      8    10.771    13.073    0.49E-03    0.23E-04    0.81E-07
   1      8    10.771     9.625    0.41E-03    0.20E-04    0.67E-07
   2      7    10.771     4.652    0.11E-03    0.20E-03    0.42E-07
  PAW_PBE Mg 13Apr2007                  :
 energy of atom  1       EATOM=  -23.0369
 kinetic energy error for atom=    0.0001 (will be added to EATOM!!)
 
 
 POSCAR: Mg2
  positions in direct lattice
  velocities in cartesian coordinates
 exchange correlation table for  LEXCH =        8
   RHO(1)=    0.500       N(1)  =     2000
   RHO(2)=  100.500       N(2)  =     4000
 


--------------------------------------------------------------------------------------------------------


 ion  position               nearest neighbor table
   1  0.000  0.000  0.000-   2 3.07   2 3.07   2 3.07   2 3.07   2 3.07   2 3.07   2 3.07   2 3.07

   2  0.500  0.500  0.500-   1 3.07   1 3.07   1 3.07   1 3.07   1 3.07   1 3.07   1 3.07   1 3.07

 

IMPORTANT INFORMATION: All symmetrisations will be switched off!
NOSYMM: (Re-)initialisation of all symmetry stuff for point group C_1.


----------------------------------------------------------------------------------------

                                     Primitive cell                                     

  volume of cell :      44.5701

  direct lattice vectors                    reciprocal lattice vectors
     3.545528993  0.000000000  0.000000000     0.282045360  0.000000000 -0.000000000
    -0.000000000  3.545528993  0.000000000     0.000000000  0.282045360  0.000000000
     0.000000000  0.000000000  3.545528993    -0.000000000 -0.000000000  0.282045360

  length of vectors
     3.545528993  3.545528993  3.545528993     0.282045360  0.282045360  0.282045360

  position of ions in fractional coordinates (direct lattice)
     0.000000000  0.000000000  0.000000000
     0.500000000  0.500000000  0.500000000

  ion indices of the primitive-cell ions
   primitive index   ion index
                 1           1
                 2           2

----------------------------------------------------------------------------------------

 
 
 KPOINTS: Automatic mesh                          

Automatic generation of k-mesh.
 Grid dimensions read from file:
 generate k-points for:    2    2    2

 Generating k-lattice:

  Cartesian coordinates                     Fractional coordinates (reciprocal lattice)
     0.141022680  0.000000000 -0.000000000     0.500000000  0.000000000  0.000000000
     0.000000000  0.141022680  0.000000000     0.000000000  0.500000000  0.000000000
    -0.000000000 -0.000000000  0.141022680    -0.000000000 -0.000000000  0.500000000

  Length of vectors
     0.141022680  0.141022680  0.141022680

  Shift w.r.t. Gamma in fractional coordinates (k-lattice)
     0.000000000  0.000000000  0.000000000

 
 Subroutine IBZKPT returns following result:
 ===========================================
 
 Found      8 irreducible k-points:
 
 Following reciprocal coordinates:
            Coordinates               Weight
  0.000000  0.000000  0.000000      1.000000
  0.500000  0.000000  0.000000      1.000000
  0.000000  0.500000  0.000000      1.000000
  0.000000  0.000000  0.500000      1.000000
  0.500000  0.500000  0.000000      1.000000
  0.000000  0.500000  0.500000      1.000000
  0.500000  0.000000  0.500000      1.000000
  0.500000  0.500000  0.500000      1.000000
 
 Following cartesian coordinates:
            Coordinates               Weight
  0.000000  0.000000  0.000000      1.000000
  0.141023  0.000000  0.000000      1.000000
  0.000000  0.141023  0.000000      1.000000
  0.000000  0.000000  0.141023      1.000000
  0.141023  0.141023  0.000000      1.000000
  0.000000  0.141023  0.141023      1.000000
  0.141023  0.000000  0.141023      1.000000
  0.141023  0.141023  0.141023      1.000000
 
 
 Subroutine IBZKPT_HF returns following result:
 ==============================================
 
 Found      8 k-points in 1st BZ
 the following      8 k-points will be used (e.g. in the exchange kernel)
 Following reciprocal coordinates:   # in IRBZ
  0.000000  0.000000  0.000000    0.12500000   1 t-inv F
  0.500000  0.000000  0.000000    0.12500000   2 t-inv F
  0.000000  0.500000  0.000000    0.12500000   3 t-inv F
  0.000000  0.000000  0.500000    0.12500000   4 t-inv F
  0.500000  0.500000  0.000000    0.12500000   5 t-inv F
  0.000000  0.500000  0.500000    0.12500000   6 t-inv F
  0.500000  0.000000  0.500000    0.12500000   7 t-inv F
  0.500000  0.500000  0.500000    0.12500000   8 t-inv F


--------------------------------------------------------------------------------------------------------




 Dimension of arrays:
   k-points           NKPTS =      8   k-points in BZ     NKDIM =      8   number of bands    NBANDS=      6
   number of dos      NEDOS =    301   number of ions     NIONS =      2
   non local maximal  LDIM  =      5   non local SUM 2l+1 LMDIM =     13
   total plane-waves  NPLWV =   5832
   max r-space proj   IRMAX =   1156   max aug-charges    IRDMAX=   5757
   dimension x,y,z NGX =    18 NGY =   18 NGZ =   18
   dimension x,y,z NGXF=    36 NGYF=   36 NGZF=   36
   support grid    NGXF=    36 NGYF=   36 NGZF=   36
   ions per type =               2
   NGX,Y,Z   is equivalent  to a cutoff of   8.44,  8.44,  8.44 a.u.
   NGXF,Y,Z  is equivalent  to a cutoff of  16.88, 16.88, 16.88 a.u.

 SYSTEM =  unknown system                          
 POSCAR =  Mg2                                     

 Startparameter for this run:
   NWRITE =      2    write-flag & timer
   PREC   = normal    normal or accurate (medium, high low for compatibility)
   ISTART =      1    job   : 0-new  1-cont  2-samecut
   ICHARG =      1    charge: 1-file 2-atom 10-const
   ISPIN  =      1    spin polarized calculation?
   LNONCOLLINEAR =      F non collinear calculations
   LSORBIT =      F    spin-orbit coupling
   INIWAV =      1    electr: 0-lowe 1-rand  2-diag
   LASPH  =      F    aspherical Exc in radial PAW
 Electronic Relaxation 1
   ENCUT  =  450.0 eV  33.07 Ry    5.75 a.u.   6.13  6.13  6.13*2*pi/ulx,y,z
   ENINI  =  450.0     initial cutoff
   ENAUG  =  454.7 eV  augmentation charge cutoff
   NELM   =    500;   NELMIN=  2; NELMDL=  0     # of ELM steps 
   EDIFF  = 0.1E-04   stopping-criterion for ELM
   LREAL  =      T    real-space projection
   NLSPLINE    = F    spline interpolate recip. space projectors
   LCOMPAT=      F    compatible to vasp.4.4
   GGA_COMPAT  = T    GGA compatible to vasp.4.4-vasp.4.6
   LMAXPAW     = -100 max onsite density
   LMAXMIX     =    2 max onsite mixed and CHGCAR
   VOSKOWN=      0    Vosko Wilk Nusair interpolation
   ROPT   =   -0.00050
 Ionic relaxation
   EDIFFG = -.5E-02   stopping-criterion for IOM
   NSW    =      0    number of steps for IOM
   NBLOCK =      1;   KBLOCK =      1    inner block; outer block 
   IBRION =     -1    ionic relax: 0-MD 1-quasi-New 2-CG
   NFREE  =      0    steps in history (QN), initial steepest desc. (CG)
   ISIF   =      2    stress and relaxation
   IWAVPR =     10    prediction:  0-non 1-charg 2-wave 3-comb
   ISYM   =      0    0-nonsym 1-usesym 2-fastsym
   LCORR  =      T    Harris-Foulkes like correction to forces

   POTIM  = 0.5000    time-step for ionic-motion
   TEIN   =    0.0    initial temperature
   TEBEG  =    0.0;   TEEND  =   0.0 temperature during run
   SMASS  =  -3.00    Nose mass-parameter (am)
   estimated Nose-frequenzy (Omega)   =  0.10E-29 period in steps = 0.13E+47 mass=  -0.287E-27a.u.
   SCALEE = 1.0000    scale energy and forces
   NPACO  =    256;   APACO  = 10.0  distance and # of slots for P.C.
   PSTRESS=    0.0 pullay stress

  Mass of Ions in am
   POMASS =  24.30
  Ionic Valenz
   ZVAL   =   2.00
  Atomic Wigner-Seitz radii
   RWIGS  =  -1.00
  virtual crystal weights 
   VCA    =   1.00
   NELECT =       4.0000    total number of electrons
   NUPDOWN=      -1.0000    fix difference up-down

 DOS related values:
   EMIN   =  10.00;   EMAX   =-10.00  energy-range for DOS
   EFERMI =   0.00;   METHOD = LEGACY      
   ISMEAR =     0;   SIGMA  =   0.05  broadening in eV -4-tet -1-fermi 0-gaus

 Electronic relaxation 2 (details)
   IALGO  =     58    algorithm
   LDIAG  =      T    sub-space diagonalisation (order eigenvalues)
   LSUBROT=      F    optimize rotation matrix (better conditioning)
   TURBO    =      0    0=normal 1=particle mesh
   IRESTART =      0    0=no restart 2=restart with 2 vectors
   NREBOOT  =      0    no. of reboots
   NMIN     =      0    reboot dimension
   EREF     =   0.00    reference energy to select bands
   IMIX   =      4    mixing-type and parameters
     AMIX     =   0.40;   BMIX     =  1.00
     AMIX_MAG =   1.60;   BMIX_MAG =  1.00
     AMIN     =   0.10
     WC   =   100.;   INIMIX=   1;  MIXPRE=   1;  MAXMIX= -45

 Intra band minimization:
   WEIMIN = 0.0000     energy-eigenvalue tresh-hold
   EBREAK =  0.42E-06  absolut break condition
   DEPER  =   0.30     relativ break condition  

   TIME   =   0.40     timestep for ELM

  volume/ion in A,a.u.               =      22.29       150.39
  Fermi-wavevector in a.u.,A,eV,Ry     =   0.732960  1.385094  7.309469  0.537231
  Thomas-Fermi vector in A             =   1.825552
 
 Write flags
   LWAVE        =      T    write WAVECAR
   LDOWNSAMPLE  =      F    k-point downsampling of WAVECAR
   LCHARG       =      T    write CHGCAR
   LVTOT        =      F    write LOCPOT, total local potential
   LVHAR        =      F    write LOCPOT, Hartree potential only
   LELF         =      F    write electronic localiz. function (ELF)
   LORBIT       =      0    0 simple, 1 ext, 2 COOP (PROOUT), +10 PAW based schemes


 Dipole corrections
   LMONO  =      F    monopole corrections only (constant potential shift)
   LDIPOL =      F    correct potential (dipole corrections)
   IDIPOL =      0    1-x, 2-y, 3-z, 4-all directions 
   EPSILON=  1.0000000 bulk dielectric constant

 Core level calculations are selected ICORELEVEL =  1
 Exchange correlation treatment:
   GGA     =    --    GGA type
   LEXCH   =     8    internal setting for exchange type
   LIBXC   =     F    Libxc                    
   VOSKOWN =     0    Vosko Wilk Nusair interpolation
   EXXOEP  =     0    0=HF, 1=EXX-LHF (local Hartree Fock) 2=EXX OEP
   LHFCALC =     T    Hartree Fock is set to
   LSYMGRAD=     F    symmetrize gradient (conserves proper symmetry)
   PRECFOCK=fast      Normal, Fast or Accurate (Low or Medium for compatibility)
   LRHFCALC=     F    long range Hartree Fock
   LRSCOR  =     F    long range correlation only (use DFT for short range part)
   LTHOMAS =     F    Thomas Fermi screening in HF
   LMODELHF=     F    short range full HF, long range fraction AEXX
   FOCKCORR=     1    mode to apply convergence corrections
   LFOCKACE=     T    use Adeptively-Compressed-Exchange operator
   ENCUT4O =  -1.0   cutoff for four orbital integrals eV
   LMAXFOCK=     4    L truncation for augmentation on plane wave grid
   LMAXFOCKAE=  -1    L truncation for all-electron charge restoration on plane wave grid
   NMAXFOCKAE=   1    number of basis functions for all-electron charge restoration
   LFOCKAEDFT=     F  apply the AE augmentation even for DFT
   NKREDX  =     1    reduce k-point grid by
   NKREDY  =     1    reduce k-point grid by
   NKREDZ  =     1    reduce k-point grid by
   SHIFTRED=     F    shift reduced grid of Gamma
   HFKIDENT=     F    idential grid for each k-point
   ODDONLY =     F    use only odd q-grid points
   EVENONLY=     F    use only even q-grid points
   HFALPHA =   -1.0000 decay constant for conv. correction
   MCALPHA =    0.0000 extent of test-charge in conv. correction in multipole expansion
   AEXX    =    0.3200 exact exchange contribution
   HFSCREEN=    0.2000 screening length (either q_TF or 0.3 A-1)
   HFSCREENC=   0.2000 screening length for correlation (either q_TF or 0.3 A-1)
   HFRCUT  =    0.0000 spherical cutoff for potential kernel
   ALDAX   =    0.6800 LDA exchange part
   AGGAX   =    0.6800 GGA exchange part
   ALDAC   =    1.0000 LDA correlation
   AGGAC   =    1.0000 GGA correlation
   ENCUTFOCK=  -1.0 apply spherical cutoff to Coloumb kernel
   NBANDSGWLOW=     1    first orbital included in HF term
   NBLOCK_FOCK=    64    blocking factor in FOCK_ACC

 Linear response parameters
   LEPSILON=     F    determine dielectric tensor
   LRPA    =     F    only Hartree local field effects (RPA)
   LNABLA  =     F    use nabla operator in PAW spheres
   LVEL    =     F    velocity operator in full k-point grid
   CSHIFT  =0.1000    complex shift for real part using Kramers Kronig
   OMEGAMAX=  -1.0    maximum frequency
   DEG_THRESHOLD= 0.2000000E-02 threshold for treating states as degnerate
   RTIME   =   -0.100 relaxation time in fs
  (WPLASMAI=    0.000 imaginary part of plasma frequency in eV, 0.658/RTIME)
   DFIELD  = 0.0000000 0.0000000 0.0000000 field for delta impulse in time
 
  Optional k-point grid parameters
   LKPOINTS_OPT  =     F    use optional k-point grid
   KPOINTS_OPT_MODE=     1    mode for optional k-point grid
 
 Orbital magnetization related:
   ORBITALMAG=     F  switch on orbital magnetization
   LCHIMAG   =     F  perturbation theory with respect to B field
   DQ        =  0.001000  dq finite difference perturbation B field
   LLRAUG    =     F  two centre corrections for induced B field
   LBONE     =     F  B-component reconstruction in AE one-centre
   LVGVCALC  =     T  calculate vGv susceptibility
   LVGVAPPL  =     F  apply vGv susceptibility instead of pGv for G=0

 Random number generation:
   RANDOM_GENERATOR = DEFAULT
   PCG_SEED         = not used


--------------------------------------------------------------------------------------------------------


 Static calculation
 charge density and potential will be updated during run
 non-spin polarized calculation
 Conjugate gradient for all bands (Freysoldt, et al. PRB 79, 241103 (2009))
 preconditioned conjugated gradient                                        
 perform sub-space diagonalisation
    before iterative eigenvector-optimisation
 modified Broyden-mixing scheme, WC =      100.0
 initial mixing is a Kerker type mixing with AMIX =  0.4000 and BMIX =      1.0000
 Hartree-type preconditioning will be used
 using additional bands             4
 real space projection scheme for non local part
 use partial core corrections
 no Harris-corrections to forces 
 use gradient corrections 
 use of overlap-Matrix (Vanderbilt PP)
 Gauss-broadening in eV      SIGMA  =   0.05


--------------------------------------------------------------------------------------------------------


  energy-cutoff  :      450.00
  volume of cell :       44.57
      direct lattice vectors                 reciprocal lattice vectors
     3.545528993  0.000000000  0.000000000     0.282045360  0.000000000 -0.000000000
    -0.000000000  3.545528993  0.000000000     0.000000000  0.282045360  0.000000000
     0.000000000  0.000000000  3.545528993    -0.000000000 -0.000000000  0.282045360

  length of vectors
     3.545528993  3.545528993  3.545528993     0.282045360  0.282045360  0.282045360


 
 old parameters found on file WAVECAR:
  energy-cutoff  :      450.00
  volume of cell :       44.57
      direct lattice vectors                 reciprocal lattice vectors
     3.545528993  0.000000000  0.000000000     0.282045360  0.000000000 -0.000000000
    -0.000000000  3.545528993  0.000000000     0.000000000  0.282045360  0.000000000
     0.000000000  0.000000000  3.545528993    -0.000000000 -0.000000000  0.282045360

  length of vectors

 
 k-points in units of 2pi/SCALE and weight: Automatic mesh                          
   0.00000000  0.00000000  0.00000000       0.125
   0.14102268  0.00000000  0.00000000       0.125
   0.00000000  0.14102268  0.00000000       0.125
   0.00000000  0.00000000  0.14102268       0.125
   0.14102268  0.14102268  0.00000000       0.125
   0.00000000  0.14102268  0.14102268       0.125
   0.14102268  0.00000000  0.14102268       0.125
   0.14102268  0.14102268  0.14102268       0.125
 
 k-points in reciprocal lattice and weights: Automatic mesh                          
   0.00000000  0.00000000  0.00000000       0.125
   0.50000000  0.00000000  0.00000000       0.125
   0.00000000  0.50000000  0.00000000       0.125
   0.00000000  0.00000000  0.50000000       0.125
   0.50000000  0.50000000  0.00000000       0.125
   0.00000000  0.50000000  0.50000000       0.125
   0.50000000  0.00000000  0.50000000       0.125
   0.50000000  0.50000000  0.50000000       0.125
 
 position of ions in fractional coordinates (direct lattice) 
   0.00000000  0.00000000  0.00000000
   0.50000000  0.50000000  0.50000000
 
 position of ions in cartesian coordinates  (Angst):
   0.00000000  0.00000000  0.00000000
   1.77276450  1.77276450  1.77276450
 


--------------------------------------------------------------------------------------------------------


 k-point   1 :   0.0000 0.0000 0.0000  plane waves:     949
 k-point   2 :   0.5000 0.0000 0.0000  plane waves:     972
 k-point   3 :   0.0000 0.5000 0.0000  plane waves:     972
 k-point   4 :   0.0000 0.0000 0.5000  plane waves:     972
 k-point   5 :   0.5000 0.5000 0.0000  plane waves:     992
 k-point   6 :   0.0000 0.5000 0.5000  plane waves:     992
 k-point   7 :   0.5000 0.0000 0.5000  plane waves:     992
 k-point   8 :   0.5000 0.5000 0.5000  plane waves:     968

 maximum and minimum number of plane-waves per node :       992      949

 maximum number of plane-waves:       992
 maximum index in each direction: 
   IXMAX=    6   IYMAX=    6   IZMAX=    6
   IXMIN=   -6   IYMIN=   -6   IZMIN=   -6


 serial   3D FFT for wavefunctions
 parallel 3D FFT for charge:
    minimum data exchange during FFTs selected (reduces bandwidth)


 FFT grid for exact exchange (Hartree Fock) 
  NGX = 14; NGY = 14; NGZ = 14

 
 Radii for the augmentation spheres in the non-local exchange
 for species   1 augmentation radius   1.446 (default was   1.071)
       energy cutoff for augmentation   1800.0
 Maximum index for augmentation-charges in exchange           751
  SETUP_FOCK is finished

 total amount of memory used by VASP MPI-rank0    37259. kBytes
=======================================================================

   base      :      30000. kBytes
   nonlr-proj:        631. kBytes
   fftplans  :       1676. kBytes
   grid      :       2560. kBytes
   one-center:         16. kBytes
   HF        :         33. kBytes
   wavefun   :       2343. kBytes
 
     INWAV:  cpu time      0.0039: real time      0.0046
 Broyden mixing: mesh for mixing (old mesh)
   NGX = 13   NGY = 13   NGZ = 13
  (NGX  = 36   NGY  = 36   NGZ  = 36)
  gives a total of   2197 points

 initial charge density was supplied:
 number of electron       4.0000000 magnetization 
 charge density for first step will be calculated from the start-wavefunctions


--------------------------------------------------------------------------------------------------------


 Maximum index for non-local projection operator          1045
 Maximum index for augmentation-charges          5449 (set IRDMAX)


--------------------------------------------------------------------------------------------------------


 initial charge from wavefunction
 First call to EWALD:  gamma=   0.500
 Maximum number of real-space cells 3x 3x 3
 Maximum number of reciprocal cells 3x 3x 3

    FEWALD:  cpu time      0.0009: real time      0.0009


--------------------------------------- Ionic step        1  -------------------------------------------




--------------------------------------- Iteration      1(   1)  ---------------------------------------


    POTLOK:  cpu time      0.1216: real time      0.1216
    SETDIJ:  cpu time      0.1083: real time      0.1083
    TRIAL :  cpu time      0.1188: real time      0.1228
    CORREC:  cpu time      0.2383: real time      0.2382
    CHARGE:  cpu time      0.0049: real time      0.0049
    --------------------------------------------
      LOOP:  cpu time      0.5997: real time      0.6035

 eigenvalue-minimisations  :     0
 total energy-change (2. order) :-0.2812501E+01  (-0.1963427E-01)
 number of electron       4.0000000 magnetization 
 augmentation part        0.0218213 magnetization 

 Free energy of the ion-electron system (eV)
  ---------------------------------------------------
  alpha Z        PSCENC =         4.03909888
  Ewald energy   TEWEN  =       -59.12143154
  -Hartree energ DENC   =        -0.11107630
  -exchange      EXHF   =         4.36366532
  -V(xc)+E(xc)   XCENC  =       -71.36233588
  PAW double counting   =        90.61590059      -14.76416849
  entropy T*S    EENTRO =        -0.02114772
  eigenvalues    EBANDS =        -2.11475552
  atomic energy  EATOM  =        45.66375690
  ---------------------------------------------------
  free energy    TOTEN  =        -2.81250115 eV

  energy without entropy =       -2.79135342  energy(sigma->0) =       -2.80192728
  exchange ACFDT corr.  =        -0.20350645  see jH, gK, PRB 81, 115126


--------------------------------------------------------------------------------------------------------




--------------------------------------- Iteration      1(   2)  ---------------------------------------


    POTLOK:  cpu time      0.0674: real time      0.0674
    SETDIJ:  cpu time      0.1073: real time      0.1073
    TRIAL :  cpu time      0.0719: real time      0.0719
    CORREC:  cpu time      0.2294: real time      0.2293
    CHARGE:  cpu time      0.0048: real time      0.0048
    --------------------------------------------
      LOOP:  cpu time      0.4810: real time      0.4820

 eigenvalue-minimisations  :     0
 total energy-change (2. order) :-0.1965778E-01  (-0.5859303E-02)
 number of electron       4.0000000 magnetization 
 augmentation part        0.0247464 magnetization 

 Free energy of the ion-electron system (eV)
  ---------------------------------------------------
  alpha Z        PSCENC =         4.03909888
  Ewald energy   TEWEN  =       -59.12143154
  -Hartree energ DENC   =        -0.12910925
  -exchange      EXHF   =         4.37100600
  -V(xc)+E(xc)   XCENC  =       -71.34106105
  PAW double counting   =        94.40393864      -18.54528377
  entropy T*S    EENTRO =        -0.02105064
  eigenvalues    EBANDS =        -2.15192602
  atomic energy  EATOM  =        45.66375690
  ---------------------------------------------------
  free energy    TOTEN  =        -2.83215892 eV

  energy without entropy =       -2.81110828  energy(sigma->0) =       -2.82163360
  exchange ACFDT corr.  =        -0.20249748  see jH, gK, PRB 81, 115126


--------------------------------------------------------------------------------------------------------




--------------------------------------- Iteration      1(   3)  ---------------------------------------


    POTLOK:  cpu time      0.0774: real time      0.0774
    SETDIJ:  cpu time      0.0790: real time      0.0790
    TRIAL :  cpu time      0.0676: real time      0.0676
    CORREC:  cpu time      0.2097: real time      0.2280
    CHARGE:  cpu time      0.0048: real time      0.0048
    --------------------------------------------
      LOOP:  cpu time      0.4386: real time      0.4575

 eigenvalue-minimisations  :     0
 total energy-change (2. order) :-0.5842393E-02  ( 0.2066988E-02)
 number of electron       4.0000000 magnetization 
 augmentation part        0.0252134 magnetization 

 Free energy of the ion-electron system (eV)
  ---------------------------------------------------
  alpha Z        PSCENC =         4.03909888
  Ewald energy   TEWEN  =       -59.12143154
  -Hartree energ DENC   =        -0.12378937
  -exchange      EXHF   =         4.36867608
  -V(xc)+E(xc)   XCENC  =       -71.34573316
  PAW double counting   =        96.92372148      -21.06640926
  entropy T*S    EENTRO =        -0.02078304
  eigenvalues    EBANDS =        -2.15484068
  atomic energy  EATOM  =        45.66375690
  ---------------------------------------------------
  free energy    TOTEN  =        -2.83800132 eV

  energy without entropy =       -2.81721828  energy(sigma->0) =       -2.82760980
  exchange ACFDT corr.  =        -0.20036908  see jH, gK, PRB 81, 115126


--------------------------------------------------------------------------------------------------------




--------------------------------------- Iteration      1(   4)  ---------------------------------------


    POTLOK:  cpu time      0.0632: real time      0.0632
    SETDIJ:  cpu time      0.0853: real time      0.0853
    TRIAL :  cpu time      0.0694: real time      0.0694
    CORREC:  cpu time      0.2124: real time      0.2123
    CHARGE:  cpu time      0.0048: real time      0.0048
    --------------------------------------------
      LOOP:  cpu time      0.4353: real time      0.4357

 eigenvalue-minimisations  :     0
 total energy-change (2. order) :-0.1497428E-02  ( 0.2226678E-02)
 number of electron       4.0000000 magnetization 
 augmentation part        0.0252513 magnetization 

 Free energy of the ion-electron system (eV)
  ---------------------------------------------------
  alpha Z        PSCENC =         4.03909888
  Ewald energy   TEWEN  =       -59.12143154
  -Hartree energ DENC   =        -0.12431111
  -exchange      EXHF   =         4.37101713
  -V(xc)+E(xc)   XCENC  =       -71.34678591
  PAW double counting   =        97.14370133      -21.28694927
  entropy T*S    EENTRO =        -0.01996919
  eigenvalues    EBANDS =        -2.15681212
  atomic energy  EATOM  =        45.66375690
  ---------------------------------------------------
  free energy    TOTEN  =        -2.83949875 eV

  energy without entropy =       -2.81952956  energy(sigma->0) =       -2.82951415
  exchange ACFDT corr.  =        -0.19593818  see jH, gK, PRB 81, 115126


--------------------------------------------------------------------------------------------------------




--------------------------------------- Iteration      1(   5)  ---------------------------------------


    POTLOK:  cpu time      0.0678: real time      0.0678
    SETDIJ:  cpu time      0.0791: real time      0.0791
    TRIAL :  cpu time      0.0671: real time      0.0671
    CORREC:  cpu time      0.2227: real time      0.2227
    CHARGE:  cpu time      0.0048: real time      0.0048
    --------------------------------------------
      LOOP:  cpu time      0.4417: real time      0.4422

 eigenvalue-minimisations  :     0
 total energy-change (2. order) :-0.3813120E-02  ( 0.7347578E-02)
 number of electron       4.0000000 magnetization 
 augmentation part        0.0252472 magnetization 

 Free energy of the ion-electron system (eV)
  ---------------------------------------------------
  alpha Z        PSCENC =         4.03909888
  Ewald energy   TEWEN  =       -59.12143154
  -Hartree energ DENC   =        -0.12970563
  -exchange      EXHF   =         4.37961588
  -V(xc)+E(xc)   XCENC  =       -71.34596054
  PAW double counting   =        97.10812058      -21.25151473
  entropy T*S    EENTRO =        -0.01758271
  eigenvalues    EBANDS =        -2.16532248
  atomic energy  EATOM  =        45.66375690
  ---------------------------------------------------
  free energy    TOTEN  =        -2.84331187 eV

  energy without entropy =       -2.82572915  energy(sigma->0) =       -2.83452051
  exchange ACFDT corr.  =        -0.18450035  see jH, gK, PRB 81, 115126


--------------------------------------------------------------------------------------------------------




--------------------------------------- Iteration      1(   6)  ---------------------------------------


    POTLOK:  cpu time      0.0656: real time      0.0656
    SETDIJ:  cpu time      0.0885: real time      0.0885
    TRIAL :  cpu time      0.0672: real time      0.0672
    CORREC:  cpu time      0.2131: real time      0.2130
    CHARGE:  cpu time      0.0048: real time      0.0048
    --------------------------------------------
      LOOP:  cpu time      0.4393: real time      0.4396

 eigenvalue-minimisations  :     0
 total energy-change (2. order) :-0.1050985E-01  ( 0.6701672E-01)
 number of electron       4.0000000 magnetization 
 augmentation part        0.0252726 magnetization 

 Free energy of the ion-electron system (eV)
  ---------------------------------------------------
  alpha Z        PSCENC =         4.03909888
  Ewald energy   TEWEN  =       -59.12143154
  -Hartree energ DENC   =        -0.14464290
  -exchange      EXHF   =         4.40381164
  -V(xc)+E(xc)   XCENC  =       -71.34362343
  PAW double counting   =        97.27534180      -21.41897988
  entropy T*S    EENTRO =        -0.01198026
  eigenvalues    EBANDS =        -2.18957047
  atomic energy  EATOM  =        45.66375690
  ---------------------------------------------------
  free energy    TOTEN  =        -2.85382172 eV

  energy without entropy =       -2.84184145  energy(sigma->0) =       -2.84783158
  exchange ACFDT corr.  =        -0.15515371  see jH, gK, PRB 81, 115126


--------------------------------------------------------------------------------------------------------




--------------------------------------- Iteration      1(   7)  ---------------------------------------


    POTLOK:  cpu time      0.0556: real time      0.0555
    SETDIJ:  cpu time      0.0901: real time      0.0901
    TRIAL :  cpu time      0.0671: real time      0.0671
    CORREC:  cpu time      0.2205: real time      0.2205
    CHARGE:  cpu time      0.0047: real time      0.0047
    --------------------------------------------
      LOOP:  cpu time      0.4384: real time      0.4387

 eigenvalue-minimisations  :     0
 total energy-change (2. order) :-0.2269165E-01  (-0.3410147E-01)
 number of electron       4.0000000 magnetization 
 augmentation part        0.0254086 magnetization 

 Free energy of the ion-electron system (eV)
  ---------------------------------------------------
  alpha Z        PSCENC =         4.03909888
  Ewald energy   TEWEN  =       -59.12143154
  -Hartree energ DENC   =        -0.17594741
  -exchange      EXHF   =         4.45609414
  -V(xc)+E(xc)   XCENC  =       -71.33862524
  PAW double counting   =        97.78644247      -21.93047247
  entropy T*S    EENTRO =        -0.00097766
  eigenvalues    EBANDS =        -2.24344883
  atomic energy  EATOM  =        45.66375690
  ---------------------------------------------------
  free energy    TOTEN  =        -2.87651337 eV

  energy without entropy =       -2.87553571  energy(sigma->0) =       -2.87602454
  exchange ACFDT corr.  =        -0.09499553  see jH, gK, PRB 81, 115126


--------------------------------------------------------------------------------------------------------




--------------------------------------- Iteration      1(   8)  ---------------------------------------


    POTLOK:  cpu time      0.0548: real time      0.0548
    SETDIJ:  cpu time      0.0932: real time      0.0931
    TRIAL :  cpu time      0.0680: real time      0.0680
    CORREC:  cpu time      0.2300: real time      0.2300
    CHARGE:  cpu time      0.0048: real time      0.0048
    --------------------------------------------
      LOOP:  cpu time      0.4510: real time      0.4512

 eigenvalue-minimisations  :     0
 total energy-change (2. order) :-0.3436343E-01  (-0.1807044E-02)
 number of electron       4.0000000 magnetization 
 augmentation part        0.0254427 magnetization 

 Free energy of the ion-electron system (eV)
  ---------------------------------------------------
  alpha Z        PSCENC =         4.03909888
  Ewald energy   TEWEN  =       -59.12143154
  -Hartree energ DENC   =        -0.21256590
  -exchange      EXHF   =         4.53362639
  -V(xc)+E(xc)   XCENC  =       -71.33198353
  PAW double counting   =        98.50653797      -22.65065580
  entropy T*S    EENTRO =        -0.00011279
  eigenvalues    EBANDS =        -2.33628251
  atomic energy  EATOM  =        45.66375690
  ---------------------------------------------------
  free energy    TOTEN  =        -2.91087680 eV

  energy without entropy =       -2.91076401  energy(sigma->0) =       -2.91082040
  exchange ACFDT corr.  =        -0.00500380  see jH, gK, PRB 81, 115126


--------------------------------------------------------------------------------------------------------




--------------------------------------- Iteration      1(   9)  ---------------------------------------


    POTLOK:  cpu time      0.0732: real time      0.0732
    SETDIJ:  cpu time      0.0669: real time      0.0669
    TRIAL :  cpu time      0.0672: real time      0.0672
    CORREC:  cpu time      0.2207: real time      0.2208
    CHARGE:  cpu time      0.0048: real time      0.0048
    --------------------------------------------
      LOOP:  cpu time      0.4330: real time      0.4336

 eigenvalue-minimisations  :     0
 total energy-change (2. order) :-0.1564339E-02  (-0.2098720E-03)
 number of electron       4.0000000 magnetization 
 augmentation part        0.0254309 magnetization 

 Free energy of the ion-electron system (eV)
  ---------------------------------------------------
  alpha Z        PSCENC =         4.03909888
  Ewald energy   TEWEN  =       -59.12143154
  -Hartree energ DENC   =        -0.21327080
  -exchange      EXHF   =         4.53737956
  -V(xc)+E(xc)   XCENC  =       -71.33162897
  PAW double counting   =        98.43945781      -22.58349514
  entropy T*S    EENTRO =        -0.00000845
  eigenvalues    EBANDS =        -2.34219505
  atomic energy  EATOM  =        45.66375690
  ---------------------------------------------------
  free energy    TOTEN  =        -2.91244114 eV

  energy without entropy =       -2.91243269  energy(sigma->0) =       -2.91243691
  exchange ACFDT corr.  =        -0.00046454  see jH, gK, PRB 81, 115126


--------------------------------------------------------------------------------------------------------




--------------------------------------- Iteration      1(  10)  ---------------------------------------


    POTLOK:  cpu time      0.0591: real time      0.0591
    SETDIJ:  cpu time      0.0774: real time      0.0774
    TRIAL :  cpu time      0.0682: real time      0.0861
    CORREC:  cpu time      0.2183: real time      0.2183
    CHARGE:  cpu time      0.0048: real time      0.0049
    --------------------------------------------
      LOOP:  cpu time      0.4281: real time      0.4464

 eigenvalue-minimisations  :     0
 total energy-change (2. order) :-0.1900017E-03  (-0.4292084E-04)
 number of electron       4.0000000 magnetization 
 augmentation part        0.0253873 magnetization 

 Free energy of the ion-electron system (eV)
  ---------------------------------------------------
  alpha Z        PSCENC =         4.03909888
  Ewald energy   TEWEN  =       -59.12143154
  -Hartree energ DENC   =        -0.21306746
  -exchange      EXHF   =         4.53772577
  -V(xc)+E(xc)   XCENC  =       -71.33159636
  PAW double counting   =        98.32943013      -22.47344459
  entropy T*S    EENTRO =        -0.00000014
  eigenvalues    EBANDS =        -2.34309443
  atomic energy  EATOM  =        45.66375690
  ---------------------------------------------------
  free energy    TOTEN  =        -2.91263114 eV

  energy without entropy =       -2.91263100  energy(sigma->0) =       -2.91263107
  exchange ACFDT corr.  =        -0.00002918  see jH, gK, PRB 81, 115126


--------------------------------------------------------------------------------------------------------




--------------------------------------- Iteration      1(  11)  ---------------------------------------


    POTLOK:  cpu time      0.0630: real time      0.0630
    SETDIJ:  cpu time      0.0776: real time      0.0776
    TRIAL :  cpu time      0.0672: real time      0.0671
    CORREC:  cpu time      0.2184: real time      0.2184
    CHARGE:  cpu time      0.0048: real time      0.0048
    --------------------------------------------
      LOOP:  cpu time      0.4311: real time      0.4315

 eigenvalue-minimisations  :     0
 total energy-change (2. order) :-0.4657179E-04  (-0.9133966E-05)
 number of electron       4.0000000 magnetization 
 augmentation part        0.0253479 magnetization 

 Free energy of the ion-electron system (eV)
  ---------------------------------------------------
  alpha Z        PSCENC =         4.03909888
  Ewald energy   TEWEN  =       -59.12143154
  -Hartree energ DENC   =        -0.21277585
  -exchange      EXHF   =         4.53770929
  -V(xc)+E(xc)   XCENC  =       -71.33164526
  PAW double counting   =        98.18217398      -22.32618820
  entropy T*S    EENTRO =        -0.00000000
  eigenvalues    EBANDS =        -2.34337579
  atomic energy  EATOM  =        45.66375690
  ---------------------------------------------------
  free energy    TOTEN  =        -2.91267771 eV

  energy without entropy =       -2.91267771  energy(sigma->0) =       -2.91267771
  exchange ACFDT corr.  =        -0.00000039  see jH, gK, PRB 81, 115126


--------------------------------------------------------------------------------------------------------




--------------------------------------- Iteration      1(  12)  ---------------------------------------


    POTLOK:  cpu time      0.0593: real time      0.0592
    SETDIJ:  cpu time      0.1024: real time      0.1024
    TRIAL :  cpu time      0.0674: real time      0.0673
    CORREC:  cpu time      0.6924: real time      0.8239
    EDDIAG:  cpu time      0.0526: real time      0.0728
    CHARGE:  cpu time      0.0051: real time      0.0051
    --------------------------------------------
      LOOP:  cpu time      1.0781: real time      1.2303

 eigenvalue-minimisations  :     0
 total energy-change (2. order) :-0.9329031E-05  (-0.9179991E-06)
 number of electron       4.0000000 magnetization 
 augmentation part        0.0253511 magnetization 

 Free energy of the ion-electron system (eV)
  ---------------------------------------------------
  alpha Z        PSCENC =         4.03909888
  Ewald energy   TEWEN  =       -59.12143154
  -Hartree energ DENC   =        -0.21257430
  -exchange      EXHF   =         4.53764986
  -V(xc)+E(xc)   XCENC  =       -71.33167921
  PAW double counting   =        98.07198627      -22.21599806
  entropy T*S    EENTRO =        -0.00000000
  eigenvalues    EBANDS =        -2.34349754
  atomic energy  EATOM  =        45.66375690
  ---------------------------------------------------
  free energy    TOTEN  =        -2.91268704 eV

  energy without entropy =       -2.91268704  energy(sigma->0) =       -2.91268704
  exchange ACFDT corr.  =        -0.00000000  see jH, gK, PRB 81, 115126


--------------------------------------------------------------------------------------------------------


  average scaling for gradient   1.4480


 the core state eigenenergies are
   1-  1s  -1251.7745  2s    -72.3570  2p    -39.1073
   2-  1s  -1254.0634  2s    -74.2272  2p    -40.9813
 
 E-fermi :   1.8505     XC(G=0):  -6.7406     alpha+bet : -7.6726

 Fermi energy:         1.8505329398

 k-point     1 :       0.0000    0.0000    0.0000
  band No.  band energies     occupation 
      1      -5.6767      2.00000
      2       7.3989      0.00000
      3       7.3990      0.00000
      4       7.3992      0.00000
      5       7.4049      0.00000
      6       7.4049      0.00000

 k-point     2 :       0.5000    0.0000    0.0000
  band No.  band energies     occupation 
      1      -2.2408      2.00000
      2      -2.1159      2.00000
      3      10.0804      0.00000
      4      10.0804      0.00000
      5      10.2099      0.00000
      6      10.2099      0.00000

 k-point     3 :       0.0000    0.5000    0.0000
  band No.  band energies     occupation 
      1      -2.2408      2.00000
      2      -2.1159      2.00000
      3      10.0804      0.00000
      4      10.0804      0.00000
      5      10.2099      0.00000
      6      10.2099      0.00000

 k-point     4 :       0.0000    0.0000    0.5000
  band No.  band energies     occupation 
      1      -2.2408      2.00000
      2      -2.1159      2.00000
      3      10.0804      0.00000
      4      10.0804      0.00000
      5      10.2099      0.00000
      6      10.2099      0.00000

 k-point     5 :       0.5000    0.5000    0.0000
  band No.  band energies     occupation 
      1       0.7648      2.00000
      2       0.7648      2.00000
      3       1.5946      2.00000
      4       2.1058      0.00000
      5      12.4903      0.00000
      6      12.4904      0.00000

 k-point     6 :       0.0000    0.5000    0.5000
  band No.  band energies     occupation 
      1       0.7648      2.00000
      2       0.7648      2.00000
      3       1.5946      2.00000
      4       2.1058      0.00000
      5      12.4903      0.00000
      6      12.4903      0.00000

 k-point     7 :       0.5000    0.0000    0.5000
  band No.  band energies     occupation 
      1       0.7648      2.00000
      2       0.7648      2.00000
      3       1.5946      2.00000
      4       2.1059      0.00000
      5      12.4902      0.00000
      6      12.4904      0.00000

 k-point     8 :       0.5000    0.5000    0.5000
  band No.  band energies     occupation 
      1       4.3082      0.00000
      2       4.3083      0.00000
      3       4.3083      0.00000
      4       4.3562      0.00000
      5       4.3562      0.00000
      6       4.3563      0.00000


--------------------------------------------------------------------------------------------------------


 soft charge-density along one line, spin component            1
         0         1         2         3         4         5         6         7         8         9
 total charge-density along one line
 
 pseudopotential strength for first ion, spin component:            1
  2.834   9.092   0.000  -0.000  -0.000   0.000   0.000  -0.000
  9.092  28.815   0.000   0.000  -0.000   0.000   0.000  -0.000
  0.000   0.000   7.001   0.000  -0.000  10.292   0.000  -0.000
 -0.000   0.000   0.000   7.001  -0.000   0.000  10.292  -0.000
 -0.000  -0.000  -0.000  -0.000   7.001  -0.000  -0.000  10.292
  0.000   0.000  10.292   0.000  -0.000  14.172   0.000  -0.000
  0.000   0.000   0.000  10.292  -0.000   0.000  14.172  -0.000
 -0.000  -0.000  -0.000  -0.000  10.292  -0.000  -0.000  14.172
 -0.000  -0.000  -0.000   0.000   0.000  -0.000   0.000   0.000
  0.000   0.000   0.000   0.000   0.000   0.000   0.000   0.000
 -0.000  -0.000  -0.000   0.000   0.000  -0.000   0.000   0.000
 -0.000  -0.000   0.000  -0.000   0.000   0.000  -0.000   0.000
 -0.000  -0.000  -0.000  -0.000  -0.000  -0.000  -0.000  -0.000
 total augmentation occupancy for first ion, spin component:            1
  2.059  -0.130  -0.000  -0.000   0.000   0.000   0.000  -0.000   0.000  -0.000   0.000   0.000   0.000
 -0.130   0.008   0.000   0.000  -0.000  -0.000  -0.000   0.000  -0.000   0.000  -0.000  -0.000  -0.000
 -0.000   0.000   0.107  -0.000   0.000  -0.018   0.000  -0.000   0.000  -0.000   0.000  -0.000   0.000
 -0.000   0.000  -0.000   0.107   0.000   0.000  -0.018  -0.000  -0.000  -0.000  -0.000   0.000   0.000
  0.000  -0.000   0.000   0.000   0.107  -0.000  -0.000  -0.018  -0.000  -0.000  -0.000   0.000   0.000
  0.000  -0.000  -0.018   0.000  -0.000   0.003  -0.000   0.000  -0.000   0.000  -0.000   0.000  -0.000
  0.000  -0.000   0.000  -0.018  -0.000  -0.000   0.003   0.000   0.000   0.000   0.000  -0.000   0.000
 -0.000   0.000  -0.000  -0.000  -0.018   0.000   0.000   0.003   0.000   0.000   0.000  -0.000  -0.000
  0.000  -0.000   0.000  -0.000  -0.000  -0.000   0.000   0.000   0.000   0.000   0.000  -0.000  -0.000
 -0.000   0.000  -0.000  -0.000  -0.000   0.000   0.000   0.000   0.000   0.000   0.000   0.000  -0.000
  0.000  -0.000   0.000  -0.000  -0.000  -0.000   0.000   0.000   0.000   0.000   0.005  -0.000  -0.000
  0.000  -0.000  -0.000   0.000   0.000   0.000  -0.000  -0.000  -0.000   0.000  -0.000   0.000  -0.000
  0.000  -0.000   0.000   0.000   0.000  -0.000   0.000  -0.000  -0.000  -0.000  -0.000  -0.000   0.005


------------------------ aborting loop because EDIFF is reached ----------------------------------------


    FORLOC:  cpu time      0.0002: real time      0.0002
    FORHF :  cpu time      0.1348: real time      0.1348
    FORNL :  cpu time      0.0212: real time      0.0212
    STRESS:  cpu time      0.0659: real time      0.0659
    FORCOR:  cpu time      0.0702: real time      0.0702
    OFIELD:  cpu time      0.0006: real time      0.0006

  FORCE on cell =-STRESS in cart. coord.  units (eV):
  Direction    XX          YY          ZZ          XY          YZ          ZX
  --------------------------------------------------------------------------------------
  Alpha Z     4.03910     4.03910     4.03910
  Ewald     -19.70714   -19.70714   -19.70714    -0.00000     0.00000     0.00000
  Hartree     0.07086     0.07086     0.07086    -0.00013     0.00005    -0.00027
  E(xc)      -6.99580    -6.99580    -6.99580    -0.00018     0.00007    -0.00038
  Local      -0.33834    -0.33834    -0.33834    -0.00296     0.00112    -0.00624
  n-local    12.12154    12.12154    12.12154     0.00155    -0.00059     0.00327
  augment     0.19836     0.19836     0.19836    -0.00008     0.00003    -0.00016
  Kinetic    12.91704    12.91704    12.91704    -0.00536     0.00203    -0.01132
  Fock       -2.17849    -2.17849    -2.17849    -0.00032     0.00012    -0.00067
  -------------------------------------------------------------------------------------
  Total       0.12714     0.12713     0.12714    -0.00747     0.00283    -0.01577
  in kB       4.57021     4.57009     4.57023    -0.26845     0.10163    -0.56685
  external pressure =        4.57 kB  Pullay stress =        0.00 kB


 VOLUME and BASIS-vectors are now :
 -----------------------------------------------------------------------------
  energy-cutoff  :      450.00
  volume of cell :       44.57
      direct lattice vectors                 reciprocal lattice vectors
     3.545528993  0.000000000  0.000000000     0.282045360  0.000000000 -0.000000000
    -0.000000000  3.545528993  0.000000000     0.000000000  0.282045360  0.000000000
     0.000000000  0.000000000  3.545528993    -0.000000000 -0.000000000  0.282045360

  length of vectors
     3.545528993  3.545528993  3.545528993     0.282045360  0.282045360  0.282045360


 FORCES acting on ions:
    Electron-Ion                     Ewald-Force                    Non-Local-Force
 -----------------------------------------------------------------------------------------------
   -.817E-06 0.476E-06 0.513E-06   -.136E-15 -.184E-15 -.695E-16   0.173E-05 -.106E-05 -.116E-05
   -.218E-06 0.236E-06 0.195E-06   0.112E-15 0.196E-15 0.454E-16   0.296E-06 -.313E-06 0.203E-06
 -----------------------------------------------------------------------------------------------
   -.483E-04 0.365E-04 -.711E-04   -.232E-16 0.127E-16 -.241E-16   0.203E-05 -.137E-05 -.955E-06
 
 
 POSITION                                       TOTAL-FORCE (eV/Angst)
 -----------------------------------------------------------------------------------
      0.00000      0.00000      0.00000        -0.000006      0.000000      0.000059
      1.77276      1.77276      1.77276         0.000006     -0.000000     -0.000059
 -----------------------------------------------------------------------------------
    total drift:                               -0.000046      0.000035     -0.000072


--------------------------------------------------------------------------------------------------------



  FREE ENERGIE OF THE ION-ELECTRON SYSTEM (eV)
  ---------------------------------------------------
  free  energy   TOTEN  =        -2.91268704 eV

  energy  without entropy=       -2.91268704  energy(sigma->0) =       -2.91268704
 


--------------------------------------------------------------------------------------------------------


    POTLOK:  cpu time      0.2124: real time      0.2124


--------------------------------------------------------------------------------------------------------


 writing wavefunctions
     LOOP+:  cpu time      6.7116: real time      6.9259
    4ORBIT:  cpu time      0.0000: real time      0.0000

 total amount of memory used by VASP MPI-rank0    38215. kBytes
=======================================================================

   base      :      30000. kBytes
   nonlr-proj:        865. kBytes
   fftplans  :       1676. kBytes
   grid      :       2560. kBytes
   one-center:         16. kBytes
   HF        :         33. kBytes
   wavefun   :       2343. kBytes
   fock_wrk  :        722. kBytes
 
  
  
 General timing and accounting informations for this job:
 ========================================================
  
                  Total CPU time used (sec):       13.090
                            User time (sec):       11.432
                          System time (sec):        1.658
                         Elapsed time (sec):       15.285
  
                   Maximum memory used (kb):     3334656.
                   Average memory used (kb):          N/A
  
                          Minor page faults:        58578
                          Major page faults:            3
                 Voluntary context switches:         4797
