Ga8 O12                                 
    1.000000000000000     
     0.0000000000000000   12.2804737091000007    0.0000000000000000
     9.1427011490000005    0.0000000000000000    0.0000000000000000
     0.0000000000000000   -2.7682616411000001  -11.3006974810000003
   Ga   O    Fe
    47    72     1
Direct
  0.6593351076214091  0.9999246933052532  0.1569562258619897
  0.6593799804888505  0.9998772753013299  0.6572910001971337
  0.6593351076214091  0.3334083066947500  0.1569562258619897
  0.6593799804888505  0.3334557246986734  0.6572910001971337
  0.6592679952675269  0.6666669999999968  0.1569600352371978
  0.6595216561327817  0.6666669999999968  0.6564716590483215
  0.8413891127688373  0.1666669999999968  0.8430894206346693
  0.8409593245150475  0.4991186500210958  0.3435429223692879
  0.8413938386657307  0.4998092193056110  0.8432501379521753
  0.8409593245150475  0.8342143499789074  0.3435429223692879
  0.8413938386657307  0.8335237806943923  0.8432501379521753
  0.5933511331506267  0.1666669999999968  0.3988921188288757
  0.5911130536572173  0.1666669999999968  0.8979056234890237
  0.5909450792485913  0.4996808326631950  0.3976061623783380
  0.5914349961417642  0.4999834007969568  0.8978704553829076
  0.5909450792485913  0.8336521673368082  0.3976061623783380
  0.5914349961417642  0.8333495992030464  0.8978704553829076
  0.9087848160540730  0.0008157271845732  0.1029267884500698
  0.9077072288974790  0.0018274702097685  0.5996607768032476
  0.9087848160540730  0.3325172728154300  0.1029267884500698
  0.9077072288974790  0.3315055297902347  0.5996607768032476
  0.9086916423344817  0.6666669999999968  0.1022452137755820
  0.9088524091356334  0.6666669999999968  0.6022274780448171
  0.1591042641354434  0.1666669999999968  0.1569277322011970
  0.1588346073141835  0.1666669999999968  0.6562807948594624
  0.1587135871159333  0.4997165818810601  0.1570558307162599
  0.1583132495480655  0.4996177202825791  0.6562607274155070
  0.1587135871159333  0.8336164181189432  0.1570558307162599
  0.1583132495480655  0.8337152797174241  0.6562607274155070
  0.3410368404656552  0.0002620610788213  0.3438336319585389
  0.3409510256387520  0.9999249286171548  0.8433129541198809
  0.3410368404656552  0.3330709389211819  0.3438336319585389
  0.3409510256387520  0.3334080713828484  0.8433129541198809
  0.3410893518434506  0.6666669999999968  0.3434617380145752
  0.3408760089181868  0.6666669999999968  0.8432101349100591
  0.0886524014129790  0.0010367780650213  0.3971570591260729
  0.0911790534916435  0.9999987932719776  0.8976273978382778
  0.0886524014129790  0.3322962219349819  0.3971570591260729
  0.0911790534916435  0.3333342067280256  0.8976273978382778
  0.0910745004478244  0.6666669999999968  0.3976790031963944
  0.0912433274166133  0.6666669999999968  0.8979110453323784
  0.4088126312826930  0.1666669999999968  0.1026088484861205
  0.4093112299956232  0.1666669999999968  0.6026528112687402
  0.4090707947996819  0.4998359396190892  0.1026358438252970
  0.4091611175791243  0.5000642818448711  0.6026441655525971
  0.4090707947996819  0.8334970603809140  0.1026358438252970
  0.4091611175791243  0.8332687181551321  0.6026441655525971
  0.9967398405891572  0.1666669999999968  0.1280733704589068
  0.9966378747762619  0.1666669999999968  0.6288555313767858
  0.9958517088069385  0.4996481503145560  0.1275506957306618
  0.9952009997766638  0.4989236666104446  0.6257672356016997
  0.9958517088069385  0.8336848496854472  0.1275506957306618
  0.9952009997766638  0.8344093333895586  0.6257672356016997
  0.5042290691136913  0.0009499760217295  0.3727940401458980
  0.5037382779982238  0.9998783617454237  0.8730001542501427
  0.5042290691136913  0.3323830239782737  0.3727940401458980
  0.5037382779982238  0.3334546382545795  0.8730001542501427
  0.5037980765459906  0.6666669999999968  0.3727461081826391
  0.5038999080589264  0.6666669999999968  0.8730860217112451
  0.6763564657630496  0.1666669999999968  0.2826786236283780
  0.6728117840928078  0.1666669999999968  0.7810030607104395
  0.6724230639076509  0.4997760114768681  0.2803381101326679
  0.6728082467840011  0.4999476572116706  0.7805501585707262
  0.6724230639076509  0.8335569885231351  0.2803381101326679
  0.6728082467840011  0.8333853427883327  0.7805501585707262
  0.8277637696073299  0.0032974127366856  0.2212226645345865
  0.8278022700157450  0.0000500479897667  0.7190581438992325
  0.8277637696073299  0.3300355872633176  0.2212226645345865
  0.8278022700157450  0.3332829520102365  0.7190581438992325
  0.8273382772422693  0.6666669999999968  0.2195385465200914
  0.8276121353993346  0.6666669999999968  0.7195912738743928
  0.8322949192030293  0.0052656932905748  0.4419553497660544
  0.8324263675742927  0.0001208602215499  0.9459825497992185
  0.8322949192030293  0.3280673067094284  0.4419553497660544
  0.8324263675742927  0.3332121397784533  0.9459825497992185
  0.8316033194970061  0.6666669999999968  0.4456487867059309
  0.8323041942246761  0.6666669999999968  0.9455660495464784
  0.6676946764346781  0.1666669999999968  0.0546502303872813
  0.6686681941139696  0.1666669999999968  0.5554503438798690
  0.6687304136761298  0.4997698916689046  0.0545255275589653
  0.6685161540768192  0.4996408483467860  0.5540760168685921
  0.6687304136761298  0.8335631083310986  0.0545255275589653
  0.6685161540768192  0.8336921516532172  0.5540760168685921
  0.4967433969486592  0.0003122266312801  0.1279471781298653
  0.4966630940715220  0.9999114446176804  0.6275257786808766
  0.4967433969486592  0.3330207733687232  0.1279471781298653
  0.4966630940715220  0.3334215553823228  0.6275257786808766
  0.4965214256704016  0.6666669999999968  0.1271484959649953
  0.4968271794668695  0.6666669999999968  0.6273179559764017
  0.0001151291247865  0.1666669999999968  0.3739033530384006
  0.0039069043106110  0.1666669999999968  0.8734982606372270
  0.0032729673031966  0.5004431165948944  0.3723985506432399
  0.0038440329222595  0.5000271724083802  0.8725982233618410
  0.0032729673031966  0.8328898834051088  0.3723985506432399
  0.0038440329222595  0.8333058275916230  0.8725982233618410
  0.1719663832367146  0.0004126380703227  0.2810552774254234
  0.1726613886156230  0.9998153145388784  0.7804127092321167
  0.1719663832367146  0.3329203619296806  0.2810552774254234
  0.1726613886156230  0.3335176854611248  0.7804127092321167
  0.1726753299242247  0.6666669999999968  0.2806389581038502
  0.1720598450861672  0.6666669999999968  0.7801319577198313
  0.3273133840184741  0.1666669999999968  0.2197779437711915
  0.3274593394378371  0.1666669999999968  0.7195233446829192
  0.3274746660499019  0.4995730596644847  0.2197848040521606
  0.3272744740084832  0.5000620983501989  0.7194384847955178
  0.3274746660499019  0.8337599403355185  0.2197848040521606
  0.3272744740084832  0.8332709016498043  0.7194384847955178
  0.3324060736483787  0.1666669999999968  0.4461665898303124
  0.3322805402924445  0.1666669999999968  0.9459132211796373
  0.3326424031377897  0.5000001643983438  0.4459754105937819
  0.3322749462933174  0.5000421503027610  0.9459630504354948
  0.3326424031377897  0.8333328356016594  0.4459754105937819
  0.3322749462933174  0.8332908496972422  0.9459630504354948
  0.1678548412863563  0.9999084600585917  0.0544191331381043
  0.1671987498218925  0.0002182997922517  0.5535677476993826
  0.1678548412863563  0.3334245399414115  0.0544191331381043
  0.1671987498218925  0.3331147002077515  0.5535677476993826
  0.1674790792278458  0.6666669999999968  0.0546888187967909
  0.1675328385440551  0.6666669999999968  0.5543298003982855
  0.8380751688665597  0.1666669999999968  0.3364715456026204
 
  0.00000000E+00  0.00000000E+00  0.00000000E+00
  0.00000000E+00  0.00000000E+00  0.00000000E+00
  0.00000000E+00  0.00000000E+00  0.00000000E+00
  0.00000000E+00  0.00000000E+00  0.00000000E+00
  0.00000000E+00  0.00000000E+00  0.00000000E+00
  0.00000000E+00  0.00000000E+00  0.00000000E+00
  0.00000000E+00  0.00000000E+00  0.00000000E+00
  0.00000000E+00  0.00000000E+00  0.00000000E+00
  0.00000000E+00  0.00000000E+00  0.00000000E+00
  0.00000000E+00  0.00000000E+00  0.00000000E+00
  0.00000000E+00  0.00000000E+00  0.00000000E+00
  0.00000000E+00  0.00000000E+00  0.00000000E+00
  0.00000000E+00  0.00000000E+00  0.00000000E+00
  0.00000000E+00  0.00000000E+00  0.00000000E+00
  0.00000000E+00  0.00000000E+00  0.00000000E+00
  0.00000000E+00  0.00000000E+00  0.00000000E+00
  0.00000000E+00  0.00000000E+00  0.00000000E+00
  0.00000000E+00  0.00000000E+00  0.00000000E+00
  0.00000000E+00  0.00000000E+00  0.00000000E+00
  0.00000000E+00  0.00000000E+00  0.00000000E+00
  0.00000000E+00  0.00000000E+00  0.00000000E+00
  0.00000000E+00  0.00000000E+00  0.00000000E+00
  0.00000000E+00  0.00000000E+00  0.00000000E+00
  0.00000000E+00  0.00000000E+00  0.00000000E+00
  0.00000000E+00  0.00000000E+00  0.00000000E+00
  0.00000000E+00  0.00000000E+00  0.00000000E+00
  0.00000000E+00  0.00000000E+00  0.00000000E+00
  0.00000000E+00  0.00000000E+00  0.00000000E+00
  0.00000000E+00  0.00000000E+00  0.00000000E+00
  0.00000000E+00  0.00000000E+00  0.00000000E+00
  0.00000000E+00  0.00000000E+00  0.00000000E+00
  0.00000000E+00  0.00000000E+00  0.00000000E+00
  0.00000000E+00  0.00000000E+00  0.00000000E+00
  0.00000000E+00  0.00000000E+00  0.00000000E+00
  0.00000000E+00  0.00000000E+00  0.00000000E+00
  0.00000000E+00  0.00000000E+00  0.00000000E+00
  0.00000000E+00  0.00000000E+00  0.00000000E+00
  0.00000000E+00  0.00000000E+00  0.00000000E+00
  0.00000000E+00  0.00000000E+00  0.00000000E+00
  0.00000000E+00  0.00000000E+00  0.00000000E+00
  0.00000000E+00  0.00000000E+00  0.00000000E+00
  0.00000000E+00  0.00000000E+00  0.00000000E+00
  0.00000000E+00  0.00000000E+00  0.00000000E+00
  0.00000000E+00  0.00000000E+00  0.00000000E+00
  0.00000000E+00  0.00000000E+00  0.00000000E+00
  0.00000000E+00  0.00000000E+00  0.00000000E+00
  0.00000000E+00  0.00000000E+00  0.00000000E+00
  0.00000000E+00  0.00000000E+00  0.00000000E+00
  0.00000000E+00  0.00000000E+00  0.00000000E+00
  0.00000000E+00  0.00000000E+00  0.00000000E+00
  0.00000000E+00  0.00000000E+00  0.00000000E+00
  0.00000000E+00  0.00000000E+00  0.00000000E+00
  0.00000000E+00  0.00000000E+00  0.00000000E+00
  0.00000000E+00  0.00000000E+00  0.00000000E+00
  0.00000000E+00  0.00000000E+00  0.00000000E+00
  0.00000000E+00  0.00000000E+00  0.00000000E+00
  0.00000000E+00  0.00000000E+00  0.00000000E+00
  0.00000000E+00  0.00000000E+00  0.00000000E+00
  0.00000000E+00  0.00000000E+00  0.00000000E+00
  0.00000000E+00  0.00000000E+00  0.00000000E+00
  0.00000000E+00  0.00000000E+00  0.00000000E+00
  0.00000000E+00  0.00000000E+00  0.00000000E+00
  0.00000000E+00  0.00000000E+00  0.00000000E+00
  0.00000000E+00  0.00000000E+00  0.00000000E+00
  0.00000000E+00  0.00000000E+00  0.00000000E+00
  0.00000000E+00  0.00000000E+00  0.00000000E+00
  0.00000000E+00  0.00000000E+00  0.00000000E+00
  0.00000000E+00  0.00000000E+00  0.00000000E+00
  0.00000000E+00  0.00000000E+00  0.00000000E+00
  0.00000000E+00  0.00000000E+00  0.00000000E+00
  0.00000000E+00  0.00000000E+00  0.00000000E+00
  0.00000000E+00  0.00000000E+00  0.00000000E+00
  0.00000000E+00  0.00000000E+00  0.00000000E+00
  0.00000000E+00  0.00000000E+00  0.00000000E+00
  0.00000000E+00  0.00000000E+00  0.00000000E+00
  0.00000000E+00  0.00000000E+00  0.00000000E+00
  0.00000000E+00  0.00000000E+00  0.00000000E+00
  0.00000000E+00  0.00000000E+00  0.00000000E+00
  0.00000000E+00  0.00000000E+00  0.00000000E+00
  0.00000000E+00  0.00000000E+00  0.00000000E+00
  0.00000000E+00  0.00000000E+00  0.00000000E+00
  0.00000000E+00  0.00000000E+00  0.00000000E+00
  0.00000000E+00  0.00000000E+00  0.00000000E+00
  0.00000000E+00  0.00000000E+00  0.00000000E+00
  0.00000000E+00  0.00000000E+00  0.00000000E+00
  0.00000000E+00  0.00000000E+00  0.00000000E+00
  0.00000000E+00  0.00000000E+00  0.00000000E+00
  0.00000000E+00  0.00000000E+00  0.00000000E+00
  0.00000000E+00  0.00000000E+00  0.00000000E+00
  0.00000000E+00  0.00000000E+00  0.00000000E+00
  0.00000000E+00  0.00000000E+00  0.00000000E+00
  0.00000000E+00  0.00000000E+00  0.00000000E+00
  0.00000000E+00  0.00000000E+00  0.00000000E+00
  0.00000000E+00  0.00000000E+00  0.00000000E+00
  0.00000000E+00  0.00000000E+00  0.00000000E+00
  0.00000000E+00  0.00000000E+00  0.00000000E+00
  0.00000000E+00  0.00000000E+00  0.00000000E+00
  0.00000000E+00  0.00000000E+00  0.00000000E+00
  0.00000000E+00  0.00000000E+00  0.00000000E+00
  0.00000000E+00  0.00000000E+00  0.00000000E+00
  0.00000000E+00  0.00000000E+00  0.00000000E+00
  0.00000000E+00  0.00000000E+00  0.00000000E+00
  0.00000000E+00  0.00000000E+00  0.00000000E+00
  0.00000000E+00  0.00000000E+00  0.00000000E+00
  0.00000000E+00  0.00000000E+00  0.00000000E+00
  0.00000000E+00  0.00000000E+00  0.00000000E+00
  0.00000000E+00  0.00000000E+00  0.00000000E+00
  0.00000000E+00  0.00000000E+00  0.00000000E+00
  0.00000000E+00  0.00000000E+00  0.00000000E+00
  0.00000000E+00  0.00000000E+00  0.00000000E+00
  0.00000000E+00  0.00000000E+00  0.00000000E+00
  0.00000000E+00  0.00000000E+00  0.00000000E+00
  0.00000000E+00  0.00000000E+00  0.00000000E+00
  0.00000000E+00  0.00000000E+00  0.00000000E+00
  0.00000000E+00  0.00000000E+00  0.00000000E+00
  0.00000000E+00  0.00000000E+00  0.00000000E+00
  0.00000000E+00  0.00000000E+00  0.00000000E+00
  0.00000000E+00  0.00000000E+00  0.00000000E+00
  0.00000000E+00  0.00000000E+00  0.00000000E+00
  0.00000000E+00  0.00000000E+00  0.00000000E+00
