 vasp.6.4.2 20Jul23 (build Nov 12 2023 22:16:35) complex                         
 executed on              LinuxNV date 2025.04.27  01:52:27
 running    4 mpi-ranks, on    1 nodes
 distrk:  each k-point on    1 cores,    4 groups
 distr:  one band on NCORE=   1 cores,    1 groups
 OpenACC runtime initialized ...    4 GPUs detected


--------------------------------------------------------------------------------------------------------


 INCAR:
   PREC = Normal
   ENCUT = 450
   NELM = 500
   IBRION = -1
   ISPIN = 1
   NSW = 0
   ISIF = 2
   EDIFF = 1E-5
   EDIFFG = -5E-3
   ISTART = 0
   ICHARG = 0
   ISMEAR = 0
   SIGMA = 0.05
   LWAVE = .T.
   LCHARG = .T.
   LREAL = Auto
   LPLANE = .TRUE.
   NPAR = 1
   KPAR = 4
   NCORE = 1
   ALGO = All
   LHFCALC = .TRUE.
   HSE06 = .TRUE.
   HFSCREEN = 0.2
   TIME = 0.4
   AEXX = 0.32
   LMAXFOCK = 4
   PRECFOCK = Fast
   ICORELEVEL = 1

 POTCAR:    PAW_PBE Ga_d 06Jul2010                
 POTCAR:    PAW_PBE O 08Apr2002                   
 POTCAR:    PAW_PBE Fe 06Sep2000                  
 POTCAR:    PAW_PBE Ga_d 06Jul2010                
   SHA256 =  a60ddf36e14f00ea098d9e3914b3745f1b7105e68786148f49ae384e44b4226c Ga_d/POTCAR           
   COPYR  = (c) Copyright 06Jul2010 Georg Kresse                                                    
   COPYR  = This file is part of the software VASP. Any use, copying, and all other rights are regul
   COPYR  = If you do not have a valid VASP license, you may not use, copy or distribute this file. 
   VRHFIN =Ga: s2p1                                                                                 
   LEXCH  = PE                                                                                      
   EATOM  =  2148.8298 eV,  157.9345 Ry                                                             
                                                                                                    
   TITEL  = PAW_PBE Ga_d 06Jul2010                                                                  
   LULTRA =        F    use ultrasoft PP ?                                                          
   IUNSCR =        1    unscreen: 0-lin 1-nonlin 2-no                                               
   RPACOR =    1.700    partial core radius                                                         
   POMASS =   69.723; ZVAL   =   13.000    mass and valenz                                          
   RCORE  =    2.300    outmost cutoff radius                                                       
   RWIGS  =    2.300; RWIGS  =    1.217    wigner-seitz radius (au A)                               
   ENMAX  =  282.691; ENMIN  =  212.018 eV                                                          
   ICORE  =        3    local potential                                                             
   LCOR   =        T    correct aug charges                                                         
   LPAW   =        T    paw PP                                                                      
   EAUG   =  490.690                                                                                
   DEXC   =    0.000                                                                                
   RMAX   =    2.341    core radius for proj-oper                                                   
   RAUG   =    1.300    factor for augmentation sphere                                              
   RDEP   =    2.413    radius for radial grids                                                     
   RDEPT  =    1.856    core radius for aug-charge                                                  
                                                                                                    
   Atomic configuration                                                                             
    9 entries                                                                                       
     n  l   j            E        occ.                                                              
     1  0  0.50    -10228.7831   2.0000                                                             
     2  0  0.50     -1262.1604   2.0000                                                             
     2  1  1.50     -1098.6333   6.0000                                                             
     3  0  0.50      -148.1110   2.0000                                                             
     3  1  1.50       -98.8436   6.0000                                                             
     3  2  2.50       -19.1549  10.0000                                                             
     4  0  0.50        -8.9483   2.0000                                                             
     4  1  0.50        -2.5791   1.0000                                                             
     4  3  2.50        -2.7416   0.0000                                                             
   Description                                                                                      
     l       E           TYP  RCUT    TYP  RCUT                                                     
     2    -19.1549037     23  2.300                                                                 
     2     -5.4423304     23  2.300                                                                 
     0     -8.9483111     23  2.300                                                                 
     0     68.0291300     23  2.300                                                                 
     1     -2.5790802     23  2.100                                                                 
     1     81.6349560     23  2.300                                                                 
     3      6.8029130     23  2.300                                                                 
  local pseudopotential read in
  partial core-charges read in
  partial kinetic energy density read in
  atomic valenz-charges read in
  non local Contribution for L=            2  read in
    real space projection operators read in
  non local Contribution for L=            2  read in
    real space projection operators read in
  non local Contribution for L=            0  read in
    real space projection operators read in
  non local Contribution for L=            0  read in
    real space projection operators read in
  non local Contribution for L=            1  read in
    real space projection operators read in
  non local Contribution for L=            1  read in
    real space projection operators read in
    PAW grid and wavefunctions read in
 
   number of l-projection  operators is LMAX  =            6
   number of lm-projection operators is LMMAX =           18
 
 POTCAR:    PAW_PBE O 08Apr2002                   
   SHA256 =  818f92134a0a090dccd8ba1447fa70422a3b330e708bb4f08108d8ae51209ddf O/POTCAR              
   COPYR  = (c) Copyright 08Apr2002 Georg Kresse                                                    
   COPYR  = This file is part of the software VASP. Any use, copying, and all other rights are regul
   COPYR  = If you do not have a valid VASP license, you may not use, copy or distribute this file. 
   VRHFIN =O: s2p4                                                                                  
   LEXCH  = PE                                                                                      
   EATOM  =   432.3788 eV,   31.7789 Ry                                                             
                                                                                                    
   TITEL  = PAW_PBE O 08Apr2002                                                                     
   LULTRA =        F    use ultrasoft PP ?                                                          
   IUNSCR =        1    unscreen: 0-lin 1-nonlin 2-no                                               
   RPACOR =    1.200    partial core radius                                                         
   POMASS =   16.000; ZVAL   =    6.000    mass and valenz                                          
   RCORE  =    1.520    outmost cutoff radius                                                       
   RWIGS  =    1.550; RWIGS  =    0.820    wigner-seitz radius (au A)                               
   ENMAX  =  400.000; ENMIN  =  300.000 eV                                                          
   ICORE  =        2    local potential                                                             
   LCOR   =        T    correct aug charges                                                         
   LPAW   =        T    paw PP                                                                      
   EAUG   =  605.392                                                                                
   DEXC   =    0.000                                                                                
   RMAX   =    1.553    core radius for proj-oper                                                   
   RAUG   =    1.300    factor for augmentation sphere                                              
   RDEP   =    1.550    radius for radial grids                                                     
   RDEPT  =    1.329    core radius for aug-charge                                                  
                                                                                                    
   Atomic configuration                                                                             
    4 entries                                                                                       
     n  l   j            E        occ.                                                              
     1  0  0.50      -514.6923   2.0000                                                             
     2  0  0.50       -23.9615   2.0000                                                             
     2  1  0.50        -9.0305   4.0000                                                             
     3  2  1.50        -9.5241   0.0000                                                             
   Description                                                                                      
     l       E           TYP  RCUT    TYP  RCUT                                                     
     0    -23.9615318     23  1.200                                                                 
     0     -9.5240782     23  1.200                                                                 
     1     -9.0304911     23  1.520                                                                 
     1      8.1634956     23  1.520                                                                 
     2     -9.5240782      7  1.500                                                                 
  local pseudopotential read in
  partial core-charges read in
  partial kinetic energy density read in
  kinetic energy density of atom read in
  atomic valenz-charges read in
  non local Contribution for L=            0  read in
    real space projection operators read in
  non local Contribution for L=            0  read in
    real space projection operators read in
  non local Contribution for L=            1  read in
    real space projection operators read in
  non local Contribution for L=            1  read in
    real space projection operators read in
    PAW grid and wavefunctions read in
 
   number of l-projection  operators is LMAX  =            4
   number of lm-projection operators is LMMAX =            8
 
 POTCAR:    PAW_PBE Fe 06Sep2000                  
   SHA256 =  cd5a22d9368cc8b5cc476bea79732366149640da08ac9009b0e1b7fc627eea28 Fe/POTCAR             
   COPYR  = (c) Copyright 06Sep2000 Georg Kresse                                                    
   COPYR  = This file is part of the software VASP. Any use, copying, and all other rights are regul
   COPYR  = If you do not have a valid VASP license, you may not use, copy or distribute this file. 
   VRHFIN =Fe:  d7 s1                                                                               
   LEXCH  = PE                                                                                      
   EATOM  =   594.3153 eV,   43.6809 Ry                                                             
                                                                                                    
   TITEL  = PAW_PBE Fe 06Sep2000                                                                    
   LULTRA =        F    use ultrasoft PP ?                                                          
   IUNSCR =        1    unscreen: 0-lin 1-nonlin 2-no                                               
   RPACOR =    2.000    partial core radius                                                         
   POMASS =   55.847; ZVAL   =    8.000    mass and valenz                                          
   RCORE  =    2.300    outmost cutoff radius                                                       
   RWIGS  =    2.460; RWIGS  =    1.302    wigner-seitz radius (au A)                               
   ENMAX  =  267.882; ENMIN  =  200.911 eV                                                          
   RCLOC  =    1.701    cutoff for local pot                                                        
   LCOR   =        T    correct aug charges                                                         
   LPAW   =        T    paw PP                                                                      
   EAUG   =  511.368                                                                                
   DEXC   =    0.000                                                                                
   RMAX   =    2.356    core radius for proj-oper                                                   
   RAUG   =    1.300    factor for augmentation sphere                                              
   RDEP   =    2.442    radius for radial grids                                                     
   RDEPT  =    1.890    core radius for aug-charge                                                  
                                                                                                    
   Atomic configuration                                                                             
    9 entries                                                                                       
     n  l   j            E        occ.                                                              
     1  0  0.50     -6993.8440   2.0000                                                             
     2  0  0.50      -814.6047   2.0000                                                             
     2  1  1.50      -693.3689   6.0000                                                             
     3  0  0.50       -89.4732   2.0000                                                             
     3  1  1.50       -55.6373   6.0000                                                             
     3  2  2.50        -3.8151   7.0000                                                             
     4  0  0.50        -4.2551   1.0000                                                             
     4  1  1.50        -3.4015   0.0000                                                             
     4  3  2.50        -1.3606   0.0000                                                             
   Description                                                                                      
     l       E           TYP  RCUT    TYP  RCUT                                                     
     2     -3.8151135     23  2.300                                                                 
     2     -5.1756961     23  2.300                                                                 
     0     -4.2550963     23  2.300                                                                 
     0      7.2035603     23  2.300                                                                 
     1     -2.7211652     23  2.300                                                                 
     1     18.4316424     23  2.300                                                                 
  local pseudopotential read in
  partial core-charges read in
  partial kinetic energy density read in
  atomic valenz-charges read in
  non local Contribution for L=            2  read in
    real space projection operators read in
  non local Contribution for L=            2  read in
    real space projection operators read in
  non local Contribution for L=            0  read in
    real space projection operators read in
  non local Contribution for L=            0  read in
    real space projection operators read in
  non local Contribution for L=            1  read in
    real space projection operators read in
  non local Contribution for L=            1  read in
    real space projection operators read in
    PAW grid and wavefunctions read in
 
   number of l-projection  operators is LMAX  =            6
   number of lm-projection operators is LMMAX =           18
 
 Optimization of the real space projectors (new method)

 maximal supplied QI-value         = 16.25
 optimisation between [QCUT,QGAM] = [ 10.73, 21.61] = [ 32.22,130.83] Ry 
 Optimized for a Real-space Cutoff    1.42 Angstroem

   l    n(q)    QCUT    max X(q) W(low)/X(q) W(high)/X(q)  e(spline) 
   2      8    10.726     7.143    0.22E-03    0.16E-03    0.73E-07
   2      8    10.726     5.586    0.40E-03    0.26E-03    0.10E-06
   0      9    10.726    12.382    0.25E-04    0.21E-05    0.37E-07
   0      9    10.726     6.622    0.42E-04    0.48E-05    0.77E-07
   1      9    10.726     7.935    0.27E-03    0.13E-04    0.16E-06
   1      9    10.726     2.425    0.23E-03    0.15E-04    0.14E-06
 Optimization of the real space projectors (new method)

 maximal supplied QI-value         = 24.76
 optimisation between [QCUT,QGAM] = [ 10.64, 21.54] = [ 31.73,129.89] Ry 
 Optimized for a Real-space Cutoff    1.23 Angstroem

   l    n(q)    QCUT    max X(q) W(low)/X(q) W(high)/X(q)  e(spline) 
   0      8    10.645    20.381    0.38E-03    0.60E-03    0.15E-06
   0      8    10.645    15.268    0.40E-03    0.65E-03    0.17E-06
   1      7    10.645     5.964    0.30E-03    0.63E-03    0.18E-06
   1      7    10.645     5.382    0.24E-03    0.53E-03    0.16E-06
 Optimization of the real space projectors (new method)

 maximal supplied QI-value         = 16.25
 optimisation between [QCUT,QGAM] = [ 10.73, 21.61] = [ 32.22,130.83] Ry 
 Optimized for a Real-space Cutoff    1.38 Angstroem

   l    n(q)    QCUT    max X(q) W(low)/X(q) W(high)/X(q)  e(spline) 
   2      8    10.726    80.901    0.27E-03    0.52E-03    0.20E-06
   2      8    10.726    75.754    0.27E-03    0.52E-03    0.20E-06
   0      9    10.726    58.752    0.33E-03    0.19E-03    0.52E-07
   0      9    10.726    30.679    0.30E-03    0.18E-03    0.49E-07
   1      8    10.726    17.977    0.22E-03    0.18E-03    0.17E-06
   1      8    10.726    13.559    0.18E-03    0.14E-03    0.14E-06
  PAW_PBE Ga_d 06Jul2010                :
 energy of atom  1       EATOM=-2148.8298
 kinetic energy error for atom=    0.0038 (will be added to EATOM!!)
  PAW_PBE O 08Apr2002                   :
 energy of atom  2       EATOM= -432.3788
 kinetic energy error for atom=    0.0389 (will be added to EATOM!!)
  PAW_PBE Fe 06Sep2000                  :
 energy of atom  3       EATOM= -594.3153
 kinetic energy error for atom=    0.0034 (will be added to EATOM!!)
 
 
 POSCAR: Ga8 O12
  positions in direct lattice
  velocities in cartesian coordinates
 exchange correlation table for  LEXCH =        8
   RHO(1)=    0.500       N(1)  =     2000
   RHO(2)=  100.500       N(2)  =     4000
 


--------------------------------------------------------------------------------------------------------


 ion  position               nearest neighbor table
   1  0.659  1.000  0.157-  84 1.94  78 1.95  82 1.95  66 2.03  64 2.07  60 2.09
   2  0.659  1.000  0.657-  85 1.95  79 1.95  83 1.96  67 2.02  65 2.07  61 2.08
   3  0.659  0.333  0.157-  86 1.94  78 1.95  80 1.95  68 2.03  62 2.07  60 2.09
   4  0.659  0.333  0.657-  87 1.95  79 1.95  81 1.96  69 2.02  63 2.07  61 2.08
   5  0.659  0.667  0.157-  88 1.95  82 1.96  80 1.96  70 2.02  64 2.07  62 2.07
   6  0.660  0.667  0.656-  89 1.95  83 1.96  81 1.96  71 2.02  65 2.08  63 2.08
   7  0.841  0.167  0.843-  91 1.94  75 1.96  73 1.96  61 2.02  69 2.08  67 2.08
   8  0.841  0.499  0.344-  92 1.94  74 1.96  76 1.96  62 2.02  68 2.08  70 2.08
   9  0.841  0.500  0.843-  93 1.94  77 1.95  75 1.96  63 2.02  71 2.08  69 2.08
  10  0.841  0.834  0.344-  94 1.94  72 1.96  76 1.96  64 2.02  66 2.08  70 2.08
  11  0.841  0.834  0.843-  95 1.94  77 1.95  73 1.96  65 2.02  71 2.08  67 2.08
  12  0.593  0.167  0.399-  79 1.84  56 1.85  54 1.85  60 1.88
  13  0.591  0.167  0.898-  78 1.84  57 1.85  55 1.85  61 1.87
  14  0.591  0.500  0.398-  81 1.84  56 1.85  58 1.85  62 1.87
  15  0.591  0.500  0.898-  80 1.84  57 1.85  59 1.85  63 1.87
  16  0.591  0.834  0.398-  83 1.84  54 1.85  58 1.85  64 1.87
  17  0.591  0.833  0.898-  82 1.84  55 1.85  59 1.85  65 1.87
  18  0.909  0.001  0.103-  73 1.84  48 1.84  52 1.85  66 1.88
  19  0.908  0.002  0.600-  49 1.84  72 1.85  53 1.85  67 1.88
  20  0.909  0.333  0.103-  75 1.84  48 1.84  50 1.85  68 1.88
  21  0.908  0.332  0.600-  49 1.84  74 1.85  51 1.85  69 1.88
  22  0.909  0.667  0.102-  77 1.84  52 1.85  50 1.85  70 1.87
  23  0.909  0.667  0.602-  76 1.84  53 1.85  51 1.85  71 1.87
  24  0.159  0.167  0.157-  48 1.94 116 1.95 114 1.95 102 2.02  98 2.08  96 2.08
  25  0.159  0.167  0.656-  49 1.94 117 1.95 115 1.95 103 2.03  99 2.08  97 2.08
  26  0.159  0.500  0.157-  50 1.95 116 1.95 118 1.95 104 2.03 100 2.08  98 2.08
  27  0.158  0.500  0.656-  51 1.95 119 1.95 117 1.95 105 2.03  99 2.07 101 2.08
  28  0.159  0.834  0.157-  52 1.95 114 1.95 118 1.95 106 2.03 100 2.08  96 2.08
  29  0.158  0.834  0.656-  53 1.95 119 1.95 115 1.95 107 2.03  97 2.07 101 2.08
  30  0.341  0.000  0.344- 108 1.95  54 1.95 112 1.95  96 2.03 102 2.08 106 2.08
  31  0.341  1.000  0.843-  55 1.95 113 1.95 109 1.95  97 2.02 107 2.08 103 2.08
  32  0.341  0.333  0.344- 108 1.95  56 1.95 110 1.95  98 2.03 102 2.08 104 2.08
  33  0.341  0.333  0.843-  57 1.95 111 1.95 109 1.95  99 2.02 105 2.08 103 2.08
  34  0.341  0.667  0.343-  58 1.95 112 1.95 110 1.95 100 2.02 106 2.08 104 2.08
  35  0.341  0.667  0.843-  59 1.95 113 1.95 111 1.95 101 2.03 107 2.08 105 2.08
  36  0.089  0.001  0.397-  94 1.84 115 1.85  90 1.85  96 1.88
  37  0.091  1.000  0.898- 114 1.84  91 1.85  95 1.85  97 1.87
  38  0.089  0.332  0.397-  92 1.84 117 1.85  90 1.85  98 1.88
  39  0.091  0.333  0.898- 116 1.84  91 1.85  93 1.85  99 1.87
  40  0.091  0.667  0.398- 119 1.84  94 1.85  92 1.85 100 1.87
  41  0.091  0.667  0.898- 118 1.84  95 1.85  93 1.85 101 1.87
  42  0.409  0.167  0.103- 109 1.84  86 1.85  84 1.85 102 1.87
  43  0.409  0.167  0.603- 108 1.84  87 1.85  85 1.85 103 1.87
  44  0.409  0.500  0.103- 111 1.84  88 1.85  86 1.85 104 1.87
  45  0.409  0.500  0.603- 110 1.84  87 1.85  89 1.85 105 1.87
  46  0.409  0.833  0.103- 113 1.84  88 1.85  84 1.85 106 1.87
  47  0.409  0.833  0.603- 112 1.84  85 1.85  89 1.85 107 1.87
  48  0.997  0.167  0.128-  20 1.84  18 1.84  24 1.94
  49  0.997  0.167  0.629-  21 1.84  19 1.84  25 1.94
  50  0.996  0.500  0.128-  22 1.85  20 1.85  26 1.95
  51  0.995  0.499  0.626-  23 1.85  21 1.85  27 1.95
  52  0.996  0.834  0.128-  22 1.85  18 1.85  28 1.95
  53  0.995  0.834  0.626-  23 1.85  19 1.85  29 1.95
  54  0.504  0.001  0.373-  16 1.85  12 1.85  30 1.95
  55  0.504  1.000  0.873-  13 1.85  17 1.85  31 1.95
  56  0.504  0.332  0.373-  14 1.85  12 1.85  32 1.95
  57  0.504  0.333  0.873-  13 1.85  15 1.85  33 1.95
  58  0.504  0.667  0.373-  16 1.85  14 1.85  34 1.95
  59  0.504  0.667  0.873-  17 1.85  15 1.85  35 1.95
  60  0.676  0.167  0.283-  12 1.88 120 1.94   3 2.09   1 2.09
  61  0.673  0.167  0.781-  13 1.87   7 2.02   4 2.08   2 2.08
  62  0.672  0.500  0.280-  14 1.87   8 2.02   3 2.07   5 2.07
  63  0.673  0.500  0.781-  15 1.87   9 2.02   4 2.07   6 2.08
  64  0.672  0.834  0.280-  16 1.87  10 2.02   1 2.07   5 2.07
  65  0.673  0.833  0.781-  17 1.87  11 2.02   2 2.07   6 2.08
  66  0.828  0.003  0.221-  18 1.88 120 1.99   1 2.03  10 2.08
  67  0.828  0.000  0.719-  19 1.88   2 2.02   7 2.08  11 2.08
  68  0.828  0.330  0.221-  20 1.88 120 1.99   3 2.03   8 2.08
  69  0.828  0.333  0.719-  21 1.88   4 2.02   7 2.08   9 2.08
  70  0.827  0.667  0.220-  22 1.87   5 2.02  10 2.08   8 2.08
  71  0.828  0.667  0.720-  23 1.87   6 2.02  11 2.08   9 2.08
  72  0.832  0.005  0.442-  19 1.85 120 1.93  10 1.96
  73  0.832  0.000  0.946-  18 1.84  11 1.96   7 1.96
  74  0.832  0.328  0.442-  21 1.85 120 1.93   8 1.96
  75  0.832  0.333  0.946-  20 1.84   9 1.96   7 1.96
  76  0.832  0.667  0.446-  23 1.84  10 1.96   8 1.96
  77  0.832  0.667  0.946-  22 1.84  11 1.95   9 1.95
  78  0.668  0.167  0.055-  13 1.84   3 1.95   1 1.95
  79  0.669  0.167  0.555-  12 1.84   4 1.95   2 1.95
  80  0.669  0.500  0.055-  15 1.84   3 1.95   5 1.96
  81  0.669  0.500  0.554-  14 1.84   6 1.96   4 1.96
  82  0.669  0.834  0.055-  17 1.84   1 1.95   5 1.96
  83  0.669  0.834  0.554-  16 1.84   6 1.96   2 1.96
  84  0.497  0.000  0.128-  42 1.85  46 1.85   1 1.94
  85  0.497  1.000  0.628-  43 1.85  47 1.85   2 1.95
  86  0.497  0.333  0.128-  42 1.85  44 1.85   3 1.94
  87  0.497  0.333  0.628-  43 1.85  45 1.85   4 1.95
  88  0.497  0.667  0.127-  46 1.85  44 1.85   5 1.95
  89  0.497  0.667  0.627-  47 1.85  45 1.85   6 1.95
  90  0.000  0.167  0.374-  38 1.85  36 1.85 120 1.93
  91  0.004  0.167  0.873-  39 1.85  37 1.85   7 1.94
  92  0.003  0.500  0.372-  38 1.84  40 1.85   8 1.94
  93  0.004  0.500  0.873-  39 1.85  41 1.85   9 1.94
  94  0.003  0.833  0.372-  36 1.84  40 1.85  10 1.94
  95  0.004  0.833  0.873-  37 1.85  41 1.85  11 1.94
  96  0.172  0.000  0.281-  36 1.88  30 2.03  24 2.08  28 2.08
  97  0.173  1.000  0.780-  37 1.87  31 2.02  29 2.07  25 2.08
  98  0.172  0.333  0.281-  38 1.88  32 2.03  24 2.08  26 2.08
  99  0.173  0.334  0.780-  39 1.87  33 2.02  27 2.07  25 2.08
 100  0.173  0.667  0.281-  40 1.87  34 2.02  28 2.08  26 2.08
 101  0.172  0.667  0.780-  41 1.87  35 2.03  29 2.08  27 2.08
 102  0.327  0.167  0.220-  42 1.87  24 2.02  32 2.08  30 2.08
 103  0.327  0.167  0.720-  43 1.87  25 2.03  33 2.08  31 2.08
 104  0.327  0.500  0.220-  44 1.87  26 2.03  32 2.08  34 2.08
 105  0.327  0.500  0.719-  45 1.87  27 2.03  35 2.08  33 2.08
 106  0.327  0.834  0.220-  46 1.87  28 2.03  30 2.08  34 2.08
 107  0.327  0.833  0.719-  47 1.87  29 2.03  35 2.08  31 2.08
 108  0.332  0.167  0.446-  43 1.84  32 1.95  30 1.95
 109  0.332  0.167  0.946-  42 1.84  33 1.95  31 1.95
 110  0.333  0.500  0.446-  45 1.84  32 1.95  34 1.95
 111  0.332  0.500  0.946-  44 1.84  33 1.95  35 1.95
 112  0.333  0.833  0.446-  47 1.84  30 1.95  34 1.95
 113  0.332  0.833  0.946-  46 1.84  31 1.95  35 1.95
 114  0.168  1.000  0.054-  37 1.84  28 1.95  24 1.95
 115  0.167  0.000  0.554-  36 1.85  25 1.95  29 1.95
 116  0.168  0.333  0.054-  39 1.84  26 1.95  24 1.95
 117  0.167  0.333  0.554-  38 1.85  25 1.95  27 1.95
 118  0.167  0.667  0.055-  41 1.84  28 1.95  26 1.95
 119  0.168  0.667  0.554-  40 1.84  29 1.95  27 1.95
 120  0.838  0.167  0.336-  74 1.93  72 1.93  90 1.93  60 1.94  68 1.99  66 1.99
 
  LATTYP: Found a simple monoclinic cell.
 ALAT       =    11.6348199845
 B/A-ratio  =     0.7858051230
 C/A-ratio  =     1.0554932286
 COS(beta)  =    -0.2379290479
  
  Lattice vectors:
  
 A1 = (   0.0000000000,  -2.7682616411, -11.3006974810)
 A2 = (  -9.1427011490,   0.0000000000,   0.0000000000)
 A3 = (   0.0000000000,  12.2804737091,   0.0000000000)


Analysis of symmetry for initial positions (statically):
=====================================================================
 Subroutine PRICEL returns:
 Original cell was already a primitive cell.
 

 Routine SETGRP: Setting up the symmetry group for a 
 simple monoclinic supercell.


 Subroutine GETGRP returns: Found  2 space group operations
 (whereof  1 operations were pure point group operations)
 out of a pool of  4 trial point group operations.


The static configuration has the point symmetry C_1 .
 The point group associated with its full space group is C_1h.


Analysis of symmetry for dynamics (positions and initial velocities):
=====================================================================
 Subroutine PRICEL returns:
 Original cell was already a primitive cell.
 

 Routine SETGRP: Setting up the symmetry group for a 
 simple monoclinic supercell.


 Subroutine GETGRP returns: Found  2 space group operations
 (whereof  1 operations were pure point group operations)
 out of a pool of  4 trial point group operations.


The dynamic configuration has the point symmetry C_1 .
 The point group associated with its full space group is C_1h.


 Subroutine INISYM returns: Found  2 space group operations
 (whereof  1 operations are pure point group operations),
 and found     1 'primitive' translations


----------------------------------------------------------------------------------------

                                     Primitive cell                                     

  volume of cell :    1268.8050

  direct lattice vectors                    reciprocal lattice vectors
     0.000000000 12.280473709  0.000000000     0.000000000  0.081430084 -0.019947422
     9.142701149  0.000000000  0.000000000     0.109376866 -0.000000000  0.000000000
     0.000000000 -2.768261641-11.300697481     0.000000000  0.000000000 -0.088490113

  length of vectors
    12.280473709  9.142701149 11.634819984     0.083837689  0.109376866  0.088490113

  position of ions in fractional coordinates (direct lattice)
     0.659335108  0.999924693  0.156956226
     0.659379980  0.999877275  0.657291000
     0.659335108  0.333408307  0.156956226
     0.659379980  0.333455725  0.657291000
     0.659267995  0.666667000  0.156960035
     0.659521656  0.666667000  0.656471659
     0.841389113  0.166667000  0.843089421
     0.840959325  0.499118650  0.343542922
     0.841393839  0.499809219  0.843250138
     0.840959325  0.834214350  0.343542922
     0.841393839  0.833523781  0.843250138
     0.593351133  0.166667000  0.398892119
     0.591113054  0.166667000  0.897905623
     0.590945079  0.499680833  0.397606162
     0.591434996  0.499983401  0.897870455
     0.590945079  0.833652167  0.397606162
     0.591434996  0.833349599  0.897870455
     0.908784816  0.000815727  0.102926788
     0.907707229  0.001827470  0.599660777
     0.908784816  0.332517273  0.102926788
     0.907707229  0.331505530  0.599660777
     0.908691642  0.666667000  0.102245214
     0.908852409  0.666667000  0.602227478
     0.159104264  0.166667000  0.156927732
     0.158834607  0.166667000  0.656280795
     0.158713587  0.499716582  0.157055831
     0.158313250  0.499617720  0.656260727
     0.158713587  0.833616418  0.157055831
     0.158313250  0.833715280  0.656260727
     0.341036840  0.000262061  0.343833632
     0.340951026  0.999924929  0.843312954
     0.341036840  0.333070939  0.343833632
     0.340951026  0.333408071  0.843312954
     0.341089352  0.666667000  0.343461738
     0.340876009  0.666667000  0.843210135
     0.088652401  0.001036778  0.397157059
     0.091179053  0.999998793  0.897627398
     0.088652401  0.332296222  0.397157059
     0.091179053  0.333334207  0.897627398
     0.091074500  0.666667000  0.397679003
     0.091243327  0.666667000  0.897911045
     0.408812631  0.166667000  0.102608848
     0.409311230  0.166667000  0.602652811
     0.409070795  0.499835940  0.102635844
     0.409161118  0.500064282  0.602644166
     0.409070795  0.833497060  0.102635844
     0.409161118  0.833268718  0.602644166
     0.996739841  0.166667000  0.128073370
     0.996637875  0.166667000  0.628855531
     0.995851709  0.499648150  0.127550696
     0.995201000  0.498923667  0.625767236
     0.995851709  0.833684850  0.127550696
     0.995201000  0.834409333  0.625767236
     0.504229069  0.000949976  0.372794040
     0.503738278  0.999878362  0.873000154
     0.504229069  0.332383024  0.372794040
     0.503738278  0.333454638  0.873000154
     0.503798077  0.666667000  0.372746108
     0.503899908  0.666667000  0.873086022
     0.676356466  0.166667000  0.282678624
     0.672811784  0.166667000  0.781003061
     0.672423064  0.499776011  0.280338110
     0.672808247  0.499947657  0.780550159
     0.672423064  0.833556989  0.280338110
     0.672808247  0.833385343  0.780550159
     0.827763770  0.003297413  0.221222665
     0.827802270  0.000050048  0.719058144
     0.827763770  0.330035587  0.221222665
     0.827802270  0.333282952  0.719058144
     0.827338277  0.666667000  0.219538547
     0.827612135  0.666667000  0.719591274
     0.832294919  0.005265693  0.441955350
     0.832426368  0.000120860  0.945982550
     0.832294919  0.328067307  0.441955350
     0.832426368  0.333212140  0.945982550
     0.831603319  0.666667000  0.445648787
     0.832304194  0.666667000  0.945566050
     0.667694676  0.166667000  0.054650230
     0.668668194  0.166667000  0.555450344
     0.668730414  0.499769892  0.054525528
     0.668516154  0.499640848  0.554076017
     0.668730414  0.833563108  0.054525528
     0.668516154  0.833692152  0.554076017
     0.496743397  0.000312227  0.127947178
     0.496663094  0.999911445  0.627525779
     0.496743397  0.333020773  0.127947178
     0.496663094  0.333421555  0.627525779
     0.496521426  0.666667000  0.127148496
     0.496827179  0.666667000  0.627317956
     0.000115129  0.166667000  0.373903353
     0.003906904  0.166667000  0.873498261
     0.003272967  0.500443117  0.372398551
     0.003844033  0.500027172  0.872598223
     0.003272967  0.832889883  0.372398551
     0.003844033  0.833305828  0.872598223
     0.171966383  0.000412638  0.281055277
     0.172661389  0.999815315  0.780412709
     0.171966383  0.332920362  0.281055277
     0.172661389  0.333517685  0.780412709
     0.172675330  0.666667000  0.280638958
     0.172059845  0.666667000  0.780131958
     0.327313384  0.166667000  0.219777944
     0.327459339  0.166667000  0.719523345
     0.327474666  0.499573060  0.219784804
     0.327274474  0.500062098  0.719438485
     0.327474666  0.833759940  0.219784804
     0.327274474  0.833270902  0.719438485
     0.332406074  0.166667000  0.446166590
     0.332280540  0.166667000  0.945913221
     0.332642403  0.500000164  0.445975411
     0.332274946  0.500042150  0.945963050
     0.332642403  0.833332836  0.445975411
     0.332274946  0.833290850  0.945963050
     0.167854841  0.999908460  0.054419133
     0.167198750  0.000218300  0.553567748
     0.167854841  0.333424540  0.054419133
     0.167198750  0.333114700  0.553567748
     0.167479079  0.666667000  0.054688819
     0.167532839  0.666667000  0.554329800
     0.838075169  0.166667000  0.336471546

  ion indices of the primitive-cell ions
   primitive index   ion index
                 1           1
                 2           2
                 3           3
                 4           4
                 5           5
                 6           6
                 7           7
                 8           8
                 9           9
                10          10
                11          11
                12          12
                13          13
                14          14
                15          15
                16          16
                17          17
                18          18
                19          19
                20          20
                21          21
                22          22
                23          23
                24          24
                25          25
                26          26
                27          27
                28          28
                29          29
                30          30
                31          31
                32          32
                33          33
                34          34
                35          35
                36          36
                37          37
                38          38
                39          39
                40          40
                41          41
                42          42
                43          43
                44          44
                45          45
                46          46
                47          47
                48          48
                49          49
                50          50
                51          51
                52          52
                53          53
                54          54
                55          55
                56          56
                57          57
                58          58
                59          59
                60          60
                61          61
                62          62
                63          63
                64          64
                65          65
                66          66
                67          67
                68          68
                69          69
                70          70
                71          71
                72          72
                73          73
                74          74
                75          75
                76          76
                77          77
                78          78
                79          79
                80          80
                81          81
                82          82
                83          83
                84          84
                85          85
                86          86
                87          87
                88          88
                89          89
                90          90
                91          91
                92          92
                93          93
                94          94
                95          95
                96          96
                97          97
                98          98
                99          99
               100         100
               101         101
               102         102
               103         103
               104         104
               105         105
               106         106
               107         107
               108         108
               109         109
               110         110
               111         111
               112         112
               113         113
               114         114
               115         115
               116         116
               117         117
               118         118
               119         119
               120         120

----------------------------------------------------------------------------------------

 
 
 KPOINTS: Automatic mesh                          

Automatic generation of k-mesh.
 Grid dimensions read from file:
 generate k-points for:    2    2    2

 Generating k-lattice:

  Cartesian coordinates                     Fractional coordinates (reciprocal lattice)
     0.000000000  0.040715042 -0.009973711     0.500000000  0.000000000 -0.000000000
     0.054688433 -0.000000000  0.000000000     0.000000000  0.500000000  0.000000000
     0.000000000  0.000000000 -0.044245057     0.000000000  0.000000000  0.500000000

  Length of vectors
     0.041918845  0.054688433  0.044245057

  Shift w.r.t. Gamma in fractional coordinates (k-lattice)
     0.000000000  0.000000000  0.000000000

 
 Subroutine IBZKPT returns following result:
 ===========================================
 
 Found      8 irreducible k-points:
 
 Following reciprocal coordinates:
            Coordinates               Weight
  0.000000  0.000000  0.000000      1.000000
  0.500000  0.000000  0.000000      1.000000
  0.000000  0.500000  0.000000      1.000000
  0.500000  0.500000  0.000000      1.000000
  0.000000  0.000000  0.500000      1.000000
  0.500000  0.000000  0.500000      1.000000
  0.000000  0.500000  0.500000      1.000000
  0.500000  0.500000  0.500000      1.000000
 
 Following cartesian coordinates:
            Coordinates               Weight
  0.000000  0.000000 -0.000000      1.000000
  0.000000  0.040715 -0.009974      1.000000
  0.054688  0.000000 -0.000000      1.000000
  0.054688  0.040715 -0.009974      1.000000
  0.000000  0.000000 -0.044245      1.000000
  0.000000  0.040715 -0.054219      1.000000
  0.054688  0.000000 -0.044245      1.000000
  0.054688  0.040715 -0.054219      1.000000
 
 
 Subroutine IBZKPT_HF returns following result:
 ==============================================
 
 Found      8 k-points in 1st BZ
 the following      8 k-points will be used (e.g. in the exchange kernel)
 Following reciprocal coordinates:   # in IRBZ
  0.000000  0.000000  0.000000    0.12500000   1 t-inv F
  0.500000  0.000000  0.000000    0.12500000   2 t-inv F
  0.000000  0.500000  0.000000    0.12500000   3 t-inv F
  0.500000  0.500000  0.000000    0.12500000   4 t-inv F
  0.000000  0.000000  0.500000    0.12500000   5 t-inv F
  0.500000  0.000000  0.500000    0.12500000   6 t-inv F
  0.000000  0.500000  0.500000    0.12500000   7 t-inv F
  0.500000  0.500000  0.500000    0.12500000   8 t-inv F


--------------------------------------------------------------------------------------------------------




 Dimension of arrays:
   k-points           NKPTS =      8   k-points in BZ     NKDIM =      8   number of bands    NBANDS=    630
   number of dos      NEDOS =    301   number of ions     NIONS =    120
   non local maximal  LDIM  =      6   non local SUM 2l+1 LMDIM =     18
   total plane-waves  NPLWV = 184320
   max r-space proj   IRMAX =   1800   max aug-charges    IRDMAX=   5704
   dimension x,y,z NGX =    64 NGY =   48 NGZ =   60
   dimension x,y,z NGXF=   128 NGYF=   96 NGZF=  120
   support grid    NGXF=   128 NGYF=   96 NGZF=  120
   ions per type =              47  72   1
   NGX,Y,Z   is equivalent  to a cutoff of   8.66,  8.73,  8.57 a.u.
   NGXF,Y,Z  is equivalent  to a cutoff of  17.33, 17.46, 17.15 a.u.

 SYSTEM =  unknown system                          
 POSCAR =  Ga8 O12                                 

 Startparameter for this run:
   NWRITE =      2    write-flag & timer
   PREC   = normal    normal or accurate (medium, high low for compatibility)
   ISTART =      0    job   : 0-new  1-cont  2-samecut
   ICHARG =      0    charge: 1-file 2-atom 10-const
   ISPIN  =      1    spin polarized calculation?
   LNONCOLLINEAR =      F non collinear calculations
   LSORBIT =      F    spin-orbit coupling
   INIWAV =      1    electr: 0-lowe 1-rand  2-diag
   LASPH  =      F    aspherical Exc in radial PAW
 Electronic Relaxation 1
   ENCUT  =  450.0 eV  33.07 Ry    5.75 a.u.  21.24 15.81 20.12*2*pi/ulx,y,z
   ENINI  =  450.0     initial cutoff
   ENAUG  =  605.4 eV  augmentation charge cutoff
   NELM   =    500;   NELMIN=  2; NELMDL= -5     # of ELM steps 
   EDIFF  = 0.1E-04   stopping-criterion for ELM
   LREAL  =      T    real-space projection
   NLSPLINE    = F    spline interpolate recip. space projectors
   LCOMPAT=      F    compatible to vasp.4.4
   GGA_COMPAT  = T    GGA compatible to vasp.4.4-vasp.4.6
   LMAXPAW     = -100 max onsite density
   LMAXMIX     =    2 max onsite mixed and CHGCAR
   VOSKOWN=      0    Vosko Wilk Nusair interpolation
   ROPT   =   -0.00050  -0.00050  -0.00050
 Ionic relaxation
   EDIFFG = -.5E-02   stopping-criterion for IOM
   NSW    =      0    number of steps for IOM
   NBLOCK =      1;   KBLOCK =      1    inner block; outer block 
   IBRION =     -1    ionic relax: 0-MD 1-quasi-New 2-CG
   NFREE  =      0    steps in history (QN), initial steepest desc. (CG)
   ISIF   =      2    stress and relaxation
   IWAVPR =     10    prediction:  0-non 1-charg 2-wave 3-comb
   ISYM   =      3    0-nonsym 1-usesym 2-fastsym
   LCORR  =      T    Harris-Foulkes like correction to forces

   POTIM  = 0.5000    time-step for ionic-motion
   TEIN   =    0.0    initial temperature
   TEBEG  =    0.0;   TEEND  =   0.0 temperature during run
   SMASS  =  -3.00    Nose mass-parameter (am)
   estimated Nose-frequenzy (Omega)   =  0.10E-29 period in steps = 0.13E+47 mass=  -0.345E-26a.u.
   SCALEE = 1.0000    scale energy and forces
   NPACO  =    256;   APACO  = 10.0  distance and # of slots for P.C.
   PSTRESS=    0.0 pullay stress

  Mass of Ions in am
   POMASS =  69.72 16.00 55.85
  Ionic Valenz
   ZVAL   =  13.00  6.00  8.00
  Atomic Wigner-Seitz radii
   RWIGS  =  -1.00 -1.00 -1.00
  virtual crystal weights 
   VCA    =   1.00  1.00  1.00
   NELECT =    1051.0000    total number of electrons
   NUPDOWN=      -1.0000    fix difference up-down

 DOS related values:
   EMIN   =  10.00;   EMAX   =-10.00  energy-range for DOS
   EFERMI =   0.00;   METHOD = LEGACY      
   ISMEAR =     0;   SIGMA  =   0.05  broadening in eV -4-tet -1-fermi 0-gaus

 Electronic relaxation 2 (details)
   IALGO  =     58    algorithm
   LDIAG  =      T    sub-space diagonalisation (order eigenvalues)
   LSUBROT=      F    optimize rotation matrix (better conditioning)
   TURBO    =      0    0=normal 1=particle mesh
   IRESTART =      0    0=no restart 2=restart with 2 vectors
   NREBOOT  =      0    no. of reboots
   NMIN     =      0    reboot dimension
   EREF     =   0.00    reference energy to select bands
   IMIX   =      4    mixing-type and parameters
     AMIX     =   0.40;   BMIX     =  1.00
     AMIX_MAG =   1.60;   BMIX_MAG =  1.00
     AMIN     =   0.10
     WC   =   100.;   INIMIX=   1;  MIXPRE=   1;  MAXMIX= -45

 Intra band minimization:
   WEIMIN = 0.0000     energy-eigenvalue tresh-hold
   EBREAK =  0.40E-08  absolut break condition
   DEPER  =   0.30     relativ break condition  

   TIME   =   0.40     timestep for ELM

  volume/ion in A,a.u.               =      10.57        71.35
  Fermi-wavevector in a.u.,A,eV,Ry     =   1.537485  2.905425 32.162252  2.363859
  Thomas-Fermi vector in A             =   2.643987
 
 Write flags
   LWAVE        =      T    write WAVECAR
   LDOWNSAMPLE  =      F    k-point downsampling of WAVECAR
   LCHARG       =      T    write CHGCAR
   LVTOT        =      F    write LOCPOT, total local potential
   LVHAR        =      F    write LOCPOT, Hartree potential only
   LELF         =      F    write electronic localiz. function (ELF)
   LORBIT       =      0    0 simple, 1 ext, 2 COOP (PROOUT), +10 PAW based schemes


 Dipole corrections
   LMONO  =      F    monopole corrections only (constant potential shift)
   LDIPOL =      F    correct potential (dipole corrections)
   IDIPOL =      0    1-x, 2-y, 3-z, 4-all directions 
   EPSILON=  1.0000000 bulk dielectric constant

 Core level calculations are selected ICORELEVEL =  1
 Exchange correlation treatment:
   GGA     =    --    GGA type
   LEXCH   =     8    internal setting for exchange type
   LIBXC   =     F    Libxc                    
   VOSKOWN =     0    Vosko Wilk Nusair interpolation
   EXXOEP  =     0    0=HF, 1=EXX-LHF (local Hartree Fock) 2=EXX OEP
   LHFCALC =     T    Hartree Fock is set to
   LSYMGRAD=     F    symmetrize gradient (conserves proper symmetry)
   PRECFOCK=fast      Normal, Fast or Accurate (Low or Medium for compatibility)
   LRHFCALC=     F    long range Hartree Fock
   LRSCOR  =     F    long range correlation only (use DFT for short range part)
   LTHOMAS =     F    Thomas Fermi screening in HF
   LMODELHF=     F    short range full HF, long range fraction AEXX
   FOCKCORR=     1    mode to apply convergence corrections
   LFOCKACE=     T    use Adeptively-Compressed-Exchange operator
   ENCUT4O =  -1.0   cutoff for four orbital integrals eV
   LMAXFOCK=     4    L truncation for augmentation on plane wave grid
   LMAXFOCKAE=  -1    L truncation for all-electron charge restoration on plane wave grid
   NMAXFOCKAE=   1    number of basis functions for all-electron charge restoration
   LFOCKAEDFT=     F  apply the AE augmentation even for DFT
   NKREDX  =     1    reduce k-point grid by
   NKREDY  =     1    reduce k-point grid by
   NKREDZ  =     1    reduce k-point grid by
   SHIFTRED=     F    shift reduced grid of Gamma
   HFKIDENT=     F    idential grid for each k-point
   ODDONLY =     F    use only odd q-grid points
   EVENONLY=     F    use only even q-grid points
   HFALPHA =   -1.0000 decay constant for conv. correction
   MCALPHA =    0.0000 extent of test-charge in conv. correction in multipole expansion
   AEXX    =    0.3200 exact exchange contribution
   HFSCREEN=    0.2000 screening length (either q_TF or 0.3 A-1)
   HFSCREENC=   0.2000 screening length for correlation (either q_TF or 0.3 A-1)
   HFRCUT  =    0.0000 spherical cutoff for potential kernel
   ALDAX   =    0.6800 LDA exchange part
   AGGAX   =    0.6800 GGA exchange part
   ALDAC   =    1.0000 LDA correlation
   AGGAC   =    1.0000 GGA correlation
   ENCUTFOCK=  -1.0 apply spherical cutoff to Coloumb kernel
   NBANDSGWLOW=     1    first orbital included in HF term
   NBLOCK_FOCK=    64    blocking factor in FOCK_ACC

 Linear response parameters
   LEPSILON=     F    determine dielectric tensor
   LRPA    =     F    only Hartree local field effects (RPA)
   LNABLA  =     F    use nabla operator in PAW spheres
   LVEL    =     F    velocity operator in full k-point grid
   CSHIFT  =0.1000    complex shift for real part using Kramers Kronig
   OMEGAMAX=  -1.0    maximum frequency
   DEG_THRESHOLD= 0.2000000E-02 threshold for treating states as degnerate
   RTIME   =   -0.100 relaxation time in fs
  (WPLASMAI=    0.000 imaginary part of plasma frequency in eV, 0.658/RTIME)
   DFIELD  = 0.0000000 0.0000000 0.0000000 field for delta impulse in time
 
  Optional k-point grid parameters
   LKPOINTS_OPT  =     F    use optional k-point grid
   KPOINTS_OPT_MODE=     1    mode for optional k-point grid
 
 Orbital magnetization related:
   ORBITALMAG=     F  switch on orbital magnetization
   LCHIMAG   =     F  perturbation theory with respect to B field
   DQ        =  0.001000  dq finite difference perturbation B field
   LLRAUG    =     F  two centre corrections for induced B field
   LBONE     =     F  B-component reconstruction in AE one-centre
   LVGVCALC  =     T  calculate vGv susceptibility
   LVGVAPPL  =     F  apply vGv susceptibility instead of pGv for G=0

 Random number generation:
   RANDOM_GENERATOR = DEFAULT
   PCG_SEED         = not used


--------------------------------------------------------------------------------------------------------


 Static calculation
 charge density and potential will be updated during run
 non-spin polarized calculation
 Conjugate gradient for all bands (Freysoldt, et al. PRB 79, 241103 (2009))
 preconditioned conjugated gradient                                        
 perform sub-space diagonalisation
    before iterative eigenvector-optimisation
 modified Broyden-mixing scheme, WC =      100.0
 initial mixing is a Kerker type mixing with AMIX =  0.4000 and BMIX =      1.0000
 Hartree-type preconditioning will be used
 using additional bands           104
 real space projection scheme for non local part
 use partial core corrections
 no Harris-corrections to forces 
 use gradient corrections 
 use of overlap-Matrix (Vanderbilt PP)
 Gauss-broadening in eV      SIGMA  =   0.05


--------------------------------------------------------------------------------------------------------


  energy-cutoff  :      450.00
  volume of cell :     1268.81
      direct lattice vectors                 reciprocal lattice vectors
     0.000000000 12.280473709  0.000000000     0.000000000  0.081430084 -0.019947422
     9.142701149  0.000000000  0.000000000     0.109376866 -0.000000000  0.000000000
     0.000000000 -2.768261641-11.300697481     0.000000000  0.000000000 -0.088490113

  length of vectors
    12.280473709  9.142701149 11.634819984     0.083837689  0.109376866  0.088490113


 
 k-points in units of 2pi/SCALE and weight: Automatic mesh                          
   0.00000000  0.00000000 -0.00000000       0.125
   0.00000000  0.04071504 -0.00997371       0.125
   0.05468843  0.00000000 -0.00000000       0.125
   0.05468843  0.04071504 -0.00997371       0.125
   0.00000000  0.00000000 -0.04424506       0.125
   0.00000000  0.04071504 -0.05421877       0.125
   0.05468843  0.00000000 -0.04424506       0.125
   0.05468843  0.04071504 -0.05421877       0.125
 
 k-points in reciprocal lattice and weights: Automatic mesh                          
   0.00000000  0.00000000  0.00000000       0.125
   0.50000000  0.00000000  0.00000000       0.125
   0.00000000  0.50000000  0.00000000       0.125
   0.50000000  0.50000000  0.00000000       0.125
   0.00000000  0.00000000  0.50000000       0.125
   0.50000000  0.00000000  0.50000000       0.125
   0.00000000  0.50000000  0.50000000       0.125
   0.50000000  0.50000000  0.50000000       0.125
 
 position of ions in fractional coordinates (direct lattice) 
   0.65933511  0.99992469  0.15695623
   0.65937998  0.99987728  0.65729100
   0.65933511  0.33340831  0.15695623
   0.65937998  0.33345572  0.65729100
   0.65926800  0.66666700  0.15696004
   0.65952166  0.66666700  0.65647166
   0.84138911  0.16666700  0.84308942
   0.84095932  0.49911865  0.34354292
   0.84139384  0.49980922  0.84325014
   0.84095932  0.83421435  0.34354292
   0.84139384  0.83352378  0.84325014
   0.59335113  0.16666700  0.39889212
   0.59111305  0.16666700  0.89790562
   0.59094508  0.49968083  0.39760616
   0.59143500  0.49998340  0.89787046
   0.59094508  0.83365217  0.39760616
   0.59143500  0.83334960  0.89787046
   0.90878482  0.00081573  0.10292679
   0.90770723  0.00182747  0.59966078
   0.90878482  0.33251727  0.10292679
   0.90770723  0.33150553  0.59966078
   0.90869164  0.66666700  0.10224521
   0.90885241  0.66666700  0.60222748
   0.15910426  0.16666700  0.15692773
   0.15883461  0.16666700  0.65628079
   0.15871359  0.49971658  0.15705583
   0.15831325  0.49961772  0.65626073
   0.15871359  0.83361642  0.15705583
   0.15831325  0.83371528  0.65626073
   0.34103684  0.00026206  0.34383363
   0.34095103  0.99992493  0.84331295
   0.34103684  0.33307094  0.34383363
   0.34095103  0.33340807  0.84331295
   0.34108935  0.66666700  0.34346174
   0.34087601  0.66666700  0.84321013
   0.08865240  0.00103678  0.39715706
   0.09117905  0.99999879  0.89762740
   0.08865240  0.33229622  0.39715706
   0.09117905  0.33333421  0.89762740
   0.09107450  0.66666700  0.39767900
   0.09124333  0.66666700  0.89791105
   0.40881263  0.16666700  0.10260885
   0.40931123  0.16666700  0.60265281
   0.40907079  0.49983594  0.10263584
   0.40916112  0.50006428  0.60264417
   0.40907079  0.83349706  0.10263584
   0.40916112  0.83326872  0.60264417
   0.99673984  0.16666700  0.12807337
   0.99663787  0.16666700  0.62885553
   0.99585171  0.49964815  0.12755070
   0.99520100  0.49892367  0.62576724
   0.99585171  0.83368485  0.12755070
   0.99520100  0.83440933  0.62576724
   0.50422907  0.00094998  0.37279404
   0.50373828  0.99987836  0.87300015
   0.50422907  0.33238302  0.37279404
   0.50373828  0.33345464  0.87300015
   0.50379808  0.66666700  0.37274611
   0.50389991  0.66666700  0.87308602
   0.67635647  0.16666700  0.28267862
   0.67281178  0.16666700  0.78100306
   0.67242306  0.49977601  0.28033811
   0.67280825  0.49994766  0.78055016
   0.67242306  0.83355699  0.28033811
   0.67280825  0.83338534  0.78055016
   0.82776377  0.00329741  0.22122266
   0.82780227  0.00005005  0.71905814
   0.82776377  0.33003559  0.22122266
   0.82780227  0.33328295  0.71905814
   0.82733828  0.66666700  0.21953855
   0.82761214  0.66666700  0.71959127
   0.83229492  0.00526569  0.44195535
   0.83242637  0.00012086  0.94598255
   0.83229492  0.32806731  0.44195535
   0.83242637  0.33321214  0.94598255
   0.83160332  0.66666700  0.44564879
   0.83230419  0.66666700  0.94556605
   0.66769468  0.16666700  0.05465023
   0.66866819  0.16666700  0.55545034
   0.66873041  0.49976989  0.05452553
   0.66851615  0.49964085  0.55407602
   0.66873041  0.83356311  0.05452553
   0.66851615  0.83369215  0.55407602
   0.49674340  0.00031223  0.12794718
   0.49666309  0.99991144  0.62752578
   0.49674340  0.33302077  0.12794718
   0.49666309  0.33342156  0.62752578
   0.49652143  0.66666700  0.12714850
   0.49682718  0.66666700  0.62731796
   0.00011513  0.16666700  0.37390335
   0.00390690  0.16666700  0.87349826
   0.00327297  0.50044312  0.37239855
   0.00384403  0.50002717  0.87259822
   0.00327297  0.83288988  0.37239855
   0.00384403  0.83330583  0.87259822
   0.17196638  0.00041264  0.28105528
   0.17266139  0.99981531  0.78041271
   0.17196638  0.33292036  0.28105528
   0.17266139  0.33351769  0.78041271
   0.17267533  0.66666700  0.28063896
   0.17205985  0.66666700  0.78013196
   0.32731338  0.16666700  0.21977794
   0.32745934  0.16666700  0.71952334
   0.32747467  0.49957306  0.21978480
   0.32727447  0.50006210  0.71943848
   0.32747467  0.83375994  0.21978480
   0.32727447  0.83327090  0.71943848
   0.33240607  0.16666700  0.44616659
   0.33228054  0.16666700  0.94591322
   0.33264240  0.50000016  0.44597541
   0.33227495  0.50004215  0.94596305
   0.33264240  0.83333284  0.44597541
   0.33227495  0.83329085  0.94596305
   0.16785484  0.99990846  0.05441913
   0.16719875  0.00021830  0.55356775
   0.16785484  0.33342454  0.05441913
   0.16719875  0.33311470  0.55356775
   0.16747908  0.66666700  0.05468882
   0.16753284  0.66666700  0.55432980
   0.83807517  0.16666700  0.33647155
 
 position of ions in cartesian coordinates  (Angst):
   9.14201264  7.66245156 -1.77371483
   9.14157911  6.27794505 -7.42784675
   3.04825251  7.66245156 -1.77371483
   3.04868604  6.27794505 -7.42784675
   6.09513715  7.66161684 -1.77375787
   6.09513715  6.28195305 -7.41858762
   1.52378657  7.99876478 -9.52749849
   4.56329266  9.37636218 -3.88227464
   4.56960632  7.99837790 -9.52931471
   7.62697250  9.37636218 -3.88227464
   7.62065883  7.99837790 -9.52931471
   1.52378657  6.18239524 -4.50775916
   1.52378657  4.77351062-10.14695982
   4.56843252  6.15640762 -4.49322696
   4.57119881  4.77756158-10.14656239
   7.62183263  6.15640762 -4.49322696
   7.61906634  4.77756158-10.14656239
   0.00745795 10.87537976 -1.16314450
   0.01670801  9.48705683 -6.77658503
   3.04010605 10.87537976 -1.16314450
   3.03085599  9.48705683 -6.77658503
   6.09513715 10.87612232 -1.15544223
   6.09513715  9.49401489 -6.80559054
   1.52378657  1.51945871 -1.77339283
   1.52378657  0.13380727 -7.41643073
   4.56875937  1.51430640 -1.77484043
   4.56785551  0.12746030 -7.41620395
   7.62150578  1.51430640 -1.77484043
   7.62240965  0.12746030 -7.41620395
   0.00239595  3.23627250 -3.88555986
   9.14201479  1.85252920 -9.53002458
   3.04516806  3.23627250 -3.88555986
   3.04825036  1.85252920 -9.53002458
   6.09513715  3.23794686 -3.88135720
   6.09513715  1.85189259 -9.52886265
   0.00947895 -0.01074117 -4.48815178
   9.14269012 -1.36514552-10.14381567
   3.03808505 -0.01074117 -4.48815178
   3.04757503 -1.36514552-10.14381567
   6.09513715  0.01755848 -4.49405011
   6.09513715 -1.36514142-10.14702109
   1.52378657  4.73636463 -1.15955156
   1.52378657  3.35823514 -6.81039711
   4.56985062  4.73946027 -1.15985662
   4.57193828  3.35641562 -6.81029940
   7.62041453  4.73946027 -1.15985662
   7.61832687  3.35641562 -6.81029940
   1.52378657 11.88589681 -1.44731841
   1.52378657 10.49834857 -7.10650612
   4.56813372 11.87643703 -1.44141183
   4.56150998 10.48925228 -7.07160622
   7.62213143 11.87643703 -1.44141183
   7.62875517 10.48925228 -7.07160622
   0.00868535  5.16018039 -4.21283267
   9.14158905  3.76945184 -9.86551064
   3.03887866  5.16018039 -4.21283267
   3.04867610  3.76945184 -9.86551064
   6.09513715  5.15502028 -4.21229101
   6.09513715  3.77119903 -9.86648101
   1.52378657  7.52344941 -3.19446561
   1.52378657  6.10042661 -8.82587932
   4.56930271  7.48162452 -3.16801618
   4.57087202  6.10163692 -8.82076121
   7.62096244  7.48162452 -3.16801618
   7.61939313  6.10163692 -8.82076121
   0.03014726  9.55292899 -2.49997041
   0.00045757  8.17526294 -8.12585856
   3.01741674  9.55292899 -2.49997041
   3.04710643  8.17526294 -8.12585856
   6.09513715  9.55236583 -2.48093870
   6.09513715  8.17145215 -8.13188330
   0.04814266  8.99752783 -4.99440371
   0.00110499  7.60386292-10.69026262
   2.99942134  8.99752783 -4.99440371
   3.04645901  7.60386292-10.69026262
   6.09513715  8.97881026 -5.03614212
   6.09513715  7.60351555-10.68555587
   1.52378657  8.04832078 -0.61758572
   1.52378657  6.67393030 -6.27697630
   4.56924676  8.06138534 -0.61617649
   4.56806696  6.67586767 -6.26144545
   7.62101839  8.06138534 -0.61617649
   7.62219819  6.67586767 -6.26144545
   0.00285459  5.74605296 -1.44589235
   9.14189151  4.36210253 -7.09147899
   3.04470941  5.74605296 -1.44589235
   3.04837364  4.36210253 -7.09147899
   6.09513715  5.74553801 -1.43686669
   6.09513715  4.36469288 -7.08913044
   1.52378657 -1.03364847 -4.22536868
   1.52378657 -2.37009309 -9.87113959
   4.57540186 -0.99070303 -4.20836336
   4.57159900 -2.36837364 -9.86096854
   7.61486329 -0.99070303 -4.20836336
   7.61866615 -2.36837364 -9.86096854
   0.00377263  1.33379410 -3.17612067
   9.14101263 -0.04002292 -8.81920794
   3.04379138  1.33379410 -3.17612067
   3.04925253 -0.04002292 -8.81920794
   6.09513715  1.34365279 -3.17141597
   6.09513715 -0.04663297 -8.81603525
   1.52378657  3.41116056 -2.48364406
   1.52378657  2.02952693 -8.13111565
   4.56744719  3.41312218 -2.48372158
   4.57191832  2.02749161 -8.13015667
   7.62281796  3.41312218 -2.48372158
   7.61834683  2.02749161 -8.13015667
   1.52378657  2.84699819 -5.04199366
   1.52378657  1.46202715-10.68947916
   4.57135208  2.85042966 -5.03983320
   4.57173594  1.46182052-10.69004226
   7.61891307  2.85042966 -5.03983320
   7.61852921  1.46182052-10.69004226
   9.14186423  1.91069057 -0.61497416
   0.00199585  0.52085949 -6.25570165
   3.04840092  1.91069057 -0.61497416
   3.04556815  0.52085949 -6.25570165
   6.09513715  1.90532947 -0.61802180
   6.09513715  0.52285270 -6.26431338
   1.52378657  9.36051880 -3.80236315
 


--------------------------------------------------------------------------------------------------------


 k-point   1 :   0.0000 0.0000 0.0000  plane waves:   27533
 k-point   2 :   0.5000 0.0000 0.0000  plane waves:   27522
 k-point   3 :   0.0000 0.5000 0.0000  plane waves:   27488
 k-point   4 :   0.5000 0.5000 0.0000  plane waves:   27488
 k-point   5 :   0.0000 0.0000 0.5000  plane waves:   27482
 k-point   6 :   0.5000 0.0000 0.5000  plane waves:   27476
 k-point   7 :   0.0000 0.5000 0.5000  plane waves:   27468
 k-point   8 :   0.5000 0.5000 0.5000  plane waves:   27564

 maximum and minimum number of plane-waves per node :     27564    27468

 maximum number of plane-waves:     27564
 maximum index in each direction: 
   IXMAX=   21   IYMAX=   15   IZMAX=   20
   IXMIN=  -21   IYMIN=  -16   IZMIN=  -20


 serial   3D FFT for wavefunctions
 parallel 3D FFT for charge:
    minimum data exchange during FFTs selected (reduces bandwidth)


 FFT grid for exact exchange (Hartree Fock) 
  NGX = 48; NGY = 36; NGZ = 48

 
 Radii for the augmentation spheres in the non-local exchange
 for species   1 augmentation radius   1.392 (default was   1.031)
       energy cutoff for augmentation   1800.0
 for species   2 augmentation radius   0.974 (default was   0.722)
       energy cutoff for augmentation   1800.0
 for species   3 augmentation radius   1.364 (default was   1.010)
       energy cutoff for augmentation   1800.0
 Maximum index for augmentation-charges in exchange           744
  SETUP_FOCK is finished

 total amount of memory used by VASP MPI-rank0  7235632. kBytes
=======================================================================

   base      :      30000. kBytes
   nonlr-proj:      32941. kBytes
   fftplans  :      51012. kBytes
   grid      :     102973. kBytes
   one-center:       1866. kBytes
   HF        :        194. kBytes
   wavefun   :    7016646. kBytes
 
     INWAV:  cpu time      0.0001: real time      0.0001
 Broyden mixing: mesh for mixing (old mesh)
   NGX = 43   NGY = 31   NGZ = 41
  (NGX  =128   NGY  = 96   NGZ  =120)
  gives a total of  54653 points

 charge density for first step will be calculated from the start-wavefunctions


--------------------------------------------------------------------------------------------------------


 Maximum index for non-local projection operator          1720
 Maximum index for augmentation-charges          5353 (set IRDMAX)


--------------------------------------------------------------------------------------------------------


 initial charge from wavefunction
 First call to EWALD:  gamma=   0.164
 Maximum number of real-space cells 3x 3x 3
 Maximum number of reciprocal cells 3x 2x 3

    FEWALD:  cpu time      0.0730: real time      0.0729


--------------------------------------- Ionic step        1  -------------------------------------------




--------------------------------------- Iteration      1(   1)  ---------------------------------------


    POTLOK:  cpu time      0.0333: real time      0.0333
    SETDIJ:  cpu time      0.1388: real time      0.1388
    TRIAL :  cpu time      2.9109: real time      2.9271
    CORREC:  cpu time      0.0015: real time      0.0015
    --------------------------------------------
      LOOP:  cpu time      3.9657: real time      3.9817

 eigenvalue-minimisations  : 10520
 total energy-change (2. order) :-0.1825665E+05  (-0.5419590E+05)
 number of electron    1050.9999420 magnetization 
 augmentation part      120.5056239 magnetization 

 Free energy of the ion-electron system (eV)
  ---------------------------------------------------
  alpha Z        PSCENC =      5496.83009512
  Ewald energy   TEWEN  =    -87997.94232019
  -Hartree energ DENC   =     -2076.93439649
  -exchange      EXHF   =         0.00000000
  -V(xc)+E(xc)   XCENC  =      2775.71766174
  PAW double counting   =     78587.71847798  -107641.44788343
  entropy T*S    EENTRO =        -0.01087552
  eigenvalues    EBANDS =    -39741.63167162
  atomic energy  EATOM  =    132341.04863466
  ---------------------------------------------------
  free energy    TOTEN  =    -18256.65227776 eV

  energy without entropy =   -18256.64140224  energy(sigma->0) =   -18256.64684000
  exchange ACFDT corr.  =         0.00000000  see jH, gK, PRB 81, 115126


--------------------------------------------------------------------------------------------------------




--------------------------------------- Iteration      1(   2)  ---------------------------------------


    TRIAL :  cpu time      3.1715: real time      3.1718
    CORREC:  cpu time      0.0015: real time      0.0015
    --------------------------------------------
      LOOP:  cpu time      3.1733: real time      3.1742

 eigenvalue-minimisations  : 13464
 total energy-change (2. order) :-0.4371780E+05  (-0.4239414E+05)
 number of electron    1050.9999420 magnetization 
 augmentation part      120.5056239 magnetization 

 Free energy of the ion-electron system (eV)
  ---------------------------------------------------
  alpha Z        PSCENC =      5496.83009512
  Ewald energy   TEWEN  =    -87997.94232019
  -Hartree energ DENC   =     -2076.93439649
  -exchange      EXHF   =         0.00000000
  -V(xc)+E(xc)   XCENC  =      2775.71766174
  PAW double counting   =     78587.71847798  -107641.44788343
  entropy T*S    EENTRO =        -0.01931539
  eigenvalues    EBANDS =    -83459.42182470
  atomic energy  EATOM  =    132341.04863466
  ---------------------------------------------------
  free energy    TOTEN  =    -61974.45087071 eV

  energy without entropy =   -61974.43155532  energy(sigma->0) =   -61974.44121301
  exchange ACFDT corr.  =         0.00000000  see jH, gK, PRB 81, 115126


--------------------------------------------------------------------------------------------------------




--------------------------------------- Iteration      1(   3)  ---------------------------------------


    TRIAL :  cpu time      3.3214: real time      3.3210
    CORREC:  cpu time      0.0016: real time      0.0016
    --------------------------------------------
      LOOP:  cpu time      3.3232: real time      3.3232

 eigenvalue-minimisations  : 14256
 total energy-change (2. order) :-0.4567253E+04  (-0.4096413E+04)
 number of electron    1050.9999420 magnetization 
 augmentation part      120.5056239 magnetization 

 Free energy of the ion-electron system (eV)
  ---------------------------------------------------
  alpha Z        PSCENC =      5496.83009512
  Ewald energy   TEWEN  =    -87997.94232019
  -Hartree energ DENC   =     -2076.93439649
  -exchange      EXHF   =         0.00000000
  -V(xc)+E(xc)   XCENC  =      2775.71766174
  PAW double counting   =     78587.71847798  -107641.44788343
  entropy T*S    EENTRO =        -0.03806229
  eigenvalues    EBANDS =    -88026.65630321
  atomic energy  EATOM  =    132341.04863466
  ---------------------------------------------------
  free energy    TOTEN  =    -66541.70409611 eV

  energy without entropy =   -66541.66603382  energy(sigma->0) =   -66541.68506497
  exchange ACFDT corr.  =         0.00000000  see jH, gK, PRB 81, 115126


--------------------------------------------------------------------------------------------------------




--------------------------------------- Iteration      1(   4)  ---------------------------------------


    TRIAL :  cpu time      3.6891: real time      3.6885
    CORREC:  cpu time      0.0016: real time      0.0016
    --------------------------------------------
      LOOP:  cpu time      3.6908: real time      3.6906

 eigenvalue-minimisations  : 16824
 total energy-change (2. order) :-0.5405446E+03  (-0.4534654E+03)
 number of electron    1050.9999420 magnetization 
 augmentation part      120.5056239 magnetization 

 Free energy of the ion-electron system (eV)
  ---------------------------------------------------
  alpha Z        PSCENC =      5496.83009512
  Ewald energy   TEWEN  =    -87997.94232019
  -Hartree energ DENC   =     -2076.93439649
  -exchange      EXHF   =         0.00000000
  -V(xc)+E(xc)   XCENC  =      2775.71766174
  PAW double counting   =     78587.71847798  -107641.44788343
  entropy T*S    EENTRO =        -0.04427211
  eigenvalues    EBANDS =    -88567.19472517
  atomic energy  EATOM  =    132341.04863466
  ---------------------------------------------------
  free energy    TOTEN  =    -67082.24872790 eV

  energy without entropy =   -67082.20445579  energy(sigma->0) =   -67082.22659184
  exchange ACFDT corr.  =         0.00000000  see jH, gK, PRB 81, 115126


--------------------------------------------------------------------------------------------------------




--------------------------------------- Iteration      1(   5)  ---------------------------------------


    POTLOK:  cpu time      1.3525: real time      1.3522
    SETDIJ:  cpu time      0.5305: real time      0.5305
    TRIAL :  cpu time    237.1320: real time    237.1015
    CORREC:  cpu time      0.0015: real time      0.0015
    CHARGE:  cpu time      0.2065: real time      0.2064
    --------------------------------------------
      LOOP:  cpu time    239.2231: real time    239.1927

 eigenvalue-minimisations  : 18792
 total energy-change (2. order) : 0.2995334E+05  (-0.7391618E+02)
 number of electron    1050.9998264 magnetization 
 augmentation part      485.2930102 magnetization 

 Free energy of the ion-electron system (eV)
  ---------------------------------------------------
  alpha Z        PSCENC =      5496.83009512
  Ewald energy   TEWEN  =    -87997.94232019
  -Hartree energ DENC   =     -2076.93439649
  -exchange      EXHF   =      4633.44617127
  -V(xc)+E(xc)   XCENC  =      1918.11401188
  PAW double counting   =     79274.04925916   -81296.76088398
  entropy T*S    EENTRO =        -0.02212762
  eigenvalues    EBANDS =    -89420.73840367
  atomic energy  EATOM  =    132341.04863466
  ---------------------------------------------------
  free energy    TOTEN  =    -37128.90995987 eV

  energy without entropy =   -37128.88783225  energy(sigma->0) =   -37128.89889606
  exchange ACFDT corr.  =        -0.06964442  see jH, gK, PRB 81, 115126


--------------------------------------------------------------------------------------------------------




--------------------------------------- Iteration      1(   6)  ---------------------------------------


    POTLOK:  cpu time      1.4287: real time      1.4285
    SETDIJ:  cpu time      0.5292: real time      0.5291
    TRIAL :  cpu time    235.2112: real time    235.4407
    CORREC:  cpu time    238.3184: real time    238.2881
    CHARGE:  cpu time      0.2094: real time      0.2094
    --------------------------------------------
      LOOP:  cpu time    475.6972: real time    475.8964

 eigenvalue-minimisations  :     0
 total energy-change (2. order) : 0.5536022E+05  (-0.1353934E+05)
 number of electron    1050.9998571 magnetization 
 augmentation part      480.6834342 magnetization 

 Free energy of the ion-electron system (eV)
  ---------------------------------------------------
  alpha Z        PSCENC =      5496.83009512
  Ewald energy   TEWEN  =    -87997.94232019
  -Hartree energ DENC   =    -64494.81028963
  -exchange      EXHF   =      4748.87507138
  -V(xc)+E(xc)   XCENC  =      3703.52557052
  PAW double counting   =    142935.41842494  -166990.09977962
  entropy T*S    EENTRO =        -0.03474035
  eigenvalues    EBANDS =     48488.48733442
  atomic energy  EATOM  =    132341.04863466
  ---------------------------------------------------
  free energy    TOTEN  =     18231.31061397 eV

  energy without entropy =    18231.34535432  energy(sigma->0) =    18231.32798414
  exchange ACFDT corr.  =        -0.08912743  see jH, gK, PRB 81, 115126


--------------------------------------------------------------------------------------------------------




--------------------------------------- Iteration      1(   7)  ---------------------------------------


    POTLOK:  cpu time      1.4246: real time      1.4244
    SETDIJ:  cpu time      0.5307: real time      0.5307
    TRIAL :  cpu time    235.9311: real time    235.8969
    CORREC:  cpu time    238.6535: real time    238.6191
    CHARGE:  cpu time      0.2252: real time      0.2252
    --------------------------------------------
      LOOP:  cpu time    476.7655: real time    476.7024

 eigenvalue-minimisations  :     0
 total energy-change (2. order) :-0.1386925E+05  (-0.2496110E+04)
 number of electron    1050.9998518 magnetization 
 augmentation part      458.5332002 magnetization 

 Free energy of the ion-electron system (eV)
  ---------------------------------------------------
  alpha Z        PSCENC =      5496.83009512
  Ewald energy   TEWEN  =    -87997.94232019
  -Hartree energ DENC   =    -43140.04646833
  -exchange      EXHF   =      4112.48850411
  -V(xc)+E(xc)   XCENC  =      3133.08872349
  PAW double counting   =    127597.69961346  -146931.79838911
  entropy T*S    EENTRO =        -0.05255723
  eigenvalues    EBANDS =      9750.72739988
  atomic energy  EATOM  =    132341.04863466
  ---------------------------------------------------
  free energy    TOTEN  =      4362.06105273 eV

  energy without entropy =     4362.11360996  energy(sigma->0) =     4362.08733135
  exchange ACFDT corr.  =      -181.81173570  see jH, gK, PRB 81, 115126


--------------------------------------------------------------------------------------------------------




--------------------------------------- Iteration      1(   8)  ---------------------------------------


    POTLOK:  cpu time      1.5304: real time      1.5302
    SETDIJ:  cpu time      0.5296: real time      0.5295
    TRIAL :  cpu time    236.6683: real time    236.6374
    CORREC:  cpu time    238.3930: real time    238.3606
    CHARGE:  cpu time      0.2139: real time      0.2139
    --------------------------------------------
      LOOP:  cpu time    477.3363: real time    477.2731

 eigenvalue-minimisations  :     0
 total energy-change (2. order) :-0.2986414E+04  (-0.7996265E+03)
 number of electron    1050.9998664 magnetization 
 augmentation part      441.1325976 magnetization 

 Free energy of the ion-electron system (eV)
  ---------------------------------------------------
  alpha Z        PSCENC =      5496.83009512
  Ewald energy   TEWEN  =    -87997.94232019
  -Hartree energ DENC   =    -35939.50245050
  -exchange      EXHF   =      3855.43601028
  -V(xc)+E(xc)   XCENC  =      2929.46540548
  PAW double counting   =    126603.24483211  -143490.78267960
  entropy T*S    EENTRO =        -0.06219837
  eigenvalues    EBANDS =     -2422.09776877
  atomic energy  EATOM  =    132341.04863466
  ---------------------------------------------------
  free energy    TOTEN  =      1375.64720136 eV

  energy without entropy =     1375.70939972  energy(sigma->0) =     1375.67830054
  exchange ACFDT corr.  =      -139.69475476  see jH, gK, PRB 81, 115126


--------------------------------------------------------------------------------------------------------




--------------------------------------- Iteration      1(   9)  ---------------------------------------


    POTLOK:  cpu time      1.4757: real time      1.4759
    SETDIJ:  cpu time      0.5312: real time      0.5314
    TRIAL :  cpu time    236.9783: real time    236.9487
    CORREC:  cpu time    238.0085: real time    237.9704
    CHARGE:  cpu time      0.2181: real time      0.2181
    --------------------------------------------
      LOOP:  cpu time    477.2121: real time    477.1451

 eigenvalue-minimisations  :     0
 total energy-change (2. order) :-0.7443138E+03  (-0.7228347E+03)
 number of electron    1050.9998780 magnetization 
 augmentation part      436.2286545 magnetization 

 Free energy of the ion-electron system (eV)
  ---------------------------------------------------
  alpha Z        PSCENC =      5496.83009512
  Ewald energy   TEWEN  =    -87997.94232019
  -Hartree energ DENC   =    -32605.29976936
  -exchange      EXHF   =      3717.12674414
  -V(xc)+E(xc)   XCENC  =      2827.34575404
  PAW double counting   =    125023.91380847  -140138.89894950
  entropy T*S    EENTRO =        -0.04179597
  eigenvalues    EBANDS =     -8032.72836818
  atomic energy  EATOM  =    132341.04863466
  ---------------------------------------------------
  free energy    TOTEN  =       631.33343082 eV

  energy without entropy =      631.37522679  energy(sigma->0) =      631.35432880
  exchange ACFDT corr.  =       -64.24841841  see jH, gK, PRB 81, 115126


--------------------------------------------------------------------------------------------------------




--------------------------------------- Iteration      1(  10)  ---------------------------------------


    POTLOK:  cpu time      1.5470: real time      1.5467
    SETDIJ:  cpu time      0.5298: real time      0.5297
    TRIAL :  cpu time    236.6496: real time    236.6169
    CORREC:  cpu time    237.6177: real time    237.5832
    CHARGE:  cpu time      0.2068: real time      0.2068
    --------------------------------------------
      LOOP:  cpu time    476.5511: real time    476.4840

 eigenvalue-minimisations  :     0
 total energy-change (2. order) :-0.4447284E+03  (-0.6993508E+03)
 number of electron    1050.9998599 magnetization 
 augmentation part      440.0270744 magnetization 

 Free energy of the ion-electron system (eV)
  ---------------------------------------------------
  alpha Z        PSCENC =      5496.83009512
  Ewald energy   TEWEN  =    -87997.94232019
  -Hartree energ DENC   =    -31444.38558698
  -exchange      EXHF   =      3673.22361217
  -V(xc)+E(xc)   XCENC  =      2794.48579465
  PAW double counting   =    121161.72900951  -135519.39768360
  entropy T*S    EENTRO =        -0.01948369
  eigenvalues    EBANDS =    -10318.94477776
  atomic energy  EATOM  =    132341.04863466
  ---------------------------------------------------
  free energy    TOTEN  =       186.60498160 eV

  energy without entropy =      186.62446529  energy(sigma->0) =      186.61472345
  exchange ACFDT corr.  =       -34.74562661  see jH, gK, PRB 81, 115126


--------------------------------------------------------------------------------------------------------




--------------------------------------- Iteration      1(  11)  ---------------------------------------


    POTLOK:  cpu time      1.5167: real time      1.5164
    SETDIJ:  cpu time      0.5293: real time      0.5292
    TRIAL :  cpu time    235.6587: real time    235.6296
    CORREC:  cpu time    237.3685: real time    237.3449
    CHARGE:  cpu time      0.2189: real time      0.2189
    --------------------------------------------
      LOOP:  cpu time    475.2927: real time    475.2400

 eigenvalue-minimisations  :     0
 total energy-change (2. order) :-0.4656760E+03  (-0.3809476E+03)
 number of electron    1050.9998406 magnetization 
 augmentation part      450.8239868 magnetization 

 Free energy of the ion-electron system (eV)
  ---------------------------------------------------
  alpha Z        PSCENC =      5496.83009512
  Ewald energy   TEWEN  =    -87997.94232019
  -Hartree energ DENC   =    -31758.28204110
  -exchange      EXHF   =      3704.54578899
  -V(xc)+E(xc)   XCENC  =      2806.79768253
  PAW double counting   =    121079.61806604  -135612.56026146
  entropy T*S    EENTRO =        -0.00693327
  eigenvalues    EBANDS =    -10339.10716735
  atomic energy  EATOM  =    132341.04863466
  ---------------------------------------------------
  free energy    TOTEN  =      -279.07100646 eV

  energy without entropy =     -279.06407318  energy(sigma->0) =     -279.06753982
  exchange ACFDT corr.  =        -1.38420352  see jH, gK, PRB 81, 115126


--------------------------------------------------------------------------------------------------------




--------------------------------------- Iteration      1(  12)  ---------------------------------------


    POTLOK:  cpu time      1.5063: real time      1.5062
    SETDIJ:  cpu time      0.5279: real time      0.5278
    TRIAL :  cpu time    235.5031: real time    235.4733
    CORREC:  cpu time    237.4648: real time    237.4358
    CHARGE:  cpu time      0.2267: real time      0.2267
    --------------------------------------------
      LOOP:  cpu time    475.2292: real time    475.1758

 eigenvalue-minimisations  :     0
 total energy-change (2. order) :-0.3776816E+03  (-0.1450348E+03)
 number of electron    1050.9998424 magnetization 
 augmentation part      456.5888660 magnetization 

 Free energy of the ion-electron system (eV)
  ---------------------------------------------------
  alpha Z        PSCENC =      5496.83009512
  Ewald energy   TEWEN  =    -87997.94232019
  -Hartree energ DENC   =    -32926.53349556
  -exchange      EXHF   =      3799.24236555
  -V(xc)+E(xc)   XCENC  =      2854.57085202
  PAW double counting   =    123535.18597188  -138819.36728044
  entropy T*S    EENTRO =        -0.00674739
  eigenvalues    EBANDS =     -8939.78046589
  atomic energy  EATOM  =    132341.04863466
  ---------------------------------------------------
  free energy    TOTEN  =      -656.75257614 eV

  energy without entropy =     -656.74582875  energy(sigma->0) =     -656.74920245
  exchange ACFDT corr.  =        -0.30906192  see jH, gK, PRB 81, 115126


--------------------------------------------------------------------------------------------------------




--------------------------------------- Iteration      1(  13)  ---------------------------------------


    POTLOK:  cpu time      1.4619: real time      1.4618
    SETDIJ:  cpu time      0.5297: real time      0.5296
    TRIAL :  cpu time    235.4643: real time    235.4366
    CORREC:  cpu time    237.2505: real time    237.2243
    CHARGE:  cpu time      0.2142: real time      0.2142
    --------------------------------------------
      LOOP:  cpu time    474.9209: real time    474.8670

 eigenvalue-minimisations  :     0
 total energy-change (2. order) :-0.1451598E+03  (-0.7923692E+02)
 number of electron    1050.9998547 magnetization 
 augmentation part      456.7166808 magnetization 

 Free energy of the ion-electron system (eV)
  ---------------------------------------------------
  alpha Z        PSCENC =      5496.83009512
  Ewald energy   TEWEN  =    -87997.94232019
  -Hartree energ DENC   =    -33462.49662233
  -exchange      EXHF   =      3861.12700580
  -V(xc)+E(xc)   XCENC  =      2884.24673710
  PAW double counting   =    124290.55721766  -139687.71116100
  entropy T*S    EENTRO =        -0.00217203
  eigenvalues    EBANDS =     -8527.56526431
  atomic energy  EATOM  =    132341.04863466
  ---------------------------------------------------
  free energy    TOTEN  =      -801.91242487 eV

  energy without entropy =     -801.91025284  energy(sigma->0) =     -801.91133885
  exchange ACFDT corr.  =        -0.04040430  see jH, gK, PRB 81, 115126


--------------------------------------------------------------------------------------------------------




--------------------------------------- Iteration      1(  14)  ---------------------------------------


    POTLOK:  cpu time      1.5231: real time      1.5230
    SETDIJ:  cpu time      0.5300: real time      0.5300
    TRIAL :  cpu time    235.0948: real time    235.0678
    CORREC:  cpu time    237.2321: real time    237.2010
    CHARGE:  cpu time      0.2069: real time      0.2068
    --------------------------------------------
      LOOP:  cpu time    474.5873: real time    474.5295

 eigenvalue-minimisations  :     0
 total energy-change (2. order) :-0.7989510E+02  (-0.4093336E+02)
 number of electron    1050.9998610 magnetization 
 augmentation part      456.6857144 magnetization 

 Free energy of the ion-electron system (eV)
  ---------------------------------------------------
  alpha Z        PSCENC =      5496.83009512
  Ewald energy   TEWEN  =    -87997.94232019
  -Hartree energ DENC   =    -33668.97479720
  -exchange      EXHF   =      3887.83235507
  -V(xc)+E(xc)   XCENC  =      2898.98291348
  PAW double counting   =    122397.87137927  -137576.67015678
  entropy T*S    EENTRO =        -0.00249217
  eigenvalues    EBANDS =     -8660.78345673
  atomic energy  EATOM  =    132341.04863466
  ---------------------------------------------------
  free energy    TOTEN  =      -881.80752533 eV

  energy without entropy =     -881.80503317  energy(sigma->0) =     -881.80627925
  exchange ACFDT corr.  =        -0.01474435  see jH, gK, PRB 81, 115126


--------------------------------------------------------------------------------------------------------




--------------------------------------- Iteration      1(  15)  ---------------------------------------


    POTLOK:  cpu time      1.4867: real time      1.4865
    SETDIJ:  cpu time      0.5344: real time      0.5343
    TRIAL :  cpu time    235.2632: real time    235.2323
    CORREC:  cpu time    237.1077: real time    237.0757
    CHARGE:  cpu time      0.2056: real time      0.2056
    --------------------------------------------
      LOOP:  cpu time    474.5983: real time    474.5355

 eigenvalue-minimisations  :     0
 total energy-change (2. order) :-0.4068210E+02  (-0.1812202E+02)
 number of electron    1050.9998610 magnetization 
 augmentation part      456.7170036 magnetization 

 Free energy of the ion-electron system (eV)
  ---------------------------------------------------
  alpha Z        PSCENC =      5496.83009512
  Ewald energy   TEWEN  =    -87997.94232019
  -Hartree energ DENC   =    -33699.67022763
  -exchange      EXHF   =      3876.52226614
  -V(xc)+E(xc)   XCENC  =      2897.12273429
  PAW double counting   =    120909.45700531  -136142.39492655
  entropy T*S    EENTRO =        -0.00726333
  eigenvalues    EBANDS =     -8603.46039357
  atomic energy  EATOM  =    132341.04863466
  ---------------------------------------------------
  free energy    TOTEN  =      -922.48962461 eV

  energy without entropy =     -922.48236128  energy(sigma->0) =     -922.48599294
  exchange ACFDT corr.  =        -0.07087541  see jH, gK, PRB 81, 115126


--------------------------------------------------------------------------------------------------------




--------------------------------------- Iteration      1(  16)  ---------------------------------------


    POTLOK:  cpu time      1.4775: real time      1.4773
    SETDIJ:  cpu time      0.5297: real time      0.5296
    TRIAL :  cpu time    235.4123: real time    235.3792
    CORREC:  cpu time    237.5265: real time    237.4885
    CHARGE:  cpu time      0.2136: real time      0.2135
    --------------------------------------------
      LOOP:  cpu time    475.1603: real time    475.0892

 eigenvalue-minimisations  :     0
 total energy-change (2. order) :-0.1822349E+02  (-0.1207378E+02)
 number of electron    1050.9998607 magnetization 
 augmentation part      455.6991314 magnetization 

 Free energy of the ion-electron system (eV)
  ---------------------------------------------------
  alpha Z        PSCENC =      5496.83009512
  Ewald energy   TEWEN  =    -87997.94232019
  -Hartree energ DENC   =    -33565.12816586
  -exchange      EXHF   =      3862.55432901
  -V(xc)+E(xc)   XCENC  =      2889.04041693
  PAW double counting   =    120437.56364268  -135734.50049173
  entropy T*S    EENTRO =        -0.00640236
  eigenvalues    EBANDS =     -8670.17198877
  atomic energy  EATOM  =    132341.04863466
  ---------------------------------------------------
  free energy    TOTEN  =      -940.71311149 eV

  energy without entropy =     -940.70670913  energy(sigma->0) =     -940.70991031
  exchange ACFDT corr.  =        -0.15183308  see jH, gK, PRB 81, 115126


--------------------------------------------------------------------------------------------------------




--------------------------------------- Iteration      1(  17)  ---------------------------------------


    POTLOK:  cpu time      1.4982: real time      1.4980
    SETDIJ:  cpu time      0.5293: real time      0.5292
    TRIAL :  cpu time    235.2008: real time    235.1705
    CORREC:  cpu time    237.2052: real time    237.1683
    CHARGE:  cpu time      0.2166: real time      0.2166
    --------------------------------------------
      LOOP:  cpu time    474.6516: real time    474.5900

 eigenvalue-minimisations  :     0
 total energy-change (2. order) :-0.1143686E+02  (-0.7222057E+01)
 number of electron    1050.9998635 magnetization 
 augmentation part      455.6113151 magnetization 

 Free energy of the ion-electron system (eV)
  ---------------------------------------------------
  alpha Z        PSCENC =      5496.83009512
  Ewald energy   TEWEN  =    -87997.94232019
  -Hartree energ DENC   =    -33424.66785617
  -exchange      EXHF   =      3857.86104106
  -V(xc)+E(xc)   XCENC  =      2883.25889652
  PAW double counting   =    120243.81338146  -135522.11105298
  entropy T*S    EENTRO =        -0.00861365
  eigenvalues    EBANDS =     -8830.23438998
  atomic energy  EATOM  =    132341.04863466
  ---------------------------------------------------
  free energy    TOTEN  =      -952.14997287 eV

  energy without entropy =     -952.14135922  energy(sigma->0) =     -952.14566605
  exchange ACFDT corr.  =        -0.26254069  see jH, gK, PRB 81, 115126


--------------------------------------------------------------------------------------------------------




--------------------------------------- Iteration      1(  18)  ---------------------------------------


    POTLOK:  cpu time      1.4558: real time      1.4555
    SETDIJ:  cpu time      0.5301: real time      0.5299
    TRIAL :  cpu time    235.2558: real time    235.2185
    CORREC:  cpu time    236.9682: real time    236.9417
    CHARGE:  cpu time      0.2176: real time      0.2176
    --------------------------------------------
      LOOP:  cpu time    474.4278: real time    474.3637

 eigenvalue-minimisations  :     0
 total energy-change (2. order) :-0.4443754E+01  (-0.1700427E+01)
 number of electron    1050.9998649 magnetization 
 augmentation part      455.8756541 magnetization 

 Free energy of the ion-electron system (eV)
  ---------------------------------------------------
  alpha Z        PSCENC =      5496.83009512
  Ewald energy   TEWEN  =    -87997.94232019
  -Hartree energ DENC   =    -33493.78988149
  -exchange      EXHF   =      3867.15981720
  -V(xc)+E(xc)   XCENC  =      2887.30650092
  PAW double counting   =    120039.14817459  -135272.27162510
  entropy T*S    EENTRO =        -0.00247805
  eigenvalues    EBANDS =     -8824.07450915
  atomic energy  EATOM  =    132341.04863466
  ---------------------------------------------------
  free energy    TOTEN  =      -956.59372709 eV

  energy without entropy =     -956.59124904  energy(sigma->0) =     -956.59248807
  exchange ACFDT corr.  =        -0.68699714  see jH, gK, PRB 81, 115126


--------------------------------------------------------------------------------------------------------




--------------------------------------- Iteration      1(  19)  ---------------------------------------


    POTLOK:  cpu time      1.4753: real time      1.4750
    SETDIJ:  cpu time      0.5311: real time      0.5310
    TRIAL :  cpu time    235.1141: real time    235.0793
    CORREC:  cpu time    237.0715: real time    237.0503
    CHARGE:  cpu time      0.2164: real time      0.2164
    --------------------------------------------
      LOOP:  cpu time    474.4086: real time    474.3526

 eigenvalue-minimisations  :     0
 total energy-change (2. order) :-0.1700611E+01  (-0.2040023E+01)
 number of electron    1050.9998657 magnetization 
 augmentation part      456.1532917 magnetization 

 Free energy of the ion-electron system (eV)
  ---------------------------------------------------
  alpha Z        PSCENC =      5496.83009512
  Ewald energy   TEWEN  =    -87997.94232019
  -Hartree energ DENC   =    -33542.85075482
  -exchange      EXHF   =      3870.08020591
  -V(xc)+E(xc)   XCENC  =      2889.19912561
  PAW double counting   =    120036.46998506  -135278.44896966
  entropy T*S    EENTRO =        -0.00038485
  eigenvalues    EBANDS =     -8772.67786144
  atomic energy  EATOM  =    132341.04863466
  ---------------------------------------------------
  free energy    TOTEN  =      -958.29433780 eV

  energy without entropy =     -958.29395295  energy(sigma->0) =     -958.29414538
  exchange ACFDT corr.  =        -0.74597581  see jH, gK, PRB 81, 115126


--------------------------------------------------------------------------------------------------------




--------------------------------------- Iteration      1(  20)  ---------------------------------------


    POTLOK:  cpu time      1.4704: real time      1.4702
    SETDIJ:  cpu time      0.5294: real time      0.5293
    TRIAL :  cpu time    235.1459: real time    235.1175
    CORREC:  cpu time    237.2085: real time    237.1751
    CHARGE:  cpu time      0.2129: real time      0.2132
    --------------------------------------------
      LOOP:  cpu time    474.5675: real time    474.5062

 eigenvalue-minimisations  :     0
 total energy-change (2. order) :-0.2041428E+01  (-0.1231118E+01)
 number of electron    1050.9998655 magnetization 
 augmentation part      456.1368367 magnetization 

 Free energy of the ion-electron system (eV)
  ---------------------------------------------------
  alpha Z        PSCENC =      5496.83009512
  Ewald energy   TEWEN  =    -87997.94232019
  -Hartree energ DENC   =    -33557.24783936
  -exchange      EXHF   =      3869.92029545
  -V(xc)+E(xc)   XCENC  =      2889.31556979
  PAW double counting   =    120121.82005387  -135384.23972627
  entropy T*S    EENTRO =        -0.00008974
  eigenvalues    EBANDS =     -8739.84014391
  atomic energy  EATOM  =    132341.04863466
  ---------------------------------------------------
  free energy    TOTEN  =      -960.33576570 eV

  energy without entropy =     -960.33567596  energy(sigma->0) =     -960.33572083
  exchange ACFDT corr.  =        -0.00398836  see jH, gK, PRB 81, 115126


--------------------------------------------------------------------------------------------------------




--------------------------------------- Iteration      1(  21)  ---------------------------------------


    POTLOK:  cpu time      1.5027: real time      1.5030
    SETDIJ:  cpu time      0.5303: real time      0.5302
    TRIAL :  cpu time    235.1143: real time    235.0766
    CORREC:  cpu time    237.2591: real time    237.2248
    CHARGE:  cpu time      0.2081: real time      0.2080
    --------------------------------------------
      LOOP:  cpu time    474.6159: real time    474.5445

 eigenvalue-minimisations  :     0
 total energy-change (2. order) :-0.1231145E+01  (-0.7955830E+00)
 number of electron    1050.9998649 magnetization 
 augmentation part      455.9986588 magnetization 

 Free energy of the ion-electron system (eV)
  ---------------------------------------------------
  alpha Z        PSCENC =      5496.83009512
  Ewald energy   TEWEN  =    -87997.94232019
  -Hartree energ DENC   =    -33528.48927814
  -exchange      EXHF   =      3868.11423829
  -V(xc)+E(xc)   XCENC  =      2887.91655854
  PAW double counting   =    120233.24504204  -135501.69795982
  entropy T*S    EENTRO =        -0.00097681
  eigenvalues    EBANDS =     -8760.59183146
  atomic energy  EATOM  =    132341.04863466
  ---------------------------------------------------
  free energy    TOTEN  =      -961.56691072 eV

  energy without entropy =     -961.56593391  energy(sigma->0) =     -961.56642232
  exchange ACFDT corr.  =        -0.00084609  see jH, gK, PRB 81, 115126


--------------------------------------------------------------------------------------------------------




--------------------------------------- Iteration      1(  22)  ---------------------------------------


    POTLOK:  cpu time      1.4673: real time      1.4671
    SETDIJ:  cpu time      0.5334: real time      0.5334
    TRIAL :  cpu time    235.0426: real time    235.0113
    CORREC:  cpu time    237.2955: real time    237.2857
    CHARGE:  cpu time      0.2101: real time      0.2101
    --------------------------------------------
      LOOP:  cpu time    474.5493: real time    474.5135

 eigenvalue-minimisations  :     0
 total energy-change (2. order) :-0.7954618E+00  (-0.5194528E+00)
 number of electron    1050.9998645 magnetization 
 augmentation part      456.0043143 magnetization 

 Free energy of the ion-electron system (eV)
  ---------------------------------------------------
  alpha Z        PSCENC =      5496.83009512
  Ewald energy   TEWEN  =    -87997.94232019
  -Hartree energ DENC   =    -33500.06497919
  -exchange      EXHF   =      3867.35888682
  -V(xc)+E(xc)   XCENC  =      2886.92633492
  PAW double counting   =    120332.29848264  -135593.67387352
  entropy T*S    EENTRO =        -0.00989384
  eigenvalues    EBANDS =     -8795.14265696
  atomic energy  EATOM  =    132341.04863466
  ---------------------------------------------------
  free energy    TOTEN  =      -962.36237252 eV

  energy without entropy =     -962.35247868  energy(sigma->0) =     -962.35742560
  exchange ACFDT corr.  =        -0.30928938  see jH, gK, PRB 81, 115126


--------------------------------------------------------------------------------------------------------




--------------------------------------- Iteration      1(  23)  ---------------------------------------


    POTLOK:  cpu time      1.5277: real time      1.5275
    SETDIJ:  cpu time      0.5303: real time      0.5303
    TRIAL :  cpu time    235.0234: real time    234.9886
    CORREC:  cpu time    237.2401: real time    237.2016
    CHARGE:  cpu time      0.2186: real time      0.2185
    --------------------------------------------
      LOOP:  cpu time    474.5409: real time    474.4678

 eigenvalue-minimisations  :     0
 total energy-change (2. order) :-0.5203155E+00  (-0.3324262E+00)
 number of electron    1050.9998644 magnetization 
 augmentation part      456.1643878 magnetization 

 Free energy of the ion-electron system (eV)
  ---------------------------------------------------
  alpha Z        PSCENC =      5496.83009512
  Ewald energy   TEWEN  =    -87997.94232019
  -Hartree energ DENC   =    -33501.42470137
  -exchange      EXHF   =      3868.41935794
  -V(xc)+E(xc)   XCENC  =      2887.27590987
  PAW double counting   =    120416.78232560  -135672.26384333
  entropy T*S    EENTRO =        -0.01878552
  eigenvalues    EBANDS =     -8801.59825244
  atomic energy  EATOM  =    132341.04863466
  ---------------------------------------------------
  free energy    TOTEN  =      -962.88268799 eV

  energy without entropy =     -962.86390247  energy(sigma->0) =     -962.87329523
  exchange ACFDT corr.  =        -0.96491317  see jH, gK, PRB 81, 115126


--------------------------------------------------------------------------------------------------------




--------------------------------------- Iteration      1(  24)  ---------------------------------------


    POTLOK:  cpu time      1.5339: real time      1.5336
    SETDIJ:  cpu time      0.5291: real time      0.5290
    TRIAL :  cpu time    235.2660: real time    235.2278
    CORREC:  cpu time    237.3568: real time    237.3250
    CHARGE:  cpu time      0.2250: real time      0.2250
    --------------------------------------------
      LOOP:  cpu time    474.9110: real time    474.8410

 eigenvalue-minimisations  :     0
 total energy-change (2. order) :-0.3321423E+00  (-0.2048606E+00)
 number of electron    1050.9998644 magnetization 
 augmentation part      456.2729184 magnetization 

 Free energy of the ion-electron system (eV)
  ---------------------------------------------------
  alpha Z        PSCENC =      5496.83009512
  Ewald energy   TEWEN  =    -87997.94232019
  -Hartree energ DENC   =    -33523.30156399
  -exchange      EXHF   =      3870.02351071
  -V(xc)+E(xc)   XCENC  =      2888.32416483
  PAW double counting   =    120477.94800849  -135735.29066786
  entropy T*S    EENTRO =        -0.01945743
  eigenvalues    EBANDS =     -8780.83590655
  atomic energy  EATOM  =    132341.04863466
  ---------------------------------------------------
  free energy    TOTEN  =      -963.21483031 eV

  energy without entropy =     -963.19537288  energy(sigma->0) =     -963.20510160
  exchange ACFDT corr.  =        -0.41161806  see jH, gK, PRB 81, 115126


--------------------------------------------------------------------------------------------------------




--------------------------------------- Iteration      1(  25)  ---------------------------------------


    POTLOK:  cpu time      1.5038: real time      1.5037
    SETDIJ:  cpu time      0.5309: real time      0.5309
    TRIAL :  cpu time    235.4237: real time    235.3848
    CORREC:  cpu time    237.3618: real time    237.3275
    CHARGE:  cpu time      0.2052: real time      0.2052
    --------------------------------------------
      LOOP:  cpu time    475.0257: real time    474.9525

 eigenvalue-minimisations  :     0
 total energy-change (2. order) :-0.2050628E+00  (-0.1157810E+00)
 number of electron    1050.9998645 magnetization 
 augmentation part      456.2521486 magnetization 

 Free energy of the ion-electron system (eV)
  ---------------------------------------------------
  alpha Z        PSCENC =      5496.83009512
  Ewald energy   TEWEN  =    -87997.94232019
  -Hartree energ DENC   =    -33538.94395549
  -exchange      EXHF   =      3870.85211046
  -V(xc)+E(xc)   XCENC  =      2888.99421739
  PAW double counting   =    120508.60851903  -135769.60839491
  entropy T*S    EENTRO =        -0.01558871
  eigenvalues    EBANDS =     -8763.23934172
  atomic energy  EATOM  =    132341.04863466
  ---------------------------------------------------
  free energy    TOTEN  =      -963.41989308 eV

  energy without entropy =     -963.40430438  energy(sigma->0) =     -963.41209873
  exchange ACFDT corr.  =        -0.76589735  see jH, gK, PRB 81, 115126


--------------------------------------------------------------------------------------------------------




--------------------------------------- Iteration      1(  26)  ---------------------------------------


    POTLOK:  cpu time      1.4922: real time      1.4920
    SETDIJ:  cpu time      0.5317: real time      0.5317
    TRIAL :  cpu time    235.0486: real time    235.0138
    CORREC:  cpu time    237.1850: real time    237.1480
    CHARGE:  cpu time      0.2154: real time      0.2154
    --------------------------------------------
      LOOP:  cpu time    474.4735: real time    474.4017

 eigenvalue-minimisations  :     0
 total energy-change (2. order) :-0.1155940E+00  (-0.6823444E-01)
 number of electron    1050.9998644 magnetization 
 augmentation part      456.1697828 magnetization 

 Free energy of the ion-electron system (eV)
  ---------------------------------------------------
  alpha Z        PSCENC =      5496.83009512
  Ewald energy   TEWEN  =    -87997.94232019
  -Hartree energ DENC   =    -33537.00351159
  -exchange      EXHF   =      3870.55584772
  -V(xc)+E(xc)   XCENC  =      2888.88400505
  PAW double counting   =    120509.08488583  -135770.37222351
  entropy T*S    EENTRO =        -0.01420945
  eigenvalues    EBANDS =     -8764.60531150
  atomic energy  EATOM  =    132341.04863466
  ---------------------------------------------------
  free energy    TOTEN  =      -963.53548712 eV

  energy without entropy =     -963.52127767  energy(sigma->0) =     -963.52838240
  exchange ACFDT corr.  =        -0.93067939  see jH, gK, PRB 81, 115126


--------------------------------------------------------------------------------------------------------




--------------------------------------- Iteration      1(  27)  ---------------------------------------


    POTLOK:  cpu time      1.4863: real time      1.4860
    SETDIJ:  cpu time      0.5287: real time      0.5287
    TRIAL :  cpu time    235.3602: real time    235.3219
    CORREC:  cpu time    237.3858: real time    237.3508
    CHARGE:  cpu time      0.2074: real time      0.2074
    --------------------------------------------
      LOOP:  cpu time    474.9691: real time    474.8959

 eigenvalue-minimisations  :     0
 total energy-change (2. order) :-0.6821700E-01  (-0.4591890E-01)
 number of electron    1050.9998644 magnetization 
 augmentation part      456.1126341 magnetization 

 Free energy of the ion-electron system (eV)
  ---------------------------------------------------
  alpha Z        PSCENC =      5496.83009512
  Ewald energy   TEWEN  =    -87997.94232019
  -Hartree energ DENC   =    -33524.78739887
  -exchange      EXHF   =      3869.68646546
  -V(xc)+E(xc)   XCENC  =      2888.34017589
  PAW double counting   =    120493.88014911  -135752.28636977
  entropy T*S    EENTRO =        -0.01587702
  eigenvalues    EBANDS =     -8778.35892607
  atomic energy  EATOM  =    132341.04863466
  ---------------------------------------------------
  free energy    TOTEN  =      -963.60370412 eV

  energy without entropy =     -963.58782710  energy(sigma->0) =     -963.59576561
  exchange ACFDT corr.  =        -1.30734599  see jH, gK, PRB 81, 115126


--------------------------------------------------------------------------------------------------------




--------------------------------------- Iteration      1(  28)  ---------------------------------------


    POTLOK:  cpu time      1.5007: real time      1.5005
    SETDIJ:  cpu time      0.5303: real time      0.5302
    TRIAL :  cpu time    235.0483: real time    235.0134
    CORREC:  cpu time    237.4507: real time    237.4138
    CHARGE:  cpu time      0.2077: real time      0.2077
    --------------------------------------------
      LOOP:  cpu time    474.7381: real time    474.6716

 eigenvalue-minimisations  :     0
 total energy-change (2. order) :-0.4591910E-01  (-0.3046363E-01)
 number of electron    1050.9998644 magnetization 
 augmentation part      456.1225250 magnetization 

 Free energy of the ion-electron system (eV)
  ---------------------------------------------------
  alpha Z        PSCENC =      5496.83009512
  Ewald energy   TEWEN  =    -87997.94232019
  -Hartree energ DENC   =    -33514.74960905
  -exchange      EXHF   =      3868.98999354
  -V(xc)+E(xc)   XCENC  =      2887.89369923
  PAW double counting   =    120473.62881169  -135729.22786966
  entropy T*S    EENTRO =        -0.02035926
  eigenvalues    EBANDS =     -8790.10518153
  atomic energy  EATOM  =    132341.04863466
  ---------------------------------------------------
  free energy    TOTEN  =      -963.64962322 eV

  energy without entropy =     -963.62926396  energy(sigma->0) =     -963.63944359
  exchange ACFDT corr.  =        -1.13972070  see jH, gK, PRB 81, 115126


--------------------------------------------------------------------------------------------------------




--------------------------------------- Iteration      1(  29)  ---------------------------------------


    POTLOK:  cpu time      1.4679: real time      1.4677
    SETDIJ:  cpu time      0.5281: real time      0.5280
    TRIAL :  cpu time    235.1537: real time    235.1142
    CORREC:  cpu time    237.1334: real time    237.0972
    CHARGE:  cpu time      0.2069: real time      0.2068
    --------------------------------------------
      LOOP:  cpu time    474.4903: real time    474.4145

 eigenvalue-minimisations  :     0
 total energy-change (2. order) :-0.3043937E-01  (-0.2252089E-01)
 number of electron    1050.9998644 magnetization 
 augmentation part      456.1647942 magnetization 

 Free energy of the ion-electron system (eV)
  ---------------------------------------------------
  alpha Z        PSCENC =      5496.83009512
  Ewald energy   TEWEN  =    -87997.94232019
  -Hartree energ DENC   =    -33515.13330069
  -exchange      EXHF   =      3868.93736575
  -V(xc)+E(xc)   XCENC  =      2887.88331328
  PAW double counting   =    120454.60732598  -135710.60685723
  entropy T*S    EENTRO =        -0.02564860
  eigenvalues    EBANDS =     -8789.28396000
  atomic energy  EATOM  =    132341.04863466
  ---------------------------------------------------
  free energy    TOTEN  =      -963.68006259 eV

  energy without entropy =     -963.65441399  energy(sigma->0) =     -963.66723829
  exchange ACFDT corr.  =        -0.97994625  see jH, gK, PRB 81, 115126


--------------------------------------------------------------------------------------------------------




--------------------------------------- Iteration      1(  30)  ---------------------------------------


    POTLOK:  cpu time      1.4899: real time      1.4897
    SETDIJ:  cpu time      0.5289: real time      0.5287
    TRIAL :  cpu time    235.1940: real time    235.1551
    CORREC:  cpu time    237.3316: real time    237.2916
    CHARGE:  cpu time      0.2125: real time      0.2125
    --------------------------------------------
      LOOP:  cpu time    474.7572: real time    474.6782

 eigenvalue-minimisations  :     0
 total energy-change (2. order) :-0.2238020E-01  (-0.1444259E-01)
 number of electron    1050.9998645 magnetization 
 augmentation part      456.1863541 magnetization 

 Free energy of the ion-electron system (eV)
  ---------------------------------------------------
  alpha Z        PSCENC =      5496.83009512
  Ewald energy   TEWEN  =    -87997.94232019
  -Hartree energ DENC   =    -33522.41002188
  -exchange      EXHF   =      3869.33663225
  -V(xc)+E(xc)   XCENC  =      2888.17143377
  PAW double counting   =    120437.59575182  -135696.11459408
  entropy T*S    EENTRO =        -0.02763210
  eigenvalues    EBANDS =     -8780.19240566
  atomic energy  EATOM  =    132341.04863466
  ---------------------------------------------------
  free energy    TOTEN  =      -963.70244279 eV

  energy without entropy =     -963.67481070  energy(sigma->0) =     -963.68862675
  exchange ACFDT corr.  =        -1.07785299  see jH, gK, PRB 81, 115126


--------------------------------------------------------------------------------------------------------




--------------------------------------- Iteration      1(  31)  ---------------------------------------


    POTLOK:  cpu time      1.4889: real time      1.4887
    SETDIJ:  cpu time      0.5298: real time      0.5297
    TRIAL :  cpu time    235.1896: real time    235.1552
    CORREC:  cpu time    237.4276: real time    237.3942
    CHARGE:  cpu time      0.2169: real time      0.2170
    --------------------------------------------
      LOOP:  cpu time    474.8534: real time    474.7857

 eigenvalue-minimisations  :     0
 total energy-change (2. order) :-0.1440250E-01  (-0.9849726E-02)
 number of electron    1050.9998645 magnetization 
 augmentation part      456.1774491 magnetization 

 Free energy of the ion-electron system (eV)
  ---------------------------------------------------
  alpha Z        PSCENC =      5496.83009512
  Ewald energy   TEWEN  =    -87997.94232019
  -Hartree energ DENC   =    -33527.90857947
  -exchange      EXHF   =      3869.66877728
  -V(xc)+E(xc)   XCENC  =      2888.40266627
  PAW double counting   =    120426.17893202  -135686.22580358
  entropy T*S    EENTRO =        -0.02711370
  eigenvalues    EBANDS =     -8773.74161529
  atomic energy  EATOM  =    132341.04863466
  ---------------------------------------------------
  free energy    TOTEN  =      -963.71684530 eV

  energy without entropy =     -963.68973160  energy(sigma->0) =     -963.70328845
  exchange ACFDT corr.  =        -1.06217531  see jH, gK, PRB 81, 115126


--------------------------------------------------------------------------------------------------------




--------------------------------------- Iteration      1(  32)  ---------------------------------------


    POTLOK:  cpu time      1.4919: real time      1.4919
    SETDIJ:  cpu time      0.5307: real time      0.5306
    TRIAL :  cpu time    235.1653: real time    235.2318
    CORREC:  cpu time    237.4551: real time    237.4131
    CHARGE:  cpu time      0.2089: real time      0.2088
    --------------------------------------------
      LOOP:  cpu time    474.8522: real time    474.8767

 eigenvalue-minimisations  :     0
 total energy-change (2. order) :-0.9849743E-02  (-0.6629144E-02)
 number of electron    1050.9998645 magnetization 
 augmentation part      456.1513812 magnetization 

 Free energy of the ion-electron system (eV)
  ---------------------------------------------------
  alpha Z        PSCENC =      5496.83009512
  Ewald energy   TEWEN  =    -87997.94232019
  -Hartree energ DENC   =    -33528.53691528
  -exchange      EXHF   =      3869.70956495
  -V(xc)+E(xc)   XCENC  =      2888.43544641
  PAW double counting   =    120419.51498608  -135679.25823454
  entropy T*S    EENTRO =        -0.02620612
  eigenvalues    EBANDS =     -8773.50083855
  atomic energy  EATOM  =    132341.04863466
  ---------------------------------------------------
  free energy    TOTEN  =      -963.72669504 eV

  energy without entropy =     -963.70048892  energy(sigma->0) =     -963.71359198
  exchange ACFDT corr.  =        -0.98820136  see jH, gK, PRB 81, 115126


--------------------------------------------------------------------------------------------------------




--------------------------------------- Iteration      1(  33)  ---------------------------------------


    POTLOK:  cpu time      1.5120: real time      1.5117
    SETDIJ:  cpu time      0.5300: real time      0.5299
    TRIAL :  cpu time    235.0835: real time    235.0410
    CORREC:  cpu time    237.5320: real time    237.4898
    CHARGE:  cpu time      0.2102: real time      0.2102
    --------------------------------------------
      LOOP:  cpu time    474.8680: real time    474.7891

 eigenvalue-minimisations  :     0
 total energy-change (2. order) :-0.6628651E-02  (-0.4968086E-02)
 number of electron    1050.9998644 magnetization 
 augmentation part      456.1276120 magnetization 

 Free energy of the ion-electron system (eV)
  ---------------------------------------------------
  alpha Z        PSCENC =      5496.83009512
  Ewald energy   TEWEN  =    -87997.94232019
  -Hartree energ DENC   =    -33525.51257060
  -exchange      EXHF   =      3869.52066793
  -V(xc)+E(xc)   XCENC  =      2888.31126954
  PAW double counting   =    120416.29897978  -135674.75397919
  entropy T*S    EENTRO =        -0.02580986
  eigenvalues    EBANDS =     -8777.50789460
  atomic energy  EATOM  =    132341.04863466
  ---------------------------------------------------
  free energy    TOTEN  =      -963.73332369 eV

  energy without entropy =     -963.70751383  energy(sigma->0) =     -963.72041876
  exchange ACFDT corr.  =        -0.94493557  see jH, gK, PRB 81, 115126


--------------------------------------------------------------------------------------------------------




--------------------------------------- Iteration      1(  34)  ---------------------------------------


    POTLOK:  cpu time      1.4529: real time      1.4530
    SETDIJ:  cpu time      0.5282: real time      0.5281
    TRIAL :  cpu time    235.3795: real time    235.3378
    CORREC:  cpu time    237.3618: real time    237.3284
    CHARGE:  cpu time      0.2017: real time      0.2017
    --------------------------------------------
      LOOP:  cpu time    474.9257: real time    474.8509

 eigenvalue-minimisations  :     0
 total energy-change (2. order) :-0.4968114E-02  (-0.4292758E-02)
 number of electron    1050.9998644 magnetization 
 augmentation part      456.1202764 magnetization 

 Free energy of the ion-electron system (eV)
  ---------------------------------------------------
  alpha Z        PSCENC =      5496.83009512
  Ewald energy   TEWEN  =    -87997.94232019
  -Hartree energ DENC   =    -33521.91930655
  -exchange      EXHF   =      3869.29987330
  -V(xc)+E(xc)   XCENC  =      2888.15867018
  PAW double counting   =    120415.41454140  -135672.87240057
  entropy T*S    EENTRO =        -0.02606968
  eigenvalues    EBANDS =     -8781.73026928
  atomic energy  EATOM  =    132341.04863466
  ---------------------------------------------------
  free energy    TOTEN  =      -963.73829181 eV

  energy without entropy =     -963.71222212  energy(sigma->0) =     -963.72525696
  exchange ACFDT corr.  =        -0.92206283  see jH, gK, PRB 81, 115126


--------------------------------------------------------------------------------------------------------




--------------------------------------- Iteration      1(  35)  ---------------------------------------


    POTLOK:  cpu time      1.5065: real time      1.5062
    SETDIJ:  cpu time      0.5277: real time      0.5276
    TRIAL :  cpu time    235.2291: real time    235.1923
    CORREC:  cpu time    237.1739: real time    237.1348
    CHARGE:  cpu time      0.2146: real time      0.2145
    --------------------------------------------
      LOOP:  cpu time    474.6534: real time    474.5778

 eigenvalue-minimisations  :     0
 total energy-change (2. order) :-0.4293066E-02  (-0.3998660E-02)
 number of electron    1050.9998644 magnetization 
 augmentation part      456.1350219 magnetization 

 Free energy of the ion-electron system (eV)
  ---------------------------------------------------
  alpha Z        PSCENC =      5496.83009512
  Ewald energy   TEWEN  =    -87997.94232019
  -Hartree energ DENC   =    -33520.29632539
  -exchange      EXHF   =      3869.21565961
  -V(xc)+E(xc)   XCENC  =      2888.08988568
  PAW double counting   =    120416.36131379  -135673.76672016
  entropy T*S    EENTRO =        -0.02684254
  eigenvalues    EBANDS =     -8783.25673831
  atomic energy  EATOM  =    132341.04863466
  ---------------------------------------------------
  free energy    TOTEN  =      -963.74258487 eV

  energy without entropy =     -963.71574233  energy(sigma->0) =     -963.72916360
  exchange ACFDT corr.  =        -0.91719026  see jH, gK, PRB 81, 115126


--------------------------------------------------------------------------------------------------------




--------------------------------------- Iteration      1(  36)  ---------------------------------------


    POTLOK:  cpu time      1.4479: real time      1.4477
    SETDIJ:  cpu time      0.5303: real time      0.5302
    TRIAL :  cpu time    235.0527: real time    235.0182
    CORREC:  cpu time    237.4020: real time    237.3746
    CHARGE:  cpu time      0.2201: real time      0.2201
    --------------------------------------------
      LOOP:  cpu time    474.6560: real time    474.5945

 eigenvalue-minimisations  :     0
 total energy-change (2. order) :-0.3997948E-02  (-0.4142413E-02)
 number of electron    1050.9998644 magnetization 
 augmentation part      456.1637335 magnetization 

 Free energy of the ion-electron system (eV)
  ---------------------------------------------------
  alpha Z        PSCENC =      5496.83009512
  Ewald energy   TEWEN  =    -87997.94232019
  -Hartree energ DENC   =    -33521.47647663
  -exchange      EXHF   =      3869.32411226
  -V(xc)+E(xc)   XCENC  =      2888.14561966
  PAW double counting   =    120419.83281571  -135678.02805299
  entropy T*S    EENTRO =        -0.02765932
  eigenvalues    EBANDS =     -8781.45416786
  atomic energy  EATOM  =    132341.04863466
  ---------------------------------------------------
  free energy    TOTEN  =      -963.74658282 eV

  energy without entropy =     -963.71892350  energy(sigma->0) =     -963.73275316
  exchange ACFDT corr.  =        -0.93545614  see jH, gK, PRB 81, 115126


--------------------------------------------------------------------------------------------------------




--------------------------------------- Iteration      1(  37)  ---------------------------------------


    POTLOK:  cpu time      1.4682: real time      1.4680
    SETDIJ:  cpu time      0.5298: real time      0.5298
    TRIAL :  cpu time    235.2798: real time    235.2551
    CORREC:  cpu time    237.4121: real time    237.3846
    CHARGE:  cpu time      0.2223: real time      0.2223
    --------------------------------------------
      LOOP:  cpu time    474.9134: real time    474.8615

 eigenvalue-minimisations  :     0
 total energy-change (2. order) :-0.4140348E-02  (-0.7345999E-02)
 number of electron    1050.9998644 magnetization 
 augmentation part      456.1478247 magnetization 

 Free energy of the ion-electron system (eV)
  ---------------------------------------------------
  alpha Z        PSCENC =      5496.83009512
  Ewald energy   TEWEN  =    -87997.94232019
  -Hartree energ DENC   =    -33524.28223395
  -exchange      EXHF   =      3869.54254274
  -V(xc)+E(xc)   XCENC  =      2888.27609628
  PAW double counting   =    120426.22416903  -135685.36659175
  entropy T*S    EENTRO =        -0.02784690
  eigenvalues    EBANDS =     -8778.05345579
  atomic energy  EATOM  =    132341.04863466
  ---------------------------------------------------
  free energy    TOTEN  =      -963.75072317 eV

  energy without entropy =     -963.72287627  energy(sigma->0) =     -963.73679972
  exchange ACFDT corr.  =        -0.98243580  see jH, gK, PRB 81, 115126


--------------------------------------------------------------------------------------------------------




--------------------------------------- Iteration      1(  38)  ---------------------------------------


    POTLOK:  cpu time      1.4725: real time      1.4723
    SETDIJ:  cpu time      0.5304: real time      0.5303
    TRIAL :  cpu time    235.2253: real time    235.1833
    CORREC:  cpu time    236.9828: real time    236.9464
    CHARGE:  cpu time      0.2058: real time      0.2058
    --------------------------------------------
      LOOP:  cpu time    474.4171: real time    474.3460

 eigenvalue-minimisations  :     0
 total energy-change (2. order) :-0.7344905E-02  (-0.3789059E-02)
 number of electron    1050.9998644 magnetization 
 augmentation part      456.1446472 magnetization 

 Free energy of the ion-electron system (eV)
  ---------------------------------------------------
  alpha Z        PSCENC =      5496.83009512
  Ewald energy   TEWEN  =    -87997.94232019
  -Hartree energ DENC   =    -33522.81748069
  -exchange      EXHF   =      3869.43773622
  -V(xc)+E(xc)   XCENC  =      2888.21518357
  PAW double counting   =    120427.21372524  -135684.94052164
  entropy T*S    EENTRO =        -0.02799076
  eigenvalues    EBANDS =     -8780.77527345
  atomic energy  EATOM  =    132341.04863466
  ---------------------------------------------------
  free energy    TOTEN  =      -963.75806807 eV

  energy without entropy =     -963.73007731  energy(sigma->0) =     -963.74407269
  exchange ACFDT corr.  =        -0.99906412  see jH, gK, PRB 81, 115126


--------------------------------------------------------------------------------------------------------




--------------------------------------- Iteration      1(  39)  ---------------------------------------


    POTLOK:  cpu time      1.5036: real time      1.5034
    SETDIJ:  cpu time      0.5304: real time      0.5303
    TRIAL :  cpu time    235.2478: real time    235.2138
    CORREC:  cpu time    237.2137: real time    237.1809
    CHARGE:  cpu time      0.2136: real time      0.2136
    --------------------------------------------
      LOOP:  cpu time    474.7101: real time    474.6435

 eigenvalue-minimisations  :     0
 total energy-change (2. order) :-0.3782505E-02  (-0.3519679E-02)
 number of electron    1050.9998644 magnetization 
 augmentation part      456.1609333 magnetization 

 Free energy of the ion-electron system (eV)
  ---------------------------------------------------
  alpha Z        PSCENC =      5496.83009512
  Ewald energy   TEWEN  =    -87997.94232019
  -Hartree energ DENC   =    -33523.23861097
  -exchange      EXHF   =      3869.45008027
  -V(xc)+E(xc)   XCENC  =      2888.22267572
  PAW double counting   =    120428.28286881  -135686.40297587
  entropy T*S    EENTRO =        -0.02803931
  eigenvalues    EBANDS =     -8779.98430735
  atomic energy  EATOM  =    132341.04863466
  ---------------------------------------------------
  free energy    TOTEN  =      -963.76185058 eV

  energy without entropy =     -963.73381127  energy(sigma->0) =     -963.74783092
  exchange ACFDT corr.  =        -1.02249258  see jH, gK, PRB 81, 115126


--------------------------------------------------------------------------------------------------------




--------------------------------------- Iteration      1(  40)  ---------------------------------------


    POTLOK:  cpu time      1.5481: real time      1.5479
    SETDIJ:  cpu time      0.5282: real time      0.5281
    TRIAL :  cpu time    235.2840: real time    235.2448
    CORREC:  cpu time    237.2978: real time    237.2625
    CHARGE:  cpu time      0.2117: real time      0.2116
    --------------------------------------------
      LOOP:  cpu time    474.8722: real time    474.7980

 eigenvalue-minimisations  :     0
 total energy-change (2. order) :-0.3507142E-02  (-0.5818723E-02)
 number of electron    1050.9998644 magnetization 
 augmentation part      456.1524161 magnetization 

 Free energy of the ion-electron system (eV)
  ---------------------------------------------------
  alpha Z        PSCENC =      5496.83009512
  Ewald energy   TEWEN  =    -87997.94232019
  -Hartree energ DENC   =    -33524.54685986
  -exchange      EXHF   =      3869.48101443
  -V(xc)+E(xc)   XCENC  =      2888.25946908
  PAW double counting   =    120432.08342195  -135691.15823895
  entropy T*S    EENTRO =        -0.02796226
  eigenvalues    EBANDS =     -8777.79253465
  atomic energy  EATOM  =    132341.04863466
  ---------------------------------------------------
  free energy    TOTEN  =      -963.76535772 eV

  energy without entropy =     -963.73739546  energy(sigma->0) =     -963.75137659
  exchange ACFDT corr.  =        -1.04595109  see jH, gK, PRB 81, 115126


--------------------------------------------------------------------------------------------------------




--------------------------------------- Iteration      1(  41)  ---------------------------------------


    POTLOK:  cpu time      1.4671: real time      1.4669
    SETDIJ:  cpu time      0.5295: real time      0.5294
    TRIAL :  cpu time    235.2376: real time    235.2029
    CORREC:  cpu time    237.4356: real time    237.4011
    CHARGE:  cpu time      0.2218: real time      0.2218
    --------------------------------------------
      LOOP:  cpu time    474.8944: real time    474.8254

 eigenvalue-minimisations  :     0
 total energy-change (2. order) :-0.5614712E-02  (-0.6265885E-02)
 number of electron    1050.9998643 magnetization 
 augmentation part      456.1466432 magnetization 

 Free energy of the ion-electron system (eV)
  ---------------------------------------------------
  alpha Z        PSCENC =      5496.83009512
  Ewald energy   TEWEN  =    -87997.94232019
  -Hartree energ DENC   =    -33523.76792601
  -exchange      EXHF   =      3869.47251837
  -V(xc)+E(xc)   XCENC  =      2888.24515474
  PAW double counting   =    120431.81202839  -135689.91755454
  entropy T*S    EENTRO =        -0.02789962
  eigenvalues    EBANDS =     -8779.52364070
  atomic energy  EATOM  =    132341.04863466
  ---------------------------------------------------
  free energy    TOTEN  =      -963.77097243 eV

  energy without entropy =     -963.74307281  energy(sigma->0) =     -963.75702262
  exchange ACFDT corr.  =        -1.07913158  see jH, gK, PRB 81, 115126


--------------------------------------------------------------------------------------------------------




--------------------------------------- Iteration      1(  42)  ---------------------------------------


    POTLOK:  cpu time      1.4338: real time      1.4335
    SETDIJ:  cpu time      0.5295: real time      0.5295
    TRIAL :  cpu time    235.1878: real time    235.1540
    CORREC:  cpu time    237.4055: real time    237.3718
    CHARGE:  cpu time      0.2102: real time      0.2102
    --------------------------------------------
      LOOP:  cpu time    474.7700: real time    474.7025

 eigenvalue-minimisations  :     0
 total energy-change (2. order) :-0.6200698E-02  (-0.5829184E-02)
 number of electron    1050.9998643 magnetization 
 augmentation part      456.1543393 magnetization 

 Free energy of the ion-electron system (eV)
  ---------------------------------------------------
  alpha Z        PSCENC =      5496.83009512
  Ewald energy   TEWEN  =    -87997.94232019
  -Hartree energ DENC   =    -33522.57150785
  -exchange      EXHF   =      3869.40590863
  -V(xc)+E(xc)   XCENC  =      2888.20024774
  PAW double counting   =    120433.98991362  -135691.72859401
  entropy T*S    EENTRO =        -0.02803849
  eigenvalues    EBANDS =     -8780.98165123
  atomic energy  EATOM  =    132341.04863466
  ---------------------------------------------------
  free energy    TOTEN  =      -963.77717313 eV

  energy without entropy =     -963.74913464  energy(sigma->0) =     -963.76315388
  exchange ACFDT corr.  =        -1.10413553  see jH, gK, PRB 81, 115126


--------------------------------------------------------------------------------------------------------




--------------------------------------- Iteration      1(  43)  ---------------------------------------


    POTLOK:  cpu time      1.4697: real time      1.4695
    SETDIJ:  cpu time      0.5289: real time      0.5287
    TRIAL :  cpu time    235.1573: real time    235.1211
    CORREC:  cpu time    237.4346: real time    237.4024
    CHARGE:  cpu time      0.2111: real time      0.2110
    --------------------------------------------
      LOOP:  cpu time    474.8018: real time    474.7391

 eigenvalue-minimisations  :     0
 total energy-change (2. order) :-0.5853218E-02  (-0.3080390E-02)
 number of electron    1050.9998642 magnetization 
 augmentation part      456.1521571 magnetization 

 Free energy of the ion-electron system (eV)
  ---------------------------------------------------
  alpha Z        PSCENC =      5496.83009512
  Ewald energy   TEWEN  =    -87997.94232019
  -Hartree energ DENC   =    -33523.01634177
  -exchange      EXHF   =      3869.38315474
  -V(xc)+E(xc)   XCENC  =      2888.20017714
  PAW double counting   =    120436.93533649  -135695.54503918
  entropy T*S    EENTRO =        -0.02816456
  eigenvalues    EBANDS =     -8779.64868486
  atomic energy  EATOM  =    132341.04863466
  ---------------------------------------------------
  free energy    TOTEN  =      -963.78302635 eV

  energy without entropy =     -963.75486179  energy(sigma->0) =     -963.76894407
  exchange ACFDT corr.  =        -1.13368694  see jH, gK, PRB 81, 115126


--------------------------------------------------------------------------------------------------------




--------------------------------------- Iteration      1(  44)  ---------------------------------------


    POTLOK:  cpu time      1.4995: real time      1.4996
    SETDIJ:  cpu time      0.5290: real time      0.5289
    TRIAL :  cpu time    235.3432: real time    235.3065
    CORREC:  cpu time    237.3726: real time    237.3322
    CHARGE:  cpu time      0.2168: real time      0.2167
    --------------------------------------------
      LOOP:  cpu time    474.9614: real time    474.8843

 eigenvalue-minimisations  :     0
 total energy-change (2. order) :-0.3075886E-02  (-0.1437213E-02)
 number of electron    1050.9998642 magnetization 
 augmentation part      456.1523620 magnetization 

 Free energy of the ion-electron system (eV)
  ---------------------------------------------------
  alpha Z        PSCENC =      5496.83009512
  Ewald energy   TEWEN  =    -87997.94232019
  -Hartree energ DENC   =    -33523.60162329
  -exchange      EXHF   =      3869.44108557
  -V(xc)+E(xc)   XCENC  =      2888.22973759
  PAW double counting   =    120434.88695229  -135693.40408097
  entropy T*S    EENTRO =        -0.02819748
  eigenvalues    EBANDS =     -8779.24641844
  atomic energy  EATOM  =    132341.04863466
  ---------------------------------------------------
  free energy    TOTEN  =      -963.78610223 eV

  energy without entropy =     -963.75790475  energy(sigma->0) =     -963.77200349
  exchange ACFDT corr.  =        -1.16745452  see jH, gK, PRB 81, 115126


--------------------------------------------------------------------------------------------------------




--------------------------------------- Iteration      1(  45)  ---------------------------------------


    POTLOK:  cpu time      1.5024: real time      1.5021
    SETDIJ:  cpu time      0.5297: real time      0.5296
    TRIAL :  cpu time    235.4385: real time    235.3999
    CORREC:  cpu time    237.1891: real time    237.1508
    CHARGE:  cpu time      0.2178: real time      0.2178
    --------------------------------------------
      LOOP:  cpu time    474.8777: real time    474.8007

 eigenvalue-minimisations  :     0
 total energy-change (2. order) :-0.1437224E-02  (-0.5913150E-03)
 number of electron    1050.9998642 magnetization 
 augmentation part      456.1539846 magnetization 

 Free energy of the ion-electron system (eV)
  ---------------------------------------------------
  alpha Z        PSCENC =      5496.83009512
  Ewald energy   TEWEN  =    -87997.94232019
  -Hartree energ DENC   =    -33523.46525808
  -exchange      EXHF   =      3869.46500368
  -V(xc)+E(xc)   XCENC  =      2888.23497071
  PAW double counting   =    120433.74419241  -135691.82875752
  entropy T*S    EENTRO =        -0.02818895
  eigenvalues    EBANDS =     -8779.84590276
  atomic energy  EATOM  =    132341.04863466
  ---------------------------------------------------
  free energy    TOTEN  =      -963.78753946 eV

  energy without entropy =     -963.75935051  energy(sigma->0) =     -963.77344498
  exchange ACFDT corr.  =        -1.14555284  see jH, gK, PRB 81, 115126


--------------------------------------------------------------------------------------------------------




--------------------------------------- Iteration      1(  46)  ---------------------------------------


    POTLOK:  cpu time      1.4702: real time      1.4700
    SETDIJ:  cpu time      0.5291: real time      0.5290
    TRIAL :  cpu time    235.1467: real time    235.1079
    CORREC:  cpu time    237.5386: real time    237.5065
    CHARGE:  cpu time      0.2051: real time      0.2051
    --------------------------------------------
      LOOP:  cpu time    474.8909: real time    474.8202

 eigenvalue-minimisations  :     0
 total energy-change (2. order) :-0.5918084E-03  (-0.2820820E-03)
 number of electron    1050.9998642 magnetization 
 augmentation part      456.1541482 magnetization 

 Free energy of the ion-electron system (eV)
  ---------------------------------------------------
  alpha Z        PSCENC =      5496.83009512
  Ewald energy   TEWEN  =    -87997.94232019
  -Hartree energ DENC   =    -33523.40603235
  -exchange      EXHF   =      3869.46274111
  -V(xc)+E(xc)   XCENC  =      2888.23113543
  PAW double counting   =    120433.14373777  -135691.40764220
  entropy T*S    EENTRO =        -0.02818191
  eigenvalues    EBANDS =     -8779.72029165
  atomic energy  EATOM  =    132341.04863466
  ---------------------------------------------------
  free energy    TOTEN  =      -963.78813127 eV

  energy without entropy =     -963.75994935  energy(sigma->0) =     -963.77404031
  exchange ACFDT corr.  =        -1.13018178  see jH, gK, PRB 81, 115126


--------------------------------------------------------------------------------------------------------




--------------------------------------- Iteration      1(  47)  ---------------------------------------


    POTLOK:  cpu time      1.4418: real time      1.4415
    SETDIJ:  cpu time      0.5274: real time      0.5273
    TRIAL :  cpu time    235.3184: real time    235.2816
    CORREC:  cpu time    237.2911: real time    237.2537
    CHARGE:  cpu time      0.2133: real time      0.2133
    --------------------------------------------
      LOOP:  cpu time    474.7932: real time    474.7191

 eigenvalue-minimisations  :     0
 total energy-change (2. order) :-0.2825695E-03  (-0.1458720E-03)
 number of electron    1050.9998642 magnetization 
 augmentation part      456.1535948 magnetization 

 Free energy of the ion-electron system (eV)
  ---------------------------------------------------
  alpha Z        PSCENC =      5496.83009512
  Ewald energy   TEWEN  =    -87997.94232019
  -Hartree energ DENC   =    -33523.48388081
  -exchange      EXHF   =      3869.45637803
  -V(xc)+E(xc)   XCENC  =      2888.22941073
  PAW double counting   =    120432.07665048  -135690.55757478
  entropy T*S    EENTRO =        -0.02818228
  eigenvalues    EBANDS =     -8779.41762516
  atomic energy  EATOM  =    132341.04863466
  ---------------------------------------------------
  free energy    TOTEN  =      -963.78841384 eV

  energy without entropy =     -963.76023155  energy(sigma->0) =     -963.77432270
  exchange ACFDT corr.  =        -1.12322892  see jH, gK, PRB 81, 115126


--------------------------------------------------------------------------------------------------------




--------------------------------------- Iteration      1(  48)  ---------------------------------------


    POTLOK:  cpu time      1.4951: real time      1.4949
    SETDIJ:  cpu time      0.5280: real time      0.5279
    TRIAL :  cpu time    235.4642: real time    235.4272
    CORREC:  cpu time    237.2452: real time    237.2430
    CHARGE:  cpu time      0.2210: real time      0.2209
    --------------------------------------------
      LOOP:  cpu time    474.9539: real time    474.9201

 eigenvalue-minimisations  :     0
 total energy-change (2. order) :-0.1459784E-03  (-0.7526123E-04)
 number of electron    1050.9998642 magnetization 
 augmentation part      456.1524144 magnetization 

 Free energy of the ion-electron system (eV)
  ---------------------------------------------------
  alpha Z        PSCENC =      5496.83009512
  Ewald energy   TEWEN  =    -87997.94232019
  -Hartree energ DENC   =    -33523.46641162
  -exchange      EXHF   =      3869.45196901
  -V(xc)+E(xc)   XCENC  =      2888.22780716
  PAW double counting   =    120431.13514053  -135689.55896827
  entropy T*S    EENTRO =        -0.02818668
  eigenvalues    EBANDS =     -8779.48632393
  atomic energy  EATOM  =    132341.04863466
  ---------------------------------------------------
  free energy    TOTEN  =      -963.78855981 eV

  energy without entropy =     -963.76037313  energy(sigma->0) =     -963.77446647
  exchange ACFDT corr.  =        -1.11936110  see jH, gK, PRB 81, 115126


--------------------------------------------------------------------------------------------------------




--------------------------------------- Iteration      1(  49)  ---------------------------------------


    POTLOK:  cpu time      1.4624: real time      1.4621
    SETDIJ:  cpu time      0.5311: real time      0.5310
    TRIAL :  cpu time    235.1300: real time    235.0909
    CORREC:  cpu time    237.2764: real time    237.2361
    CHARGE:  cpu time      0.2174: real time      0.2174
    --------------------------------------------
      LOOP:  cpu time    474.6178: real time    474.5382

 eigenvalue-minimisations  :     0
 total energy-change (2. order) :-0.7523626E-04  (-0.4599997E-04)
 number of electron    1050.9998642 magnetization 
 augmentation part      456.1524591 magnetization 

 Free energy of the ion-electron system (eV)
  ---------------------------------------------------
  alpha Z        PSCENC =      5496.83009512
  Ewald energy   TEWEN  =    -87997.94232019
  -Hartree energ DENC   =    -33523.40863043
  -exchange      EXHF   =      3869.45440229
  -V(xc)+E(xc)   XCENC  =      2888.22765062
  PAW double counting   =    120430.42163053  -135688.69765138
  entropy T*S    EENTRO =        -0.02819092
  eigenvalues    EBANDS =     -8779.69425958
  atomic energy  EATOM  =    132341.04863466
  ---------------------------------------------------
  free energy    TOTEN  =      -963.78863505 eV

  energy without entropy =     -963.76044413  energy(sigma->0) =     -963.77453959
  exchange ACFDT corr.  =        -1.12120888  see jH, gK, PRB 81, 115126


--------------------------------------------------------------------------------------------------------




--------------------------------------- Iteration      1(  50)  ---------------------------------------


    POTLOK:  cpu time      1.5054: real time      1.5052
    SETDIJ:  cpu time      0.5280: real time      0.5279
    TRIAL :  cpu time    235.5200: real time    235.4847
    CORREC:  cpu time    237.2816: real time    237.2427
    CHARGE:  cpu time      0.2026: real time      0.2025
    --------------------------------------------
      LOOP:  cpu time    475.0410: real time    474.9670

 eigenvalue-minimisations  :     0
 total energy-change (2. order) :-0.4589959E-04  (-0.3001420E-04)
 number of electron    1050.9998642 magnetization 
 augmentation part      456.1533620 magnetization 

 Free energy of the ion-electron system (eV)
  ---------------------------------------------------
  alpha Z        PSCENC =      5496.83009512
  Ewald energy   TEWEN  =    -87997.94232019
  -Hartree energ DENC   =    -33523.47804678
  -exchange      EXHF   =      3869.45882803
  -V(xc)+E(xc)   XCENC  =      2888.23036995
  PAW double counting   =    120430.00298363  -135688.31751531
  entropy T*S    EENTRO =        -0.02819344
  eigenvalues    EBANDS =     -8779.59351914
  atomic energy  EATOM  =    132341.04863466
  ---------------------------------------------------
  free energy    TOTEN  =      -963.78868095 eV

  energy without entropy =     -963.76048751  energy(sigma->0) =     -963.77458423
  exchange ACFDT corr.  =        -1.12492432  see jH, gK, PRB 81, 115126


--------------------------------------------------------------------------------------------------------




--------------------------------------- Iteration      1(  51)  ---------------------------------------


    POTLOK:  cpu time      1.4707: real time      1.4704
    SETDIJ:  cpu time      0.5286: real time      0.5285
    TRIAL :  cpu time    235.1217: real time    235.0897
    CORREC:  cpu time    237.1815: real time    237.1408
    CHARGE:  cpu time      0.2057: real time      0.2057
    --------------------------------------------
      LOOP:  cpu time    474.5101: real time    474.4374

 eigenvalue-minimisations  :     0
 total energy-change (2. order) :-0.2989028E-04  (-0.2594165E-04)
 number of electron    1050.9998642 magnetization 
 augmentation part      456.1530435 magnetization 

 Free energy of the ion-electron system (eV)
  ---------------------------------------------------
  alpha Z        PSCENC =      5496.83009512
  Ewald energy   TEWEN  =    -87997.94232019
  -Hartree energ DENC   =    -33523.53818333
  -exchange      EXHF   =      3869.45802156
  -V(xc)+E(xc)   XCENC  =      2888.23129314
  PAW double counting   =    120429.93787810  -135688.35012172
  entropy T*S    EENTRO =        -0.02819486
  eigenvalues    EBANDS =     -8779.43581474
  atomic energy  EATOM  =    132341.04863466
  ---------------------------------------------------
  free energy    TOTEN  =      -963.78871084 eV

  energy without entropy =     -963.76051598  energy(sigma->0) =     -963.77461341
  exchange ACFDT corr.  =        -1.12709578  see jH, gK, PRB 81, 115126


--------------------------------------------------------------------------------------------------------




--------------------------------------- Iteration      1(  52)  ---------------------------------------


    POTLOK:  cpu time      1.4317: real time      1.4315
    SETDIJ:  cpu time      0.5308: real time      0.5308
    TRIAL :  cpu time    235.2772: real time    235.2384
    CORREC:  cpu time    237.4338: real time    237.3915
    CHARGE:  cpu time      0.2163: real time      0.2162
    --------------------------------------------
      LOOP:  cpu time    474.8915: real time    474.8108

 eigenvalue-minimisations  :     0
 total energy-change (2. order) :-0.2586192E-04  (-0.2387630E-04)
 number of electron    1050.9998642 magnetization 
 augmentation part      456.1521692 magnetization 

 Free energy of the ion-electron system (eV)
  ---------------------------------------------------
  alpha Z        PSCENC =      5496.83009512
  Ewald energy   TEWEN  =    -87997.94232019
  -Hartree energ DENC   =    -33523.49160870
  -exchange      EXHF   =      3869.45566087
  -V(xc)+E(xc)   XCENC  =      2888.22962217
  PAW double counting   =    120429.77875947  -135688.17873737
  entropy T*S    EENTRO =        -0.02819543
  eigenvalues    EBANDS =     -8779.49064786
  atomic energy  EATOM  =    132341.04863466
  ---------------------------------------------------
  free energy    TOTEN  =      -963.78873670 eV

  energy without entropy =     -963.76054127  energy(sigma->0) =     -963.77463899
  exchange ACFDT corr.  =        -1.12893396  see jH, gK, PRB 81, 115126


--------------------------------------------------------------------------------------------------------




--------------------------------------- Iteration      1(  53)  ---------------------------------------


    POTLOK:  cpu time      1.5640: real time      1.5637
    SETDIJ:  cpu time      0.5285: real time      0.5284
    TRIAL :  cpu time    235.2604: real time    235.2201
    CORREC:  cpu time    237.1915: real time    237.1586
    CHARGE:  cpu time      0.2235: real time      0.2235
    --------------------------------------------
      LOOP:  cpu time    474.7682: real time    474.7002

 eigenvalue-minimisations  :     0
 total energy-change (2. order) :-0.2386615E-04  (-0.2322038E-04)
 number of electron    1050.9998642 magnetization 
 augmentation part      456.1525129 magnetization 

 Free energy of the ion-electron system (eV)
  ---------------------------------------------------
  alpha Z        PSCENC =      5496.83009512
  Ewald energy   TEWEN  =    -87997.94232019
  -Hartree energ DENC   =    -33523.42836576
  -exchange      EXHF   =      3869.45517832
  -V(xc)+E(xc)   XCENC  =      2888.22838078
  PAW double counting   =    120429.59530368  -135687.91558459
  entropy T*S    EENTRO =        -0.02819515
  eigenvalues    EBANDS =     -8779.63188714
  atomic energy  EATOM  =    132341.04863466
  ---------------------------------------------------
  free energy    TOTEN  =      -963.78876057 eV

  energy without entropy =     -963.76056542  energy(sigma->0) =     -963.77466299
  exchange ACFDT corr.  =        -1.12990286  see jH, gK, PRB 81, 115126


--------------------------------------------------------------------------------------------------------




--------------------------------------- Iteration      1(  54)  ---------------------------------------


    POTLOK:  cpu time      1.5033: real time      1.5031
    SETDIJ:  cpu time      0.5275: real time      0.5274
    TRIAL :  cpu time    235.0832: real time    235.0476
    CORREC:  cpu time    237.3491: real time    237.3139
    CHARGE:  cpu time      0.2062: real time      0.2062
    --------------------------------------------
      LOOP:  cpu time    474.6724: real time    474.6017

 eigenvalue-minimisations  :     0
 total energy-change (2. order) :-0.2319651E-04  (-0.1557741E-04)
 number of electron    1050.9998642 magnetization 
 augmentation part      456.1529079 magnetization 

 Free energy of the ion-electron system (eV)
  ---------------------------------------------------
  alpha Z        PSCENC =      5496.83009512
  Ewald energy   TEWEN  =    -87997.94232019
  -Hartree energ DENC   =    -33523.46543075
  -exchange      EXHF   =      3869.45668055
  -V(xc)+E(xc)   XCENC  =      2888.22985986
  PAW double counting   =    120429.70041340  -135688.02528275
  entropy T*S    EENTRO =        -0.02819427
  eigenvalues    EBANDS =     -8779.59323850
  atomic energy  EATOM  =    132341.04863466
  ---------------------------------------------------
  free energy    TOTEN  =      -963.78878376 eV

  energy without entropy =     -963.76058949  energy(sigma->0) =     -963.77468663
  exchange ACFDT corr.  =        -1.12956099  see jH, gK, PRB 81, 115126


--------------------------------------------------------------------------------------------------------




--------------------------------------- Iteration      1(  55)  ---------------------------------------


    POTLOK:  cpu time      1.4965: real time      1.4967
    SETDIJ:  cpu time      0.5281: real time      0.5281
    TRIAL :  cpu time    235.2348: real time    235.2012
    CORREC:  cpu time    237.0695: real time    237.0363
    CHARGE:  cpu time      0.2103: real time      0.2103
    --------------------------------------------
      LOOP:  cpu time    474.5413: real time    474.4748

 eigenvalue-minimisations  :     0
 total energy-change (2. order) :-0.1555507E-04  (-0.9375632E-05)
 number of electron    1050.9998642 magnetization 
 augmentation part      456.1528125 magnetization 

 Free energy of the ion-electron system (eV)
  ---------------------------------------------------
  alpha Z        PSCENC =      5496.83009512
  Ewald energy   TEWEN  =    -87997.94232019
  -Hartree energ DENC   =    -33523.50880611
  -exchange      EXHF   =      3869.45757309
  -V(xc)+E(xc)   XCENC  =      2888.23091715
  PAW double counting   =    120429.86326517  -135688.23971732
  entropy T*S    EENTRO =        -0.02819337
  eigenvalues    EBANDS =     -8779.50024661
  atomic energy  EATOM  =    132341.04863466
  ---------------------------------------------------
  free energy    TOTEN  =      -963.78879932 eV

  energy without entropy =     -963.76060595  energy(sigma->0) =     -963.77470264
  exchange ACFDT corr.  =        -1.12860741  see jH, gK, PRB 81, 115126


--------------------------------------------------------------------------------------------------------




--------------------------------------- Iteration      1(  56)  ---------------------------------------


    POTLOK:  cpu time      1.4889: real time      1.4887
    SETDIJ:  cpu time      0.5289: real time      0.5288
    TRIAL :  cpu time    235.0007: real time    234.9695
    CORREC:  cpu time    237.3298: real time    237.3048
    EDDIAG:  cpu time    233.2627: real time    233.2291
    CHARGE:  cpu time      0.2540: real time      0.2539
    --------------------------------------------
      LOOP:  cpu time    708.8667: real time    708.7836

 eigenvalue-minimisations  :     0
 total energy-change (2. order) :-0.9376643E-05  (-0.5756925E-05)
 number of electron    1050.9998642 magnetization 
 augmentation part      456.1526778 magnetization 

 Free energy of the ion-electron system (eV)
  ---------------------------------------------------
  alpha Z        PSCENC =      5496.83009512
  Ewald energy   TEWEN  =    -87997.94232019
  -Hartree energ DENC   =    -33523.50531810
  -exchange      EXHF   =      3869.45525953
  -V(xc)+E(xc)   XCENC  =      2888.23047111
  PAW double counting   =    120429.97285355  -135688.32982578
  entropy T*S    EENTRO =        -0.02819281
  eigenvalues    EBANDS =     -8779.49356413
  atomic energy  EATOM  =    132341.04863466
  ---------------------------------------------------
  free energy    TOTEN  =      -963.78880870 eV

  energy without entropy =     -963.76061589  energy(sigma->0) =     -963.77471229
  exchange ACFDT corr.  =        -1.12767377  see jH, gK, PRB 81, 115126


--------------------------------------------------------------------------------------------------------


  average scaling for gradient   0.3961


 the core state eigenenergies are
   1-  1s -10216.5264  2s  -1249.7951  2p  -1086.2481  3s   -136.9403  3p    -87.7280
     
   2-  1s -10216.5011  2s  -1249.7700  2p  -1086.2229  3s   -136.9178  3p    -87.7056
     
   3-  1s -10216.5265  2s  -1249.7953  2p  -1086.2482  3s   -136.9404  3p    -87.7281
     
   4-  1s -10216.5011  2s  -1249.7700  2p  -1086.2229  3s   -136.9178  3p    -87.7056
     
   5-  1s -10216.5201  2s  -1249.7881  2p  -1086.2411  3s   -136.9338  3p    -87.7215
     
   6-  1s -10216.5325  2s  -1249.7997  2p  -1086.2528  3s   -136.9434  3p    -87.7310
     
   7-  1s -10216.5033  2s  -1249.7707  2p  -1086.2238  3s   -136.9153  3p    -87.7029
     
   8-  1s -10216.4913  2s  -1249.7592  2p  -1086.2124  3s   -136.9000  3p    -87.6875
     
   9-  1s -10216.5063  2s  -1249.7738  2p  -1086.2268  3s   -136.9188  3p    -87.7065
     
  10-  1s -10216.4908  2s  -1249.7587  2p  -1086.2118  3s   -136.8995  3p    -87.6870
     
  11-  1s -10216.5063  2s  -1249.7737  2p  -1086.2268  3s   -136.9188  3p    -87.7065
     
  12-  1s -10216.5574  2s  -1249.9263  2p  -1086.3693  3s   -137.0295  3p    -87.8157
     
  13-  1s -10216.5451  2s  -1249.9166  2p  -1086.3592  3s   -137.0229  3p    -87.8093
     
  14-  1s -10216.5398  2s  -1249.9113  2p  -1086.3539  3s   -137.0172  3p    -87.8036
     
  15-  1s -10216.5530  2s  -1249.9236  2p  -1086.3664  3s   -137.0287  3p    -87.8151
     
  16-  1s -10216.5398  2s  -1249.9112  2p  -1086.3539  3s   -137.0172  3p    -87.8036
     
  17-  1s -10216.5529  2s  -1249.9236  2p  -1086.3663  3s   -137.0287  3p    -87.8151
     
  18-  1s -10216.5526  2s  -1249.9229  2p  -1086.3658  3s   -137.0257  3p    -87.8120
     
  19-  1s -10216.5381  2s  -1249.9052  2p  -1086.3486  3s   -137.0016  3p    -87.7875
     
  20-  1s -10216.5524  2s  -1249.9227  2p  -1086.3656  3s   -137.0256  3p    -87.8118
     
  21-  1s -10216.5381  2s  -1249.9053  2p  -1086.3486  3s   -137.0016  3p    -87.7875
     
  22-  1s -10216.5233  2s  -1249.8948  2p  -1086.3374  3s   -137.0012  3p    -87.7877
     
  23-  1s -10216.5171  2s  -1249.8885  2p  -1086.3312  3s   -136.9945  3p    -87.7810
     
  24-  1s -10216.4957  2s  -1249.7645  2p  -1086.2174  3s   -136.9118  3p    -87.6997
     
  25-  1s -10216.5010  2s  -1249.7692  2p  -1086.2222  3s   -136.9145  3p    -87.7023
     
  26-  1s -10216.5234  2s  -1249.7902  2p  -1086.2434  3s   -136.9335  3p    -87.7211
     
  27-  1s -10216.5282  2s  -1249.7943  2p  -1086.2476  3s   -136.9363  3p    -87.7238
     
  28-  1s -10216.5233  2s  -1249.7902  2p  -1086.2434  3s   -136.9335  3p    -87.7211
     
  29-  1s -10216.5282  2s  -1249.7943  2p  -1086.2476  3s   -136.9362  3p    -87.7238
     
  30-  1s -10216.5254  2s  -1249.7917  2p  -1086.2450  3s   -136.9345  3p    -87.7221
     
  31-  1s -10216.5198  2s  -1249.7873  2p  -1086.2404  3s   -136.9325  3p    -87.7202
     
  32-  1s -10216.5254  2s  -1249.7917  2p  -1086.2450  3s   -136.9345  3p    -87.7221
     
  33-  1s -10216.5198  2s  -1249.7873  2p  -1086.2404  3s   -136.9325  3p    -87.7202
     
  34-  1s -10216.5197  2s  -1249.7874  2p  -1086.2405  3s   -136.9327  3p    -87.7204
     
  35-  1s -10216.5338  2s  -1249.8001  2p  -1086.2533  3s   -136.9430  3p    -87.7306
     
  36-  1s -10216.5343  2s  -1249.9055  2p  -1086.3482  3s   -137.0080  3p    -87.7942
     
  37-  1s -10216.5245  2s  -1249.8958  2p  -1086.3385  3s   -137.0027  3p    -87.7892
     
  38-  1s -10216.5345  2s  -1249.9058  2p  -1086.3485  3s   -137.0083  3p    -87.7945
     
  39-  1s -10216.5245  2s  -1249.8958  2p  -1086.3385  3s   -137.0027  3p    -87.7892
     
  40-  1s -10216.5261  2s  -1249.8980  2p  -1086.3405  3s   -137.0056  3p    -87.7921
     
  41-  1s -10216.5267  2s  -1249.8988  2p  -1086.3413  3s   -137.0060  3p    -87.7925
     
  42-  1s -10216.5535  2s  -1249.9247  2p  -1086.3674  3s   -137.0307  3p    -87.8171
     
  43-  1s -10216.5348  2s  -1249.9067  2p  -1086.3493  3s   -137.0138  3p    -87.8002
     
  44-  1s -10216.5600  2s  -1249.9302  2p  -1086.3730  3s   -137.0345  3p    -87.8208
     
  45-  1s -10216.5390  2s  -1249.9107  2p  -1086.3533  3s   -137.0173  3p    -87.8037
     
  46-  1s -10216.5599  2s  -1249.9301  2p  -1086.3730  3s   -137.0345  3p    -87.8208
     
  47-  1s -10216.5390  2s  -1249.9107  2p  -1086.3533  3s   -137.0172  3p    -87.8037
     
  48-  1s   -500.5138
  49-  1s   -500.4608
  50-  1s   -500.5138
  51-  1s   -500.5040
  52-  1s   -500.5137
  53-  1s   -500.5041
  54-  1s   -500.5091
  55-  1s   -500.5228
  56-  1s   -500.5090
  57-  1s   -500.5228
  58-  1s   -500.5242
  59-  1s   -500.5221
  60-  1s   -500.8702
  61-  1s   -500.6864
  62-  1s   -500.6979
  63-  1s   -500.6985
  64-  1s   -500.6982
  65-  1s   -500.6985
  66-  1s   -500.7702
  67-  1s   -500.6650
  68-  1s   -500.7706
  69-  1s   -500.6651
  70-  1s   -500.6768
  71-  1s   -500.6835
  72-  1s   -500.3176
  73-  1s   -500.2515
  74-  1s   -500.3194
  75-  1s   -500.2515
  76-  1s   -500.2565
  77-  1s   -500.2434
  78-  1s   -500.2851
  79-  1s   -500.2615
  80-  1s   -500.2858
  81-  1s   -500.2746
  82-  1s   -500.2858
  83-  1s   -500.2743
  84-  1s   -500.5393
  85-  1s   -500.5172
  86-  1s   -500.5392
  87-  1s   -500.5172
  88-  1s   -500.5283
  89-  1s   -500.5237
  90-  1s   -500.6438
  91-  1s   -500.4928
  92-  1s   -500.5042
  93-  1s   -500.5040
  94-  1s   -500.5036
  95-  1s   -500.5040
  96-  1s   -500.6808
  97-  1s   -500.6893
  98-  1s   -500.6809
  99-  1s   -500.6894
 100-  1s   -500.7020
 101-  1s   -500.6939
 102-  1s   -500.7024
 103-  1s   -500.6980
 104-  1s   -500.7022
 105-  1s   -500.6964
 106-  1s   -500.7021
 107-  1s   -500.6964
 108-  1s   -500.2538
 109-  1s   -500.2701
 110-  1s   -500.2608
 111-  1s   -500.2689
 112-  1s   -500.2607
 113-  1s   -500.2689
 114-  1s   -500.2524
 115-  1s   -500.2549
 116-  1s   -500.2522
 117-  1s   -500.2549
 118-  1s   -500.2592
 119-  1s   -500.2636
 120-  1s  -6988.4479  2s   -809.5442  2p   -688.2897  3s    -82.8567  3p    -48.8554
     
 
 E-fermi :   4.2403     XC(G=0):  -8.8528     alpha+bet :-12.4961

 Fermi energy:         4.2402574520

 k-point     1 :       0.0000    0.0000    0.0000
  band No.  band energies     occupation 
      1     -18.6803      2.00000
      2     -18.4027      2.00000
      3     -18.3335      2.00000
      4     -18.2695      2.00000
      5     -18.1473      2.00000
      6     -17.9928      2.00000
      7     -17.9874      2.00000
      8     -17.9268      2.00000
      9     -17.8524      2.00000
     10     -17.8139      2.00000
     11     -17.8107      2.00000
     12     -17.7303      2.00000
     13     -17.7218      2.00000
     14     -17.7154      2.00000
     15     -17.7097      2.00000
     16     -17.6922      2.00000
     17     -17.6921      2.00000
     18     -17.6692      2.00000
     19     -17.5499      2.00000
     20     -17.5489      2.00000
     21     -17.5418      2.00000
     22     -17.5324      2.00000
     23     -17.5227      2.00000
     24     -17.5197      2.00000
     25     -17.5192      2.00000
     26     -17.4933      2.00000
     27     -17.3958      2.00000
     28     -17.3941      2.00000
     29     -17.3806      2.00000
     30     -17.3642      2.00000
     31     -17.3635      2.00000
     32     -17.3400      2.00000
     33     -17.3392      2.00000
     34     -17.3356      2.00000
     35     -17.3049      2.00000
     36     -17.2987      2.00000
     37     -17.2846      2.00000
     38     -17.2685      2.00000
     39     -17.2532      2.00000
     40     -17.1891      2.00000
     41     -17.1867      2.00000
     42     -17.1830      2.00000
     43     -17.1735      2.00000
     44     -17.1680      2.00000
     45     -17.1564      2.00000
     46     -17.1551      2.00000
     47     -17.1409      2.00000
     48     -17.1352      2.00000
     49     -17.0766      2.00000
     50     -17.0441      2.00000
     51     -17.0366      2.00000
     52     -17.0258      2.00000
     53     -17.0129      2.00000
     54     -17.0040      2.00000
     55     -16.9496      2.00000
     56     -16.9424      2.00000
     57     -16.9381      2.00000
     58     -16.9367      2.00000
     59     -16.9203      2.00000
     60     -16.9175      2.00000
     61     -16.9120      2.00000
     62     -16.9081      2.00000
     63     -16.9080      2.00000
     64     -16.9056      2.00000
     65     -16.9024      2.00000
     66     -16.8980      2.00000
     67     -16.8818      2.00000
     68     -16.8794      2.00000
     69     -16.8307      2.00000
     70     -16.8041      2.00000
     71     -16.6751      2.00000
     72     -16.6565      2.00000
     73     -13.0808      2.00000
     74     -13.0677      2.00000
     75     -13.0521      2.00000
     76     -13.0457      2.00000
     77     -13.0397      2.00000
     78     -13.0322      2.00000
     79     -13.0307      2.00000
     80     -13.0256      2.00000
     81     -13.0254      2.00000
     82     -13.0213      2.00000
     83     -13.0154      2.00000
     84     -13.0116      2.00000
     85     -13.0062      2.00000
     86     -12.9906      2.00000
     87     -12.9805      2.00000
     88     -12.9803      2.00000
     89     -12.9728      2.00000
     90     -12.9700      2.00000
     91     -12.9678      2.00000
     92     -12.9632      2.00000
     93     -12.9615      2.00000
     94     -12.9600      2.00000
     95     -12.9581      2.00000
     96     -12.9541      2.00000
     97     -12.9532      2.00000
     98     -12.9513      2.00000
     99     -12.9506      2.00000
    100     -12.9505      2.00000
    101     -12.9484      2.00000
    102     -12.9461      2.00000
    103     -12.9427      2.00000
    104     -12.9414      2.00000
    105     -12.9396      2.00000
    106     -12.9352      2.00000
    107     -12.9318      2.00000
    108     -12.9317      2.00000
    109     -12.9306      2.00000
    110     -12.9249      2.00000
    111     -12.9245      2.00000
    112     -12.9233      2.00000
    113     -12.9232      2.00000
    114     -12.9215      2.00000
    115     -12.9210      2.00000
    116     -12.9177      2.00000
    117     -12.9169      2.00000
    118     -12.9154      2.00000
    119     -12.9129      2.00000
    120     -12.9121      2.00000
    121     -12.9103      2.00000
    122     -12.9070      2.00000
    123     -12.9061      2.00000
    124     -12.9052      2.00000
    125     -12.9039      2.00000
    126     -12.8942      2.00000
    127     -12.8927      2.00000
    128     -12.8920      2.00000
    129     -12.8910      2.00000
    130     -12.8875      2.00000
    131     -12.8701      2.00000
    132     -12.8670      2.00000
    133     -12.8634      2.00000
    134     -12.8597      2.00000
    135     -12.8468      2.00000
    136     -12.8439      2.00000
    137     -12.8316      2.00000
    138     -12.8293      2.00000
    139     -12.8237      2.00000
    140     -12.8213      2.00000
    141     -12.8167      2.00000
    142     -12.8145      2.00000
    143     -12.8144      2.00000
    144     -12.8117      2.00000
    145     -12.8115      2.00000
    146     -12.8110      2.00000
    147     -12.8097      2.00000
    148     -12.8045      2.00000
    149     -12.8008      2.00000
    150     -12.7993      2.00000
    151     -12.7982      2.00000
    152     -12.7968      2.00000
    153     -12.7932      2.00000
    154     -12.7930      2.00000
    155     -12.7914      2.00000
    156     -12.7911      2.00000
    157     -12.7907      2.00000
    158     -12.7872      2.00000
    159     -12.7844      2.00000
    160     -12.7835      2.00000
    161     -12.7809      2.00000
    162     -12.7805      2.00000
    163     -12.7793      2.00000
    164     -12.7786      2.00000
    165     -12.7776      2.00000
    166     -12.7771      2.00000
    167     -12.7746      2.00000
    168     -12.7726      2.00000
    169     -12.7702      2.00000
    170     -12.7698      2.00000
    171     -12.7663      2.00000
    172     -12.7659      2.00000
    173     -12.7645      2.00000
    174     -12.7624      2.00000
    175     -12.7597      2.00000
    176     -12.7584      2.00000
    177     -12.7556      2.00000
    178     -12.7547      2.00000
    179     -12.7526      2.00000
    180     -12.7521      2.00000
    181     -12.7485      2.00000
    182     -12.7468      2.00000
    183     -12.7421      2.00000
    184     -12.7413      2.00000
    185     -12.7283      2.00000
    186     -12.7275      2.00000
    187     -12.7238      2.00000
    188     -12.7209      2.00000
    189     -12.7151      2.00000
    190     -12.7136      2.00000
    191     -12.7117      2.00000
    192     -12.7056      2.00000
    193     -12.7037      2.00000
    194     -12.7028      2.00000
    195     -12.6989      2.00000
    196     -12.6872      2.00000
    197     -12.6849      2.00000
    198     -12.6800      2.00000
    199     -12.6789      2.00000
    200     -12.6751      2.00000
    201     -12.6735      2.00000
    202     -12.6725      2.00000
    203     -12.6722      2.00000
    204     -12.6692      2.00000
    205     -12.6660      2.00000
    206     -12.6626      2.00000
    207     -12.6598      2.00000
    208     -12.6598      2.00000
    209     -12.6583      2.00000
    210     -12.6573      2.00000
    211     -12.6554      2.00000
    212     -12.6538      2.00000
    213     -12.6525      2.00000
    214     -12.6503      2.00000
    215     -12.6454      2.00000
    216     -12.6397      2.00000
    217     -12.6371      2.00000
    218     -12.6342      2.00000
    219     -12.6325      2.00000
    220     -12.6321      2.00000
    221     -12.6280      2.00000
    222     -12.6273      2.00000
    223     -12.6248      2.00000
    224     -12.6243      2.00000
    225     -12.6222      2.00000
    226     -12.6181      2.00000
    227     -12.6173      2.00000
    228     -12.6144      2.00000
    229     -12.6112      2.00000
    230     -12.6093      2.00000
    231     -12.6080      2.00000
    232     -12.6070      2.00000
    233     -12.6067      2.00000
    234     -12.6051      2.00000
    235     -12.6045      2.00000
    236     -12.6007      2.00000
    237     -12.5987      2.00000
    238     -12.5975      2.00000
    239     -12.5973      2.00000
    240     -12.5955      2.00000
    241     -12.5912      2.00000
    242     -12.5886      2.00000
    243     -12.5870      2.00000
    244     -12.5787      2.00000
    245     -12.5728      2.00000
    246     -12.5673      2.00000
    247     -12.5627      2.00000
    248     -12.5619      2.00000
    249     -12.5575      2.00000
    250     -12.5560      2.00000
    251     -12.5536      2.00000
    252     -12.5534      2.00000
    253     -12.5490      2.00000
    254     -12.5484      2.00000
    255     -12.5476      2.00000
    256     -12.5451      2.00000
    257     -12.5414      2.00000
    258     -12.5406      2.00000
    259     -12.5273      2.00000
    260     -12.5225      2.00000
    261     -12.5088      2.00000
    262     -12.4843      2.00000
    263     -12.4779      2.00000
    264     -12.4734      2.00000
    265     -12.4582      2.00000
    266     -12.4316      2.00000
    267     -12.4172      2.00000
    268     -12.4030      2.00000
    269     -12.3964      2.00000
    270     -12.3717      2.00000
    271     -12.3412      2.00000
    272     -12.3310      2.00000
    273     -12.3157      2.00000
    274     -12.2845      2.00000
    275     -12.2682      2.00000
    276     -12.2483      2.00000
    277     -12.2310      2.00000
    278     -12.2275      2.00000
    279     -12.2220      2.00000
    280     -12.2155      2.00000
    281     -12.1939      2.00000
    282     -12.1692      2.00000
    283     -12.1678      2.00000
    284     -12.1330      2.00000
    285     -12.1277      2.00000
    286     -12.0958      2.00000
    287     -12.0058      2.00000
    288     -11.9714      2.00000
    289     -11.9710      2.00000
    290     -11.9628      2.00000
    291     -11.9415      2.00000
    292     -11.9280      2.00000
    293     -11.9211      2.00000
    294     -11.9150      2.00000
    295     -11.9094      2.00000
    296     -11.9093      2.00000
    297     -11.8982      2.00000
    298     -11.8778      2.00000
    299     -11.8530      2.00000
    300     -11.8396      2.00000
    301     -11.8370      2.00000
    302     -11.8169      2.00000
    303     -11.8161      2.00000
    304     -11.7653      2.00000
    305     -11.7460      2.00000
    306     -11.7333      2.00000
    307     -11.6118      2.00000
    308      -5.1826      2.00000
    309      -5.1376      2.00000
    310      -4.8740      2.00000
    311      -4.8474      2.00000
    312      -4.5411      2.00000
    313      -4.5243      2.00000
    314      -4.4441      2.00000
    315      -4.4423      2.00000
    316      -4.3989      2.00000
    317      -4.3976      2.00000
    318      -4.3563      2.00000
    319      -4.2629      2.00000
    320      -4.2537      2.00000
    321      -4.2352      2.00000
    322      -4.2198      2.00000
    323      -4.2131      2.00000
    324      -4.1887      2.00000
    325      -4.1391      2.00000
    326      -4.0594      2.00000
    327      -4.0124      2.00000
    328      -3.9057      2.00000
    329      -3.8404      2.00000
    330      -3.7621      2.00000
    331      -3.7553      2.00000
    332      -3.7446      2.00000
    333      -3.7436      2.00000
    334      -3.6411      2.00000
    335      -3.6049      2.00000
    336      -3.5976      2.00000
    337      -3.5380      2.00000
    338      -3.5325      2.00000
    339      -3.5177      2.00000
    340      -3.5160      2.00000
    341      -3.3394      2.00000
    342      -3.2205      2.00000
    343      -3.2098      2.00000
    344      -3.2060      2.00000
    345      -3.1899      2.00000
    346      -3.1618      2.00000
    347      -3.1600      2.00000
    348      -3.1522      2.00000
    349      -2.9896      2.00000
    350      -2.9385      2.00000
    351      -2.8244      2.00000
    352      -2.7255      2.00000
    353      -2.6862      2.00000
    354      -2.5998      2.00000
    355      -2.5573      2.00000
    356      -2.5238      2.00000
    357      -2.5202      2.00000
    358      -2.4854      2.00000
    359      -2.4030      2.00000
    360      -2.3889      2.00000
    361      -2.3533      2.00000
    362      -2.3197      2.00000
    363      -2.3128      2.00000
    364      -2.2865      2.00000
    365      -2.2666      2.00000
    366      -2.2338      2.00000
    367      -2.1227      2.00000
    368      -2.0639      2.00000
    369      -1.9705      2.00000
    370      -1.9631      2.00000
    371      -1.9493      2.00000
    372      -1.9130      2.00000
    373      -1.8630      2.00000
    374      -1.8091      2.00000
    375      -1.7539      2.00000
    376      -1.7075      2.00000
    377      -1.7035      2.00000
    378      -1.6682      2.00000
    379      -1.6471      2.00000
    380      -1.6335      2.00000
    381      -1.6167      2.00000
    382      -1.6134      2.00000
    383      -1.5470      2.00000
    384      -1.5143      2.00000
    385      -1.4753      2.00000
    386      -1.4146      2.00000
    387      -1.3631      2.00000
    388      -1.2789      2.00000
    389      -1.2535      2.00000
    390      -1.2283      2.00000
    391      -1.1582      2.00000
    392      -1.1509      2.00000
    393      -1.0910      2.00000
    394      -1.0697      2.00000
    395      -1.0526      2.00000
    396      -0.9858      2.00000
    397      -0.9679      2.00000
    398      -0.9177      2.00000
    399      -0.9153      2.00000
    400      -0.8948      2.00000
    401      -0.8669      2.00000
    402      -0.7807      2.00000
    403      -0.7091      2.00000
    404      -0.7058      2.00000
    405      -0.6435      2.00000
    406      -0.6245      2.00000
    407      -0.6169      2.00000
    408      -0.6115      2.00000
    409      -0.5945      2.00000
    410      -0.5632      2.00000
    411      -0.5598      2.00000
    412      -0.4898      2.00000
    413      -0.4776      2.00000
    414      -0.4588      2.00000
    415      -0.4244      2.00000
    416      -0.4030      2.00000
    417      -0.3637      2.00000
    418      -0.3157      2.00000
    419      -0.2997      2.00000
    420      -0.2784      2.00000
    421      -0.2653      2.00000
    422      -0.2572      2.00000
    423      -0.2478      2.00000
    424      -0.2466      2.00000
    425      -0.2314      2.00000
    426      -0.1724      2.00000
    427      -0.1703      2.00000
    428      -0.1344      2.00000
    429      -0.1063      2.00000
    430      -0.0997      2.00000
    431      -0.0850      2.00000
    432      -0.0622      2.00000
    433      -0.0458      2.00000
    434      -0.0210      2.00000
    435       0.0061      2.00000
    436       0.0168      2.00000
    437       0.0474      2.00000
    438       0.0552      2.00000
    439       0.0974      2.00000
    440       0.1110      2.00000
    441       0.1865      2.00000
    442       0.1988      2.00000
    443       0.2380      2.00000
    444       0.3053      2.00000
    445       0.3461      2.00000
    446       0.3834      2.00000
    447       0.4517      2.00000
    448       0.4640      2.00000
    449       0.4918      2.00000
    450       0.5216      2.00000
    451       0.5536      2.00000
    452       0.5788      2.00000
    453       0.5992      2.00000
    454       0.6063      2.00000
    455       0.6263      2.00000
    456       0.6680      2.00000
    457       0.6768      2.00000
    458       0.6908      2.00000
    459       0.6943      2.00000
    460       0.7445      2.00000
    461       0.7753      2.00000
    462       0.7854      2.00000
    463       0.7900      2.00000
    464       0.7949      2.00000
    465       0.8482      2.00000
    466       0.8590      2.00000
    467       0.8668      2.00000
    468       0.8710      2.00000
    469       0.8913      2.00000
    470       0.8990      2.00000
    471       0.9120      2.00000
    472       0.9182      2.00000
    473       0.9342      2.00000
    474       0.9606      2.00000
    475       0.9898      2.00000
    476       1.0071      2.00000
    477       1.0380      2.00000
    478       1.1313      2.00000
    479       1.1529      2.00000
    480       1.1537      2.00000
    481       1.1822      2.00000
    482       1.1975      2.00000
    483       1.2192      2.00000
    484       1.2398      2.00000
    485       1.2475      2.00000
    486       1.2530      2.00000
    487       1.2888      2.00000
    488       1.3177      2.00000
    489       1.3261      2.00000
    490       1.3318      2.00000
    491       1.3347      2.00000
    492       1.3478      2.00000
    493       1.3704      2.00000
    494       1.4160      2.00000
    495       1.4375      2.00000
    496       1.4512      2.00000
    497       1.4765      2.00000
    498       1.4842      2.00000
    499       1.4926      2.00000
    500       1.5003      2.00000
    501       1.5139      2.00000
    502       1.5229      2.00000
    503       1.5302      2.00000
    504       1.5342      2.00000
    505       1.5581      2.00000
    506       1.5659      2.00000
    507       1.5675      2.00000
    508       1.5894      2.00000
    509       1.6373      2.00000
    510       1.6742      2.00000
    511       1.6908      2.00000
    512       1.6952      2.00000
    513       1.7046      2.00000
    514       1.7099      2.00000
    515       1.7258      2.00000
    516       1.8014      2.00000
    517       1.8435      2.00000
    518       1.8749      2.00000
    519       1.8851      2.00000
    520       1.9313      2.00000
    521       1.9341      2.00000
    522       2.0318      2.00000
    523       2.0683      2.00000
    524       2.1421      2.00000
    525       2.2339      2.00000
    526       4.2416      0.97307
    527       6.7452      0.00000
    528       8.0627      0.00000
    529       8.4992      0.00000
    530       8.9793      0.00000
    531       9.2116      0.00000
    532       9.3060      0.00000
    533       9.3178      0.00000
    534       9.6807      0.00000
    535       9.7864      0.00000
    536      10.2342      0.00000
    537      10.2396      0.00000
    538      10.2714      0.00000
    539      10.2971      0.00000
    540      10.3833      0.00000
    541      10.4001      0.00000
    542      10.5535      0.00000
    543      10.5610      0.00000
    544      10.7544      0.00000
    545      10.7547      0.00000
    546      10.8190      0.00000
    547      10.8305      0.00000
    548      10.8436      0.00000
    549      10.8535      0.00000
    550      10.9027      0.00000
    551      10.9581      0.00000
    552      11.0379      0.00000
    553      11.1414      0.00000
    554      11.1877      0.00000
    555      11.2284      0.00000
    556      11.3338      0.00000
    557      11.3534      0.00000
    558      11.4108      0.00000
    559      11.4482      0.00000
    560      11.4930      0.00000
    561      11.5345      0.00000
    562      11.6325      0.00000
    563      11.7139      0.00000
    564      11.7869      0.00000
    565      11.9221      0.00000
    566      12.0327      0.00000
    567      12.0481      0.00000
    568      12.0916      0.00000
    569      12.1307      0.00000
    570      12.2093      0.00000
    571      12.2780      0.00000
    572      12.2989      0.00000
    573      12.3364      0.00000
    574      12.3573      0.00000
    575      12.3767      0.00000
    576      12.3950      0.00000
    577      12.5566      0.00000
    578      12.8135      0.00000
    579      12.9849      0.00000
    580      13.0992      0.00000
    581      13.1036      0.00000
    582      13.1241      0.00000
    583      13.2870      0.00000
    584      13.2904      0.00000
    585      13.3479      0.00000
    586      13.4332      0.00000
    587      13.4775      0.00000
    588      13.5622      0.00000
    589      13.5857      0.00000
    590      13.6793      0.00000
    591      13.6925      0.00000
    592      13.7133      0.00000
    593      13.7438      0.00000
    594      13.8939      0.00000
    595      13.9000      0.00000
    596      13.9382      0.00000
    597      14.0094      0.00000
    598      14.0533      0.00000
    599      14.1148      0.00000
    600      14.1697      0.00000
    601      14.2178      0.00000
    602      14.2745      0.00000
    603      14.3543      0.00000
    604      14.4431      0.00000
    605      14.4632      0.00000
    606      14.5258      0.00000
    607      14.6273      0.00000
    608      14.6955      0.00000
    609      14.7559      0.00000
    610      14.7604      0.00000
    611      14.9018      0.00000
    612      14.9662      0.00000
    613      15.0455      0.00000
    614      15.0819      0.00000
    615      15.1385      0.00000
    616      15.1915      0.00000
    617      15.2671      0.00000
    618      15.4160      0.00000
    619      15.4784      0.00000
    620      15.5881      0.00000
    621      15.7684      0.00000
    622      15.8793      0.00000
    623      15.9687      0.00000
    624      16.0897      0.00000
    625      16.2564      0.00000
    626      16.3671      0.00000
    627      16.4240      0.00000
    628      16.6678      0.00000
    629      16.7373      0.00000
    630      16.8527      0.00000

 k-point     2 :       0.5000    0.0000    0.0000
  band No.  band energies     occupation 
      1     -18.5771      2.00000
      2     -18.5570      2.00000
      3     -18.3539      2.00000
      4     -18.3394      2.00000
      5     -17.9244      2.00000
      6     -17.9179      2.00000
      7     -17.9098      2.00000
      8     -17.9024      2.00000
      9     -17.8708      2.00000
     10     -17.8604      2.00000
     11     -17.8273      2.00000
     12     -17.8133      2.00000
     13     -17.7772      2.00000
     14     -17.7697      2.00000
     15     -17.7619      2.00000
     16     -17.7556      2.00000
     17     -17.6380      2.00000
     18     -17.6347      2.00000
     19     -17.5344      2.00000
     20     -17.5282      2.00000
     21     -17.5261      2.00000
     22     -17.5180      2.00000
     23     -17.5119      2.00000
     24     -17.5090      2.00000
     25     -17.4943      2.00000
     26     -17.4898      2.00000
     27     -17.4787      2.00000
     28     -17.4624      2.00000
     29     -17.3676      2.00000
     30     -17.3649      2.00000
     31     -17.3603      2.00000
     32     -17.3537      2.00000
     33     -17.3217      2.00000
     34     -17.3175      2.00000
     35     -17.3025      2.00000
     36     -17.2888      2.00000
     37     -17.2820      2.00000
     38     -17.2620      2.00000
     39     -17.2405      2.00000
     40     -17.2106      2.00000
     41     -17.1719      2.00000
     42     -17.1711      2.00000
     43     -17.1631      2.00000
     44     -17.1616      2.00000
     45     -17.1558      2.00000
     46     -17.1499      2.00000
     47     -17.1367      2.00000
     48     -17.1334      2.00000
     49     -17.0674      2.00000
     50     -17.0534      2.00000
     51     -17.0377      2.00000
     52     -17.0323      2.00000
     53     -17.0245      2.00000
     54     -17.0125      2.00000
     55     -16.9501      2.00000
     56     -16.9416      2.00000
     57     -16.9401      2.00000
     58     -16.9339      2.00000
     59     -16.9200      2.00000
     60     -16.9134      2.00000
     61     -16.9124      2.00000
     62     -16.9111      2.00000
     63     -16.9092      2.00000
     64     -16.9066      2.00000
     65     -16.9006      2.00000
     66     -16.8999      2.00000
     67     -16.8833      2.00000
     68     -16.8789      2.00000
     69     -16.8253      2.00000
     70     -16.8069      2.00000
     71     -16.6755      2.00000
     72     -16.6566      2.00000
     73     -13.0824      2.00000
     74     -13.0621      2.00000
     75     -13.0450      2.00000
     76     -13.0397      2.00000
     77     -13.0376      2.00000
     78     -13.0316      2.00000
     79     -13.0310      2.00000
     80     -13.0264      2.00000
     81     -13.0258      2.00000
     82     -13.0219      2.00000
     83     -13.0174      2.00000
     84     -13.0157      2.00000
     85     -13.0063      2.00000
     86     -12.9926      2.00000
     87     -12.9811      2.00000
     88     -12.9795      2.00000
     89     -12.9748      2.00000
     90     -12.9747      2.00000
     91     -12.9662      2.00000
     92     -12.9659      2.00000
     93     -12.9643      2.00000
     94     -12.9621      2.00000
     95     -12.9597      2.00000
     96     -12.9568      2.00000
     97     -12.9532      2.00000
     98     -12.9529      2.00000
     99     -12.9497      2.00000
    100     -12.9489      2.00000
    101     -12.9473      2.00000
    102     -12.9464      2.00000
    103     -12.9431      2.00000
    104     -12.9421      2.00000
    105     -12.9405      2.00000
    106     -12.9375      2.00000
    107     -12.9268      2.00000
    108     -12.9254      2.00000
    109     -12.9244      2.00000
    110     -12.9217      2.00000
    111     -12.9216      2.00000
    112     -12.9209      2.00000
    113     -12.9208      2.00000
    114     -12.9190      2.00000
    115     -12.9184      2.00000
    116     -12.9172      2.00000
    117     -12.9162      2.00000
    118     -12.9145      2.00000
    119     -12.9122      2.00000
    120     -12.9110      2.00000
    121     -12.9105      2.00000
    122     -12.9052      2.00000
    123     -12.9051      2.00000
    124     -12.8951      2.00000
    125     -12.8942      2.00000
    126     -12.8926      2.00000
    127     -12.8925      2.00000
    128     -12.8910      2.00000
    129     -12.8899      2.00000
    130     -12.8886      2.00000
    131     -12.8841      2.00000
    132     -12.8781      2.00000
    133     -12.8628      2.00000
    134     -12.8611      2.00000
    135     -12.8460      2.00000
    136     -12.8408      2.00000
    137     -12.8276      2.00000
    138     -12.8235      2.00000
    139     -12.8216      2.00000
    140     -12.8165      2.00000
    141     -12.8162      2.00000
    142     -12.8154      2.00000
    143     -12.8140      2.00000
    144     -12.8136      2.00000
    145     -12.8134      2.00000
    146     -12.8086      2.00000
    147     -12.8083      2.00000
    148     -12.8081      2.00000
    149     -12.8037      2.00000
    150     -12.8032      2.00000
    151     -12.7992      2.00000
    152     -12.7979      2.00000
    153     -12.7953      2.00000
    154     -12.7950      2.00000
    155     -12.7948      2.00000
    156     -12.7893      2.00000
    157     -12.7883      2.00000
    158     -12.7857      2.00000
    159     -12.7850      2.00000
    160     -12.7850      2.00000
    161     -12.7840      2.00000
    162     -12.7822      2.00000
    163     -12.7807      2.00000
    164     -12.7794      2.00000
    165     -12.7774      2.00000
    166     -12.7767      2.00000
    167     -12.7745      2.00000
    168     -12.7732      2.00000
    169     -12.7692      2.00000
    170     -12.7674      2.00000
    171     -12.7632      2.00000
    172     -12.7632      2.00000
    173     -12.7617      2.00000
    174     -12.7587      2.00000
    175     -12.7575      2.00000
    176     -12.7561      2.00000
    177     -12.7505      2.00000
    178     -12.7503      2.00000
    179     -12.7436      2.00000
    180     -12.7403      2.00000
    181     -12.7368      2.00000
    182     -12.7361      2.00000
    183     -12.7336      2.00000
    184     -12.7290      2.00000
    185     -12.7289      2.00000
    186     -12.7247      2.00000
    187     -12.7246      2.00000
    188     -12.7235      2.00000
    189     -12.7235      2.00000
    190     -12.7201      2.00000
    191     -12.7179      2.00000
    192     -12.7134      2.00000
    193     -12.7083      2.00000
    194     -12.7056      2.00000
    195     -12.7040      2.00000
    196     -12.7015      2.00000
    197     -12.6869      2.00000
    198     -12.6850      2.00000
    199     -12.6816      2.00000
    200     -12.6769      2.00000
    201     -12.6752      2.00000
    202     -12.6740      2.00000
    203     -12.6723      2.00000
    204     -12.6707      2.00000
    205     -12.6703      2.00000
    206     -12.6618      2.00000
    207     -12.6611      2.00000
    208     -12.6577      2.00000
    209     -12.6569      2.00000
    210     -12.6554      2.00000
    211     -12.6544      2.00000
    212     -12.6464      2.00000
    213     -12.6431      2.00000
    214     -12.6414      2.00000
    215     -12.6404      2.00000
    216     -12.6397      2.00000
    217     -12.6382      2.00000
    218     -12.6360      2.00000
    219     -12.6334      2.00000
    220     -12.6305      2.00000
    221     -12.6303      2.00000
    222     -12.6291      2.00000
    223     -12.6287      2.00000
    224     -12.6247      2.00000
    225     -12.6236      2.00000
    226     -12.6205      2.00000
    227     -12.6167      2.00000
    228     -12.6163      2.00000
    229     -12.6158      2.00000
    230     -12.6127      2.00000
    231     -12.6124      2.00000
    232     -12.6109      2.00000
    233     -12.6078      2.00000
    234     -12.6057      2.00000
    235     -12.6055      2.00000
    236     -12.6037      2.00000
    237     -12.6013      2.00000
    238     -12.5989      2.00000
    239     -12.5965      2.00000
    240     -12.5950      2.00000
    241     -12.5948      2.00000
    242     -12.5905      2.00000
    243     -12.5874      2.00000
    244     -12.5738      2.00000
    245     -12.5695      2.00000
    246     -12.5685      2.00000
    247     -12.5669      2.00000
    248     -12.5642      2.00000
    249     -12.5577      2.00000
    250     -12.5568      2.00000
    251     -12.5541      2.00000
    252     -12.5536      2.00000
    253     -12.5502      2.00000
    254     -12.5461      2.00000
    255     -12.5392      2.00000
    256     -12.5357      2.00000
    257     -12.5290      2.00000
    258     -12.5270      2.00000
    259     -12.5268      2.00000
    260     -12.5207      2.00000
    261     -12.5198      2.00000
    262     -12.5125      2.00000
    263     -12.5090      2.00000
    264     -12.4772      2.00000
    265     -12.4622      2.00000
    266     -12.4385      2.00000
    267     -12.4384      2.00000
    268     -12.4369      2.00000
    269     -12.4294      2.00000
    270     -12.4245      2.00000
    271     -12.4208      2.00000
    272     -12.4009      2.00000
    273     -12.3980      2.00000
    274     -12.2761      2.00000
    275     -12.2672      2.00000
    276     -12.2006      2.00000
    277     -12.1955      2.00000
    278     -12.1753      2.00000
    279     -12.1739      2.00000
    280     -12.1633      2.00000
    281     -12.1585      2.00000
    282     -12.1367      2.00000
    283     -12.1111      2.00000
    284     -12.0950      2.00000
    285     -12.0730      2.00000
    286     -12.0281      2.00000
    287     -12.0253      2.00000
    288     -12.0177      2.00000
    289     -11.9717      2.00000
    290     -11.9478      2.00000
    291     -11.9473      2.00000
    292     -11.9347      2.00000
    293     -11.9301      2.00000
    294     -11.9280      2.00000
    295     -11.9230      2.00000
    296     -11.8636      2.00000
    297     -11.8636      2.00000
    298     -11.8242      2.00000
    299     -11.8233      2.00000
    300     -11.8137      2.00000
    301     -11.8099      2.00000
    302     -11.8037      2.00000
    303     -11.7987      2.00000
    304     -11.7957      2.00000
    305     -11.7884      2.00000
    306     -11.7877      2.00000
    307     -11.7812      2.00000
    308      -5.1723      2.00000
    309      -5.1282      2.00000
    310      -4.7227      2.00000
    311      -4.7200      2.00000
    312      -4.7100      2.00000
    313      -4.6785      2.00000
    314      -4.3412      2.00000
    315      -4.3324      2.00000
    316      -4.3182      2.00000
    317      -4.3037      2.00000
    318      -4.2703      2.00000
    319      -4.2529      2.00000
    320      -4.2487      2.00000
    321      -4.2320      2.00000
    322      -4.1994      2.00000
    323      -4.1869      2.00000
    324      -4.1489      2.00000
    325      -4.1401      2.00000
    326      -4.1331      2.00000
    327      -4.1171      2.00000
    328      -4.1117      2.00000
    329      -4.0725      2.00000
    330      -4.0452      2.00000
    331      -4.0394      2.00000
    332      -4.0304      2.00000
    333      -3.7982      2.00000
    334      -3.6429      2.00000
    335      -3.5872      2.00000
    336      -3.4486      2.00000
    337      -3.4188      2.00000
    338      -3.4069      2.00000
    339      -3.3137      2.00000
    340      -3.2135      2.00000
    341      -3.2084      2.00000
    342      -3.1970      2.00000
    343      -3.1790      2.00000
    344      -3.1487      2.00000
    345      -3.1240      2.00000
    346      -3.1028      2.00000
    347      -3.0990      2.00000
    348      -3.0747      2.00000
    349      -3.0609      2.00000
    350      -3.0483      2.00000
    351      -2.9212      2.00000
    352      -2.7181      2.00000
    353      -2.6775      2.00000
    354      -2.6651      2.00000
    355      -2.6447      2.00000
    356      -2.5766      2.00000
    357      -2.5739      2.00000
    358      -2.5574      2.00000
    359      -2.5117      2.00000
    360      -2.4930      2.00000
    361      -2.3067      2.00000
    362      -2.2888      2.00000
    363      -2.2396      2.00000
    364      -2.2087      2.00000
    365      -2.1822      2.00000
    366      -2.1481      2.00000
    367      -2.1080      2.00000
    368      -2.0703      2.00000
    369      -1.9939      2.00000
    370      -1.9750      2.00000
    371      -1.9248      2.00000
    372      -1.8377      2.00000
    373      -1.8107      2.00000
    374      -1.7943      2.00000
    375      -1.7619      2.00000
    376      -1.7024      2.00000
    377      -1.6607      2.00000
    378      -1.6576      2.00000
    379      -1.6271      2.00000
    380      -1.5698      2.00000
    381      -1.4686      2.00000
    382      -1.4496      2.00000
    383      -1.4427      2.00000
    384      -1.4311      2.00000
    385      -1.4095      2.00000
    386      -1.4053      2.00000
    387      -1.3856      2.00000
    388      -1.3053      2.00000
    389      -1.2588      2.00000
    390      -1.2213      2.00000
    391      -1.2052      2.00000
    392      -1.1311      2.00000
    393      -1.0877      2.00000
    394      -1.0720      2.00000
    395      -1.0703      2.00000
    396      -1.0392      2.00000
    397      -0.9625      2.00000
    398      -0.9578      2.00000
    399      -0.9409      2.00000
    400      -0.9056      2.00000
    401      -0.8998      2.00000
    402      -0.8789      2.00000
    403      -0.8419      2.00000
    404      -0.8282      2.00000
    405      -0.7819      2.00000
    406      -0.7465      2.00000
    407      -0.7273      2.00000
    408      -0.7042      2.00000
    409      -0.6948      2.00000
    410      -0.6926      2.00000
    411      -0.6502      2.00000
    412      -0.6276      2.00000
    413      -0.5785      2.00000
    414      -0.5515      2.00000
    415      -0.5504      2.00000
    416      -0.5211      2.00000
    417      -0.4813      2.00000
    418      -0.3830      2.00000
    419      -0.3713      2.00000
    420      -0.2789      2.00000
    421      -0.2353      2.00000
    422      -0.2134      2.00000
    423      -0.2025      2.00000
    424      -0.1967      2.00000
    425      -0.1823      2.00000
    426      -0.1771      2.00000
    427      -0.1637      2.00000
    428      -0.1255      2.00000
    429      -0.0624      2.00000
    430      -0.0199      2.00000
    431      -0.0025      2.00000
    432       0.0014      2.00000
    433       0.0434      2.00000
    434       0.0541      2.00000
    435       0.0870      2.00000
    436       0.0936      2.00000
    437       0.1051      2.00000
    438       0.1162      2.00000
    439       0.1279      2.00000
    440       0.1358      2.00000
    441       0.1672      2.00000
    442       0.1726      2.00000
    443       0.2027      2.00000
    444       0.2599      2.00000
    445       0.2718      2.00000
    446       0.2852      2.00000
    447       0.4662      2.00000
    448       0.5016      2.00000
    449       0.5474      2.00000
    450       0.5799      2.00000
    451       0.5969      2.00000
    452       0.6069      2.00000
    453       0.6296      2.00000
    454       0.6402      2.00000
    455       0.6488      2.00000
    456       0.6908      2.00000
    457       0.7139      2.00000
    458       0.7262      2.00000
    459       0.7390      2.00000
    460       0.7714      2.00000
    461       0.7888      2.00000
    462       0.8135      2.00000
    463       0.8313      2.00000
    464       0.8368      2.00000
    465       0.8678      2.00000
    466       0.8900      2.00000
    467       0.9146      2.00000
    468       0.9417      2.00000
    469       0.9861      2.00000
    470       0.9973      2.00000
    471       1.0256      2.00000
    472       1.0494      2.00000
    473       1.0685      2.00000
    474       1.0743      2.00000
    475       1.1149      2.00000
    476       1.1234      2.00000
    477       1.1420      2.00000
    478       1.1555      2.00000
    479       1.1789      2.00000
    480       1.1904      2.00000
    481       1.1944      2.00000
    482       1.2089      2.00000
    483       1.2179      2.00000
    484       1.2266      2.00000
    485       1.2321      2.00000
    486       1.2600      2.00000
    487       1.2850      2.00000
    488       1.2975      2.00000
    489       1.2982      2.00000
    490       1.3237      2.00000
    491       1.3325      2.00000
    492       1.3452      2.00000
    493       1.3496      2.00000
    494       1.3507      2.00000
    495       1.3566      2.00000
    496       1.3690      2.00000
    497       1.3730      2.00000
    498       1.4299      2.00000
    499       1.4380      2.00000
    500       1.4596      2.00000
    501       1.4686      2.00000
    502       1.4709      2.00000
    503       1.4802      2.00000
    504       1.4935      2.00000
    505       1.4997      2.00000
    506       1.5053      2.00000
    507       1.5088      2.00000
    508       1.5243      2.00000
    509       1.5283      2.00000
    510       1.6198      2.00000
    511       1.6541      2.00000
    512       1.6617      2.00000
    513       1.6668      2.00000
    514       1.6758      2.00000
    515       1.6811      2.00000
    516       1.8448      2.00000
    517       1.9065      2.00000
    518       1.9068      2.00000
    519       1.9131      2.00000
    520       1.9327      2.00000
    521       1.9471      2.00000
    522       1.9580      2.00000
    523       1.9847      2.00000
    524       2.1283      2.00000
    525       2.2306      2.00000
    526       4.2415      0.97547
    527       7.5089      0.00000
    528       7.5755      0.00000
    529       8.1326      0.00000
    530       8.4992      0.00000
    531       9.2395      0.00000
    532       9.2948      0.00000
    533       9.7313      0.00000
    534       9.7400      0.00000
    535      10.0273      0.00000
    536      10.1193      0.00000
    537      10.2581      0.00000
    538      10.2627      0.00000
    539      10.2917      0.00000
    540      10.3018      0.00000
    541      10.5996      0.00000
    542      10.6005      0.00000
    543      10.6369      0.00000
    544      10.6757      0.00000
    545      10.7416      0.00000
    546      10.7658      0.00000
    547      10.8520      0.00000
    548      10.8628      0.00000
    549      10.8654      0.00000
    550      10.9123      0.00000
    551      10.9127      0.00000
    552      11.0123      0.00000
    553      11.2209      0.00000
    554      11.2389      0.00000
    555      11.2500      0.00000
    556      11.2744      0.00000
    557      11.2847      0.00000
    558      11.3463      0.00000
    559      11.3803      0.00000
    560      11.3872      0.00000
    561      11.4309      0.00000
    562      11.5101      0.00000
    563      11.5537      0.00000
    564      11.8519      0.00000
    565      12.0617      0.00000
    566      12.0695      0.00000
    567      12.2716      0.00000
    568      12.2755      0.00000
    569      12.3806      0.00000
    570      12.4456      0.00000
    571      12.4601      0.00000
    572      12.4721      0.00000
    573      12.4805      0.00000
    574      12.4844      0.00000
    575      12.5075      0.00000
    576      12.5087      0.00000
    577      12.5159      0.00000
    578      12.7138      0.00000
    579      12.7942      0.00000
    580      12.8063      0.00000
    581      12.8067      0.00000
    582      13.0117      0.00000
    583      13.0976      0.00000
    584      13.3339      0.00000
    585      13.3632      0.00000
    586      13.3682      0.00000
    587      13.3751      0.00000
    588      13.5356      0.00000
    589      13.5609      0.00000
    590      13.5819      0.00000
    591      13.6104      0.00000
    592      13.6823      0.00000
    593      13.7306      0.00000
    594      13.7578      0.00000
    595      13.7673      0.00000
    596      13.8422      0.00000
    597      13.8520      0.00000
    598      13.8534      0.00000
    599      13.9255      0.00000
    600      13.9371      0.00000
    601      14.0845      0.00000
    602      14.0924      0.00000
    603      14.1115      0.00000
    604      14.1139      0.00000
    605      14.1518      0.00000
    606      14.2644      0.00000
    607      14.3395      0.00000
    608      14.4251      0.00000
    609      14.4706      0.00000
    610      14.5872      0.00000
    611      14.6957      0.00000
    612      14.8183      0.00000
    613      14.9739      0.00000
    614      15.0350      0.00000
    615      15.1871      0.00000
    616      15.2283      0.00000
    617      15.3002      0.00000
    618      15.5809      0.00000
    619      15.6043      0.00000
    620      15.6611      0.00000
    621      15.6861      0.00000
    622      15.7999      0.00000
    623      15.8354      0.00000
    624      16.1430      0.00000
    625      16.1732      0.00000
    626      16.3277      0.00000
    627      16.5160      0.00000
    628      16.6149      0.00000
    629      16.7385      0.00000
    630      16.9901      0.00000

 k-point     3 :       0.0000    0.5000    0.0000
  band No.  band energies     occupation 
      1     -18.4847      2.00000
      2     -18.4714      2.00000
      3     -18.2329      2.00000
      4     -18.2198      2.00000
      5     -18.1587      2.00000
      6     -18.1462      2.00000
      7     -18.1052      2.00000
      8     -18.0856      2.00000
      9     -18.0104      2.00000
     10     -17.9975      2.00000
     11     -17.8079      2.00000
     12     -17.7950      2.00000
     13     -17.7466      2.00000
     14     -17.7398      2.00000
     15     -17.5965      2.00000
     16     -17.5915      2.00000
     17     -17.5875      2.00000
     18     -17.5703      2.00000
     19     -17.4796      2.00000
     20     -17.4754      2.00000
     21     -17.4753      2.00000
     22     -17.4729      2.00000
     23     -17.4679      2.00000
     24     -17.4588      2.00000
     25     -17.4525      2.00000
     26     -17.4466      2.00000
     27     -17.4395      2.00000
     28     -17.4394      2.00000
     29     -17.4358      2.00000
     30     -17.3978      2.00000
     31     -17.3666      2.00000
     32     -17.3657      2.00000
     33     -17.3153      2.00000
     34     -17.3003      2.00000
     35     -17.2859      2.00000
     36     -17.2853      2.00000
     37     -17.2618      2.00000
     38     -17.2497      2.00000
     39     -17.2430      2.00000
     40     -17.2395      2.00000
     41     -17.2362      2.00000
     42     -17.2214      2.00000
     43     -17.2001      2.00000
     44     -17.1846      2.00000
     45     -17.1811      2.00000
     46     -17.1791      2.00000
     47     -17.1565      2.00000
     48     -17.1352      2.00000
     49     -17.1063      2.00000
     50     -17.0826      2.00000
     51     -17.0403      2.00000
     52     -17.0334      2.00000
     53     -16.9726      2.00000
     54     -16.9561      2.00000
     55     -16.9466      2.00000
     56     -16.9466      2.00000
     57     -16.9348      2.00000
     58     -16.9249      2.00000
     59     -16.9221      2.00000
     60     -16.9209      2.00000
     61     -16.9199      2.00000
     62     -16.9182      2.00000
     63     -16.9163      2.00000
     64     -16.8996      2.00000
     65     -16.8949      2.00000
     66     -16.8897      2.00000
     67     -16.8611      2.00000
     68     -16.8560      2.00000
     69     -16.8363      2.00000
     70     -16.8300      2.00000
     71     -16.6872      2.00000
     72     -16.6447      2.00000
     73     -13.0636      2.00000
     74     -13.0635      2.00000
     75     -13.0390      2.00000
     76     -13.0376      2.00000
     77     -13.0327      2.00000
     78     -13.0284      2.00000
     79     -13.0249      2.00000
     80     -13.0244      2.00000
     81     -13.0136      2.00000
     82     -13.0090      2.00000
     83     -13.0090      2.00000
     84     -13.0071      2.00000
     85     -13.0037      2.00000
     86     -13.0029      2.00000
     87     -12.9981      2.00000
     88     -12.9978      2.00000
     89     -12.9820      2.00000
     90     -12.9814      2.00000
     91     -12.9780      2.00000
     92     -12.9767      2.00000
     93     -12.9757      2.00000
     94     -12.9752      2.00000
     95     -12.9708      2.00000
     96     -12.9675      2.00000
     97     -12.9645      2.00000
     98     -12.9619      2.00000
     99     -12.9531      2.00000
    100     -12.9514      2.00000
    101     -12.9499      2.00000
    102     -12.9462      2.00000
    103     -12.9445      2.00000
    104     -12.9435      2.00000
    105     -12.9420      2.00000
    106     -12.9372      2.00000
    107     -12.9358      2.00000
    108     -12.9349      2.00000
    109     -12.9342      2.00000
    110     -12.9335      2.00000
    111     -12.9318      2.00000
    112     -12.9315      2.00000
    113     -12.9299      2.00000
    114     -12.9291      2.00000
    115     -12.9288      2.00000
    116     -12.9236      2.00000
    117     -12.9156      2.00000
    118     -12.9127      2.00000
    119     -12.9111      2.00000
    120     -12.9037      2.00000
    121     -12.9035      2.00000
    122     -12.8975      2.00000
    123     -12.8957      2.00000
    124     -12.8926      2.00000
    125     -12.8921      2.00000
    126     -12.8920      2.00000
    127     -12.8898      2.00000
    128     -12.8882      2.00000
    129     -12.8797      2.00000
    130     -12.8792      2.00000
    131     -12.8762      2.00000
    132     -12.8709      2.00000
    133     -12.8685      2.00000
    134     -12.8513      2.00000
    135     -12.8481      2.00000
    136     -12.8447      2.00000
    137     -12.8420      2.00000
    138     -12.8323      2.00000
    139     -12.8316      2.00000
    140     -12.8294      2.00000
    141     -12.8270      2.00000
    142     -12.8263      2.00000
    143     -12.8254      2.00000
    144     -12.8246      2.00000
    145     -12.8226      2.00000
    146     -12.8205      2.00000
    147     -12.8203      2.00000
    148     -12.8185      2.00000
    149     -12.8159      2.00000
    150     -12.8115      2.00000
    151     -12.8114      2.00000
    152     -12.8105      2.00000
    153     -12.8077      2.00000
    154     -12.8075      2.00000
    155     -12.8056      2.00000
    156     -12.8038      2.00000
    157     -12.8025      2.00000
    158     -12.7902      2.00000
    159     -12.7881      2.00000
    160     -12.7849      2.00000
    161     -12.7846      2.00000
    162     -12.7801      2.00000
    163     -12.7778      2.00000
    164     -12.7771      2.00000
    165     -12.7708      2.00000
    166     -12.7678      2.00000
    167     -12.7619      2.00000
    168     -12.7583      2.00000
    169     -12.7572      2.00000
    170     -12.7554      2.00000
    171     -12.7550      2.00000
    172     -12.7536      2.00000
    173     -12.7518      2.00000
    174     -12.7502      2.00000
    175     -12.7482      2.00000
    176     -12.7478      2.00000
    177     -12.7466      2.00000
    178     -12.7443      2.00000
    179     -12.7436      2.00000
    180     -12.7403      2.00000
    181     -12.7372      2.00000
    182     -12.7361      2.00000
    183     -12.7334      2.00000
    184     -12.7322      2.00000
    185     -12.7315      2.00000
    186     -12.7303      2.00000
    187     -12.7297      2.00000
    188     -12.7285      2.00000
    189     -12.7271      2.00000
    190     -12.7263      2.00000
    191     -12.7230      2.00000
    192     -12.7229      2.00000
    193     -12.7207      2.00000
    194     -12.7201      2.00000
    195     -12.7200      2.00000
    196     -12.7186      2.00000
    197     -12.7168      2.00000
    198     -12.7141      2.00000
    199     -12.7093      2.00000
    200     -12.7033      2.00000
    201     -12.7029      2.00000
    202     -12.6939      2.00000
    203     -12.6852      2.00000
    204     -12.6730      2.00000
    205     -12.6619      2.00000
    206     -12.6555      2.00000
    207     -12.6544      2.00000
    208     -12.6535      2.00000
    209     -12.6532      2.00000
    210     -12.6490      2.00000
    211     -12.6479      2.00000
    212     -12.6456      2.00000
    213     -12.6449      2.00000
    214     -12.6396      2.00000
    215     -12.6385      2.00000
    216     -12.6373      2.00000
    217     -12.6345      2.00000
    218     -12.6296      2.00000
    219     -12.6253      2.00000
    220     -12.6243      2.00000
    221     -12.6219      2.00000
    222     -12.6218      2.00000
    223     -12.6192      2.00000
    224     -12.6162      2.00000
    225     -12.6106      2.00000
    226     -12.6100      2.00000
    227     -12.6062      2.00000
    228     -12.6057      2.00000
    229     -12.6040      2.00000
    230     -12.6038      2.00000
    231     -12.6029      2.00000
    232     -12.5980      2.00000
    233     -12.5954      2.00000
    234     -12.5947      2.00000
    235     -12.5943      2.00000
    236     -12.5920      2.00000
    237     -12.5909      2.00000
    238     -12.5899      2.00000
    239     -12.5846      2.00000
    240     -12.5827      2.00000
    241     -12.5749      2.00000
    242     -12.5708      2.00000
    243     -12.5696      2.00000
    244     -12.5683      2.00000
    245     -12.5680      2.00000
    246     -12.5674      2.00000
    247     -12.5662      2.00000
    248     -12.5619      2.00000
    249     -12.5612      2.00000
    250     -12.5607      2.00000
    251     -12.5558      2.00000
    252     -12.5526      2.00000
    253     -12.5515      2.00000
    254     -12.5470      2.00000
    255     -12.5393      2.00000
    256     -12.5376      2.00000
    257     -12.5357      2.00000
    258     -12.5340      2.00000
    259     -12.5308      2.00000
    260     -12.4647      2.00000
    261     -12.4538      2.00000
    262     -12.4128      2.00000
    263     -12.4091      2.00000
    264     -12.4078      2.00000
    265     -12.3997      2.00000
    266     -12.3917      2.00000
    267     -12.3866      2.00000
    268     -12.3758      2.00000
    269     -12.3741      2.00000
    270     -12.3631      2.00000
    271     -12.3555      2.00000
    272     -12.3374      2.00000
    273     -12.3246      2.00000
    274     -12.3153      2.00000
    275     -12.3069      2.00000
    276     -12.2839      2.00000
    277     -12.2776      2.00000
    278     -12.2289      2.00000
    279     -12.2152      2.00000
    280     -12.2020      2.00000
    281     -12.1987      2.00000
    282     -12.1885      2.00000
    283     -12.1745      2.00000
    284     -12.1376      2.00000
    285     -12.1317      2.00000
    286     -12.1186      2.00000
    287     -12.1109      2.00000
    288     -12.0861      2.00000
    289     -12.0842      2.00000
    290     -12.0320      2.00000
    291     -12.0294      2.00000
    292     -11.9873      2.00000
    293     -11.9595      2.00000
    294     -11.9116      2.00000
    295     -11.9103      2.00000
    296     -11.8906      2.00000
    297     -11.8825      2.00000
    298     -11.8554      2.00000
    299     -11.8395      2.00000
    300     -11.7966      2.00000
    301     -11.7756      2.00000
    302     -11.7570      2.00000
    303     -11.7264      2.00000
    304     -11.7010      2.00000
    305     -11.6974      2.00000
    306     -11.6814      2.00000
    307     -11.6695      2.00000
    308      -5.0164      2.00000
    309      -5.0047      2.00000
    310      -4.9507      2.00000
    311      -4.9413      2.00000
    312      -4.8438      2.00000
    313      -4.7977      2.00000
    314      -4.7839      2.00000
    315      -4.7400      2.00000
    316      -4.5174      2.00000
    317      -4.5138      2.00000
    318      -4.4980      2.00000
    319      -4.4641      2.00000
    320      -4.2747      2.00000
    321      -4.2504      2.00000
    322      -4.2248      2.00000
    323      -4.2063      2.00000
    324      -4.1324      2.00000
    325      -4.1147      2.00000
    326      -4.0376      2.00000
    327      -4.0204      2.00000
    328      -3.9696      2.00000
    329      -3.9663      2.00000
    330      -3.9590      2.00000
    331      -3.9144      2.00000
    332      -3.8900      2.00000
    333      -3.7912      2.00000
    334      -3.5905      2.00000
    335      -3.5741      2.00000
    336      -3.5712      2.00000
    337      -3.5699      2.00000
    338      -3.5279      2.00000
    339      -3.5130      2.00000
    340      -3.4697      2.00000
    341      -3.3586      2.00000
    342      -3.2710      2.00000
    343      -3.1205      2.00000
    344      -2.9952      2.00000
    345      -2.9947      2.00000
    346      -2.9387      2.00000
    347      -2.8960      2.00000
    348      -2.8755      2.00000
    349      -2.8454      2.00000
    350      -2.8164      2.00000
    351      -2.7884      2.00000
    352      -2.7659      2.00000
    353      -2.6745      2.00000
    354      -2.6569      2.00000
    355      -2.5224      2.00000
    356      -2.5004      2.00000
    357      -2.4721      2.00000
    358      -2.2670      2.00000
    359      -2.2268      2.00000
    360      -2.1883      2.00000
    361      -2.1652      2.00000
    362      -2.0841      2.00000
    363      -2.0118      2.00000
    364      -1.9491      2.00000
    365      -1.9392      2.00000
    366      -1.9053      2.00000
    367      -1.8781      2.00000
    368      -1.8502      2.00000
    369      -1.8251      2.00000
    370      -1.8191      2.00000
    371      -1.7900      2.00000
    372      -1.7748      2.00000
    373      -1.7532      2.00000
    374      -1.7504      2.00000
    375      -1.7333      2.00000
    376      -1.6927      2.00000
    377      -1.6775      2.00000
    378      -1.6152      2.00000
    379      -1.5886      2.00000
    380      -1.5545      2.00000
    381      -1.4902      2.00000
    382      -1.4707      2.00000
    383      -1.4384      2.00000
    384      -1.4301      2.00000
    385      -1.4222      2.00000
    386      -1.3873      2.00000
    387      -1.3747      2.00000
    388      -1.3613      2.00000
    389      -1.3286      2.00000
    390      -1.2750      2.00000
    391      -1.2704      2.00000
    392      -1.1776      2.00000
    393      -1.1469      2.00000
    394      -1.0705      2.00000
    395      -1.0452      2.00000
    396      -0.9827      2.00000
    397      -0.9492      2.00000
    398      -0.9194      2.00000
    399      -0.8984      2.00000
    400      -0.8966      2.00000
    401      -0.8741      2.00000
    402      -0.8583      2.00000
    403      -0.8277      2.00000
    404      -0.7886      2.00000
    405      -0.7805      2.00000
    406      -0.7653      2.00000
    407      -0.7576      2.00000
    408      -0.7197      2.00000
    409      -0.7161      2.00000
    410      -0.6924      2.00000
    411      -0.6893      2.00000
    412      -0.6365      2.00000
    413      -0.6172      2.00000
    414      -0.5187      2.00000
    415      -0.5035      2.00000
    416      -0.4805      2.00000
    417      -0.4525      2.00000
    418      -0.4426      2.00000
    419      -0.3297      2.00000
    420      -0.3118      2.00000
    421      -0.2917      2.00000
    422      -0.2828      2.00000
    423      -0.2782      2.00000
    424      -0.2668      2.00000
    425      -0.2472      2.00000
    426      -0.1891      2.00000
    427      -0.1647      2.00000
    428      -0.1388      2.00000
    429      -0.1175      2.00000
    430      -0.0925      2.00000
    431      -0.0786      2.00000
    432      -0.0560      2.00000
    433      -0.0354      2.00000
    434      -0.0195      2.00000
    435       0.0167      2.00000
    436       0.0240      2.00000
    437       0.1108      2.00000
    438       0.1315      2.00000
    439       0.1423      2.00000
    440       0.1499      2.00000
    441       0.1892      2.00000
    442       0.2021      2.00000
    443       0.2516      2.00000
    444       0.2752      2.00000
    445       0.3297      2.00000
    446       0.3584      2.00000
    447       0.3696      2.00000
    448       0.4076      2.00000
    449       0.4227      2.00000
    450       0.4458      2.00000
    451       0.4736      2.00000
    452       0.5055      2.00000
    453       0.5063      2.00000
    454       0.5223      2.00000
    455       0.5322      2.00000
    456       0.5529      2.00000
    457       0.5647      2.00000
    458       0.6073      2.00000
    459       0.6098      2.00000
    460       0.6564      2.00000
    461       0.6862      2.00000
    462       0.7334      2.00000
    463       0.7807      2.00000
    464       0.7860      2.00000
    465       0.8139      2.00000
    466       0.8735      2.00000
    467       0.8773      2.00000
    468       0.9243      2.00000
    469       0.9472      2.00000
    470       0.9547      2.00000
    471       0.9600      2.00000
    472       0.9731      2.00000
    473       0.9909      2.00000
    474       1.0343      2.00000
    475       1.0351      2.00000
    476       1.0731      2.00000
    477       1.1006      2.00000
    478       1.1433      2.00000
    479       1.1446      2.00000
    480       1.1513      2.00000
    481       1.1604      2.00000
    482       1.1644      2.00000
    483       1.1738      2.00000
    484       1.1871      2.00000
    485       1.1895      2.00000
    486       1.2124      2.00000
    487       1.2382      2.00000
    488       1.2508      2.00000
    489       1.2611      2.00000
    490       1.2997      2.00000
    491       1.3136      2.00000
    492       1.3449      2.00000
    493       1.3541      2.00000
    494       1.3700      2.00000
    495       1.3908      2.00000
    496       1.3937      2.00000
    497       1.4057      2.00000
    498       1.4233      2.00000
    499       1.4287      2.00000
    500       1.4381      2.00000
    501       1.4458      2.00000
    502       1.4561      2.00000
    503       1.4692      2.00000
    504       1.4836      2.00000
    505       1.5242      2.00000
    506       1.5318      2.00000
    507       1.5466      2.00000
    508       1.5479      2.00000
    509       1.5529      2.00000
    510       1.5691      2.00000
    511       1.5931      2.00000
    512       1.6112      2.00000
    513       1.6258      2.00000
    514       1.6891      2.00000
    515       1.7141      2.00000
    516       1.8032      2.00000
    517       1.8111      2.00000
    518       1.8608      2.00000
    519       1.8765      2.00000
    520       2.0140      2.00000
    521       2.0261      2.00000
    522       2.0452      2.00000
    523       2.0558      2.00000
    524       2.1345      2.00000
    525       2.2123      2.00000
    526       4.2420      0.96578
    527       7.9861      0.00000
    528       7.9977      0.00000
    529       8.1727      0.00000
    530       8.3739      0.00000
    531       9.4675      0.00000
    532       9.4982      0.00000
    533       9.6659      0.00000
    534       9.7531      0.00000
    535       9.8268      0.00000
    536       9.8759      0.00000
    537       9.9899      0.00000
    538       9.9952      0.00000
    539      10.2556      0.00000
    540      10.3444      0.00000
    541      10.4098      0.00000
    542      10.4341      0.00000
    543      10.4729      0.00000
    544      10.5317      0.00000
    545      10.7382      0.00000
    546      10.7751      0.00000
    547      11.2191      0.00000
    548      11.2523      0.00000
    549      11.3117      0.00000
    550      11.3565      0.00000
    551      11.4306      0.00000
    552      11.4561      0.00000
    553      11.4897      0.00000
    554      11.5217      0.00000
    555      11.5424      0.00000
    556      11.5503      0.00000
    557      11.5617      0.00000
    558      11.5627      0.00000
    559      11.5918      0.00000
    560      11.6847      0.00000
    561      11.7663      0.00000
    562      11.8036      0.00000
    563      11.8162      0.00000
    564      11.8848      0.00000
    565      11.9082      0.00000
    566      12.0881      0.00000
    567      12.1449      0.00000
    568      12.1864      0.00000
    569      12.2027      0.00000
    570      12.4439      0.00000
    571      12.4468      0.00000
    572      12.4554      0.00000
    573      12.4575      0.00000
    574      12.5158      0.00000
    575      12.5274      0.00000
    576      12.5663      0.00000
    577      12.6289      0.00000
    578      12.8136      0.00000
    579      12.8216      0.00000
    580      12.8801      0.00000
    581      12.8815      0.00000
    582      12.9483      0.00000
    583      13.0427      0.00000
    584      13.0573      0.00000
    585      13.0772      0.00000
    586      13.1195      0.00000
    587      13.1593      0.00000
    588      13.1626      0.00000
    589      13.1751      0.00000
    590      13.2287      0.00000
    591      13.2363      0.00000
    592      13.2530      0.00000
    593      13.3327      0.00000
    594      13.3789      0.00000
    595      13.4152      0.00000
    596      13.4925      0.00000
    597      13.6101      0.00000
    598      13.7093      0.00000
    599      13.7442      0.00000
    600      13.9604      0.00000
    601      14.1351      0.00000
    602      14.2017      0.00000
    603      14.3002      0.00000
    604      14.3287      0.00000
    605      14.3627      0.00000
    606      14.4166      0.00000
    607      14.4568      0.00000
    608      14.7808      0.00000
    609      14.8080      0.00000
    610      14.8543      0.00000
    611      14.8961      0.00000
    612      15.2433      0.00000
    613      15.2956      0.00000
    614      15.3388      0.00000
    615      15.3710      0.00000
    616      15.3928      0.00000
    617      15.4462      0.00000
    618      15.5218      0.00000
    619      15.5387      0.00000
    620      15.6179      0.00000
    621      15.7028      0.00000
    622      15.8012      0.00000
    623      15.8079      0.00000
    624      15.9896      0.00000
    625      16.0632      0.00000
    626      16.1936      0.00000
    627      16.2675      0.00000
    628      16.3672      0.00000
    629      16.4745      0.00000
    630      16.6153      0.00000

 k-point     4 :       0.5000    0.5000    0.0000
  band No.  band energies     occupation 
      1     -18.3848      2.00000
      2     -18.3810      2.00000
      3     -18.3746      2.00000
      4     -18.3516      2.00000
      5     -18.1818      2.00000
      6     -18.1784      2.00000
      7     -18.1775      2.00000
      8     -18.1487      2.00000
      9     -17.7606      2.00000
     10     -17.7543      2.00000
     11     -17.7471      2.00000
     12     -17.7432      2.00000
     13     -17.7186      2.00000
     14     -17.7122      2.00000
     15     -17.7066      2.00000
     16     -17.6904      2.00000
     17     -17.5945      2.00000
     18     -17.5815      2.00000
     19     -17.5529      2.00000
     20     -17.5457      2.00000
     21     -17.5442      2.00000
     22     -17.5411      2.00000
     23     -17.4767      2.00000
     24     -17.4692      2.00000
     25     -17.4598      2.00000
     26     -17.4555      2.00000
     27     -17.4463      2.00000
     28     -17.4443      2.00000
     29     -17.4414      2.00000
     30     -17.4084      2.00000
     31     -17.3806      2.00000
     32     -17.3779      2.00000
     33     -17.2963      2.00000
     34     -17.2700      2.00000
     35     -17.2544      2.00000
     36     -17.2464      2.00000
     37     -17.2414      2.00000
     38     -17.2203      2.00000
     39     -17.2055      2.00000
     40     -17.2037      2.00000
     41     -17.2021      2.00000
     42     -17.1994      2.00000
     43     -17.1983      2.00000
     44     -17.1930      2.00000
     45     -17.1901      2.00000
     46     -17.1819      2.00000
     47     -17.1769      2.00000
     48     -17.1253      2.00000
     49     -17.0903      2.00000
     50     -17.0859      2.00000
     51     -17.0799      2.00000
     52     -17.0655      2.00000
     53     -16.9728      2.00000
     54     -16.9559      2.00000
     55     -16.9467      2.00000
     56     -16.9461      2.00000
     57     -16.9356      2.00000
     58     -16.9275      2.00000
     59     -16.9265      2.00000
     60     -16.9241      2.00000
     61     -16.9185      2.00000
     62     -16.9153      2.00000
     63     -16.9141      2.00000
     64     -16.9009      2.00000
     65     -16.8967      2.00000
     66     -16.8884      2.00000
     67     -16.8561      2.00000
     68     -16.8437      2.00000
     69     -16.8398      2.00000
     70     -16.8387      2.00000
     71     -16.6875      2.00000
     72     -16.6447      2.00000
     73     -13.0587      2.00000
     74     -13.0584      2.00000
     75     -13.0449      2.00000
     76     -13.0436      2.00000
     77     -13.0288      2.00000
     78     -13.0278      2.00000
     79     -13.0251      2.00000
     80     -13.0186      2.00000
     81     -13.0178      2.00000
     82     -13.0157      2.00000
     83     -13.0088      2.00000
     84     -13.0056      2.00000
     85     -13.0048      2.00000
     86     -13.0045      2.00000
     87     -13.0001      2.00000
     88     -12.9979      2.00000
     89     -12.9797      2.00000
     90     -12.9785      2.00000
     91     -12.9771      2.00000
     92     -12.9763      2.00000
     93     -12.9732      2.00000
     94     -12.9695      2.00000
     95     -12.9681      2.00000
     96     -12.9667      2.00000
     97     -12.9666      2.00000
     98     -12.9652      2.00000
     99     -12.9642      2.00000
    100     -12.9584      2.00000
    101     -12.9491      2.00000
    102     -12.9478      2.00000
    103     -12.9459      2.00000
    104     -12.9446      2.00000
    105     -12.9425      2.00000
    106     -12.9409      2.00000
    107     -12.9391      2.00000
    108     -12.9359      2.00000
    109     -12.9333      2.00000
    110     -12.9331      2.00000
    111     -12.9325      2.00000
    112     -12.9304      2.00000
    113     -12.9295      2.00000
    114     -12.9261      2.00000
    115     -12.9235      2.00000
    116     -12.9212      2.00000
    117     -12.9153      2.00000
    118     -12.9118      2.00000
    119     -12.9041      2.00000
    120     -12.9030      2.00000
    121     -12.9007      2.00000
    122     -12.8976      2.00000
    123     -12.8948      2.00000
    124     -12.8916      2.00000
    125     -12.8911      2.00000
    126     -12.8902      2.00000
    127     -12.8870      2.00000
    128     -12.8844      2.00000
    129     -12.8808      2.00000
    130     -12.8798      2.00000
    131     -12.8756      2.00000
    132     -12.8706      2.00000
    133     -12.8668      2.00000
    134     -12.8527      2.00000
    135     -12.8480      2.00000
    136     -12.8424      2.00000
    137     -12.8363      2.00000
    138     -12.8322      2.00000
    139     -12.8265      2.00000
    140     -12.8260      2.00000
    141     -12.8255      2.00000
    142     -12.8243      2.00000
    143     -12.8234      2.00000
    144     -12.8213      2.00000
    145     -12.8197      2.00000
    146     -12.8159      2.00000
    147     -12.8109      2.00000
    148     -12.8092      2.00000
    149     -12.8090      2.00000
    150     -12.8069      2.00000
    151     -12.8047      2.00000
    152     -12.8047      2.00000
    153     -12.7960      2.00000
    154     -12.7954      2.00000
    155     -12.7931      2.00000
    156     -12.7878      2.00000
    157     -12.7858      2.00000
    158     -12.7851      2.00000
    159     -12.7829      2.00000
    160     -12.7825      2.00000
    161     -12.7816      2.00000
    162     -12.7805      2.00000
    163     -12.7793      2.00000
    164     -12.7776      2.00000
    165     -12.7761      2.00000
    166     -12.7746      2.00000
    167     -12.7689      2.00000
    168     -12.7636      2.00000
    169     -12.7590      2.00000
    170     -12.7584      2.00000
    171     -12.7562      2.00000
    172     -12.7560      2.00000
    173     -12.7552      2.00000
    174     -12.7516      2.00000
    175     -12.7506      2.00000
    176     -12.7504      2.00000
    177     -12.7482      2.00000
    178     -12.7478      2.00000
    179     -12.7452      2.00000
    180     -12.7446      2.00000
    181     -12.7441      2.00000
    182     -12.7410      2.00000
    183     -12.7399      2.00000
    184     -12.7382      2.00000
    185     -12.7327      2.00000
    186     -12.7316      2.00000
    187     -12.7315      2.00000
    188     -12.7302      2.00000
    189     -12.7282      2.00000
    190     -12.7266      2.00000
    191     -12.7212      2.00000
    192     -12.7187      2.00000
    193     -12.7140      2.00000
    194     -12.7125      2.00000
    195     -12.7106      2.00000
    196     -12.7078      2.00000
    197     -12.7019      2.00000
    198     -12.6987      2.00000
    199     -12.6977      2.00000
    200     -12.6970      2.00000
    201     -12.6964      2.00000
    202     -12.6921      2.00000
    203     -12.6921      2.00000
    204     -12.6871      2.00000
    205     -12.6863      2.00000
    206     -12.6669      2.00000
    207     -12.6550      2.00000
    208     -12.6529      2.00000
    209     -12.6518      2.00000
    210     -12.6489      2.00000
    211     -12.6478      2.00000
    212     -12.6454      2.00000
    213     -12.6452      2.00000
    214     -12.6425      2.00000
    215     -12.6417      2.00000
    216     -12.6336      2.00000
    217     -12.6328      2.00000
    218     -12.6314      2.00000
    219     -12.6294      2.00000
    220     -12.6283      2.00000
    221     -12.6252      2.00000
    222     -12.6240      2.00000
    223     -12.6233      2.00000
    224     -12.6224      2.00000
    225     -12.6206      2.00000
    226     -12.6134      2.00000
    227     -12.6105      2.00000
    228     -12.6090      2.00000
    229     -12.6050      2.00000
    230     -12.6046      2.00000
    231     -12.6025      2.00000
    232     -12.6011      2.00000
    233     -12.6007      2.00000
    234     -12.5994      2.00000
    235     -12.5989      2.00000
    236     -12.5946      2.00000
    237     -12.5935      2.00000
    238     -12.5925      2.00000
    239     -12.5922      2.00000
    240     -12.5820      2.00000
    241     -12.5778      2.00000
    242     -12.5734      2.00000
    243     -12.5692      2.00000
    244     -12.5687      2.00000
    245     -12.5684      2.00000
    246     -12.5658      2.00000
    247     -12.5658      2.00000
    248     -12.5619      2.00000
    249     -12.5564      2.00000
    250     -12.5546      2.00000
    251     -12.5545      2.00000
    252     -12.5482      2.00000
    253     -12.5481      2.00000
    254     -12.5454      2.00000
    255     -12.5436      2.00000
    256     -12.5417      2.00000
    257     -12.5397      2.00000
    258     -12.5397      2.00000
    259     -12.5366      2.00000
    260     -12.5365      2.00000
    261     -12.5342      2.00000
    262     -12.5311      2.00000
    263     -12.5280      2.00000
    264     -12.4269      2.00000
    265     -12.3913      2.00000
    266     -12.3715      2.00000
    267     -12.3715      2.00000
    268     -12.3638      2.00000
    269     -12.3499      2.00000
    270     -12.3468      2.00000
    271     -12.3435      2.00000
    272     -12.3162      2.00000
    273     -12.3135      2.00000
    274     -12.3021      2.00000
    275     -12.2959      2.00000
    276     -12.2714      2.00000
    277     -12.2669      2.00000
    278     -12.2453      2.00000
    279     -12.2435      2.00000
    280     -12.1872      2.00000
    281     -12.1828      2.00000
    282     -12.1433      2.00000
    283     -12.1422      2.00000
    284     -12.1169      2.00000
    285     -12.1164      2.00000
    286     -12.0738      2.00000
    287     -12.0538      2.00000
    288     -12.0339      2.00000
    289     -12.0332      2.00000
    290     -12.0322      2.00000
    291     -12.0185      2.00000
    292     -11.9751      2.00000
    293     -11.9425      2.00000
    294     -11.8979      2.00000
    295     -11.8913      2.00000
    296     -11.8712      2.00000
    297     -11.8407      2.00000
    298     -11.8374      2.00000
    299     -11.8234      2.00000
    300     -11.8116      2.00000
    301     -11.8086      2.00000
    302     -11.8028      2.00000
    303     -11.7989      2.00000
    304     -11.7578      2.00000
    305     -11.7227      2.00000
    306     -11.6980      2.00000
    307     -11.6963      2.00000
    308      -5.0373      2.00000
    309      -5.0210      2.00000
    310      -5.0014      2.00000
    311      -4.9867      2.00000
    312      -4.9554      2.00000
    313      -4.8857      2.00000
    314      -4.6677      2.00000
    315      -4.6314      2.00000
    316      -4.5176      2.00000
    317      -4.4760      2.00000
    318      -4.2802      2.00000
    319      -4.2748      2.00000
    320      -4.2443      2.00000
    321      -4.2310      2.00000
    322      -4.1845      2.00000
    323      -4.1559      2.00000
    324      -4.1352      2.00000
    325      -4.1189      2.00000
    326      -4.0340      2.00000
    327      -4.0272      2.00000
    328      -4.0170      2.00000
    329      -3.9948      2.00000
    330      -3.9542      2.00000
    331      -3.9123      2.00000
    332      -3.8680      2.00000
    333      -3.8378      2.00000
    334      -3.7607      2.00000
    335      -3.7301      2.00000
    336      -3.6766      2.00000
    337      -3.6750      2.00000
    338      -3.6647      2.00000
    339      -3.4609      2.00000
    340      -3.3151      2.00000
    341      -3.3103      2.00000
    342      -3.2940      2.00000
    343      -3.0903      2.00000
    344      -3.0630      2.00000
    345      -3.0402      2.00000
    346      -2.9658      2.00000
    347      -2.9483      2.00000
    348      -2.8995      2.00000
    349      -2.8768      2.00000
    350      -2.8599      2.00000
    351      -2.7960      2.00000
    352      -2.6451      2.00000
    353      -2.6331      2.00000
    354      -2.6185      2.00000
    355      -2.5989      2.00000
    356      -2.5947      2.00000
    357      -2.4481      2.00000
    358      -2.3130      2.00000
    359      -2.2325      2.00000
    360      -2.2131      2.00000
    361      -2.1779      2.00000
    362      -2.1532      2.00000
    363      -2.1394      2.00000
    364      -1.8909      2.00000
    365      -1.8555      2.00000
    366      -1.8406      2.00000
    367      -1.8280      2.00000
    368      -1.8130      2.00000
    369      -1.8020      2.00000
    370      -1.7954      2.00000
    371      -1.7817      2.00000
    372      -1.7542      2.00000
    373      -1.7381      2.00000
    374      -1.6927      2.00000
    375      -1.6629      2.00000
    376      -1.6229      2.00000
    377      -1.6155      2.00000
    378      -1.5870      2.00000
    379      -1.5695      2.00000
    380      -1.5647      2.00000
    381      -1.5410      2.00000
    382      -1.4045      2.00000
    383      -1.3838      2.00000
    384      -1.3738      2.00000
    385      -1.3485      2.00000
    386      -1.3360      2.00000
    387      -1.3263      2.00000
    388      -1.2961      2.00000
    389      -1.2849      2.00000
    390      -1.2399      2.00000
    391      -1.2338      2.00000
    392      -1.1629      2.00000
    393      -1.1131      2.00000
    394      -1.0553      2.00000
    395      -1.0242      2.00000
    396      -1.0211      2.00000
    397      -1.0022      2.00000
    398      -0.9862      2.00000
    399      -0.9542      2.00000
    400      -0.9317      2.00000
    401      -0.8871      2.00000
    402      -0.8221      2.00000
    403      -0.8197      2.00000
    404      -0.8057      2.00000
    405      -0.7610      2.00000
    406      -0.7148      2.00000
    407      -0.6901      2.00000
    408      -0.6813      2.00000
    409      -0.6507      2.00000
    410      -0.6252      2.00000
    411      -0.6018      2.00000
    412      -0.5766      2.00000
    413      -0.5734      2.00000
    414      -0.5681      2.00000
    415      -0.5591      2.00000
    416      -0.5435      2.00000
    417      -0.5157      2.00000
    418      -0.4929      2.00000
    419      -0.4799      2.00000
    420      -0.4555      2.00000
    421      -0.4370      2.00000
    422      -0.4255      2.00000
    423      -0.4162      2.00000
    424      -0.3892      2.00000
    425      -0.3480      2.00000
    426      -0.2911      2.00000
    427      -0.2762      2.00000
    428      -0.2232      2.00000
    429      -0.1401      2.00000
    430      -0.1042      2.00000
    431      -0.0452      2.00000
    432      -0.0340      2.00000
    433      -0.0209      2.00000
    434       0.0042      2.00000
    435       0.0064      2.00000
    436       0.0214      2.00000
    437       0.0390      2.00000
    438       0.0867      2.00000
    439       0.1180      2.00000
    440       0.2470      2.00000
    441       0.2719      2.00000
    442       0.3169      2.00000
    443       0.3479      2.00000
    444       0.3769      2.00000
    445       0.3892      2.00000
    446       0.3955      2.00000
    447       0.3961      2.00000
    448       0.4074      2.00000
    449       0.4425      2.00000
    450       0.4453      2.00000
    451       0.4633      2.00000
    452       0.4966      2.00000
    453       0.5284      2.00000
    454       0.5790      2.00000
    455       0.6207      2.00000
    456       0.6639      2.00000
    457       0.6962      2.00000
    458       0.7145      2.00000
    459       0.7190      2.00000
    460       0.7494      2.00000
    461       0.7529      2.00000
    462       0.7574      2.00000
    463       0.7655      2.00000
    464       0.7778      2.00000
    465       0.7967      2.00000
    466       0.7971      2.00000
    467       0.8025      2.00000
    468       0.8525      2.00000
    469       0.8828      2.00000
    470       0.8980      2.00000
    471       0.9071      2.00000
    472       0.9344      2.00000
    473       0.9487      2.00000
    474       0.9600      2.00000
    475       0.9823      2.00000
    476       1.0267      2.00000
    477       1.0412      2.00000
    478       1.0877      2.00000
    479       1.1458      2.00000
    480       1.1592      2.00000
    481       1.1669      2.00000
    482       1.1745      2.00000
    483       1.1835      2.00000
    484       1.1877      2.00000
    485       1.1935      2.00000
    486       1.2028      2.00000
    487       1.2093      2.00000
    488       1.2678      2.00000
    489       1.2743      2.00000
    490       1.2819      2.00000
    491       1.2921      2.00000
    492       1.3020      2.00000
    493       1.3148      2.00000
    494       1.3219      2.00000
    495       1.3234      2.00000
    496       1.3265      2.00000
    497       1.3334      2.00000
    498       1.3367      2.00000
    499       1.3475      2.00000
    500       1.3663      2.00000
    501       1.3684      2.00000
    502       1.3744      2.00000
    503       1.3929      2.00000
    504       1.4861      2.00000
    505       1.5267      2.00000
    506       1.5462      2.00000
    507       1.5542      2.00000
    508       1.5807      2.00000
    509       1.6016      2.00000
    510       1.6928      2.00000
    511       1.7148      2.00000
    512       1.7220      2.00000
    513       1.7400      2.00000
    514       1.7965      2.00000
    515       1.8048      2.00000
    516       1.8962      2.00000
    517       1.9254      2.00000
    518       1.9500      2.00000
    519       1.9521      2.00000
    520       1.9606      2.00000
    521       1.9638      2.00000
    522       1.9742      2.00000
    523       1.9886      2.00000
    524       2.1282      2.00000
    525       2.2136      2.00000
    526       4.2402      1.00907
    527       8.1330      0.00000
    528       8.3595      0.00000
    529       8.4418      0.00000
    530       8.4590      0.00000
    531       8.4825      0.00000
    532       8.5658      0.00000
    533       9.8850      0.00000
    534       9.8961      0.00000
    535       9.9507      0.00000
    536       9.9737      0.00000
    537      10.1103      0.00000
    538      10.2146      0.00000
    539      10.3902      0.00000
    540      10.4148      0.00000
    541      10.4453      0.00000
    542      10.4490      0.00000
    543      10.4795      0.00000
    544      10.5090      0.00000
    545      10.5292      0.00000
    546      10.6008      0.00000
    547      11.1359      0.00000
    548      11.1661      0.00000
    549      11.5050      0.00000
    550      11.5235      0.00000
    551      11.5318      0.00000
    552      11.5488      0.00000
    553      11.5521      0.00000
    554      11.5546      0.00000
    555      11.5685      0.00000
    556      11.5836      0.00000
    557      11.5964      0.00000
    558      11.6102      0.00000
    559      11.6398      0.00000
    560      11.7790      0.00000
    561      11.8063      0.00000
    562      11.8154      0.00000
    563      11.8397      0.00000
    564      11.9542      0.00000
    565      11.9714      0.00000
    566      12.0057      0.00000
    567      12.1380      0.00000
    568      12.2011      0.00000
    569      12.2192      0.00000
    570      12.2246      0.00000
    571      12.2555      0.00000
    572      12.5201      0.00000
    573      12.5712      0.00000
    574      12.5749      0.00000
    575      12.5893      0.00000
    576      12.7150      0.00000
    577      12.7234      0.00000
    578      12.8720      0.00000
    579      12.9190      0.00000
    580      12.9278      0.00000
    581      12.9396      0.00000
    582      12.9598      0.00000
    583      12.9812      0.00000
    584      13.0072      0.00000
    585      13.0291      0.00000
    586      13.0408      0.00000
    587      13.0930      0.00000
    588      13.1060      0.00000
    589      13.1124      0.00000
    590      13.1357      0.00000
    591      13.1591      0.00000
    592      13.1640      0.00000
    593      13.1727      0.00000
    594      13.3374      0.00000
    595      13.3484      0.00000
    596      13.3600      0.00000
    597      13.4659      0.00000
    598      13.6887      0.00000
    599      13.7146      0.00000
    600      13.7617      0.00000
    601      13.9427      0.00000
    602      14.0565      0.00000
    603      14.0980      0.00000
    604      14.1488      0.00000
    605      14.2051      0.00000
    606      14.5929      0.00000
    607      14.6927      0.00000
    608      15.0146      0.00000
    609      15.0669      0.00000
    610      15.0897      0.00000
    611      15.1472      0.00000
    612      15.1807      0.00000
    613      15.2255      0.00000
    614      15.2760      0.00000
    615      15.3156      0.00000
    616      15.4016      0.00000
    617      15.4387      0.00000
    618      15.4806      0.00000
    619      15.5404      0.00000
    620      15.6167      0.00000
    621      15.6731      0.00000
    622      15.8263      0.00000
    623      15.8789      0.00000
    624      16.0443      0.00000
    625      16.0735      0.00000
    626      16.2989      0.00000
    627      16.3597      0.00000
    628      16.3886      0.00000
    629      16.6338      0.00000
    630      16.8105      0.00000

 k-point     5 :       0.0000    0.0000    0.5000
  band No.  band energies     occupation 
      1     -18.5792      2.00000
      2     -18.5629      2.00000
      3     -18.3235      2.00000
      4     -18.3036      2.00000
      5     -18.0153      2.00000
      6     -18.0098      2.00000
      7     -17.9276      2.00000
      8     -17.9224      2.00000
      9     -17.9148      2.00000
     10     -17.9117      2.00000
     11     -17.7407      2.00000
     12     -17.7339      2.00000
     13     -17.7282      2.00000
     14     -17.7191      2.00000
     15     -17.7153      2.00000
     16     -17.7036      2.00000
     17     -17.6182      2.00000
     18     -17.6146      2.00000
     19     -17.6126      2.00000
     20     -17.6054      2.00000
     21     -17.5938      2.00000
     22     -17.5729      2.00000
     23     -17.5296      2.00000
     24     -17.5134      2.00000
     25     -17.4361      2.00000
     26     -17.4335      2.00000
     27     -17.4322      2.00000
     28     -17.4220      2.00000
     29     -17.3427      2.00000
     30     -17.3419      2.00000
     31     -17.3396      2.00000
     32     -17.3334      2.00000
     33     -17.3317      2.00000
     34     -17.3232      2.00000
     35     -17.3208      2.00000
     36     -17.3195      2.00000
     37     -17.3115      2.00000
     38     -17.2860      2.00000
     39     -17.2163      2.00000
     40     -17.2008      2.00000
     41     -17.1797      2.00000
     42     -17.1754      2.00000
     43     -17.1703      2.00000
     44     -17.1609      2.00000
     45     -17.1608      2.00000
     46     -17.1480      2.00000
     47     -17.1382      2.00000
     48     -17.1344      2.00000
     49     -17.0497      2.00000
     50     -17.0376      2.00000
     51     -17.0073      2.00000
     52     -17.0021      2.00000
     53     -16.9990      2.00000
     54     -16.9959      2.00000
     55     -16.9952      2.00000
     56     -16.9893      2.00000
     57     -16.9878      2.00000
     58     -16.9868      2.00000
     59     -16.9744      2.00000
     60     -16.9640      2.00000
     61     -16.9087      2.00000
     62     -16.9070      2.00000
     63     -16.9019      2.00000
     64     -16.8990      2.00000
     65     -16.8970      2.00000
     66     -16.8893      2.00000
     67     -16.8594      2.00000
     68     -16.8243      2.00000
     69     -16.8162      2.00000
     70     -16.8005      2.00000
     71     -16.6702      2.00000
     72     -16.6567      2.00000
     73     -13.0752      2.00000
     74     -13.0656      2.00000
     75     -13.0550      2.00000
     76     -13.0457      2.00000
     77     -13.0385      2.00000
     78     -13.0345      2.00000
     79     -13.0325      2.00000
     80     -13.0308      2.00000
     81     -13.0276      2.00000
     82     -13.0191      2.00000
     83     -13.0178      2.00000
     84     -13.0067      2.00000
     85     -12.9966      2.00000
     86     -12.9824      2.00000
     87     -12.9786      2.00000
     88     -12.9775      2.00000
     89     -12.9712      2.00000
     90     -12.9705      2.00000
     91     -12.9659      2.00000
     92     -12.9635      2.00000
     93     -12.9606      2.00000
     94     -12.9587      2.00000
     95     -12.9529      2.00000
     96     -12.9527      2.00000
     97     -12.9512      2.00000
     98     -12.9509      2.00000
     99     -12.9400      2.00000
    100     -12.9399      2.00000
    101     -12.9389      2.00000
    102     -12.9377      2.00000
    103     -12.9358      2.00000
    104     -12.9346      2.00000
    105     -12.9345      2.00000
    106     -12.9308      2.00000
    107     -12.9307      2.00000
    108     -12.9301      2.00000
    109     -12.9289      2.00000
    110     -12.9263      2.00000
    111     -12.9255      2.00000
    112     -12.9239      2.00000
    113     -12.9238      2.00000
    114     -12.9219      2.00000
    115     -12.9198      2.00000
    116     -12.9186      2.00000
    117     -12.9163      2.00000
    118     -12.9161      2.00000
    119     -12.9123      2.00000
    120     -12.9079      2.00000
    121     -12.9076      2.00000
    122     -12.9059      2.00000
    123     -12.9041      2.00000
    124     -12.9035      2.00000
    125     -12.9001      2.00000
    126     -12.8929      2.00000
    127     -12.8893      2.00000
    128     -12.8798      2.00000
    129     -12.8779      2.00000
    130     -12.8776      2.00000
    131     -12.8714      2.00000
    132     -12.8703      2.00000
    133     -12.8670      2.00000
    134     -12.8622      2.00000
    135     -12.8615      2.00000
    136     -12.8607      2.00000
    137     -12.8489      2.00000
    138     -12.8347      2.00000
    139     -12.8342      2.00000
    140     -12.8323      2.00000
    141     -12.8305      2.00000
    142     -12.8269      2.00000
    143     -12.8245      2.00000
    144     -12.8211      2.00000
    145     -12.8203      2.00000
    146     -12.8180      2.00000
    147     -12.8150      2.00000
    148     -12.8130      2.00000
    149     -12.8051      2.00000
    150     -12.7996      2.00000
    151     -12.7988      2.00000
    152     -12.7985      2.00000
    153     -12.7966      2.00000
    154     -12.7962      2.00000
    155     -12.7952      2.00000
    156     -12.7939      2.00000
    157     -12.7921      2.00000
    158     -12.7903      2.00000
    159     -12.7901      2.00000
    160     -12.7874      2.00000
    161     -12.7855      2.00000
    162     -12.7818      2.00000
    163     -12.7805      2.00000
    164     -12.7796      2.00000
    165     -12.7790      2.00000
    166     -12.7776      2.00000
    167     -12.7766      2.00000
    168     -12.7756      2.00000
    169     -12.7750      2.00000
    170     -12.7740      2.00000
    171     -12.7709      2.00000
    172     -12.7693      2.00000
    173     -12.7679      2.00000
    174     -12.7670      2.00000
    175     -12.7650      2.00000
    176     -12.7612      2.00000
    177     -12.7609      2.00000
    178     -12.7569      2.00000
    179     -12.7549      2.00000
    180     -12.7539      2.00000
    181     -12.7420      2.00000
    182     -12.7386      2.00000
    183     -12.7357      2.00000
    184     -12.7327      2.00000
    185     -12.7254      2.00000
    186     -12.7236      2.00000
    187     -12.7214      2.00000
    188     -12.7205      2.00000
    189     -12.7196      2.00000
    190     -12.7174      2.00000
    191     -12.7096      2.00000
    192     -12.7077      2.00000
    193     -12.7012      2.00000
    194     -12.6983      2.00000
    195     -12.6960      2.00000
    196     -12.6937      2.00000
    197     -12.6905      2.00000
    198     -12.6864      2.00000
    199     -12.6852      2.00000
    200     -12.6846      2.00000
    201     -12.6838      2.00000
    202     -12.6829      2.00000
    203     -12.6807      2.00000
    204     -12.6728      2.00000
    205     -12.6720      2.00000
    206     -12.6698      2.00000
    207     -12.6681      2.00000
    208     -12.6652      2.00000
    209     -12.6572      2.00000
    210     -12.6568      2.00000
    211     -12.6463      2.00000
    212     -12.6437      2.00000
    213     -12.6422      2.00000
    214     -12.6421      2.00000
    215     -12.6406      2.00000
    216     -12.6384      2.00000
    217     -12.6379      2.00000
    218     -12.6377      2.00000
    219     -12.6344      2.00000
    220     -12.6329      2.00000
    221     -12.6294      2.00000
    222     -12.6273      2.00000
    223     -12.6244      2.00000
    224     -12.6235      2.00000
    225     -12.6209      2.00000
    226     -12.6201      2.00000
    227     -12.6189      2.00000
    228     -12.6171      2.00000
    229     -12.6142      2.00000
    230     -12.6137      2.00000
    231     -12.6122      2.00000
    232     -12.6091      2.00000
    233     -12.6080      2.00000
    234     -12.6073      2.00000
    235     -12.6058      2.00000
    236     -12.6044      2.00000
    237     -12.6028      2.00000
    238     -12.6001      2.00000
    239     -12.5990      2.00000
    240     -12.5969      2.00000
    241     -12.5942      2.00000
    242     -12.5935      2.00000
    243     -12.5905      2.00000
    244     -12.5903      2.00000
    245     -12.5883      2.00000
    246     -12.5826      2.00000
    247     -12.5817      2.00000
    248     -12.5751      2.00000
    249     -12.5696      2.00000
    250     -12.5661      2.00000
    251     -12.5614      2.00000
    252     -12.5596      2.00000
    253     -12.5544      2.00000
    254     -12.5543      2.00000
    255     -12.5535      2.00000
    256     -12.5451      2.00000
    257     -12.5439      2.00000
    258     -12.5308      2.00000
    259     -12.5215      2.00000
    260     -12.4903      2.00000
    261     -12.4589      2.00000
    262     -12.4503      2.00000
    263     -12.4346      2.00000
    264     -12.4285      2.00000
    265     -12.4283      2.00000
    266     -12.4080      2.00000
    267     -12.3912      2.00000
    268     -12.3733      2.00000
    269     -12.3478      2.00000
    270     -12.3422      2.00000
    271     -12.3224      2.00000
    272     -12.3139      2.00000
    273     -12.3121      2.00000
    274     -12.2949      2.00000
    275     -12.2767      2.00000
    276     -12.2340      2.00000
    277     -12.2314      2.00000
    278     -12.2050      2.00000
    279     -12.1982      2.00000
    280     -12.1894      2.00000
    281     -12.1892      2.00000
    282     -12.1623      2.00000
    283     -12.1526      2.00000
    284     -12.1426      2.00000
    285     -12.1125      2.00000
    286     -12.1053      2.00000
    287     -12.1024      2.00000
    288     -12.0418      2.00000
    289     -12.0393      2.00000
    290     -12.0045      2.00000
    291     -11.9872      2.00000
    292     -11.9853      2.00000
    293     -11.9818      2.00000
    294     -11.9093      2.00000
    295     -11.9063      2.00000
    296     -11.8548      2.00000
    297     -11.8511      2.00000
    298     -11.8503      2.00000
    299     -11.8430      2.00000
    300     -11.8395      2.00000
    301     -11.8365      2.00000
    302     -11.7921      2.00000
    303     -11.7864      2.00000
    304     -11.7763      2.00000
    305     -11.7722      2.00000
    306     -11.6732      2.00000
    307     -11.6440      2.00000
    308      -4.8816      2.00000
    309      -4.8632      2.00000
    310      -4.6958      2.00000
    311      -4.6838      2.00000
    312      -4.6552      2.00000
    313      -4.6257      2.00000
    314      -4.6139      2.00000
    315      -4.5840      2.00000
    316      -4.3972      2.00000
    317      -4.3815      2.00000
    318      -4.3774      2.00000
    319      -4.3311      2.00000
    320      -4.1936      2.00000
    321      -4.1851      2.00000
    322      -4.1736      2.00000
    323      -4.1593      2.00000
    324      -4.1215      2.00000
    325      -4.1151      2.00000
    326      -4.1025      2.00000
    327      -4.0666      2.00000
    328      -4.0570      2.00000
    329      -3.9952      2.00000
    330      -3.8475      2.00000
    331      -3.8274      2.00000
    332      -3.8098      2.00000
    333      -3.7821      2.00000
    334      -3.7779      2.00000
    335      -3.7723      2.00000
    336      -3.7659      2.00000
    337      -3.7542      2.00000
    338      -3.7160      2.00000
    339      -3.5560      2.00000
    340      -3.4660      2.00000
    341      -3.4177      2.00000
    342      -3.4111      2.00000
    343      -3.2680      2.00000
    344      -3.1735      2.00000
    345      -3.1623      2.00000
    346      -2.9684      2.00000
    347      -2.9635      2.00000
    348      -2.9590      2.00000
    349      -2.9238      2.00000
    350      -2.7852      2.00000
    351      -2.7786      2.00000
    352      -2.6716      2.00000
    353      -2.6448      2.00000
    354      -2.6174      2.00000
    355      -2.6163      2.00000
    356      -2.5250      2.00000
    357      -2.4929      2.00000
    358      -2.4565      2.00000
    359      -2.3846      2.00000
    360      -2.2833      2.00000
    361      -2.2440      2.00000
    362      -2.2292      2.00000
    363      -2.2225      2.00000
    364      -2.2130      2.00000
    365      -2.2050      2.00000
    366      -2.2007      2.00000
    367      -2.1834      2.00000
    368      -2.1563      2.00000
    369      -2.1554      2.00000
    370      -2.1207      2.00000
    371      -2.0588      2.00000
    372      -1.9889      2.00000
    373      -1.9377      2.00000
    374      -1.9340      2.00000
    375      -1.8638      2.00000
    376      -1.7793      2.00000
    377      -1.7009      2.00000
    378      -1.6932      2.00000
    379      -1.6455      2.00000
    380      -1.5326      2.00000
    381      -1.5098      2.00000
    382      -1.4665      2.00000
    383      -1.4540      2.00000
    384      -1.3647      2.00000
    385      -1.3491      2.00000
    386      -1.3357      2.00000
    387      -1.3302      2.00000
    388      -1.2968      2.00000
    389      -1.2484      2.00000
    390      -1.2108      2.00000
    391      -1.2016      2.00000
    392      -1.1737      2.00000
    393      -1.1379      2.00000
    394      -1.1036      2.00000
    395      -1.0932      2.00000
    396      -1.0327      2.00000
    397      -0.9486      2.00000
    398      -0.9414      2.00000
    399      -0.9159      2.00000
    400      -0.8707      2.00000
    401      -0.8490      2.00000
    402      -0.8230      2.00000
    403      -0.8100      2.00000
    404      -0.6962      2.00000
    405      -0.6853      2.00000
    406      -0.6538      2.00000
    407      -0.6287      2.00000
    408      -0.6107      2.00000
    409      -0.5812      2.00000
    410      -0.5489      2.00000
    411      -0.5359      2.00000
    412      -0.5127      2.00000
    413      -0.4801      2.00000
    414      -0.4624      2.00000
    415      -0.3962      2.00000
    416      -0.3749      2.00000
    417      -0.3248      2.00000
    418      -0.3095      2.00000
    419      -0.2868      2.00000
    420      -0.2429      2.00000
    421      -0.2331      2.00000
    422      -0.1899      2.00000
    423      -0.1668      2.00000
    424      -0.1271      2.00000
    425      -0.1209      2.00000
    426      -0.0994      2.00000
    427      -0.0974      2.00000
    428      -0.0803      2.00000
    429      -0.0659      2.00000
    430      -0.0350      2.00000
    431      -0.0084      2.00000
    432       0.0256      2.00000
    433       0.0348      2.00000
    434       0.0502      2.00000
    435       0.0690      2.00000
    436       0.0902      2.00000
    437       0.1109      2.00000
    438       0.1192      2.00000
    439       0.1444      2.00000
    440       0.1560      2.00000
    441       0.1811      2.00000
    442       0.2357      2.00000
    443       0.2387      2.00000
    444       0.2448      2.00000
    445       0.3051      2.00000
    446       0.3269      2.00000
    447       0.3759      2.00000
    448       0.3908      2.00000
    449       0.4144      2.00000
    450       0.4620      2.00000
    451       0.5129      2.00000
    452       0.5432      2.00000
    453       0.5531      2.00000
    454       0.5811      2.00000
    455       0.5845      2.00000
    456       0.6562      2.00000
    457       0.6638      2.00000
    458       0.6690      2.00000
    459       0.6792      2.00000
    460       0.6833      2.00000
    461       0.6886      2.00000
    462       0.7942      2.00000
    463       0.8016      2.00000
    464       0.8334      2.00000
    465       0.8923      2.00000
    466       0.8965      2.00000
    467       0.9224      2.00000
    468       0.9410      2.00000
    469       0.9428      2.00000
    470       0.9558      2.00000
    471       0.9643      2.00000
    472       1.0071      2.00000
    473       1.0209      2.00000
    474       1.0272      2.00000
    475       1.0378      2.00000
    476       1.0607      2.00000
    477       1.0662      2.00000
    478       1.0761      2.00000
    479       1.0844      2.00000
    480       1.1128      2.00000
    481       1.1536      2.00000
    482       1.1555      2.00000
    483       1.1624      2.00000
    484       1.1901      2.00000
    485       1.1995      2.00000
    486       1.2457      2.00000
    487       1.2749      2.00000
    488       1.3082      2.00000
    489       1.3179      2.00000
    490       1.3288      2.00000
    491       1.3652      2.00000
    492       1.4057      2.00000
    493       1.4093      2.00000
    494       1.4190      2.00000
    495       1.4382      2.00000
    496       1.4627      2.00000
    497       1.4667      2.00000
    498       1.4701      2.00000
    499       1.4796      2.00000
    500       1.4868      2.00000
    501       1.4943      2.00000
    502       1.4998      2.00000
    503       1.5043      2.00000
    504       1.5053      2.00000
    505       1.5371      2.00000
    506       1.5448      2.00000
    507       1.5600      2.00000
    508       1.5680      2.00000
    509       1.5722      2.00000
    510       1.6201      2.00000
    511       1.6416      2.00000
    512       1.6679      2.00000
    513       1.6697      2.00000
    514       1.6777      2.00000
    515       1.6880      2.00000
    516       1.7519      2.00000
    517       1.7841      2.00000
    518       1.7999      2.00000
    519       1.8011      2.00000
    520       1.8258      2.00000
    521       1.8390      2.00000
    522       1.9399      2.00000
    523       1.9658      2.00000
    524       2.1283      2.00000
    525       2.2241      2.00000
    526       4.2410      0.99209
    527       7.5987      0.00000
    528       7.6708      0.00000
    529       8.1021      0.00000
    530       8.4606      0.00000
    531       9.0931      0.00000
    532       9.1567      0.00000
    533       9.8187      0.00000
    534       9.8942      0.00000
    535      10.4211      0.00000
    536      10.4724      0.00000
    537      10.5426      0.00000
    538      10.5496      0.00000
    539      10.5757      0.00000
    540      10.5794      0.00000
    541      10.6173      0.00000
    542      10.6422      0.00000
    543      10.7954      0.00000
    544      10.8060      0.00000
    545      10.8193      0.00000
    546      10.8257      0.00000
    547      10.8273      0.00000
    548      10.8514      0.00000
    549      10.8594      0.00000
    550      10.8774      0.00000
    551      10.9253      0.00000
    552      10.9361      0.00000
    553      11.0413      0.00000
    554      11.0538      0.00000
    555      11.0841      0.00000
    556      11.1208      0.00000
    557      11.1348      0.00000
    558      11.2395      0.00000
    559      11.3213      0.00000
    560      11.3224      0.00000
    561      11.3504      0.00000
    562      11.4405      0.00000
    563      11.4572      0.00000
    564      11.6877      0.00000
    565      11.8096      0.00000
    566      11.8470      0.00000
    567      12.1335      0.00000
    568      12.2306      0.00000
    569      12.2348      0.00000
    570      12.2591      0.00000
    571      12.2672      0.00000
    572      12.2841      0.00000
    573      12.2878      0.00000
    574      12.2881      0.00000
    575      12.2884      0.00000
    576      12.3874      0.00000
    577      12.5326      0.00000
    578      12.5354      0.00000
    579      12.5372      0.00000
    580      13.0377      0.00000
    581      13.1748      0.00000
    582      13.2134      0.00000
    583      13.2837      0.00000
    584      13.3430      0.00000
    585      13.3729      0.00000
    586      13.4009      0.00000
    587      13.4139      0.00000
    588      13.5617      0.00000
    589      13.6548      0.00000
    590      13.6899      0.00000
    591      13.6964      0.00000
    592      13.9270      0.00000
    593      13.9757      0.00000
    594      13.9903      0.00000
    595      14.0317      0.00000
    596      14.0478      0.00000
    597      14.0769      0.00000
    598      14.0914      0.00000
    599      14.0976      0.00000
    600      14.1051      0.00000
    601      14.1545      0.00000
    602      14.2622      0.00000
    603      14.3408      0.00000
    604      14.3586      0.00000
    605      14.4490      0.00000
    606      14.4980      0.00000
    607      14.5184      0.00000
    608      14.5916      0.00000
    609      14.6058      0.00000
    610      14.6129      0.00000
    611      14.6461      0.00000
    612      14.6735      0.00000
    613      14.7317      0.00000
    614      14.7718      0.00000
    615      14.8128      0.00000
    616      14.9140      0.00000
    617      15.1293      0.00000
    618      15.3203      0.00000
    619      15.4010      0.00000
    620      15.5138      0.00000
    621      15.6084      0.00000
    622      15.6607      0.00000
    623      15.8414      0.00000
    624      15.9609      0.00000
    625      16.1402      0.00000
    626      16.3387      0.00000
    627      16.4739      0.00000
    628      16.5800      0.00000
    629      16.7628      0.00000
    630      17.1620      0.00000

 k-point     6 :       0.5000    0.0000    0.5000
  band No.  band energies     occupation 
      1     -18.5287      2.00000
      2     -18.5156      2.00000
      3     -18.4231      2.00000
      4     -18.4095      2.00000
      5     -17.9251      2.00000
      6     -17.9158      2.00000
      7     -17.8935      2.00000
      8     -17.8825      2.00000
      9     -17.8770      2.00000
     10     -17.8726      2.00000
     11     -17.8253      2.00000
     12     -17.8158      2.00000
     13     -17.8132      2.00000
     14     -17.8083      2.00000
     15     -17.6810      2.00000
     16     -17.6702      2.00000
     17     -17.6196      2.00000
     18     -17.6127      2.00000
     19     -17.6061      2.00000
     20     -17.5900      2.00000
     21     -17.5421      2.00000
     22     -17.5378      2.00000
     23     -17.5351      2.00000
     24     -17.5199      2.00000
     25     -17.4173      2.00000
     26     -17.4158      2.00000
     27     -17.4130      2.00000
     28     -17.4041      2.00000
     29     -17.3758      2.00000
     30     -17.3726      2.00000
     31     -17.3674      2.00000
     32     -17.3665      2.00000
     33     -17.3558      2.00000
     34     -17.3441      2.00000
     35     -17.3385      2.00000
     36     -17.3154      2.00000
     37     -17.3059      2.00000
     38     -17.2881      2.00000
     39     -17.2141      2.00000
     40     -17.1964      2.00000
     41     -17.1685      2.00000
     42     -17.1662      2.00000
     43     -17.1655      2.00000
     44     -17.1570      2.00000
     45     -17.1548      2.00000
     46     -17.1440      2.00000
     47     -17.1332      2.00000
     48     -17.1273      2.00000
     49     -17.0372      2.00000
     50     -17.0326      2.00000
     51     -17.0179      2.00000
     52     -17.0095      2.00000
     53     -17.0091      2.00000
     54     -16.9994      2.00000
     55     -16.9992      2.00000
     56     -16.9880      2.00000
     57     -16.9855      2.00000
     58     -16.9812      2.00000
     59     -16.9772      2.00000
     60     -16.9611      2.00000
     61     -16.9068      2.00000
     62     -16.9038      2.00000
     63     -16.9003      2.00000
     64     -16.9001      2.00000
     65     -16.8982      2.00000
     66     -16.8910      2.00000
     67     -16.8596      2.00000
     68     -16.8176      2.00000
     69     -16.8144      2.00000
     70     -16.8061      2.00000
     71     -16.6704      2.00000
     72     -16.6567      2.00000
     73     -13.0735      2.00000
     74     -13.0718      2.00000
     75     -13.0496      2.00000
     76     -13.0450      2.00000
     77     -13.0386      2.00000
     78     -13.0319      2.00000
     79     -13.0316      2.00000
     80     -13.0312      2.00000
     81     -13.0278      2.00000
     82     -13.0194      2.00000
     83     -13.0179      2.00000
     84     -13.0069      2.00000
     85     -12.9795      2.00000
     86     -12.9779      2.00000
     87     -12.9765      2.00000
     88     -12.9764      2.00000
     89     -12.9681      2.00000
     90     -12.9667      2.00000
     91     -12.9649      2.00000
     92     -12.9637      2.00000
     93     -12.9636      2.00000
     94     -12.9575      2.00000
     95     -12.9541      2.00000
     96     -12.9524      2.00000
     97     -12.9523      2.00000
     98     -12.9520      2.00000
     99     -12.9495      2.00000
    100     -12.9440      2.00000
    101     -12.9439      2.00000
    102     -12.9422      2.00000
    103     -12.9391      2.00000
    104     -12.9384      2.00000
    105     -12.9343      2.00000
    106     -12.9338      2.00000
    107     -12.9311      2.00000
    108     -12.9290      2.00000
    109     -12.9266      2.00000
    110     -12.9257      2.00000
    111     -12.9230      2.00000
    112     -12.9220      2.00000
    113     -12.9212      2.00000
    114     -12.9210      2.00000
    115     -12.9171      2.00000
    116     -12.9164      2.00000
    117     -12.9159      2.00000
    118     -12.9137      2.00000
    119     -12.9104      2.00000
    120     -12.9104      2.00000
    121     -12.9074      2.00000
    122     -12.9065      2.00000
    123     -12.9049      2.00000
    124     -12.9025      2.00000
    125     -12.8991      2.00000
    126     -12.8919      2.00000
    127     -12.8881      2.00000
    128     -12.8793      2.00000
    129     -12.8775      2.00000
    130     -12.8709      2.00000
    131     -12.8685      2.00000
    132     -12.8645      2.00000
    133     -12.8600      2.00000
    134     -12.8596      2.00000
    135     -12.8584      2.00000
    136     -12.8551      2.00000
    137     -12.8535      2.00000
    138     -12.8391      2.00000
    139     -12.8385      2.00000
    140     -12.8375      2.00000
    141     -12.8335      2.00000
    142     -12.8334      2.00000
    143     -12.8203      2.00000
    144     -12.8195      2.00000
    145     -12.8137      2.00000
    146     -12.8133      2.00000
    147     -12.8097      2.00000
    148     -12.8083      2.00000
    149     -12.8059      2.00000
    150     -12.8015      2.00000
    151     -12.7993      2.00000
    152     -12.7990      2.00000
    153     -12.7987      2.00000
    154     -12.7970      2.00000
    155     -12.7965      2.00000
    156     -12.7942      2.00000
    157     -12.7936      2.00000
    158     -12.7934      2.00000
    159     -12.7930      2.00000
    160     -12.7890      2.00000
    161     -12.7875      2.00000
    162     -12.7874      2.00000
    163     -12.7854      2.00000
    164     -12.7825      2.00000
    165     -12.7778      2.00000
    166     -12.7758      2.00000
    167     -12.7755      2.00000
    168     -12.7734      2.00000
    169     -12.7721      2.00000
    170     -12.7715      2.00000
    171     -12.7696      2.00000
    172     -12.7691      2.00000
    173     -12.7663      2.00000
    174     -12.7656      2.00000
    175     -12.7605      2.00000
    176     -12.7569      2.00000
    177     -12.7536      2.00000
    178     -12.7521      2.00000
    179     -12.7493      2.00000
    180     -12.7490      2.00000
    181     -12.7368      2.00000
    182     -12.7359      2.00000
    183     -12.7347      2.00000
    184     -12.7299      2.00000
    185     -12.7276      2.00000
    186     -12.7207      2.00000
    187     -12.7199      2.00000
    188     -12.7191      2.00000
    189     -12.7094      2.00000
    190     -12.7093      2.00000
    191     -12.7088      2.00000
    192     -12.7069      2.00000
    193     -12.7060      2.00000
    194     -12.7037      2.00000
    195     -12.7020      2.00000
    196     -12.6975      2.00000
    197     -12.6960      2.00000
    198     -12.6958      2.00000
    199     -12.6903      2.00000
    200     -12.6857      2.00000
    201     -12.6848      2.00000
    202     -12.6836      2.00000
    203     -12.6807      2.00000
    204     -12.6800      2.00000
    205     -12.6759      2.00000
    206     -12.6727      2.00000
    207     -12.6681      2.00000
    208     -12.6649      2.00000
    209     -12.6625      2.00000
    210     -12.6610      2.00000
    211     -12.6456      2.00000
    212     -12.6454      2.00000
    213     -12.6440      2.00000
    214     -12.6419      2.00000
    215     -12.6405      2.00000
    216     -12.6389      2.00000
    217     -12.6353      2.00000
    218     -12.6345      2.00000
    219     -12.6327      2.00000
    220     -12.6317      2.00000
    221     -12.6312      2.00000
    222     -12.6264      2.00000
    223     -12.6259      2.00000
    224     -12.6219      2.00000
    225     -12.6211      2.00000
    226     -12.6209      2.00000
    227     -12.6178      2.00000
    228     -12.6153      2.00000
    229     -12.6142      2.00000
    230     -12.6127      2.00000
    231     -12.6106      2.00000
    232     -12.6094      2.00000
    233     -12.6090      2.00000
    234     -12.6071      2.00000
    235     -12.6060      2.00000
    236     -12.6055      2.00000
    237     -12.6042      2.00000
    238     -12.6035      2.00000
    239     -12.5993      2.00000
    240     -12.5973      2.00000
    241     -12.5965      2.00000
    242     -12.5955      2.00000
    243     -12.5935      2.00000
    244     -12.5902      2.00000
    245     -12.5884      2.00000
    246     -12.5872      2.00000
    247     -12.5815      2.00000
    248     -12.5778      2.00000
    249     -12.5773      2.00000
    250     -12.5608      2.00000
    251     -12.5584      2.00000
    252     -12.5564      2.00000
    253     -12.5540      2.00000
    254     -12.5508      2.00000
    255     -12.5490      2.00000
    256     -12.5465      2.00000
    257     -12.5385      2.00000
    258     -12.5369      2.00000
    259     -12.5339      2.00000
    260     -12.5024      2.00000
    261     -12.4841      2.00000
    262     -12.4694      2.00000
    263     -12.4681      2.00000
    264     -12.4568      2.00000
    265     -12.4529      2.00000
    266     -12.4079      2.00000
    267     -12.4022      2.00000
    268     -12.3984      2.00000
    269     -12.3584      2.00000
    270     -12.3387      2.00000
    271     -12.3385      2.00000
    272     -12.3351      2.00000
    273     -12.3124      2.00000
    274     -12.3091      2.00000
    275     -12.2916      2.00000
    276     -12.2721      2.00000
    277     -12.2713      2.00000
    278     -12.2223      2.00000
    279     -12.2212      2.00000
    280     -12.1905      2.00000
    281     -12.1888      2.00000
    282     -12.1389      2.00000
    283     -12.0834      2.00000
    284     -12.0821      2.00000
    285     -12.0432      2.00000
    286     -11.9858      2.00000
    287     -11.9848      2.00000
    288     -11.9755      2.00000
    289     -11.9714      2.00000
    290     -11.9671      2.00000
    291     -11.9646      2.00000
    292     -11.9477      2.00000
    293     -11.9351      2.00000
    294     -11.9288      2.00000
    295     -11.9100      2.00000
    296     -11.8983      2.00000
    297     -11.8933      2.00000
    298     -11.8859      2.00000
    299     -11.8788      2.00000
    300     -11.8775      2.00000
    301     -11.8744      2.00000
    302     -11.7934      2.00000
    303     -11.7906      2.00000
    304     -11.7668      2.00000
    305     -11.7628      2.00000
    306     -11.7398      2.00000
    307     -11.7245      2.00000
    308      -4.9826      2.00000
    309      -4.9637      2.00000
    310      -4.5481      2.00000
    311      -4.5425      2.00000
    312      -4.5385      2.00000
    313      -4.5121      2.00000
    314      -4.5035      2.00000
    315      -4.4855      2.00000
    316      -4.4357      2.00000
    317      -4.4309      2.00000
    318      -4.4120      2.00000
    319      -4.3896      2.00000
    320      -4.2613      2.00000
    321      -4.2477      2.00000
    322      -4.2437      2.00000
    323      -4.1941      2.00000
    324      -4.1192      2.00000
    325      -4.1055      2.00000
    326      -4.0995      2.00000
    327      -4.0752      2.00000
    328      -3.9939      2.00000
    329      -3.9932      2.00000
    330      -3.9614      2.00000
    331      -3.9564      2.00000
    332      -3.9513      2.00000
    333      -3.8768      2.00000
    334      -3.7971      2.00000
    335      -3.7956      2.00000
    336      -3.7836      2.00000
    337      -3.7688      2.00000
    338      -3.7107      2.00000
    339      -3.6128      2.00000
    340      -3.2903      2.00000
    341      -3.2688      2.00000
    342      -3.1447      2.00000
    343      -3.1225      2.00000
    344      -3.1004      2.00000
    345      -3.0861      2.00000
    346      -3.0776      2.00000
    347      -3.0526      2.00000
    348      -3.0493      2.00000
    349      -3.0347      2.00000
    350      -3.0302      2.00000
    351      -2.8920      2.00000
    352      -2.7784      2.00000
    353      -2.7428      2.00000
    354      -2.6872      2.00000
    355      -2.6695      2.00000
    356      -2.4838      2.00000
    357      -2.4491      2.00000
    358      -2.4276      2.00000
    359      -2.3499      2.00000
    360      -2.2998      2.00000
    361      -2.2954      2.00000
    362      -2.2703      2.00000
    363      -2.2271      2.00000
    364      -2.1804      2.00000
    365      -2.1053      2.00000
    366      -2.1009      2.00000
    367      -2.0814      2.00000
    368      -2.0418      2.00000
    369      -1.9983      2.00000
    370      -1.8496      2.00000
    371      -1.8207      2.00000
    372      -1.8105      2.00000
    373      -1.7640      2.00000
    374      -1.7579      2.00000
    375      -1.7261      2.00000
    376      -1.7253      2.00000
    377      -1.7172      2.00000
    378      -1.7003      2.00000
    379      -1.6633      2.00000
    380      -1.6278      2.00000
    381      -1.5972      2.00000
    382      -1.5392      2.00000
    383      -1.5291      2.00000
    384      -1.5007      2.00000
    385      -1.4505      2.00000
    386      -1.3970      2.00000
    387      -1.3814      2.00000
    388      -1.3462      2.00000
    389      -1.3374      2.00000
    390      -1.3120      2.00000
    391      -1.2896      2.00000
    392      -1.2847      2.00000
    393      -1.2671      2.00000
    394      -1.2133      2.00000
    395      -1.1192      2.00000
    396      -1.0423      2.00000
    397      -0.9797      2.00000
    398      -0.9435      2.00000
    399      -0.9376      2.00000
    400      -0.9070      2.00000
    401      -0.9008      2.00000
    402      -0.8737      2.00000
    403      -0.8708      2.00000
    404      -0.8489      2.00000
    405      -0.7966      2.00000
    406      -0.7534      2.00000
    407      -0.6945      2.00000
    408      -0.6184      2.00000
    409      -0.5362      2.00000
    410      -0.4872      2.00000
    411      -0.4766      2.00000
    412      -0.4241      2.00000
    413      -0.3796      2.00000
    414      -0.3410      2.00000
    415      -0.3229      2.00000
    416      -0.2985      2.00000
    417      -0.2891      2.00000
    418      -0.2723      2.00000
    419      -0.2581      2.00000
    420      -0.2162      2.00000
    421      -0.2120      2.00000
    422      -0.1928      2.00000
    423      -0.1790      2.00000
    424      -0.1739      2.00000
    425      -0.1549      2.00000
    426      -0.0889      2.00000
    427      -0.0851      2.00000
    428      -0.0770      2.00000
    429      -0.0660      2.00000
    430      -0.0241      2.00000
    431       0.0157      2.00000
    432       0.0373      2.00000
    433       0.0815      2.00000
    434       0.1006      2.00000
    435       0.1265      2.00000
    436       0.1304      2.00000
    437       0.1344      2.00000
    438       0.1655      2.00000
    439       0.1732      2.00000
    440       0.2006      2.00000
    441       0.2294      2.00000
    442       0.2597      2.00000
    443       0.2835      2.00000
    444       0.2869      2.00000
    445       0.3406      2.00000
    446       0.3656      2.00000
    447       0.3874      2.00000
    448       0.4099      2.00000
    449       0.4623      2.00000
    450       0.4961      2.00000
    451       0.5258      2.00000
    452       0.5322      2.00000
    453       0.5497      2.00000
    454       0.5679      2.00000
    455       0.6055      2.00000
    456       0.6213      2.00000
    457       0.6342      2.00000
    458       0.6455      2.00000
    459       0.6458      2.00000
    460       0.6829      2.00000
    461       0.7004      2.00000
    462       0.7322      2.00000
    463       0.7776      2.00000
    464       0.7945      2.00000
    465       0.8022      2.00000
    466       0.8207      2.00000
    467       0.8277      2.00000
    468       0.8804      2.00000
    469       0.9426      2.00000
    470       0.9465      2.00000
    471       0.9715      2.00000
    472       0.9959      2.00000
    473       0.9993      2.00000
    474       1.0209      2.00000
    475       1.0465      2.00000
    476       1.0700      2.00000
    477       1.0737      2.00000
    478       1.0890      2.00000
    479       1.1146      2.00000
    480       1.1235      2.00000
    481       1.1312      2.00000
    482       1.1499      2.00000
    483       1.1858      2.00000
    484       1.2024      2.00000
    485       1.2373      2.00000
    486       1.2401      2.00000
    487       1.2709      2.00000
    488       1.2816      2.00000
    489       1.2911      2.00000
    490       1.3077      2.00000
    491       1.3219      2.00000
    492       1.3523      2.00000
    493       1.3612      2.00000
    494       1.3786      2.00000
    495       1.3837      2.00000
    496       1.3970      2.00000
    497       1.4274      2.00000
    498       1.4280      2.00000
    499       1.4438      2.00000
    500       1.4585      2.00000
    501       1.4742      2.00000
    502       1.5084      2.00000
    503       1.5315      2.00000
    504       1.5625      2.00000
    505       1.5658      2.00000
    506       1.5706      2.00000
    507       1.5760      2.00000
    508       1.5871      2.00000
    509       1.5884      2.00000
    510       1.6044      2.00000
    511       1.6235      2.00000
    512       1.6967      2.00000
    513       1.7005      2.00000
    514       1.7364      2.00000
    515       1.7372      2.00000
    516       1.7398      2.00000
    517       1.7432      2.00000
    518       1.7547      2.00000
    519       1.7609      2.00000
    520       1.9141      2.00000
    521       1.9489      2.00000
    522       1.9599      2.00000
    523       1.9980      2.00000
    524       2.1443      2.00000
    525       2.2219      2.00000
    526       4.2385      1.04809
    527       7.8988      0.00000
    528       7.9632      0.00000
    529       8.1087      0.00000
    530       8.4603      0.00000
    531       8.4642      0.00000
    532       8.5353      0.00000
    533      10.2264      0.00000
    534      10.2378      0.00000
    535      10.3494      0.00000
    536      10.4376      0.00000
    537      10.6034      0.00000
    538      10.6070      0.00000
    539      10.6109      0.00000
    540      10.6192      0.00000
    541      10.6220      0.00000
    542      10.6321      0.00000
    543      10.6522      0.00000
    544      10.6626      0.00000
    545      10.6726      0.00000
    546      10.7163      0.00000
    547      10.7499      0.00000
    548      10.7605      0.00000
    549      10.7904      0.00000
    550      10.8652      0.00000
    551      10.9425      0.00000
    552      10.9654      0.00000
    553      11.0623      0.00000
    554      11.1144      0.00000
    555      11.1641      0.00000
    556      11.1761      0.00000
    557      11.1995      0.00000
    558      11.3146      0.00000
    559      11.3333      0.00000
    560      11.4665      0.00000
    561      11.6194      0.00000
    562      11.6293      0.00000
    563      11.6530      0.00000
    564      11.6544      0.00000
    565      11.7024      0.00000
    566      11.7805      0.00000
    567      11.9521      0.00000
    568      11.9794      0.00000
    569      11.9918      0.00000
    570      12.1427      0.00000
    571      12.4498      0.00000
    572      12.4910      0.00000
    573      12.5509      0.00000
    574      12.5528      0.00000
    575      12.5659      0.00000
    576      12.6000      0.00000
    577      12.6605      0.00000
    578      12.6624      0.00000
    579      12.6639      0.00000
    580      12.8593      0.00000
    581      12.9354      0.00000
    582      13.0890      0.00000
    583      13.1247      0.00000
    584      13.2719      0.00000
    585      13.2763      0.00000
    586      13.3374      0.00000
    587      13.3492      0.00000
    588      13.4900      0.00000
    589      13.5500      0.00000
    590      13.5776      0.00000
    591      13.5801      0.00000
    592      13.7198      0.00000
    593      13.7367      0.00000
    594      13.7511      0.00000
    595      13.7779      0.00000
    596      13.9500      0.00000
    597      13.9739      0.00000
    598      14.0079      0.00000
    599      14.0617      0.00000
    600      14.1044      0.00000
    601      14.1272      0.00000
    602      14.1608      0.00000
    603      14.3011      0.00000
    604      14.3839      0.00000
    605      14.5096      0.00000
    606      14.5439      0.00000
    607      14.5782      0.00000
    608      14.6303      0.00000
    609      14.6598      0.00000
    610      14.7626      0.00000
    611      14.8739      0.00000
    612      14.9846      0.00000
    613      15.0465      0.00000
    614      15.2005      0.00000
    615      15.2979      0.00000
    616      15.3798      0.00000
    617      15.4362      0.00000
    618      15.5884      0.00000
    619      15.6509      0.00000
    620      15.7145      0.00000
    621      15.7437      0.00000
    622      15.8496      0.00000
    623      15.8840      0.00000
    624      15.9959      0.00000
    625      16.0787      0.00000
    626      16.1875      0.00000
    627      16.3381      0.00000
    628      16.5799      0.00000
    629      16.7802      0.00000
    630      16.9904      0.00000

 k-point     7 :       0.0000    0.5000    0.5000
  band No.  band energies     occupation 
      1     -18.3868      2.00000
      2     -18.3856      2.00000
      3     -18.3835      2.00000
      4     -18.3577      2.00000
      5     -18.1475      2.00000
      6     -18.1429      2.00000
      7     -18.1403      2.00000
      8     -18.1124      2.00000
      9     -17.8932      2.00000
     10     -17.8860      2.00000
     11     -17.8844      2.00000
     12     -17.8689      2.00000
     13     -17.6239      2.00000
     14     -17.6199      2.00000
     15     -17.6194      2.00000
     16     -17.6102      2.00000
     17     -17.5598      2.00000
     18     -17.5518      2.00000
     19     -17.5515      2.00000
     20     -17.5377      2.00000
     21     -17.5139      2.00000
     22     -17.5104      2.00000
     23     -17.5064      2.00000
     24     -17.4828      2.00000
     25     -17.4591      2.00000
     26     -17.4568      2.00000
     27     -17.4484      2.00000
     28     -17.4279      2.00000
     29     -17.3919      2.00000
     30     -17.3880      2.00000
     31     -17.3760      2.00000
     32     -17.3674      2.00000
     33     -17.2959      2.00000
     34     -17.2907      2.00000
     35     -17.2769      2.00000
     36     -17.2598      2.00000
     37     -17.2542      2.00000
     38     -17.2506      2.00000
     39     -17.2489      2.00000
     40     -17.2261      2.00000
     41     -17.2147      2.00000
     42     -17.2057      2.00000
     43     -17.1977      2.00000
     44     -17.1921      2.00000
     45     -17.1616      2.00000
     46     -17.1573      2.00000
     47     -17.1558      2.00000
     48     -17.1102      2.00000
     49     -17.0682      2.00000
     50     -17.0641      2.00000
     51     -17.0591      2.00000
     52     -17.0495      2.00000
     53     -17.0028      2.00000
     54     -17.0013      2.00000
     55     -16.9947      2.00000
     56     -16.9815      2.00000
     57     -16.9604      2.00000
     58     -16.9545      2.00000
     59     -16.9436      2.00000
     60     -16.9431      2.00000
     61     -16.9350      2.00000
     62     -16.9317      2.00000
     63     -16.9175      2.00000
     64     -16.8601      2.00000
     65     -16.8546      2.00000
     66     -16.8510      2.00000
     67     -16.8451      2.00000
     68     -16.8405      2.00000
     69     -16.8321      2.00000
     70     -16.8300      2.00000
     71     -16.6826      2.00000
     72     -16.6433      2.00000
     73     -13.0589      2.00000
     74     -13.0585      2.00000
     75     -13.0495      2.00000
     76     -13.0458      2.00000
     77     -13.0259      2.00000
     78     -13.0258      2.00000
     79     -13.0210      2.00000
     80     -13.0203      2.00000
     81     -13.0139      2.00000
     82     -13.0129      2.00000
     83     -13.0127      2.00000
     84     -13.0107      2.00000
     85     -13.0083      2.00000
     86     -13.0031      2.00000
     87     -12.9945      2.00000
     88     -12.9932      2.00000
     89     -12.9884      2.00000
     90     -12.9871      2.00000
     91     -12.9814      2.00000
     92     -12.9811      2.00000
     93     -12.9810      2.00000
     94     -12.9789      2.00000
     95     -12.9759      2.00000
     96     -12.9647      2.00000
     97     -12.9492      2.00000
     98     -12.9473      2.00000
     99     -12.9463      2.00000
    100     -12.9451      2.00000
    101     -12.9447      2.00000
    102     -12.9432      2.00000
    103     -12.9432      2.00000
    104     -12.9411      2.00000
    105     -12.9400      2.00000
    106     -12.9375      2.00000
    107     -12.9352      2.00000
    108     -12.9315      2.00000
    109     -12.9289      2.00000
    110     -12.9267      2.00000
    111     -12.9216      2.00000
    112     -12.9212      2.00000
    113     -12.9194      2.00000
    114     -12.9191      2.00000
    115     -12.9181      2.00000
    116     -12.9172      2.00000
    117     -12.9159      2.00000
    118     -12.9148      2.00000
    119     -12.9119      2.00000
    120     -12.9108      2.00000
    121     -12.9062      2.00000
    122     -12.9028      2.00000
    123     -12.9019      2.00000
    124     -12.9013      2.00000
    125     -12.9011      2.00000
    126     -12.8987      2.00000
    127     -12.8905      2.00000
    128     -12.8904      2.00000
    129     -12.8893      2.00000
    130     -12.8892      2.00000
    131     -12.8824      2.00000
    132     -12.8772      2.00000
    133     -12.8763      2.00000
    134     -12.8708      2.00000
    135     -12.8566      2.00000
    136     -12.8512      2.00000
    137     -12.8509      2.00000
    138     -12.8477      2.00000
    139     -12.8301      2.00000
    140     -12.8287      2.00000
    141     -12.8263      2.00000
    142     -12.8197      2.00000
    143     -12.8189      2.00000
    144     -12.8175      2.00000
    145     -12.8153      2.00000
    146     -12.8152      2.00000
    147     -12.8142      2.00000
    148     -12.8141      2.00000
    149     -12.8114      2.00000
    150     -12.8095      2.00000
    151     -12.8075      2.00000
    152     -12.8045      2.00000
    153     -12.8028      2.00000
    154     -12.8019      2.00000
    155     -12.7987      2.00000
    156     -12.7955      2.00000
    157     -12.7908      2.00000
    158     -12.7887      2.00000
    159     -12.7881      2.00000
    160     -12.7866      2.00000
    161     -12.7861      2.00000
    162     -12.7860      2.00000
    163     -12.7833      2.00000
    164     -12.7806      2.00000
    165     -12.7805      2.00000
    166     -12.7736      2.00000
    167     -12.7662      2.00000
    168     -12.7635      2.00000
    169     -12.7605      2.00000
    170     -12.7546      2.00000
    171     -12.7521      2.00000
    172     -12.7511      2.00000
    173     -12.7493      2.00000
    174     -12.7485      2.00000
    175     -12.7476      2.00000
    176     -12.7464      2.00000
    177     -12.7460      2.00000
    178     -12.7457      2.00000
    179     -12.7431      2.00000
    180     -12.7424      2.00000
    181     -12.7402      2.00000
    182     -12.7394      2.00000
    183     -12.7383      2.00000
    184     -12.7362      2.00000
    185     -12.7334      2.00000
    186     -12.7331      2.00000
    187     -12.7322      2.00000
    188     -12.7316      2.00000
    189     -12.7277      2.00000
    190     -12.7258      2.00000
    191     -12.7250      2.00000
    192     -12.7218      2.00000
    193     -12.7195      2.00000
    194     -12.7190      2.00000
    195     -12.7153      2.00000
    196     -12.7147      2.00000
    197     -12.7131      2.00000
    198     -12.7126      2.00000
    199     -12.7104      2.00000
    200     -12.7089      2.00000
    201     -12.7033      2.00000
    202     -12.6891      2.00000
    203     -12.6718      2.00000
    204     -12.6681      2.00000
    205     -12.6644      2.00000
    206     -12.6619      2.00000
    207     -12.6600      2.00000
    208     -12.6588      2.00000
    209     -12.6549      2.00000
    210     -12.6491      2.00000
    211     -12.6431      2.00000
    212     -12.6425      2.00000
    213     -12.6404      2.00000
    214     -12.6401      2.00000
    215     -12.6360      2.00000
    216     -12.6335      2.00000
    217     -12.6317      2.00000
    218     -12.6299      2.00000
    219     -12.6271      2.00000
    220     -12.6271      2.00000
    221     -12.6213      2.00000
    222     -12.6152      2.00000
    223     -12.6094      2.00000
    224     -12.6075      2.00000
    225     -12.6063      2.00000
    226     -12.6059      2.00000
    227     -12.6052      2.00000
    228     -12.6038      2.00000
    229     -12.6023      2.00000
    230     -12.5997      2.00000
    231     -12.5983      2.00000
    232     -12.5978      2.00000
    233     -12.5967      2.00000
    234     -12.5931      2.00000
    235     -12.5889      2.00000
    236     -12.5879      2.00000
    237     -12.5851      2.00000
    238     -12.5838      2.00000
    239     -12.5812      2.00000
    240     -12.5801      2.00000
    241     -12.5780      2.00000
    242     -12.5730      2.00000
    243     -12.5688      2.00000
    244     -12.5673      2.00000
    245     -12.5647      2.00000
    246     -12.5631      2.00000
    247     -12.5612      2.00000
    248     -12.5554      2.00000
    249     -12.5537      2.00000
    250     -12.5528      2.00000
    251     -12.5509      2.00000
    252     -12.5490      2.00000
    253     -12.5486      2.00000
    254     -12.5425      2.00000
    255     -12.5389      2.00000
    256     -12.5381      2.00000
    257     -12.5345      2.00000
    258     -12.5316      2.00000
    259     -12.5310      2.00000
    260     -12.5263      2.00000
    261     -12.5206      2.00000
    262     -12.5151      2.00000
    263     -12.5135      2.00000
    264     -12.4362      2.00000
    265     -12.4127      2.00000
    266     -12.3757      2.00000
    267     -12.3751      2.00000
    268     -12.3669      2.00000
    269     -12.3550      2.00000
    270     -12.3414      2.00000
    271     -12.3393      2.00000
    272     -12.3392      2.00000
    273     -12.3376      2.00000
    274     -12.3357      2.00000
    275     -12.3312      2.00000
    276     -12.2532      2.00000
    277     -12.2449      2.00000
    278     -12.2381      2.00000
    279     -12.2353      2.00000
    280     -12.1872      2.00000
    281     -12.1789      2.00000
    282     -12.1675      2.00000
    283     -12.1533      2.00000
    284     -12.1125      2.00000
    285     -12.0870      2.00000
    286     -12.0561      2.00000
    287     -12.0474      2.00000
    288     -12.0439      2.00000
    289     -12.0317      2.00000
    290     -12.0187      2.00000
    291     -12.0167      2.00000
    292     -11.9945      2.00000
    293     -11.9865      2.00000
    294     -11.9689      2.00000
    295     -11.9681      2.00000
    296     -11.9191      2.00000
    297     -11.8325      2.00000
    298     -11.8034      2.00000
    299     -11.8022      2.00000
    300     -11.8004      2.00000
    301     -11.7937      2.00000
    302     -11.7913      2.00000
    303     -11.7856      2.00000
    304     -11.7440      2.00000
    305     -11.6981      2.00000
    306     -11.6941      2.00000
    307     -11.6907      2.00000
    308      -4.7741      2.00000
    309      -4.7599      2.00000
    310      -4.7428      2.00000
    311      -4.7273      2.00000
    312      -4.7235      2.00000
    313      -4.7177      2.00000
    314      -4.7151      2.00000
    315      -4.6609      2.00000
    316      -4.5290      2.00000
    317      -4.5228      2.00000
    318      -4.5112      2.00000
    319      -4.5080      2.00000
    320      -4.4909      2.00000
    321      -4.4857      2.00000
    322      -4.4771      2.00000
    323      -4.3522      2.00000
    324      -4.2785      2.00000
    325      -4.2639      2.00000
    326      -4.2193      2.00000
    327      -4.1877      2.00000
    328      -3.9614      2.00000
    329      -3.9453      2.00000
    330      -3.9402      2.00000
    331      -3.9356      2.00000
    332      -3.7531      2.00000
    333      -3.7349      2.00000
    334      -3.7210      2.00000
    335      -3.7200      2.00000
    336      -3.6721      2.00000
    337      -3.6418      2.00000
    338      -3.6367      2.00000
    339      -3.5490      2.00000
    340      -3.4287      2.00000
    341      -3.4133      2.00000
    342      -3.4044      2.00000
    343      -3.2542      2.00000
    344      -2.9029      2.00000
    345      -2.8999      2.00000
    346      -2.8927      2.00000
    347      -2.8909      2.00000
    348      -2.8818      2.00000
    349      -2.8700      2.00000
    350      -2.8328      2.00000
    351      -2.5918      2.00000
    352      -2.5089      2.00000
    353      -2.4463      2.00000
    354      -2.4448      2.00000
    355      -2.4011      2.00000
    356      -2.3945      2.00000
    357      -2.3803      2.00000
    358      -2.3662      2.00000
    359      -2.3234      2.00000
    360      -2.2723      2.00000
    361      -2.2635      2.00000
    362      -2.2528      2.00000
    363      -2.1961      2.00000
    364      -1.9667      2.00000
    365      -1.9183      2.00000
    366      -1.9010      2.00000
    367      -1.8749      2.00000
    368      -1.8532      2.00000
    369      -1.8327      2.00000
    370      -1.8088      2.00000
    371      -1.8000      2.00000
    372      -1.7926      2.00000
    373      -1.7686      2.00000
    374      -1.7678      2.00000
    375      -1.7482      2.00000
    376      -1.7440      2.00000
    377      -1.7377      2.00000
    378      -1.7034      2.00000
    379      -1.6988      2.00000
    380      -1.5321      2.00000
    381      -1.4785      2.00000
    382      -1.4775      2.00000
    383      -1.4737      2.00000
    384      -1.3690      2.00000
    385      -1.3433      2.00000
    386      -1.2904      2.00000
    387      -1.2892      2.00000
    388      -1.2658      2.00000
    389      -1.2636      2.00000
    390      -1.2504      2.00000
    391      -1.2167      2.00000
    392      -1.1752      2.00000
    393      -1.1524      2.00000
    394      -1.1325      2.00000
    395      -1.1076      2.00000
    396      -1.0128      2.00000
    397      -1.0082      2.00000
    398      -0.9403      2.00000
    399      -0.9017      2.00000
    400      -0.8883      2.00000
    401      -0.8861      2.00000
    402      -0.8584      2.00000
    403      -0.8440      2.00000
    404      -0.7166      2.00000
    405      -0.7122      2.00000
    406      -0.6718      2.00000
    407      -0.6354      2.00000
    408      -0.6156      2.00000
    409      -0.6118      2.00000
    410      -0.6066      2.00000
    411      -0.6022      2.00000
    412      -0.5998      2.00000
    413      -0.5951      2.00000
    414      -0.5792      2.00000
    415      -0.5652      2.00000
    416      -0.5602      2.00000
    417      -0.5317      2.00000
    418      -0.4946      2.00000
    419      -0.4877      2.00000
    420      -0.4845      2.00000
    421      -0.4248      2.00000
    422      -0.3764      2.00000
    423      -0.3010      2.00000
    424      -0.2943      2.00000
    425      -0.2558      2.00000
    426      -0.0156      2.00000
    427      -0.0053      2.00000
    428       0.0127      2.00000
    429       0.0345      2.00000
    430       0.0545      2.00000
    431       0.0897      2.00000
    432       0.1137      2.00000
    433       0.1217      2.00000
    434       0.1378      2.00000
    435       0.1972      2.00000
    436       0.2099      2.00000
    437       0.2202      2.00000
    438       0.2245      2.00000
    439       0.2377      2.00000
    440       0.2772      2.00000
    441       0.2981      2.00000
    442       0.3187      2.00000
    443       0.3409      2.00000
    444       0.3546      2.00000
    445       0.3554      2.00000
    446       0.3585      2.00000
    447       0.3754      2.00000
    448       0.4026      2.00000
    449       0.4153      2.00000
    450       0.4323      2.00000
    451       0.4579      2.00000
    452       0.4683      2.00000
    453       0.4983      2.00000
    454       0.5314      2.00000
    455       0.5551      2.00000
    456       0.5632      2.00000
    457       0.5990      2.00000
    458       0.6068      2.00000
    459       0.6151      2.00000
    460       0.6231      2.00000
    461       0.6327      2.00000
    462       0.6363      2.00000
    463       0.6590      2.00000
    464       0.6725      2.00000
    465       0.7561      2.00000
    466       0.7786      2.00000
    467       0.7877      2.00000
    468       0.7948      2.00000
    469       0.8004      2.00000
    470       0.8249      2.00000
    471       0.8358      2.00000
    472       0.8510      2.00000
    473       0.8647      2.00000
    474       0.8860      2.00000
    475       0.9051      2.00000
    476       0.9858      2.00000
    477       1.0159      2.00000
    478       1.0429      2.00000
    479       1.1096      2.00000
    480       1.1230      2.00000
    481       1.1324      2.00000
    482       1.1372      2.00000
    483       1.1527      2.00000
    484       1.1595      2.00000
    485       1.1629      2.00000
    486       1.1664      2.00000
    487       1.1825      2.00000
    488       1.2213      2.00000
    489       1.2443      2.00000
    490       1.2920      2.00000
    491       1.2944      2.00000
    492       1.3155      2.00000
    493       1.3238      2.00000
    494       1.3412      2.00000
    495       1.3532      2.00000
    496       1.4020      2.00000
    497       1.4339      2.00000
    498       1.4538      2.00000
    499       1.4757      2.00000
    500       1.4777      2.00000
    501       1.4830      2.00000
    502       1.4846      2.00000
    503       1.4938      2.00000
    504       1.5438      2.00000
    505       1.5702      2.00000
    506       1.5890      2.00000
    507       1.5901      2.00000
    508       1.6249      2.00000
    509       1.6259      2.00000
    510       1.6284      2.00000
    511       1.6418      2.00000
    512       1.6504      2.00000
    513       1.6511      2.00000
    514       1.6730      2.00000
    515       1.6789      2.00000
    516       1.7073      2.00000
    517       1.7270      2.00000
    518       1.7332      2.00000
    519       1.7615      2.00000
    520       1.9886      2.00000
    521       1.9930      2.00000
    522       2.0057      2.00000
    523       2.0262      2.00000
    524       2.1275      2.00000
    525       2.1964      2.00000
    526       4.2403      1.00411
    527       8.1216      0.00000
    528       8.2198      0.00000
    529       8.6420      0.00000
    530       8.6426      0.00000
    531       8.7907      0.00000
    532       8.8067      0.00000
    533       9.7264      0.00000
    534       9.7331      0.00000
    535       9.7553      0.00000
    536       9.8042      0.00000
    537      10.3408      0.00000
    538      10.3415      0.00000
    539      10.3657      0.00000
    540      10.4126      0.00000
    541      10.6121      0.00000
    542      10.6184      0.00000
    543      10.6295      0.00000
    544      10.7799      0.00000
    545      10.8007      0.00000
    546      10.8086      0.00000
    547      10.8170      0.00000
    548      10.8836      0.00000
    549      11.2240      0.00000
    550      11.2310      0.00000
    551      11.2468      0.00000
    552      11.3611      0.00000
    553      11.6384      0.00000
    554      11.6524      0.00000
    555      11.6798      0.00000
    556      11.6803      0.00000
    557      11.6849      0.00000
    558      11.6854      0.00000
    559      11.6899      0.00000
    560      11.8544      0.00000
    561      11.8646      0.00000
    562      11.8699      0.00000
    563      11.8819      0.00000
    564      11.9245      0.00000
    565      11.9344      0.00000
    566      11.9554      0.00000
    567      11.9651      0.00000
    568      12.1865      0.00000
    569      12.3281      0.00000
    570      12.3458      0.00000
    571      12.3462      0.00000
    572      12.3910      0.00000
    573      12.4087      0.00000
    574      12.4271      0.00000
    575      12.4405      0.00000
    576      12.4657      0.00000
    577      12.4787      0.00000
    578      12.4889      0.00000
    579      12.4937      0.00000
    580      12.5692      0.00000
    581      12.6108      0.00000
    582      12.6149      0.00000
    583      12.6573      0.00000
    584      12.9729      0.00000
    585      13.0453      0.00000
    586      13.0512      0.00000
    587      13.1104      0.00000
    588      13.2622      0.00000
    589      13.3419      0.00000
    590      13.3583      0.00000
    591      13.3661      0.00000
    592      13.4947      0.00000
    593      13.5450      0.00000
    594      13.5745      0.00000
    595      13.6046      0.00000
    596      13.6093      0.00000
    597      13.6264      0.00000
    598      13.6552      0.00000
    599      13.6967      0.00000
    600      14.3164      0.00000
    601      14.4031      0.00000
    602      14.4131      0.00000
    603      14.4368      0.00000
    604      14.5067      0.00000
    605      14.6058      0.00000
    606      14.6480      0.00000
    607      14.6806      0.00000
    608      14.7020      0.00000
    609      14.7332      0.00000
    610      14.7692      0.00000
    611      14.8462      0.00000
    612      14.8692      0.00000
    613      14.9332      0.00000
    614      14.9480      0.00000
    615      15.0095      0.00000
    616      15.0829      0.00000
    617      15.2632      0.00000
    618      15.3805      0.00000
    619      15.4308      0.00000
    620      15.5012      0.00000
    621      15.5533      0.00000
    622      15.7227      0.00000
    623      15.8248      0.00000
    624      15.8634      0.00000
    625      15.9316      0.00000
    626      15.9919      0.00000
    627      16.1244      0.00000
    628      16.1893      0.00000
    629      16.2351      0.00000
    630      16.4361      0.00000

 k-point     8 :       0.5000    0.5000    0.5000
  band No.  band energies     occupation 
      1     -18.3418      2.00000
      2     -18.3343      2.00000
      3     -18.3343      2.00000
      4     -18.3208      2.00000
      5     -18.2473      2.00000
      6     -18.2415      2.00000
      7     -18.2369      2.00000
      8     -18.2142      2.00000
      9     -17.8011      2.00000
     10     -17.7960      2.00000
     11     -17.7946      2.00000
     12     -17.7759      2.00000
     13     -17.5953      2.00000
     14     -17.5884      2.00000
     15     -17.5851      2.00000
     16     -17.5767      2.00000
     17     -17.5591      2.00000
     18     -17.5588      2.00000
     19     -17.5530      2.00000
     20     -17.5411      2.00000
     21     -17.5374      2.00000
     22     -17.5351      2.00000
     23     -17.5305      2.00000
     24     -17.5265      2.00000
     25     -17.5223      2.00000
     26     -17.5180      2.00000
     27     -17.5130      2.00000
     28     -17.4633      2.00000
     29     -17.4013      2.00000
     30     -17.3945      2.00000
     31     -17.3818      2.00000
     32     -17.3784      2.00000
     33     -17.2842      2.00000
     34     -17.2773      2.00000
     35     -17.2632      2.00000
     36     -17.2485      2.00000
     37     -17.2306      2.00000
     38     -17.2252      2.00000
     39     -17.2231      2.00000
     40     -17.2216      2.00000
     41     -17.2106      2.00000
     42     -17.2078      2.00000
     43     -17.2029      2.00000
     44     -17.2017      2.00000
     45     -17.1729      2.00000
     46     -17.1648      2.00000
     47     -17.1642      2.00000
     48     -17.1188      2.00000
     49     -17.0593      2.00000
     50     -17.0522      2.00000
     51     -17.0507      2.00000
     52     -17.0452      2.00000
     53     -17.0091      2.00000
     54     -17.0067      2.00000
     55     -16.9982      2.00000
     56     -16.9855      2.00000
     57     -16.9603      2.00000
     58     -16.9544      2.00000
     59     -16.9440      2.00000
     60     -16.9434      2.00000
     61     -16.9349      2.00000
     62     -16.9318      2.00000
     63     -16.9178      2.00000
     64     -16.8544      2.00000
     65     -16.8478      2.00000
     66     -16.8453      2.00000
     67     -16.8444      2.00000
     68     -16.8425      2.00000
     69     -16.8375      2.00000
     70     -16.8353      2.00000
     71     -16.6828      2.00000
     72     -16.6434      2.00000
     73     -13.0527      2.00000
     74     -13.0521      2.00000
     75     -13.0480      2.00000
     76     -13.0460      2.00000
     77     -13.0348      2.00000
     78     -13.0341      2.00000
     79     -13.0278      2.00000
     80     -13.0235      2.00000
     81     -13.0124      2.00000
     82     -13.0122      2.00000
     83     -13.0071      2.00000
     84     -13.0068      2.00000
     85     -13.0044      2.00000
     86     -13.0031      2.00000
     87     -12.9941      2.00000
     88     -12.9925      2.00000
     89     -12.9890      2.00000
     90     -12.9877      2.00000
     91     -12.9858      2.00000
     92     -12.9807      2.00000
     93     -12.9786      2.00000
     94     -12.9778      2.00000
     95     -12.9759      2.00000
     96     -12.9645      2.00000
     97     -12.9488      2.00000
     98     -12.9485      2.00000
     99     -12.9472      2.00000
    100     -12.9459      2.00000
    101     -12.9454      2.00000
    102     -12.9445      2.00000
    103     -12.9417      2.00000
    104     -12.9412      2.00000
    105     -12.9389      2.00000
    106     -12.9368      2.00000
    107     -12.9367      2.00000
    108     -12.9342      2.00000
    109     -12.9339      2.00000
    110     -12.9306      2.00000
    111     -12.9249      2.00000
    112     -12.9243      2.00000
    113     -12.9229      2.00000
    114     -12.9215      2.00000
    115     -12.9187      2.00000
    116     -12.9173      2.00000
    117     -12.9161      2.00000
    118     -12.9131      2.00000
    119     -12.9115      2.00000
    120     -12.9076      2.00000
    121     -12.9062      2.00000
    122     -12.9053      2.00000
    123     -12.9047      2.00000
    124     -12.9015      2.00000
    125     -12.8997      2.00000
    126     -12.8944      2.00000
    127     -12.8915      2.00000
    128     -12.8895      2.00000
    129     -12.8891      2.00000
    130     -12.8844      2.00000
    131     -12.8733      2.00000
    132     -12.8696      2.00000
    133     -12.8684      2.00000
    134     -12.8681      2.00000
    135     -12.8474      2.00000
    136     -12.8399      2.00000
    137     -12.8386      2.00000
    138     -12.8332      2.00000
    139     -12.8329      2.00000
    140     -12.8278      2.00000
    141     -12.8258      2.00000
    142     -12.8216      2.00000
    143     -12.8192      2.00000
    144     -12.8168      2.00000
    145     -12.8158      2.00000
    146     -12.8120      2.00000
    147     -12.8103      2.00000
    148     -12.8063      2.00000
    149     -12.8017      2.00000
    150     -12.8015      2.00000
    151     -12.8006      2.00000
    152     -12.7992      2.00000
    153     -12.7977      2.00000
    154     -12.7944      2.00000
    155     -12.7904      2.00000
    156     -12.7890      2.00000
    157     -12.7884      2.00000
    158     -12.7867      2.00000
    159     -12.7849      2.00000
    160     -12.7835      2.00000
    161     -12.7819      2.00000
    162     -12.7817      2.00000
    163     -12.7792      2.00000
    164     -12.7783      2.00000
    165     -12.7773      2.00000
    166     -12.7743      2.00000
    167     -12.7742      2.00000
    168     -12.7722      2.00000
    169     -12.7675      2.00000
    170     -12.7593      2.00000
    171     -12.7565      2.00000
    172     -12.7536      2.00000
    173     -12.7522      2.00000
    174     -12.7515      2.00000
    175     -12.7488      2.00000
    176     -12.7484      2.00000
    177     -12.7480      2.00000
    178     -12.7464      2.00000
    179     -12.7436      2.00000
    180     -12.7431      2.00000
    181     -12.7384      2.00000
    182     -12.7356      2.00000
    183     -12.7347      2.00000
    184     -12.7335      2.00000
    185     -12.7323      2.00000
    186     -12.7310      2.00000
    187     -12.7300      2.00000
    188     -12.7284      2.00000
    189     -12.7267      2.00000
    190     -12.7244      2.00000
    191     -12.7220      2.00000
    192     -12.7218      2.00000
    193     -12.7216      2.00000
    194     -12.7196      2.00000
    195     -12.7135      2.00000
    196     -12.7126      2.00000
    197     -12.7059      2.00000
    198     -12.7031      2.00000
    199     -12.7011      2.00000
    200     -12.6935      2.00000
    201     -12.6921      2.00000
    202     -12.6890      2.00000
    203     -12.6835      2.00000
    204     -12.6832      2.00000
    205     -12.6827      2.00000
    206     -12.6694      2.00000
    207     -12.6667      2.00000
    208     -12.6628      2.00000
    209     -12.6568      2.00000
    210     -12.6533      2.00000
    211     -12.6423      2.00000
    212     -12.6403      2.00000
    213     -12.6387      2.00000
    214     -12.6342      2.00000
    215     -12.6313      2.00000
    216     -12.6287      2.00000
    217     -12.6285      2.00000
    218     -12.6273      2.00000
    219     -12.6268      2.00000
    220     -12.6265      2.00000
    221     -12.6241      2.00000
    222     -12.6218      2.00000
    223     -12.6204      2.00000
    224     -12.6184      2.00000
    225     -12.6150      2.00000
    226     -12.6087      2.00000
    227     -12.6070      2.00000
    228     -12.6066      2.00000
    229     -12.6050      2.00000
    230     -12.6039      2.00000
    231     -12.6011      2.00000
    232     -12.5998      2.00000
    233     -12.5991      2.00000
    234     -12.5974      2.00000
    235     -12.5953      2.00000
    236     -12.5923      2.00000
    237     -12.5920      2.00000
    238     -12.5869      2.00000
    239     -12.5850      2.00000
    240     -12.5849      2.00000
    241     -12.5826      2.00000
    242     -12.5742      2.00000
    243     -12.5702      2.00000
    244     -12.5672      2.00000
    245     -12.5651      2.00000
    246     -12.5635      2.00000
    247     -12.5623      2.00000
    248     -12.5612      2.00000
    249     -12.5567      2.00000
    250     -12.5562      2.00000
    251     -12.5543      2.00000
    252     -12.5517      2.00000
    253     -12.5490      2.00000
    254     -12.5487      2.00000
    255     -12.5467      2.00000
    256     -12.5442      2.00000
    257     -12.5416      2.00000
    258     -12.5384      2.00000
    259     -12.5357      2.00000
    260     -12.5327      2.00000
    261     -12.5267      2.00000
    262     -12.5226      2.00000
    263     -12.5218      2.00000
    264     -12.4912      2.00000
    265     -12.4875      2.00000
    266     -12.4843      2.00000
    267     -12.4825      2.00000
    268     -12.3884      2.00000
    269     -12.3787      2.00000
    270     -12.3669      2.00000
    271     -12.3663      2.00000
    272     -12.2993      2.00000
    273     -12.2902      2.00000
    274     -12.2546      2.00000
    275     -12.2526      2.00000
    276     -12.2452      2.00000
    277     -12.2023      2.00000
    278     -12.1793      2.00000
    279     -12.1789      2.00000
    280     -12.1751      2.00000
    281     -12.1674      2.00000
    282     -12.1622      2.00000
    283     -12.1526      2.00000
    284     -12.1063      2.00000
    285     -12.0722      2.00000
    286     -12.0548      2.00000
    287     -12.0424      2.00000
    288     -12.0231      2.00000
    289     -12.0214      2.00000
    290     -11.9833      2.00000
    291     -11.9832      2.00000
    292     -11.9478      2.00000
    293     -11.9371      2.00000
    294     -11.9217      2.00000
    295     -11.9181      2.00000
    296     -11.9016      2.00000
    297     -11.8447      2.00000
    298     -11.8152      2.00000
    299     -11.8100      2.00000
    300     -11.8099      2.00000
    301     -11.7921      2.00000
    302     -11.7819      2.00000
    303     -11.7811      2.00000
    304     -11.7784      2.00000
    305     -11.7745      2.00000
    306     -11.7727      2.00000
    307     -11.7712      2.00000
    308      -4.8732      2.00000
    309      -4.8338      2.00000
    310      -4.8138      2.00000
    311      -4.8131      2.00000
    312      -4.7956      2.00000
    313      -4.7803      2.00000
    314      -4.7667      2.00000
    315      -4.6934      2.00000
    316      -4.4515      2.00000
    317      -4.4514      2.00000
    318      -4.4447      2.00000
    319      -4.4385      2.00000
    320      -4.4183      2.00000
    321      -4.4130      2.00000
    322      -4.3644      2.00000
    323      -4.3486      2.00000
    324      -4.1560      2.00000
    325      -4.1294      2.00000
    326      -4.1259      2.00000
    327      -4.0710      2.00000
    328      -3.8613      2.00000
    329      -3.8000      2.00000
    330      -3.7939      2.00000
    331      -3.7840      2.00000
    332      -3.7801      2.00000
    333      -3.7684      2.00000
    334      -3.7574      2.00000
    335      -3.7566      2.00000
    336      -3.7494      2.00000
    337      -3.7318      2.00000
    338      -3.7199      2.00000
    339      -3.6148      2.00000
    340      -3.4670      2.00000
    341      -3.4575      2.00000
    342      -3.4527      2.00000
    343      -3.3249      2.00000
    344      -3.2255      2.00000
    345      -3.2216      2.00000
    346      -3.2186      2.00000
    347      -2.9249      2.00000
    348      -2.9215      2.00000
    349      -2.9099      2.00000
    350      -2.8667      2.00000
    351      -2.7467      2.00000
    352      -2.6660      2.00000
    353      -2.5459      2.00000
    354      -2.5445      2.00000
    355      -2.4983      2.00000
    356      -2.3548      2.00000
    357      -2.3348      2.00000
    358      -2.3046      2.00000
    359      -2.2685      2.00000
    360      -2.0762      2.00000
    361      -2.0110      2.00000
    362      -1.9994      2.00000
    363      -1.9856      2.00000
    364      -1.9230      2.00000
    365      -1.8834      2.00000
    366      -1.8712      2.00000
    367      -1.8631      2.00000
    368      -1.8519      2.00000
    369      -1.8328      2.00000
    370      -1.8231      2.00000
    371      -1.8181      2.00000
    372      -1.6954      2.00000
    373      -1.6776      2.00000
    374      -1.6539      2.00000
    375      -1.6471      2.00000
    376      -1.6193      2.00000
    377      -1.5994      2.00000
    378      -1.5940      2.00000
    379      -1.5916      2.00000
    380      -1.5348      2.00000
    381      -1.5153      2.00000
    382      -1.4935      2.00000
    383      -1.4867      2.00000
    384      -1.3956      2.00000
    385      -1.3885      2.00000
    386      -1.3473      2.00000
    387      -1.3350      2.00000
    388      -1.3279      2.00000
    389      -1.2704      2.00000
    390      -1.2606      2.00000
    391      -1.2054      2.00000
    392      -1.1154      2.00000
    393      -1.0454      2.00000
    394      -1.0284      2.00000
    395      -0.9710      2.00000
    396      -0.9703      2.00000
    397      -0.9519      2.00000
    398      -0.8701      2.00000
    399      -0.8544      2.00000
    400      -0.8466      2.00000
    401      -0.8186      2.00000
    402      -0.8054      2.00000
    403      -0.8000      2.00000
    404      -0.7767      2.00000
    405      -0.7538      2.00000
    406      -0.7441      2.00000
    407      -0.7395      2.00000
    408      -0.7147      2.00000
    409      -0.7092      2.00000
    410      -0.7030      2.00000
    411      -0.6974      2.00000
    412      -0.6694      2.00000
    413      -0.6624      2.00000
    414      -0.5998      2.00000
    415      -0.5673      2.00000
    416      -0.4942      2.00000
    417      -0.4606      2.00000
    418      -0.4308      2.00000
    419      -0.4200      2.00000
    420      -0.4141      2.00000
    421      -0.3631      2.00000
    422      -0.3543      2.00000
    423      -0.3352      2.00000
    424      -0.3024      2.00000
    425      -0.2614      2.00000
    426      -0.2105      2.00000
    427      -0.2060      2.00000
    428      -0.1867      2.00000
    429      -0.1766      2.00000
    430      -0.0676      2.00000
    431      -0.0509      2.00000
    432      -0.0152      2.00000
    433       0.0015      2.00000
    434       0.0425      2.00000
    435       0.0462      2.00000
    436       0.0833      2.00000
    437       0.0995      2.00000
    438       0.1335      2.00000
    439       0.1480      2.00000
    440       0.1840      2.00000
    441       0.2119      2.00000
    442       0.2289      2.00000
    443       0.2475      2.00000
    444       0.2771      2.00000
    445       0.2827      2.00000
    446       0.3800      2.00000
    447       0.4432      2.00000
    448       0.4785      2.00000
    449       0.4857      2.00000
    450       0.4945      2.00000
    451       0.5077      2.00000
    452       0.5150      2.00000
    453       0.5333      2.00000
    454       0.5426      2.00000
    455       0.5446      2.00000
    456       0.5908      2.00000
    457       0.6090      2.00000
    458       0.6160      2.00000
    459       0.6478      2.00000
    460       0.6741      2.00000
    461       0.7171      2.00000
    462       0.7768      2.00000
    463       0.7824      2.00000
    464       0.8207      2.00000
    465       0.8228      2.00000
    466       0.8591      2.00000
    467       0.8860      2.00000
    468       0.8886      2.00000
    469       0.9210      2.00000
    470       0.9214      2.00000
    471       0.9235      2.00000
    472       0.9300      2.00000
    473       1.0131      2.00000
    474       1.0307      2.00000
    475       1.0698      2.00000
    476       1.0738      2.00000
    477       1.0798      2.00000
    478       1.0852      2.00000
    479       1.0945      2.00000
    480       1.1028      2.00000
    481       1.1404      2.00000
    482       1.1598      2.00000
    483       1.1603      2.00000
    484       1.1670      2.00000
    485       1.1687      2.00000
    486       1.1775      2.00000
    487       1.1995      2.00000
    488       1.2101      2.00000
    489       1.2225      2.00000
    490       1.2295      2.00000
    491       1.2311      2.00000
    492       1.3073      2.00000
    493       1.3149      2.00000
    494       1.3242      2.00000
    495       1.3317      2.00000
    496       1.3758      2.00000
    497       1.4030      2.00000
    498       1.4056      2.00000
    499       1.4175      2.00000
    500       1.4306      2.00000
    501       1.4465      2.00000
    502       1.4845      2.00000
    503       1.4950      2.00000
    504       1.4986      2.00000
    505       1.5431      2.00000
    506       1.5513      2.00000
    507       1.5580      2.00000
    508       1.5661      2.00000
    509       1.5697      2.00000
    510       1.5743      2.00000
    511       1.5770      2.00000
    512       1.5776      2.00000
    513       1.5843      2.00000
    514       1.5939      2.00000
    515       1.5963      2.00000
    516       1.8482      2.00000
    517       1.8843      2.00000
    518       1.8881      2.00000
    519       1.8980      2.00000
    520       1.9276      2.00000
    521       1.9414      2.00000
    522       1.9490      2.00000
    523       1.9754      2.00000
    524       2.1242      2.00000
    525       2.2016      2.00000
    526       4.2390      1.03232
    527       8.1481      0.00000
    528       8.2615      0.00000
    529       8.8462      0.00000
    530       8.8555      0.00000
    531       8.9316      0.00000
    532       8.9388      0.00000
    533       9.2425      0.00000
    534       9.2520      0.00000
    535       9.3224      0.00000
    536       9.3527      0.00000
    537      10.5450      0.00000
    538      10.5557      0.00000
    539      10.5629      0.00000
    540      10.6825      0.00000
    541      10.7004      0.00000
    542      10.7143      0.00000
    543      10.7149      0.00000
    544      10.7476      0.00000
    545      10.8367      0.00000
    546      10.8506      0.00000
    547      10.8743      0.00000
    548      10.9266      0.00000
    549      11.0945      0.00000
    550      11.0965      0.00000
    551      11.0976      0.00000
    552      11.2949      0.00000
    553      11.7006      0.00000
    554      11.7144      0.00000
    555      11.7300      0.00000
    556      11.8127      0.00000
    557      11.8282      0.00000
    558      11.8347      0.00000
    559      11.8414      0.00000
    560      11.8676      0.00000
    561      11.8728      0.00000
    562      11.8970      0.00000
    563      11.9223      0.00000
    564      12.0181      0.00000
    565      12.1733      0.00000
    566      12.1890      0.00000
    567      12.2210      0.00000
    568      12.2709      0.00000
    569      12.2730      0.00000
    570      12.2753      0.00000
    571      12.3346      0.00000
    572      12.3530      0.00000
    573      12.3974      0.00000
    574      12.4095      0.00000
    575      12.4136      0.00000
    576      12.4265      0.00000
    577      12.4349      0.00000
    578      12.4387      0.00000
    579      12.4398      0.00000
    580      12.4459      0.00000
    581      12.4556      0.00000
    582      12.4628      0.00000
    583      12.5142      0.00000
    584      13.0062      0.00000
    585      13.1950      0.00000
    586      13.2005      0.00000
    587      13.2283      0.00000
    588      13.2541      0.00000
    589      13.2665      0.00000
    590      13.2938      0.00000
    591      13.2968      0.00000
    592      13.3433      0.00000
    593      13.3522      0.00000
    594      13.3612      0.00000
    595      13.4176      0.00000
    596      13.6875      0.00000
    597      13.7473      0.00000
    598      13.7622      0.00000
    599      13.7688      0.00000
    600      13.9874      0.00000
    601      14.0013      0.00000
    602      14.0103      0.00000
    603      14.1642      0.00000
    604      14.1818      0.00000
    605      14.4056      0.00000
    606      14.4278      0.00000
    607      14.4485      0.00000
    608      14.4961      0.00000
    609      14.6678      0.00000
    610      14.7480      0.00000
    611      14.8050      0.00000
    612      14.8141      0.00000
    613      14.9429      0.00000
    614      14.9446      0.00000
    615      15.0553      0.00000
    616      15.1175      0.00000
    617      15.1355      0.00000
    618      15.3295      0.00000
    619      15.5946      0.00000
    620      15.7151      0.00000
    621      15.7806      0.00000
    622      15.8098      0.00000
    623      16.0359      0.00000
    624      16.2126      0.00000
    625      16.2607      0.00000
    626      16.3314      0.00000
    627      16.4116      0.00000
    628      16.5055      0.00000
    629      16.5563      0.00000
    630      16.6388      0.00000


--------------------------------------------------------------------------------------------------------


 soft charge-density along one line, spin component            1
         0         1         2         3         4         5         6         7         8         9
 total charge-density along one line
 
 pseudopotential strength for first ion, spin component:            1
 -8.868   0.002  -0.002  -0.006  -0.000  -1.310  -0.001   0.001
  0.002  -8.895  -0.004   0.002   0.004  -0.001  -1.293   0.003
 -0.002  -0.004  -8.902   0.001  -0.003   0.001   0.003  -1.290
 -0.006   0.002   0.001  -8.894   0.002   0.006  -0.001  -0.001
 -0.000   0.004  -0.003   0.002  -8.873   0.000   0.000   0.005
 -1.310  -0.001   0.001   0.006   0.000   5.905   0.001  -0.000
 -0.001  -1.293   0.003  -0.001   0.000   0.001   5.895  -0.003
  0.001   0.003  -1.290  -0.001   0.005  -0.000  -0.003   5.894
  0.006  -0.001  -0.001  -1.288  -0.001  -0.005   0.000   0.000
  0.000   0.000   0.005  -0.001  -1.302   0.000  -0.002  -0.005
  0.000  -0.000  -0.001   0.000   0.000  -0.001   0.000   0.002
 -0.001   0.001   0.003  -0.001  -0.000   0.000  -0.000  -0.001
  0.000  -0.005   0.001  -0.000   0.002  -0.000   0.001  -0.000
 -0.000   0.000  -0.006   0.000   0.001   0.000  -0.001   0.002
  0.001  -0.000  -0.000  -0.003   0.000  -0.001   0.000   0.000
 -0.001   0.006  -0.002   0.000  -0.005   0.000   0.002   0.001
  0.000  -0.003   0.007   0.000  -0.004  -0.000   0.003   0.001
 -0.004   0.000   0.000  -0.003   0.000   0.004  -0.000  -0.000
 total augmentation occupancy for first ion, spin component:            1
  1.992   0.000   0.000   0.001  -0.000  -0.005  -0.000   0.000   0.006  -0.000  -0.001   0.000  -0.000   0.000   0.004   0.000
  0.000   1.991   0.000  -0.000   0.002  -0.000  -0.003   0.004   0.000   0.012  -0.000  -0.001   0.000   0.004  -0.000   0.001
  0.000   0.000   1.992   0.000   0.001   0.000   0.004  -0.004   0.000   0.009   0.000  -0.001   0.005  -0.000  -0.000   0.001
  0.001  -0.000   0.000   1.995   0.000   0.006   0.000   0.000   0.021   0.001  -0.000   0.000  -0.000  -0.001   0.012  -0.000
 -0.000   0.002   0.001   0.000   1.995  -0.000   0.012   0.009   0.001   0.019   0.001   0.000   0.008   0.006  -0.000   0.001
 -0.005  -0.000   0.000   0.006  -0.000   0.052  -0.000   0.000   0.036  -0.000   0.000   0.000   0.001  -0.003   0.041   0.000
 -0.000  -0.003   0.004   0.000   0.012  -0.000   0.069   0.020   0.001   0.059  -0.012  -0.001  -0.000   0.035  -0.003  -0.000
  0.000   0.004  -0.004   0.000   0.009   0.000   0.020   0.057   0.000   0.052  -0.025  -0.002   0.032  -0.008  -0.001   0.001
  0.006   0.000   0.000   0.021   0.001   0.036   0.001   0.000   0.193   0.002   0.003   0.000  -0.003  -0.004   0.085  -0.000
 -0.000   0.012   0.009   0.001   0.019  -0.000   0.059   0.052   0.002   0.172   0.008   0.001   0.058   0.047  -0.003   0.002
 -0.001  -0.000   0.000  -0.000   0.001   0.000  -0.012  -0.025   0.003   0.008   0.999   0.054   0.002   0.061  -0.002  -0.000
  0.000  -0.001  -0.001   0.000   0.000   0.000  -0.001  -0.002   0.000   0.001   0.054   0.004  -0.001   0.003  -0.000  -0.000
 -0.000   0.000   0.005  -0.000   0.008   0.001  -0.000   0.032  -0.003   0.058   0.002  -0.001   0.820  -0.020   0.003   0.027
  0.000   0.004  -0.000  -0.001   0.006  -0.003   0.035  -0.008  -0.004   0.047   0.061   0.003  -0.020   0.754   0.006  -0.001
  0.004  -0.000  -0.000   0.012  -0.000   0.041  -0.003  -0.001   0.085  -0.003  -0.002  -0.000   0.003   0.006   0.847   0.000
  0.000   0.001   0.001  -0.000   0.001   0.000  -0.000   0.001  -0.000   0.002  -0.000  -0.000   0.027  -0.001   0.000   0.001
 -0.000   0.001   0.000  -0.000   0.001  -0.000   0.001  -0.000  -0.000   0.001   0.002   0.000  -0.001   0.024   0.000  -0.000
  0.001  -0.000  -0.000   0.002  -0.000   0.001  -0.000  -0.000   0.003  -0.000  -0.000  -0.000   0.000   0.000   0.028   0.000


------------------------ aborting loop because EDIFF is reached ----------------------------------------


    FORLOC:  cpu time      0.0098: real time      0.0098
    FORHF :  cpu time    590.9356: real time    590.8452
    FORNL :  cpu time      1.0212: real time      1.0210
    STRESS:  cpu time      3.1222: real time      3.1218
    FORCOR:  cpu time      1.4765: real time      1.4764
    OFIELD:  cpu time      0.0022: real time      0.0022

  FORCE on cell =-STRESS in cart. coord.  units (eV):
  Direction    XX          YY          ZZ          XY          YZ          ZX
  --------------------------------------------------------------------------------------
  Alpha Z  5496.83010  5496.83010  5496.83010
  Ewald  -24874.67007-32051.22701-31072.83812     0.00041 -1677.45727     0.00027
  Hartree 13944.62138  9465.07465 10113.77928    -0.01827 -1134.48630    -0.00039
  E(xc)   -4075.94440 -4078.82658 -4078.14576     0.00237    -0.48373    -0.00042
  Local   -5912.47455  5588.09682  3924.20548     0.07638  2775.77119    -0.00736
  n-local  5856.56956  5794.44288  5818.15801    -0.05680    -7.83169     0.01437
  augment  5440.76191  5461.23859  5472.10052    -0.03916     6.48527     0.00637
  Kinetic 12438.01248 12638.62360 12644.11029    -0.05994    39.36294     0.01240
  Fock    -8357.36816 -8356.14911 -8357.34395     0.09055     0.13908    -0.01837
  -------------------------------------------------------------------------------------
  Total     -43.66175   -41.89607   -39.14417     0.00000     1.49947     0.00000
  in kB     -55.13366   -52.90406   -49.42910     0.00000     1.89344     0.00000
  external pressure =      -52.49 kB  Pullay stress =        0.00 kB


 VOLUME and BASIS-vectors are now :
 -----------------------------------------------------------------------------
  energy-cutoff  :      450.00
  volume of cell :     1268.81
      direct lattice vectors                 reciprocal lattice vectors
     0.000000000 12.280473709  0.000000000     0.000000000  0.081430084 -0.019947422
     9.142701149  0.000000000  0.000000000     0.109376866 -0.000000000  0.000000000
     0.000000000 -2.768261641-11.300697481     0.000000000  0.000000000 -0.088490113

  length of vectors
    12.280473709  9.142701149 11.634819984     0.083837689  0.109376866  0.088490113


 FORCES acting on ions:
    Electron-Ion                     Ewald-Force                    Non-Local-Force
 -----------------------------------------------------------------------------------------------
   -.296E+02 0.113E+02 -.386E+02   0.295E+02 -.105E+02 0.429E+02   0.120E+00 -.571E+00 -.414E+01
   -.217E+01 0.324E+02 -.966E+02   0.225E+01 -.317E+02 0.101E+03   -.767E-01 -.554E+00 -.407E+01
   0.296E+02 0.113E+02 -.386E+02   -.295E+02 -.105E+02 0.429E+02   -.120E+00 -.571E+00 -.414E+01
   0.217E+01 0.324E+02 -.966E+02   -.224E+01 -.317E+02 0.101E+03   0.767E-01 -.554E+00 -.407E+01
   0.423E-02 0.340E+02 -.705E+02   -.464E-02 -.332E+02 0.747E+02   0.000E+00 -.585E+00 -.394E+01
   0.532E-02 0.361E+02 -.926E+02   -.463E-02 -.355E+02 0.969E+02   0.000E+00 -.513E+00 -.412E+01
   0.459E-02 -.450E+02 0.822E+02   -.459E-02 0.446E+02 -.866E+02   0.000E+00 0.272E+00 0.419E+01
   0.529E+02 -.386E+02 0.874E+02   -.538E+02 0.382E+02 -.918E+02   0.808E+00 0.245E+00 0.421E+01
   0.469E+01 -.453E+02 0.823E+02   -.461E+01 0.449E+02 -.867E+02   -.701E-01 0.248E+00 0.420E+01
   -.529E+02 -.386E+02 0.874E+02   0.538E+02 0.382E+02 -.918E+02   -.808E+00 0.245E+00 0.421E+01
   -.469E+01 -.453E+02 0.823E+02   0.461E+01 0.449E+02 -.867E+02   0.701E-01 0.248E+00 0.420E+01
   0.485E-02 -.101E+03 0.115E+02   -.452E-02 0.988E+02 -.137E+02   0.000E+00 0.207E+01 0.210E+01
   0.474E-02 -.525E+02 0.427E+02   -.460E-02 0.505E+02 -.443E+02   0.000E+00 0.186E+01 0.149E+01
   0.116E+02 -.664E+02 0.260E+02   -.118E+02 0.643E+02 -.276E+02   0.143E+00 0.185E+01 0.158E+01
   0.190E+01 -.502E+02 0.382E+02   -.190E+01 0.480E+02 -.398E+02   0.286E-02 0.192E+01 0.151E+01
   -.116E+02 -.664E+02 0.260E+02   0.118E+02 0.643E+02 -.276E+02   -.143E+00 0.185E+01 0.158E+01
   -.190E+01 -.502E+02 0.382E+02   0.190E+01 0.480E+02 -.398E+02   -.286E-02 0.192E+01 0.151E+01
   -.130E+02 0.716E+02 0.799E+01   0.132E+02 -.691E+02 -.629E+01   -.187E+00 -.224E+01 -.162E+01
   -.147E+02 0.555E+02 -.865E+02   0.152E+02 -.529E+02 0.881E+02   -.468E+00 -.239E+01 -.150E+01
   0.130E+02 0.716E+02 0.799E+01   -.132E+02 -.691E+02 -.628E+01   0.187E+00 -.224E+01 -.162E+01
   0.147E+02 0.555E+02 -.865E+02   -.152E+02 -.529E+02 0.881E+02   0.468E+00 -.239E+01 -.150E+01
   0.498E-02 0.525E+02 -.160E+02   -.461E-02 -.505E+02 0.176E+02   0.000E+00 -.176E+01 -.161E+01
   0.490E-02 0.435E+02 -.423E+02   -.462E-02 -.415E+02 0.442E+02   0.000E+00 -.175E+01 -.175E+01
   0.459E-02 0.557E+02 -.733E+02   -.460E-02 -.553E+02 0.776E+02   0.000E+00 -.320E+00 -.407E+01
   0.437E-02 0.535E+02 -.101E+03   -.460E-02 -.532E+02 0.105E+03   0.000E+00 -.127E+00 -.440E+01
   0.302E+01 0.515E+02 -.753E+02   -.307E+01 -.510E+02 0.798E+02   0.457E-01 -.365E+00 -.426E+01
   0.260E+01 0.526E+02 -.928E+02   -.266E+01 -.521E+02 0.973E+02   0.588E-01 -.343E+00 -.428E+01
   -.303E+01 0.515E+02 -.753E+02   0.307E+01 -.510E+02 0.798E+02   -.457E-01 -.365E+00 -.426E+01
   -.261E+01 0.526E+02 -.928E+02   0.266E+01 -.521E+02 0.973E+02   -.588E-01 -.343E+00 -.428E+01
   -.192E+01 -.407E+02 0.838E+02   0.201E+01 0.401E+02 -.883E+02   -.803E-01 0.456E+00 0.434E+01
   -.597E+00 -.423E+02 0.828E+02   0.557E+00 0.417E+02 -.872E+02   0.322E-01 0.475E+00 0.414E+01
   0.192E+01 -.407E+02 0.838E+02   -.201E+01 0.401E+02 -.883E+02   0.803E-01 0.456E+00 0.434E+01
   0.592E+00 -.423E+02 0.828E+02   -.552E+00 0.417E+02 -.872E+02   -.322E-01 0.475E+00 0.414E+01
   0.489E-02 -.407E+02 0.817E+02   -.462E-02 0.402E+02 -.862E+02   0.000E+00 0.380E+00 0.429E+01
   0.484E-02 -.408E+02 0.822E+02   -.462E-02 0.403E+02 -.866E+02   0.000E+00 0.377E+00 0.415E+01
   -.259E+02 -.351E+01 0.169E+02   0.254E+02 0.138E+01 -.187E+02   0.291E+00 0.199E+01 0.166E+01
   -.621E+00 -.418E+02 0.261E+02   0.648E+00 0.395E+02 -.278E+02   -.257E-01 0.201E+01 0.157E+01
   0.259E+02 -.351E+01 0.169E+02   -.254E+02 0.138E+01 -.187E+02   -.291E+00 0.199E+01 0.166E+01
   0.617E+00 -.418E+02 0.261E+02   -.644E+00 0.395E+02 -.278E+02   0.257E-01 0.201E+01 0.157E+01
   0.792E-02 -.350E+02 0.277E+02   -.460E-02 0.329E+02 -.294E+02   0.000E+00 0.196E+01 0.162E+01
   0.466E-02 -.449E+02 0.282E+02   -.461E-02 0.427E+02 -.298E+02   0.000E+00 0.200E+01 0.152E+01
   0.473E-02 0.348E+02 -.190E+02   -.458E-02 -.326E+02 0.207E+02   0.000E+00 -.193E+01 -.160E+01
   0.457E-02 0.472E+02 -.362E+02   -.460E-02 -.451E+02 0.380E+02   0.000E+00 -.184E+01 -.166E+01
   0.276E+01 0.407E+02 -.234E+02   -.265E+01 -.387E+02 0.251E+02   -.990E-01 -.180E+01 -.162E+01
   0.133E+01 0.485E+02 -.340E+02   -.137E+01 -.464E+02 0.357E+02   0.427E-01 -.187E+01 -.165E+01
   -.276E+01 0.407E+02 -.234E+02   0.265E+01 -.387E+02 0.251E+02   0.990E-01 -.180E+01 -.162E+01
   -.133E+01 0.485E+02 -.340E+02   0.138E+01 -.464E+02 0.357E+02   -.427E-01 -.187E+01 -.165E+01
   0.251E-02 -.367E+01 0.305E+02   -.269E-02 0.111E+02 -.344E+02   0.000E+00 -.641E+01 0.337E+01
   0.240E-02 -.101E+02 0.110E+01   -.265E-02 0.173E+02 -.623E+01   0.000E+00 -.619E+01 0.442E+01
   0.411E+01 -.108E+02 0.208E+02   -.410E+01 0.181E+02 -.245E+02   -.930E-02 -.626E+01 0.325E+01
   0.698E+01 -.126E+02 0.614E+01   -.740E+01 0.198E+02 -.983E+01   0.361E+00 -.614E+01 0.318E+01
   -.411E+01 -.108E+02 0.208E+02   0.410E+01 0.181E+02 -.245E+02   0.930E-02 -.626E+01 0.325E+01
   -.698E+01 -.126E+02 0.614E+01   0.740E+01 0.198E+02 -.983E+01   -.361E+00 -.614E+01 0.318E+01
   -.718E+01 0.936E+01 -.176E+02   0.760E+01 -.169E+02 0.216E+02   -.365E+00 0.649E+01 -.343E+01
   -.266E+00 0.164E+02 -.113E+02   0.232E+00 -.238E+02 0.150E+02   0.310E-01 0.635E+01 -.324E+01
   0.718E+01 0.936E+01 -.176E+02   -.760E+01 -.169E+02 0.216E+02   0.365E+00 0.649E+01 -.343E+01
   0.263E+00 0.164E+02 -.113E+02   -.229E+00 -.238E+02 0.150E+02   -.310E-01 0.635E+01 -.324E+01
   0.251E-02 0.122E+02 -.152E+02   -.273E-02 -.195E+02 0.190E+02   0.000E+00 0.627E+01 -.325E+01
   0.256E-02 0.177E+02 -.127E+02   -.271E-02 -.252E+02 0.164E+02   0.000E+00 0.644E+01 -.320E+01
   0.198E-02 -.241E+01 0.664E+02   -.201E-02 0.331E+01 -.616E+02   0.000E+00 -.800E+00 -.404E+01
   0.194E-02 0.626E+02 0.385E+02   -.205E-02 -.606E+02 -.339E+02   0.000E+00 -.177E+01 -.400E+01
   0.120E+02 0.538E+02 0.437E+02   -.119E+02 -.518E+02 -.392E+02   -.674E-01 -.170E+01 -.387E+01
   -.610E+00 0.638E+02 0.378E+02   0.811E+00 -.618E+02 -.333E+02   -.174E+00 -.172E+01 -.394E+01
   -.120E+02 0.538E+02 0.437E+02   0.119E+02 -.518E+02 -.392E+02   0.674E-01 -.170E+01 -.387E+01
   0.609E+00 0.638E+02 0.379E+02   -.808E+00 -.618E+02 -.333E+02   0.174E+00 -.172E+01 -.394E+01
   -.493E+02 -.622E+02 0.126E+02   0.487E+02 0.605E+02 -.172E+02   0.453E+00 0.148E+01 0.396E+01
   -.159E+00 -.740E+02 -.464E+02   0.543E-02 0.727E+02 0.419E+02   0.134E+00 0.119E+01 0.389E+01
   0.493E+02 -.622E+02 0.126E+02   -.486E+02 0.605E+02 -.172E+02   -.453E+00 0.148E+01 0.396E+01
   0.157E+00 -.740E+02 -.464E+02   -.337E-02 0.727E+02 0.419E+02   -.134E+00 0.119E+01 0.389E+01
   0.233E-02 -.660E+02 -.280E+02   -.206E-02 0.642E+02 0.229E+02   0.000E+00 0.157E+01 0.432E+01
   0.208E-02 -.696E+02 -.415E+02   -.206E-02 0.677E+02 0.367E+02   0.000E+00 0.159E+01 0.411E+01
   -.713E+02 0.983E+02 0.147E+02   0.731E+02 -.110E+03 -.104E+02   -.162E+01 0.101E+02 -.383E+01
   -.170E+01 0.121E+03 0.700E+02   0.168E+01 -.134E+03 -.665E+02   0.171E-01 0.108E+02 -.302E+01
   0.713E+02 0.983E+02 0.147E+02   -.731E+02 -.110E+03 -.104E+02   0.162E+01 0.101E+02 -.383E+01
   0.170E+01 0.121E+03 0.700E+02   -.168E+01 -.134E+03 -.665E+02   -.171E-01 0.108E+02 -.302E+01
   0.270E-02 0.119E+03 0.559E+02   -.232E-02 -.132E+03 -.523E+02   0.000E+00 0.109E+02 -.313E+01
   0.226E-02 0.121E+03 0.662E+02   -.231E-02 -.133E+03 -.626E+02   0.000E+00 0.108E+02 -.311E+01
   0.162E-02 -.127E+03 -.434E+02   -.231E-02 0.139E+03 0.401E+02   0.000E+00 -.108E+02 0.289E+01
   0.167E-02 -.135E+03 -.774E+02   -.231E-02 0.147E+03 0.736E+02   0.000E+00 -.108E+02 0.327E+01
   0.449E+01 -.125E+03 -.545E+02   -.435E+01 0.138E+03 0.511E+02   -.123E+00 -.109E+02 0.295E+01
   0.484E+01 -.129E+03 -.700E+02   -.492E+01 0.142E+03 0.665E+02   0.641E-01 -.109E+02 0.301E+01
   -.449E+01 -.125E+03 -.545E+02   0.435E+01 0.138E+03 0.511E+02   0.123E+00 -.109E+02 0.295E+01
   -.484E+01 -.129E+03 -.700E+02   0.492E+01 0.142E+03 0.665E+02   -.641E-01 -.109E+02 0.301E+01
   -.393E+01 -.257E+02 0.226E+02   0.389E+01 0.329E+02 -.264E+02   0.289E-01 -.620E+01 0.334E+01
   -.675E+00 -.199E+02 0.110E+02   0.659E+00 0.273E+02 -.148E+02   0.128E-01 -.631E+01 0.322E+01
   0.393E+01 -.257E+02 0.226E+02   -.389E+01 0.329E+02 -.264E+02   -.289E-01 -.620E+01 0.334E+01
   0.672E+00 -.199E+02 0.110E+02   -.656E+00 0.273E+02 -.148E+02   -.128E-01 -.631E+01 0.322E+01
   0.245E-02 -.213E+02 0.169E+02   -.272E-02 0.286E+02 -.205E+02   0.000E+00 -.629E+01 0.311E+01
   0.259E-02 -.195E+02 0.126E+02   -.271E-02 0.268E+02 -.164E+02   0.000E+00 -.631E+01 0.322E+01
   0.136E-02 0.110E+03 -.247E+02   -.267E-02 -.119E+03 0.274E+02   0.000E+00 0.788E+01 -.217E+01
   0.250E-02 0.201E+02 -.150E+02   -.272E-02 -.275E+02 0.185E+02   0.000E+00 0.633E+01 -.304E+01
   0.104E+02 0.276E+02 -.169E+02   -.101E+02 -.347E+02 0.208E+02   -.259E+00 0.610E+01 -.338E+01
   0.125E+01 0.186E+02 -.174E+02   -.125E+01 -.258E+02 0.213E+02   -.266E-02 0.622E+01 -.336E+01
   -.104E+02 0.276E+02 -.169E+02   0.101E+02 -.347E+02 0.208E+02   0.259E+00 0.610E+01 -.338E+01
   -.126E+01 0.186E+02 -.174E+02   0.125E+01 -.258E+02 0.213E+02   0.266E-02 0.622E+01 -.336E+01
   -.220E+01 0.738E+02 0.447E+02   0.212E+01 -.717E+02 -.404E+02   0.720E-01 -.182E+01 -.368E+01
   -.786E+00 0.693E+02 0.331E+02   0.887E+00 -.674E+02 -.284E+02   -.875E-01 -.166E+01 -.404E+01
   0.220E+01 0.738E+02 0.447E+02   -.212E+01 -.717E+02 -.404E+02   -.720E-01 -.182E+01 -.368E+01
   0.784E+00 0.693E+02 0.331E+02   -.885E+00 -.674E+02 -.284E+02   0.875E-01 -.166E+01 -.404E+01
   0.226E-02 0.696E+02 0.395E+02   -.206E-02 -.676E+02 -.348E+02   0.000E+00 -.175E+01 -.403E+01
   0.202E-02 0.677E+02 0.332E+02   -.206E-02 -.656E+02 -.284E+02   0.000E+00 -.178E+01 -.412E+01
   0.192E-02 -.677E+02 -.345E+02   -.204E-02 0.658E+02 0.298E+02   0.000E+00 0.164E+01 0.405E+01
   0.193E-02 -.628E+02 -.410E+02   -.205E-02 0.607E+02 0.364E+02   0.000E+00 0.181E+01 0.398E+01
   0.138E+01 -.651E+02 -.363E+02   -.140E+01 0.630E+02 0.317E+02   0.193E-01 0.180E+01 0.398E+01
   0.192E+00 -.622E+02 -.409E+02   -.207E+00 0.600E+02 0.363E+02   0.129E-01 0.195E+01 0.391E+01
   -.138E+01 -.651E+02 -.363E+02   0.141E+01 0.630E+02 0.317E+02   -.193E-01 0.180E+01 0.398E+01
   -.194E+00 -.622E+02 -.409E+02   0.209E+00 0.600E+02 0.363E+02   -.129E-01 0.195E+01 0.391E+01
   0.212E-02 0.125E+03 0.612E+02   -.231E-02 -.137E+03 -.579E+02   0.000E+00 0.110E+02 -.291E+01
   0.218E-02 0.120E+03 0.644E+02   -.230E-02 -.132E+03 -.608E+02   0.000E+00 0.108E+02 -.307E+01
   0.179E+01 0.123E+03 0.613E+02   -.176E+01 -.136E+03 -.578E+02   -.218E-01 0.108E+02 -.300E+01
   -.263E+00 0.120E+03 0.643E+02   0.287E+00 -.133E+03 -.608E+02   -.210E-01 0.108E+02 -.300E+01
   -.179E+01 0.123E+03 0.613E+02   0.176E+01 -.136E+03 -.578E+02   0.218E-01 0.108E+02 -.300E+01
   0.261E+00 0.120E+03 0.643E+02   -.285E+00 -.133E+03 -.608E+02   0.210E-01 0.108E+02 -.300E+01
   -.305E+00 -.118E+03 -.608E+02   0.323E+00 0.130E+03 0.574E+02   -.138E-01 -.108E+02 0.293E+01
   -.198E+01 -.115E+03 -.722E+02   0.184E+01 0.127E+03 0.691E+02   0.124E+00 -.110E+02 0.270E+01
   0.303E+00 -.118E+03 -.608E+02   -.321E+00 0.130E+03 0.574E+02   0.138E-01 -.108E+02 0.293E+01
   0.197E+01 -.115E+03 -.722E+02   -.184E+01 0.127E+03 0.691E+02   -.124E+00 -.110E+02 0.270E+01
   0.220E-02 -.119E+03 -.606E+02   -.231E-02 0.131E+03 0.570E+02   0.000E+00 -.107E+02 0.312E+01
   0.235E-02 -.117E+03 -.657E+02   -.232E-02 0.130E+03 0.621E+02   0.000E+00 -.109E+02 0.312E+01
   0.263E-02 -.406E+02 0.644E+02   -.293E-02 0.406E+02 -.663E+02   0.000E+00 0.249E+00 0.169E+01
 -----------------------------------------------------------------------------------------------
   0.119E-01 0.250E+01 0.219E+01   0.693E-13 0.753E-12 0.512E-12   -.111E-15 -.210E+01 -.201E+01
 
 
 POSITION                                       TOTAL-FORCE (eV/Angst)
 -----------------------------------------------------------------------------------
      9.14201      7.66245     -1.77371        -0.006271      0.097404     -0.010730
      9.14158      6.27795     -7.42785        -0.004419      0.080404      0.001971
      3.04825      7.66245     -1.77371         0.006271      0.097404     -0.010730
      3.04869      6.27795     -7.42785         0.004419      0.080404      0.001971
      6.09514      7.66162     -1.77376         0.000000      0.082693      0.006495
      6.09514      6.28195     -7.41859         0.000000      0.073223      0.004962
      1.52379      7.99876     -9.52750         0.000000     -0.064279     -0.009372
      4.56329      9.37636     -3.88227        -0.080216     -0.088135      0.003012
      4.56961      7.99838     -9.52931         0.000609     -0.064432     -0.008592
      7.62697      9.37636     -3.88227         0.080216     -0.088135      0.003012
      7.62066      7.99838     -9.52931        -0.000609     -0.064432     -0.008592
      1.52379      6.18240     -4.50776         0.000000     -0.041201      0.016266
      1.52379      4.77351    -10.14696         0.000000     -0.018940      0.015620
      4.56843      6.15641     -4.49323         0.002480     -0.013397      0.010860
      4.57120      4.77756    -10.14656         0.003056     -0.017689      0.011571
      7.62183      6.15641     -4.49323        -0.002480     -0.013397      0.010860
      7.61907      4.77756    -10.14656        -0.003056     -0.017689      0.011571
      0.00746     10.87538     -1.16314        -0.020658     -0.005926     -0.024252
      0.01671      9.48706     -6.77659        -0.011889      0.010933      0.012890
      3.04011     10.87538     -1.16314         0.020658     -0.005926     -0.024252
      3.03086      9.48706     -6.77659         0.011889      0.010933      0.012890
      6.09514     10.87612     -1.15544         0.000000      0.014881     -0.016684
      6.09514      9.49401     -6.80559         0.000000      0.008653     -0.008144
      1.52379      1.51946     -1.77339         0.000000      0.074560      0.006363
      1.52379      0.13381     -7.41643         0.000000      0.064358     -0.003925
      4.56876      1.51431     -1.77484         0.000890      0.066793      0.011656
      4.56786      0.12746     -7.41620         0.000516      0.061663      0.003677
      7.62151      1.51431     -1.77484        -0.000890      0.066793      0.011656
      7.62241      0.12746     -7.41620        -0.000516      0.061663      0.003677
      0.00240      3.23627     -3.88556         0.001645     -0.072026     -0.009935
      9.14201      1.85253     -9.53002        -0.002703     -0.074059     -0.005959
      3.04517      3.23627     -3.88556        -0.001645     -0.072026     -0.009935
      3.04825      1.85253     -9.53002         0.002703     -0.074059     -0.005959
      6.09514      3.23795     -3.88136         0.000000     -0.070207     -0.011128
      6.09514      1.85189     -9.52886         0.000000     -0.070628     -0.005743
      0.00948     -0.01074     -4.48815        -0.088969      0.035600      0.000464
      9.14269     -1.36515    -10.14382        -0.000581     -0.027387      0.015764
      3.03809     -0.01074     -4.48815         0.088969      0.035600      0.000464
      3.04758     -1.36515    -10.14382         0.000581     -0.027387      0.015764
      6.09514      0.01756     -4.49405         0.000000     -0.020675      0.016905
      6.09514     -1.36514    -10.14702         0.000000     -0.025068      0.017838
      1.52379      4.73636     -1.15955         0.000000      0.024678     -0.017099
      1.52379      3.35824     -6.81040         0.000000      0.018861     -0.010527
      4.56985      4.73946     -1.15986         0.002354      0.020344     -0.010395
      4.57194      3.35642     -6.81030        -0.000077      0.021250     -0.012331
      7.62041      4.73946     -1.15986        -0.002354      0.020344     -0.010395
      7.61833      3.35642     -6.81030         0.000077      0.021250     -0.012331
      1.52379     11.88590     -1.44732         0.000000     -0.163287      0.114690
      1.52379     10.49835     -7.10651         0.000000     -0.157301      0.162650
      4.56813     11.87644     -1.44141         0.000356     -0.161220      0.111735
      4.56151     10.48925     -7.07161         0.009329     -0.157094      0.113362
      7.62213     11.87644     -1.44141        -0.000356     -0.161220      0.111735
      7.62876     10.48925     -7.07161        -0.009329     -0.157094      0.113362
      0.00869      5.16018     -4.21283        -0.008934      0.189629     -0.122250
      9.14159      3.76945     -9.86551         0.002630      0.171409     -0.115285
      3.03888      5.16018     -4.21283         0.008934      0.189629     -0.122250
      3.04868      3.76945     -9.86551        -0.002630      0.171409     -0.115285
      6.09514      5.15502     -4.21229         0.000000      0.165825     -0.114212
      6.09514      3.77120     -9.86648         0.000000      0.171004     -0.108775
      1.52379      7.52345     -3.19447         0.000000     -0.054625      0.023865
      1.52379      6.10043     -8.82588         0.000000     -0.041537     -0.111720
      4.56930      7.48162     -3.16802        -0.000021     -0.029099     -0.103248
      4.57087      6.10164     -8.82076        -0.007542     -0.037295     -0.108843
      7.62096      7.48162     -3.16802         0.000021     -0.029099     -0.103248
      7.61939      6.10164     -8.82076         0.007542     -0.037295     -0.108843
      0.03015      9.55293     -2.49997        -0.144539      0.050577      0.199021
      0.00046      8.17526     -8.12586         0.006480      0.021142      0.113017
      3.01742      9.55293     -2.49997         0.144539      0.050577      0.199021
      3.04711      8.17526     -8.12586        -0.006480      0.021142      0.113017
      6.09514      9.55237     -2.48094         0.000000      0.027121      0.108784
      6.09514      8.17145     -8.13188         0.000000      0.037844      0.115830
      0.04814      8.99753     -4.99440        -0.157167      0.380297     -0.231512
      0.00110      7.60386    -10.69026         0.003338      0.397363     -0.072504
      2.99942      8.99753     -4.99440         0.157167      0.380297     -0.231512
      3.04646      7.60386    -10.69026        -0.003338      0.397363     -0.072504
      6.09514      8.97881     -5.03614         0.000000      0.404625     -0.057362
      6.09514      7.60352    -10.68556         0.000000      0.397224     -0.074247
      1.52379      8.04832     -0.61759         0.000000     -0.399848      0.055993
      1.52379      6.67393     -6.27698         0.000000     -0.394702      0.087413
      4.56925      8.06139     -0.61618        -0.003671     -0.412573      0.076851
      4.56807      6.67587     -6.26145         0.002693     -0.408075      0.074885
      7.62102      8.06139     -0.61618         0.003671     -0.412573      0.076851
      7.62220      6.67587     -6.26145        -0.002693     -0.408075      0.074885
      0.00285      5.74605     -1.44589        -0.003769     -0.169019      0.120537
      9.14189      4.36210     -7.09148         0.000232     -0.165689      0.113458
      3.04471      5.74605     -1.44589         0.003769     -0.169019      0.120537
      3.04837      4.36210     -7.09148        -0.000232     -0.165689      0.113458
      6.09514      5.74554     -1.43687         0.000000     -0.171429      0.107865
      6.09514      4.36469     -7.08913         0.000000     -0.172433      0.114378
      1.52379     -1.03365     -4.22537         0.000000     -0.047462      0.056169
      1.52379     -2.37009     -9.87114         0.000000      0.172971     -0.110173
      4.57540     -0.99070     -4.20836        -0.018194      0.149794     -0.120671
      4.57160     -2.36837     -9.86097         0.001029      0.169583     -0.121371
      7.61486     -0.99070     -4.20836         0.018194      0.149794     -0.120671
      7.61867     -2.36837     -9.86097        -0.001029      0.169583     -0.121371
      0.00377      1.33379     -3.17612         0.000982     -0.047305     -0.101957
      9.14101     -0.04002     -8.81921        -0.002557     -0.033063     -0.111245
      3.04379      1.33379     -3.17612        -0.000982     -0.047305     -0.101957
      3.04925     -0.04002     -8.81921         0.002557     -0.033063     -0.111245
      6.09514      1.34365     -3.17142         0.000000     -0.041338     -0.115952
      6.09514     -0.04663     -8.81604         0.000000     -0.036440     -0.114538
      1.52379      3.41116     -2.48364         0.000000      0.030213      0.109292
      1.52379      2.02953     -8.13112         0.000000      0.038209      0.113248
      4.56745      3.41312     -2.48372         0.002578      0.038917      0.106897
      4.57192      2.02749     -8.13016         0.000626      0.044863      0.109055
      7.62282      3.41312     -2.48372        -0.002578      0.038917      0.106897
      7.61835      2.02749     -8.13016        -0.000626      0.044863      0.109055
      1.52379      2.84700     -5.04199         0.000000      0.401155     -0.072688
      1.52379      1.46203    -10.68948         0.000000      0.395357     -0.075928
      4.57135      2.85043     -5.03983        -0.000752      0.397751     -0.073854
      4.57174      1.46182    -10.69004        -0.000907      0.397177     -0.073506
      7.61891      2.85043     -5.03983         0.000752      0.397751     -0.073854
      7.61853      1.46182    -10.69004         0.000907      0.397177     -0.073506
      9.14186      1.91069     -0.61497         0.001182     -0.396080      0.067844
      0.00200      0.52086     -6.25570         0.013426     -0.414224      0.076602
      3.04840      1.91069     -0.61497        -0.001182     -0.396080      0.067844
      3.04557      0.52086     -6.25570        -0.013426     -0.414224      0.076602
      6.09514      1.90533     -0.61802         0.000000     -0.390132      0.075230
      6.09514      0.52285     -6.26431         0.000000     -0.401765      0.082982
      1.52379      9.36052     -3.80236         0.000000      0.161627     -0.208000
 -----------------------------------------------------------------------------------
    total drift:                                0.011939     -0.004406     -0.035930


--------------------------------------------------------------------------------------------------------



  FREE ENERGIE OF THE ION-ELECTRON SYSTEM (eV)
  ---------------------------------------------------
  free  energy   TOTEN  =      -963.78880870 eV

  energy  without entropy=     -963.76061589  energy(sigma->0) =     -963.77471229
 


--------------------------------------------------------------------------------------------------------


    POTLOK:  cpu time      2.0504: real time      2.0566


--------------------------------------------------------------------------------------------------------


 writing wavefunctions
     LOOP+:  cpu time  25312.7706: real time  25309.7369
    4ORBIT:  cpu time      0.0000: real time      0.0000

 total amount of memory used by VASP MPI-rank0  7479032. kBytes
=======================================================================

   base      :      30000. kBytes
   nonlr-proj:      47071. kBytes
   fftplans  :      51012. kBytes
   grid      :     102973. kBytes
   one-center:       1866. kBytes
   HF        :        194. kBytes
   wavefun   :    7016646. kBytes
   fock_wrk  :     229270. kBytes
 
  
  
 General timing and accounting informations for this job:
 ========================================================
  
                  Total CPU time used (sec):    25345.082
                            User time (sec):    25324.922
                          System time (sec):       20.160
                         Elapsed time (sec):    25344.090
  
                   Maximum memory used (kb):    13407168.
                   Average memory used (kb):          N/A
  
                          Minor page faults:      4555817
                          Major page faults:            4
                 Voluntary context switches:       463621
