<?xml version="1.0" encoding="ISO-8859-1"?>
<modeling>
 <generator>
  <i name="program" type="string">vasp </i>
  <i name="version" type="string">6.4.2  </i>
  <i name="subversion" type="string">20Jul23 (build Nov 12 2023 22:16:35) complex                          parallel </i>
  <i name="platform" type="string">LinuxNV </i>
  <i name="date" type="string">2025 04 27 </i>
  <i name="time" type="string">01:52:27 </i>
 </generator>
 <incar>
  <i type="int" name="ISTART">     0</i>
  <i type="string" name="PREC">Normal</i>
  <i type="string" name="ALGO">All</i>
  <i type="int" name="ISPIN">     1</i>
  <i type="int" name="ICHARG">     0</i>
  <i type="int" name="NELM">   500</i>
  <i type="int" name="IBRION">    -1</i>
  <i name="EDIFF">      0.00001000</i>
  <i name="EDIFFG">     -0.00500000</i>
  <i type="int" name="NSW">     0</i>
  <i type="int" name="ISIF">     2</i>
  <i name="ENCUT">    450.00000000</i>
  <i type="string" name="LREAL">Auto</i>
  <i type="logical" name="LPLANE"> T  </i>
  <i name="TIME">      0.40000000</i>
  <i type="int" name="ISMEAR">     0</i>
  <i name="SIGMA">      0.05000000</i>
  <i type="logical" name="LWAVE"> T  </i>
  <i type="logical" name="LCHARG"> T  </i>
  <i type="int" name="ICORELEVEL">     1</i>
  <i name="HFSCREEN">      0.20000000</i>
  <i type="logical" name="LHFCALC"> T  </i>
  <i type="int" name="LMAXFOCK">     4</i>
  <i name="AEXX">      0.32000000</i>
  <i type="string" name="PRECFOCK">Fast</i>
 </incar>
 <primitive_cell>
  <structure name="primitive_cell" >
   <crystal>
    <varray name="basis" >
     <v>       0.00000000      12.28047371       0.00000000 </v>
     <v>       9.14270115       0.00000000       0.00000000 </v>
     <v>       0.00000000      -2.76826164     -11.30069748 </v>
    </varray>
    <i name="volume">   1268.80503319 </i>
    <varray name="rec_basis" >
     <v>       0.00000000       0.08143008      -0.01994742 </v>
     <v>       0.10937687      -0.00000000       0.00000000 </v>
     <v>       0.00000000       0.00000000      -0.08849011 </v>
    </varray>
   </crystal>
   <varray name="positions" >
    <v>       0.65933511       0.99992469       0.15695623 </v>
    <v>       0.65937998       0.99987728       0.65729100 </v>
    <v>       0.65933511       0.33340831       0.15695623 </v>
    <v>       0.65937998       0.33345572       0.65729100 </v>
    <v>       0.65926800       0.66666700       0.15696004 </v>
    <v>       0.65952166       0.66666700       0.65647166 </v>
    <v>       0.84138911       0.16666700       0.84308942 </v>
    <v>       0.84095932       0.49911865       0.34354292 </v>
    <v>       0.84139384       0.49980922       0.84325014 </v>
    <v>       0.84095932       0.83421435       0.34354292 </v>
    <v>       0.84139384       0.83352378       0.84325014 </v>
    <v>       0.59335113       0.16666700       0.39889212 </v>
    <v>       0.59111305       0.16666700       0.89790562 </v>
    <v>       0.59094508       0.49968083       0.39760616 </v>
    <v>       0.59143500       0.49998340       0.89787046 </v>
    <v>       0.59094508       0.83365217       0.39760616 </v>
    <v>       0.59143500       0.83334960       0.89787046 </v>
    <v>       0.90878482       0.00081573       0.10292679 </v>
    <v>       0.90770723       0.00182747       0.59966078 </v>
    <v>       0.90878482       0.33251727       0.10292679 </v>
    <v>       0.90770723       0.33150553       0.59966078 </v>
    <v>       0.90869164       0.66666700       0.10224521 </v>
    <v>       0.90885241       0.66666700       0.60222748 </v>
    <v>       0.15910426       0.16666700       0.15692773 </v>
    <v>       0.15883461       0.16666700       0.65628079 </v>
    <v>       0.15871359       0.49971658       0.15705583 </v>
    <v>       0.15831325       0.49961772       0.65626073 </v>
    <v>       0.15871359       0.83361642       0.15705583 </v>
    <v>       0.15831325       0.83371528       0.65626073 </v>
    <v>       0.34103684       0.00026206       0.34383363 </v>
    <v>       0.34095103       0.99992493       0.84331295 </v>
    <v>       0.34103684       0.33307094       0.34383363 </v>
    <v>       0.34095103       0.33340807       0.84331295 </v>
    <v>       0.34108935       0.66666700       0.34346174 </v>
    <v>       0.34087601       0.66666700       0.84321013 </v>
    <v>       0.08865240       0.00103678       0.39715706 </v>
    <v>       0.09117905       0.99999879       0.89762740 </v>
    <v>       0.08865240       0.33229622       0.39715706 </v>
    <v>       0.09117905       0.33333421       0.89762740 </v>
    <v>       0.09107450       0.66666700       0.39767900 </v>
    <v>       0.09124333       0.66666700       0.89791105 </v>
    <v>       0.40881263       0.16666700       0.10260885 </v>
    <v>       0.40931123       0.16666700       0.60265281 </v>
    <v>       0.40907079       0.49983594       0.10263584 </v>
    <v>       0.40916112       0.50006428       0.60264417 </v>
    <v>       0.40907079       0.83349706       0.10263584 </v>
    <v>       0.40916112       0.83326872       0.60264417 </v>
    <v>       0.99673984       0.16666700       0.12807337 </v>
    <v>       0.99663787       0.16666700       0.62885553 </v>
    <v>       0.99585171       0.49964815       0.12755070 </v>
    <v>       0.99520100       0.49892367       0.62576724 </v>
    <v>       0.99585171       0.83368485       0.12755070 </v>
    <v>       0.99520100       0.83440933       0.62576724 </v>
    <v>       0.50422907       0.00094998       0.37279404 </v>
    <v>       0.50373828       0.99987836       0.87300015 </v>
    <v>       0.50422907       0.33238302       0.37279404 </v>
    <v>       0.50373828       0.33345464       0.87300015 </v>
    <v>       0.50379808       0.66666700       0.37274611 </v>
    <v>       0.50389991       0.66666700       0.87308602 </v>
    <v>       0.67635647       0.16666700       0.28267862 </v>
    <v>       0.67281178       0.16666700       0.78100306 </v>
    <v>       0.67242306       0.49977601       0.28033811 </v>
    <v>       0.67280825       0.49994766       0.78055016 </v>
    <v>       0.67242306       0.83355699       0.28033811 </v>
    <v>       0.67280825       0.83338534       0.78055016 </v>
    <v>       0.82776377       0.00329741       0.22122266 </v>
    <v>       0.82780227       0.00005005       0.71905814 </v>
    <v>       0.82776377       0.33003559       0.22122266 </v>
    <v>       0.82780227       0.33328295       0.71905814 </v>
    <v>       0.82733828       0.66666700       0.21953855 </v>
    <v>       0.82761214       0.66666700       0.71959127 </v>
    <v>       0.83229492       0.00526569       0.44195535 </v>
    <v>       0.83242637       0.00012086       0.94598255 </v>
    <v>       0.83229492       0.32806731       0.44195535 </v>
    <v>       0.83242637       0.33321214       0.94598255 </v>
    <v>       0.83160332       0.66666700       0.44564879 </v>
    <v>       0.83230419       0.66666700       0.94556605 </v>
    <v>       0.66769468       0.16666700       0.05465023 </v>
    <v>       0.66866819       0.16666700       0.55545034 </v>
    <v>       0.66873041       0.49976989       0.05452553 </v>
    <v>       0.66851615       0.49964085       0.55407602 </v>
    <v>       0.66873041       0.83356311       0.05452553 </v>
    <v>       0.66851615       0.83369215       0.55407602 </v>
    <v>       0.49674340       0.00031223       0.12794718 </v>
    <v>       0.49666309       0.99991144       0.62752578 </v>
    <v>       0.49674340       0.33302077       0.12794718 </v>
    <v>       0.49666309       0.33342156       0.62752578 </v>
    <v>       0.49652143       0.66666700       0.12714850 </v>
    <v>       0.49682718       0.66666700       0.62731796 </v>
    <v>       0.00011513       0.16666700       0.37390335 </v>
    <v>       0.00390690       0.16666700       0.87349826 </v>
    <v>       0.00327297       0.50044312       0.37239855 </v>
    <v>       0.00384403       0.50002717       0.87259822 </v>
    <v>       0.00327297       0.83288988       0.37239855 </v>
    <v>       0.00384403       0.83330583       0.87259822 </v>
    <v>       0.17196638       0.00041264       0.28105528 </v>
    <v>       0.17266139       0.99981531       0.78041271 </v>
    <v>       0.17196638       0.33292036       0.28105528 </v>
    <v>       0.17266139       0.33351769       0.78041271 </v>
    <v>       0.17267533       0.66666700       0.28063896 </v>
    <v>       0.17205985       0.66666700       0.78013196 </v>
    <v>       0.32731338       0.16666700       0.21977794 </v>
    <v>       0.32745934       0.16666700       0.71952334 </v>
    <v>       0.32747467       0.49957306       0.21978480 </v>
    <v>       0.32727447       0.50006210       0.71943848 </v>
    <v>       0.32747467       0.83375994       0.21978480 </v>
    <v>       0.32727447       0.83327090       0.71943848 </v>
    <v>       0.33240607       0.16666700       0.44616659 </v>
    <v>       0.33228054       0.16666700       0.94591322 </v>
    <v>       0.33264240       0.50000016       0.44597541 </v>
    <v>       0.33227495       0.50004215       0.94596305 </v>
    <v>       0.33264240       0.83333284       0.44597541 </v>
    <v>       0.33227495       0.83329085       0.94596305 </v>
    <v>       0.16785484       0.99990846       0.05441913 </v>
    <v>       0.16719875       0.00021830       0.55356775 </v>
    <v>       0.16785484       0.33342454       0.05441913 </v>
    <v>       0.16719875       0.33311470       0.55356775 </v>
    <v>       0.16747908       0.66666700       0.05468882 </v>
    <v>       0.16753284       0.66666700       0.55432980 </v>
    <v>       0.83807517       0.16666700       0.33647155 </v>
   </varray>
  </structure>
  <varray name="primitive_index" >
   <v type="int" >        1 </v>
   <v type="int" >        2 </v>
   <v type="int" >        3 </v>
   <v type="int" >        4 </v>
   <v type="int" >        5 </v>
   <v type="int" >        6 </v>
   <v type="int" >        7 </v>
   <v type="int" >        8 </v>
   <v type="int" >        9 </v>
   <v type="int" >       10 </v>
   <v type="int" >       11 </v>
   <v type="int" >       12 </v>
   <v type="int" >       13 </v>
   <v type="int" >       14 </v>
   <v type="int" >       15 </v>
   <v type="int" >       16 </v>
   <v type="int" >       17 </v>
   <v type="int" >       18 </v>
   <v type="int" >       19 </v>
   <v type="int" >       20 </v>
   <v type="int" >       21 </v>
   <v type="int" >       22 </v>
   <v type="int" >       23 </v>
   <v type="int" >       24 </v>
   <v type="int" >       25 </v>
   <v type="int" >       26 </v>
   <v type="int" >       27 </v>
   <v type="int" >       28 </v>
   <v type="int" >       29 </v>
   <v type="int" >       30 </v>
   <v type="int" >       31 </v>
   <v type="int" >       32 </v>
   <v type="int" >       33 </v>
   <v type="int" >       34 </v>
   <v type="int" >       35 </v>
   <v type="int" >       36 </v>
   <v type="int" >       37 </v>
   <v type="int" >       38 </v>
   <v type="int" >       39 </v>
   <v type="int" >       40 </v>
   <v type="int" >       41 </v>
   <v type="int" >       42 </v>
   <v type="int" >       43 </v>
   <v type="int" >       44 </v>
   <v type="int" >       45 </v>
   <v type="int" >       46 </v>
   <v type="int" >       47 </v>
   <v type="int" >       48 </v>
   <v type="int" >       49 </v>
   <v type="int" >       50 </v>
   <v type="int" >       51 </v>
   <v type="int" >       52 </v>
   <v type="int" >       53 </v>
   <v type="int" >       54 </v>
   <v type="int" >       55 </v>
   <v type="int" >       56 </v>
   <v type="int" >       57 </v>
   <v type="int" >       58 </v>
   <v type="int" >       59 </v>
   <v type="int" >       60 </v>
   <v type="int" >       61 </v>
   <v type="int" >       62 </v>
   <v type="int" >       63 </v>
   <v type="int" >       64 </v>
   <v type="int" >       65 </v>
   <v type="int" >       66 </v>
   <v type="int" >       67 </v>
   <v type="int" >       68 </v>
   <v type="int" >       69 </v>
   <v type="int" >       70 </v>
   <v type="int" >       71 </v>
   <v type="int" >       72 </v>
   <v type="int" >       73 </v>
   <v type="int" >       74 </v>
   <v type="int" >       75 </v>
   <v type="int" >       76 </v>
   <v type="int" >       77 </v>
   <v type="int" >       78 </v>
   <v type="int" >       79 </v>
   <v type="int" >       80 </v>
   <v type="int" >       81 </v>
   <v type="int" >       82 </v>
   <v type="int" >       83 </v>
   <v type="int" >       84 </v>
   <v type="int" >       85 </v>
   <v type="int" >       86 </v>
   <v type="int" >       87 </v>
   <v type="int" >       88 </v>
   <v type="int" >       89 </v>
   <v type="int" >       90 </v>
   <v type="int" >       91 </v>
   <v type="int" >       92 </v>
   <v type="int" >       93 </v>
   <v type="int" >       94 </v>
   <v type="int" >       95 </v>
   <v type="int" >       96 </v>
   <v type="int" >       97 </v>
   <v type="int" >       98 </v>
   <v type="int" >       99 </v>
   <v type="int" >      100 </v>
   <v type="int" >      101 </v>
   <v type="int" >      102 </v>
   <v type="int" >      103 </v>
   <v type="int" >      104 </v>
   <v type="int" >      105 </v>
   <v type="int" >      106 </v>
   <v type="int" >      107 </v>
   <v type="int" >      108 </v>
   <v type="int" >      109 </v>
   <v type="int" >      110 </v>
   <v type="int" >      111 </v>
   <v type="int" >      112 </v>
   <v type="int" >      113 </v>
   <v type="int" >      114 </v>
   <v type="int" >      115 </v>
   <v type="int" >      116 </v>
   <v type="int" >      117 </v>
   <v type="int" >      118 </v>
   <v type="int" >      119 </v>
   <v type="int" >      120 </v>
  </varray>
 </primitive_cell>
 <kpoints>
  <generation param="Gamma">
   <v type="int" name="divisions">       2        2        2 </v>
   <v name="usershift">      0.00000000       0.00000000       0.00000000 </v>
   <v name="genvec1">      0.50000000       0.00000000      -0.00000000 </v>
   <v name="genvec2">      0.00000000       0.50000000       0.00000000 </v>
   <v name="genvec3">      0.00000000       0.00000000       0.50000000 </v>
   <v name="shift">      0.00000000       0.00000000       0.00000000 </v>
  </generation>
  <varray name="kpointlist" >
   <v>       0.00000000       0.00000000       0.00000000 </v>
   <v>       0.50000000       0.00000000       0.00000000 </v>
   <v>       0.00000000       0.50000000       0.00000000 </v>
   <v>       0.50000000       0.50000000       0.00000000 </v>
   <v>       0.00000000       0.00000000       0.50000000 </v>
   <v>       0.50000000       0.00000000       0.50000000 </v>
   <v>       0.00000000       0.50000000       0.50000000 </v>
   <v>       0.50000000       0.50000000       0.50000000 </v>
  </varray>
  <varray name="weights" >
   <v>       0.12500000 </v>
   <v>       0.12500000 </v>
   <v>       0.12500000 </v>
   <v>       0.12500000 </v>
   <v>       0.12500000 </v>
   <v>       0.12500000 </v>
   <v>       0.12500000 </v>
   <v>       0.12500000 </v>
  </varray>
 </kpoints>
 <parameters>
  <separator name="general" >
   <i type="string" name="SYSTEM">unknown system</i>
   <i type="logical" name="LCOMPAT"> F  </i>
  </separator>
  <separator name="electronic" >
   <i type="string" name="PREC">normal</i>
   <i name="ENMAX">    450.00000000</i>
   <i name="ENAUG">    605.39200000</i>
   <i name="EDIFF">      0.00001000</i>
   <i type="int" name="IALGO">    58</i>
   <i type="int" name="IWAVPR">    10</i>
   <i type="int" name="NBANDS">   630</i>
   <i type="int" name="NBANDSLOW">    -1</i>
   <i type="int" name="NBANDSHIGH">    -1</i>
   <i name="NELECT">   1051.00000000</i>
   <i type="int" name="TURBO">     0</i>
   <i type="int" name="IRESTART">     0</i>
   <i type="int" name="NREBOOT">     0</i>
   <i type="int" name="NMIN">     0</i>
   <i name="EREF">      0.00000000</i>
   <separator name="electronic smearing" >
    <i type="int" name="ISMEAR">     0</i>
    <i name="SIGMA">      0.05000000</i>
    <i name="KSPACING">      0.50000000</i>
    <i type="logical" name="KGAMMA"> T  </i>
    <i type="logical" name="KBLOWUP"> T  </i>
   </separator>
   <separator name="electronic projectors" >
    <i type="logical" name="LREAL"> T  </i>
    <v name="ROPT">     -0.00050000     -0.00050000     -0.00050000</v>
    <i type="int" name="LMAXPAW">  -100</i>
    <i type="int" name="LMAXMIX">     2</i>
    <i type="logical" name="NLSPLINE"> F  </i>
   </separator>
   <separator name="electronic startup" >
    <i type="int" name="ISTART">     0</i>
    <i type="int" name="ICHARG">     0</i>
    <i type="int" name="INIWAV">     1</i>
   </separator>
   <separator name="electronic spin" >
    <i type="int" name="ISPIN">     1</i>
    <i type="logical" name="LNONCOLLINEAR"> F  </i>
    <v name="MAGMOM">      1.00000000      1.00000000      1.00000000      1.00000000      1.00000000      1.00000000      1.00000000      1.00000000      1.00000000      1.00000000      1.00000000      1.00000000      1.00000000      1.00000000      1.00000000      1.00000000      1.00000000      1.00000000      1.00000000      1.00000000
      1.00000000      1.00000000      1.00000000      1.00000000      1.00000000      1.00000000      1.00000000      1.00000000      1.00000000      1.00000000      1.00000000      1.00000000      1.00000000      1.00000000      1.00000000      1.00000000      1.00000000      1.00000000      1.00000000      1.00000000
      1.00000000      1.00000000      1.00000000      1.00000000      1.00000000      1.00000000      1.00000000      1.00000000      1.00000000      1.00000000      1.00000000      1.00000000      1.00000000      1.00000000      1.00000000      1.00000000      1.00000000      1.00000000      1.00000000      1.00000000
      1.00000000      1.00000000      1.00000000      1.00000000      1.00000000      1.00000000      1.00000000      1.00000000      1.00000000      1.00000000      1.00000000      1.00000000      1.00000000      1.00000000      1.00000000      1.00000000      1.00000000      1.00000000      1.00000000      1.00000000
      1.00000000      1.00000000      1.00000000      1.00000000      1.00000000      1.00000000      1.00000000      1.00000000      1.00000000      1.00000000      1.00000000      1.00000000      1.00000000      1.00000000      1.00000000      1.00000000      1.00000000      1.00000000      1.00000000      1.00000000
      1.00000000      1.00000000      1.00000000      1.00000000      1.00000000      1.00000000      1.00000000      1.00000000      1.00000000      1.00000000      1.00000000      1.00000000      1.00000000      1.00000000      1.00000000      1.00000000      1.00000000      1.00000000      1.00000000      1.00000000
</v>
    <i name="NUPDOWN">     -1.00000000</i>
    <i type="logical" name="LSORBIT"> F  </i>
    <v name="SAXIS">      0.00000000      0.00000000      1.00000000</v>
    <i type="logical" name="LSPIRAL"> F  </i>
    <v name="QSPIRAL">      0.00000000      0.00000000      0.00000000</v>
    <i type="logical" name="LZEROZ"> F  </i>
   </separator>
   <separator name="electronic exchange-correlation" >
    <i type="logical" name="LASPH"> F  </i>
    <i type="logical" name="LMETAGGA"> F  </i>
   </separator>
   <separator name="electronic convergence" >
    <i type="int" name="NELM">   500</i>
    <i type="int" name="NELMDL">    -5</i>
    <i type="int" name="NELMIN">     2</i>
    <i name="ENINI">    450.00000000</i>
    <separator name="electronic convergence detail" >
     <i type="logical" name="LDIAG"> T  </i>
     <i type="logical" name="LSUBROT"> F  </i>
     <i name="WEIMIN">      0.00000000</i>
     <i name="EBREAK">      0.00000000</i>
     <i name="DEPER">      0.30000000</i>
     <i type="int" name="NRMM">     4</i>
     <i name="TIME">      0.40000000</i>
    </separator>
   </separator>
   <separator name="electronic mixer" >
    <i name="AMIX">      0.40000000</i>
    <i name="BMIX">      1.00000000</i>
    <i name="AMIN">      0.10000000</i>
    <i name="AMIX_MAG">      1.60000000</i>
    <i name="BMIX_MAG">      1.00000000</i>
    <separator name="electronic mixer details" >
     <i type="int" name="IMIX">     4</i>
     <i type="logical" name="MIXFIRST"> F  </i>
     <i type="int" name="MAXMIX">   -45</i>
     <i name="WC">    100.00000000</i>
     <i type="int" name="INIMIX">     1</i>
     <i type="int" name="MIXPRE">     1</i>
     <i type="int" name="MREMOVE">     5</i>
    </separator>
   </separator>
   <separator name="electronic dipolcorrection" >
    <i type="logical" name="LDIPOL"> F  </i>
    <i type="logical" name="LMONO"> F  </i>
    <i type="int" name="IDIPOL">     0</i>
    <i name="EPSILON">      1.00000000</i>
    <v name="DIPOL">   -100.00000000   -100.00000000   -100.00000000</v>
    <i name="EFIELD">      0.00000000</i>
   </separator>
  </separator>
  <separator name="grids" >
   <i type="int" name="NGX">    64</i>
   <i type="int" name="NGY">    48</i>
   <i type="int" name="NGZ">    60</i>
   <i type="int" name="NGXF">   128</i>
   <i type="int" name="NGYF">    96</i>
   <i type="int" name="NGZF">   120</i>
   <i type="logical" name="ADDGRID"> F  </i>
  </separator>
  <separator name="ionic" >
   <i type="int" name="NSW">     0</i>
   <i type="int" name="IBRION">    -1</i>
   <i type="int" name="MDALGO">     0</i>
   <i type="int" name="ISIF">     2</i>
   <i name="PSTRESS">      0.00000000</i>
   <i name="EDIFFG">     -0.00500000</i>
   <i type="int" name="NFREE">     0</i>
   <i name="POTIM">      0.50000000</i>
   <i name="SMASS">     -3.00000000</i>
   <i name="SCALEE">      1.00000000</i>
  </separator>
  <separator name="ionic md" >
   <i name="TEBEG">      0.00010000</i>
   <i name="TEEND">      0.00010000</i>
   <i type="int" name="NBLOCK">     1</i>
   <i type="int" name="KBLOCK">     1</i>
   <i type="int" name="NPACO">   256</i>
   <i name="APACO">     10.00000000</i>
  </separator>
  <separator name="symmetry" >
   <i type="int" name="ISYM">     3</i>
   <i name="SYMPREC">      0.00001000</i>
  </separator>
  <separator name="dos" >
   <i type="int" name="LORBIT">     0</i>
   <v name="RWIGS">     -1.00000000     -1.00000000     -1.00000000</v>
   <i type="int" name="NEDOS">   301</i>
   <i name="EMIN">     10.00000000</i>
   <i name="EMAX">    -10.00000000</i>
   <i name="EFERMI">      0.00000000</i>
  </separator>
  <separator name="writing" >
   <i type="int" name="NWRITE">     2</i>
   <i type="logical" name="LWAVE"> T  </i>
   <i type="logical" name="LDOWNSAMPLE"> F  </i>
   <i type="logical" name="LCHARG"> T  </i>
   <i type="logical" name="LPARD"> F  </i>
   <i type="logical" name="LVTOT"> F  </i>
   <i type="logical" name="LVHAR"> F  </i>
   <i type="logical" name="LELF"> F  </i>
   <i type="logical" name="LOPTICS"> F  </i>
   <v name="STM">      0.00000000      0.00000000      0.00000000      0.00000000      0.00000000      0.00000000      0.00000000</v>
  </separator>
  <separator name="performance" >
   <i type="int" name="NPAR">     1</i>
   <i type="int" name="NSIM">     4</i>
   <i type="int" name="NBLK">    -1</i>
   <i type="logical" name="LPLANE"> T  </i>
   <i type="logical" name="LSCALAPACK"> T  </i>
   <i type="logical" name="LSCAAWARE"> F  </i>
   <i type="logical" name="LSCALU"> F  </i>
   <i type="logical" name="LASYNC"> F  </i>
   <i type="logical" name="LORBITALREAL"> F  </i>
  </separator>
  <separator name="miscellaneous" >
   <i type="int" name="IDIOT">     3</i>
   <i type="int" name="PHON_NSTRUCT">    -1</i>
   <i type="logical" name="LMUSIC"> F  </i>
   <v name="POMASS">     69.72300000     16.00000000     55.84700000</v>
   <v name="DARWINR">      0.00000000      0.00000000      0.00000000</v>
   <v name="DARWINV">      1.00000000      1.00000000      1.00000000</v>
   <i type="logical" name="LCORR"> T  </i>
  </separator>
  <i type="logical" name="GGA_COMPAT"> T  </i>
  <i type="logical" name="LBERRY"> F  </i>
  <i type="int" name="ICORELEVEL">     1</i>
  <i type="int" name="CLNT">     1</i>
  <i type="int" name="CLN">     1</i>
  <i type="int" name="CLL">     0</i>
  <i name="CLZ">      0.00000000</i>
  <i type="logical" name="LDAU"> F  </i>
  <i type="int" name="I_CONSTRAINED_M">     0</i>
  <separator name="electronic exchange-correlation" >
   <i type="string" name="GGA">--</i>
   <i type="int" name="VOSKOWN">     0</i>
   <i type="logical" name="LHFCALC"> T  </i>
   <i type="string" name="PRECFOCK">fast</i>
   <i type="logical" name="LSYMGRAD"> F  </i>
   <i type="logical" name="LHFONE"> F  </i>
   <i type="logical" name="LRHFCALC"> F  </i>
   <i type="logical" name="LTHOMAS"> F  </i>
   <i type="logical" name="LMODELHF"> F  </i>
   <i type="logical" name="LFOCKACE"> T  </i>
   <i name="ENCUT4O">     -1.00000000</i>
   <i type="int" name="EXXOEP">     0</i>
   <i type="int" name="FOURORBIT">     0</i>
   <i name="AEXX">      0.32000000</i>
   <i name="HFALPHA">     -1.00000000</i>
   <i name="MCALPHA">      0.00000000</i>
   <i name="ALDAX">      0.68000000</i>
   <i name="AGGAX">      0.68000000</i>
   <i name="ALDAC">      1.00000000</i>
   <i name="AGGAC">      1.00000000</i>
   <i type="int" name="NKREDX">     1</i>
   <i type="int" name="NKREDY">     1</i>
   <i type="int" name="NKREDZ">     1</i>
   <i type="logical" name="SHIFTRED"> F  </i>
   <i type="logical" name="ODDONLY"> F  </i>
   <i type="logical" name="EVENONLY"> F  </i>
   <i type="int" name="LMAXFOCK">     4</i>
   <i type="int" name="NMAXFOCKAE">     1</i>
   <i type="logical" name="LFOCKAEDFT"> F  </i>
   <i name="HFSCREEN">      0.20000000</i>
   <i name="HFSCREENC">      0.20000000</i>
   <i type="int" name="NBANDSGWLOW">     1</i>
  </separator>
  <separator name="vdW DFT" >
   <i type="logical" name="LUSE_VDW"> F  </i>
   <i type="int" name="IVDW_NL">     1</i>
   <i type="logical" name="LSPIN_VDW"> F  </i>
   <i name="Zab_VDW">     -0.84910000</i>
   <i name="PARAM1">      0.12340000</i>
   <i name="PARAM2">      1.00000000</i>
   <i name="PARAM3">      0.00000000</i>
  </separator>
  <separator name="model GW" >
   <i type="int" name="MODEL_GW">     0</i>
   <i name="MODEL_EPS0">      6.34402517</i>
   <i name="MODEL_ALPHA">      1.00000000</i>
  </separator>
  <separator name="linear response parameters" >
   <i type="logical" name="LEPSILON"> F  </i>
   <i type="logical" name="LRPA"> F  </i>
   <i type="logical" name="LNABLA"> F  </i>
   <i type="logical" name="LVEL"> F  </i>
   <i name="CSHIFT">      0.10000000</i>
   <i name="OMEGAMAX">     -1.00000000</i>
   <i name="DEG_THRESHOLD">      0.00200000</i>
   <i name="RTIME">     -0.10000000</i>
   <i name="WPLASMAI">      0.00000000</i>
   <v name="DFIELD">      0.00000000      0.00000000      0.00000000</v>
   <v name="WPLASMA">      0.00000000      0.00000000      0.00000000      0.00000000      0.00000000      0.00000000      0.00000000      0.00000000      0.00000000</v>
  </separator>
  <separator name="orbital magnetization" >
   <i type="logical" name="NUCIND"> F  </i>
   <v name="MAGPOS">      0.00000000      0.00000000      0.00000000</v>
   <i type="logical" name="LNICSALL"> T  </i>
   <i type="logical" name="ORBITALMAG"> F  </i>
   <i type="logical" name="LMAGBLOCH"> F  </i>
   <i type="logical" name="LCHIMAG"> F  </i>
   <i type="logical" name="LGAUGE"> T  </i>
   <i type="int" name="MAGATOM">     0</i>
   <v name="MAGDIPOL">      0.00000000      0.00000000      0.00000000</v>
   <v name="AVECCONST">      0.00000000      0.00000000      0.00000000</v>
  </separator>
  <separator name="response functions" >
   <i type="logical" name="LALL_IN_ONE"> F  </i>
   <i type="int" name="IALL_IN_ONE">    -1</i>
   <i type="int" name="NBANDS_WAVE">    -1</i>
   <i type="logical" name="LFINITE_TEMPERATURE"> F  </i>
   <i type="logical" name="LADDER"> F  </i>
   <i type="logical" name="LRPAFORCE"> F  </i>
   <i type="logical" name="LFXC"> F  </i>
   <i type="logical" name="LHARTREE"> T  </i>
   <i type="int" name="IBSE">     0</i>
   <v type="int" name="KPOINT">    -1     0     0     0</v>
   <i type="logical" name="LTCTC"> F  </i>
   <i type="logical" name="LTCTE"> F  </i>
   <i type="logical" name="LTETE"> F  </i>
   <i type="logical" name="LTRIPLET"> F  </i>
   <i type="logical" name="LFXCEPS"> F  </i>
   <i type="logical" name="LFXHEG"> F  </i>
   <i type="int" name="NATURALO">     2</i>
   <i type="logical" name="LHOLEGF"> F  </i>
   <i type="logical" name="L2ORDER"> F  </i>
   <i type="logical" name="LDMP1"> F  </i>
   <i type="logical" name="LMP2LT"> F  </i>
   <i type="logical" name="LSMP2LT"> F  </i>
   <i type="logical" name="LGWLF"> F  </i>
   <i name="ENCUTGW">     -1.60000002</i>
   <i name="ENCUTGWSOFT">     -1.60000002</i>
   <i name="ENCUTLF">     -1.00000000</i>
   <i type="logical" name="LESF_SPLINES"> F  </i>
   <i type="int" name="LMAXMP2">    -1</i>
   <i name="SCISSOR">      0.00000000</i>
   <i type="int" name="NOMEGA">     0</i>
   <i type="int" name="NOMEGAR">     0</i>
   <i type="int" name="NBANDSGW">    -1</i>
   <i type="int" name="NBANDSO">    -1</i>
   <i type="int" name="NBANDSV">    -1</i>
   <i type="int" name="NELMGW">     1</i>
   <i type="int" name="NELMHF">     1</i>
   <i type="int" name="DIM">     3</i>
   <i type="int" name="IESPILON">     4</i>
   <i type="int" name="ANTIRES">     0</i>
   <i name="OMEGAMAX">    -30.00000000</i>
   <i name="OMEGAMIN">    -30.00000000</i>
   <i name="OMEGATL">   -200.00000000</i>
   <i type="int" name="OMEGAGRID">     0</i>
   <i name="CSHIFT">     -0.10000000</i>
   <i type="logical" name="LSELFENERGY"> F  </i>
   <i type="logical" name="LSPECTRAL"> F  </i>
   <i type="logical" name="LSPECTRALGW"> F  </i>
   <i type="logical" name="LSINGLES"> F  </i>
   <i type="logical" name="LFERMIGW"> F  </i>
   <i type="logical" name="ODDONLYGW"> F  </i>
   <i type="logical" name="EVENONLYGW"> F  </i>
   <i type="int" name="NKREDLFX">     1</i>
   <i type="int" name="NKREDLFY">     1</i>
   <i type="int" name="NKREDLFZ">     1</i>
   <i type="int" name="MAXMEM">  2800</i>
   <i type="int" name="TELESCOPE">     0</i>
   <i type="int" name="NTAUPAR">    -1</i>
   <i type="int" name="NOMEGAPAR">    -1</i>
   <i name="DAMP_NEWTON">      0.80000001</i>
   <i name="LAMBDA">      1.00000000</i>
  </separator>
  <separator name="External order field" >
   <i name="OFIELD_KAPPA">      0.00000000</i>
   <v name="OFIELD_K">      0.00000000      0.00000000      0.00000000</v>
   <i name="OFIELD_Q6_NEAR">      0.00000000</i>
   <i name="OFIELD_Q6_FAR">      0.00000000</i>
   <i name="OFIELD_A">      0.00000000</i>
  </separator>
  <separator name="optional k-points parameters" >
   <i type="int" name="KPOINTS_OPT_MODE">     1</i>
   <i type="logical" name="LKPOINTS_OPT"> F  </i>
  </separator>
 </parameters>
 <atominfo>
  <atoms>     120 </atoms>
  <types>       3 </types>
  <array name="atoms" >
   <dimension dim="1">ion</dimension>
   <field type="string">element</field>
   <field type="int">atomtype</field>
   <set>
    <rc><c>Ga</c><c>   1</c></rc>
    <rc><c>Ga</c><c>   1</c></rc>
    <rc><c>Ga</c><c>   1</c></rc>
    <rc><c>Ga</c><c>   1</c></rc>
    <rc><c>Ga</c><c>   1</c></rc>
    <rc><c>Ga</c><c>   1</c></rc>
    <rc><c>Ga</c><c>   1</c></rc>
    <rc><c>Ga</c><c>   1</c></rc>
    <rc><c>Ga</c><c>   1</c></rc>
    <rc><c>Ga</c><c>   1</c></rc>
    <rc><c>Ga</c><c>   1</c></rc>
    <rc><c>Ga</c><c>   1</c></rc>
    <rc><c>Ga</c><c>   1</c></rc>
    <rc><c>Ga</c><c>   1</c></rc>
    <rc><c>Ga</c><c>   1</c></rc>
    <rc><c>Ga</c><c>   1</c></rc>
    <rc><c>Ga</c><c>   1</c></rc>
    <rc><c>Ga</c><c>   1</c></rc>
    <rc><c>Ga</c><c>   1</c></rc>
    <rc><c>Ga</c><c>   1</c></rc>
    <rc><c>Ga</c><c>   1</c></rc>
    <rc><c>Ga</c><c>   1</c></rc>
    <rc><c>Ga</c><c>   1</c></rc>
    <rc><c>Ga</c><c>   1</c></rc>
    <rc><c>Ga</c><c>   1</c></rc>
    <rc><c>Ga</c><c>   1</c></rc>
    <rc><c>Ga</c><c>   1</c></rc>
    <rc><c>Ga</c><c>   1</c></rc>
    <rc><c>Ga</c><c>   1</c></rc>
    <rc><c>Ga</c><c>   1</c></rc>
    <rc><c>Ga</c><c>   1</c></rc>
    <rc><c>Ga</c><c>   1</c></rc>
    <rc><c>Ga</c><c>   1</c></rc>
    <rc><c>Ga</c><c>   1</c></rc>
    <rc><c>Ga</c><c>   1</c></rc>
    <rc><c>Ga</c><c>   1</c></rc>
    <rc><c>Ga</c><c>   1</c></rc>
    <rc><c>Ga</c><c>   1</c></rc>
    <rc><c>Ga</c><c>   1</c></rc>
    <rc><c>Ga</c><c>   1</c></rc>
    <rc><c>Ga</c><c>   1</c></rc>
    <rc><c>Ga</c><c>   1</c></rc>
    <rc><c>Ga</c><c>   1</c></rc>
    <rc><c>Ga</c><c>   1</c></rc>
    <rc><c>Ga</c><c>   1</c></rc>
    <rc><c>Ga</c><c>   1</c></rc>
    <rc><c>Ga</c><c>   1</c></rc>
    <rc><c>O </c><c>   2</c></rc>
    <rc><c>O </c><c>   2</c></rc>
    <rc><c>O </c><c>   2</c></rc>
    <rc><c>O </c><c>   2</c></rc>
    <rc><c>O </c><c>   2</c></rc>
    <rc><c>O </c><c>   2</c></rc>
    <rc><c>O </c><c>   2</c></rc>
    <rc><c>O </c><c>   2</c></rc>
    <rc><c>O </c><c>   2</c></rc>
    <rc><c>O </c><c>   2</c></rc>
    <rc><c>O </c><c>   2</c></rc>
    <rc><c>O </c><c>   2</c></rc>
    <rc><c>O </c><c>   2</c></rc>
    <rc><c>O </c><c>   2</c></rc>
    <rc><c>O </c><c>   2</c></rc>
    <rc><c>O </c><c>   2</c></rc>
    <rc><c>O </c><c>   2</c></rc>
    <rc><c>O </c><c>   2</c></rc>
    <rc><c>O </c><c>   2</c></rc>
    <rc><c>O </c><c>   2</c></rc>
    <rc><c>O </c><c>   2</c></rc>
    <rc><c>O </c><c>   2</c></rc>
    <rc><c>O </c><c>   2</c></rc>
    <rc><c>O </c><c>   2</c></rc>
    <rc><c>O </c><c>   2</c></rc>
    <rc><c>O </c><c>   2</c></rc>
    <rc><c>O </c><c>   2</c></rc>
    <rc><c>O </c><c>   2</c></rc>
    <rc><c>O </c><c>   2</c></rc>
    <rc><c>O </c><c>   2</c></rc>
    <rc><c>O </c><c>   2</c></rc>
    <rc><c>O </c><c>   2</c></rc>
    <rc><c>O </c><c>   2</c></rc>
    <rc><c>O </c><c>   2</c></rc>
    <rc><c>O </c><c>   2</c></rc>
    <rc><c>O </c><c>   2</c></rc>
    <rc><c>O </c><c>   2</c></rc>
    <rc><c>O </c><c>   2</c></rc>
    <rc><c>O </c><c>   2</c></rc>
    <rc><c>O </c><c>   2</c></rc>
    <rc><c>O </c><c>   2</c></rc>
    <rc><c>O </c><c>   2</c></rc>
    <rc><c>O </c><c>   2</c></rc>
    <rc><c>O </c><c>   2</c></rc>
    <rc><c>O </c><c>   2</c></rc>
    <rc><c>O </c><c>   2</c></rc>
    <rc><c>O </c><c>   2</c></rc>
    <rc><c>O </c><c>   2</c></rc>
    <rc><c>O </c><c>   2</c></rc>
    <rc><c>O </c><c>   2</c></rc>
    <rc><c>O </c><c>   2</c></rc>
    <rc><c>O </c><c>   2</c></rc>
    <rc><c>O </c><c>   2</c></rc>
    <rc><c>O </c><c>   2</c></rc>
    <rc><c>O </c><c>   2</c></rc>
    <rc><c>O </c><c>   2</c></rc>
    <rc><c>O </c><c>   2</c></rc>
    <rc><c>O </c><c>   2</c></rc>
    <rc><c>O </c><c>   2</c></rc>
    <rc><c>O </c><c>   2</c></rc>
    <rc><c>O </c><c>   2</c></rc>
    <rc><c>O </c><c>   2</c></rc>
    <rc><c>O </c><c>   2</c></rc>
    <rc><c>O </c><c>   2</c></rc>
    <rc><c>O </c><c>   2</c></rc>
    <rc><c>O </c><c>   2</c></rc>
    <rc><c>O </c><c>   2</c></rc>
    <rc><c>O </c><c>   2</c></rc>
    <rc><c>O </c><c>   2</c></rc>
    <rc><c>O </c><c>   2</c></rc>
    <rc><c>O </c><c>   2</c></rc>
    <rc><c>O </c><c>   2</c></rc>
    <rc><c>Fe</c><c>   3</c></rc>
   </set>
  </array>
  <array name="atomtypes" >
   <dimension dim="1">type</dimension>
   <field type="int">atomspertype</field>
   <field type="string">element</field>
   <field>mass</field>
   <field>valence</field>
   <field type="string">pseudopotential</field>
   <set>
    <rc><c>  47</c><c>Ga</c><c>     69.72300000</c><c>     13.00000000</c><c>  PAW_PBE Ga_d 06Jul2010                </c></rc>
    <rc><c>  72</c><c>O </c><c>     16.00000000</c><c>      6.00000000</c><c>  PAW_PBE O 08Apr2002                   </c></rc>
    <rc><c>   1</c><c>Fe</c><c>     55.84700000</c><c>      8.00000000</c><c>  PAW_PBE Fe 06Sep2000                  </c></rc>
   </set>
  </array>
 </atominfo>
 <structure name="initialpos" >
  <crystal>
   <varray name="basis" >
    <v>       0.00000000      12.28047371       0.00000000 </v>
    <v>       9.14270115       0.00000000       0.00000000 </v>
    <v>       0.00000000      -2.76826164     -11.30069748 </v>
   </varray>
   <i name="volume">   1268.80503319 </i>
   <varray name="rec_basis" >
    <v>       0.00000000       0.08143008      -0.01994742 </v>
    <v>       0.10937687      -0.00000000       0.00000000 </v>
    <v>       0.00000000       0.00000000      -0.08849011 </v>
   </varray>
  </crystal>
  <varray name="positions" >
   <v>       0.65933511       0.99992469       0.15695623 </v>
   <v>       0.65937998       0.99987728       0.65729100 </v>
   <v>       0.65933511       0.33340831       0.15695623 </v>
   <v>       0.65937998       0.33345572       0.65729100 </v>
   <v>       0.65926800       0.66666700       0.15696004 </v>
   <v>       0.65952166       0.66666700       0.65647166 </v>
   <v>       0.84138911       0.16666700       0.84308942 </v>
   <v>       0.84095932       0.49911865       0.34354292 </v>
   <v>       0.84139384       0.49980922       0.84325014 </v>
   <v>       0.84095932       0.83421435       0.34354292 </v>
   <v>       0.84139384       0.83352378       0.84325014 </v>
   <v>       0.59335113       0.16666700       0.39889212 </v>
   <v>       0.59111305       0.16666700       0.89790562 </v>
   <v>       0.59094508       0.49968083       0.39760616 </v>
   <v>       0.59143500       0.49998340       0.89787046 </v>
   <v>       0.59094508       0.83365217       0.39760616 </v>
   <v>       0.59143500       0.83334960       0.89787046 </v>
   <v>       0.90878482       0.00081573       0.10292679 </v>
   <v>       0.90770723       0.00182747       0.59966078 </v>
   <v>       0.90878482       0.33251727       0.10292679 </v>
   <v>       0.90770723       0.33150553       0.59966078 </v>
   <v>       0.90869164       0.66666700       0.10224521 </v>
   <v>       0.90885241       0.66666700       0.60222748 </v>
   <v>       0.15910426       0.16666700       0.15692773 </v>
   <v>       0.15883461       0.16666700       0.65628079 </v>
   <v>       0.15871359       0.49971658       0.15705583 </v>
   <v>       0.15831325       0.49961772       0.65626073 </v>
   <v>       0.15871359       0.83361642       0.15705583 </v>
   <v>       0.15831325       0.83371528       0.65626073 </v>
   <v>       0.34103684       0.00026206       0.34383363 </v>
   <v>       0.34095103       0.99992493       0.84331295 </v>
   <v>       0.34103684       0.33307094       0.34383363 </v>
   <v>       0.34095103       0.33340807       0.84331295 </v>
   <v>       0.34108935       0.66666700       0.34346174 </v>
   <v>       0.34087601       0.66666700       0.84321013 </v>
   <v>       0.08865240       0.00103678       0.39715706 </v>
   <v>       0.09117905       0.99999879       0.89762740 </v>
   <v>       0.08865240       0.33229622       0.39715706 </v>
   <v>       0.09117905       0.33333421       0.89762740 </v>
   <v>       0.09107450       0.66666700       0.39767900 </v>
   <v>       0.09124333       0.66666700       0.89791105 </v>
   <v>       0.40881263       0.16666700       0.10260885 </v>
   <v>       0.40931123       0.16666700       0.60265281 </v>
   <v>       0.40907079       0.49983594       0.10263584 </v>
   <v>       0.40916112       0.50006428       0.60264417 </v>
   <v>       0.40907079       0.83349706       0.10263584 </v>
   <v>       0.40916112       0.83326872       0.60264417 </v>
   <v>       0.99673984       0.16666700       0.12807337 </v>
   <v>       0.99663787       0.16666700       0.62885553 </v>
   <v>       0.99585171       0.49964815       0.12755070 </v>
   <v>       0.99520100       0.49892367       0.62576724 </v>
   <v>       0.99585171       0.83368485       0.12755070 </v>
   <v>       0.99520100       0.83440933       0.62576724 </v>
   <v>       0.50422907       0.00094998       0.37279404 </v>
   <v>       0.50373828       0.99987836       0.87300015 </v>
   <v>       0.50422907       0.33238302       0.37279404 </v>
   <v>       0.50373828       0.33345464       0.87300015 </v>
   <v>       0.50379808       0.66666700       0.37274611 </v>
   <v>       0.50389991       0.66666700       0.87308602 </v>
   <v>       0.67635647       0.16666700       0.28267862 </v>
   <v>       0.67281178       0.16666700       0.78100306 </v>
   <v>       0.67242306       0.49977601       0.28033811 </v>
   <v>       0.67280825       0.49994766       0.78055016 </v>
   <v>       0.67242306       0.83355699       0.28033811 </v>
   <v>       0.67280825       0.83338534       0.78055016 </v>
   <v>       0.82776377       0.00329741       0.22122266 </v>
   <v>       0.82780227       0.00005005       0.71905814 </v>
   <v>       0.82776377       0.33003559       0.22122266 </v>
   <v>       0.82780227       0.33328295       0.71905814 </v>
   <v>       0.82733828       0.66666700       0.21953855 </v>
   <v>       0.82761214       0.66666700       0.71959127 </v>
   <v>       0.83229492       0.00526569       0.44195535 </v>
   <v>       0.83242637       0.00012086       0.94598255 </v>
   <v>       0.83229492       0.32806731       0.44195535 </v>
   <v>       0.83242637       0.33321214       0.94598255 </v>
   <v>       0.83160332       0.66666700       0.44564879 </v>
   <v>       0.83230419       0.66666700       0.94556605 </v>
   <v>       0.66769468       0.16666700       0.05465023 </v>
   <v>       0.66866819       0.16666700       0.55545034 </v>
   <v>       0.66873041       0.49976989       0.05452553 </v>
   <v>       0.66851615       0.49964085       0.55407602 </v>
   <v>       0.66873041       0.83356311       0.05452553 </v>
   <v>       0.66851615       0.83369215       0.55407602 </v>
   <v>       0.49674340       0.00031223       0.12794718 </v>
   <v>       0.49666309       0.99991144       0.62752578 </v>
   <v>       0.49674340       0.33302077       0.12794718 </v>
   <v>       0.49666309       0.33342156       0.62752578 </v>
   <v>       0.49652143       0.66666700       0.12714850 </v>
   <v>       0.49682718       0.66666700       0.62731796 </v>
   <v>       0.00011513       0.16666700       0.37390335 </v>
   <v>       0.00390690       0.16666700       0.87349826 </v>
   <v>       0.00327297       0.50044312       0.37239855 </v>
   <v>       0.00384403       0.50002717       0.87259822 </v>
   <v>       0.00327297       0.83288988       0.37239855 </v>
   <v>       0.00384403       0.83330583       0.87259822 </v>
   <v>       0.17196638       0.00041264       0.28105528 </v>
   <v>       0.17266139       0.99981531       0.78041271 </v>
   <v>       0.17196638       0.33292036       0.28105528 </v>
   <v>       0.17266139       0.33351769       0.78041271 </v>
   <v>       0.17267533       0.66666700       0.28063896 </v>
   <v>       0.17205985       0.66666700       0.78013196 </v>
   <v>       0.32731338       0.16666700       0.21977794 </v>
   <v>       0.32745934       0.16666700       0.71952334 </v>
   <v>       0.32747467       0.49957306       0.21978480 </v>
   <v>       0.32727447       0.50006210       0.71943848 </v>
   <v>       0.32747467       0.83375994       0.21978480 </v>
   <v>       0.32727447       0.83327090       0.71943848 </v>
   <v>       0.33240607       0.16666700       0.44616659 </v>
   <v>       0.33228054       0.16666700       0.94591322 </v>
   <v>       0.33264240       0.50000016       0.44597541 </v>
   <v>       0.33227495       0.50004215       0.94596305 </v>
   <v>       0.33264240       0.83333284       0.44597541 </v>
   <v>       0.33227495       0.83329085       0.94596305 </v>
   <v>       0.16785484       0.99990846       0.05441913 </v>
   <v>       0.16719875       0.00021830       0.55356775 </v>
   <v>       0.16785484       0.33342454       0.05441913 </v>
   <v>       0.16719875       0.33311470       0.55356775 </v>
   <v>       0.16747908       0.66666700       0.05468882 </v>
   <v>       0.16753284       0.66666700       0.55432980 </v>
   <v>       0.83807517       0.16666700       0.33647155 </v>
  </varray>
 </structure>
 <calculation>
  <scstep>
   <time name="total">    3.97    3.98</time>
   <energy>
    <i name="alphaZ">   5496.83009512 </i>
    <i name="ewald"> -87997.94232019 </i>
    <i name="hartreedc">  -2076.93439649 </i>
    <i name="XCdc">   2775.71766174 </i>
    <i name="pawpsdc">  78587.71847798 </i>
    <i name="pawaedc">-107641.44788343 </i>
    <i name="eentropy">     -0.01087552 </i>
    <i name="bandstr"> -39741.63167162 </i>
    <i name="atom"> 132341.04863466 </i>
    <i name="e_fr_energy"> -18256.65227776 </i>
    <i name="e_wo_entrp"> -18256.64140224 </i>
    <i name="e_0_energy"> -18256.64684000 </i>
   </energy>
  </scstep>
  <scstep>
   <time name="total">    3.17    3.17</time>
   <energy>
    <i name="e_fr_energy"> -61974.45087071 </i>
    <i name="e_wo_entrp"> -61974.43155532 </i>
    <i name="e_0_energy"> -61974.44121301 </i>
   </energy>
  </scstep>
  <scstep>
   <time name="total">    3.32    3.32</time>
   <energy>
    <i name="e_fr_energy"> -66541.70409611 </i>
    <i name="e_wo_entrp"> -66541.66603382 </i>
    <i name="e_0_energy"> -66541.68506497 </i>
   </energy>
  </scstep>
  <scstep>
   <time name="total">    3.69    3.69</time>
   <energy>
    <i name="e_fr_energy"> -67082.24872790 </i>
    <i name="e_wo_entrp"> -67082.20445579 </i>
    <i name="e_0_energy"> -67082.22659184 </i>
   </energy>
  </scstep>
  <scstep>
   <time name="total">  239.22  239.19</time>
   <energy>
    <i name="e_fr_energy"> -37128.90995987 </i>
    <i name="e_wo_entrp"> -37128.88783225 </i>
    <i name="e_0_energy"> -37128.89889606 </i>
   </energy>
  </scstep>
  <scstep>
   <time name="total">  475.70  475.90</time>
   <energy>
    <i name="e_fr_energy">  18231.31061397 </i>
    <i name="e_wo_entrp">  18231.34535432 </i>
    <i name="e_0_energy">  18231.32798414 </i>
   </energy>
  </scstep>
  <scstep>
   <time name="total">  476.77  476.70</time>
   <energy>
    <i name="e_fr_energy">   4362.06105273 </i>
    <i name="e_wo_entrp">   4362.11360996 </i>
    <i name="e_0_energy">   4362.08733135 </i>
   </energy>
  </scstep>
  <scstep>
   <time name="total">  477.34  477.27</time>
   <energy>
    <i name="e_fr_energy">   1375.64720136 </i>
    <i name="e_wo_entrp">   1375.70939972 </i>
    <i name="e_0_energy">   1375.67830054 </i>
   </energy>
  </scstep>
  <scstep>
   <time name="total">  477.21  477.15</time>
   <energy>
    <i name="e_fr_energy">    631.33343082 </i>
    <i name="e_wo_entrp">    631.37522679 </i>
    <i name="e_0_energy">    631.35432880 </i>
   </energy>
  </scstep>
  <scstep>
   <time name="total">  476.55  476.48</time>
   <energy>
    <i name="e_fr_energy">    186.60498160 </i>
    <i name="e_wo_entrp">    186.62446529 </i>
    <i name="e_0_energy">    186.61472345 </i>
   </energy>
  </scstep>
  <scstep>
   <time name="total">  475.29  475.24</time>
   <energy>
    <i name="e_fr_energy">   -279.07100646 </i>
    <i name="e_wo_entrp">   -279.06407318 </i>
    <i name="e_0_energy">   -279.06753982 </i>
   </energy>
  </scstep>
  <scstep>
   <time name="total">  475.23  475.18</time>
   <energy>
    <i name="e_fr_energy">   -656.75257614 </i>
    <i name="e_wo_entrp">   -656.74582875 </i>
    <i name="e_0_energy">   -656.74920245 </i>
   </energy>
  </scstep>
  <scstep>
   <time name="total">  474.92  474.87</time>
   <energy>
    <i name="e_fr_energy">   -801.91242487 </i>
    <i name="e_wo_entrp">   -801.91025284 </i>
    <i name="e_0_energy">   -801.91133885 </i>
   </energy>
  </scstep>
  <scstep>
   <time name="total">  474.59  474.53</time>
   <energy>
    <i name="e_fr_energy">   -881.80752533 </i>
    <i name="e_wo_entrp">   -881.80503317 </i>
    <i name="e_0_energy">   -881.80627925 </i>
   </energy>
  </scstep>
  <scstep>
   <time name="total">  474.60  474.54</time>
   <energy>
    <i name="e_fr_energy">   -922.48962461 </i>
    <i name="e_wo_entrp">   -922.48236128 </i>
    <i name="e_0_energy">   -922.48599294 </i>
   </energy>
  </scstep>
  <scstep>
   <time name="total">  475.16  475.09</time>
   <energy>
    <i name="e_fr_energy">   -940.71311149 </i>
    <i name="e_wo_entrp">   -940.70670913 </i>
    <i name="e_0_energy">   -940.70991031 </i>
   </energy>
  </scstep>
  <scstep>
   <time name="total">  474.65  474.59</time>
   <energy>
    <i name="e_fr_energy">   -952.14997287 </i>
    <i name="e_wo_entrp">   -952.14135922 </i>
    <i name="e_0_energy">   -952.14566605 </i>
   </energy>
  </scstep>
  <scstep>
   <time name="total">  474.43  474.36</time>
   <energy>
    <i name="e_fr_energy">   -956.59372709 </i>
    <i name="e_wo_entrp">   -956.59124904 </i>
    <i name="e_0_energy">   -956.59248807 </i>
   </energy>
  </scstep>
  <scstep>
   <time name="total">  474.41  474.35</time>
   <energy>
    <i name="e_fr_energy">   -958.29433780 </i>
    <i name="e_wo_entrp">   -958.29395295 </i>
    <i name="e_0_energy">   -958.29414538 </i>
   </energy>
  </scstep>
  <scstep>
   <time name="total">  474.57  474.51</time>
   <energy>
    <i name="e_fr_energy">   -960.33576570 </i>
    <i name="e_wo_entrp">   -960.33567596 </i>
    <i name="e_0_energy">   -960.33572083 </i>
   </energy>
  </scstep>
  <scstep>
   <time name="total">  474.62  474.54</time>
   <energy>
    <i name="e_fr_energy">   -961.56691072 </i>
    <i name="e_wo_entrp">   -961.56593391 </i>
    <i name="e_0_energy">   -961.56642232 </i>
   </energy>
  </scstep>
  <scstep>
   <time name="total">  474.55  474.51</time>
   <energy>
    <i name="e_fr_energy">   -962.36237252 </i>
    <i name="e_wo_entrp">   -962.35247868 </i>
    <i name="e_0_energy">   -962.35742560 </i>
   </energy>
  </scstep>
  <scstep>
   <time name="total">  474.54  474.47</time>
   <energy>
    <i name="e_fr_energy">   -962.88268799 </i>
    <i name="e_wo_entrp">   -962.86390247 </i>
    <i name="e_0_energy">   -962.87329523 </i>
   </energy>
  </scstep>
  <scstep>
   <time name="total">  474.91  474.84</time>
   <energy>
    <i name="e_fr_energy">   -963.21483031 </i>
    <i name="e_wo_entrp">   -963.19537288 </i>
    <i name="e_0_energy">   -963.20510160 </i>
   </energy>
  </scstep>
  <scstep>
   <time name="total">  475.03  474.95</time>
   <energy>
    <i name="e_fr_energy">   -963.41989308 </i>
    <i name="e_wo_entrp">   -963.40430438 </i>
    <i name="e_0_energy">   -963.41209873 </i>
   </energy>
  </scstep>
  <scstep>
   <time name="total">  474.47  474.40</time>
   <energy>
    <i name="e_fr_energy">   -963.53548712 </i>
    <i name="e_wo_entrp">   -963.52127767 </i>
    <i name="e_0_energy">   -963.52838240 </i>
   </energy>
  </scstep>
  <scstep>
   <time name="total">  474.97  474.90</time>
   <energy>
    <i name="e_fr_energy">   -963.60370412 </i>
    <i name="e_wo_entrp">   -963.58782710 </i>
    <i name="e_0_energy">   -963.59576561 </i>
   </energy>
  </scstep>
  <scstep>
   <time name="total">  474.74  474.67</time>
   <energy>
    <i name="e_fr_energy">   -963.64962322 </i>
    <i name="e_wo_entrp">   -963.62926396 </i>
    <i name="e_0_energy">   -963.63944359 </i>
   </energy>
  </scstep>
  <scstep>
   <time name="total">  474.49  474.41</time>
   <energy>
    <i name="e_fr_energy">   -963.68006259 </i>
    <i name="e_wo_entrp">   -963.65441399 </i>
    <i name="e_0_energy">   -963.66723829 </i>
   </energy>
  </scstep>
  <scstep>
   <time name="total">  474.76  474.68</time>
   <energy>
    <i name="e_fr_energy">   -963.70244279 </i>
    <i name="e_wo_entrp">   -963.67481070 </i>
    <i name="e_0_energy">   -963.68862675 </i>
   </energy>
  </scstep>
  <scstep>
   <time name="total">  474.85  474.79</time>
   <energy>
    <i name="e_fr_energy">   -963.71684530 </i>
    <i name="e_wo_entrp">   -963.68973160 </i>
    <i name="e_0_energy">   -963.70328845 </i>
   </energy>
  </scstep>
  <scstep>
   <time name="total">  474.85  474.88</time>
   <energy>
    <i name="e_fr_energy">   -963.72669504 </i>
    <i name="e_wo_entrp">   -963.70048892 </i>
    <i name="e_0_energy">   -963.71359198 </i>
   </energy>
  </scstep>
  <scstep>
   <time name="total">  474.87  474.79</time>
   <energy>
    <i name="e_fr_energy">   -963.73332369 </i>
    <i name="e_wo_entrp">   -963.70751383 </i>
    <i name="e_0_energy">   -963.72041876 </i>
   </energy>
  </scstep>
  <scstep>
   <time name="total">  474.93  474.85</time>
   <energy>
    <i name="e_fr_energy">   -963.73829181 </i>
    <i name="e_wo_entrp">   -963.71222212 </i>
    <i name="e_0_energy">   -963.72525696 </i>
   </energy>
  </scstep>
  <scstep>
   <time name="total">  474.65  474.58</time>
   <energy>
    <i name="e_fr_energy">   -963.74258487 </i>
    <i name="e_wo_entrp">   -963.71574233 </i>
    <i name="e_0_energy">   -963.72916360 </i>
   </energy>
  </scstep>
  <scstep>
   <time name="total">  474.66  474.59</time>
   <energy>
    <i name="e_fr_energy">   -963.74658282 </i>
    <i name="e_wo_entrp">   -963.71892350 </i>
    <i name="e_0_energy">   -963.73275316 </i>
   </energy>
  </scstep>
  <scstep>
   <time name="total">  474.91  474.86</time>
   <energy>
    <i name="e_fr_energy">   -963.75072317 </i>
    <i name="e_wo_entrp">   -963.72287627 </i>
    <i name="e_0_energy">   -963.73679972 </i>
   </energy>
  </scstep>
  <scstep>
   <time name="total">  474.42  474.35</time>
   <energy>
    <i name="e_fr_energy">   -963.75806807 </i>
    <i name="e_wo_entrp">   -963.73007731 </i>
    <i name="e_0_energy">   -963.74407269 </i>
   </energy>
  </scstep>
  <scstep>
   <time name="total">  474.71  474.64</time>
   <energy>
    <i name="e_fr_energy">   -963.76185058 </i>
    <i name="e_wo_entrp">   -963.73381127 </i>
    <i name="e_0_energy">   -963.74783092 </i>
   </energy>
  </scstep>
  <scstep>
   <time name="total">  474.87  474.80</time>
   <energy>
    <i name="e_fr_energy">   -963.76535772 </i>
    <i name="e_wo_entrp">   -963.73739546 </i>
    <i name="e_0_energy">   -963.75137659 </i>
   </energy>
  </scstep>
  <scstep>
   <time name="total">  474.89  474.83</time>
   <energy>
    <i name="e_fr_energy">   -963.77097243 </i>
    <i name="e_wo_entrp">   -963.74307281 </i>
    <i name="e_0_energy">   -963.75702262 </i>
   </energy>
  </scstep>
  <scstep>
   <time name="total">  474.77  474.70</time>
   <energy>
    <i name="e_fr_energy">   -963.77717313 </i>
    <i name="e_wo_entrp">   -963.74913464 </i>
    <i name="e_0_energy">   -963.76315388 </i>
   </energy>
  </scstep>
  <scstep>
   <time name="total">  474.80  474.74</time>
   <energy>
    <i name="e_fr_energy">   -963.78302635 </i>
    <i name="e_wo_entrp">   -963.75486179 </i>
    <i name="e_0_energy">   -963.76894407 </i>
   </energy>
  </scstep>
  <scstep>
   <time name="total">  474.96  474.88</time>
   <energy>
    <i name="e_fr_energy">   -963.78610223 </i>
    <i name="e_wo_entrp">   -963.75790475 </i>
    <i name="e_0_energy">   -963.77200349 </i>
   </energy>
  </scstep>
  <scstep>
   <time name="total">  474.88  474.80</time>
   <energy>
    <i name="e_fr_energy">   -963.78753946 </i>
    <i name="e_wo_entrp">   -963.75935051 </i>
    <i name="e_0_energy">   -963.77344498 </i>
   </energy>
  </scstep>
  <scstep>
   <time name="total">  474.89  474.82</time>
   <energy>
    <i name="e_fr_energy">   -963.78813127 </i>
    <i name="e_wo_entrp">   -963.75994935 </i>
    <i name="e_0_energy">   -963.77404031 </i>
   </energy>
  </scstep>
  <scstep>
   <time name="total">  474.79  474.72</time>
   <energy>
    <i name="e_fr_energy">   -963.78841384 </i>
    <i name="e_wo_entrp">   -963.76023155 </i>
    <i name="e_0_energy">   -963.77432270 </i>
   </energy>
  </scstep>
  <scstep>
   <time name="total">  474.95  474.92</time>
   <energy>
    <i name="e_fr_energy">   -963.78855981 </i>
    <i name="e_wo_entrp">   -963.76037313 </i>
    <i name="e_0_energy">   -963.77446647 </i>
   </energy>
  </scstep>
  <scstep>
   <time name="total">  474.62  474.54</time>
   <energy>
    <i name="e_fr_energy">   -963.78863505 </i>
    <i name="e_wo_entrp">   -963.76044413 </i>
    <i name="e_0_energy">   -963.77453959 </i>
   </energy>
  </scstep>
  <scstep>
   <time name="total">  475.04  474.97</time>
   <energy>
    <i name="e_fr_energy">   -963.78868095 </i>
    <i name="e_wo_entrp">   -963.76048751 </i>
    <i name="e_0_energy">   -963.77458423 </i>
   </energy>
  </scstep>
  <scstep>
   <time name="total">  474.51  474.44</time>
   <energy>
    <i name="e_fr_energy">   -963.78871084 </i>
    <i name="e_wo_entrp">   -963.76051598 </i>
    <i name="e_0_energy">   -963.77461341 </i>
   </energy>
  </scstep>
  <scstep>
   <time name="total">  474.89  474.81</time>
   <energy>
    <i name="e_fr_energy">   -963.78873670 </i>
    <i name="e_wo_entrp">   -963.76054127 </i>
    <i name="e_0_energy">   -963.77463899 </i>
   </energy>
  </scstep>
  <scstep>
   <time name="total">  474.77  474.70</time>
   <energy>
    <i name="e_fr_energy">   -963.78876057 </i>
    <i name="e_wo_entrp">   -963.76056542 </i>
    <i name="e_0_energy">   -963.77466299 </i>
   </energy>
  </scstep>
  <scstep>
   <time name="total">  474.67  474.60</time>
   <energy>
    <i name="e_fr_energy">   -963.78878376 </i>
    <i name="e_wo_entrp">   -963.76058949 </i>
    <i name="e_0_energy">   -963.77468663 </i>
   </energy>
  </scstep>
  <scstep>
   <time name="total">  474.54  474.47</time>
   <energy>
    <i name="e_fr_energy">   -963.78879932 </i>
    <i name="e_wo_entrp">   -963.76060595 </i>
    <i name="e_0_energy">   -963.77470264 </i>
   </energy>
  </scstep>
  <scstep>
   <time name="total">  708.87  708.78</time>
   <energy>
    <i name="alphaZ">   5496.83009512 </i>
    <i name="ewald"> -87997.94232019 </i>
    <i name="hartreedc"> -33523.50531810 </i>
    <i name="XCdc">   2888.23047111 </i>
    <i name="pawpsdc"> 120429.97285355 </i>
    <i name="pawaedc">-135688.32982578 </i>
    <i name="eentropy">     -0.02819281 </i>
    <i name="bandstr">  -8779.49356413 </i>
    <i name="atom"> 132341.04863466 </i>
    <i name="e_fr_energy">   -963.78880870 </i>
    <i name="e_wo_entrp">   -963.76061589 </i>
    <i name="e_0_energy">   -963.77471229 </i>
   </energy>
  </scstep>
  <structure>
   <crystal>
    <varray name="basis" >
     <v>       0.00000000      12.28047371       0.00000000 </v>
     <v>       9.14270115       0.00000000       0.00000000 </v>
     <v>       0.00000000      -2.76826164     -11.30069748 </v>
    </varray>
    <i name="volume">   1268.80503319 </i>
    <varray name="rec_basis" >
     <v>       0.00000000       0.08143008      -0.01994742 </v>
     <v>       0.10937687      -0.00000000       0.00000000 </v>
     <v>       0.00000000       0.00000000      -0.08849011 </v>
    </varray>
   </crystal>
   <varray name="positions" >
    <v>       0.65933511       0.99992469       0.15695623 </v>
    <v>       0.65937998       0.99987728       0.65729100 </v>
    <v>       0.65933511       0.33340831       0.15695623 </v>
    <v>       0.65937998       0.33345572       0.65729100 </v>
    <v>       0.65926800       0.66666700       0.15696004 </v>
    <v>       0.65952166       0.66666700       0.65647166 </v>
    <v>       0.84138911       0.16666700       0.84308942 </v>
    <v>       0.84095932       0.49911865       0.34354292 </v>
    <v>       0.84139384       0.49980922       0.84325014 </v>
    <v>       0.84095932       0.83421435       0.34354292 </v>
    <v>       0.84139384       0.83352378       0.84325014 </v>
    <v>       0.59335113       0.16666700       0.39889212 </v>
    <v>       0.59111305       0.16666700       0.89790562 </v>
    <v>       0.59094508       0.49968083       0.39760616 </v>
    <v>       0.59143500       0.49998340       0.89787046 </v>
    <v>       0.59094508       0.83365217       0.39760616 </v>
    <v>       0.59143500       0.83334960       0.89787046 </v>
    <v>       0.90878482       0.00081573       0.10292679 </v>
    <v>       0.90770723       0.00182747       0.59966078 </v>
    <v>       0.90878482       0.33251727       0.10292679 </v>
    <v>       0.90770723       0.33150553       0.59966078 </v>
    <v>       0.90869164       0.66666700       0.10224521 </v>
    <v>       0.90885241       0.66666700       0.60222748 </v>
    <v>       0.15910426       0.16666700       0.15692773 </v>
    <v>       0.15883461       0.16666700       0.65628079 </v>
    <v>       0.15871359       0.49971658       0.15705583 </v>
    <v>       0.15831325       0.49961772       0.65626073 </v>
    <v>       0.15871359       0.83361642       0.15705583 </v>
    <v>       0.15831325       0.83371528       0.65626073 </v>
    <v>       0.34103684       0.00026206       0.34383363 </v>
    <v>       0.34095103       0.99992493       0.84331295 </v>
    <v>       0.34103684       0.33307094       0.34383363 </v>
    <v>       0.34095103       0.33340807       0.84331295 </v>
    <v>       0.34108935       0.66666700       0.34346174 </v>
    <v>       0.34087601       0.66666700       0.84321013 </v>
    <v>       0.08865240       0.00103678       0.39715706 </v>
    <v>       0.09117905       0.99999879       0.89762740 </v>
    <v>       0.08865240       0.33229622       0.39715706 </v>
    <v>       0.09117905       0.33333421       0.89762740 </v>
    <v>       0.09107450       0.66666700       0.39767900 </v>
    <v>       0.09124333       0.66666700       0.89791105 </v>
    <v>       0.40881263       0.16666700       0.10260885 </v>
    <v>       0.40931123       0.16666700       0.60265281 </v>
    <v>       0.40907079       0.49983594       0.10263584 </v>
    <v>       0.40916112       0.50006428       0.60264417 </v>
    <v>       0.40907079       0.83349706       0.10263584 </v>
    <v>       0.40916112       0.83326872       0.60264417 </v>
    <v>       0.99673984       0.16666700       0.12807337 </v>
    <v>       0.99663787       0.16666700       0.62885553 </v>
    <v>       0.99585171       0.49964815       0.12755070 </v>
    <v>       0.99520100       0.49892367       0.62576724 </v>
    <v>       0.99585171       0.83368485       0.12755070 </v>
    <v>       0.99520100       0.83440933       0.62576724 </v>
    <v>       0.50422907       0.00094998       0.37279404 </v>
    <v>       0.50373828       0.99987836       0.87300015 </v>
    <v>       0.50422907       0.33238302       0.37279404 </v>
    <v>       0.50373828       0.33345464       0.87300015 </v>
    <v>       0.50379808       0.66666700       0.37274611 </v>
    <v>       0.50389991       0.66666700       0.87308602 </v>
    <v>       0.67635647       0.16666700       0.28267862 </v>
    <v>       0.67281178       0.16666700       0.78100306 </v>
    <v>       0.67242306       0.49977601       0.28033811 </v>
    <v>       0.67280825       0.49994766       0.78055016 </v>
    <v>       0.67242306       0.83355699       0.28033811 </v>
    <v>       0.67280825       0.83338534       0.78055016 </v>
    <v>       0.82776377       0.00329741       0.22122266 </v>
    <v>       0.82780227       0.00005005       0.71905814 </v>
    <v>       0.82776377       0.33003559       0.22122266 </v>
    <v>       0.82780227       0.33328295       0.71905814 </v>
    <v>       0.82733828       0.66666700       0.21953855 </v>
    <v>       0.82761214       0.66666700       0.71959127 </v>
    <v>       0.83229492       0.00526569       0.44195535 </v>
    <v>       0.83242637       0.00012086       0.94598255 </v>
    <v>       0.83229492       0.32806731       0.44195535 </v>
    <v>       0.83242637       0.33321214       0.94598255 </v>
    <v>       0.83160332       0.66666700       0.44564879 </v>
    <v>       0.83230419       0.66666700       0.94556605 </v>
    <v>       0.66769468       0.16666700       0.05465023 </v>
    <v>       0.66866819       0.16666700       0.55545034 </v>
    <v>       0.66873041       0.49976989       0.05452553 </v>
    <v>       0.66851615       0.49964085       0.55407602 </v>
    <v>       0.66873041       0.83356311       0.05452553 </v>
    <v>       0.66851615       0.83369215       0.55407602 </v>
    <v>       0.49674340       0.00031223       0.12794718 </v>
    <v>       0.49666309       0.99991144       0.62752578 </v>
    <v>       0.49674340       0.33302077       0.12794718 </v>
    <v>       0.49666309       0.33342156       0.62752578 </v>
    <v>       0.49652143       0.66666700       0.12714850 </v>
    <v>       0.49682718       0.66666700       0.62731796 </v>
    <v>       0.00011513       0.16666700       0.37390335 </v>
    <v>       0.00390690       0.16666700       0.87349826 </v>
    <v>       0.00327297       0.50044312       0.37239855 </v>
    <v>       0.00384403       0.50002717       0.87259822 </v>
    <v>       0.00327297       0.83288988       0.37239855 </v>
    <v>       0.00384403       0.83330583       0.87259822 </v>
    <v>       0.17196638       0.00041264       0.28105528 </v>
    <v>       0.17266139       0.99981531       0.78041271 </v>
    <v>       0.17196638       0.33292036       0.28105528 </v>
    <v>       0.17266139       0.33351769       0.78041271 </v>
    <v>       0.17267533       0.66666700       0.28063896 </v>
    <v>       0.17205985       0.66666700       0.78013196 </v>
    <v>       0.32731338       0.16666700       0.21977794 </v>
    <v>       0.32745934       0.16666700       0.71952334 </v>
    <v>       0.32747467       0.49957306       0.21978480 </v>
    <v>       0.32727447       0.50006210       0.71943848 </v>
    <v>       0.32747467       0.83375994       0.21978480 </v>
    <v>       0.32727447       0.83327090       0.71943848 </v>
    <v>       0.33240607       0.16666700       0.44616659 </v>
    <v>       0.33228054       0.16666700       0.94591322 </v>
    <v>       0.33264240       0.50000016       0.44597541 </v>
    <v>       0.33227495       0.50004215       0.94596305 </v>
    <v>       0.33264240       0.83333284       0.44597541 </v>
    <v>       0.33227495       0.83329085       0.94596305 </v>
    <v>       0.16785484       0.99990846       0.05441913 </v>
    <v>       0.16719875       0.00021830       0.55356775 </v>
    <v>       0.16785484       0.33342454       0.05441913 </v>
    <v>       0.16719875       0.33311470       0.55356775 </v>
    <v>       0.16747908       0.66666700       0.05468882 </v>
    <v>       0.16753284       0.66666700       0.55432980 </v>
    <v>       0.83807517       0.16666700       0.33647155 </v>
   </varray>
  </structure>
  <varray name="forces" >
   <v>      -0.00627122       0.09740436      -0.01072974 </v>
   <v>      -0.00441884       0.08040367       0.00197124 </v>
   <v>       0.00627122       0.09740436      -0.01072974 </v>
   <v>       0.00441884       0.08040367       0.00197124 </v>
   <v>       0.00000000       0.08269334       0.00649484 </v>
   <v>       0.00000000       0.07322257       0.00496155 </v>
   <v>       0.00000000      -0.06427917      -0.00937180 </v>
   <v>      -0.08021563      -0.08813450       0.00301223 </v>
   <v>       0.00060915      -0.06443225      -0.00859223 </v>
   <v>       0.08021563      -0.08813450       0.00301223 </v>
   <v>      -0.00060915      -0.06443225      -0.00859223 </v>
   <v>       0.00000000      -0.04120063       0.01626648 </v>
   <v>       0.00000000      -0.01893982       0.01561992 </v>
   <v>       0.00248020      -0.01339696       0.01085977 </v>
   <v>       0.00305554      -0.01768920       0.01157075 </v>
   <v>      -0.00248020      -0.01339696       0.01085977 </v>
   <v>      -0.00305554      -0.01768920       0.01157075 </v>
   <v>      -0.02065789      -0.00592581      -0.02425210 </v>
   <v>      -0.01188907       0.01093313       0.01288988 </v>
   <v>       0.02065789      -0.00592581      -0.02425210 </v>
   <v>       0.01188907       0.01093313       0.01288988 </v>
   <v>       0.00000000       0.01488118      -0.01668352 </v>
   <v>       0.00000000       0.00865323      -0.00814424 </v>
   <v>       0.00000000       0.07456001       0.00636330 </v>
   <v>       0.00000000       0.06435801      -0.00392523 </v>
   <v>       0.00088990       0.06679281       0.01165558 </v>
   <v>       0.00051565       0.06166272       0.00367654 </v>
   <v>      -0.00088990       0.06679281       0.01165558 </v>
   <v>      -0.00051565       0.06166272       0.00367654 </v>
   <v>       0.00164483      -0.07202604      -0.00993482 </v>
   <v>      -0.00270264      -0.07405935      -0.00595940 </v>
   <v>      -0.00164483      -0.07202604      -0.00993482 </v>
   <v>       0.00270264      -0.07405935      -0.00595940 </v>
   <v>       0.00000000      -0.07020651      -0.01112801 </v>
   <v>       0.00000000      -0.07062776      -0.00574310 </v>
   <v>      -0.08896878       0.03560009       0.00046424 </v>
   <v>      -0.00058086      -0.02738721       0.01576362 </v>
   <v>       0.08896878       0.03560009       0.00046424 </v>
   <v>       0.00058086      -0.02738721       0.01576362 </v>
   <v>       0.00000000      -0.02067469       0.01690512 </v>
   <v>       0.00000000      -0.02506753       0.01783783 </v>
   <v>       0.00000000       0.02467845      -0.01709880 </v>
   <v>       0.00000000       0.01886100      -0.01052673 </v>
   <v>       0.00235434       0.02034373      -0.01039519 </v>
   <v>      -0.00007693       0.02125034      -0.01233133 </v>
   <v>      -0.00235434       0.02034373      -0.01039519 </v>
   <v>       0.00007693       0.02125034      -0.01233133 </v>
   <v>       0.00000000      -0.16328663       0.11469026 </v>
   <v>       0.00000000      -0.15730131       0.16265014 </v>
   <v>       0.00035586      -0.16121969       0.11173475 </v>
   <v>       0.00932927      -0.15709362       0.11336231 </v>
   <v>      -0.00035586      -0.16121969       0.11173475 </v>
   <v>      -0.00932927      -0.15709362       0.11336231 </v>
   <v>      -0.00893423       0.18962904      -0.12224982 </v>
   <v>       0.00263021       0.17140938      -0.11528479 </v>
   <v>       0.00893423       0.18962904      -0.12224982 </v>
   <v>      -0.00263021       0.17140938      -0.11528479 </v>
   <v>       0.00000000       0.16582488      -0.11421244 </v>
   <v>       0.00000000       0.17100427      -0.10877483 </v>
   <v>       0.00000000      -0.05462514       0.02386517 </v>
   <v>       0.00000000      -0.04153716      -0.11171974 </v>
   <v>      -0.00002083      -0.02909940      -0.10324754 </v>
   <v>      -0.00754166      -0.03729460      -0.10884263 </v>
   <v>       0.00002083      -0.02909940      -0.10324754 </v>
   <v>       0.00754166      -0.03729460      -0.10884263 </v>
   <v>      -0.14453941       0.05057735       0.19902130 </v>
   <v>       0.00648008       0.02114204       0.11301731 </v>
   <v>       0.14453941       0.05057735       0.19902130 </v>
   <v>      -0.00648008       0.02114204       0.11301731 </v>
   <v>       0.00000000       0.02712105       0.10878358 </v>
   <v>       0.00000000       0.03784358       0.11582962 </v>
   <v>      -0.15716715       0.38029748      -0.23151176 </v>
   <v>       0.00333820       0.39736338      -0.07250441 </v>
   <v>       0.15716715       0.38029748      -0.23151176 </v>
   <v>      -0.00333820       0.39736338      -0.07250441 </v>
   <v>       0.00000000       0.40462459      -0.05736207 </v>
   <v>       0.00000000       0.39722380      -0.07424657 </v>
   <v>       0.00000000      -0.39984808       0.05599296 </v>
   <v>       0.00000000      -0.39470154       0.08741251 </v>
   <v>      -0.00367057      -0.41257277       0.07685096 </v>
   <v>       0.00269287      -0.40807451       0.07488471 </v>
   <v>       0.00367057      -0.41257277       0.07685096 </v>
   <v>      -0.00269287      -0.40807451       0.07488471 </v>
   <v>      -0.00376937      -0.16901945       0.12053721 </v>
   <v>       0.00023175      -0.16568873       0.11345816 </v>
   <v>       0.00376937      -0.16901945       0.12053721 </v>
   <v>      -0.00023175      -0.16568873       0.11345816 </v>
   <v>       0.00000000      -0.17142895       0.10786460 </v>
   <v>       0.00000000      -0.17243317       0.11437758 </v>
   <v>       0.00000000      -0.04746245       0.05616851 </v>
   <v>       0.00000000       0.17297085      -0.11017269 </v>
   <v>      -0.01819387       0.14979414      -0.12067149 </v>
   <v>       0.00102867       0.16958337      -0.12137097 </v>
   <v>       0.01819387       0.14979414      -0.12067149 </v>
   <v>      -0.00102867       0.16958337      -0.12137097 </v>
   <v>       0.00098232      -0.04730550      -0.10195747 </v>
   <v>      -0.00255721      -0.03306338      -0.11124460 </v>
   <v>      -0.00098232      -0.04730550      -0.10195747 </v>
   <v>       0.00255721      -0.03306338      -0.11124460 </v>
   <v>       0.00000000      -0.04133827      -0.11595163 </v>
   <v>       0.00000000      -0.03643989      -0.11453823 </v>
   <v>       0.00000000       0.03021269       0.10929195 </v>
   <v>       0.00000000       0.03820863       0.11324820 </v>
   <v>       0.00257790       0.03891694       0.10689749 </v>
   <v>       0.00062642       0.04486299       0.10905496 </v>
   <v>      -0.00257790       0.03891694       0.10689749 </v>
   <v>      -0.00062642       0.04486299       0.10905496 </v>
   <v>       0.00000000       0.40115493      -0.07268801 </v>
   <v>       0.00000000       0.39535660      -0.07592794 </v>
   <v>      -0.00075218       0.39775095      -0.07385366 </v>
   <v>      -0.00090743       0.39717678      -0.07350622 </v>
   <v>       0.00075218       0.39775095      -0.07385366 </v>
   <v>       0.00090743       0.39717678      -0.07350622 </v>
   <v>       0.00118200      -0.39608026       0.06784433 </v>
   <v>       0.01342574      -0.41422415       0.07660227 </v>
   <v>      -0.00118200      -0.39608026       0.06784433 </v>
   <v>      -0.01342574      -0.41422415       0.07660227 </v>
   <v>       0.00000000      -0.39013173       0.07523049 </v>
   <v>       0.00000000      -0.40176513       0.08298205 </v>
   <v>       0.00000000       0.16162718      -0.20799994 </v>
  </varray>
  <varray name="stress" >
   <v>     -55.13365757       0.00000000       0.00000000 </v>
   <v>       0.00000000     -52.90406096       1.89344277 </v>
   <v>       0.00000000       1.89344301     -49.42910420 </v>
  </varray>
  <energy>
   <i name="e_fr_energy">   -963.78880870 </i>
   <i name="e_wo_entrp">   -963.76061589 </i>
   <i name="e_0_energy">   -963.77471229 </i>
  </energy>
  <time name="totalsc">25312.7725309.74</time>
  <eigenvalues>
   <array>
    <dimension dim="1">band</dimension>
    <dimension dim="2">kpoint</dimension>
    <dimension dim="3">spin</dimension>
    <field>eigene</field>
    <field>occ</field>
    <set>
     <set comment="spin 1">
      <set comment="kpoint 1">
       <r>  -18.6803    1.0000 </r>
       <r>  -18.4027    1.0000 </r>
       <r>  -18.3335    1.0000 </r>
       <r>  -18.2695    1.0000 </r>
       <r>  -18.1473    1.0000 </r>
       <r>  -17.9928    1.0000 </r>
       <r>  -17.9874    1.0000 </r>
       <r>  -17.9268    1.0000 </r>
       <r>  -17.8524    1.0000 </r>
       <r>  -17.8139    1.0000 </r>
       <r>  -17.8107    1.0000 </r>
       <r>  -17.7303    1.0000 </r>
       <r>  -17.7218    1.0000 </r>
       <r>  -17.7154    1.0000 </r>
       <r>  -17.7097    1.0000 </r>
       <r>  -17.6922    1.0000 </r>
       <r>  -17.6921    1.0000 </r>
       <r>  -17.6692    1.0000 </r>
       <r>  -17.5499    1.0000 </r>
       <r>  -17.5489    1.0000 </r>
       <r>  -17.5418    1.0000 </r>
       <r>  -17.5324    1.0000 </r>
       <r>  -17.5227    1.0000 </r>
       <r>  -17.5197    1.0000 </r>
       <r>  -17.5192    1.0000 </r>
       <r>  -17.4933    1.0000 </r>
       <r>  -17.3958    1.0000 </r>
       <r>  -17.3941    1.0000 </r>
       <r>  -17.3806    1.0000 </r>
       <r>  -17.3642    1.0000 </r>
       <r>  -17.3635    1.0000 </r>
       <r>  -17.3400    1.0000 </r>
       <r>  -17.3392    1.0000 </r>
       <r>  -17.3356    1.0000 </r>
       <r>  -17.3049    1.0000 </r>
       <r>  -17.2987    1.0000 </r>
       <r>  -17.2846    1.0000 </r>
       <r>  -17.2685    1.0000 </r>
       <r>  -17.2532    1.0000 </r>
       <r>  -17.1891    1.0000 </r>
       <r>  -17.1867    1.0000 </r>
       <r>  -17.1830    1.0000 </r>
       <r>  -17.1735    1.0000 </r>
       <r>  -17.1680    1.0000 </r>
       <r>  -17.1564    1.0000 </r>
       <r>  -17.1551    1.0000 </r>
       <r>  -17.1409    1.0000 </r>
       <r>  -17.1352    1.0000 </r>
       <r>  -17.0766    1.0000 </r>
       <r>  -17.0441    1.0000 </r>
       <r>  -17.0366    1.0000 </r>
       <r>  -17.0258    1.0000 </r>
       <r>  -17.0129    1.0000 </r>
       <r>  -17.0040    1.0000 </r>
       <r>  -16.9496    1.0000 </r>
       <r>  -16.9424    1.0000 </r>
       <r>  -16.9381    1.0000 </r>
       <r>  -16.9367    1.0000 </r>
       <r>  -16.9203    1.0000 </r>
       <r>  -16.9175    1.0000 </r>
       <r>  -16.9120    1.0000 </r>
       <r>  -16.9081    1.0000 </r>
       <r>  -16.9080    1.0000 </r>
       <r>  -16.9056    1.0000 </r>
       <r>  -16.9024    1.0000 </r>
       <r>  -16.8980    1.0000 </r>
       <r>  -16.8818    1.0000 </r>
       <r>  -16.8794    1.0000 </r>
       <r>  -16.8307    1.0000 </r>
       <r>  -16.8041    1.0000 </r>
       <r>  -16.6751    1.0000 </r>
       <r>  -16.6565    1.0000 </r>
       <r>  -13.0808    1.0000 </r>
       <r>  -13.0677    1.0000 </r>
       <r>  -13.0521    1.0000 </r>
       <r>  -13.0457    1.0000 </r>
       <r>  -13.0397    1.0000 </r>
       <r>  -13.0322    1.0000 </r>
       <r>  -13.0307    1.0000 </r>
       <r>  -13.0256    1.0000 </r>
       <r>  -13.0254    1.0000 </r>
       <r>  -13.0213    1.0000 </r>
       <r>  -13.0154    1.0000 </r>
       <r>  -13.0116    1.0000 </r>
       <r>  -13.0062    1.0000 </r>
       <r>  -12.9906    1.0000 </r>
       <r>  -12.9805    1.0000 </r>
       <r>  -12.9803    1.0000 </r>
       <r>  -12.9728    1.0000 </r>
       <r>  -12.9700    1.0000 </r>
       <r>  -12.9678    1.0000 </r>
       <r>  -12.9632    1.0000 </r>
       <r>  -12.9615    1.0000 </r>
       <r>  -12.9600    1.0000 </r>
       <r>  -12.9581    1.0000 </r>
       <r>  -12.9541    1.0000 </r>
       <r>  -12.9532    1.0000 </r>
       <r>  -12.9513    1.0000 </r>
       <r>  -12.9506    1.0000 </r>
       <r>  -12.9505    1.0000 </r>
       <r>  -12.9484    1.0000 </r>
       <r>  -12.9461    1.0000 </r>
       <r>  -12.9427    1.0000 </r>
       <r>  -12.9414    1.0000 </r>
       <r>  -12.9396    1.0000 </r>
       <r>  -12.9352    1.0000 </r>
       <r>  -12.9318    1.0000 </r>
       <r>  -12.9317    1.0000 </r>
       <r>  -12.9306    1.0000 </r>
       <r>  -12.9249    1.0000 </r>
       <r>  -12.9245    1.0000 </r>
       <r>  -12.9233    1.0000 </r>
       <r>  -12.9232    1.0000 </r>
       <r>  -12.9215    1.0000 </r>
       <r>  -12.9210    1.0000 </r>
       <r>  -12.9177    1.0000 </r>
       <r>  -12.9169    1.0000 </r>
       <r>  -12.9154    1.0000 </r>
       <r>  -12.9129    1.0000 </r>
       <r>  -12.9121    1.0000 </r>
       <r>  -12.9103    1.0000 </r>
       <r>  -12.9070    1.0000 </r>
       <r>  -12.9061    1.0000 </r>
       <r>  -12.9052    1.0000 </r>
       <r>  -12.9039    1.0000 </r>
       <r>  -12.8942    1.0000 </r>
       <r>  -12.8927    1.0000 </r>
       <r>  -12.8920    1.0000 </r>
       <r>  -12.8910    1.0000 </r>
       <r>  -12.8875    1.0000 </r>
       <r>  -12.8701    1.0000 </r>
       <r>  -12.8670    1.0000 </r>
       <r>  -12.8634    1.0000 </r>
       <r>  -12.8597    1.0000 </r>
       <r>  -12.8468    1.0000 </r>
       <r>  -12.8439    1.0000 </r>
       <r>  -12.8316    1.0000 </r>
       <r>  -12.8293    1.0000 </r>
       <r>  -12.8237    1.0000 </r>
       <r>  -12.8213    1.0000 </r>
       <r>  -12.8167    1.0000 </r>
       <r>  -12.8145    1.0000 </r>
       <r>  -12.8144    1.0000 </r>
       <r>  -12.8117    1.0000 </r>
       <r>  -12.8115    1.0000 </r>
       <r>  -12.8110    1.0000 </r>
       <r>  -12.8097    1.0000 </r>
       <r>  -12.8045    1.0000 </r>
       <r>  -12.8008    1.0000 </r>
       <r>  -12.7993    1.0000 </r>
       <r>  -12.7982    1.0000 </r>
       <r>  -12.7968    1.0000 </r>
       <r>  -12.7932    1.0000 </r>
       <r>  -12.7930    1.0000 </r>
       <r>  -12.7914    1.0000 </r>
       <r>  -12.7911    1.0000 </r>
       <r>  -12.7907    1.0000 </r>
       <r>  -12.7872    1.0000 </r>
       <r>  -12.7844    1.0000 </r>
       <r>  -12.7835    1.0000 </r>
       <r>  -12.7809    1.0000 </r>
       <r>  -12.7805    1.0000 </r>
       <r>  -12.7793    1.0000 </r>
       <r>  -12.7786    1.0000 </r>
       <r>  -12.7776    1.0000 </r>
       <r>  -12.7771    1.0000 </r>
       <r>  -12.7746    1.0000 </r>
       <r>  -12.7726    1.0000 </r>
       <r>  -12.7702    1.0000 </r>
       <r>  -12.7698    1.0000 </r>
       <r>  -12.7663    1.0000 </r>
       <r>  -12.7659    1.0000 </r>
       <r>  -12.7645    1.0000 </r>
       <r>  -12.7624    1.0000 </r>
       <r>  -12.7597    1.0000 </r>
       <r>  -12.7584    1.0000 </r>
       <r>  -12.7556    1.0000 </r>
       <r>  -12.7547    1.0000 </r>
       <r>  -12.7526    1.0000 </r>
       <r>  -12.7521    1.0000 </r>
       <r>  -12.7485    1.0000 </r>
       <r>  -12.7468    1.0000 </r>
       <r>  -12.7421    1.0000 </r>
       <r>  -12.7413    1.0000 </r>
       <r>  -12.7283    1.0000 </r>
       <r>  -12.7275    1.0000 </r>
       <r>  -12.7238    1.0000 </r>
       <r>  -12.7209    1.0000 </r>
       <r>  -12.7151    1.0000 </r>
       <r>  -12.7136    1.0000 </r>
       <r>  -12.7117    1.0000 </r>
       <r>  -12.7056    1.0000 </r>
       <r>  -12.7037    1.0000 </r>
       <r>  -12.7028    1.0000 </r>
       <r>  -12.6989    1.0000 </r>
       <r>  -12.6872    1.0000 </r>
       <r>  -12.6849    1.0000 </r>
       <r>  -12.6800    1.0000 </r>
       <r>  -12.6789    1.0000 </r>
       <r>  -12.6751    1.0000 </r>
       <r>  -12.6735    1.0000 </r>
       <r>  -12.6725    1.0000 </r>
       <r>  -12.6722    1.0000 </r>
       <r>  -12.6692    1.0000 </r>
       <r>  -12.6660    1.0000 </r>
       <r>  -12.6626    1.0000 </r>
       <r>  -12.6598    1.0000 </r>
       <r>  -12.6598    1.0000 </r>
       <r>  -12.6583    1.0000 </r>
       <r>  -12.6573    1.0000 </r>
       <r>  -12.6554    1.0000 </r>
       <r>  -12.6538    1.0000 </r>
       <r>  -12.6525    1.0000 </r>
       <r>  -12.6503    1.0000 </r>
       <r>  -12.6454    1.0000 </r>
       <r>  -12.6397    1.0000 </r>
       <r>  -12.6371    1.0000 </r>
       <r>  -12.6342    1.0000 </r>
       <r>  -12.6325    1.0000 </r>
       <r>  -12.6321    1.0000 </r>
       <r>  -12.6280    1.0000 </r>
       <r>  -12.6273    1.0000 </r>
       <r>  -12.6248    1.0000 </r>
       <r>  -12.6243    1.0000 </r>
       <r>  -12.6222    1.0000 </r>
       <r>  -12.6181    1.0000 </r>
       <r>  -12.6173    1.0000 </r>
       <r>  -12.6144    1.0000 </r>
       <r>  -12.6112    1.0000 </r>
       <r>  -12.6093    1.0000 </r>
       <r>  -12.6080    1.0000 </r>
       <r>  -12.6070    1.0000 </r>
       <r>  -12.6067    1.0000 </r>
       <r>  -12.6051    1.0000 </r>
       <r>  -12.6045    1.0000 </r>
       <r>  -12.6007    1.0000 </r>
       <r>  -12.5987    1.0000 </r>
       <r>  -12.5975    1.0000 </r>
       <r>  -12.5973    1.0000 </r>
       <r>  -12.5955    1.0000 </r>
       <r>  -12.5912    1.0000 </r>
       <r>  -12.5886    1.0000 </r>
       <r>  -12.5870    1.0000 </r>
       <r>  -12.5787    1.0000 </r>
       <r>  -12.5728    1.0000 </r>
       <r>  -12.5673    1.0000 </r>
       <r>  -12.5627    1.0000 </r>
       <r>  -12.5619    1.0000 </r>
       <r>  -12.5575    1.0000 </r>
       <r>  -12.5560    1.0000 </r>
       <r>  -12.5536    1.0000 </r>
       <r>  -12.5534    1.0000 </r>
       <r>  -12.5490    1.0000 </r>
       <r>  -12.5484    1.0000 </r>
       <r>  -12.5476    1.0000 </r>
       <r>  -12.5451    1.0000 </r>
       <r>  -12.5414    1.0000 </r>
       <r>  -12.5406    1.0000 </r>
       <r>  -12.5273    1.0000 </r>
       <r>  -12.5225    1.0000 </r>
       <r>  -12.5088    1.0000 </r>
       <r>  -12.4843    1.0000 </r>
       <r>  -12.4779    1.0000 </r>
       <r>  -12.4734    1.0000 </r>
       <r>  -12.4582    1.0000 </r>
       <r>  -12.4316    1.0000 </r>
       <r>  -12.4172    1.0000 </r>
       <r>  -12.4030    1.0000 </r>
       <r>  -12.3964    1.0000 </r>
       <r>  -12.3717    1.0000 </r>
       <r>  -12.3412    1.0000 </r>
       <r>  -12.3310    1.0000 </r>
       <r>  -12.3157    1.0000 </r>
       <r>  -12.2845    1.0000 </r>
       <r>  -12.2682    1.0000 </r>
       <r>  -12.2483    1.0000 </r>
       <r>  -12.2310    1.0000 </r>
       <r>  -12.2275    1.0000 </r>
       <r>  -12.2220    1.0000 </r>
       <r>  -12.2155    1.0000 </r>
       <r>  -12.1939    1.0000 </r>
       <r>  -12.1692    1.0000 </r>
       <r>  -12.1678    1.0000 </r>
       <r>  -12.1330    1.0000 </r>
       <r>  -12.1277    1.0000 </r>
       <r>  -12.0958    1.0000 </r>
       <r>  -12.0058    1.0000 </r>
       <r>  -11.9714    1.0000 </r>
       <r>  -11.9710    1.0000 </r>
       <r>  -11.9628    1.0000 </r>
       <r>  -11.9415    1.0000 </r>
       <r>  -11.9280    1.0000 </r>
       <r>  -11.9211    1.0000 </r>
       <r>  -11.9150    1.0000 </r>
       <r>  -11.9094    1.0000 </r>
       <r>  -11.9093    1.0000 </r>
       <r>  -11.8982    1.0000 </r>
       <r>  -11.8778    1.0000 </r>
       <r>  -11.8530    1.0000 </r>
       <r>  -11.8396    1.0000 </r>
       <r>  -11.8370    1.0000 </r>
       <r>  -11.8169    1.0000 </r>
       <r>  -11.8161    1.0000 </r>
       <r>  -11.7653    1.0000 </r>
       <r>  -11.7460    1.0000 </r>
       <r>  -11.7333    1.0000 </r>
       <r>  -11.6118    1.0000 </r>
       <r>   -5.1826    1.0000 </r>
       <r>   -5.1376    1.0000 </r>
       <r>   -4.8740    1.0000 </r>
       <r>   -4.8474    1.0000 </r>
       <r>   -4.5411    1.0000 </r>
       <r>   -4.5243    1.0000 </r>
       <r>   -4.4441    1.0000 </r>
       <r>   -4.4423    1.0000 </r>
       <r>   -4.3989    1.0000 </r>
       <r>   -4.3976    1.0000 </r>
       <r>   -4.3563    1.0000 </r>
       <r>   -4.2629    1.0000 </r>
       <r>   -4.2537    1.0000 </r>
       <r>   -4.2352    1.0000 </r>
       <r>   -4.2198    1.0000 </r>
       <r>   -4.2131    1.0000 </r>
       <r>   -4.1887    1.0000 </r>
       <r>   -4.1391    1.0000 </r>
       <r>   -4.0594    1.0000 </r>
       <r>   -4.0124    1.0000 </r>
       <r>   -3.9057    1.0000 </r>
       <r>   -3.8404    1.0000 </r>
       <r>   -3.7621    1.0000 </r>
       <r>   -3.7553    1.0000 </r>
       <r>   -3.7446    1.0000 </r>
       <r>   -3.7436    1.0000 </r>
       <r>   -3.6411    1.0000 </r>
       <r>   -3.6049    1.0000 </r>
       <r>   -3.5976    1.0000 </r>
       <r>   -3.5380    1.0000 </r>
       <r>   -3.5325    1.0000 </r>
       <r>   -3.5177    1.0000 </r>
       <r>   -3.5160    1.0000 </r>
       <r>   -3.3394    1.0000 </r>
       <r>   -3.2205    1.0000 </r>
       <r>   -3.2098    1.0000 </r>
       <r>   -3.2060    1.0000 </r>
       <r>   -3.1899    1.0000 </r>
       <r>   -3.1618    1.0000 </r>
       <r>   -3.1600    1.0000 </r>
       <r>   -3.1522    1.0000 </r>
       <r>   -2.9896    1.0000 </r>
       <r>   -2.9385    1.0000 </r>
       <r>   -2.8244    1.0000 </r>
       <r>   -2.7255    1.0000 </r>
       <r>   -2.6862    1.0000 </r>
       <r>   -2.5998    1.0000 </r>
       <r>   -2.5573    1.0000 </r>
       <r>   -2.5238    1.0000 </r>
       <r>   -2.5202    1.0000 </r>
       <r>   -2.4854    1.0000 </r>
       <r>   -2.4030    1.0000 </r>
       <r>   -2.3889    1.0000 </r>
       <r>   -2.3533    1.0000 </r>
       <r>   -2.3197    1.0000 </r>
       <r>   -2.3128    1.0000 </r>
       <r>   -2.2865    1.0000 </r>
       <r>   -2.2666    1.0000 </r>
       <r>   -2.2338    1.0000 </r>
       <r>   -2.1227    1.0000 </r>
       <r>   -2.0639    1.0000 </r>
       <r>   -1.9705    1.0000 </r>
       <r>   -1.9631    1.0000 </r>
       <r>   -1.9493    1.0000 </r>
       <r>   -1.9130    1.0000 </r>
       <r>   -1.8630    1.0000 </r>
       <r>   -1.8091    1.0000 </r>
       <r>   -1.7539    1.0000 </r>
       <r>   -1.7075    1.0000 </r>
       <r>   -1.7035    1.0000 </r>
       <r>   -1.6682    1.0000 </r>
       <r>   -1.6471    1.0000 </r>
       <r>   -1.6335    1.0000 </r>
       <r>   -1.6167    1.0000 </r>
       <r>   -1.6134    1.0000 </r>
       <r>   -1.5470    1.0000 </r>
       <r>   -1.5143    1.0000 </r>
       <r>   -1.4753    1.0000 </r>
       <r>   -1.4146    1.0000 </r>
       <r>   -1.3631    1.0000 </r>
       <r>   -1.2789    1.0000 </r>
       <r>   -1.2535    1.0000 </r>
       <r>   -1.2283    1.0000 </r>
       <r>   -1.1582    1.0000 </r>
       <r>   -1.1509    1.0000 </r>
       <r>   -1.0910    1.0000 </r>
       <r>   -1.0697    1.0000 </r>
       <r>   -1.0526    1.0000 </r>
       <r>   -0.9858    1.0000 </r>
       <r>   -0.9679    1.0000 </r>
       <r>   -0.9177    1.0000 </r>
       <r>   -0.9153    1.0000 </r>
       <r>   -0.8948    1.0000 </r>
       <r>   -0.8669    1.0000 </r>
       <r>   -0.7807    1.0000 </r>
       <r>   -0.7091    1.0000 </r>
       <r>   -0.7058    1.0000 </r>
       <r>   -0.6435    1.0000 </r>
       <r>   -0.6245    1.0000 </r>
       <r>   -0.6169    1.0000 </r>
       <r>   -0.6115    1.0000 </r>
       <r>   -0.5945    1.0000 </r>
       <r>   -0.5632    1.0000 </r>
       <r>   -0.5598    1.0000 </r>
       <r>   -0.4898    1.0000 </r>
       <r>   -0.4776    1.0000 </r>
       <r>   -0.4588    1.0000 </r>
       <r>   -0.4244    1.0000 </r>
       <r>   -0.4030    1.0000 </r>
       <r>   -0.3637    1.0000 </r>
       <r>   -0.3157    1.0000 </r>
       <r>   -0.2997    1.0000 </r>
       <r>   -0.2784    1.0000 </r>
       <r>   -0.2653    1.0000 </r>
       <r>   -0.2572    1.0000 </r>
       <r>   -0.2478    1.0000 </r>
       <r>   -0.2466    1.0000 </r>
       <r>   -0.2314    1.0000 </r>
       <r>   -0.1724    1.0000 </r>
       <r>   -0.1703    1.0000 </r>
       <r>   -0.1344    1.0000 </r>
       <r>   -0.1063    1.0000 </r>
       <r>   -0.0997    1.0000 </r>
       <r>   -0.0850    1.0000 </r>
       <r>   -0.0622    1.0000 </r>
       <r>   -0.0458    1.0000 </r>
       <r>   -0.0210    1.0000 </r>
       <r>    0.0061    1.0000 </r>
       <r>    0.0168    1.0000 </r>
       <r>    0.0474    1.0000 </r>
       <r>    0.0552    1.0000 </r>
       <r>    0.0974    1.0000 </r>
       <r>    0.1110    1.0000 </r>
       <r>    0.1865    1.0000 </r>
       <r>    0.1988    1.0000 </r>
       <r>    0.2380    1.0000 </r>
       <r>    0.3053    1.0000 </r>
       <r>    0.3461    1.0000 </r>
       <r>    0.3834    1.0000 </r>
       <r>    0.4517    1.0000 </r>
       <r>    0.4640    1.0000 </r>
       <r>    0.4918    1.0000 </r>
       <r>    0.5216    1.0000 </r>
       <r>    0.5536    1.0000 </r>
       <r>    0.5788    1.0000 </r>
       <r>    0.5992    1.0000 </r>
       <r>    0.6063    1.0000 </r>
       <r>    0.6263    1.0000 </r>
       <r>    0.6680    1.0000 </r>
       <r>    0.6768    1.0000 </r>
       <r>    0.6908    1.0000 </r>
       <r>    0.6943    1.0000 </r>
       <r>    0.7445    1.0000 </r>
       <r>    0.7753    1.0000 </r>
       <r>    0.7854    1.0000 </r>
       <r>    0.7900    1.0000 </r>
       <r>    0.7949    1.0000 </r>
       <r>    0.8482    1.0000 </r>
       <r>    0.8590    1.0000 </r>
       <r>    0.8668    1.0000 </r>
       <r>    0.8710    1.0000 </r>
       <r>    0.8913    1.0000 </r>
       <r>    0.8990    1.0000 </r>
       <r>    0.9120    1.0000 </r>
       <r>    0.9182    1.0000 </r>
       <r>    0.9342    1.0000 </r>
       <r>    0.9606    1.0000 </r>
       <r>    0.9898    1.0000 </r>
       <r>    1.0071    1.0000 </r>
       <r>    1.0380    1.0000 </r>
       <r>    1.1313    1.0000 </r>
       <r>    1.1529    1.0000 </r>
       <r>    1.1537    1.0000 </r>
       <r>    1.1822    1.0000 </r>
       <r>    1.1975    1.0000 </r>
       <r>    1.2192    1.0000 </r>
       <r>    1.2398    1.0000 </r>
       <r>    1.2475    1.0000 </r>
       <r>    1.2530    1.0000 </r>
       <r>    1.2888    1.0000 </r>
       <r>    1.3177    1.0000 </r>
       <r>    1.3261    1.0000 </r>
       <r>    1.3318    1.0000 </r>
       <r>    1.3347    1.0000 </r>
       <r>    1.3478    1.0000 </r>
       <r>    1.3704    1.0000 </r>
       <r>    1.4160    1.0000 </r>
       <r>    1.4375    1.0000 </r>
       <r>    1.4512    1.0000 </r>
       <r>    1.4765    1.0000 </r>
       <r>    1.4842    1.0000 </r>
       <r>    1.4926    1.0000 </r>
       <r>    1.5003    1.0000 </r>
       <r>    1.5139    1.0000 </r>
       <r>    1.5229    1.0000 </r>
       <r>    1.5302    1.0000 </r>
       <r>    1.5342    1.0000 </r>
       <r>    1.5581    1.0000 </r>
       <r>    1.5659    1.0000 </r>
       <r>    1.5675    1.0000 </r>
       <r>    1.5894    1.0000 </r>
       <r>    1.6373    1.0000 </r>
       <r>    1.6742    1.0000 </r>
       <r>    1.6908    1.0000 </r>
       <r>    1.6952    1.0000 </r>
       <r>    1.7046    1.0000 </r>
       <r>    1.7099    1.0000 </r>
       <r>    1.7258    1.0000 </r>
       <r>    1.8014    1.0000 </r>
       <r>    1.8435    1.0000 </r>
       <r>    1.8749    1.0000 </r>
       <r>    1.8851    1.0000 </r>
       <r>    1.9313    1.0000 </r>
       <r>    1.9341    1.0000 </r>
       <r>    2.0318    1.0000 </r>
       <r>    2.0683    1.0000 </r>
       <r>    2.1421    1.0000 </r>
       <r>    2.2339    1.0000 </r>
       <r>    4.2416    0.4865 </r>
       <r>    6.7452    0.0000 </r>
       <r>    8.0627    0.0000 </r>
       <r>    8.4992    0.0000 </r>
       <r>    8.9793    0.0000 </r>
       <r>    9.2116    0.0000 </r>
       <r>    9.3060    0.0000 </r>
       <r>    9.3178    0.0000 </r>
       <r>    9.6807    0.0000 </r>
       <r>    9.7864    0.0000 </r>
       <r>   10.2342    0.0000 </r>
       <r>   10.2396    0.0000 </r>
       <r>   10.2714    0.0000 </r>
       <r>   10.2971    0.0000 </r>
       <r>   10.3833    0.0000 </r>
       <r>   10.4001    0.0000 </r>
       <r>   10.5535    0.0000 </r>
       <r>   10.5610    0.0000 </r>
       <r>   10.7544    0.0000 </r>
       <r>   10.7547    0.0000 </r>
       <r>   10.8190    0.0000 </r>
       <r>   10.8305    0.0000 </r>
       <r>   10.8436    0.0000 </r>
       <r>   10.8535    0.0000 </r>
       <r>   10.9027    0.0000 </r>
       <r>   10.9581    0.0000 </r>
       <r>   11.0379    0.0000 </r>
       <r>   11.1414    0.0000 </r>
       <r>   11.1877    0.0000 </r>
       <r>   11.2284    0.0000 </r>
       <r>   11.3338    0.0000 </r>
       <r>   11.3534    0.0000 </r>
       <r>   11.4108    0.0000 </r>
       <r>   11.4482    0.0000 </r>
       <r>   11.4930    0.0000 </r>
       <r>   11.5345    0.0000 </r>
       <r>   11.6325    0.0000 </r>
       <r>   11.7139    0.0000 </r>
       <r>   11.7869    0.0000 </r>
       <r>   11.9221    0.0000 </r>
       <r>   12.0327    0.0000 </r>
       <r>   12.0481    0.0000 </r>
       <r>   12.0916    0.0000 </r>
       <r>   12.1307    0.0000 </r>
       <r>   12.2093    0.0000 </r>
       <r>   12.2780    0.0000 </r>
       <r>   12.2989    0.0000 </r>
       <r>   12.3364    0.0000 </r>
       <r>   12.3573    0.0000 </r>
       <r>   12.3767    0.0000 </r>
       <r>   12.3950    0.0000 </r>
       <r>   12.5566    0.0000 </r>
       <r>   12.8135    0.0000 </r>
       <r>   12.9849    0.0000 </r>
       <r>   13.0992    0.0000 </r>
       <r>   13.1036    0.0000 </r>
       <r>   13.1241    0.0000 </r>
       <r>   13.2870    0.0000 </r>
       <r>   13.2904    0.0000 </r>
       <r>   13.3479    0.0000 </r>
       <r>   13.4332    0.0000 </r>
       <r>   13.4775    0.0000 </r>
       <r>   13.5622    0.0000 </r>
       <r>   13.5857    0.0000 </r>
       <r>   13.6793    0.0000 </r>
       <r>   13.6925    0.0000 </r>
       <r>   13.7133    0.0000 </r>
       <r>   13.7438    0.0000 </r>
       <r>   13.8939    0.0000 </r>
       <r>   13.9000    0.0000 </r>
       <r>   13.9382    0.0000 </r>
       <r>   14.0094    0.0000 </r>
       <r>   14.0533    0.0000 </r>
       <r>   14.1148    0.0000 </r>
       <r>   14.1697    0.0000 </r>
       <r>   14.2178    0.0000 </r>
       <r>   14.2745    0.0000 </r>
       <r>   14.3543    0.0000 </r>
       <r>   14.4431    0.0000 </r>
       <r>   14.4632    0.0000 </r>
       <r>   14.5258    0.0000 </r>
       <r>   14.6273    0.0000 </r>
       <r>   14.6955    0.0000 </r>
       <r>   14.7559    0.0000 </r>
       <r>   14.7604    0.0000 </r>
       <r>   14.9018    0.0000 </r>
       <r>   14.9662    0.0000 </r>
       <r>   15.0455    0.0000 </r>
       <r>   15.0819    0.0000 </r>
       <r>   15.1385    0.0000 </r>
       <r>   15.1915    0.0000 </r>
       <r>   15.2671    0.0000 </r>
       <r>   15.4160    0.0000 </r>
       <r>   15.4784    0.0000 </r>
       <r>   15.5881    0.0000 </r>
       <r>   15.7684    0.0000 </r>
       <r>   15.8793    0.0000 </r>
       <r>   15.9687    0.0000 </r>
       <r>   16.0897    0.0000 </r>
       <r>   16.2564    0.0000 </r>
       <r>   16.3671    0.0000 </r>
       <r>   16.4240    0.0000 </r>
       <r>   16.6678    0.0000 </r>
       <r>   16.7373    0.0000 </r>
       <r>   16.8527    0.0000 </r>
      </set>
      <set comment="kpoint 2">
       <r>  -18.5771    1.0000 </r>
       <r>  -18.5570    1.0000 </r>
       <r>  -18.3539    1.0000 </r>
       <r>  -18.3394    1.0000 </r>
       <r>  -17.9244    1.0000 </r>
       <r>  -17.9179    1.0000 </r>
       <r>  -17.9098    1.0000 </r>
       <r>  -17.9024    1.0000 </r>
       <r>  -17.8708    1.0000 </r>
       <r>  -17.8604    1.0000 </r>
       <r>  -17.8273    1.0000 </r>
       <r>  -17.8133    1.0000 </r>
       <r>  -17.7772    1.0000 </r>
       <r>  -17.7697    1.0000 </r>
       <r>  -17.7619    1.0000 </r>
       <r>  -17.7556    1.0000 </r>
       <r>  -17.6380    1.0000 </r>
       <r>  -17.6347    1.0000 </r>
       <r>  -17.5344    1.0000 </r>
       <r>  -17.5282    1.0000 </r>
       <r>  -17.5261    1.0000 </r>
       <r>  -17.5180    1.0000 </r>
       <r>  -17.5119    1.0000 </r>
       <r>  -17.5090    1.0000 </r>
       <r>  -17.4943    1.0000 </r>
       <r>  -17.4898    1.0000 </r>
       <r>  -17.4787    1.0000 </r>
       <r>  -17.4624    1.0000 </r>
       <r>  -17.3676    1.0000 </r>
       <r>  -17.3649    1.0000 </r>
       <r>  -17.3603    1.0000 </r>
       <r>  -17.3537    1.0000 </r>
       <r>  -17.3217    1.0000 </r>
       <r>  -17.3175    1.0000 </r>
       <r>  -17.3025    1.0000 </r>
       <r>  -17.2888    1.0000 </r>
       <r>  -17.2820    1.0000 </r>
       <r>  -17.2620    1.0000 </r>
       <r>  -17.2405    1.0000 </r>
       <r>  -17.2106    1.0000 </r>
       <r>  -17.1719    1.0000 </r>
       <r>  -17.1711    1.0000 </r>
       <r>  -17.1631    1.0000 </r>
       <r>  -17.1616    1.0000 </r>
       <r>  -17.1558    1.0000 </r>
       <r>  -17.1499    1.0000 </r>
       <r>  -17.1367    1.0000 </r>
       <r>  -17.1334    1.0000 </r>
       <r>  -17.0674    1.0000 </r>
       <r>  -17.0534    1.0000 </r>
       <r>  -17.0377    1.0000 </r>
       <r>  -17.0323    1.0000 </r>
       <r>  -17.0245    1.0000 </r>
       <r>  -17.0125    1.0000 </r>
       <r>  -16.9501    1.0000 </r>
       <r>  -16.9416    1.0000 </r>
       <r>  -16.9401    1.0000 </r>
       <r>  -16.9339    1.0000 </r>
       <r>  -16.9200    1.0000 </r>
       <r>  -16.9134    1.0000 </r>
       <r>  -16.9124    1.0000 </r>
       <r>  -16.9111    1.0000 </r>
       <r>  -16.9092    1.0000 </r>
       <r>  -16.9066    1.0000 </r>
       <r>  -16.9006    1.0000 </r>
       <r>  -16.8999    1.0000 </r>
       <r>  -16.8833    1.0000 </r>
       <r>  -16.8789    1.0000 </r>
       <r>  -16.8253    1.0000 </r>
       <r>  -16.8069    1.0000 </r>
       <r>  -16.6755    1.0000 </r>
       <r>  -16.6566    1.0000 </r>
       <r>  -13.0824    1.0000 </r>
       <r>  -13.0621    1.0000 </r>
       <r>  -13.0450    1.0000 </r>
       <r>  -13.0397    1.0000 </r>
       <r>  -13.0376    1.0000 </r>
       <r>  -13.0316    1.0000 </r>
       <r>  -13.0310    1.0000 </r>
       <r>  -13.0264    1.0000 </r>
       <r>  -13.0258    1.0000 </r>
       <r>  -13.0219    1.0000 </r>
       <r>  -13.0174    1.0000 </r>
       <r>  -13.0157    1.0000 </r>
       <r>  -13.0063    1.0000 </r>
       <r>  -12.9926    1.0000 </r>
       <r>  -12.9811    1.0000 </r>
       <r>  -12.9795    1.0000 </r>
       <r>  -12.9748    1.0000 </r>
       <r>  -12.9747    1.0000 </r>
       <r>  -12.9662    1.0000 </r>
       <r>  -12.9659    1.0000 </r>
       <r>  -12.9643    1.0000 </r>
       <r>  -12.9621    1.0000 </r>
       <r>  -12.9597    1.0000 </r>
       <r>  -12.9568    1.0000 </r>
       <r>  -12.9532    1.0000 </r>
       <r>  -12.9529    1.0000 </r>
       <r>  -12.9497    1.0000 </r>
       <r>  -12.9489    1.0000 </r>
       <r>  -12.9473    1.0000 </r>
       <r>  -12.9464    1.0000 </r>
       <r>  -12.9431    1.0000 </r>
       <r>  -12.9421    1.0000 </r>
       <r>  -12.9405    1.0000 </r>
       <r>  -12.9375    1.0000 </r>
       <r>  -12.9268    1.0000 </r>
       <r>  -12.9254    1.0000 </r>
       <r>  -12.9244    1.0000 </r>
       <r>  -12.9217    1.0000 </r>
       <r>  -12.9216    1.0000 </r>
       <r>  -12.9209    1.0000 </r>
       <r>  -12.9208    1.0000 </r>
       <r>  -12.9190    1.0000 </r>
       <r>  -12.9184    1.0000 </r>
       <r>  -12.9172    1.0000 </r>
       <r>  -12.9162    1.0000 </r>
       <r>  -12.9145    1.0000 </r>
       <r>  -12.9122    1.0000 </r>
       <r>  -12.9110    1.0000 </r>
       <r>  -12.9105    1.0000 </r>
       <r>  -12.9052    1.0000 </r>
       <r>  -12.9051    1.0000 </r>
       <r>  -12.8951    1.0000 </r>
       <r>  -12.8942    1.0000 </r>
       <r>  -12.8926    1.0000 </r>
       <r>  -12.8925    1.0000 </r>
       <r>  -12.8910    1.0000 </r>
       <r>  -12.8899    1.0000 </r>
       <r>  -12.8886    1.0000 </r>
       <r>  -12.8841    1.0000 </r>
       <r>  -12.8781    1.0000 </r>
       <r>  -12.8628    1.0000 </r>
       <r>  -12.8611    1.0000 </r>
       <r>  -12.8460    1.0000 </r>
       <r>  -12.8408    1.0000 </r>
       <r>  -12.8276    1.0000 </r>
       <r>  -12.8235    1.0000 </r>
       <r>  -12.8216    1.0000 </r>
       <r>  -12.8165    1.0000 </r>
       <r>  -12.8162    1.0000 </r>
       <r>  -12.8154    1.0000 </r>
       <r>  -12.8140    1.0000 </r>
       <r>  -12.8136    1.0000 </r>
       <r>  -12.8134    1.0000 </r>
       <r>  -12.8086    1.0000 </r>
       <r>  -12.8083    1.0000 </r>
       <r>  -12.8081    1.0000 </r>
       <r>  -12.8037    1.0000 </r>
       <r>  -12.8032    1.0000 </r>
       <r>  -12.7992    1.0000 </r>
       <r>  -12.7979    1.0000 </r>
       <r>  -12.7953    1.0000 </r>
       <r>  -12.7950    1.0000 </r>
       <r>  -12.7948    1.0000 </r>
       <r>  -12.7893    1.0000 </r>
       <r>  -12.7883    1.0000 </r>
       <r>  -12.7857    1.0000 </r>
       <r>  -12.7850    1.0000 </r>
       <r>  -12.7850    1.0000 </r>
       <r>  -12.7840    1.0000 </r>
       <r>  -12.7822    1.0000 </r>
       <r>  -12.7807    1.0000 </r>
       <r>  -12.7794    1.0000 </r>
       <r>  -12.7774    1.0000 </r>
       <r>  -12.7767    1.0000 </r>
       <r>  -12.7745    1.0000 </r>
       <r>  -12.7732    1.0000 </r>
       <r>  -12.7692    1.0000 </r>
       <r>  -12.7674    1.0000 </r>
       <r>  -12.7632    1.0000 </r>
       <r>  -12.7632    1.0000 </r>
       <r>  -12.7617    1.0000 </r>
       <r>  -12.7587    1.0000 </r>
       <r>  -12.7575    1.0000 </r>
       <r>  -12.7561    1.0000 </r>
       <r>  -12.7505    1.0000 </r>
       <r>  -12.7503    1.0000 </r>
       <r>  -12.7436    1.0000 </r>
       <r>  -12.7403    1.0000 </r>
       <r>  -12.7368    1.0000 </r>
       <r>  -12.7361    1.0000 </r>
       <r>  -12.7336    1.0000 </r>
       <r>  -12.7290    1.0000 </r>
       <r>  -12.7289    1.0000 </r>
       <r>  -12.7247    1.0000 </r>
       <r>  -12.7246    1.0000 </r>
       <r>  -12.7235    1.0000 </r>
       <r>  -12.7235    1.0000 </r>
       <r>  -12.7201    1.0000 </r>
       <r>  -12.7179    1.0000 </r>
       <r>  -12.7134    1.0000 </r>
       <r>  -12.7083    1.0000 </r>
       <r>  -12.7056    1.0000 </r>
       <r>  -12.7040    1.0000 </r>
       <r>  -12.7015    1.0000 </r>
       <r>  -12.6869    1.0000 </r>
       <r>  -12.6850    1.0000 </r>
       <r>  -12.6816    1.0000 </r>
       <r>  -12.6769    1.0000 </r>
       <r>  -12.6752    1.0000 </r>
       <r>  -12.6740    1.0000 </r>
       <r>  -12.6723    1.0000 </r>
       <r>  -12.6707    1.0000 </r>
       <r>  -12.6703    1.0000 </r>
       <r>  -12.6618    1.0000 </r>
       <r>  -12.6611    1.0000 </r>
       <r>  -12.6577    1.0000 </r>
       <r>  -12.6569    1.0000 </r>
       <r>  -12.6554    1.0000 </r>
       <r>  -12.6544    1.0000 </r>
       <r>  -12.6464    1.0000 </r>
       <r>  -12.6431    1.0000 </r>
       <r>  -12.6414    1.0000 </r>
       <r>  -12.6404    1.0000 </r>
       <r>  -12.6397    1.0000 </r>
       <r>  -12.6382    1.0000 </r>
       <r>  -12.6360    1.0000 </r>
       <r>  -12.6334    1.0000 </r>
       <r>  -12.6305    1.0000 </r>
       <r>  -12.6303    1.0000 </r>
       <r>  -12.6291    1.0000 </r>
       <r>  -12.6287    1.0000 </r>
       <r>  -12.6247    1.0000 </r>
       <r>  -12.6236    1.0000 </r>
       <r>  -12.6205    1.0000 </r>
       <r>  -12.6167    1.0000 </r>
       <r>  -12.6163    1.0000 </r>
       <r>  -12.6158    1.0000 </r>
       <r>  -12.6127    1.0000 </r>
       <r>  -12.6124    1.0000 </r>
       <r>  -12.6109    1.0000 </r>
       <r>  -12.6078    1.0000 </r>
       <r>  -12.6057    1.0000 </r>
       <r>  -12.6055    1.0000 </r>
       <r>  -12.6037    1.0000 </r>
       <r>  -12.6013    1.0000 </r>
       <r>  -12.5989    1.0000 </r>
       <r>  -12.5965    1.0000 </r>
       <r>  -12.5950    1.0000 </r>
       <r>  -12.5948    1.0000 </r>
       <r>  -12.5905    1.0000 </r>
       <r>  -12.5874    1.0000 </r>
       <r>  -12.5738    1.0000 </r>
       <r>  -12.5695    1.0000 </r>
       <r>  -12.5685    1.0000 </r>
       <r>  -12.5669    1.0000 </r>
       <r>  -12.5642    1.0000 </r>
       <r>  -12.5577    1.0000 </r>
       <r>  -12.5568    1.0000 </r>
       <r>  -12.5541    1.0000 </r>
       <r>  -12.5536    1.0000 </r>
       <r>  -12.5502    1.0000 </r>
       <r>  -12.5461    1.0000 </r>
       <r>  -12.5392    1.0000 </r>
       <r>  -12.5357    1.0000 </r>
       <r>  -12.5290    1.0000 </r>
       <r>  -12.5270    1.0000 </r>
       <r>  -12.5268    1.0000 </r>
       <r>  -12.5207    1.0000 </r>
       <r>  -12.5198    1.0000 </r>
       <r>  -12.5125    1.0000 </r>
       <r>  -12.5090    1.0000 </r>
       <r>  -12.4772    1.0000 </r>
       <r>  -12.4622    1.0000 </r>
       <r>  -12.4385    1.0000 </r>
       <r>  -12.4384    1.0000 </r>
       <r>  -12.4369    1.0000 </r>
       <r>  -12.4294    1.0000 </r>
       <r>  -12.4245    1.0000 </r>
       <r>  -12.4208    1.0000 </r>
       <r>  -12.4009    1.0000 </r>
       <r>  -12.3980    1.0000 </r>
       <r>  -12.2761    1.0000 </r>
       <r>  -12.2672    1.0000 </r>
       <r>  -12.2006    1.0000 </r>
       <r>  -12.1955    1.0000 </r>
       <r>  -12.1753    1.0000 </r>
       <r>  -12.1739    1.0000 </r>
       <r>  -12.1633    1.0000 </r>
       <r>  -12.1585    1.0000 </r>
       <r>  -12.1367    1.0000 </r>
       <r>  -12.1111    1.0000 </r>
       <r>  -12.0950    1.0000 </r>
       <r>  -12.0730    1.0000 </r>
       <r>  -12.0281    1.0000 </r>
       <r>  -12.0253    1.0000 </r>
       <r>  -12.0177    1.0000 </r>
       <r>  -11.9717    1.0000 </r>
       <r>  -11.9478    1.0000 </r>
       <r>  -11.9473    1.0000 </r>
       <r>  -11.9347    1.0000 </r>
       <r>  -11.9301    1.0000 </r>
       <r>  -11.9280    1.0000 </r>
       <r>  -11.9230    1.0000 </r>
       <r>  -11.8636    1.0000 </r>
       <r>  -11.8636    1.0000 </r>
       <r>  -11.8242    1.0000 </r>
       <r>  -11.8233    1.0000 </r>
       <r>  -11.8137    1.0000 </r>
       <r>  -11.8099    1.0000 </r>
       <r>  -11.8037    1.0000 </r>
       <r>  -11.7987    1.0000 </r>
       <r>  -11.7957    1.0000 </r>
       <r>  -11.7884    1.0000 </r>
       <r>  -11.7877    1.0000 </r>
       <r>  -11.7812    1.0000 </r>
       <r>   -5.1723    1.0000 </r>
       <r>   -5.1282    1.0000 </r>
       <r>   -4.7227    1.0000 </r>
       <r>   -4.7200    1.0000 </r>
       <r>   -4.7100    1.0000 </r>
       <r>   -4.6785    1.0000 </r>
       <r>   -4.3412    1.0000 </r>
       <r>   -4.3324    1.0000 </r>
       <r>   -4.3182    1.0000 </r>
       <r>   -4.3037    1.0000 </r>
       <r>   -4.2703    1.0000 </r>
       <r>   -4.2529    1.0000 </r>
       <r>   -4.2487    1.0000 </r>
       <r>   -4.2320    1.0000 </r>
       <r>   -4.1994    1.0000 </r>
       <r>   -4.1869    1.0000 </r>
       <r>   -4.1489    1.0000 </r>
       <r>   -4.1401    1.0000 </r>
       <r>   -4.1331    1.0000 </r>
       <r>   -4.1171    1.0000 </r>
       <r>   -4.1117    1.0000 </r>
       <r>   -4.0725    1.0000 </r>
       <r>   -4.0452    1.0000 </r>
       <r>   -4.0394    1.0000 </r>
       <r>   -4.0304    1.0000 </r>
       <r>   -3.7982    1.0000 </r>
       <r>   -3.6429    1.0000 </r>
       <r>   -3.5872    1.0000 </r>
       <r>   -3.4486    1.0000 </r>
       <r>   -3.4188    1.0000 </r>
       <r>   -3.4069    1.0000 </r>
       <r>   -3.3137    1.0000 </r>
       <r>   -3.2135    1.0000 </r>
       <r>   -3.2084    1.0000 </r>
       <r>   -3.1970    1.0000 </r>
       <r>   -3.1790    1.0000 </r>
       <r>   -3.1487    1.0000 </r>
       <r>   -3.1240    1.0000 </r>
       <r>   -3.1028    1.0000 </r>
       <r>   -3.0990    1.0000 </r>
       <r>   -3.0747    1.0000 </r>
       <r>   -3.0609    1.0000 </r>
       <r>   -3.0483    1.0000 </r>
       <r>   -2.9212    1.0000 </r>
       <r>   -2.7181    1.0000 </r>
       <r>   -2.6775    1.0000 </r>
       <r>   -2.6651    1.0000 </r>
       <r>   -2.6447    1.0000 </r>
       <r>   -2.5766    1.0000 </r>
       <r>   -2.5739    1.0000 </r>
       <r>   -2.5574    1.0000 </r>
       <r>   -2.5117    1.0000 </r>
       <r>   -2.4930    1.0000 </r>
       <r>   -2.3067    1.0000 </r>
       <r>   -2.2888    1.0000 </r>
       <r>   -2.2396    1.0000 </r>
       <r>   -2.2087    1.0000 </r>
       <r>   -2.1822    1.0000 </r>
       <r>   -2.1481    1.0000 </r>
       <r>   -2.1080    1.0000 </r>
       <r>   -2.0703    1.0000 </r>
       <r>   -1.9939    1.0000 </r>
       <r>   -1.9750    1.0000 </r>
       <r>   -1.9248    1.0000 </r>
       <r>   -1.8377    1.0000 </r>
       <r>   -1.8107    1.0000 </r>
       <r>   -1.7943    1.0000 </r>
       <r>   -1.7619    1.0000 </r>
       <r>   -1.7024    1.0000 </r>
       <r>   -1.6607    1.0000 </r>
       <r>   -1.6576    1.0000 </r>
       <r>   -1.6271    1.0000 </r>
       <r>   -1.5698    1.0000 </r>
       <r>   -1.4686    1.0000 </r>
       <r>   -1.4496    1.0000 </r>
       <r>   -1.4427    1.0000 </r>
       <r>   -1.4311    1.0000 </r>
       <r>   -1.4095    1.0000 </r>
       <r>   -1.4053    1.0000 </r>
       <r>   -1.3856    1.0000 </r>
       <r>   -1.3053    1.0000 </r>
       <r>   -1.2588    1.0000 </r>
       <r>   -1.2213    1.0000 </r>
       <r>   -1.2052    1.0000 </r>
       <r>   -1.1311    1.0000 </r>
       <r>   -1.0877    1.0000 </r>
       <r>   -1.0720    1.0000 </r>
       <r>   -1.0703    1.0000 </r>
       <r>   -1.0392    1.0000 </r>
       <r>   -0.9625    1.0000 </r>
       <r>   -0.9578    1.0000 </r>
       <r>   -0.9409    1.0000 </r>
       <r>   -0.9056    1.0000 </r>
       <r>   -0.8998    1.0000 </r>
       <r>   -0.8789    1.0000 </r>
       <r>   -0.8419    1.0000 </r>
       <r>   -0.8282    1.0000 </r>
       <r>   -0.7819    1.0000 </r>
       <r>   -0.7465    1.0000 </r>
       <r>   -0.7273    1.0000 </r>
       <r>   -0.7042    1.0000 </r>
       <r>   -0.6948    1.0000 </r>
       <r>   -0.6926    1.0000 </r>
       <r>   -0.6502    1.0000 </r>
       <r>   -0.6276    1.0000 </r>
       <r>   -0.5785    1.0000 </r>
       <r>   -0.5515    1.0000 </r>
       <r>   -0.5504    1.0000 </r>
       <r>   -0.5211    1.0000 </r>
       <r>   -0.4813    1.0000 </r>
       <r>   -0.3830    1.0000 </r>
       <r>   -0.3713    1.0000 </r>
       <r>   -0.2789    1.0000 </r>
       <r>   -0.2353    1.0000 </r>
       <r>   -0.2134    1.0000 </r>
       <r>   -0.2025    1.0000 </r>
       <r>   -0.1967    1.0000 </r>
       <r>   -0.1823    1.0000 </r>
       <r>   -0.1771    1.0000 </r>
       <r>   -0.1637    1.0000 </r>
       <r>   -0.1255    1.0000 </r>
       <r>   -0.0624    1.0000 </r>
       <r>   -0.0199    1.0000 </r>
       <r>   -0.0025    1.0000 </r>
       <r>    0.0014    1.0000 </r>
       <r>    0.0434    1.0000 </r>
       <r>    0.0541    1.0000 </r>
       <r>    0.0870    1.0000 </r>
       <r>    0.0936    1.0000 </r>
       <r>    0.1051    1.0000 </r>
       <r>    0.1162    1.0000 </r>
       <r>    0.1279    1.0000 </r>
       <r>    0.1358    1.0000 </r>
       <r>    0.1672    1.0000 </r>
       <r>    0.1726    1.0000 </r>
       <r>    0.2027    1.0000 </r>
       <r>    0.2599    1.0000 </r>
       <r>    0.2718    1.0000 </r>
       <r>    0.2852    1.0000 </r>
       <r>    0.4662    1.0000 </r>
       <r>    0.5016    1.0000 </r>
       <r>    0.5474    1.0000 </r>
       <r>    0.5799    1.0000 </r>
       <r>    0.5969    1.0000 </r>
       <r>    0.6069    1.0000 </r>
       <r>    0.6296    1.0000 </r>
       <r>    0.6402    1.0000 </r>
       <r>    0.6488    1.0000 </r>
       <r>    0.6908    1.0000 </r>
       <r>    0.7139    1.0000 </r>
       <r>    0.7262    1.0000 </r>
       <r>    0.7390    1.0000 </r>
       <r>    0.7714    1.0000 </r>
       <r>    0.7888    1.0000 </r>
       <r>    0.8135    1.0000 </r>
       <r>    0.8313    1.0000 </r>
       <r>    0.8368    1.0000 </r>
       <r>    0.8678    1.0000 </r>
       <r>    0.8900    1.0000 </r>
       <r>    0.9146    1.0000 </r>
       <r>    0.9417    1.0000 </r>
       <r>    0.9861    1.0000 </r>
       <r>    0.9973    1.0000 </r>
       <r>    1.0256    1.0000 </r>
       <r>    1.0494    1.0000 </r>
       <r>    1.0685    1.0000 </r>
       <r>    1.0743    1.0000 </r>
       <r>    1.1149    1.0000 </r>
       <r>    1.1234    1.0000 </r>
       <r>    1.1420    1.0000 </r>
       <r>    1.1555    1.0000 </r>
       <r>    1.1789    1.0000 </r>
       <r>    1.1904    1.0000 </r>
       <r>    1.1944    1.0000 </r>
       <r>    1.2089    1.0000 </r>
       <r>    1.2179    1.0000 </r>
       <r>    1.2266    1.0000 </r>
       <r>    1.2321    1.0000 </r>
       <r>    1.2600    1.0000 </r>
       <r>    1.2850    1.0000 </r>
       <r>    1.2975    1.0000 </r>
       <r>    1.2982    1.0000 </r>
       <r>    1.3237    1.0000 </r>
       <r>    1.3325    1.0000 </r>
       <r>    1.3452    1.0000 </r>
       <r>    1.3496    1.0000 </r>
       <r>    1.3507    1.0000 </r>
       <r>    1.3566    1.0000 </r>
       <r>    1.3690    1.0000 </r>
       <r>    1.3730    1.0000 </r>
       <r>    1.4299    1.0000 </r>
       <r>    1.4380    1.0000 </r>
       <r>    1.4596    1.0000 </r>
       <r>    1.4686    1.0000 </r>
       <r>    1.4709    1.0000 </r>
       <r>    1.4802    1.0000 </r>
       <r>    1.4935    1.0000 </r>
       <r>    1.4997    1.0000 </r>
       <r>    1.5053    1.0000 </r>
       <r>    1.5088    1.0000 </r>
       <r>    1.5243    1.0000 </r>
       <r>    1.5283    1.0000 </r>
       <r>    1.6198    1.0000 </r>
       <r>    1.6541    1.0000 </r>
       <r>    1.6617    1.0000 </r>
       <r>    1.6668    1.0000 </r>
       <r>    1.6758    1.0000 </r>
       <r>    1.6811    1.0000 </r>
       <r>    1.8448    1.0000 </r>
       <r>    1.9065    1.0000 </r>
       <r>    1.9068    1.0000 </r>
       <r>    1.9131    1.0000 </r>
       <r>    1.9327    1.0000 </r>
       <r>    1.9471    1.0000 </r>
       <r>    1.9580    1.0000 </r>
       <r>    1.9847    1.0000 </r>
       <r>    2.1283    1.0000 </r>
       <r>    2.2306    1.0000 </r>
       <r>    4.2415    0.4877 </r>
       <r>    7.5089    0.0000 </r>
       <r>    7.5755    0.0000 </r>
       <r>    8.1326    0.0000 </r>
       <r>    8.4992    0.0000 </r>
       <r>    9.2395    0.0000 </r>
       <r>    9.2948    0.0000 </r>
       <r>    9.7313    0.0000 </r>
       <r>    9.7400    0.0000 </r>
       <r>   10.0273    0.0000 </r>
       <r>   10.1193    0.0000 </r>
       <r>   10.2581    0.0000 </r>
       <r>   10.2627    0.0000 </r>
       <r>   10.2917    0.0000 </r>
       <r>   10.3018    0.0000 </r>
       <r>   10.5996    0.0000 </r>
       <r>   10.6005    0.0000 </r>
       <r>   10.6369    0.0000 </r>
       <r>   10.6757    0.0000 </r>
       <r>   10.7416    0.0000 </r>
       <r>   10.7658    0.0000 </r>
       <r>   10.8520    0.0000 </r>
       <r>   10.8628    0.0000 </r>
       <r>   10.8654    0.0000 </r>
       <r>   10.9123    0.0000 </r>
       <r>   10.9127    0.0000 </r>
       <r>   11.0123    0.0000 </r>
       <r>   11.2209    0.0000 </r>
       <r>   11.2389    0.0000 </r>
       <r>   11.2500    0.0000 </r>
       <r>   11.2744    0.0000 </r>
       <r>   11.2847    0.0000 </r>
       <r>   11.3463    0.0000 </r>
       <r>   11.3803    0.0000 </r>
       <r>   11.3872    0.0000 </r>
       <r>   11.4309    0.0000 </r>
       <r>   11.5101    0.0000 </r>
       <r>   11.5537    0.0000 </r>
       <r>   11.8519    0.0000 </r>
       <r>   12.0617    0.0000 </r>
       <r>   12.0695    0.0000 </r>
       <r>   12.2716    0.0000 </r>
       <r>   12.2755    0.0000 </r>
       <r>   12.3806    0.0000 </r>
       <r>   12.4456    0.0000 </r>
       <r>   12.4601    0.0000 </r>
       <r>   12.4721    0.0000 </r>
       <r>   12.4805    0.0000 </r>
       <r>   12.4844    0.0000 </r>
       <r>   12.5075    0.0000 </r>
       <r>   12.5087    0.0000 </r>
       <r>   12.5159    0.0000 </r>
       <r>   12.7138    0.0000 </r>
       <r>   12.7942    0.0000 </r>
       <r>   12.8063    0.0000 </r>
       <r>   12.8067    0.0000 </r>
       <r>   13.0117    0.0000 </r>
       <r>   13.0976    0.0000 </r>
       <r>   13.3339    0.0000 </r>
       <r>   13.3632    0.0000 </r>
       <r>   13.3682    0.0000 </r>
       <r>   13.3751    0.0000 </r>
       <r>   13.5356    0.0000 </r>
       <r>   13.5609    0.0000 </r>
       <r>   13.5819    0.0000 </r>
       <r>   13.6104    0.0000 </r>
       <r>   13.6823    0.0000 </r>
       <r>   13.7306    0.0000 </r>
       <r>   13.7578    0.0000 </r>
       <r>   13.7673    0.0000 </r>
       <r>   13.8422    0.0000 </r>
       <r>   13.8520    0.0000 </r>
       <r>   13.8534    0.0000 </r>
       <r>   13.9255    0.0000 </r>
       <r>   13.9371    0.0000 </r>
       <r>   14.0845    0.0000 </r>
       <r>   14.0924    0.0000 </r>
       <r>   14.1115    0.0000 </r>
       <r>   14.1139    0.0000 </r>
       <r>   14.1518    0.0000 </r>
       <r>   14.2644    0.0000 </r>
       <r>   14.3395    0.0000 </r>
       <r>   14.4251    0.0000 </r>
       <r>   14.4706    0.0000 </r>
       <r>   14.5872    0.0000 </r>
       <r>   14.6957    0.0000 </r>
       <r>   14.8183    0.0000 </r>
       <r>   14.9739    0.0000 </r>
       <r>   15.0350    0.0000 </r>
       <r>   15.1871    0.0000 </r>
       <r>   15.2283    0.0000 </r>
       <r>   15.3002    0.0000 </r>
       <r>   15.5809    0.0000 </r>
       <r>   15.6043    0.0000 </r>
       <r>   15.6611    0.0000 </r>
       <r>   15.6861    0.0000 </r>
       <r>   15.7999    0.0000 </r>
       <r>   15.8354    0.0000 </r>
       <r>   16.1430    0.0000 </r>
       <r>   16.1732    0.0000 </r>
       <r>   16.3277    0.0000 </r>
       <r>   16.5160    0.0000 </r>
       <r>   16.6149    0.0000 </r>
       <r>   16.7385    0.0000 </r>
       <r>   16.9901    0.0000 </r>
      </set>
      <set comment="kpoint 3">
       <r>  -18.4847    1.0000 </r>
       <r>  -18.4714    1.0000 </r>
       <r>  -18.2329    1.0000 </r>
       <r>  -18.2198    1.0000 </r>
       <r>  -18.1587    1.0000 </r>
       <r>  -18.1462    1.0000 </r>
       <r>  -18.1052    1.0000 </r>
       <r>  -18.0856    1.0000 </r>
       <r>  -18.0104    1.0000 </r>
       <r>  -17.9975    1.0000 </r>
       <r>  -17.8079    1.0000 </r>
       <r>  -17.7950    1.0000 </r>
       <r>  -17.7466    1.0000 </r>
       <r>  -17.7398    1.0000 </r>
       <r>  -17.5965    1.0000 </r>
       <r>  -17.5915    1.0000 </r>
       <r>  -17.5875    1.0000 </r>
       <r>  -17.5703    1.0000 </r>
       <r>  -17.4796    1.0000 </r>
       <r>  -17.4754    1.0000 </r>
       <r>  -17.4753    1.0000 </r>
       <r>  -17.4729    1.0000 </r>
       <r>  -17.4679    1.0000 </r>
       <r>  -17.4588    1.0000 </r>
       <r>  -17.4525    1.0000 </r>
       <r>  -17.4466    1.0000 </r>
       <r>  -17.4395    1.0000 </r>
       <r>  -17.4394    1.0000 </r>
       <r>  -17.4358    1.0000 </r>
       <r>  -17.3978    1.0000 </r>
       <r>  -17.3666    1.0000 </r>
       <r>  -17.3657    1.0000 </r>
       <r>  -17.3153    1.0000 </r>
       <r>  -17.3003    1.0000 </r>
       <r>  -17.2859    1.0000 </r>
       <r>  -17.2853    1.0000 </r>
       <r>  -17.2618    1.0000 </r>
       <r>  -17.2497    1.0000 </r>
       <r>  -17.2430    1.0000 </r>
       <r>  -17.2395    1.0000 </r>
       <r>  -17.2362    1.0000 </r>
       <r>  -17.2214    1.0000 </r>
       <r>  -17.2001    1.0000 </r>
       <r>  -17.1846    1.0000 </r>
       <r>  -17.1811    1.0000 </r>
       <r>  -17.1791    1.0000 </r>
       <r>  -17.1565    1.0000 </r>
       <r>  -17.1352    1.0000 </r>
       <r>  -17.1063    1.0000 </r>
       <r>  -17.0826    1.0000 </r>
       <r>  -17.0403    1.0000 </r>
       <r>  -17.0334    1.0000 </r>
       <r>  -16.9726    1.0000 </r>
       <r>  -16.9561    1.0000 </r>
       <r>  -16.9466    1.0000 </r>
       <r>  -16.9466    1.0000 </r>
       <r>  -16.9348    1.0000 </r>
       <r>  -16.9249    1.0000 </r>
       <r>  -16.9221    1.0000 </r>
       <r>  -16.9209    1.0000 </r>
       <r>  -16.9199    1.0000 </r>
       <r>  -16.9182    1.0000 </r>
       <r>  -16.9163    1.0000 </r>
       <r>  -16.8996    1.0000 </r>
       <r>  -16.8949    1.0000 </r>
       <r>  -16.8897    1.0000 </r>
       <r>  -16.8611    1.0000 </r>
       <r>  -16.8560    1.0000 </r>
       <r>  -16.8363    1.0000 </r>
       <r>  -16.8300    1.0000 </r>
       <r>  -16.6872    1.0000 </r>
       <r>  -16.6447    1.0000 </r>
       <r>  -13.0636    1.0000 </r>
       <r>  -13.0635    1.0000 </r>
       <r>  -13.0390    1.0000 </r>
       <r>  -13.0376    1.0000 </r>
       <r>  -13.0327    1.0000 </r>
       <r>  -13.0284    1.0000 </r>
       <r>  -13.0249    1.0000 </r>
       <r>  -13.0244    1.0000 </r>
       <r>  -13.0136    1.0000 </r>
       <r>  -13.0090    1.0000 </r>
       <r>  -13.0090    1.0000 </r>
       <r>  -13.0071    1.0000 </r>
       <r>  -13.0037    1.0000 </r>
       <r>  -13.0029    1.0000 </r>
       <r>  -12.9981    1.0000 </r>
       <r>  -12.9978    1.0000 </r>
       <r>  -12.9820    1.0000 </r>
       <r>  -12.9814    1.0000 </r>
       <r>  -12.9780    1.0000 </r>
       <r>  -12.9767    1.0000 </r>
       <r>  -12.9757    1.0000 </r>
       <r>  -12.9752    1.0000 </r>
       <r>  -12.9708    1.0000 </r>
       <r>  -12.9675    1.0000 </r>
       <r>  -12.9645    1.0000 </r>
       <r>  -12.9619    1.0000 </r>
       <r>  -12.9531    1.0000 </r>
       <r>  -12.9514    1.0000 </r>
       <r>  -12.9499    1.0000 </r>
       <r>  -12.9462    1.0000 </r>
       <r>  -12.9445    1.0000 </r>
       <r>  -12.9435    1.0000 </r>
       <r>  -12.9420    1.0000 </r>
       <r>  -12.9372    1.0000 </r>
       <r>  -12.9358    1.0000 </r>
       <r>  -12.9349    1.0000 </r>
       <r>  -12.9342    1.0000 </r>
       <r>  -12.9335    1.0000 </r>
       <r>  -12.9318    1.0000 </r>
       <r>  -12.9315    1.0000 </r>
       <r>  -12.9299    1.0000 </r>
       <r>  -12.9291    1.0000 </r>
       <r>  -12.9288    1.0000 </r>
       <r>  -12.9236    1.0000 </r>
       <r>  -12.9156    1.0000 </r>
       <r>  -12.9127    1.0000 </r>
       <r>  -12.9111    1.0000 </r>
       <r>  -12.9037    1.0000 </r>
       <r>  -12.9035    1.0000 </r>
       <r>  -12.8975    1.0000 </r>
       <r>  -12.8957    1.0000 </r>
       <r>  -12.8926    1.0000 </r>
       <r>  -12.8921    1.0000 </r>
       <r>  -12.8920    1.0000 </r>
       <r>  -12.8898    1.0000 </r>
       <r>  -12.8882    1.0000 </r>
       <r>  -12.8797    1.0000 </r>
       <r>  -12.8792    1.0000 </r>
       <r>  -12.8762    1.0000 </r>
       <r>  -12.8709    1.0000 </r>
       <r>  -12.8685    1.0000 </r>
       <r>  -12.8513    1.0000 </r>
       <r>  -12.8481    1.0000 </r>
       <r>  -12.8447    1.0000 </r>
       <r>  -12.8420    1.0000 </r>
       <r>  -12.8323    1.0000 </r>
       <r>  -12.8316    1.0000 </r>
       <r>  -12.8294    1.0000 </r>
       <r>  -12.8270    1.0000 </r>
       <r>  -12.8263    1.0000 </r>
       <r>  -12.8254    1.0000 </r>
       <r>  -12.8246    1.0000 </r>
       <r>  -12.8226    1.0000 </r>
       <r>  -12.8205    1.0000 </r>
       <r>  -12.8203    1.0000 </r>
       <r>  -12.8185    1.0000 </r>
       <r>  -12.8159    1.0000 </r>
       <r>  -12.8115    1.0000 </r>
       <r>  -12.8114    1.0000 </r>
       <r>  -12.8105    1.0000 </r>
       <r>  -12.8077    1.0000 </r>
       <r>  -12.8075    1.0000 </r>
       <r>  -12.8056    1.0000 </r>
       <r>  -12.8038    1.0000 </r>
       <r>  -12.8025    1.0000 </r>
       <r>  -12.7902    1.0000 </r>
       <r>  -12.7881    1.0000 </r>
       <r>  -12.7849    1.0000 </r>
       <r>  -12.7846    1.0000 </r>
       <r>  -12.7801    1.0000 </r>
       <r>  -12.7778    1.0000 </r>
       <r>  -12.7771    1.0000 </r>
       <r>  -12.7708    1.0000 </r>
       <r>  -12.7678    1.0000 </r>
       <r>  -12.7619    1.0000 </r>
       <r>  -12.7583    1.0000 </r>
       <r>  -12.7572    1.0000 </r>
       <r>  -12.7554    1.0000 </r>
       <r>  -12.7550    1.0000 </r>
       <r>  -12.7536    1.0000 </r>
       <r>  -12.7518    1.0000 </r>
       <r>  -12.7502    1.0000 </r>
       <r>  -12.7482    1.0000 </r>
       <r>  -12.7478    1.0000 </r>
       <r>  -12.7466    1.0000 </r>
       <r>  -12.7443    1.0000 </r>
       <r>  -12.7436    1.0000 </r>
       <r>  -12.7403    1.0000 </r>
       <r>  -12.7372    1.0000 </r>
       <r>  -12.7361    1.0000 </r>
       <r>  -12.7334    1.0000 </r>
       <r>  -12.7322    1.0000 </r>
       <r>  -12.7315    1.0000 </r>
       <r>  -12.7303    1.0000 </r>
       <r>  -12.7297    1.0000 </r>
       <r>  -12.7285    1.0000 </r>
       <r>  -12.7271    1.0000 </r>
       <r>  -12.7263    1.0000 </r>
       <r>  -12.7230    1.0000 </r>
       <r>  -12.7229    1.0000 </r>
       <r>  -12.7207    1.0000 </r>
       <r>  -12.7201    1.0000 </r>
       <r>  -12.7200    1.0000 </r>
       <r>  -12.7186    1.0000 </r>
       <r>  -12.7168    1.0000 </r>
       <r>  -12.7141    1.0000 </r>
       <r>  -12.7093    1.0000 </r>
       <r>  -12.7033    1.0000 </r>
       <r>  -12.7029    1.0000 </r>
       <r>  -12.6939    1.0000 </r>
       <r>  -12.6852    1.0000 </r>
       <r>  -12.6730    1.0000 </r>
       <r>  -12.6619    1.0000 </r>
       <r>  -12.6555    1.0000 </r>
       <r>  -12.6544    1.0000 </r>
       <r>  -12.6535    1.0000 </r>
       <r>  -12.6532    1.0000 </r>
       <r>  -12.6490    1.0000 </r>
       <r>  -12.6479    1.0000 </r>
       <r>  -12.6456    1.0000 </r>
       <r>  -12.6449    1.0000 </r>
       <r>  -12.6396    1.0000 </r>
       <r>  -12.6385    1.0000 </r>
       <r>  -12.6373    1.0000 </r>
       <r>  -12.6345    1.0000 </r>
       <r>  -12.6296    1.0000 </r>
       <r>  -12.6253    1.0000 </r>
       <r>  -12.6243    1.0000 </r>
       <r>  -12.6219    1.0000 </r>
       <r>  -12.6218    1.0000 </r>
       <r>  -12.6192    1.0000 </r>
       <r>  -12.6162    1.0000 </r>
       <r>  -12.6106    1.0000 </r>
       <r>  -12.6100    1.0000 </r>
       <r>  -12.6062    1.0000 </r>
       <r>  -12.6057    1.0000 </r>
       <r>  -12.6040    1.0000 </r>
       <r>  -12.6038    1.0000 </r>
       <r>  -12.6029    1.0000 </r>
       <r>  -12.5980    1.0000 </r>
       <r>  -12.5954    1.0000 </r>
       <r>  -12.5947    1.0000 </r>
       <r>  -12.5943    1.0000 </r>
       <r>  -12.5920    1.0000 </r>
       <r>  -12.5909    1.0000 </r>
       <r>  -12.5899    1.0000 </r>
       <r>  -12.5846    1.0000 </r>
       <r>  -12.5827    1.0000 </r>
       <r>  -12.5749    1.0000 </r>
       <r>  -12.5708    1.0000 </r>
       <r>  -12.5696    1.0000 </r>
       <r>  -12.5683    1.0000 </r>
       <r>  -12.5680    1.0000 </r>
       <r>  -12.5674    1.0000 </r>
       <r>  -12.5662    1.0000 </r>
       <r>  -12.5619    1.0000 </r>
       <r>  -12.5612    1.0000 </r>
       <r>  -12.5607    1.0000 </r>
       <r>  -12.5558    1.0000 </r>
       <r>  -12.5526    1.0000 </r>
       <r>  -12.5515    1.0000 </r>
       <r>  -12.5470    1.0000 </r>
       <r>  -12.5393    1.0000 </r>
       <r>  -12.5376    1.0000 </r>
       <r>  -12.5357    1.0000 </r>
       <r>  -12.5340    1.0000 </r>
       <r>  -12.5308    1.0000 </r>
       <r>  -12.4647    1.0000 </r>
       <r>  -12.4538    1.0000 </r>
       <r>  -12.4128    1.0000 </r>
       <r>  -12.4091    1.0000 </r>
       <r>  -12.4078    1.0000 </r>
       <r>  -12.3997    1.0000 </r>
       <r>  -12.3917    1.0000 </r>
       <r>  -12.3866    1.0000 </r>
       <r>  -12.3758    1.0000 </r>
       <r>  -12.3741    1.0000 </r>
       <r>  -12.3631    1.0000 </r>
       <r>  -12.3555    1.0000 </r>
       <r>  -12.3374    1.0000 </r>
       <r>  -12.3246    1.0000 </r>
       <r>  -12.3153    1.0000 </r>
       <r>  -12.3069    1.0000 </r>
       <r>  -12.2839    1.0000 </r>
       <r>  -12.2776    1.0000 </r>
       <r>  -12.2289    1.0000 </r>
       <r>  -12.2152    1.0000 </r>
       <r>  -12.2020    1.0000 </r>
       <r>  -12.1987    1.0000 </r>
       <r>  -12.1885    1.0000 </r>
       <r>  -12.1745    1.0000 </r>
       <r>  -12.1376    1.0000 </r>
       <r>  -12.1317    1.0000 </r>
       <r>  -12.1186    1.0000 </r>
       <r>  -12.1109    1.0000 </r>
       <r>  -12.0861    1.0000 </r>
       <r>  -12.0842    1.0000 </r>
       <r>  -12.0320    1.0000 </r>
       <r>  -12.0294    1.0000 </r>
       <r>  -11.9873    1.0000 </r>
       <r>  -11.9595    1.0000 </r>
       <r>  -11.9116    1.0000 </r>
       <r>  -11.9103    1.0000 </r>
       <r>  -11.8906    1.0000 </r>
       <r>  -11.8825    1.0000 </r>
       <r>  -11.8554    1.0000 </r>
       <r>  -11.8395    1.0000 </r>
       <r>  -11.7966    1.0000 </r>
       <r>  -11.7756    1.0000 </r>
       <r>  -11.7570    1.0000 </r>
       <r>  -11.7264    1.0000 </r>
       <r>  -11.7010    1.0000 </r>
       <r>  -11.6974    1.0000 </r>
       <r>  -11.6814    1.0000 </r>
       <r>  -11.6695    1.0000 </r>
       <r>   -5.0164    1.0000 </r>
       <r>   -5.0047    1.0000 </r>
       <r>   -4.9507    1.0000 </r>
       <r>   -4.9413    1.0000 </r>
       <r>   -4.8438    1.0000 </r>
       <r>   -4.7977    1.0000 </r>
       <r>   -4.7839    1.0000 </r>
       <r>   -4.7400    1.0000 </r>
       <r>   -4.5174    1.0000 </r>
       <r>   -4.5138    1.0000 </r>
       <r>   -4.4980    1.0000 </r>
       <r>   -4.4641    1.0000 </r>
       <r>   -4.2747    1.0000 </r>
       <r>   -4.2504    1.0000 </r>
       <r>   -4.2248    1.0000 </r>
       <r>   -4.2063    1.0000 </r>
       <r>   -4.1324    1.0000 </r>
       <r>   -4.1147    1.0000 </r>
       <r>   -4.0376    1.0000 </r>
       <r>   -4.0204    1.0000 </r>
       <r>   -3.9696    1.0000 </r>
       <r>   -3.9663    1.0000 </r>
       <r>   -3.9590    1.0000 </r>
       <r>   -3.9144    1.0000 </r>
       <r>   -3.8900    1.0000 </r>
       <r>   -3.7912    1.0000 </r>
       <r>   -3.5905    1.0000 </r>
       <r>   -3.5741    1.0000 </r>
       <r>   -3.5712    1.0000 </r>
       <r>   -3.5699    1.0000 </r>
       <r>   -3.5279    1.0000 </r>
       <r>   -3.5130    1.0000 </r>
       <r>   -3.4697    1.0000 </r>
       <r>   -3.3586    1.0000 </r>
       <r>   -3.2710    1.0000 </r>
       <r>   -3.1205    1.0000 </r>
       <r>   -2.9952    1.0000 </r>
       <r>   -2.9947    1.0000 </r>
       <r>   -2.9387    1.0000 </r>
       <r>   -2.8960    1.0000 </r>
       <r>   -2.8755    1.0000 </r>
       <r>   -2.8454    1.0000 </r>
       <r>   -2.8164    1.0000 </r>
       <r>   -2.7884    1.0000 </r>
       <r>   -2.7659    1.0000 </r>
       <r>   -2.6745    1.0000 </r>
       <r>   -2.6569    1.0000 </r>
       <r>   -2.5224    1.0000 </r>
       <r>   -2.5004    1.0000 </r>
       <r>   -2.4721    1.0000 </r>
       <r>   -2.2670    1.0000 </r>
       <r>   -2.2268    1.0000 </r>
       <r>   -2.1883    1.0000 </r>
       <r>   -2.1652    1.0000 </r>
       <r>   -2.0841    1.0000 </r>
       <r>   -2.0118    1.0000 </r>
       <r>   -1.9491    1.0000 </r>
       <r>   -1.9392    1.0000 </r>
       <r>   -1.9053    1.0000 </r>
       <r>   -1.8781    1.0000 </r>
       <r>   -1.8502    1.0000 </r>
       <r>   -1.8251    1.0000 </r>
       <r>   -1.8191    1.0000 </r>
       <r>   -1.7900    1.0000 </r>
       <r>   -1.7748    1.0000 </r>
       <r>   -1.7532    1.0000 </r>
       <r>   -1.7504    1.0000 </r>
       <r>   -1.7333    1.0000 </r>
       <r>   -1.6927    1.0000 </r>
       <r>   -1.6775    1.0000 </r>
       <r>   -1.6152    1.0000 </r>
       <r>   -1.5886    1.0000 </r>
       <r>   -1.5545    1.0000 </r>
       <r>   -1.4902    1.0000 </r>
       <r>   -1.4707    1.0000 </r>
       <r>   -1.4384    1.0000 </r>
       <r>   -1.4301    1.0000 </r>
       <r>   -1.4222    1.0000 </r>
       <r>   -1.3873    1.0000 </r>
       <r>   -1.3747    1.0000 </r>
       <r>   -1.3613    1.0000 </r>
       <r>   -1.3286    1.0000 </r>
       <r>   -1.2750    1.0000 </r>
       <r>   -1.2704    1.0000 </r>
       <r>   -1.1776    1.0000 </r>
       <r>   -1.1469    1.0000 </r>
       <r>   -1.0705    1.0000 </r>
       <r>   -1.0452    1.0000 </r>
       <r>   -0.9827    1.0000 </r>
       <r>   -0.9492    1.0000 </r>
       <r>   -0.9194    1.0000 </r>
       <r>   -0.8984    1.0000 </r>
       <r>   -0.8966    1.0000 </r>
       <r>   -0.8741    1.0000 </r>
       <r>   -0.8583    1.0000 </r>
       <r>   -0.8277    1.0000 </r>
       <r>   -0.7886    1.0000 </r>
       <r>   -0.7805    1.0000 </r>
       <r>   -0.7653    1.0000 </r>
       <r>   -0.7576    1.0000 </r>
       <r>   -0.7197    1.0000 </r>
       <r>   -0.7161    1.0000 </r>
       <r>   -0.6924    1.0000 </r>
       <r>   -0.6893    1.0000 </r>
       <r>   -0.6365    1.0000 </r>
       <r>   -0.6172    1.0000 </r>
       <r>   -0.5187    1.0000 </r>
       <r>   -0.5035    1.0000 </r>
       <r>   -0.4805    1.0000 </r>
       <r>   -0.4525    1.0000 </r>
       <r>   -0.4426    1.0000 </r>
       <r>   -0.3297    1.0000 </r>
       <r>   -0.3118    1.0000 </r>
       <r>   -0.2917    1.0000 </r>
       <r>   -0.2828    1.0000 </r>
       <r>   -0.2782    1.0000 </r>
       <r>   -0.2668    1.0000 </r>
       <r>   -0.2472    1.0000 </r>
       <r>   -0.1891    1.0000 </r>
       <r>   -0.1647    1.0000 </r>
       <r>   -0.1388    1.0000 </r>
       <r>   -0.1175    1.0000 </r>
       <r>   -0.0925    1.0000 </r>
       <r>   -0.0786    1.0000 </r>
       <r>   -0.0560    1.0000 </r>
       <r>   -0.0354    1.0000 </r>
       <r>   -0.0195    1.0000 </r>
       <r>    0.0167    1.0000 </r>
       <r>    0.0240    1.0000 </r>
       <r>    0.1108    1.0000 </r>
       <r>    0.1315    1.0000 </r>
       <r>    0.1423    1.0000 </r>
       <r>    0.1499    1.0000 </r>
       <r>    0.1892    1.0000 </r>
       <r>    0.2021    1.0000 </r>
       <r>    0.2516    1.0000 </r>
       <r>    0.2752    1.0000 </r>
       <r>    0.3297    1.0000 </r>
       <r>    0.3584    1.0000 </r>
       <r>    0.3696    1.0000 </r>
       <r>    0.4076    1.0000 </r>
       <r>    0.4227    1.0000 </r>
       <r>    0.4458    1.0000 </r>
       <r>    0.4736    1.0000 </r>
       <r>    0.5055    1.0000 </r>
       <r>    0.5063    1.0000 </r>
       <r>    0.5223    1.0000 </r>
       <r>    0.5322    1.0000 </r>
       <r>    0.5529    1.0000 </r>
       <r>    0.5647    1.0000 </r>
       <r>    0.6073    1.0000 </r>
       <r>    0.6098    1.0000 </r>
       <r>    0.6564    1.0000 </r>
       <r>    0.6862    1.0000 </r>
       <r>    0.7334    1.0000 </r>
       <r>    0.7807    1.0000 </r>
       <r>    0.7860    1.0000 </r>
       <r>    0.8139    1.0000 </r>
       <r>    0.8735    1.0000 </r>
       <r>    0.8773    1.0000 </r>
       <r>    0.9243    1.0000 </r>
       <r>    0.9472    1.0000 </r>
       <r>    0.9547    1.0000 </r>
       <r>    0.9600    1.0000 </r>
       <r>    0.9731    1.0000 </r>
       <r>    0.9909    1.0000 </r>
       <r>    1.0343    1.0000 </r>
       <r>    1.0351    1.0000 </r>
       <r>    1.0731    1.0000 </r>
       <r>    1.1006    1.0000 </r>
       <r>    1.1433    1.0000 </r>
       <r>    1.1446    1.0000 </r>
       <r>    1.1513    1.0000 </r>
       <r>    1.1604    1.0000 </r>
       <r>    1.1644    1.0000 </r>
       <r>    1.1738    1.0000 </r>
       <r>    1.1871    1.0000 </r>
       <r>    1.1895    1.0000 </r>
       <r>    1.2124    1.0000 </r>
       <r>    1.2382    1.0000 </r>
       <r>    1.2508    1.0000 </r>
       <r>    1.2611    1.0000 </r>
       <r>    1.2997    1.0000 </r>
       <r>    1.3136    1.0000 </r>
       <r>    1.3449    1.0000 </r>
       <r>    1.3541    1.0000 </r>
       <r>    1.3700    1.0000 </r>
       <r>    1.3908    1.0000 </r>
       <r>    1.3937    1.0000 </r>
       <r>    1.4057    1.0000 </r>
       <r>    1.4233    1.0000 </r>
       <r>    1.4287    1.0000 </r>
       <r>    1.4381    1.0000 </r>
       <r>    1.4458    1.0000 </r>
       <r>    1.4561    1.0000 </r>
       <r>    1.4692    1.0000 </r>
       <r>    1.4836    1.0000 </r>
       <r>    1.5242    1.0000 </r>
       <r>    1.5318    1.0000 </r>
       <r>    1.5466    1.0000 </r>
       <r>    1.5479    1.0000 </r>
       <r>    1.5529    1.0000 </r>
       <r>    1.5691    1.0000 </r>
       <r>    1.5931    1.0000 </r>
       <r>    1.6112    1.0000 </r>
       <r>    1.6258    1.0000 </r>
       <r>    1.6891    1.0000 </r>
       <r>    1.7141    1.0000 </r>
       <r>    1.8032    1.0000 </r>
       <r>    1.8111    1.0000 </r>
       <r>    1.8608    1.0000 </r>
       <r>    1.8765    1.0000 </r>
       <r>    2.0140    1.0000 </r>
       <r>    2.0261    1.0000 </r>
       <r>    2.0452    1.0000 </r>
       <r>    2.0558    1.0000 </r>
       <r>    2.1345    1.0000 </r>
       <r>    2.2123    1.0000 </r>
       <r>    4.2420    0.4829 </r>
       <r>    7.9861    0.0000 </r>
       <r>    7.9977    0.0000 </r>
       <r>    8.1727    0.0000 </r>
       <r>    8.3739    0.0000 </r>
       <r>    9.4675    0.0000 </r>
       <r>    9.4982    0.0000 </r>
       <r>    9.6659    0.0000 </r>
       <r>    9.7531    0.0000 </r>
       <r>    9.8268    0.0000 </r>
       <r>    9.8759    0.0000 </r>
       <r>    9.9899    0.0000 </r>
       <r>    9.9952    0.0000 </r>
       <r>   10.2556    0.0000 </r>
       <r>   10.3444    0.0000 </r>
       <r>   10.4098    0.0000 </r>
       <r>   10.4341    0.0000 </r>
       <r>   10.4729    0.0000 </r>
       <r>   10.5317    0.0000 </r>
       <r>   10.7382    0.0000 </r>
       <r>   10.7751    0.0000 </r>
       <r>   11.2191    0.0000 </r>
       <r>   11.2523    0.0000 </r>
       <r>   11.3117    0.0000 </r>
       <r>   11.3565    0.0000 </r>
       <r>   11.4306    0.0000 </r>
       <r>   11.4561    0.0000 </r>
       <r>   11.4897    0.0000 </r>
       <r>   11.5217    0.0000 </r>
       <r>   11.5424    0.0000 </r>
       <r>   11.5503    0.0000 </r>
       <r>   11.5617    0.0000 </r>
       <r>   11.5627    0.0000 </r>
       <r>   11.5918    0.0000 </r>
       <r>   11.6847    0.0000 </r>
       <r>   11.7663    0.0000 </r>
       <r>   11.8036    0.0000 </r>
       <r>   11.8162    0.0000 </r>
       <r>   11.8848    0.0000 </r>
       <r>   11.9082    0.0000 </r>
       <r>   12.0881    0.0000 </r>
       <r>   12.1449    0.0000 </r>
       <r>   12.1864    0.0000 </r>
       <r>   12.2027    0.0000 </r>
       <r>   12.4439    0.0000 </r>
       <r>   12.4468    0.0000 </r>
       <r>   12.4554    0.0000 </r>
       <r>   12.4575    0.0000 </r>
       <r>   12.5158    0.0000 </r>
       <r>   12.5274    0.0000 </r>
       <r>   12.5663    0.0000 </r>
       <r>   12.6289    0.0000 </r>
       <r>   12.8136    0.0000 </r>
       <r>   12.8216    0.0000 </r>
       <r>   12.8801    0.0000 </r>
       <r>   12.8815    0.0000 </r>
       <r>   12.9483    0.0000 </r>
       <r>   13.0427    0.0000 </r>
       <r>   13.0573    0.0000 </r>
       <r>   13.0772    0.0000 </r>
       <r>   13.1195    0.0000 </r>
       <r>   13.1593    0.0000 </r>
       <r>   13.1626    0.0000 </r>
       <r>   13.1751    0.0000 </r>
       <r>   13.2287    0.0000 </r>
       <r>   13.2363    0.0000 </r>
       <r>   13.2530    0.0000 </r>
       <r>   13.3327    0.0000 </r>
       <r>   13.3789    0.0000 </r>
       <r>   13.4152    0.0000 </r>
       <r>   13.4925    0.0000 </r>
       <r>   13.6101    0.0000 </r>
       <r>   13.7093    0.0000 </r>
       <r>   13.7442    0.0000 </r>
       <r>   13.9604    0.0000 </r>
       <r>   14.1351    0.0000 </r>
       <r>   14.2017    0.0000 </r>
       <r>   14.3002    0.0000 </r>
       <r>   14.3287    0.0000 </r>
       <r>   14.3627    0.0000 </r>
       <r>   14.4166    0.0000 </r>
       <r>   14.4568    0.0000 </r>
       <r>   14.7808    0.0000 </r>
       <r>   14.8080    0.0000 </r>
       <r>   14.8543    0.0000 </r>
       <r>   14.8961    0.0000 </r>
       <r>   15.2433    0.0000 </r>
       <r>   15.2956    0.0000 </r>
       <r>   15.3388    0.0000 </r>
       <r>   15.3710    0.0000 </r>
       <r>   15.3928    0.0000 </r>
       <r>   15.4462    0.0000 </r>
       <r>   15.5218    0.0000 </r>
       <r>   15.5387    0.0000 </r>
       <r>   15.6179    0.0000 </r>
       <r>   15.7028    0.0000 </r>
       <r>   15.8012    0.0000 </r>
       <r>   15.8079    0.0000 </r>
       <r>   15.9896    0.0000 </r>
       <r>   16.0632    0.0000 </r>
       <r>   16.1936    0.0000 </r>
       <r>   16.2675    0.0000 </r>
       <r>   16.3672    0.0000 </r>
       <r>   16.4745    0.0000 </r>
       <r>   16.6153    0.0000 </r>
      </set>
      <set comment="kpoint 4">
       <r>  -18.3848    1.0000 </r>
       <r>  -18.3810    1.0000 </r>
       <r>  -18.3746    1.0000 </r>
       <r>  -18.3516    1.0000 </r>
       <r>  -18.1818    1.0000 </r>
       <r>  -18.1784    1.0000 </r>
       <r>  -18.1775    1.0000 </r>
       <r>  -18.1487    1.0000 </r>
       <r>  -17.7606    1.0000 </r>
       <r>  -17.7543    1.0000 </r>
       <r>  -17.7471    1.0000 </r>
       <r>  -17.7432    1.0000 </r>
       <r>  -17.7186    1.0000 </r>
       <r>  -17.7122    1.0000 </r>
       <r>  -17.7066    1.0000 </r>
       <r>  -17.6904    1.0000 </r>
       <r>  -17.5945    1.0000 </r>
       <r>  -17.5815    1.0000 </r>
       <r>  -17.5529    1.0000 </r>
       <r>  -17.5457    1.0000 </r>
       <r>  -17.5442    1.0000 </r>
       <r>  -17.5411    1.0000 </r>
       <r>  -17.4767    1.0000 </r>
       <r>  -17.4692    1.0000 </r>
       <r>  -17.4598    1.0000 </r>
       <r>  -17.4555    1.0000 </r>
       <r>  -17.4463    1.0000 </r>
       <r>  -17.4443    1.0000 </r>
       <r>  -17.4414    1.0000 </r>
       <r>  -17.4084    1.0000 </r>
       <r>  -17.3806    1.0000 </r>
       <r>  -17.3779    1.0000 </r>
       <r>  -17.2963    1.0000 </r>
       <r>  -17.2700    1.0000 </r>
       <r>  -17.2544    1.0000 </r>
       <r>  -17.2464    1.0000 </r>
       <r>  -17.2414    1.0000 </r>
       <r>  -17.2203    1.0000 </r>
       <r>  -17.2055    1.0000 </r>
       <r>  -17.2037    1.0000 </r>
       <r>  -17.2021    1.0000 </r>
       <r>  -17.1994    1.0000 </r>
       <r>  -17.1983    1.0000 </r>
       <r>  -17.1930    1.0000 </r>
       <r>  -17.1901    1.0000 </r>
       <r>  -17.1819    1.0000 </r>
       <r>  -17.1769    1.0000 </r>
       <r>  -17.1253    1.0000 </r>
       <r>  -17.0903    1.0000 </r>
       <r>  -17.0859    1.0000 </r>
       <r>  -17.0799    1.0000 </r>
       <r>  -17.0655    1.0000 </r>
       <r>  -16.9728    1.0000 </r>
       <r>  -16.9559    1.0000 </r>
       <r>  -16.9467    1.0000 </r>
       <r>  -16.9461    1.0000 </r>
       <r>  -16.9356    1.0000 </r>
       <r>  -16.9275    1.0000 </r>
       <r>  -16.9265    1.0000 </r>
       <r>  -16.9241    1.0000 </r>
       <r>  -16.9185    1.0000 </r>
       <r>  -16.9153    1.0000 </r>
       <r>  -16.9141    1.0000 </r>
       <r>  -16.9009    1.0000 </r>
       <r>  -16.8967    1.0000 </r>
       <r>  -16.8884    1.0000 </r>
       <r>  -16.8561    1.0000 </r>
       <r>  -16.8437    1.0000 </r>
       <r>  -16.8398    1.0000 </r>
       <r>  -16.8387    1.0000 </r>
       <r>  -16.6875    1.0000 </r>
       <r>  -16.6447    1.0000 </r>
       <r>  -13.0587    1.0000 </r>
       <r>  -13.0584    1.0000 </r>
       <r>  -13.0449    1.0000 </r>
       <r>  -13.0436    1.0000 </r>
       <r>  -13.0288    1.0000 </r>
       <r>  -13.0278    1.0000 </r>
       <r>  -13.0251    1.0000 </r>
       <r>  -13.0186    1.0000 </r>
       <r>  -13.0178    1.0000 </r>
       <r>  -13.0157    1.0000 </r>
       <r>  -13.0088    1.0000 </r>
       <r>  -13.0056    1.0000 </r>
       <r>  -13.0048    1.0000 </r>
       <r>  -13.0045    1.0000 </r>
       <r>  -13.0001    1.0000 </r>
       <r>  -12.9979    1.0000 </r>
       <r>  -12.9797    1.0000 </r>
       <r>  -12.9785    1.0000 </r>
       <r>  -12.9771    1.0000 </r>
       <r>  -12.9763    1.0000 </r>
       <r>  -12.9732    1.0000 </r>
       <r>  -12.9695    1.0000 </r>
       <r>  -12.9681    1.0000 </r>
       <r>  -12.9667    1.0000 </r>
       <r>  -12.9666    1.0000 </r>
       <r>  -12.9652    1.0000 </r>
       <r>  -12.9642    1.0000 </r>
       <r>  -12.9584    1.0000 </r>
       <r>  -12.9491    1.0000 </r>
       <r>  -12.9478    1.0000 </r>
       <r>  -12.9459    1.0000 </r>
       <r>  -12.9446    1.0000 </r>
       <r>  -12.9425    1.0000 </r>
       <r>  -12.9409    1.0000 </r>
       <r>  -12.9391    1.0000 </r>
       <r>  -12.9359    1.0000 </r>
       <r>  -12.9333    1.0000 </r>
       <r>  -12.9331    1.0000 </r>
       <r>  -12.9325    1.0000 </r>
       <r>  -12.9304    1.0000 </r>
       <r>  -12.9295    1.0000 </r>
       <r>  -12.9261    1.0000 </r>
       <r>  -12.9235    1.0000 </r>
       <r>  -12.9212    1.0000 </r>
       <r>  -12.9153    1.0000 </r>
       <r>  -12.9118    1.0000 </r>
       <r>  -12.9041    1.0000 </r>
       <r>  -12.9030    1.0000 </r>
       <r>  -12.9007    1.0000 </r>
       <r>  -12.8976    1.0000 </r>
       <r>  -12.8948    1.0000 </r>
       <r>  -12.8916    1.0000 </r>
       <r>  -12.8911    1.0000 </r>
       <r>  -12.8902    1.0000 </r>
       <r>  -12.8870    1.0000 </r>
       <r>  -12.8844    1.0000 </r>
       <r>  -12.8808    1.0000 </r>
       <r>  -12.8798    1.0000 </r>
       <r>  -12.8756    1.0000 </r>
       <r>  -12.8706    1.0000 </r>
       <r>  -12.8668    1.0000 </r>
       <r>  -12.8527    1.0000 </r>
       <r>  -12.8480    1.0000 </r>
       <r>  -12.8424    1.0000 </r>
       <r>  -12.8363    1.0000 </r>
       <r>  -12.8322    1.0000 </r>
       <r>  -12.8265    1.0000 </r>
       <r>  -12.8260    1.0000 </r>
       <r>  -12.8255    1.0000 </r>
       <r>  -12.8243    1.0000 </r>
       <r>  -12.8234    1.0000 </r>
       <r>  -12.8213    1.0000 </r>
       <r>  -12.8197    1.0000 </r>
       <r>  -12.8159    1.0000 </r>
       <r>  -12.8109    1.0000 </r>
       <r>  -12.8092    1.0000 </r>
       <r>  -12.8090    1.0000 </r>
       <r>  -12.8069    1.0000 </r>
       <r>  -12.8047    1.0000 </r>
       <r>  -12.8047    1.0000 </r>
       <r>  -12.7960    1.0000 </r>
       <r>  -12.7954    1.0000 </r>
       <r>  -12.7931    1.0000 </r>
       <r>  -12.7878    1.0000 </r>
       <r>  -12.7858    1.0000 </r>
       <r>  -12.7851    1.0000 </r>
       <r>  -12.7829    1.0000 </r>
       <r>  -12.7825    1.0000 </r>
       <r>  -12.7816    1.0000 </r>
       <r>  -12.7805    1.0000 </r>
       <r>  -12.7793    1.0000 </r>
       <r>  -12.7776    1.0000 </r>
       <r>  -12.7761    1.0000 </r>
       <r>  -12.7746    1.0000 </r>
       <r>  -12.7689    1.0000 </r>
       <r>  -12.7636    1.0000 </r>
       <r>  -12.7590    1.0000 </r>
       <r>  -12.7584    1.0000 </r>
       <r>  -12.7562    1.0000 </r>
       <r>  -12.7560    1.0000 </r>
       <r>  -12.7552    1.0000 </r>
       <r>  -12.7516    1.0000 </r>
       <r>  -12.7506    1.0000 </r>
       <r>  -12.7504    1.0000 </r>
       <r>  -12.7482    1.0000 </r>
       <r>  -12.7478    1.0000 </r>
       <r>  -12.7452    1.0000 </r>
       <r>  -12.7446    1.0000 </r>
       <r>  -12.7441    1.0000 </r>
       <r>  -12.7410    1.0000 </r>
       <r>  -12.7399    1.0000 </r>
       <r>  -12.7382    1.0000 </r>
       <r>  -12.7327    1.0000 </r>
       <r>  -12.7316    1.0000 </r>
       <r>  -12.7315    1.0000 </r>
       <r>  -12.7302    1.0000 </r>
       <r>  -12.7282    1.0000 </r>
       <r>  -12.7266    1.0000 </r>
       <r>  -12.7212    1.0000 </r>
       <r>  -12.7187    1.0000 </r>
       <r>  -12.7140    1.0000 </r>
       <r>  -12.7125    1.0000 </r>
       <r>  -12.7106    1.0000 </r>
       <r>  -12.7078    1.0000 </r>
       <r>  -12.7019    1.0000 </r>
       <r>  -12.6987    1.0000 </r>
       <r>  -12.6977    1.0000 </r>
       <r>  -12.6970    1.0000 </r>
       <r>  -12.6964    1.0000 </r>
       <r>  -12.6921    1.0000 </r>
       <r>  -12.6921    1.0000 </r>
       <r>  -12.6871    1.0000 </r>
       <r>  -12.6863    1.0000 </r>
       <r>  -12.6669    1.0000 </r>
       <r>  -12.6550    1.0000 </r>
       <r>  -12.6529    1.0000 </r>
       <r>  -12.6518    1.0000 </r>
       <r>  -12.6489    1.0000 </r>
       <r>  -12.6478    1.0000 </r>
       <r>  -12.6454    1.0000 </r>
       <r>  -12.6452    1.0000 </r>
       <r>  -12.6425    1.0000 </r>
       <r>  -12.6417    1.0000 </r>
       <r>  -12.6336    1.0000 </r>
       <r>  -12.6328    1.0000 </r>
       <r>  -12.6314    1.0000 </r>
       <r>  -12.6294    1.0000 </r>
       <r>  -12.6283    1.0000 </r>
       <r>  -12.6252    1.0000 </r>
       <r>  -12.6240    1.0000 </r>
       <r>  -12.6233    1.0000 </r>
       <r>  -12.6224    1.0000 </r>
       <r>  -12.6206    1.0000 </r>
       <r>  -12.6134    1.0000 </r>
       <r>  -12.6105    1.0000 </r>
       <r>  -12.6090    1.0000 </r>
       <r>  -12.6050    1.0000 </r>
       <r>  -12.6046    1.0000 </r>
       <r>  -12.6025    1.0000 </r>
       <r>  -12.6011    1.0000 </r>
       <r>  -12.6007    1.0000 </r>
       <r>  -12.5994    1.0000 </r>
       <r>  -12.5989    1.0000 </r>
       <r>  -12.5946    1.0000 </r>
       <r>  -12.5935    1.0000 </r>
       <r>  -12.5925    1.0000 </r>
       <r>  -12.5922    1.0000 </r>
       <r>  -12.5820    1.0000 </r>
       <r>  -12.5778    1.0000 </r>
       <r>  -12.5734    1.0000 </r>
       <r>  -12.5692    1.0000 </r>
       <r>  -12.5687    1.0000 </r>
       <r>  -12.5684    1.0000 </r>
       <r>  -12.5658    1.0000 </r>
       <r>  -12.5658    1.0000 </r>
       <r>  -12.5619    1.0000 </r>
       <r>  -12.5564    1.0000 </r>
       <r>  -12.5546    1.0000 </r>
       <r>  -12.5545    1.0000 </r>
       <r>  -12.5482    1.0000 </r>
       <r>  -12.5481    1.0000 </r>
       <r>  -12.5454    1.0000 </r>
       <r>  -12.5436    1.0000 </r>
       <r>  -12.5417    1.0000 </r>
       <r>  -12.5397    1.0000 </r>
       <r>  -12.5397    1.0000 </r>
       <r>  -12.5366    1.0000 </r>
       <r>  -12.5365    1.0000 </r>
       <r>  -12.5342    1.0000 </r>
       <r>  -12.5311    1.0000 </r>
       <r>  -12.5280    1.0000 </r>
       <r>  -12.4269    1.0000 </r>
       <r>  -12.3913    1.0000 </r>
       <r>  -12.3715    1.0000 </r>
       <r>  -12.3715    1.0000 </r>
       <r>  -12.3638    1.0000 </r>
       <r>  -12.3499    1.0000 </r>
       <r>  -12.3468    1.0000 </r>
       <r>  -12.3435    1.0000 </r>
       <r>  -12.3162    1.0000 </r>
       <r>  -12.3135    1.0000 </r>
       <r>  -12.3021    1.0000 </r>
       <r>  -12.2959    1.0000 </r>
       <r>  -12.2714    1.0000 </r>
       <r>  -12.2669    1.0000 </r>
       <r>  -12.2453    1.0000 </r>
       <r>  -12.2435    1.0000 </r>
       <r>  -12.1872    1.0000 </r>
       <r>  -12.1828    1.0000 </r>
       <r>  -12.1433    1.0000 </r>
       <r>  -12.1422    1.0000 </r>
       <r>  -12.1169    1.0000 </r>
       <r>  -12.1164    1.0000 </r>
       <r>  -12.0738    1.0000 </r>
       <r>  -12.0538    1.0000 </r>
       <r>  -12.0339    1.0000 </r>
       <r>  -12.0332    1.0000 </r>
       <r>  -12.0322    1.0000 </r>
       <r>  -12.0185    1.0000 </r>
       <r>  -11.9751    1.0000 </r>
       <r>  -11.9425    1.0000 </r>
       <r>  -11.8979    1.0000 </r>
       <r>  -11.8913    1.0000 </r>
       <r>  -11.8712    1.0000 </r>
       <r>  -11.8407    1.0000 </r>
       <r>  -11.8374    1.0000 </r>
       <r>  -11.8234    1.0000 </r>
       <r>  -11.8116    1.0000 </r>
       <r>  -11.8086    1.0000 </r>
       <r>  -11.8028    1.0000 </r>
       <r>  -11.7989    1.0000 </r>
       <r>  -11.7578    1.0000 </r>
       <r>  -11.7227    1.0000 </r>
       <r>  -11.6980    1.0000 </r>
       <r>  -11.6963    1.0000 </r>
       <r>   -5.0373    1.0000 </r>
       <r>   -5.0210    1.0000 </r>
       <r>   -5.0014    1.0000 </r>
       <r>   -4.9867    1.0000 </r>
       <r>   -4.9554    1.0000 </r>
       <r>   -4.8857    1.0000 </r>
       <r>   -4.6677    1.0000 </r>
       <r>   -4.6314    1.0000 </r>
       <r>   -4.5176    1.0000 </r>
       <r>   -4.4760    1.0000 </r>
       <r>   -4.2802    1.0000 </r>
       <r>   -4.2748    1.0000 </r>
       <r>   -4.2443    1.0000 </r>
       <r>   -4.2310    1.0000 </r>
       <r>   -4.1845    1.0000 </r>
       <r>   -4.1559    1.0000 </r>
       <r>   -4.1352    1.0000 </r>
       <r>   -4.1189    1.0000 </r>
       <r>   -4.0340    1.0000 </r>
       <r>   -4.0272    1.0000 </r>
       <r>   -4.0170    1.0000 </r>
       <r>   -3.9948    1.0000 </r>
       <r>   -3.9542    1.0000 </r>
       <r>   -3.9123    1.0000 </r>
       <r>   -3.8680    1.0000 </r>
       <r>   -3.8378    1.0000 </r>
       <r>   -3.7607    1.0000 </r>
       <r>   -3.7301    1.0000 </r>
       <r>   -3.6766    1.0000 </r>
       <r>   -3.6750    1.0000 </r>
       <r>   -3.6647    1.0000 </r>
       <r>   -3.4609    1.0000 </r>
       <r>   -3.3151    1.0000 </r>
       <r>   -3.3103    1.0000 </r>
       <r>   -3.2940    1.0000 </r>
       <r>   -3.0903    1.0000 </r>
       <r>   -3.0630    1.0000 </r>
       <r>   -3.0402    1.0000 </r>
       <r>   -2.9658    1.0000 </r>
       <r>   -2.9483    1.0000 </r>
       <r>   -2.8995    1.0000 </r>
       <r>   -2.8768    1.0000 </r>
       <r>   -2.8599    1.0000 </r>
       <r>   -2.7960    1.0000 </r>
       <r>   -2.6451    1.0000 </r>
       <r>   -2.6331    1.0000 </r>
       <r>   -2.6185    1.0000 </r>
       <r>   -2.5989    1.0000 </r>
       <r>   -2.5947    1.0000 </r>
       <r>   -2.4481    1.0000 </r>
       <r>   -2.3130    1.0000 </r>
       <r>   -2.2325    1.0000 </r>
       <r>   -2.2131    1.0000 </r>
       <r>   -2.1779    1.0000 </r>
       <r>   -2.1532    1.0000 </r>
       <r>   -2.1394    1.0000 </r>
       <r>   -1.8909    1.0000 </r>
       <r>   -1.8555    1.0000 </r>
       <r>   -1.8406    1.0000 </r>
       <r>   -1.8280    1.0000 </r>
       <r>   -1.8130    1.0000 </r>
       <r>   -1.8020    1.0000 </r>
       <r>   -1.7954    1.0000 </r>
       <r>   -1.7817    1.0000 </r>
       <r>   -1.7542    1.0000 </r>
       <r>   -1.7381    1.0000 </r>
       <r>   -1.6927    1.0000 </r>
       <r>   -1.6629    1.0000 </r>
       <r>   -1.6229    1.0000 </r>
       <r>   -1.6155    1.0000 </r>
       <r>   -1.5870    1.0000 </r>
       <r>   -1.5695    1.0000 </r>
       <r>   -1.5647    1.0000 </r>
       <r>   -1.5410    1.0000 </r>
       <r>   -1.4045    1.0000 </r>
       <r>   -1.3838    1.0000 </r>
       <r>   -1.3738    1.0000 </r>
       <r>   -1.3485    1.0000 </r>
       <r>   -1.3360    1.0000 </r>
       <r>   -1.3263    1.0000 </r>
       <r>   -1.2961    1.0000 </r>
       <r>   -1.2849    1.0000 </r>
       <r>   -1.2399    1.0000 </r>
       <r>   -1.2338    1.0000 </r>
       <r>   -1.1629    1.0000 </r>
       <r>   -1.1131    1.0000 </r>
       <r>   -1.0553    1.0000 </r>
       <r>   -1.0242    1.0000 </r>
       <r>   -1.0211    1.0000 </r>
       <r>   -1.0022    1.0000 </r>
       <r>   -0.9862    1.0000 </r>
       <r>   -0.9542    1.0000 </r>
       <r>   -0.9317    1.0000 </r>
       <r>   -0.8871    1.0000 </r>
       <r>   -0.8221    1.0000 </r>
       <r>   -0.8197    1.0000 </r>
       <r>   -0.8057    1.0000 </r>
       <r>   -0.7610    1.0000 </r>
       <r>   -0.7148    1.0000 </r>
       <r>   -0.6901    1.0000 </r>
       <r>   -0.6813    1.0000 </r>
       <r>   -0.6507    1.0000 </r>
       <r>   -0.6252    1.0000 </r>
       <r>   -0.6018    1.0000 </r>
       <r>   -0.5766    1.0000 </r>
       <r>   -0.5734    1.0000 </r>
       <r>   -0.5681    1.0000 </r>
       <r>   -0.5591    1.0000 </r>
       <r>   -0.5435    1.0000 </r>
       <r>   -0.5157    1.0000 </r>
       <r>   -0.4929    1.0000 </r>
       <r>   -0.4799    1.0000 </r>
       <r>   -0.4555    1.0000 </r>
       <r>   -0.4370    1.0000 </r>
       <r>   -0.4255    1.0000 </r>
       <r>   -0.4162    1.0000 </r>
       <r>   -0.3892    1.0000 </r>
       <r>   -0.3480    1.0000 </r>
       <r>   -0.2911    1.0000 </r>
       <r>   -0.2762    1.0000 </r>
       <r>   -0.2232    1.0000 </r>
       <r>   -0.1401    1.0000 </r>
       <r>   -0.1042    1.0000 </r>
       <r>   -0.0452    1.0000 </r>
       <r>   -0.0340    1.0000 </r>
       <r>   -0.0209    1.0000 </r>
       <r>    0.0042    1.0000 </r>
       <r>    0.0064    1.0000 </r>
       <r>    0.0214    1.0000 </r>
       <r>    0.0390    1.0000 </r>
       <r>    0.0867    1.0000 </r>
       <r>    0.1180    1.0000 </r>
       <r>    0.2470    1.0000 </r>
       <r>    0.2719    1.0000 </r>
       <r>    0.3169    1.0000 </r>
       <r>    0.3479    1.0000 </r>
       <r>    0.3769    1.0000 </r>
       <r>    0.3892    1.0000 </r>
       <r>    0.3955    1.0000 </r>
       <r>    0.3961    1.0000 </r>
       <r>    0.4074    1.0000 </r>
       <r>    0.4425    1.0000 </r>
       <r>    0.4453    1.0000 </r>
       <r>    0.4633    1.0000 </r>
       <r>    0.4966    1.0000 </r>
       <r>    0.5284    1.0000 </r>
       <r>    0.5790    1.0000 </r>
       <r>    0.6207    1.0000 </r>
       <r>    0.6639    1.0000 </r>
       <r>    0.6962    1.0000 </r>
       <r>    0.7145    1.0000 </r>
       <r>    0.7190    1.0000 </r>
       <r>    0.7494    1.0000 </r>
       <r>    0.7529    1.0000 </r>
       <r>    0.7574    1.0000 </r>
       <r>    0.7655    1.0000 </r>
       <r>    0.7778    1.0000 </r>
       <r>    0.7967    1.0000 </r>
       <r>    0.7971    1.0000 </r>
       <r>    0.8025    1.0000 </r>
       <r>    0.8525    1.0000 </r>
       <r>    0.8828    1.0000 </r>
       <r>    0.8980    1.0000 </r>
       <r>    0.9071    1.0000 </r>
       <r>    0.9344    1.0000 </r>
       <r>    0.9487    1.0000 </r>
       <r>    0.9600    1.0000 </r>
       <r>    0.9823    1.0000 </r>
       <r>    1.0267    1.0000 </r>
       <r>    1.0412    1.0000 </r>
       <r>    1.0877    1.0000 </r>
       <r>    1.1458    1.0000 </r>
       <r>    1.1592    1.0000 </r>
       <r>    1.1669    1.0000 </r>
       <r>    1.1745    1.0000 </r>
       <r>    1.1835    1.0000 </r>
       <r>    1.1877    1.0000 </r>
       <r>    1.1935    1.0000 </r>
       <r>    1.2028    1.0000 </r>
       <r>    1.2093    1.0000 </r>
       <r>    1.2678    1.0000 </r>
       <r>    1.2743    1.0000 </r>
       <r>    1.2819    1.0000 </r>
       <r>    1.2921    1.0000 </r>
       <r>    1.3020    1.0000 </r>
       <r>    1.3148    1.0000 </r>
       <r>    1.3219    1.0000 </r>
       <r>    1.3234    1.0000 </r>
       <r>    1.3265    1.0000 </r>
       <r>    1.3334    1.0000 </r>
       <r>    1.3367    1.0000 </r>
       <r>    1.3475    1.0000 </r>
       <r>    1.3663    1.0000 </r>
       <r>    1.3684    1.0000 </r>
       <r>    1.3744    1.0000 </r>
       <r>    1.3929    1.0000 </r>
       <r>    1.4861    1.0000 </r>
       <r>    1.5267    1.0000 </r>
       <r>    1.5462    1.0000 </r>
       <r>    1.5542    1.0000 </r>
       <r>    1.5807    1.0000 </r>
       <r>    1.6016    1.0000 </r>
       <r>    1.6928    1.0000 </r>
       <r>    1.7148    1.0000 </r>
       <r>    1.7220    1.0000 </r>
       <r>    1.7400    1.0000 </r>
       <r>    1.7965    1.0000 </r>
       <r>    1.8048    1.0000 </r>
       <r>    1.8962    1.0000 </r>
       <r>    1.9254    1.0000 </r>
       <r>    1.9500    1.0000 </r>
       <r>    1.9521    1.0000 </r>
       <r>    1.9606    1.0000 </r>
       <r>    1.9638    1.0000 </r>
       <r>    1.9742    1.0000 </r>
       <r>    1.9886    1.0000 </r>
       <r>    2.1282    1.0000 </r>
       <r>    2.2136    1.0000 </r>
       <r>    4.2402    0.5045 </r>
       <r>    8.1330    0.0000 </r>
       <r>    8.3595    0.0000 </r>
       <r>    8.4418    0.0000 </r>
       <r>    8.4590    0.0000 </r>
       <r>    8.4825    0.0000 </r>
       <r>    8.5658    0.0000 </r>
       <r>    9.8850    0.0000 </r>
       <r>    9.8961    0.0000 </r>
       <r>    9.9507    0.0000 </r>
       <r>    9.9737    0.0000 </r>
       <r>   10.1103    0.0000 </r>
       <r>   10.2146    0.0000 </r>
       <r>   10.3902    0.0000 </r>
       <r>   10.4148    0.0000 </r>
       <r>   10.4453    0.0000 </r>
       <r>   10.4490    0.0000 </r>
       <r>   10.4795    0.0000 </r>
       <r>   10.5090    0.0000 </r>
       <r>   10.5292    0.0000 </r>
       <r>   10.6008    0.0000 </r>
       <r>   11.1359    0.0000 </r>
       <r>   11.1661    0.0000 </r>
       <r>   11.5050    0.0000 </r>
       <r>   11.5235    0.0000 </r>
       <r>   11.5318    0.0000 </r>
       <r>   11.5488    0.0000 </r>
       <r>   11.5521    0.0000 </r>
       <r>   11.5546    0.0000 </r>
       <r>   11.5685    0.0000 </r>
       <r>   11.5836    0.0000 </r>
       <r>   11.5964    0.0000 </r>
       <r>   11.6102    0.0000 </r>
       <r>   11.6398    0.0000 </r>
       <r>   11.7790    0.0000 </r>
       <r>   11.8063    0.0000 </r>
       <r>   11.8154    0.0000 </r>
       <r>   11.8397    0.0000 </r>
       <r>   11.9542    0.0000 </r>
       <r>   11.9714    0.0000 </r>
       <r>   12.0057    0.0000 </r>
       <r>   12.1380    0.0000 </r>
       <r>   12.2011    0.0000 </r>
       <r>   12.2192    0.0000 </r>
       <r>   12.2246    0.0000 </r>
       <r>   12.2555    0.0000 </r>
       <r>   12.5201    0.0000 </r>
       <r>   12.5712    0.0000 </r>
       <r>   12.5749    0.0000 </r>
       <r>   12.5893    0.0000 </r>
       <r>   12.7150    0.0000 </r>
       <r>   12.7234    0.0000 </r>
       <r>   12.8720    0.0000 </r>
       <r>   12.9190    0.0000 </r>
       <r>   12.9278    0.0000 </r>
       <r>   12.9396    0.0000 </r>
       <r>   12.9598    0.0000 </r>
       <r>   12.9812    0.0000 </r>
       <r>   13.0072    0.0000 </r>
       <r>   13.0291    0.0000 </r>
       <r>   13.0408    0.0000 </r>
       <r>   13.0930    0.0000 </r>
       <r>   13.1060    0.0000 </r>
       <r>   13.1124    0.0000 </r>
       <r>   13.1357    0.0000 </r>
       <r>   13.1591    0.0000 </r>
       <r>   13.1640    0.0000 </r>
       <r>   13.1727    0.0000 </r>
       <r>   13.3374    0.0000 </r>
       <r>   13.3484    0.0000 </r>
       <r>   13.3600    0.0000 </r>
       <r>   13.4659    0.0000 </r>
       <r>   13.6887    0.0000 </r>
       <r>   13.7146    0.0000 </r>
       <r>   13.7617    0.0000 </r>
       <r>   13.9427    0.0000 </r>
       <r>   14.0565    0.0000 </r>
       <r>   14.0980    0.0000 </r>
       <r>   14.1488    0.0000 </r>
       <r>   14.2051    0.0000 </r>
       <r>   14.5929    0.0000 </r>
       <r>   14.6927    0.0000 </r>
       <r>   15.0146    0.0000 </r>
       <r>   15.0669    0.0000 </r>
       <r>   15.0897    0.0000 </r>
       <r>   15.1472    0.0000 </r>
       <r>   15.1807    0.0000 </r>
       <r>   15.2255    0.0000 </r>
       <r>   15.2760    0.0000 </r>
       <r>   15.3156    0.0000 </r>
       <r>   15.4016    0.0000 </r>
       <r>   15.4387    0.0000 </r>
       <r>   15.4806    0.0000 </r>
       <r>   15.5404    0.0000 </r>
       <r>   15.6167    0.0000 </r>
       <r>   15.6731    0.0000 </r>
       <r>   15.8263    0.0000 </r>
       <r>   15.8789    0.0000 </r>
       <r>   16.0443    0.0000 </r>
       <r>   16.0735    0.0000 </r>
       <r>   16.2989    0.0000 </r>
       <r>   16.3597    0.0000 </r>
       <r>   16.3886    0.0000 </r>
       <r>   16.6338    0.0000 </r>
       <r>   16.8105    0.0000 </r>
      </set>
      <set comment="kpoint 5">
       <r>  -18.5792    1.0000 </r>
       <r>  -18.5629    1.0000 </r>
       <r>  -18.3235    1.0000 </r>
       <r>  -18.3036    1.0000 </r>
       <r>  -18.0153    1.0000 </r>
       <r>  -18.0098    1.0000 </r>
       <r>  -17.9276    1.0000 </r>
       <r>  -17.9224    1.0000 </r>
       <r>  -17.9148    1.0000 </r>
       <r>  -17.9117    1.0000 </r>
       <r>  -17.7407    1.0000 </r>
       <r>  -17.7339    1.0000 </r>
       <r>  -17.7282    1.0000 </r>
       <r>  -17.7191    1.0000 </r>
       <r>  -17.7153    1.0000 </r>
       <r>  -17.7036    1.0000 </r>
       <r>  -17.6182    1.0000 </r>
       <r>  -17.6146    1.0000 </r>
       <r>  -17.6126    1.0000 </r>
       <r>  -17.6054    1.0000 </r>
       <r>  -17.5938    1.0000 </r>
       <r>  -17.5729    1.0000 </r>
       <r>  -17.5296    1.0000 </r>
       <r>  -17.5134    1.0000 </r>
       <r>  -17.4361    1.0000 </r>
       <r>  -17.4335    1.0000 </r>
       <r>  -17.4322    1.0000 </r>
       <r>  -17.4220    1.0000 </r>
       <r>  -17.3427    1.0000 </r>
       <r>  -17.3419    1.0000 </r>
       <r>  -17.3396    1.0000 </r>
       <r>  -17.3334    1.0000 </r>
       <r>  -17.3317    1.0000 </r>
       <r>  -17.3232    1.0000 </r>
       <r>  -17.3208    1.0000 </r>
       <r>  -17.3195    1.0000 </r>
       <r>  -17.3115    1.0000 </r>
       <r>  -17.2860    1.0000 </r>
       <r>  -17.2163    1.0000 </r>
       <r>  -17.2008    1.0000 </r>
       <r>  -17.1797    1.0000 </r>
       <r>  -17.1754    1.0000 </r>
       <r>  -17.1703    1.0000 </r>
       <r>  -17.1609    1.0000 </r>
       <r>  -17.1608    1.0000 </r>
       <r>  -17.1480    1.0000 </r>
       <r>  -17.1382    1.0000 </r>
       <r>  -17.1344    1.0000 </r>
       <r>  -17.0497    1.0000 </r>
       <r>  -17.0376    1.0000 </r>
       <r>  -17.0073    1.0000 </r>
       <r>  -17.0021    1.0000 </r>
       <r>  -16.9990    1.0000 </r>
       <r>  -16.9959    1.0000 </r>
       <r>  -16.9952    1.0000 </r>
       <r>  -16.9893    1.0000 </r>
       <r>  -16.9878    1.0000 </r>
       <r>  -16.9868    1.0000 </r>
       <r>  -16.9744    1.0000 </r>
       <r>  -16.9640    1.0000 </r>
       <r>  -16.9087    1.0000 </r>
       <r>  -16.9070    1.0000 </r>
       <r>  -16.9019    1.0000 </r>
       <r>  -16.8990    1.0000 </r>
       <r>  -16.8970    1.0000 </r>
       <r>  -16.8893    1.0000 </r>
       <r>  -16.8594    1.0000 </r>
       <r>  -16.8243    1.0000 </r>
       <r>  -16.8162    1.0000 </r>
       <r>  -16.8005    1.0000 </r>
       <r>  -16.6702    1.0000 </r>
       <r>  -16.6567    1.0000 </r>
       <r>  -13.0752    1.0000 </r>
       <r>  -13.0656    1.0000 </r>
       <r>  -13.0550    1.0000 </r>
       <r>  -13.0457    1.0000 </r>
       <r>  -13.0385    1.0000 </r>
       <r>  -13.0345    1.0000 </r>
       <r>  -13.0325    1.0000 </r>
       <r>  -13.0308    1.0000 </r>
       <r>  -13.0276    1.0000 </r>
       <r>  -13.0191    1.0000 </r>
       <r>  -13.0178    1.0000 </r>
       <r>  -13.0067    1.0000 </r>
       <r>  -12.9966    1.0000 </r>
       <r>  -12.9824    1.0000 </r>
       <r>  -12.9786    1.0000 </r>
       <r>  -12.9775    1.0000 </r>
       <r>  -12.9712    1.0000 </r>
       <r>  -12.9705    1.0000 </r>
       <r>  -12.9659    1.0000 </r>
       <r>  -12.9635    1.0000 </r>
       <r>  -12.9606    1.0000 </r>
       <r>  -12.9587    1.0000 </r>
       <r>  -12.9529    1.0000 </r>
       <r>  -12.9527    1.0000 </r>
       <r>  -12.9512    1.0000 </r>
       <r>  -12.9509    1.0000 </r>
       <r>  -12.9400    1.0000 </r>
       <r>  -12.9399    1.0000 </r>
       <r>  -12.9389    1.0000 </r>
       <r>  -12.9377    1.0000 </r>
       <r>  -12.9358    1.0000 </r>
       <r>  -12.9346    1.0000 </r>
       <r>  -12.9345    1.0000 </r>
       <r>  -12.9308    1.0000 </r>
       <r>  -12.9307    1.0000 </r>
       <r>  -12.9301    1.0000 </r>
       <r>  -12.9289    1.0000 </r>
       <r>  -12.9263    1.0000 </r>
       <r>  -12.9255    1.0000 </r>
       <r>  -12.9239    1.0000 </r>
       <r>  -12.9238    1.0000 </r>
       <r>  -12.9219    1.0000 </r>
       <r>  -12.9198    1.0000 </r>
       <r>  -12.9186    1.0000 </r>
       <r>  -12.9163    1.0000 </r>
       <r>  -12.9161    1.0000 </r>
       <r>  -12.9123    1.0000 </r>
       <r>  -12.9079    1.0000 </r>
       <r>  -12.9076    1.0000 </r>
       <r>  -12.9059    1.0000 </r>
       <r>  -12.9041    1.0000 </r>
       <r>  -12.9035    1.0000 </r>
       <r>  -12.9001    1.0000 </r>
       <r>  -12.8929    1.0000 </r>
       <r>  -12.8893    1.0000 </r>
       <r>  -12.8798    1.0000 </r>
       <r>  -12.8779    1.0000 </r>
       <r>  -12.8776    1.0000 </r>
       <r>  -12.8714    1.0000 </r>
       <r>  -12.8703    1.0000 </r>
       <r>  -12.8670    1.0000 </r>
       <r>  -12.8622    1.0000 </r>
       <r>  -12.8615    1.0000 </r>
       <r>  -12.8607    1.0000 </r>
       <r>  -12.8489    1.0000 </r>
       <r>  -12.8347    1.0000 </r>
       <r>  -12.8342    1.0000 </r>
       <r>  -12.8323    1.0000 </r>
       <r>  -12.8305    1.0000 </r>
       <r>  -12.8269    1.0000 </r>
       <r>  -12.8245    1.0000 </r>
       <r>  -12.8211    1.0000 </r>
       <r>  -12.8203    1.0000 </r>
       <r>  -12.8180    1.0000 </r>
       <r>  -12.8150    1.0000 </r>
       <r>  -12.8130    1.0000 </r>
       <r>  -12.8051    1.0000 </r>
       <r>  -12.7996    1.0000 </r>
       <r>  -12.7988    1.0000 </r>
       <r>  -12.7985    1.0000 </r>
       <r>  -12.7966    1.0000 </r>
       <r>  -12.7962    1.0000 </r>
       <r>  -12.7952    1.0000 </r>
       <r>  -12.7939    1.0000 </r>
       <r>  -12.7921    1.0000 </r>
       <r>  -12.7903    1.0000 </r>
       <r>  -12.7901    1.0000 </r>
       <r>  -12.7874    1.0000 </r>
       <r>  -12.7855    1.0000 </r>
       <r>  -12.7818    1.0000 </r>
       <r>  -12.7805    1.0000 </r>
       <r>  -12.7796    1.0000 </r>
       <r>  -12.7790    1.0000 </r>
       <r>  -12.7776    1.0000 </r>
       <r>  -12.7766    1.0000 </r>
       <r>  -12.7756    1.0000 </r>
       <r>  -12.7750    1.0000 </r>
       <r>  -12.7740    1.0000 </r>
       <r>  -12.7709    1.0000 </r>
       <r>  -12.7693    1.0000 </r>
       <r>  -12.7679    1.0000 </r>
       <r>  -12.7670    1.0000 </r>
       <r>  -12.7650    1.0000 </r>
       <r>  -12.7612    1.0000 </r>
       <r>  -12.7609    1.0000 </r>
       <r>  -12.7569    1.0000 </r>
       <r>  -12.7549    1.0000 </r>
       <r>  -12.7539    1.0000 </r>
       <r>  -12.7420    1.0000 </r>
       <r>  -12.7386    1.0000 </r>
       <r>  -12.7357    1.0000 </r>
       <r>  -12.7327    1.0000 </r>
       <r>  -12.7254    1.0000 </r>
       <r>  -12.7236    1.0000 </r>
       <r>  -12.7214    1.0000 </r>
       <r>  -12.7205    1.0000 </r>
       <r>  -12.7196    1.0000 </r>
       <r>  -12.7174    1.0000 </r>
       <r>  -12.7096    1.0000 </r>
       <r>  -12.7077    1.0000 </r>
       <r>  -12.7012    1.0000 </r>
       <r>  -12.6983    1.0000 </r>
       <r>  -12.6960    1.0000 </r>
       <r>  -12.6937    1.0000 </r>
       <r>  -12.6905    1.0000 </r>
       <r>  -12.6864    1.0000 </r>
       <r>  -12.6852    1.0000 </r>
       <r>  -12.6846    1.0000 </r>
       <r>  -12.6838    1.0000 </r>
       <r>  -12.6829    1.0000 </r>
       <r>  -12.6807    1.0000 </r>
       <r>  -12.6728    1.0000 </r>
       <r>  -12.6720    1.0000 </r>
       <r>  -12.6698    1.0000 </r>
       <r>  -12.6681    1.0000 </r>
       <r>  -12.6652    1.0000 </r>
       <r>  -12.6572    1.0000 </r>
       <r>  -12.6568    1.0000 </r>
       <r>  -12.6463    1.0000 </r>
       <r>  -12.6437    1.0000 </r>
       <r>  -12.6422    1.0000 </r>
       <r>  -12.6421    1.0000 </r>
       <r>  -12.6406    1.0000 </r>
       <r>  -12.6384    1.0000 </r>
       <r>  -12.6379    1.0000 </r>
       <r>  -12.6377    1.0000 </r>
       <r>  -12.6344    1.0000 </r>
       <r>  -12.6329    1.0000 </r>
       <r>  -12.6294    1.0000 </r>
       <r>  -12.6273    1.0000 </r>
       <r>  -12.6244    1.0000 </r>
       <r>  -12.6235    1.0000 </r>
       <r>  -12.6209    1.0000 </r>
       <r>  -12.6201    1.0000 </r>
       <r>  -12.6189    1.0000 </r>
       <r>  -12.6171    1.0000 </r>
       <r>  -12.6142    1.0000 </r>
       <r>  -12.6137    1.0000 </r>
       <r>  -12.6122    1.0000 </r>
       <r>  -12.6091    1.0000 </r>
       <r>  -12.6080    1.0000 </r>
       <r>  -12.6073    1.0000 </r>
       <r>  -12.6058    1.0000 </r>
       <r>  -12.6044    1.0000 </r>
       <r>  -12.6028    1.0000 </r>
       <r>  -12.6001    1.0000 </r>
       <r>  -12.5990    1.0000 </r>
       <r>  -12.5969    1.0000 </r>
       <r>  -12.5942    1.0000 </r>
       <r>  -12.5935    1.0000 </r>
       <r>  -12.5905    1.0000 </r>
       <r>  -12.5903    1.0000 </r>
       <r>  -12.5883    1.0000 </r>
       <r>  -12.5826    1.0000 </r>
       <r>  -12.5817    1.0000 </r>
       <r>  -12.5751    1.0000 </r>
       <r>  -12.5696    1.0000 </r>
       <r>  -12.5661    1.0000 </r>
       <r>  -12.5614    1.0000 </r>
       <r>  -12.5596    1.0000 </r>
       <r>  -12.5544    1.0000 </r>
       <r>  -12.5543    1.0000 </r>
       <r>  -12.5535    1.0000 </r>
       <r>  -12.5451    1.0000 </r>
       <r>  -12.5439    1.0000 </r>
       <r>  -12.5308    1.0000 </r>
       <r>  -12.5215    1.0000 </r>
       <r>  -12.4903    1.0000 </r>
       <r>  -12.4589    1.0000 </r>
       <r>  -12.4503    1.0000 </r>
       <r>  -12.4346    1.0000 </r>
       <r>  -12.4285    1.0000 </r>
       <r>  -12.4283    1.0000 </r>
       <r>  -12.4080    1.0000 </r>
       <r>  -12.3912    1.0000 </r>
       <r>  -12.3733    1.0000 </r>
       <r>  -12.3478    1.0000 </r>
       <r>  -12.3422    1.0000 </r>
       <r>  -12.3224    1.0000 </r>
       <r>  -12.3139    1.0000 </r>
       <r>  -12.3121    1.0000 </r>
       <r>  -12.2949    1.0000 </r>
       <r>  -12.2767    1.0000 </r>
       <r>  -12.2340    1.0000 </r>
       <r>  -12.2314    1.0000 </r>
       <r>  -12.2050    1.0000 </r>
       <r>  -12.1982    1.0000 </r>
       <r>  -12.1894    1.0000 </r>
       <r>  -12.1892    1.0000 </r>
       <r>  -12.1623    1.0000 </r>
       <r>  -12.1526    1.0000 </r>
       <r>  -12.1426    1.0000 </r>
       <r>  -12.1125    1.0000 </r>
       <r>  -12.1053    1.0000 </r>
       <r>  -12.1024    1.0000 </r>
       <r>  -12.0418    1.0000 </r>
       <r>  -12.0393    1.0000 </r>
       <r>  -12.0045    1.0000 </r>
       <r>  -11.9872    1.0000 </r>
       <r>  -11.9853    1.0000 </r>
       <r>  -11.9818    1.0000 </r>
       <r>  -11.9093    1.0000 </r>
       <r>  -11.9063    1.0000 </r>
       <r>  -11.8548    1.0000 </r>
       <r>  -11.8511    1.0000 </r>
       <r>  -11.8503    1.0000 </r>
       <r>  -11.8430    1.0000 </r>
       <r>  -11.8395    1.0000 </r>
       <r>  -11.8365    1.0000 </r>
       <r>  -11.7921    1.0000 </r>
       <r>  -11.7864    1.0000 </r>
       <r>  -11.7763    1.0000 </r>
       <r>  -11.7722    1.0000 </r>
       <r>  -11.6732    1.0000 </r>
       <r>  -11.6440    1.0000 </r>
       <r>   -4.8816    1.0000 </r>
       <r>   -4.8632    1.0000 </r>
       <r>   -4.6958    1.0000 </r>
       <r>   -4.6838    1.0000 </r>
       <r>   -4.6552    1.0000 </r>
       <r>   -4.6257    1.0000 </r>
       <r>   -4.6139    1.0000 </r>
       <r>   -4.5840    1.0000 </r>
       <r>   -4.3972    1.0000 </r>
       <r>   -4.3815    1.0000 </r>
       <r>   -4.3774    1.0000 </r>
       <r>   -4.3311    1.0000 </r>
       <r>   -4.1936    1.0000 </r>
       <r>   -4.1851    1.0000 </r>
       <r>   -4.1736    1.0000 </r>
       <r>   -4.1593    1.0000 </r>
       <r>   -4.1215    1.0000 </r>
       <r>   -4.1151    1.0000 </r>
       <r>   -4.1025    1.0000 </r>
       <r>   -4.0666    1.0000 </r>
       <r>   -4.0570    1.0000 </r>
       <r>   -3.9952    1.0000 </r>
       <r>   -3.8475    1.0000 </r>
       <r>   -3.8274    1.0000 </r>
       <r>   -3.8098    1.0000 </r>
       <r>   -3.7821    1.0000 </r>
       <r>   -3.7779    1.0000 </r>
       <r>   -3.7723    1.0000 </r>
       <r>   -3.7659    1.0000 </r>
       <r>   -3.7542    1.0000 </r>
       <r>   -3.7160    1.0000 </r>
       <r>   -3.5560    1.0000 </r>
       <r>   -3.4660    1.0000 </r>
       <r>   -3.4177    1.0000 </r>
       <r>   -3.4111    1.0000 </r>
       <r>   -3.2680    1.0000 </r>
       <r>   -3.1735    1.0000 </r>
       <r>   -3.1623    1.0000 </r>
       <r>   -2.9684    1.0000 </r>
       <r>   -2.9635    1.0000 </r>
       <r>   -2.9590    1.0000 </r>
       <r>   -2.9238    1.0000 </r>
       <r>   -2.7852    1.0000 </r>
       <r>   -2.7786    1.0000 </r>
       <r>   -2.6716    1.0000 </r>
       <r>   -2.6448    1.0000 </r>
       <r>   -2.6174    1.0000 </r>
       <r>   -2.6163    1.0000 </r>
       <r>   -2.5250    1.0000 </r>
       <r>   -2.4929    1.0000 </r>
       <r>   -2.4565    1.0000 </r>
       <r>   -2.3846    1.0000 </r>
       <r>   -2.2833    1.0000 </r>
       <r>   -2.2440    1.0000 </r>
       <r>   -2.2292    1.0000 </r>
       <r>   -2.2225    1.0000 </r>
       <r>   -2.2130    1.0000 </r>
       <r>   -2.2050    1.0000 </r>
       <r>   -2.2007    1.0000 </r>
       <r>   -2.1834    1.0000 </r>
       <r>   -2.1563    1.0000 </r>
       <r>   -2.1554    1.0000 </r>
       <r>   -2.1207    1.0000 </r>
       <r>   -2.0588    1.0000 </r>
       <r>   -1.9889    1.0000 </r>
       <r>   -1.9377    1.0000 </r>
       <r>   -1.9340    1.0000 </r>
       <r>   -1.8638    1.0000 </r>
       <r>   -1.7793    1.0000 </r>
       <r>   -1.7009    1.0000 </r>
       <r>   -1.6932    1.0000 </r>
       <r>   -1.6455    1.0000 </r>
       <r>   -1.5326    1.0000 </r>
       <r>   -1.5098    1.0000 </r>
       <r>   -1.4665    1.0000 </r>
       <r>   -1.4540    1.0000 </r>
       <r>   -1.3647    1.0000 </r>
       <r>   -1.3491    1.0000 </r>
       <r>   -1.3357    1.0000 </r>
       <r>   -1.3302    1.0000 </r>
       <r>   -1.2968    1.0000 </r>
       <r>   -1.2484    1.0000 </r>
       <r>   -1.2108    1.0000 </r>
       <r>   -1.2016    1.0000 </r>
       <r>   -1.1737    1.0000 </r>
       <r>   -1.1379    1.0000 </r>
       <r>   -1.1036    1.0000 </r>
       <r>   -1.0932    1.0000 </r>
       <r>   -1.0327    1.0000 </r>
       <r>   -0.9486    1.0000 </r>
       <r>   -0.9414    1.0000 </r>
       <r>   -0.9159    1.0000 </r>
       <r>   -0.8707    1.0000 </r>
       <r>   -0.8490    1.0000 </r>
       <r>   -0.8230    1.0000 </r>
       <r>   -0.8100    1.0000 </r>
       <r>   -0.6962    1.0000 </r>
       <r>   -0.6853    1.0000 </r>
       <r>   -0.6538    1.0000 </r>
       <r>   -0.6287    1.0000 </r>
       <r>   -0.6107    1.0000 </r>
       <r>   -0.5812    1.0000 </r>
       <r>   -0.5489    1.0000 </r>
       <r>   -0.5359    1.0000 </r>
       <r>   -0.5127    1.0000 </r>
       <r>   -0.4801    1.0000 </r>
       <r>   -0.4624    1.0000 </r>
       <r>   -0.3962    1.0000 </r>
       <r>   -0.3749    1.0000 </r>
       <r>   -0.3248    1.0000 </r>
       <r>   -0.3095    1.0000 </r>
       <r>   -0.2868    1.0000 </r>
       <r>   -0.2429    1.0000 </r>
       <r>   -0.2331    1.0000 </r>
       <r>   -0.1899    1.0000 </r>
       <r>   -0.1668    1.0000 </r>
       <r>   -0.1271    1.0000 </r>
       <r>   -0.1209    1.0000 </r>
       <r>   -0.0994    1.0000 </r>
       <r>   -0.0974    1.0000 </r>
       <r>   -0.0803    1.0000 </r>
       <r>   -0.0659    1.0000 </r>
       <r>   -0.0350    1.0000 </r>
       <r>   -0.0084    1.0000 </r>
       <r>    0.0256    1.0000 </r>
       <r>    0.0348    1.0000 </r>
       <r>    0.0502    1.0000 </r>
       <r>    0.0690    1.0000 </r>
       <r>    0.0902    1.0000 </r>
       <r>    0.1109    1.0000 </r>
       <r>    0.1192    1.0000 </r>
       <r>    0.1444    1.0000 </r>
       <r>    0.1560    1.0000 </r>
       <r>    0.1811    1.0000 </r>
       <r>    0.2357    1.0000 </r>
       <r>    0.2387    1.0000 </r>
       <r>    0.2448    1.0000 </r>
       <r>    0.3051    1.0000 </r>
       <r>    0.3269    1.0000 </r>
       <r>    0.3759    1.0000 </r>
       <r>    0.3908    1.0000 </r>
       <r>    0.4144    1.0000 </r>
       <r>    0.4620    1.0000 </r>
       <r>    0.5129    1.0000 </r>
       <r>    0.5432    1.0000 </r>
       <r>    0.5531    1.0000 </r>
       <r>    0.5811    1.0000 </r>
       <r>    0.5845    1.0000 </r>
       <r>    0.6562    1.0000 </r>
       <r>    0.6638    1.0000 </r>
       <r>    0.6690    1.0000 </r>
       <r>    0.6792    1.0000 </r>
       <r>    0.6833    1.0000 </r>
       <r>    0.6886    1.0000 </r>
       <r>    0.7942    1.0000 </r>
       <r>    0.8016    1.0000 </r>
       <r>    0.8334    1.0000 </r>
       <r>    0.8923    1.0000 </r>
       <r>    0.8965    1.0000 </r>
       <r>    0.9224    1.0000 </r>
       <r>    0.9410    1.0000 </r>
       <r>    0.9428    1.0000 </r>
       <r>    0.9558    1.0000 </r>
       <r>    0.9643    1.0000 </r>
       <r>    1.0071    1.0000 </r>
       <r>    1.0209    1.0000 </r>
       <r>    1.0272    1.0000 </r>
       <r>    1.0378    1.0000 </r>
       <r>    1.0607    1.0000 </r>
       <r>    1.0662    1.0000 </r>
       <r>    1.0761    1.0000 </r>
       <r>    1.0844    1.0000 </r>
       <r>    1.1128    1.0000 </r>
       <r>    1.1536    1.0000 </r>
       <r>    1.1555    1.0000 </r>
       <r>    1.1624    1.0000 </r>
       <r>    1.1901    1.0000 </r>
       <r>    1.1995    1.0000 </r>
       <r>    1.2457    1.0000 </r>
       <r>    1.2749    1.0000 </r>
       <r>    1.3082    1.0000 </r>
       <r>    1.3179    1.0000 </r>
       <r>    1.3288    1.0000 </r>
       <r>    1.3652    1.0000 </r>
       <r>    1.4057    1.0000 </r>
       <r>    1.4093    1.0000 </r>
       <r>    1.4190    1.0000 </r>
       <r>    1.4382    1.0000 </r>
       <r>    1.4627    1.0000 </r>
       <r>    1.4667    1.0000 </r>
       <r>    1.4701    1.0000 </r>
       <r>    1.4796    1.0000 </r>
       <r>    1.4868    1.0000 </r>
       <r>    1.4943    1.0000 </r>
       <r>    1.4998    1.0000 </r>
       <r>    1.5043    1.0000 </r>
       <r>    1.5053    1.0000 </r>
       <r>    1.5371    1.0000 </r>
       <r>    1.5448    1.0000 </r>
       <r>    1.5600    1.0000 </r>
       <r>    1.5680    1.0000 </r>
       <r>    1.5722    1.0000 </r>
       <r>    1.6201    1.0000 </r>
       <r>    1.6416    1.0000 </r>
       <r>    1.6679    1.0000 </r>
       <r>    1.6697    1.0000 </r>
       <r>    1.6777    1.0000 </r>
       <r>    1.6880    1.0000 </r>
       <r>    1.7519    1.0000 </r>
       <r>    1.7841    1.0000 </r>
       <r>    1.7999    1.0000 </r>
       <r>    1.8011    1.0000 </r>
       <r>    1.8258    1.0000 </r>
       <r>    1.8390    1.0000 </r>
       <r>    1.9399    1.0000 </r>
       <r>    1.9658    1.0000 </r>
       <r>    2.1283    1.0000 </r>
       <r>    2.2241    1.0000 </r>
       <r>    4.2410    0.4960 </r>
       <r>    7.5987    0.0000 </r>
       <r>    7.6708    0.0000 </r>
       <r>    8.1021    0.0000 </r>
       <r>    8.4606    0.0000 </r>
       <r>    9.0931    0.0000 </r>
       <r>    9.1567    0.0000 </r>
       <r>    9.8187    0.0000 </r>
       <r>    9.8942    0.0000 </r>
       <r>   10.4211    0.0000 </r>
       <r>   10.4724    0.0000 </r>
       <r>   10.5426    0.0000 </r>
       <r>   10.5496    0.0000 </r>
       <r>   10.5757    0.0000 </r>
       <r>   10.5794    0.0000 </r>
       <r>   10.6173    0.0000 </r>
       <r>   10.6422    0.0000 </r>
       <r>   10.7954    0.0000 </r>
       <r>   10.8060    0.0000 </r>
       <r>   10.8193    0.0000 </r>
       <r>   10.8257    0.0000 </r>
       <r>   10.8273    0.0000 </r>
       <r>   10.8514    0.0000 </r>
       <r>   10.8594    0.0000 </r>
       <r>   10.8774    0.0000 </r>
       <r>   10.9253    0.0000 </r>
       <r>   10.9361    0.0000 </r>
       <r>   11.0413    0.0000 </r>
       <r>   11.0538    0.0000 </r>
       <r>   11.0841    0.0000 </r>
       <r>   11.1208    0.0000 </r>
       <r>   11.1348    0.0000 </r>
       <r>   11.2395    0.0000 </r>
       <r>   11.3213    0.0000 </r>
       <r>   11.3224    0.0000 </r>
       <r>   11.3504    0.0000 </r>
       <r>   11.4405    0.0000 </r>
       <r>   11.4572    0.0000 </r>
       <r>   11.6877    0.0000 </r>
       <r>   11.8096    0.0000 </r>
       <r>   11.8470    0.0000 </r>
       <r>   12.1335    0.0000 </r>
       <r>   12.2306    0.0000 </r>
       <r>   12.2348    0.0000 </r>
       <r>   12.2591    0.0000 </r>
       <r>   12.2672    0.0000 </r>
       <r>   12.2841    0.0000 </r>
       <r>   12.2878    0.0000 </r>
       <r>   12.2881    0.0000 </r>
       <r>   12.2884    0.0000 </r>
       <r>   12.3874    0.0000 </r>
       <r>   12.5326    0.0000 </r>
       <r>   12.5354    0.0000 </r>
       <r>   12.5372    0.0000 </r>
       <r>   13.0377    0.0000 </r>
       <r>   13.1748    0.0000 </r>
       <r>   13.2134    0.0000 </r>
       <r>   13.2837    0.0000 </r>
       <r>   13.3430    0.0000 </r>
       <r>   13.3729    0.0000 </r>
       <r>   13.4009    0.0000 </r>
       <r>   13.4139    0.0000 </r>
       <r>   13.5617    0.0000 </r>
       <r>   13.6548    0.0000 </r>
       <r>   13.6899    0.0000 </r>
       <r>   13.6964    0.0000 </r>
       <r>   13.9270    0.0000 </r>
       <r>   13.9757    0.0000 </r>
       <r>   13.9903    0.0000 </r>
       <r>   14.0317    0.0000 </r>
       <r>   14.0478    0.0000 </r>
       <r>   14.0769    0.0000 </r>
       <r>   14.0914    0.0000 </r>
       <r>   14.0976    0.0000 </r>
       <r>   14.1051    0.0000 </r>
       <r>   14.1545    0.0000 </r>
       <r>   14.2622    0.0000 </r>
       <r>   14.3408    0.0000 </r>
       <r>   14.3586    0.0000 </r>
       <r>   14.4490    0.0000 </r>
       <r>   14.4980    0.0000 </r>
       <r>   14.5184    0.0000 </r>
       <r>   14.5916    0.0000 </r>
       <r>   14.6058    0.0000 </r>
       <r>   14.6129    0.0000 </r>
       <r>   14.6461    0.0000 </r>
       <r>   14.6735    0.0000 </r>
       <r>   14.7317    0.0000 </r>
       <r>   14.7718    0.0000 </r>
       <r>   14.8128    0.0000 </r>
       <r>   14.9140    0.0000 </r>
       <r>   15.1293    0.0000 </r>
       <r>   15.3203    0.0000 </r>
       <r>   15.4010    0.0000 </r>
       <r>   15.5138    0.0000 </r>
       <r>   15.6084    0.0000 </r>
       <r>   15.6607    0.0000 </r>
       <r>   15.8414    0.0000 </r>
       <r>   15.9609    0.0000 </r>
       <r>   16.1402    0.0000 </r>
       <r>   16.3387    0.0000 </r>
       <r>   16.4739    0.0000 </r>
       <r>   16.5800    0.0000 </r>
       <r>   16.7628    0.0000 </r>
       <r>   17.1620    0.0000 </r>
      </set>
      <set comment="kpoint 6">
       <r>  -18.5287    1.0000 </r>
       <r>  -18.5156    1.0000 </r>
       <r>  -18.4231    1.0000 </r>
       <r>  -18.4095    1.0000 </r>
       <r>  -17.9251    1.0000 </r>
       <r>  -17.9158    1.0000 </r>
       <r>  -17.8935    1.0000 </r>
       <r>  -17.8825    1.0000 </r>
       <r>  -17.8770    1.0000 </r>
       <r>  -17.8726    1.0000 </r>
       <r>  -17.8253    1.0000 </r>
       <r>  -17.8158    1.0000 </r>
       <r>  -17.8132    1.0000 </r>
       <r>  -17.8083    1.0000 </r>
       <r>  -17.6810    1.0000 </r>
       <r>  -17.6702    1.0000 </r>
       <r>  -17.6196    1.0000 </r>
       <r>  -17.6127    1.0000 </r>
       <r>  -17.6061    1.0000 </r>
       <r>  -17.5900    1.0000 </r>
       <r>  -17.5421    1.0000 </r>
       <r>  -17.5378    1.0000 </r>
       <r>  -17.5351    1.0000 </r>
       <r>  -17.5199    1.0000 </r>
       <r>  -17.4173    1.0000 </r>
       <r>  -17.4158    1.0000 </r>
       <r>  -17.4130    1.0000 </r>
       <r>  -17.4041    1.0000 </r>
       <r>  -17.3758    1.0000 </r>
       <r>  -17.3726    1.0000 </r>
       <r>  -17.3674    1.0000 </r>
       <r>  -17.3665    1.0000 </r>
       <r>  -17.3558    1.0000 </r>
       <r>  -17.3441    1.0000 </r>
       <r>  -17.3385    1.0000 </r>
       <r>  -17.3154    1.0000 </r>
       <r>  -17.3059    1.0000 </r>
       <r>  -17.2881    1.0000 </r>
       <r>  -17.2141    1.0000 </r>
       <r>  -17.1964    1.0000 </r>
       <r>  -17.1685    1.0000 </r>
       <r>  -17.1662    1.0000 </r>
       <r>  -17.1655    1.0000 </r>
       <r>  -17.1570    1.0000 </r>
       <r>  -17.1548    1.0000 </r>
       <r>  -17.1440    1.0000 </r>
       <r>  -17.1332    1.0000 </r>
       <r>  -17.1273    1.0000 </r>
       <r>  -17.0372    1.0000 </r>
       <r>  -17.0326    1.0000 </r>
       <r>  -17.0179    1.0000 </r>
       <r>  -17.0095    1.0000 </r>
       <r>  -17.0091    1.0000 </r>
       <r>  -16.9994    1.0000 </r>
       <r>  -16.9992    1.0000 </r>
       <r>  -16.9880    1.0000 </r>
       <r>  -16.9855    1.0000 </r>
       <r>  -16.9812    1.0000 </r>
       <r>  -16.9772    1.0000 </r>
       <r>  -16.9611    1.0000 </r>
       <r>  -16.9068    1.0000 </r>
       <r>  -16.9038    1.0000 </r>
       <r>  -16.9003    1.0000 </r>
       <r>  -16.9001    1.0000 </r>
       <r>  -16.8982    1.0000 </r>
       <r>  -16.8910    1.0000 </r>
       <r>  -16.8596    1.0000 </r>
       <r>  -16.8176    1.0000 </r>
       <r>  -16.8144    1.0000 </r>
       <r>  -16.8061    1.0000 </r>
       <r>  -16.6704    1.0000 </r>
       <r>  -16.6567    1.0000 </r>
       <r>  -13.0735    1.0000 </r>
       <r>  -13.0718    1.0000 </r>
       <r>  -13.0496    1.0000 </r>
       <r>  -13.0450    1.0000 </r>
       <r>  -13.0386    1.0000 </r>
       <r>  -13.0319    1.0000 </r>
       <r>  -13.0316    1.0000 </r>
       <r>  -13.0312    1.0000 </r>
       <r>  -13.0278    1.0000 </r>
       <r>  -13.0194    1.0000 </r>
       <r>  -13.0179    1.0000 </r>
       <r>  -13.0069    1.0000 </r>
       <r>  -12.9795    1.0000 </r>
       <r>  -12.9779    1.0000 </r>
       <r>  -12.9765    1.0000 </r>
       <r>  -12.9764    1.0000 </r>
       <r>  -12.9681    1.0000 </r>
       <r>  -12.9667    1.0000 </r>
       <r>  -12.9649    1.0000 </r>
       <r>  -12.9637    1.0000 </r>
       <r>  -12.9636    1.0000 </r>
       <r>  -12.9575    1.0000 </r>
       <r>  -12.9541    1.0000 </r>
       <r>  -12.9524    1.0000 </r>
       <r>  -12.9523    1.0000 </r>
       <r>  -12.9520    1.0000 </r>
       <r>  -12.9495    1.0000 </r>
       <r>  -12.9440    1.0000 </r>
       <r>  -12.9439    1.0000 </r>
       <r>  -12.9422    1.0000 </r>
       <r>  -12.9391    1.0000 </r>
       <r>  -12.9384    1.0000 </r>
       <r>  -12.9343    1.0000 </r>
       <r>  -12.9338    1.0000 </r>
       <r>  -12.9311    1.0000 </r>
       <r>  -12.9290    1.0000 </r>
       <r>  -12.9266    1.0000 </r>
       <r>  -12.9257    1.0000 </r>
       <r>  -12.9230    1.0000 </r>
       <r>  -12.9220    1.0000 </r>
       <r>  -12.9212    1.0000 </r>
       <r>  -12.9210    1.0000 </r>
       <r>  -12.9171    1.0000 </r>
       <r>  -12.9164    1.0000 </r>
       <r>  -12.9159    1.0000 </r>
       <r>  -12.9137    1.0000 </r>
       <r>  -12.9104    1.0000 </r>
       <r>  -12.9104    1.0000 </r>
       <r>  -12.9074    1.0000 </r>
       <r>  -12.9065    1.0000 </r>
       <r>  -12.9049    1.0000 </r>
       <r>  -12.9025    1.0000 </r>
       <r>  -12.8991    1.0000 </r>
       <r>  -12.8919    1.0000 </r>
       <r>  -12.8881    1.0000 </r>
       <r>  -12.8793    1.0000 </r>
       <r>  -12.8775    1.0000 </r>
       <r>  -12.8709    1.0000 </r>
       <r>  -12.8685    1.0000 </r>
       <r>  -12.8645    1.0000 </r>
       <r>  -12.8600    1.0000 </r>
       <r>  -12.8596    1.0000 </r>
       <r>  -12.8584    1.0000 </r>
       <r>  -12.8551    1.0000 </r>
       <r>  -12.8535    1.0000 </r>
       <r>  -12.8391    1.0000 </r>
       <r>  -12.8385    1.0000 </r>
       <r>  -12.8375    1.0000 </r>
       <r>  -12.8335    1.0000 </r>
       <r>  -12.8334    1.0000 </r>
       <r>  -12.8203    1.0000 </r>
       <r>  -12.8195    1.0000 </r>
       <r>  -12.8137    1.0000 </r>
       <r>  -12.8133    1.0000 </r>
       <r>  -12.8097    1.0000 </r>
       <r>  -12.8083    1.0000 </r>
       <r>  -12.8059    1.0000 </r>
       <r>  -12.8015    1.0000 </r>
       <r>  -12.7993    1.0000 </r>
       <r>  -12.7990    1.0000 </r>
       <r>  -12.7987    1.0000 </r>
       <r>  -12.7970    1.0000 </r>
       <r>  -12.7965    1.0000 </r>
       <r>  -12.7942    1.0000 </r>
       <r>  -12.7936    1.0000 </r>
       <r>  -12.7934    1.0000 </r>
       <r>  -12.7930    1.0000 </r>
       <r>  -12.7890    1.0000 </r>
       <r>  -12.7875    1.0000 </r>
       <r>  -12.7874    1.0000 </r>
       <r>  -12.7854    1.0000 </r>
       <r>  -12.7825    1.0000 </r>
       <r>  -12.7778    1.0000 </r>
       <r>  -12.7758    1.0000 </r>
       <r>  -12.7755    1.0000 </r>
       <r>  -12.7734    1.0000 </r>
       <r>  -12.7721    1.0000 </r>
       <r>  -12.7715    1.0000 </r>
       <r>  -12.7696    1.0000 </r>
       <r>  -12.7691    1.0000 </r>
       <r>  -12.7663    1.0000 </r>
       <r>  -12.7656    1.0000 </r>
       <r>  -12.7605    1.0000 </r>
       <r>  -12.7569    1.0000 </r>
       <r>  -12.7536    1.0000 </r>
       <r>  -12.7521    1.0000 </r>
       <r>  -12.7493    1.0000 </r>
       <r>  -12.7490    1.0000 </r>
       <r>  -12.7368    1.0000 </r>
       <r>  -12.7359    1.0000 </r>
       <r>  -12.7347    1.0000 </r>
       <r>  -12.7299    1.0000 </r>
       <r>  -12.7276    1.0000 </r>
       <r>  -12.7207    1.0000 </r>
       <r>  -12.7199    1.0000 </r>
       <r>  -12.7191    1.0000 </r>
       <r>  -12.7094    1.0000 </r>
       <r>  -12.7093    1.0000 </r>
       <r>  -12.7088    1.0000 </r>
       <r>  -12.7069    1.0000 </r>
       <r>  -12.7060    1.0000 </r>
       <r>  -12.7037    1.0000 </r>
       <r>  -12.7020    1.0000 </r>
       <r>  -12.6975    1.0000 </r>
       <r>  -12.6960    1.0000 </r>
       <r>  -12.6958    1.0000 </r>
       <r>  -12.6903    1.0000 </r>
       <r>  -12.6857    1.0000 </r>
       <r>  -12.6848    1.0000 </r>
       <r>  -12.6836    1.0000 </r>
       <r>  -12.6807    1.0000 </r>
       <r>  -12.6800    1.0000 </r>
       <r>  -12.6759    1.0000 </r>
       <r>  -12.6727    1.0000 </r>
       <r>  -12.6681    1.0000 </r>
       <r>  -12.6649    1.0000 </r>
       <r>  -12.6625    1.0000 </r>
       <r>  -12.6610    1.0000 </r>
       <r>  -12.6456    1.0000 </r>
       <r>  -12.6454    1.0000 </r>
       <r>  -12.6440    1.0000 </r>
       <r>  -12.6419    1.0000 </r>
       <r>  -12.6405    1.0000 </r>
       <r>  -12.6389    1.0000 </r>
       <r>  -12.6353    1.0000 </r>
       <r>  -12.6345    1.0000 </r>
       <r>  -12.6327    1.0000 </r>
       <r>  -12.6317    1.0000 </r>
       <r>  -12.6312    1.0000 </r>
       <r>  -12.6264    1.0000 </r>
       <r>  -12.6259    1.0000 </r>
       <r>  -12.6219    1.0000 </r>
       <r>  -12.6211    1.0000 </r>
       <r>  -12.6209    1.0000 </r>
       <r>  -12.6178    1.0000 </r>
       <r>  -12.6153    1.0000 </r>
       <r>  -12.6142    1.0000 </r>
       <r>  -12.6127    1.0000 </r>
       <r>  -12.6106    1.0000 </r>
       <r>  -12.6094    1.0000 </r>
       <r>  -12.6090    1.0000 </r>
       <r>  -12.6071    1.0000 </r>
       <r>  -12.6060    1.0000 </r>
       <r>  -12.6055    1.0000 </r>
       <r>  -12.6042    1.0000 </r>
       <r>  -12.6035    1.0000 </r>
       <r>  -12.5993    1.0000 </r>
       <r>  -12.5973    1.0000 </r>
       <r>  -12.5965    1.0000 </r>
       <r>  -12.5955    1.0000 </r>
       <r>  -12.5935    1.0000 </r>
       <r>  -12.5902    1.0000 </r>
       <r>  -12.5884    1.0000 </r>
       <r>  -12.5872    1.0000 </r>
       <r>  -12.5815    1.0000 </r>
       <r>  -12.5778    1.0000 </r>
       <r>  -12.5773    1.0000 </r>
       <r>  -12.5608    1.0000 </r>
       <r>  -12.5584    1.0000 </r>
       <r>  -12.5564    1.0000 </r>
       <r>  -12.5540    1.0000 </r>
       <r>  -12.5508    1.0000 </r>
       <r>  -12.5490    1.0000 </r>
       <r>  -12.5465    1.0000 </r>
       <r>  -12.5385    1.0000 </r>
       <r>  -12.5369    1.0000 </r>
       <r>  -12.5339    1.0000 </r>
       <r>  -12.5024    1.0000 </r>
       <r>  -12.4841    1.0000 </r>
       <r>  -12.4694    1.0000 </r>
       <r>  -12.4681    1.0000 </r>
       <r>  -12.4568    1.0000 </r>
       <r>  -12.4529    1.0000 </r>
       <r>  -12.4079    1.0000 </r>
       <r>  -12.4022    1.0000 </r>
       <r>  -12.3984    1.0000 </r>
       <r>  -12.3584    1.0000 </r>
       <r>  -12.3387    1.0000 </r>
       <r>  -12.3385    1.0000 </r>
       <r>  -12.3351    1.0000 </r>
       <r>  -12.3124    1.0000 </r>
       <r>  -12.3091    1.0000 </r>
       <r>  -12.2916    1.0000 </r>
       <r>  -12.2721    1.0000 </r>
       <r>  -12.2713    1.0000 </r>
       <r>  -12.2223    1.0000 </r>
       <r>  -12.2212    1.0000 </r>
       <r>  -12.1905    1.0000 </r>
       <r>  -12.1888    1.0000 </r>
       <r>  -12.1389    1.0000 </r>
       <r>  -12.0834    1.0000 </r>
       <r>  -12.0821    1.0000 </r>
       <r>  -12.0432    1.0000 </r>
       <r>  -11.9858    1.0000 </r>
       <r>  -11.9848    1.0000 </r>
       <r>  -11.9755    1.0000 </r>
       <r>  -11.9714    1.0000 </r>
       <r>  -11.9671    1.0000 </r>
       <r>  -11.9646    1.0000 </r>
       <r>  -11.9477    1.0000 </r>
       <r>  -11.9351    1.0000 </r>
       <r>  -11.9288    1.0000 </r>
       <r>  -11.9100    1.0000 </r>
       <r>  -11.8983    1.0000 </r>
       <r>  -11.8933    1.0000 </r>
       <r>  -11.8859    1.0000 </r>
       <r>  -11.8788    1.0000 </r>
       <r>  -11.8775    1.0000 </r>
       <r>  -11.8744    1.0000 </r>
       <r>  -11.7934    1.0000 </r>
       <r>  -11.7906    1.0000 </r>
       <r>  -11.7668    1.0000 </r>
       <r>  -11.7628    1.0000 </r>
       <r>  -11.7398    1.0000 </r>
       <r>  -11.7245    1.0000 </r>
       <r>   -4.9826    1.0000 </r>
       <r>   -4.9637    1.0000 </r>
       <r>   -4.5481    1.0000 </r>
       <r>   -4.5425    1.0000 </r>
       <r>   -4.5385    1.0000 </r>
       <r>   -4.5121    1.0000 </r>
       <r>   -4.5035    1.0000 </r>
       <r>   -4.4855    1.0000 </r>
       <r>   -4.4357    1.0000 </r>
       <r>   -4.4309    1.0000 </r>
       <r>   -4.4120    1.0000 </r>
       <r>   -4.3896    1.0000 </r>
       <r>   -4.2613    1.0000 </r>
       <r>   -4.2477    1.0000 </r>
       <r>   -4.2437    1.0000 </r>
       <r>   -4.1941    1.0000 </r>
       <r>   -4.1192    1.0000 </r>
       <r>   -4.1055    1.0000 </r>
       <r>   -4.0995    1.0000 </r>
       <r>   -4.0752    1.0000 </r>
       <r>   -3.9939    1.0000 </r>
       <r>   -3.9932    1.0000 </r>
       <r>   -3.9614    1.0000 </r>
       <r>   -3.9564    1.0000 </r>
       <r>   -3.9513    1.0000 </r>
       <r>   -3.8768    1.0000 </r>
       <r>   -3.7971    1.0000 </r>
       <r>   -3.7956    1.0000 </r>
       <r>   -3.7836    1.0000 </r>
       <r>   -3.7688    1.0000 </r>
       <r>   -3.7107    1.0000 </r>
       <r>   -3.6128    1.0000 </r>
       <r>   -3.2903    1.0000 </r>
       <r>   -3.2688    1.0000 </r>
       <r>   -3.1447    1.0000 </r>
       <r>   -3.1225    1.0000 </r>
       <r>   -3.1004    1.0000 </r>
       <r>   -3.0861    1.0000 </r>
       <r>   -3.0776    1.0000 </r>
       <r>   -3.0526    1.0000 </r>
       <r>   -3.0493    1.0000 </r>
       <r>   -3.0347    1.0000 </r>
       <r>   -3.0302    1.0000 </r>
       <r>   -2.8920    1.0000 </r>
       <r>   -2.7784    1.0000 </r>
       <r>   -2.7428    1.0000 </r>
       <r>   -2.6872    1.0000 </r>
       <r>   -2.6695    1.0000 </r>
       <r>   -2.4838    1.0000 </r>
       <r>   -2.4491    1.0000 </r>
       <r>   -2.4276    1.0000 </r>
       <r>   -2.3499    1.0000 </r>
       <r>   -2.2998    1.0000 </r>
       <r>   -2.2954    1.0000 </r>
       <r>   -2.2703    1.0000 </r>
       <r>   -2.2271    1.0000 </r>
       <r>   -2.1804    1.0000 </r>
       <r>   -2.1053    1.0000 </r>
       <r>   -2.1009    1.0000 </r>
       <r>   -2.0814    1.0000 </r>
       <r>   -2.0418    1.0000 </r>
       <r>   -1.9983    1.0000 </r>
       <r>   -1.8496    1.0000 </r>
       <r>   -1.8207    1.0000 </r>
       <r>   -1.8105    1.0000 </r>
       <r>   -1.7640    1.0000 </r>
       <r>   -1.7579    1.0000 </r>
       <r>   -1.7261    1.0000 </r>
       <r>   -1.7253    1.0000 </r>
       <r>   -1.7172    1.0000 </r>
       <r>   -1.7003    1.0000 </r>
       <r>   -1.6633    1.0000 </r>
       <r>   -1.6278    1.0000 </r>
       <r>   -1.5972    1.0000 </r>
       <r>   -1.5392    1.0000 </r>
       <r>   -1.5291    1.0000 </r>
       <r>   -1.5007    1.0000 </r>
       <r>   -1.4505    1.0000 </r>
       <r>   -1.3970    1.0000 </r>
       <r>   -1.3814    1.0000 </r>
       <r>   -1.3462    1.0000 </r>
       <r>   -1.3374    1.0000 </r>
       <r>   -1.3120    1.0000 </r>
       <r>   -1.2896    1.0000 </r>
       <r>   -1.2847    1.0000 </r>
       <r>   -1.2671    1.0000 </r>
       <r>   -1.2133    1.0000 </r>
       <r>   -1.1192    1.0000 </r>
       <r>   -1.0423    1.0000 </r>
       <r>   -0.9797    1.0000 </r>
       <r>   -0.9435    1.0000 </r>
       <r>   -0.9376    1.0000 </r>
       <r>   -0.9070    1.0000 </r>
       <r>   -0.9008    1.0000 </r>
       <r>   -0.8737    1.0000 </r>
       <r>   -0.8708    1.0000 </r>
       <r>   -0.8489    1.0000 </r>
       <r>   -0.7966    1.0000 </r>
       <r>   -0.7534    1.0000 </r>
       <r>   -0.6945    1.0000 </r>
       <r>   -0.6184    1.0000 </r>
       <r>   -0.5362    1.0000 </r>
       <r>   -0.4872    1.0000 </r>
       <r>   -0.4766    1.0000 </r>
       <r>   -0.4241    1.0000 </r>
       <r>   -0.3796    1.0000 </r>
       <r>   -0.3410    1.0000 </r>
       <r>   -0.3229    1.0000 </r>
       <r>   -0.2985    1.0000 </r>
       <r>   -0.2891    1.0000 </r>
       <r>   -0.2723    1.0000 </r>
       <r>   -0.2581    1.0000 </r>
       <r>   -0.2162    1.0000 </r>
       <r>   -0.2120    1.0000 </r>
       <r>   -0.1928    1.0000 </r>
       <r>   -0.1790    1.0000 </r>
       <r>   -0.1739    1.0000 </r>
       <r>   -0.1549    1.0000 </r>
       <r>   -0.0889    1.0000 </r>
       <r>   -0.0851    1.0000 </r>
       <r>   -0.0770    1.0000 </r>
       <r>   -0.0660    1.0000 </r>
       <r>   -0.0241    1.0000 </r>
       <r>    0.0157    1.0000 </r>
       <r>    0.0373    1.0000 </r>
       <r>    0.0815    1.0000 </r>
       <r>    0.1006    1.0000 </r>
       <r>    0.1265    1.0000 </r>
       <r>    0.1304    1.0000 </r>
       <r>    0.1344    1.0000 </r>
       <r>    0.1655    1.0000 </r>
       <r>    0.1732    1.0000 </r>
       <r>    0.2006    1.0000 </r>
       <r>    0.2294    1.0000 </r>
       <r>    0.2597    1.0000 </r>
       <r>    0.2835    1.0000 </r>
       <r>    0.2869    1.0000 </r>
       <r>    0.3406    1.0000 </r>
       <r>    0.3656    1.0000 </r>
       <r>    0.3874    1.0000 </r>
       <r>    0.4099    1.0000 </r>
       <r>    0.4623    1.0000 </r>
       <r>    0.4961    1.0000 </r>
       <r>    0.5258    1.0000 </r>
       <r>    0.5322    1.0000 </r>
       <r>    0.5497    1.0000 </r>
       <r>    0.5679    1.0000 </r>
       <r>    0.6055    1.0000 </r>
       <r>    0.6213    1.0000 </r>
       <r>    0.6342    1.0000 </r>
       <r>    0.6455    1.0000 </r>
       <r>    0.6458    1.0000 </r>
       <r>    0.6829    1.0000 </r>
       <r>    0.7004    1.0000 </r>
       <r>    0.7322    1.0000 </r>
       <r>    0.7776    1.0000 </r>
       <r>    0.7945    1.0000 </r>
       <r>    0.8022    1.0000 </r>
       <r>    0.8207    1.0000 </r>
       <r>    0.8277    1.0000 </r>
       <r>    0.8804    1.0000 </r>
       <r>    0.9426    1.0000 </r>
       <r>    0.9465    1.0000 </r>
       <r>    0.9715    1.0000 </r>
       <r>    0.9959    1.0000 </r>
       <r>    0.9993    1.0000 </r>
       <r>    1.0209    1.0000 </r>
       <r>    1.0465    1.0000 </r>
       <r>    1.0700    1.0000 </r>
       <r>    1.0737    1.0000 </r>
       <r>    1.0890    1.0000 </r>
       <r>    1.1146    1.0000 </r>
       <r>    1.1235    1.0000 </r>
       <r>    1.1312    1.0000 </r>
       <r>    1.1499    1.0000 </r>
       <r>    1.1858    1.0000 </r>
       <r>    1.2024    1.0000 </r>
       <r>    1.2373    1.0000 </r>
       <r>    1.2401    1.0000 </r>
       <r>    1.2709    1.0000 </r>
       <r>    1.2816    1.0000 </r>
       <r>    1.2911    1.0000 </r>
       <r>    1.3077    1.0000 </r>
       <r>    1.3219    1.0000 </r>
       <r>    1.3523    1.0000 </r>
       <r>    1.3612    1.0000 </r>
       <r>    1.3786    1.0000 </r>
       <r>    1.3837    1.0000 </r>
       <r>    1.3970    1.0000 </r>
       <r>    1.4274    1.0000 </r>
       <r>    1.4280    1.0000 </r>
       <r>    1.4438    1.0000 </r>
       <r>    1.4585    1.0000 </r>
       <r>    1.4742    1.0000 </r>
       <r>    1.5084    1.0000 </r>
       <r>    1.5315    1.0000 </r>
       <r>    1.5625    1.0000 </r>
       <r>    1.5658    1.0000 </r>
       <r>    1.5706    1.0000 </r>
       <r>    1.5760    1.0000 </r>
       <r>    1.5871    1.0000 </r>
       <r>    1.5884    1.0000 </r>
       <r>    1.6044    1.0000 </r>
       <r>    1.6235    1.0000 </r>
       <r>    1.6967    1.0000 </r>
       <r>    1.7005    1.0000 </r>
       <r>    1.7364    1.0000 </r>
       <r>    1.7372    1.0000 </r>
       <r>    1.7398    1.0000 </r>
       <r>    1.7432    1.0000 </r>
       <r>    1.7547    1.0000 </r>
       <r>    1.7609    1.0000 </r>
       <r>    1.9141    1.0000 </r>
       <r>    1.9489    1.0000 </r>
       <r>    1.9599    1.0000 </r>
       <r>    1.9980    1.0000 </r>
       <r>    2.1443    1.0000 </r>
       <r>    2.2219    1.0000 </r>
       <r>    4.2385    0.5240 </r>
       <r>    7.8988    0.0000 </r>
       <r>    7.9632    0.0000 </r>
       <r>    8.1087    0.0000 </r>
       <r>    8.4603    0.0000 </r>
       <r>    8.4642    0.0000 </r>
       <r>    8.5353    0.0000 </r>
       <r>   10.2264    0.0000 </r>
       <r>   10.2378    0.0000 </r>
       <r>   10.3494    0.0000 </r>
       <r>   10.4376    0.0000 </r>
       <r>   10.6034    0.0000 </r>
       <r>   10.6070    0.0000 </r>
       <r>   10.6109    0.0000 </r>
       <r>   10.6192    0.0000 </r>
       <r>   10.6220    0.0000 </r>
       <r>   10.6321    0.0000 </r>
       <r>   10.6522    0.0000 </r>
       <r>   10.6626    0.0000 </r>
       <r>   10.6726    0.0000 </r>
       <r>   10.7163    0.0000 </r>
       <r>   10.7499    0.0000 </r>
       <r>   10.7605    0.0000 </r>
       <r>   10.7904    0.0000 </r>
       <r>   10.8652    0.0000 </r>
       <r>   10.9425    0.0000 </r>
       <r>   10.9654    0.0000 </r>
       <r>   11.0623    0.0000 </r>
       <r>   11.1144    0.0000 </r>
       <r>   11.1641    0.0000 </r>
       <r>   11.1761    0.0000 </r>
       <r>   11.1995    0.0000 </r>
       <r>   11.3146    0.0000 </r>
       <r>   11.3333    0.0000 </r>
       <r>   11.4665    0.0000 </r>
       <r>   11.6194    0.0000 </r>
       <r>   11.6293    0.0000 </r>
       <r>   11.6530    0.0000 </r>
       <r>   11.6544    0.0000 </r>
       <r>   11.7024    0.0000 </r>
       <r>   11.7805    0.0000 </r>
       <r>   11.9521    0.0000 </r>
       <r>   11.9794    0.0000 </r>
       <r>   11.9918    0.0000 </r>
       <r>   12.1427    0.0000 </r>
       <r>   12.4498    0.0000 </r>
       <r>   12.4910    0.0000 </r>
       <r>   12.5509    0.0000 </r>
       <r>   12.5528    0.0000 </r>
       <r>   12.5659    0.0000 </r>
       <r>   12.6000    0.0000 </r>
       <r>   12.6605    0.0000 </r>
       <r>   12.6624    0.0000 </r>
       <r>   12.6639    0.0000 </r>
       <r>   12.8593    0.0000 </r>
       <r>   12.9354    0.0000 </r>
       <r>   13.0890    0.0000 </r>
       <r>   13.1247    0.0000 </r>
       <r>   13.2719    0.0000 </r>
       <r>   13.2763    0.0000 </r>
       <r>   13.3374    0.0000 </r>
       <r>   13.3492    0.0000 </r>
       <r>   13.4900    0.0000 </r>
       <r>   13.5500    0.0000 </r>
       <r>   13.5776    0.0000 </r>
       <r>   13.5801    0.0000 </r>
       <r>   13.7198    0.0000 </r>
       <r>   13.7367    0.0000 </r>
       <r>   13.7511    0.0000 </r>
       <r>   13.7779    0.0000 </r>
       <r>   13.9500    0.0000 </r>
       <r>   13.9739    0.0000 </r>
       <r>   14.0079    0.0000 </r>
       <r>   14.0617    0.0000 </r>
       <r>   14.1044    0.0000 </r>
       <r>   14.1272    0.0000 </r>
       <r>   14.1608    0.0000 </r>
       <r>   14.3011    0.0000 </r>
       <r>   14.3839    0.0000 </r>
       <r>   14.5096    0.0000 </r>
       <r>   14.5439    0.0000 </r>
       <r>   14.5782    0.0000 </r>
       <r>   14.6303    0.0000 </r>
       <r>   14.6598    0.0000 </r>
       <r>   14.7626    0.0000 </r>
       <r>   14.8739    0.0000 </r>
       <r>   14.9846    0.0000 </r>
       <r>   15.0465    0.0000 </r>
       <r>   15.2005    0.0000 </r>
       <r>   15.2979    0.0000 </r>
       <r>   15.3798    0.0000 </r>
       <r>   15.4362    0.0000 </r>
       <r>   15.5884    0.0000 </r>
       <r>   15.6509    0.0000 </r>
       <r>   15.7145    0.0000 </r>
       <r>   15.7437    0.0000 </r>
       <r>   15.8496    0.0000 </r>
       <r>   15.8840    0.0000 </r>
       <r>   15.9959    0.0000 </r>
       <r>   16.0787    0.0000 </r>
       <r>   16.1875    0.0000 </r>
       <r>   16.3381    0.0000 </r>
       <r>   16.5799    0.0000 </r>
       <r>   16.7802    0.0000 </r>
       <r>   16.9904    0.0000 </r>
      </set>
      <set comment="kpoint 7">
       <r>  -18.3868    1.0000 </r>
       <r>  -18.3856    1.0000 </r>
       <r>  -18.3835    1.0000 </r>
       <r>  -18.3577    1.0000 </r>
       <r>  -18.1475    1.0000 </r>
       <r>  -18.1429    1.0000 </r>
       <r>  -18.1403    1.0000 </r>
       <r>  -18.1124    1.0000 </r>
       <r>  -17.8932    1.0000 </r>
       <r>  -17.8860    1.0000 </r>
       <r>  -17.8844    1.0000 </r>
       <r>  -17.8689    1.0000 </r>
       <r>  -17.6239    1.0000 </r>
       <r>  -17.6199    1.0000 </r>
       <r>  -17.6194    1.0000 </r>
       <r>  -17.6102    1.0000 </r>
       <r>  -17.5598    1.0000 </r>
       <r>  -17.5518    1.0000 </r>
       <r>  -17.5515    1.0000 </r>
       <r>  -17.5377    1.0000 </r>
       <r>  -17.5139    1.0000 </r>
       <r>  -17.5104    1.0000 </r>
       <r>  -17.5064    1.0000 </r>
       <r>  -17.4828    1.0000 </r>
       <r>  -17.4591    1.0000 </r>
       <r>  -17.4568    1.0000 </r>
       <r>  -17.4484    1.0000 </r>
       <r>  -17.4279    1.0000 </r>
       <r>  -17.3919    1.0000 </r>
       <r>  -17.3880    1.0000 </r>
       <r>  -17.3760    1.0000 </r>
       <r>  -17.3674    1.0000 </r>
       <r>  -17.2959    1.0000 </r>
       <r>  -17.2907    1.0000 </r>
       <r>  -17.2769    1.0000 </r>
       <r>  -17.2598    1.0000 </r>
       <r>  -17.2542    1.0000 </r>
       <r>  -17.2506    1.0000 </r>
       <r>  -17.2489    1.0000 </r>
       <r>  -17.2261    1.0000 </r>
       <r>  -17.2147    1.0000 </r>
       <r>  -17.2057    1.0000 </r>
       <r>  -17.1977    1.0000 </r>
       <r>  -17.1921    1.0000 </r>
       <r>  -17.1616    1.0000 </r>
       <r>  -17.1573    1.0000 </r>
       <r>  -17.1558    1.0000 </r>
       <r>  -17.1102    1.0000 </r>
       <r>  -17.0682    1.0000 </r>
       <r>  -17.0641    1.0000 </r>
       <r>  -17.0591    1.0000 </r>
       <r>  -17.0495    1.0000 </r>
       <r>  -17.0028    1.0000 </r>
       <r>  -17.0013    1.0000 </r>
       <r>  -16.9947    1.0000 </r>
       <r>  -16.9815    1.0000 </r>
       <r>  -16.9604    1.0000 </r>
       <r>  -16.9545    1.0000 </r>
       <r>  -16.9436    1.0000 </r>
       <r>  -16.9431    1.0000 </r>
       <r>  -16.9350    1.0000 </r>
       <r>  -16.9317    1.0000 </r>
       <r>  -16.9175    1.0000 </r>
       <r>  -16.8601    1.0000 </r>
       <r>  -16.8546    1.0000 </r>
       <r>  -16.8510    1.0000 </r>
       <r>  -16.8451    1.0000 </r>
       <r>  -16.8405    1.0000 </r>
       <r>  -16.8321    1.0000 </r>
       <r>  -16.8300    1.0000 </r>
       <r>  -16.6826    1.0000 </r>
       <r>  -16.6433    1.0000 </r>
       <r>  -13.0589    1.0000 </r>
       <r>  -13.0585    1.0000 </r>
       <r>  -13.0495    1.0000 </r>
       <r>  -13.0458    1.0000 </r>
       <r>  -13.0259    1.0000 </r>
       <r>  -13.0258    1.0000 </r>
       <r>  -13.0210    1.0000 </r>
       <r>  -13.0203    1.0000 </r>
       <r>  -13.0139    1.0000 </r>
       <r>  -13.0129    1.0000 </r>
       <r>  -13.0127    1.0000 </r>
       <r>  -13.0107    1.0000 </r>
       <r>  -13.0083    1.0000 </r>
       <r>  -13.0031    1.0000 </r>
       <r>  -12.9945    1.0000 </r>
       <r>  -12.9932    1.0000 </r>
       <r>  -12.9884    1.0000 </r>
       <r>  -12.9871    1.0000 </r>
       <r>  -12.9814    1.0000 </r>
       <r>  -12.9811    1.0000 </r>
       <r>  -12.9810    1.0000 </r>
       <r>  -12.9789    1.0000 </r>
       <r>  -12.9759    1.0000 </r>
       <r>  -12.9647    1.0000 </r>
       <r>  -12.9492    1.0000 </r>
       <r>  -12.9473    1.0000 </r>
       <r>  -12.9463    1.0000 </r>
       <r>  -12.9451    1.0000 </r>
       <r>  -12.9447    1.0000 </r>
       <r>  -12.9432    1.0000 </r>
       <r>  -12.9432    1.0000 </r>
       <r>  -12.9411    1.0000 </r>
       <r>  -12.9400    1.0000 </r>
       <r>  -12.9375    1.0000 </r>
       <r>  -12.9352    1.0000 </r>
       <r>  -12.9315    1.0000 </r>
       <r>  -12.9289    1.0000 </r>
       <r>  -12.9267    1.0000 </r>
       <r>  -12.9216    1.0000 </r>
       <r>  -12.9212    1.0000 </r>
       <r>  -12.9194    1.0000 </r>
       <r>  -12.9191    1.0000 </r>
       <r>  -12.9181    1.0000 </r>
       <r>  -12.9172    1.0000 </r>
       <r>  -12.9159    1.0000 </r>
       <r>  -12.9148    1.0000 </r>
       <r>  -12.9119    1.0000 </r>
       <r>  -12.9108    1.0000 </r>
       <r>  -12.9062    1.0000 </r>
       <r>  -12.9028    1.0000 </r>
       <r>  -12.9019    1.0000 </r>
       <r>  -12.9013    1.0000 </r>
       <r>  -12.9011    1.0000 </r>
       <r>  -12.8987    1.0000 </r>
       <r>  -12.8905    1.0000 </r>
       <r>  -12.8904    1.0000 </r>
       <r>  -12.8893    1.0000 </r>
       <r>  -12.8892    1.0000 </r>
       <r>  -12.8824    1.0000 </r>
       <r>  -12.8772    1.0000 </r>
       <r>  -12.8763    1.0000 </r>
       <r>  -12.8708    1.0000 </r>
       <r>  -12.8566    1.0000 </r>
       <r>  -12.8512    1.0000 </r>
       <r>  -12.8509    1.0000 </r>
       <r>  -12.8477    1.0000 </r>
       <r>  -12.8301    1.0000 </r>
       <r>  -12.8287    1.0000 </r>
       <r>  -12.8263    1.0000 </r>
       <r>  -12.8197    1.0000 </r>
       <r>  -12.8189    1.0000 </r>
       <r>  -12.8175    1.0000 </r>
       <r>  -12.8153    1.0000 </r>
       <r>  -12.8152    1.0000 </r>
       <r>  -12.8142    1.0000 </r>
       <r>  -12.8141    1.0000 </r>
       <r>  -12.8114    1.0000 </r>
       <r>  -12.8095    1.0000 </r>
       <r>  -12.8075    1.0000 </r>
       <r>  -12.8045    1.0000 </r>
       <r>  -12.8028    1.0000 </r>
       <r>  -12.8019    1.0000 </r>
       <r>  -12.7987    1.0000 </r>
       <r>  -12.7955    1.0000 </r>
       <r>  -12.7908    1.0000 </r>
       <r>  -12.7887    1.0000 </r>
       <r>  -12.7881    1.0000 </r>
       <r>  -12.7866    1.0000 </r>
       <r>  -12.7861    1.0000 </r>
       <r>  -12.7860    1.0000 </r>
       <r>  -12.7833    1.0000 </r>
       <r>  -12.7806    1.0000 </r>
       <r>  -12.7805    1.0000 </r>
       <r>  -12.7736    1.0000 </r>
       <r>  -12.7662    1.0000 </r>
       <r>  -12.7635    1.0000 </r>
       <r>  -12.7605    1.0000 </r>
       <r>  -12.7546    1.0000 </r>
       <r>  -12.7521    1.0000 </r>
       <r>  -12.7511    1.0000 </r>
       <r>  -12.7493    1.0000 </r>
       <r>  -12.7485    1.0000 </r>
       <r>  -12.7476    1.0000 </r>
       <r>  -12.7464    1.0000 </r>
       <r>  -12.7460    1.0000 </r>
       <r>  -12.7457    1.0000 </r>
       <r>  -12.7431    1.0000 </r>
       <r>  -12.7424    1.0000 </r>
       <r>  -12.7402    1.0000 </r>
       <r>  -12.7394    1.0000 </r>
       <r>  -12.7383    1.0000 </r>
       <r>  -12.7362    1.0000 </r>
       <r>  -12.7334    1.0000 </r>
       <r>  -12.7331    1.0000 </r>
       <r>  -12.7322    1.0000 </r>
       <r>  -12.7316    1.0000 </r>
       <r>  -12.7277    1.0000 </r>
       <r>  -12.7258    1.0000 </r>
       <r>  -12.7250    1.0000 </r>
       <r>  -12.7218    1.0000 </r>
       <r>  -12.7195    1.0000 </r>
       <r>  -12.7190    1.0000 </r>
       <r>  -12.7153    1.0000 </r>
       <r>  -12.7147    1.0000 </r>
       <r>  -12.7131    1.0000 </r>
       <r>  -12.7126    1.0000 </r>
       <r>  -12.7104    1.0000 </r>
       <r>  -12.7089    1.0000 </r>
       <r>  -12.7033    1.0000 </r>
       <r>  -12.6891    1.0000 </r>
       <r>  -12.6718    1.0000 </r>
       <r>  -12.6681    1.0000 </r>
       <r>  -12.6644    1.0000 </r>
       <r>  -12.6619    1.0000 </r>
       <r>  -12.6600    1.0000 </r>
       <r>  -12.6588    1.0000 </r>
       <r>  -12.6549    1.0000 </r>
       <r>  -12.6491    1.0000 </r>
       <r>  -12.6431    1.0000 </r>
       <r>  -12.6425    1.0000 </r>
       <r>  -12.6404    1.0000 </r>
       <r>  -12.6401    1.0000 </r>
       <r>  -12.6360    1.0000 </r>
       <r>  -12.6335    1.0000 </r>
       <r>  -12.6317    1.0000 </r>
       <r>  -12.6299    1.0000 </r>
       <r>  -12.6271    1.0000 </r>
       <r>  -12.6271    1.0000 </r>
       <r>  -12.6213    1.0000 </r>
       <r>  -12.6152    1.0000 </r>
       <r>  -12.6094    1.0000 </r>
       <r>  -12.6075    1.0000 </r>
       <r>  -12.6063    1.0000 </r>
       <r>  -12.6059    1.0000 </r>
       <r>  -12.6052    1.0000 </r>
       <r>  -12.6038    1.0000 </r>
       <r>  -12.6023    1.0000 </r>
       <r>  -12.5997    1.0000 </r>
       <r>  -12.5983    1.0000 </r>
       <r>  -12.5978    1.0000 </r>
       <r>  -12.5967    1.0000 </r>
       <r>  -12.5931    1.0000 </r>
       <r>  -12.5889    1.0000 </r>
       <r>  -12.5879    1.0000 </r>
       <r>  -12.5851    1.0000 </r>
       <r>  -12.5838    1.0000 </r>
       <r>  -12.5812    1.0000 </r>
       <r>  -12.5801    1.0000 </r>
       <r>  -12.5780    1.0000 </r>
       <r>  -12.5730    1.0000 </r>
       <r>  -12.5688    1.0000 </r>
       <r>  -12.5673    1.0000 </r>
       <r>  -12.5647    1.0000 </r>
       <r>  -12.5631    1.0000 </r>
       <r>  -12.5612    1.0000 </r>
       <r>  -12.5554    1.0000 </r>
       <r>  -12.5537    1.0000 </r>
       <r>  -12.5528    1.0000 </r>
       <r>  -12.5509    1.0000 </r>
       <r>  -12.5490    1.0000 </r>
       <r>  -12.5486    1.0000 </r>
       <r>  -12.5425    1.0000 </r>
       <r>  -12.5389    1.0000 </r>
       <r>  -12.5381    1.0000 </r>
       <r>  -12.5345    1.0000 </r>
       <r>  -12.5316    1.0000 </r>
       <r>  -12.5310    1.0000 </r>
       <r>  -12.5263    1.0000 </r>
       <r>  -12.5206    1.0000 </r>
       <r>  -12.5151    1.0000 </r>
       <r>  -12.5135    1.0000 </r>
       <r>  -12.4362    1.0000 </r>
       <r>  -12.4127    1.0000 </r>
       <r>  -12.3757    1.0000 </r>
       <r>  -12.3751    1.0000 </r>
       <r>  -12.3669    1.0000 </r>
       <r>  -12.3550    1.0000 </r>
       <r>  -12.3414    1.0000 </r>
       <r>  -12.3393    1.0000 </r>
       <r>  -12.3392    1.0000 </r>
       <r>  -12.3376    1.0000 </r>
       <r>  -12.3357    1.0000 </r>
       <r>  -12.3312    1.0000 </r>
       <r>  -12.2532    1.0000 </r>
       <r>  -12.2449    1.0000 </r>
       <r>  -12.2381    1.0000 </r>
       <r>  -12.2353    1.0000 </r>
       <r>  -12.1872    1.0000 </r>
       <r>  -12.1789    1.0000 </r>
       <r>  -12.1675    1.0000 </r>
       <r>  -12.1533    1.0000 </r>
       <r>  -12.1125    1.0000 </r>
       <r>  -12.0870    1.0000 </r>
       <r>  -12.0561    1.0000 </r>
       <r>  -12.0474    1.0000 </r>
       <r>  -12.0439    1.0000 </r>
       <r>  -12.0317    1.0000 </r>
       <r>  -12.0187    1.0000 </r>
       <r>  -12.0167    1.0000 </r>
       <r>  -11.9945    1.0000 </r>
       <r>  -11.9865    1.0000 </r>
       <r>  -11.9689    1.0000 </r>
       <r>  -11.9681    1.0000 </r>
       <r>  -11.9191    1.0000 </r>
       <r>  -11.8325    1.0000 </r>
       <r>  -11.8034    1.0000 </r>
       <r>  -11.8022    1.0000 </r>
       <r>  -11.8004    1.0000 </r>
       <r>  -11.7937    1.0000 </r>
       <r>  -11.7913    1.0000 </r>
       <r>  -11.7856    1.0000 </r>
       <r>  -11.7440    1.0000 </r>
       <r>  -11.6981    1.0000 </r>
       <r>  -11.6941    1.0000 </r>
       <r>  -11.6907    1.0000 </r>
       <r>   -4.7741    1.0000 </r>
       <r>   -4.7599    1.0000 </r>
       <r>   -4.7428    1.0000 </r>
       <r>   -4.7273    1.0000 </r>
       <r>   -4.7235    1.0000 </r>
       <r>   -4.7177    1.0000 </r>
       <r>   -4.7151    1.0000 </r>
       <r>   -4.6609    1.0000 </r>
       <r>   -4.5290    1.0000 </r>
       <r>   -4.5228    1.0000 </r>
       <r>   -4.5112    1.0000 </r>
       <r>   -4.5080    1.0000 </r>
       <r>   -4.4909    1.0000 </r>
       <r>   -4.4857    1.0000 </r>
       <r>   -4.4771    1.0000 </r>
       <r>   -4.3522    1.0000 </r>
       <r>   -4.2785    1.0000 </r>
       <r>   -4.2639    1.0000 </r>
       <r>   -4.2193    1.0000 </r>
       <r>   -4.1877    1.0000 </r>
       <r>   -3.9614    1.0000 </r>
       <r>   -3.9453    1.0000 </r>
       <r>   -3.9402    1.0000 </r>
       <r>   -3.9356    1.0000 </r>
       <r>   -3.7531    1.0000 </r>
       <r>   -3.7349    1.0000 </r>
       <r>   -3.7210    1.0000 </r>
       <r>   -3.7200    1.0000 </r>
       <r>   -3.6721    1.0000 </r>
       <r>   -3.6418    1.0000 </r>
       <r>   -3.6367    1.0000 </r>
       <r>   -3.5490    1.0000 </r>
       <r>   -3.4287    1.0000 </r>
       <r>   -3.4133    1.0000 </r>
       <r>   -3.4044    1.0000 </r>
       <r>   -3.2542    1.0000 </r>
       <r>   -2.9029    1.0000 </r>
       <r>   -2.8999    1.0000 </r>
       <r>   -2.8927    1.0000 </r>
       <r>   -2.8909    1.0000 </r>
       <r>   -2.8818    1.0000 </r>
       <r>   -2.8700    1.0000 </r>
       <r>   -2.8328    1.0000 </r>
       <r>   -2.5918    1.0000 </r>
       <r>   -2.5089    1.0000 </r>
       <r>   -2.4463    1.0000 </r>
       <r>   -2.4448    1.0000 </r>
       <r>   -2.4011    1.0000 </r>
       <r>   -2.3945    1.0000 </r>
       <r>   -2.3803    1.0000 </r>
       <r>   -2.3662    1.0000 </r>
       <r>   -2.3234    1.0000 </r>
       <r>   -2.2723    1.0000 </r>
       <r>   -2.2635    1.0000 </r>
       <r>   -2.2528    1.0000 </r>
       <r>   -2.1961    1.0000 </r>
       <r>   -1.9667    1.0000 </r>
       <r>   -1.9183    1.0000 </r>
       <r>   -1.9010    1.0000 </r>
       <r>   -1.8749    1.0000 </r>
       <r>   -1.8532    1.0000 </r>
       <r>   -1.8327    1.0000 </r>
       <r>   -1.8088    1.0000 </r>
       <r>   -1.8000    1.0000 </r>
       <r>   -1.7926    1.0000 </r>
       <r>   -1.7686    1.0000 </r>
       <r>   -1.7678    1.0000 </r>
       <r>   -1.7482    1.0000 </r>
       <r>   -1.7440    1.0000 </r>
       <r>   -1.7377    1.0000 </r>
       <r>   -1.7034    1.0000 </r>
       <r>   -1.6988    1.0000 </r>
       <r>   -1.5321    1.0000 </r>
       <r>   -1.4785    1.0000 </r>
       <r>   -1.4775    1.0000 </r>
       <r>   -1.4737    1.0000 </r>
       <r>   -1.3690    1.0000 </r>
       <r>   -1.3433    1.0000 </r>
       <r>   -1.2904    1.0000 </r>
       <r>   -1.2892    1.0000 </r>
       <r>   -1.2658    1.0000 </r>
       <r>   -1.2636    1.0000 </r>
       <r>   -1.2504    1.0000 </r>
       <r>   -1.2167    1.0000 </r>
       <r>   -1.1752    1.0000 </r>
       <r>   -1.1524    1.0000 </r>
       <r>   -1.1325    1.0000 </r>
       <r>   -1.1076    1.0000 </r>
       <r>   -1.0128    1.0000 </r>
       <r>   -1.0082    1.0000 </r>
       <r>   -0.9403    1.0000 </r>
       <r>   -0.9017    1.0000 </r>
       <r>   -0.8883    1.0000 </r>
       <r>   -0.8861    1.0000 </r>
       <r>   -0.8584    1.0000 </r>
       <r>   -0.8440    1.0000 </r>
       <r>   -0.7166    1.0000 </r>
       <r>   -0.7122    1.0000 </r>
       <r>   -0.6718    1.0000 </r>
       <r>   -0.6354    1.0000 </r>
       <r>   -0.6156    1.0000 </r>
       <r>   -0.6118    1.0000 </r>
       <r>   -0.6066    1.0000 </r>
       <r>   -0.6022    1.0000 </r>
       <r>   -0.5998    1.0000 </r>
       <r>   -0.5951    1.0000 </r>
       <r>   -0.5792    1.0000 </r>
       <r>   -0.5652    1.0000 </r>
       <r>   -0.5602    1.0000 </r>
       <r>   -0.5317    1.0000 </r>
       <r>   -0.4946    1.0000 </r>
       <r>   -0.4877    1.0000 </r>
       <r>   -0.4845    1.0000 </r>
       <r>   -0.4248    1.0000 </r>
       <r>   -0.3764    1.0000 </r>
       <r>   -0.3010    1.0000 </r>
       <r>   -0.2943    1.0000 </r>
       <r>   -0.2558    1.0000 </r>
       <r>   -0.0156    1.0000 </r>
       <r>   -0.0053    1.0000 </r>
       <r>    0.0127    1.0000 </r>
       <r>    0.0345    1.0000 </r>
       <r>    0.0545    1.0000 </r>
       <r>    0.0897    1.0000 </r>
       <r>    0.1137    1.0000 </r>
       <r>    0.1217    1.0000 </r>
       <r>    0.1378    1.0000 </r>
       <r>    0.1972    1.0000 </r>
       <r>    0.2099    1.0000 </r>
       <r>    0.2202    1.0000 </r>
       <r>    0.2245    1.0000 </r>
       <r>    0.2377    1.0000 </r>
       <r>    0.2772    1.0000 </r>
       <r>    0.2981    1.0000 </r>
       <r>    0.3187    1.0000 </r>
       <r>    0.3409    1.0000 </r>
       <r>    0.3546    1.0000 </r>
       <r>    0.3554    1.0000 </r>
       <r>    0.3585    1.0000 </r>
       <r>    0.3754    1.0000 </r>
       <r>    0.4026    1.0000 </r>
       <r>    0.4153    1.0000 </r>
       <r>    0.4323    1.0000 </r>
       <r>    0.4579    1.0000 </r>
       <r>    0.4683    1.0000 </r>
       <r>    0.4983    1.0000 </r>
       <r>    0.5314    1.0000 </r>
       <r>    0.5551    1.0000 </r>
       <r>    0.5632    1.0000 </r>
       <r>    0.5990    1.0000 </r>
       <r>    0.6068    1.0000 </r>
       <r>    0.6151    1.0000 </r>
       <r>    0.6231    1.0000 </r>
       <r>    0.6327    1.0000 </r>
       <r>    0.6363    1.0000 </r>
       <r>    0.6590    1.0000 </r>
       <r>    0.6725    1.0000 </r>
       <r>    0.7561    1.0000 </r>
       <r>    0.7786    1.0000 </r>
       <r>    0.7877    1.0000 </r>
       <r>    0.7948    1.0000 </r>
       <r>    0.8004    1.0000 </r>
       <r>    0.8249    1.0000 </r>
       <r>    0.8358    1.0000 </r>
       <r>    0.8510    1.0000 </r>
       <r>    0.8647    1.0000 </r>
       <r>    0.8860    1.0000 </r>
       <r>    0.9051    1.0000 </r>
       <r>    0.9858    1.0000 </r>
       <r>    1.0159    1.0000 </r>
       <r>    1.0429    1.0000 </r>
       <r>    1.1096    1.0000 </r>
       <r>    1.1230    1.0000 </r>
       <r>    1.1324    1.0000 </r>
       <r>    1.1372    1.0000 </r>
       <r>    1.1527    1.0000 </r>
       <r>    1.1595    1.0000 </r>
       <r>    1.1629    1.0000 </r>
       <r>    1.1664    1.0000 </r>
       <r>    1.1825    1.0000 </r>
       <r>    1.2213    1.0000 </r>
       <r>    1.2443    1.0000 </r>
       <r>    1.2920    1.0000 </r>
       <r>    1.2944    1.0000 </r>
       <r>    1.3155    1.0000 </r>
       <r>    1.3238    1.0000 </r>
       <r>    1.3412    1.0000 </r>
       <r>    1.3532    1.0000 </r>
       <r>    1.4020    1.0000 </r>
       <r>    1.4339    1.0000 </r>
       <r>    1.4538    1.0000 </r>
       <r>    1.4757    1.0000 </r>
       <r>    1.4777    1.0000 </r>
       <r>    1.4830    1.0000 </r>
       <r>    1.4846    1.0000 </r>
       <r>    1.4938    1.0000 </r>
       <r>    1.5438    1.0000 </r>
       <r>    1.5702    1.0000 </r>
       <r>    1.5890    1.0000 </r>
       <r>    1.5901    1.0000 </r>
       <r>    1.6249    1.0000 </r>
       <r>    1.6259    1.0000 </r>
       <r>    1.6284    1.0000 </r>
       <r>    1.6418    1.0000 </r>
       <r>    1.6504    1.0000 </r>
       <r>    1.6511    1.0000 </r>
       <r>    1.6730    1.0000 </r>
       <r>    1.6789    1.0000 </r>
       <r>    1.7073    1.0000 </r>
       <r>    1.7270    1.0000 </r>
       <r>    1.7332    1.0000 </r>
       <r>    1.7615    1.0000 </r>
       <r>    1.9886    1.0000 </r>
       <r>    1.9930    1.0000 </r>
       <r>    2.0057    1.0000 </r>
       <r>    2.0262    1.0000 </r>
       <r>    2.1275    1.0000 </r>
       <r>    2.1964    1.0000 </r>
       <r>    4.2403    0.5021 </r>
       <r>    8.1216    0.0000 </r>
       <r>    8.2198    0.0000 </r>
       <r>    8.6420    0.0000 </r>
       <r>    8.6426    0.0000 </r>
       <r>    8.7907    0.0000 </r>
       <r>    8.8067    0.0000 </r>
       <r>    9.7264    0.0000 </r>
       <r>    9.7331    0.0000 </r>
       <r>    9.7553    0.0000 </r>
       <r>    9.8042    0.0000 </r>
       <r>   10.3408    0.0000 </r>
       <r>   10.3415    0.0000 </r>
       <r>   10.3657    0.0000 </r>
       <r>   10.4126    0.0000 </r>
       <r>   10.6121    0.0000 </r>
       <r>   10.6184    0.0000 </r>
       <r>   10.6295    0.0000 </r>
       <r>   10.7799    0.0000 </r>
       <r>   10.8007    0.0000 </r>
       <r>   10.8086    0.0000 </r>
       <r>   10.8170    0.0000 </r>
       <r>   10.8836    0.0000 </r>
       <r>   11.2240    0.0000 </r>
       <r>   11.2310    0.0000 </r>
       <r>   11.2468    0.0000 </r>
       <r>   11.3611    0.0000 </r>
       <r>   11.6384    0.0000 </r>
       <r>   11.6524    0.0000 </r>
       <r>   11.6798    0.0000 </r>
       <r>   11.6803    0.0000 </r>
       <r>   11.6849    0.0000 </r>
       <r>   11.6854    0.0000 </r>
       <r>   11.6899    0.0000 </r>
       <r>   11.8544    0.0000 </r>
       <r>   11.8646    0.0000 </r>
       <r>   11.8699    0.0000 </r>
       <r>   11.8819    0.0000 </r>
       <r>   11.9245    0.0000 </r>
       <r>   11.9344    0.0000 </r>
       <r>   11.9554    0.0000 </r>
       <r>   11.9651    0.0000 </r>
       <r>   12.1865    0.0000 </r>
       <r>   12.3281    0.0000 </r>
       <r>   12.3458    0.0000 </r>
       <r>   12.3462    0.0000 </r>
       <r>   12.3910    0.0000 </r>
       <r>   12.4087    0.0000 </r>
       <r>   12.4271    0.0000 </r>
       <r>   12.4405    0.0000 </r>
       <r>   12.4657    0.0000 </r>
       <r>   12.4787    0.0000 </r>
       <r>   12.4889    0.0000 </r>
       <r>   12.4937    0.0000 </r>
       <r>   12.5692    0.0000 </r>
       <r>   12.6108    0.0000 </r>
       <r>   12.6149    0.0000 </r>
       <r>   12.6573    0.0000 </r>
       <r>   12.9729    0.0000 </r>
       <r>   13.0453    0.0000 </r>
       <r>   13.0512    0.0000 </r>
       <r>   13.1104    0.0000 </r>
       <r>   13.2622    0.0000 </r>
       <r>   13.3419    0.0000 </r>
       <r>   13.3583    0.0000 </r>
       <r>   13.3661    0.0000 </r>
       <r>   13.4947    0.0000 </r>
       <r>   13.5450    0.0000 </r>
       <r>   13.5745    0.0000 </r>
       <r>   13.6046    0.0000 </r>
       <r>   13.6093    0.0000 </r>
       <r>   13.6264    0.0000 </r>
       <r>   13.6552    0.0000 </r>
       <r>   13.6967    0.0000 </r>
       <r>   14.3164    0.0000 </r>
       <r>   14.4031    0.0000 </r>
       <r>   14.4131    0.0000 </r>
       <r>   14.4368    0.0000 </r>
       <r>   14.5067    0.0000 </r>
       <r>   14.6058    0.0000 </r>
       <r>   14.6480    0.0000 </r>
       <r>   14.6806    0.0000 </r>
       <r>   14.7020    0.0000 </r>
       <r>   14.7332    0.0000 </r>
       <r>   14.7692    0.0000 </r>
       <r>   14.8462    0.0000 </r>
       <r>   14.8692    0.0000 </r>
       <r>   14.9332    0.0000 </r>
       <r>   14.9480    0.0000 </r>
       <r>   15.0095    0.0000 </r>
       <r>   15.0829    0.0000 </r>
       <r>   15.2632    0.0000 </r>
       <r>   15.3805    0.0000 </r>
       <r>   15.4308    0.0000 </r>
       <r>   15.5012    0.0000 </r>
       <r>   15.5533    0.0000 </r>
       <r>   15.7227    0.0000 </r>
       <r>   15.8248    0.0000 </r>
       <r>   15.8634    0.0000 </r>
       <r>   15.9316    0.0000 </r>
       <r>   15.9919    0.0000 </r>
       <r>   16.1244    0.0000 </r>
       <r>   16.1893    0.0000 </r>
       <r>   16.2351    0.0000 </r>
       <r>   16.4361    0.0000 </r>
      </set>
      <set comment="kpoint 8">
       <r>  -18.3418    1.0000 </r>
       <r>  -18.3343    1.0000 </r>
       <r>  -18.3343    1.0000 </r>
       <r>  -18.3208    1.0000 </r>
       <r>  -18.2473    1.0000 </r>
       <r>  -18.2415    1.0000 </r>
       <r>  -18.2369    1.0000 </r>
       <r>  -18.2142    1.0000 </r>
       <r>  -17.8011    1.0000 </r>
       <r>  -17.7960    1.0000 </r>
       <r>  -17.7946    1.0000 </r>
       <r>  -17.7759    1.0000 </r>
       <r>  -17.5953    1.0000 </r>
       <r>  -17.5884    1.0000 </r>
       <r>  -17.5851    1.0000 </r>
       <r>  -17.5767    1.0000 </r>
       <r>  -17.5591    1.0000 </r>
       <r>  -17.5588    1.0000 </r>
       <r>  -17.5530    1.0000 </r>
       <r>  -17.5411    1.0000 </r>
       <r>  -17.5374    1.0000 </r>
       <r>  -17.5351    1.0000 </r>
       <r>  -17.5305    1.0000 </r>
       <r>  -17.5265    1.0000 </r>
       <r>  -17.5223    1.0000 </r>
       <r>  -17.5180    1.0000 </r>
       <r>  -17.5130    1.0000 </r>
       <r>  -17.4633    1.0000 </r>
       <r>  -17.4013    1.0000 </r>
       <r>  -17.3945    1.0000 </r>
       <r>  -17.3818    1.0000 </r>
       <r>  -17.3784    1.0000 </r>
       <r>  -17.2842    1.0000 </r>
       <r>  -17.2773    1.0000 </r>
       <r>  -17.2632    1.0000 </r>
       <r>  -17.2485    1.0000 </r>
       <r>  -17.2306    1.0000 </r>
       <r>  -17.2252    1.0000 </r>
       <r>  -17.2231    1.0000 </r>
       <r>  -17.2216    1.0000 </r>
       <r>  -17.2106    1.0000 </r>
       <r>  -17.2078    1.0000 </r>
       <r>  -17.2029    1.0000 </r>
       <r>  -17.2017    1.0000 </r>
       <r>  -17.1729    1.0000 </r>
       <r>  -17.1648    1.0000 </r>
       <r>  -17.1642    1.0000 </r>
       <r>  -17.1188    1.0000 </r>
       <r>  -17.0593    1.0000 </r>
       <r>  -17.0522    1.0000 </r>
       <r>  -17.0507    1.0000 </r>
       <r>  -17.0452    1.0000 </r>
       <r>  -17.0091    1.0000 </r>
       <r>  -17.0067    1.0000 </r>
       <r>  -16.9982    1.0000 </r>
       <r>  -16.9855    1.0000 </r>
       <r>  -16.9603    1.0000 </r>
       <r>  -16.9544    1.0000 </r>
       <r>  -16.9440    1.0000 </r>
       <r>  -16.9434    1.0000 </r>
       <r>  -16.9349    1.0000 </r>
       <r>  -16.9318    1.0000 </r>
       <r>  -16.9178    1.0000 </r>
       <r>  -16.8544    1.0000 </r>
       <r>  -16.8478    1.0000 </r>
       <r>  -16.8453    1.0000 </r>
       <r>  -16.8444    1.0000 </r>
       <r>  -16.8425    1.0000 </r>
       <r>  -16.8375    1.0000 </r>
       <r>  -16.8353    1.0000 </r>
       <r>  -16.6828    1.0000 </r>
       <r>  -16.6434    1.0000 </r>
       <r>  -13.0527    1.0000 </r>
       <r>  -13.0521    1.0000 </r>
       <r>  -13.0480    1.0000 </r>
       <r>  -13.0460    1.0000 </r>
       <r>  -13.0348    1.0000 </r>
       <r>  -13.0341    1.0000 </r>
       <r>  -13.0278    1.0000 </r>
       <r>  -13.0235    1.0000 </r>
       <r>  -13.0124    1.0000 </r>
       <r>  -13.0122    1.0000 </r>
       <r>  -13.0071    1.0000 </r>
       <r>  -13.0068    1.0000 </r>
       <r>  -13.0044    1.0000 </r>
       <r>  -13.0031    1.0000 </r>
       <r>  -12.9941    1.0000 </r>
       <r>  -12.9925    1.0000 </r>
       <r>  -12.9890    1.0000 </r>
       <r>  -12.9877    1.0000 </r>
       <r>  -12.9858    1.0000 </r>
       <r>  -12.9807    1.0000 </r>
       <r>  -12.9786    1.0000 </r>
       <r>  -12.9778    1.0000 </r>
       <r>  -12.9759    1.0000 </r>
       <r>  -12.9645    1.0000 </r>
       <r>  -12.9488    1.0000 </r>
       <r>  -12.9485    1.0000 </r>
       <r>  -12.9472    1.0000 </r>
       <r>  -12.9459    1.0000 </r>
       <r>  -12.9454    1.0000 </r>
       <r>  -12.9445    1.0000 </r>
       <r>  -12.9417    1.0000 </r>
       <r>  -12.9412    1.0000 </r>
       <r>  -12.9389    1.0000 </r>
       <r>  -12.9368    1.0000 </r>
       <r>  -12.9367    1.0000 </r>
       <r>  -12.9342    1.0000 </r>
       <r>  -12.9339    1.0000 </r>
       <r>  -12.9306    1.0000 </r>
       <r>  -12.9249    1.0000 </r>
       <r>  -12.9243    1.0000 </r>
       <r>  -12.9229    1.0000 </r>
       <r>  -12.9215    1.0000 </r>
       <r>  -12.9187    1.0000 </r>
       <r>  -12.9173    1.0000 </r>
       <r>  -12.9161    1.0000 </r>
       <r>  -12.9131    1.0000 </r>
       <r>  -12.9115    1.0000 </r>
       <r>  -12.9076    1.0000 </r>
       <r>  -12.9062    1.0000 </r>
       <r>  -12.9053    1.0000 </r>
       <r>  -12.9047    1.0000 </r>
       <r>  -12.9015    1.0000 </r>
       <r>  -12.8997    1.0000 </r>
       <r>  -12.8944    1.0000 </r>
       <r>  -12.8915    1.0000 </r>
       <r>  -12.8895    1.0000 </r>
       <r>  -12.8891    1.0000 </r>
       <r>  -12.8844    1.0000 </r>
       <r>  -12.8733    1.0000 </r>
       <r>  -12.8696    1.0000 </r>
       <r>  -12.8684    1.0000 </r>
       <r>  -12.8681    1.0000 </r>
       <r>  -12.8474    1.0000 </r>
       <r>  -12.8399    1.0000 </r>
       <r>  -12.8386    1.0000 </r>
       <r>  -12.8332    1.0000 </r>
       <r>  -12.8329    1.0000 </r>
       <r>  -12.8278    1.0000 </r>
       <r>  -12.8258    1.0000 </r>
       <r>  -12.8216    1.0000 </r>
       <r>  -12.8192    1.0000 </r>
       <r>  -12.8168    1.0000 </r>
       <r>  -12.8158    1.0000 </r>
       <r>  -12.8120    1.0000 </r>
       <r>  -12.8103    1.0000 </r>
       <r>  -12.8063    1.0000 </r>
       <r>  -12.8017    1.0000 </r>
       <r>  -12.8015    1.0000 </r>
       <r>  -12.8006    1.0000 </r>
       <r>  -12.7992    1.0000 </r>
       <r>  -12.7977    1.0000 </r>
       <r>  -12.7944    1.0000 </r>
       <r>  -12.7904    1.0000 </r>
       <r>  -12.7890    1.0000 </r>
       <r>  -12.7884    1.0000 </r>
       <r>  -12.7867    1.0000 </r>
       <r>  -12.7849    1.0000 </r>
       <r>  -12.7835    1.0000 </r>
       <r>  -12.7819    1.0000 </r>
       <r>  -12.7817    1.0000 </r>
       <r>  -12.7792    1.0000 </r>
       <r>  -12.7783    1.0000 </r>
       <r>  -12.7773    1.0000 </r>
       <r>  -12.7743    1.0000 </r>
       <r>  -12.7742    1.0000 </r>
       <r>  -12.7722    1.0000 </r>
       <r>  -12.7675    1.0000 </r>
       <r>  -12.7593    1.0000 </r>
       <r>  -12.7565    1.0000 </r>
       <r>  -12.7536    1.0000 </r>
       <r>  -12.7522    1.0000 </r>
       <r>  -12.7515    1.0000 </r>
       <r>  -12.7488    1.0000 </r>
       <r>  -12.7484    1.0000 </r>
       <r>  -12.7480    1.0000 </r>
       <r>  -12.7464    1.0000 </r>
       <r>  -12.7436    1.0000 </r>
       <r>  -12.7431    1.0000 </r>
       <r>  -12.7384    1.0000 </r>
       <r>  -12.7356    1.0000 </r>
       <r>  -12.7347    1.0000 </r>
       <r>  -12.7335    1.0000 </r>
       <r>  -12.7323    1.0000 </r>
       <r>  -12.7310    1.0000 </r>
       <r>  -12.7300    1.0000 </r>
       <r>  -12.7284    1.0000 </r>
       <r>  -12.7267    1.0000 </r>
       <r>  -12.7244    1.0000 </r>
       <r>  -12.7220    1.0000 </r>
       <r>  -12.7218    1.0000 </r>
       <r>  -12.7216    1.0000 </r>
       <r>  -12.7196    1.0000 </r>
       <r>  -12.7135    1.0000 </r>
       <r>  -12.7126    1.0000 </r>
       <r>  -12.7059    1.0000 </r>
       <r>  -12.7031    1.0000 </r>
       <r>  -12.7011    1.0000 </r>
       <r>  -12.6935    1.0000 </r>
       <r>  -12.6921    1.0000 </r>
       <r>  -12.6890    1.0000 </r>
       <r>  -12.6835    1.0000 </r>
       <r>  -12.6832    1.0000 </r>
       <r>  -12.6827    1.0000 </r>
       <r>  -12.6694    1.0000 </r>
       <r>  -12.6667    1.0000 </r>
       <r>  -12.6628    1.0000 </r>
       <r>  -12.6568    1.0000 </r>
       <r>  -12.6533    1.0000 </r>
       <r>  -12.6423    1.0000 </r>
       <r>  -12.6403    1.0000 </r>
       <r>  -12.6387    1.0000 </r>
       <r>  -12.6342    1.0000 </r>
       <r>  -12.6313    1.0000 </r>
       <r>  -12.6287    1.0000 </r>
       <r>  -12.6285    1.0000 </r>
       <r>  -12.6273    1.0000 </r>
       <r>  -12.6268    1.0000 </r>
       <r>  -12.6265    1.0000 </r>
       <r>  -12.6241    1.0000 </r>
       <r>  -12.6218    1.0000 </r>
       <r>  -12.6204    1.0000 </r>
       <r>  -12.6184    1.0000 </r>
       <r>  -12.6150    1.0000 </r>
       <r>  -12.6087    1.0000 </r>
       <r>  -12.6070    1.0000 </r>
       <r>  -12.6066    1.0000 </r>
       <r>  -12.6050    1.0000 </r>
       <r>  -12.6039    1.0000 </r>
       <r>  -12.6011    1.0000 </r>
       <r>  -12.5998    1.0000 </r>
       <r>  -12.5991    1.0000 </r>
       <r>  -12.5974    1.0000 </r>
       <r>  -12.5953    1.0000 </r>
       <r>  -12.5923    1.0000 </r>
       <r>  -12.5920    1.0000 </r>
       <r>  -12.5869    1.0000 </r>
       <r>  -12.5850    1.0000 </r>
       <r>  -12.5849    1.0000 </r>
       <r>  -12.5826    1.0000 </r>
       <r>  -12.5742    1.0000 </r>
       <r>  -12.5702    1.0000 </r>
       <r>  -12.5672    1.0000 </r>
       <r>  -12.5651    1.0000 </r>
       <r>  -12.5635    1.0000 </r>
       <r>  -12.5623    1.0000 </r>
       <r>  -12.5612    1.0000 </r>
       <r>  -12.5567    1.0000 </r>
       <r>  -12.5562    1.0000 </r>
       <r>  -12.5543    1.0000 </r>
       <r>  -12.5517    1.0000 </r>
       <r>  -12.5490    1.0000 </r>
       <r>  -12.5487    1.0000 </r>
       <r>  -12.5467    1.0000 </r>
       <r>  -12.5442    1.0000 </r>
       <r>  -12.5416    1.0000 </r>
       <r>  -12.5384    1.0000 </r>
       <r>  -12.5357    1.0000 </r>
       <r>  -12.5327    1.0000 </r>
       <r>  -12.5267    1.0000 </r>
       <r>  -12.5226    1.0000 </r>
       <r>  -12.5218    1.0000 </r>
       <r>  -12.4912    1.0000 </r>
       <r>  -12.4875    1.0000 </r>
       <r>  -12.4843    1.0000 </r>
       <r>  -12.4825    1.0000 </r>
       <r>  -12.3884    1.0000 </r>
       <r>  -12.3787    1.0000 </r>
       <r>  -12.3669    1.0000 </r>
       <r>  -12.3663    1.0000 </r>
       <r>  -12.2993    1.0000 </r>
       <r>  -12.2902    1.0000 </r>
       <r>  -12.2546    1.0000 </r>
       <r>  -12.2526    1.0000 </r>
       <r>  -12.2452    1.0000 </r>
       <r>  -12.2023    1.0000 </r>
       <r>  -12.1793    1.0000 </r>
       <r>  -12.1789    1.0000 </r>
       <r>  -12.1751    1.0000 </r>
       <r>  -12.1674    1.0000 </r>
       <r>  -12.1622    1.0000 </r>
       <r>  -12.1526    1.0000 </r>
       <r>  -12.1063    1.0000 </r>
       <r>  -12.0722    1.0000 </r>
       <r>  -12.0548    1.0000 </r>
       <r>  -12.0424    1.0000 </r>
       <r>  -12.0231    1.0000 </r>
       <r>  -12.0214    1.0000 </r>
       <r>  -11.9833    1.0000 </r>
       <r>  -11.9832    1.0000 </r>
       <r>  -11.9478    1.0000 </r>
       <r>  -11.9371    1.0000 </r>
       <r>  -11.9217    1.0000 </r>
       <r>  -11.9181    1.0000 </r>
       <r>  -11.9016    1.0000 </r>
       <r>  -11.8447    1.0000 </r>
       <r>  -11.8152    1.0000 </r>
       <r>  -11.8100    1.0000 </r>
       <r>  -11.8099    1.0000 </r>
       <r>  -11.7921    1.0000 </r>
       <r>  -11.7819    1.0000 </r>
       <r>  -11.7811    1.0000 </r>
       <r>  -11.7784    1.0000 </r>
       <r>  -11.7745    1.0000 </r>
       <r>  -11.7727    1.0000 </r>
       <r>  -11.7712    1.0000 </r>
       <r>   -4.8732    1.0000 </r>
       <r>   -4.8338    1.0000 </r>
       <r>   -4.8138    1.0000 </r>
       <r>   -4.8131    1.0000 </r>
       <r>   -4.7956    1.0000 </r>
       <r>   -4.7803    1.0000 </r>
       <r>   -4.7667    1.0000 </r>
       <r>   -4.6934    1.0000 </r>
       <r>   -4.4515    1.0000 </r>
       <r>   -4.4514    1.0000 </r>
       <r>   -4.4447    1.0000 </r>
       <r>   -4.4385    1.0000 </r>
       <r>   -4.4183    1.0000 </r>
       <r>   -4.4130    1.0000 </r>
       <r>   -4.3644    1.0000 </r>
       <r>   -4.3486    1.0000 </r>
       <r>   -4.1560    1.0000 </r>
       <r>   -4.1294    1.0000 </r>
       <r>   -4.1259    1.0000 </r>
       <r>   -4.0710    1.0000 </r>
       <r>   -3.8613    1.0000 </r>
       <r>   -3.8000    1.0000 </r>
       <r>   -3.7939    1.0000 </r>
       <r>   -3.7840    1.0000 </r>
       <r>   -3.7801    1.0000 </r>
       <r>   -3.7684    1.0000 </r>
       <r>   -3.7574    1.0000 </r>
       <r>   -3.7566    1.0000 </r>
       <r>   -3.7494    1.0000 </r>
       <r>   -3.7318    1.0000 </r>
       <r>   -3.7199    1.0000 </r>
       <r>   -3.6148    1.0000 </r>
       <r>   -3.4670    1.0000 </r>
       <r>   -3.4575    1.0000 </r>
       <r>   -3.4527    1.0000 </r>
       <r>   -3.3249    1.0000 </r>
       <r>   -3.2255    1.0000 </r>
       <r>   -3.2216    1.0000 </r>
       <r>   -3.2186    1.0000 </r>
       <r>   -2.9249    1.0000 </r>
       <r>   -2.9215    1.0000 </r>
       <r>   -2.9099    1.0000 </r>
       <r>   -2.8667    1.0000 </r>
       <r>   -2.7467    1.0000 </r>
       <r>   -2.6660    1.0000 </r>
       <r>   -2.5459    1.0000 </r>
       <r>   -2.5445    1.0000 </r>
       <r>   -2.4983    1.0000 </r>
       <r>   -2.3548    1.0000 </r>
       <r>   -2.3348    1.0000 </r>
       <r>   -2.3046    1.0000 </r>
       <r>   -2.2685    1.0000 </r>
       <r>   -2.0762    1.0000 </r>
       <r>   -2.0110    1.0000 </r>
       <r>   -1.9994    1.0000 </r>
       <r>   -1.9856    1.0000 </r>
       <r>   -1.9230    1.0000 </r>
       <r>   -1.8834    1.0000 </r>
       <r>   -1.8712    1.0000 </r>
       <r>   -1.8631    1.0000 </r>
       <r>   -1.8519    1.0000 </r>
       <r>   -1.8328    1.0000 </r>
       <r>   -1.8231    1.0000 </r>
       <r>   -1.8181    1.0000 </r>
       <r>   -1.6954    1.0000 </r>
       <r>   -1.6776    1.0000 </r>
       <r>   -1.6539    1.0000 </r>
       <r>   -1.6471    1.0000 </r>
       <r>   -1.6193    1.0000 </r>
       <r>   -1.5994    1.0000 </r>
       <r>   -1.5940    1.0000 </r>
       <r>   -1.5916    1.0000 </r>
       <r>   -1.5348    1.0000 </r>
       <r>   -1.5153    1.0000 </r>
       <r>   -1.4935    1.0000 </r>
       <r>   -1.4867    1.0000 </r>
       <r>   -1.3956    1.0000 </r>
       <r>   -1.3885    1.0000 </r>
       <r>   -1.3473    1.0000 </r>
       <r>   -1.3350    1.0000 </r>
       <r>   -1.3279    1.0000 </r>
       <r>   -1.2704    1.0000 </r>
       <r>   -1.2606    1.0000 </r>
       <r>   -1.2054    1.0000 </r>
       <r>   -1.1154    1.0000 </r>
       <r>   -1.0454    1.0000 </r>
       <r>   -1.0284    1.0000 </r>
       <r>   -0.9710    1.0000 </r>
       <r>   -0.9703    1.0000 </r>
       <r>   -0.9519    1.0000 </r>
       <r>   -0.8701    1.0000 </r>
       <r>   -0.8544    1.0000 </r>
       <r>   -0.8466    1.0000 </r>
       <r>   -0.8186    1.0000 </r>
       <r>   -0.8054    1.0000 </r>
       <r>   -0.8000    1.0000 </r>
       <r>   -0.7767    1.0000 </r>
       <r>   -0.7538    1.0000 </r>
       <r>   -0.7441    1.0000 </r>
       <r>   -0.7395    1.0000 </r>
       <r>   -0.7147    1.0000 </r>
       <r>   -0.7092    1.0000 </r>
       <r>   -0.7030    1.0000 </r>
       <r>   -0.6974    1.0000 </r>
       <r>   -0.6694    1.0000 </r>
       <r>   -0.6624    1.0000 </r>
       <r>   -0.5998    1.0000 </r>
       <r>   -0.5673    1.0000 </r>
       <r>   -0.4942    1.0000 </r>
       <r>   -0.4606    1.0000 </r>
       <r>   -0.4308    1.0000 </r>
       <r>   -0.4200    1.0000 </r>
       <r>   -0.4141    1.0000 </r>
       <r>   -0.3631    1.0000 </r>
       <r>   -0.3543    1.0000 </r>
       <r>   -0.3352    1.0000 </r>
       <r>   -0.3024    1.0000 </r>
       <r>   -0.2614    1.0000 </r>
       <r>   -0.2105    1.0000 </r>
       <r>   -0.2060    1.0000 </r>
       <r>   -0.1867    1.0000 </r>
       <r>   -0.1766    1.0000 </r>
       <r>   -0.0676    1.0000 </r>
       <r>   -0.0509    1.0000 </r>
       <r>   -0.0152    1.0000 </r>
       <r>    0.0015    1.0000 </r>
       <r>    0.0425    1.0000 </r>
       <r>    0.0462    1.0000 </r>
       <r>    0.0833    1.0000 </r>
       <r>    0.0995    1.0000 </r>
       <r>    0.1335    1.0000 </r>
       <r>    0.1480    1.0000 </r>
       <r>    0.1840    1.0000 </r>
       <r>    0.2119    1.0000 </r>
       <r>    0.2289    1.0000 </r>
       <r>    0.2475    1.0000 </r>
       <r>    0.2771    1.0000 </r>
       <r>    0.2827    1.0000 </r>
       <r>    0.3800    1.0000 </r>
       <r>    0.4432    1.0000 </r>
       <r>    0.4785    1.0000 </r>
       <r>    0.4857    1.0000 </r>
       <r>    0.4945    1.0000 </r>
       <r>    0.5077    1.0000 </r>
       <r>    0.5150    1.0000 </r>
       <r>    0.5333    1.0000 </r>
       <r>    0.5426    1.0000 </r>
       <r>    0.5446    1.0000 </r>
       <r>    0.5908    1.0000 </r>
       <r>    0.6090    1.0000 </r>
       <r>    0.6160    1.0000 </r>
       <r>    0.6478    1.0000 </r>
       <r>    0.6741    1.0000 </r>
       <r>    0.7171    1.0000 </r>
       <r>    0.7768    1.0000 </r>
       <r>    0.7824    1.0000 </r>
       <r>    0.8207    1.0000 </r>
       <r>    0.8228    1.0000 </r>
       <r>    0.8591    1.0000 </r>
       <r>    0.8860    1.0000 </r>
       <r>    0.8886    1.0000 </r>
       <r>    0.9210    1.0000 </r>
       <r>    0.9214    1.0000 </r>
       <r>    0.9235    1.0000 </r>
       <r>    0.9300    1.0000 </r>
       <r>    1.0131    1.0000 </r>
       <r>    1.0307    1.0000 </r>
       <r>    1.0698    1.0000 </r>
       <r>    1.0738    1.0000 </r>
       <r>    1.0798    1.0000 </r>
       <r>    1.0852    1.0000 </r>
       <r>    1.0945    1.0000 </r>
       <r>    1.1028    1.0000 </r>
       <r>    1.1404    1.0000 </r>
       <r>    1.1598    1.0000 </r>
       <r>    1.1603    1.0000 </r>
       <r>    1.1670    1.0000 </r>
       <r>    1.1687    1.0000 </r>
       <r>    1.1775    1.0000 </r>
       <r>    1.1995    1.0000 </r>
       <r>    1.2101    1.0000 </r>
       <r>    1.2225    1.0000 </r>
       <r>    1.2295    1.0000 </r>
       <r>    1.2311    1.0000 </r>
       <r>    1.3073    1.0000 </r>
       <r>    1.3149    1.0000 </r>
       <r>    1.3242    1.0000 </r>
       <r>    1.3317    1.0000 </r>
       <r>    1.3758    1.0000 </r>
       <r>    1.4030    1.0000 </r>
       <r>    1.4056    1.0000 </r>
       <r>    1.4175    1.0000 </r>
       <r>    1.4306    1.0000 </r>
       <r>    1.4465    1.0000 </r>
       <r>    1.4845    1.0000 </r>
       <r>    1.4950    1.0000 </r>
       <r>    1.4986    1.0000 </r>
       <r>    1.5431    1.0000 </r>
       <r>    1.5513    1.0000 </r>
       <r>    1.5580    1.0000 </r>
       <r>    1.5661    1.0000 </r>
       <r>    1.5697    1.0000 </r>
       <r>    1.5743    1.0000 </r>
       <r>    1.5770    1.0000 </r>
       <r>    1.5776    1.0000 </r>
       <r>    1.5843    1.0000 </r>
       <r>    1.5939    1.0000 </r>
       <r>    1.5963    1.0000 </r>
       <r>    1.8482    1.0000 </r>
       <r>    1.8843    1.0000 </r>
       <r>    1.8881    1.0000 </r>
       <r>    1.8980    1.0000 </r>
       <r>    1.9276    1.0000 </r>
       <r>    1.9414    1.0000 </r>
       <r>    1.9490    1.0000 </r>
       <r>    1.9754    1.0000 </r>
       <r>    2.1242    1.0000 </r>
       <r>    2.2016    1.0000 </r>
       <r>    4.2390    0.5162 </r>
       <r>    8.1481    0.0000 </r>
       <r>    8.2615    0.0000 </r>
       <r>    8.8462    0.0000 </r>
       <r>    8.8555    0.0000 </r>
       <r>    8.9316    0.0000 </r>
       <r>    8.9388    0.0000 </r>
       <r>    9.2425    0.0000 </r>
       <r>    9.2520    0.0000 </r>
       <r>    9.3224    0.0000 </r>
       <r>    9.3527    0.0000 </r>
       <r>   10.5450    0.0000 </r>
       <r>   10.5557    0.0000 </r>
       <r>   10.5629    0.0000 </r>
       <r>   10.6825    0.0000 </r>
       <r>   10.7004    0.0000 </r>
       <r>   10.7143    0.0000 </r>
       <r>   10.7149    0.0000 </r>
       <r>   10.7476    0.0000 </r>
       <r>   10.8367    0.0000 </r>
       <r>   10.8506    0.0000 </r>
       <r>   10.8743    0.0000 </r>
       <r>   10.9266    0.0000 </r>
       <r>   11.0945    0.0000 </r>
       <r>   11.0965    0.0000 </r>
       <r>   11.0976    0.0000 </r>
       <r>   11.2949    0.0000 </r>
       <r>   11.7006    0.0000 </r>
       <r>   11.7144    0.0000 </r>
       <r>   11.7300    0.0000 </r>
       <r>   11.8127    0.0000 </r>
       <r>   11.8282    0.0000 </r>
       <r>   11.8347    0.0000 </r>
       <r>   11.8414    0.0000 </r>
       <r>   11.8676    0.0000 </r>
       <r>   11.8728    0.0000 </r>
       <r>   11.8970    0.0000 </r>
       <r>   11.9223    0.0000 </r>
       <r>   12.0181    0.0000 </r>
       <r>   12.1733    0.0000 </r>
       <r>   12.1890    0.0000 </r>
       <r>   12.2210    0.0000 </r>
       <r>   12.2709    0.0000 </r>
       <r>   12.2730    0.0000 </r>
       <r>   12.2753    0.0000 </r>
       <r>   12.3346    0.0000 </r>
       <r>   12.3530    0.0000 </r>
       <r>   12.3974    0.0000 </r>
       <r>   12.4095    0.0000 </r>
       <r>   12.4136    0.0000 </r>
       <r>   12.4265    0.0000 </r>
       <r>   12.4349    0.0000 </r>
       <r>   12.4387    0.0000 </r>
       <r>   12.4398    0.0000 </r>
       <r>   12.4459    0.0000 </r>
       <r>   12.4556    0.0000 </r>
       <r>   12.4628    0.0000 </r>
       <r>   12.5142    0.0000 </r>
       <r>   13.0062    0.0000 </r>
       <r>   13.1950    0.0000 </r>
       <r>   13.2005    0.0000 </r>
       <r>   13.2283    0.0000 </r>
       <r>   13.2541    0.0000 </r>
       <r>   13.2665    0.0000 </r>
       <r>   13.2938    0.0000 </r>
       <r>   13.2968    0.0000 </r>
       <r>   13.3433    0.0000 </r>
       <r>   13.3522    0.0000 </r>
       <r>   13.3612    0.0000 </r>
       <r>   13.4176    0.0000 </r>
       <r>   13.6875    0.0000 </r>
       <r>   13.7473    0.0000 </r>
       <r>   13.7622    0.0000 </r>
       <r>   13.7688    0.0000 </r>
       <r>   13.9874    0.0000 </r>
       <r>   14.0013    0.0000 </r>
       <r>   14.0103    0.0000 </r>
       <r>   14.1642    0.0000 </r>
       <r>   14.1818    0.0000 </r>
       <r>   14.4056    0.0000 </r>
       <r>   14.4278    0.0000 </r>
       <r>   14.4485    0.0000 </r>
       <r>   14.4961    0.0000 </r>
       <r>   14.6678    0.0000 </r>
       <r>   14.7480    0.0000 </r>
       <r>   14.8050    0.0000 </r>
       <r>   14.8141    0.0000 </r>
       <r>   14.9429    0.0000 </r>
       <r>   14.9446    0.0000 </r>
       <r>   15.0553    0.0000 </r>
       <r>   15.1175    0.0000 </r>
       <r>   15.1355    0.0000 </r>
       <r>   15.3295    0.0000 </r>
       <r>   15.5946    0.0000 </r>
       <r>   15.7151    0.0000 </r>
       <r>   15.7806    0.0000 </r>
       <r>   15.8098    0.0000 </r>
       <r>   16.0359    0.0000 </r>
       <r>   16.2126    0.0000 </r>
       <r>   16.2607    0.0000 </r>
       <r>   16.3314    0.0000 </r>
       <r>   16.4116    0.0000 </r>
       <r>   16.5055    0.0000 </r>
       <r>   16.5563    0.0000 </r>
       <r>   16.6388    0.0000 </r>
      </set>
     </set>
    </set>
   </array>
  </eigenvalues>
  <separator name="orbital magnetization" >
   <v name="MAGDIPOLOUT">      0.00000000      0.00000000      0.00000000</v>
  </separator>
  <dos>
   <i name="efermi">      4.24051661 </i>
   <total>
    <array>
     <dimension dim="1">gridpoints</dimension>
     <dimension dim="2">spin</dimension>
     <field>energy</field>
     <field>total</field>
     <field>integrated</field>
     <set>
      <set comment="spin 1">
       <r>   -20.4724     0.0000     0.0000 </r>
       <r>   -20.3410     0.0000     0.0000 </r>
       <r>   -20.2095     0.0000     0.0000 </r>
       <r>   -20.0781     0.0000     0.0000 </r>
       <r>   -19.9467     0.0000     0.0000 </r>
       <r>   -19.8153     0.0000     0.0000 </r>
       <r>   -19.6839     0.0000     0.0000 </r>
       <r>   -19.5524     0.0000     0.0000 </r>
       <r>   -19.4210     0.0000     0.0000 </r>
       <r>   -19.2896     0.0000     0.0000 </r>
       <r>   -19.1582     0.0000     0.0000 </r>
       <r>   -19.0268     0.0000     0.0000 </r>
       <r>   -18.8953     0.0000     0.0000 </r>
       <r>   -18.7639     0.0171     0.0023 </r>
       <r>   -18.6325     2.0358     0.2698 </r>
       <r>   -18.5011    11.0037     1.7159 </r>
       <r>   -18.3696    20.3923     4.3959 </r>
       <r>   -18.2382    28.4552     8.1355 </r>
       <r>   -18.1068    26.3081    11.5930 </r>
       <r>   -17.9754    15.0145    13.5662 </r>
       <r>   -17.8440    43.3246    19.2600 </r>
       <r>   -17.7125    59.7965    27.1185 </r>
       <r>   -17.5811    64.8971    35.6474 </r>
       <r>   -17.4497   122.4854    51.7446 </r>
       <r>   -17.3183   112.6707    66.5520 </r>
       <r>   -17.1869   136.6082    84.5052 </r>
       <r>   -17.0554   117.1169    99.8969 </r>
       <r>   -16.9240   156.2289   120.4288 </r>
       <r>   -16.7926   140.2547   138.8612 </r>
       <r>   -16.6612    24.9563   142.1410 </r>
       <r>   -16.5297    14.1389   143.9992 </r>
       <r>   -16.3983     0.0062   144.0000 </r>
       <r>   -16.2669     0.0000   144.0000 </r>
       <r>   -16.1355     0.0000   144.0000 </r>
       <r>   -16.0041     0.0000   144.0000 </r>
       <r>   -15.8726     0.0000   144.0000 </r>
       <r>   -15.7412     0.0000   144.0000 </r>
       <r>   -15.6098     0.0000   144.0000 </r>
       <r>   -15.4784     0.0000   144.0000 </r>
       <r>   -15.3470     0.0000   144.0000 </r>
       <r>   -15.2155     0.0000   144.0000 </r>
       <r>   -15.0841     0.0000   144.0000 </r>
       <r>   -14.9527     0.0000   144.0000 </r>
       <r>   -14.8213     0.0000   144.0000 </r>
       <r>   -14.6898     0.0000   144.0000 </r>
       <r>   -14.5584     0.0000   144.0000 </r>
       <r>   -14.4270     0.0000   144.0000 </r>
       <r>   -14.2956     0.0000   144.0000 </r>
       <r>   -14.1642     0.0000   144.0000 </r>
       <r>   -14.0327     0.0000   144.0000 </r>
       <r>   -13.9013     0.0000   144.0000 </r>
       <r>   -13.7699     0.0000   144.0000 </r>
       <r>   -13.6385     0.0000   144.0000 </r>
       <r>   -13.5071     0.0000   144.0000 </r>
       <r>   -13.3756     0.0000   144.0000 </r>
       <r>   -13.2442     0.0000   144.0000 </r>
       <r>   -13.1128     4.7023   144.6180 </r>
       <r>   -12.9814   281.0984   181.5604 </r>
       <r>   -12.8499   689.6033   272.1891 </r>
       <r>   -12.7185   798.0482   377.0698 </r>
       <r>   -12.5871   749.3783   475.5542 </r>
       <r>   -12.4557   390.1181   526.8241 </r>
       <r>   -12.3243   128.4371   543.7035 </r>
       <r>   -12.1928   113.5305   558.6239 </r>
       <r>   -12.0614   103.5813   572.2367 </r>
       <r>   -11.9300   107.6127   586.3793 </r>
       <r>   -11.7986   122.3319   602.4563 </r>
       <r>   -11.6671    79.0313   612.8427 </r>
       <r>   -11.5357     8.7735   613.9958 </r>
       <r>   -11.4043     0.0322   614.0000 </r>
       <r>   -11.2729     0.0000   614.0000 </r>
       <r>   -11.1415     0.0000   614.0000 </r>
       <r>   -11.0100     0.0000   614.0000 </r>
       <r>   -10.8786     0.0000   614.0000 </r>
       <r>   -10.7472     0.0000   614.0000 </r>
       <r>   -10.6158     0.0000   614.0000 </r>
       <r>   -10.4844     0.0000   614.0000 </r>
       <r>   -10.3529     0.0000   614.0000 </r>
       <r>   -10.2215     0.0000   614.0000 </r>
       <r>   -10.0901     0.0000   614.0000 </r>
       <r>    -9.9587     0.0000   614.0000 </r>
       <r>    -9.8272     0.0000   614.0000 </r>
       <r>    -9.6958     0.0000   614.0000 </r>
       <r>    -9.5644     0.0000   614.0000 </r>
       <r>    -9.4330     0.0000   614.0000 </r>
       <r>    -9.3016     0.0000   614.0000 </r>
       <r>    -9.1701     0.0000   614.0000 </r>
       <r>    -9.0387     0.0000   614.0000 </r>
       <r>    -8.9073     0.0000   614.0000 </r>
       <r>    -8.7759     0.0000   614.0000 </r>
       <r>    -8.6445     0.0000   614.0000 </r>
       <r>    -8.5130     0.0000   614.0000 </r>
       <r>    -8.3816     0.0000   614.0000 </r>
       <r>    -8.2502     0.0000   614.0000 </r>
       <r>    -8.1188     0.0000   614.0000 </r>
       <r>    -7.9873     0.0000   614.0000 </r>
       <r>    -7.8559     0.0000   614.0000 </r>
       <r>    -7.7245     0.0000   614.0000 </r>
       <r>    -7.5931     0.0000   614.0000 </r>
       <r>    -7.4617     0.0000   614.0000 </r>
       <r>    -7.3302     0.0000   614.0000 </r>
       <r>    -7.1988     0.0000   614.0000 </r>
       <r>    -7.0674     0.0000   614.0000 </r>
       <r>    -6.9360     0.0000   614.0000 </r>
       <r>    -6.8046     0.0000   614.0000 </r>
       <r>    -6.6731     0.0000   614.0000 </r>
       <r>    -6.5417     0.0000   614.0000 </r>
       <r>    -6.4103     0.0000   614.0000 </r>
       <r>    -6.2789     0.0000   614.0000 </r>
       <r>    -6.1474     0.0000   614.0000 </r>
       <r>    -6.0160     0.0000   614.0000 </r>
       <r>    -5.8846     0.0000   614.0000 </r>
       <r>    -5.7532     0.0000   614.0000 </r>
       <r>    -5.6218     0.0000   614.0000 </r>
       <r>    -5.4903     0.0000   614.0000 </r>
       <r>    -5.3589     0.0000   614.0000 </r>
       <r>    -5.2275     0.3223   614.0424 </r>
       <r>    -5.0961     6.8358   614.9407 </r>
       <r>    -4.9647    14.7653   616.8812 </r>
       <r>    -4.8332    20.5098   619.5766 </r>
       <r>    -4.7018    34.1456   624.0641 </r>
       <r>    -4.5704    24.2568   627.2520 </r>
       <r>    -4.4390    46.8202   633.4051 </r>
       <r>    -4.3075    39.9757   638.6588 </r>
       <r>    -4.1761    57.7833   646.2528 </r>
       <r>    -4.0447    57.9385   653.8672 </r>
       <r>    -3.9133    43.9717   659.6460 </r>
       <r>    -3.7819    40.6364   664.9865 </r>
       <r>    -3.6504    53.1197   671.9676 </r>
       <r>    -3.5190    32.7459   676.2711 </r>
       <r>    -3.3876    29.5762   680.1580 </r>
       <r>    -3.2562    23.6219   683.2624 </r>
       <r>    -3.1248    38.5808   688.3328 </r>
       <r>    -2.9933    35.6276   693.0150 </r>
       <r>    -2.8619    43.6957   698.7576 </r>
       <r>    -2.7305    28.8034   702.5430 </r>
       <r>    -2.5991    36.3143   707.3154 </r>
       <r>    -2.4676    40.0368   712.5771 </r>
       <r>    -2.3362    34.0667   717.0542 </r>
       <r>    -2.2048    54.2403   724.1826 </r>
       <r>    -2.0734    41.3126   729.6119 </r>
       <r>    -1.9420    34.8856   734.1967 </r>
       <r>    -1.8105    62.7882   742.4484 </r>
       <r>    -1.6791    76.5654   752.5107 </r>
       <r>    -1.5477    59.7360   760.3613 </r>
       <r>    -1.4163    54.9788   767.5867 </r>
       <r>    -1.2848    69.9971   776.7858 </r>
       <r>    -1.1534    54.7980   783.9875 </r>
       <r>    -1.0220    48.2572   790.3295 </r>
       <r>    -0.8906    67.7534   799.2338 </r>
       <r>    -0.7592    70.1391   808.4515 </r>
       <r>    -0.6277    76.2589   818.4736 </r>
       <r>    -0.4963    78.8953   828.8421 </r>
       <r>    -0.3649    62.2829   837.0274 </r>
       <r>    -0.2335    71.3621   846.4060 </r>
       <r>    -0.1021    68.9092   855.4621 </r>
       <r>     0.0294    79.2601   865.8786 </r>
       <r>     0.1608    84.6572   877.0044 </r>
       <r>     0.2922    70.4148   886.2584 </r>
       <r>     0.4236    65.9815   894.9298 </r>
       <r>     0.5551    80.4056   905.4968 </r>
       <r>     0.6865    93.3847   917.7696 </r>
       <r>     0.8179    87.1829   929.2273 </r>
       <r>     0.9493    94.5065   941.6475 </r>
       <r>     1.0807    87.4710   953.1430 </r>
       <r>     1.2122   123.3079   969.3483 </r>
       <r>     1.3436   119.7524   985.0864 </r>
       <r>     1.4750   122.5897  1001.1973 </r>
       <r>     1.6064   132.6573  1018.6313 </r>
       <r>     1.7378    83.0981  1029.5522 </r>
       <r>     1.8693    46.0229  1035.6006 </r>
       <r>     2.0007    60.0388  1043.4910 </r>
       <r>     2.1321    26.7553  1047.0072 </r>
       <r>     2.2635    21.1526  1049.7871 </r>
       <r>     2.3950     1.6199  1050.0000 </r>
       <r>     2.5264     0.0000  1050.0000 </r>
       <r>     2.6578     0.0000  1050.0000 </r>
       <r>     2.7892     0.0000  1050.0000 </r>
       <r>     2.9206     0.0000  1050.0000 </r>
       <r>     3.0521     0.0000  1050.0000 </r>
       <r>     3.1835     0.0000  1050.0000 </r>
       <r>     3.3149     0.0000  1050.0000 </r>
       <r>     3.4463     0.0000  1050.0000 </r>
       <r>     3.5777     0.0000  1050.0000 </r>
       <r>     3.7092     0.0000  1050.0000 </r>
       <r>     3.8406     0.0000  1050.0000 </r>
       <r>     3.9720     0.0000  1050.0000 </r>
       <r>     4.1034     0.0008  1050.0001 </r>
       <r>     4.2349     6.6405  1050.8728 </r>
       <r>     4.3663     8.5740  1051.9996 </r>
       <r>     4.4977     0.0029  1052.0000 </r>
       <r>     4.6291     0.0000  1052.0000 </r>
       <r>     4.7605     0.0000  1052.0000 </r>
       <r>     4.8920     0.0000  1052.0000 </r>
       <r>     5.0234     0.0000  1052.0000 </r>
       <r>     5.1548     0.0000  1052.0000 </r>
       <r>     5.2862     0.0000  1052.0000 </r>
       <r>     5.4176     0.0000  1052.0000 </r>
       <r>     5.5491     0.0000  1052.0000 </r>
       <r>     5.6805     0.0000  1052.0000 </r>
       <r>     5.8119     0.0000  1052.0000 </r>
       <r>     5.9433     0.0000  1052.0000 </r>
       <r>     6.0748     0.0000  1052.0000 </r>
       <r>     6.2062     0.0000  1052.0000 </r>
       <r>     6.3376     0.0000  1052.0000 </r>
       <r>     6.4690     0.0000  1052.0000 </r>
       <r>     6.6004     0.0000  1052.0000 </r>
       <r>     6.7319     0.6715  1052.0883 </r>
       <r>     6.8633     1.2300  1052.2499 </r>
       <r>     6.9947     0.0008  1052.2500 </r>
       <r>     7.1261     0.0000  1052.2500 </r>
       <r>     7.2575     0.0000  1052.2500 </r>
       <r>     7.3890     0.0007  1052.2501 </r>
       <r>     7.5204     1.3319  1052.4251 </r>
       <r>     7.6518     4.7802  1053.0534 </r>
       <r>     7.7832     1.4959  1053.2500 </r>
       <r>     7.9147     1.5011  1053.4472 </r>
       <r>     8.0461     6.6916  1054.3266 </r>
       <r>     8.1775    13.0548  1056.0423 </r>
       <r>     8.3089     5.4105  1056.7534 </r>
       <r>     8.4403     7.1582  1057.6941 </r>
       <r>     8.5718    14.5250  1059.6030 </r>
       <r>     8.7032     4.7772  1060.2308 </r>
       <r>     8.8346     4.5803  1060.8328 </r>
       <r>     8.9660     6.9161  1061.7417 </r>
       <r>     9.0974     3.1000  1062.1491 </r>
       <r>     9.2289     5.9237  1062.9276 </r>
       <r>     9.3603    12.4097  1064.5585 </r>
       <r>     9.4917     3.7019  1065.0450 </r>
       <r>     9.6231     1.8821  1065.2924 </r>
       <r>     9.7546    11.5148  1066.8057 </r>
       <r>     9.8860    14.5528  1068.7182 </r>
       <r>    10.0174    11.2257  1070.1935 </r>
       <r>    10.1488     5.6175  1070.9318 </r>
       <r>    10.2802    16.6236  1073.1165 </r>
       <r>    10.4117    25.2306  1076.4323 </r>
       <r>    10.5431    28.0461  1080.1182 </r>
       <r>    10.6745    45.8403  1086.1426 </r>
       <r>    10.8059    40.2486  1091.4321 </r>
       <r>    10.9374    45.8222  1097.4541 </r>
       <r>    11.0688    17.4997  1099.7540 </r>
       <r>    11.2002    27.0050  1103.3030 </r>
       <r>    11.3316    33.3372  1107.6842 </r>
       <r>    11.4630    27.8275  1111.3414 </r>
       <r>    11.5945    38.3259  1116.3782 </r>
       <r>    11.7259    38.2686  1121.4075 </r>
       <r>    11.8573    35.4429  1126.0655 </r>
       <r>    11.9887    34.7849  1130.6370 </r>
       <r>    12.1201    20.2366  1133.2965 </r>
       <r>    12.2516    33.7998  1137.7385 </r>
       <r>    12.3830    42.0685  1143.2672 </r>
       <r>    12.5144    62.6166  1151.4964 </r>
       <r>    12.6458    38.9950  1156.6212 </r>
       <r>    12.7773    14.3111  1158.5020 </r>
       <r>    12.9087    18.4346  1160.9247 </r>
       <r>    13.0401    27.3440  1164.5183 </r>
       <r>    13.1715    39.7976  1169.7485 </r>
       <r>    13.3029    36.3299  1174.5231 </r>
       <r>    13.4344    46.5539  1180.6413 </r>
       <r>    13.5658    23.6702  1183.7520 </r>
       <r>    13.6972    35.1530  1188.3719 </r>
       <r>    13.8286    34.4804  1192.9034 </r>
       <r>    13.9600    20.4255  1195.5877 </r>
       <r>    14.0915    34.2670  1200.0911 </r>
       <r>    14.2229    33.5031  1204.4942 </r>
       <r>    14.3543    20.3141  1207.1639 </r>
       <r>    14.4857    31.4419  1211.2960 </r>
       <r>    14.6172    25.1934  1214.6070 </r>
       <r>    14.7486    30.6747  1218.6383 </r>
       <r>    14.8800    26.6815  1222.1448 </r>
       <r>    15.0114    22.1301  1225.0532 </r>
       <r>    15.1428    22.8284  1228.0533 </r>
       <r>    15.2743    21.1788  1230.8367 </r>
       <r>    15.4057    24.4636  1234.0517 </r>
       <r>    15.5371    22.0415  1236.9484 </r>
       <r>    15.6685    24.7084  1240.1957 </r>
       <r>    15.7999    21.5622  1243.0294 </r>
       <r>    15.9314    22.0248  1245.9239 </r>
       <r>    16.0628    15.5917  1247.9730 </r>
       <r>    16.1942    16.7787  1250.1781 </r>
       <r>    16.3256    17.1862  1252.4367 </r>
       <r>    16.4571    17.9272  1254.7928 </r>
       <r>    16.5885    12.2650  1256.4046 </r>
       <r>    16.7199    11.5321  1257.9202 </r>
       <r>    16.8513     8.8454  1259.0827 </r>
       <r>    16.9827     2.8539  1259.4577 </r>
       <r>    17.1142     2.3908  1259.7719 </r>
       <r>    17.2456     1.7182  1259.9977 </r>
       <r>    17.3770     0.0171  1260.0000 </r>
       <r>    17.5084     0.0000  1260.0000 </r>
       <r>    17.6398     0.0000  1260.0000 </r>
       <r>    17.7713     0.0000  1260.0000 </r>
       <r>    17.9027     0.0000  1260.0000 </r>
       <r>    18.0341     0.0000  1260.0000 </r>
       <r>    18.1655     0.0000  1260.0000 </r>
       <r>    18.2970     0.0000  1260.0000 </r>
       <r>    18.4284     0.0000  1260.0000 </r>
       <r>    18.5598     0.0000  1260.0000 </r>
       <r>    18.6912     0.0000  1260.0000 </r>
       <r>    18.8226     0.0000  1260.0000 </r>
       <r>    18.9541     0.0000  1260.0000 </r>
      </set>
     </set>
    </array>
   </total>
  </dos>
 </calculation>
 <structure name="finalpos" >
  <crystal>
   <varray name="basis" >
    <v>       0.00000000      12.28047371       0.00000000 </v>
    <v>       9.14270115       0.00000000       0.00000000 </v>
    <v>       0.00000000      -2.76826164     -11.30069748 </v>
   </varray>
   <i name="volume">   1268.80503319 </i>
   <varray name="rec_basis" >
    <v>       0.00000000       0.08143008      -0.01994742 </v>
    <v>       0.10937687      -0.00000000       0.00000000 </v>
    <v>       0.00000000       0.00000000      -0.08849011 </v>
   </varray>
  </crystal>
  <varray name="positions" >
   <v>       0.65933511       0.99992469       0.15695623 </v>
   <v>       0.65937998       0.99987728       0.65729100 </v>
   <v>       0.65933511       0.33340831       0.15695623 </v>
   <v>       0.65937998       0.33345572       0.65729100 </v>
   <v>       0.65926800       0.66666700       0.15696004 </v>
   <v>       0.65952166       0.66666700       0.65647166 </v>
   <v>       0.84138911       0.16666700       0.84308942 </v>
   <v>       0.84095932       0.49911865       0.34354292 </v>
   <v>       0.84139384       0.49980922       0.84325014 </v>
   <v>       0.84095932       0.83421435       0.34354292 </v>
   <v>       0.84139384       0.83352378       0.84325014 </v>
   <v>       0.59335113       0.16666700       0.39889212 </v>
   <v>       0.59111305       0.16666700       0.89790562 </v>
   <v>       0.59094508       0.49968083       0.39760616 </v>
   <v>       0.59143500       0.49998340       0.89787046 </v>
   <v>       0.59094508       0.83365217       0.39760616 </v>
   <v>       0.59143500       0.83334960       0.89787046 </v>
   <v>       0.90878482       0.00081573       0.10292679 </v>
   <v>       0.90770723       0.00182747       0.59966078 </v>
   <v>       0.90878482       0.33251727       0.10292679 </v>
   <v>       0.90770723       0.33150553       0.59966078 </v>
   <v>       0.90869164       0.66666700       0.10224521 </v>
   <v>       0.90885241       0.66666700       0.60222748 </v>
   <v>       0.15910426       0.16666700       0.15692773 </v>
   <v>       0.15883461       0.16666700       0.65628079 </v>
   <v>       0.15871359       0.49971658       0.15705583 </v>
   <v>       0.15831325       0.49961772       0.65626073 </v>
   <v>       0.15871359       0.83361642       0.15705583 </v>
   <v>       0.15831325       0.83371528       0.65626073 </v>
   <v>       0.34103684       0.00026206       0.34383363 </v>
   <v>       0.34095103       0.99992493       0.84331295 </v>
   <v>       0.34103684       0.33307094       0.34383363 </v>
   <v>       0.34095103       0.33340807       0.84331295 </v>
   <v>       0.34108935       0.66666700       0.34346174 </v>
   <v>       0.34087601       0.66666700       0.84321013 </v>
   <v>       0.08865240       0.00103678       0.39715706 </v>
   <v>       0.09117905       0.99999879       0.89762740 </v>
   <v>       0.08865240       0.33229622       0.39715706 </v>
   <v>       0.09117905       0.33333421       0.89762740 </v>
   <v>       0.09107450       0.66666700       0.39767900 </v>
   <v>       0.09124333       0.66666700       0.89791105 </v>
   <v>       0.40881263       0.16666700       0.10260885 </v>
   <v>       0.40931123       0.16666700       0.60265281 </v>
   <v>       0.40907079       0.49983594       0.10263584 </v>
   <v>       0.40916112       0.50006428       0.60264417 </v>
   <v>       0.40907079       0.83349706       0.10263584 </v>
   <v>       0.40916112       0.83326872       0.60264417 </v>
   <v>       0.99673984       0.16666700       0.12807337 </v>
   <v>       0.99663787       0.16666700       0.62885553 </v>
   <v>       0.99585171       0.49964815       0.12755070 </v>
   <v>       0.99520100       0.49892367       0.62576724 </v>
   <v>       0.99585171       0.83368485       0.12755070 </v>
   <v>       0.99520100       0.83440933       0.62576724 </v>
   <v>       0.50422907       0.00094998       0.37279404 </v>
   <v>       0.50373828       0.99987836       0.87300015 </v>
   <v>       0.50422907       0.33238302       0.37279404 </v>
   <v>       0.50373828       0.33345464       0.87300015 </v>
   <v>       0.50379808       0.66666700       0.37274611 </v>
   <v>       0.50389991       0.66666700       0.87308602 </v>
   <v>       0.67635647       0.16666700       0.28267862 </v>
   <v>       0.67281178       0.16666700       0.78100306 </v>
   <v>       0.67242306       0.49977601       0.28033811 </v>
   <v>       0.67280825       0.49994766       0.78055016 </v>
   <v>       0.67242306       0.83355699       0.28033811 </v>
   <v>       0.67280825       0.83338534       0.78055016 </v>
   <v>       0.82776377       0.00329741       0.22122266 </v>
   <v>       0.82780227       0.00005005       0.71905814 </v>
   <v>       0.82776377       0.33003559       0.22122266 </v>
   <v>       0.82780227       0.33328295       0.71905814 </v>
   <v>       0.82733828       0.66666700       0.21953855 </v>
   <v>       0.82761214       0.66666700       0.71959127 </v>
   <v>       0.83229492       0.00526569       0.44195535 </v>
   <v>       0.83242637       0.00012086       0.94598255 </v>
   <v>       0.83229492       0.32806731       0.44195535 </v>
   <v>       0.83242637       0.33321214       0.94598255 </v>
   <v>       0.83160332       0.66666700       0.44564879 </v>
   <v>       0.83230419       0.66666700       0.94556605 </v>
   <v>       0.66769468       0.16666700       0.05465023 </v>
   <v>       0.66866819       0.16666700       0.55545034 </v>
   <v>       0.66873041       0.49976989       0.05452553 </v>
   <v>       0.66851615       0.49964085       0.55407602 </v>
   <v>       0.66873041       0.83356311       0.05452553 </v>
   <v>       0.66851615       0.83369215       0.55407602 </v>
   <v>       0.49674340       0.00031223       0.12794718 </v>
   <v>       0.49666309       0.99991144       0.62752578 </v>
   <v>       0.49674340       0.33302077       0.12794718 </v>
   <v>       0.49666309       0.33342156       0.62752578 </v>
   <v>       0.49652143       0.66666700       0.12714850 </v>
   <v>       0.49682718       0.66666700       0.62731796 </v>
   <v>       0.00011513       0.16666700       0.37390335 </v>
   <v>       0.00390690       0.16666700       0.87349826 </v>
   <v>       0.00327297       0.50044312       0.37239855 </v>
   <v>       0.00384403       0.50002717       0.87259822 </v>
   <v>       0.00327297       0.83288988       0.37239855 </v>
   <v>       0.00384403       0.83330583       0.87259822 </v>
   <v>       0.17196638       0.00041264       0.28105528 </v>
   <v>       0.17266139       0.99981531       0.78041271 </v>
   <v>       0.17196638       0.33292036       0.28105528 </v>
   <v>       0.17266139       0.33351769       0.78041271 </v>
   <v>       0.17267533       0.66666700       0.28063896 </v>
   <v>       0.17205985       0.66666700       0.78013196 </v>
   <v>       0.32731338       0.16666700       0.21977794 </v>
   <v>       0.32745934       0.16666700       0.71952334 </v>
   <v>       0.32747467       0.49957306       0.21978480 </v>
   <v>       0.32727447       0.50006210       0.71943848 </v>
   <v>       0.32747467       0.83375994       0.21978480 </v>
   <v>       0.32727447       0.83327090       0.71943848 </v>
   <v>       0.33240607       0.16666700       0.44616659 </v>
   <v>       0.33228054       0.16666700       0.94591322 </v>
   <v>       0.33264240       0.50000016       0.44597541 </v>
   <v>       0.33227495       0.50004215       0.94596305 </v>
   <v>       0.33264240       0.83333284       0.44597541 </v>
   <v>       0.33227495       0.83329085       0.94596305 </v>
   <v>       0.16785484       0.99990846       0.05441913 </v>
   <v>       0.16719875       0.00021830       0.55356775 </v>
   <v>       0.16785484       0.33342454       0.05441913 </v>
   <v>       0.16719875       0.33311470       0.55356775 </v>
   <v>       0.16747908       0.66666700       0.05468882 </v>
   <v>       0.16753284       0.66666700       0.55432980 </v>
   <v>       0.83807517       0.16666700       0.33647155 </v>
  </varray>
 </structure>
</modeling>
