Ga48 O72                                
    1.000000000000000     
     0.0000000000000000   12.2804734172212839    0.0000000000000000
     9.1427020537309431    0.0000000000000000    0.0000000000000000
     0.0000000000000000   -2.7682617730220320  -11.3006977184464645
   Ga   O    N 
    48    71     1
Direct
  0.6596698596677655  0.9996579281829412  0.1565254009897572
  0.6594713544340820  0.9999423147010020  0.6569518483893120
  0.6596698596677655  0.3336754051503945  0.1565254009897572
  0.6594713544340820  0.3333910186323337  0.6569518483893120
  0.6588513875373962  0.6666666666666643  0.1564964113170859
  0.6588848798582418  0.6666666666666643  0.6572511364886040
  0.8446970533082450  0.1666666666666643  0.3465162425514663
  0.8417271557681758  0.1666666666666643  0.8442136930033470
  0.8411134118819987  0.4998637857235124  0.3431088860639306
  0.8415097010513861  0.4997035334881232  0.8437793225423249
  0.8411134118819987  0.8334695476098233  0.3431088860639306
  0.8415097010513861  0.8336297998452125  0.8437793225423249
  0.5929438191850736  0.1666666666666643  0.3971423847777729
  0.5908449497087247  0.1666666666666643  0.8975613765628694
  0.5918670713456748  0.4997195706203854  0.3977179322308118
  0.5901405632478429  0.5000004851104620  0.8970427774623033
  0.5918670713456748  0.8336137627129503  0.3977179322308118
  0.5901405632478429  0.8333328482228737  0.8970427774623033
  0.9095393680171995  0.0000869468189748  0.1039769600029175
  0.9081084517445674  0.9999973518037351  0.6004160990326781
  0.9095393680171995  0.3332463865143609  0.1039769600029175
  0.9081084517445674  0.3333359815296006  0.6004160990326781
  0.9096491688846555  0.6666666666666643  0.1031586355298799
  0.9085680757783550  0.6666666666666643  0.6015185382248660
  0.1591235502371333  0.1666666666666643  0.1591982577973852
  0.1581775102503684  0.1666666666666643  0.6521815551604391
  0.1600625744342494  0.4993309674136839  0.1579045618461166
  0.1589938482345516  0.4994128391806072  0.6557867970458844
  0.1600625744342494  0.8340023659196518  0.1579045618461166
  0.1589938482345516  0.8339204941527285  0.6557867970458844
  0.3411410156783603  0.9998231073391395  0.3439149042048228
  0.3400212267793492  0.0002485423757506  0.8427367026893435
  0.3411410156783603  0.3335102259941962  0.3439149042048228
  0.3400212267793492  0.3330847909575851  0.8427367026893435
  0.3423202985415941  0.6666666666666643  0.3432939333683223
  0.3403868460232147  0.6666666666666643  0.8432204907867273
  0.0858953435261398  0.0046157595174137  0.3962316182598400
  0.0916703430682020  0.0003871545980161  0.8981238847173358
  0.0858953435261398  0.3287175738159220  0.3962316182598400
  0.0916703430682020  0.3329461787353196  0.8981238847173358
  0.0917977892571074  0.6666666666666643  0.3980403004235811
  0.0915761375849655  0.6666666666666643  0.8983457635864127
  0.4087396589707453  0.1666666666666643  0.1024695441215826
  0.4091963089104098  0.1666666666666643  0.6027423395331724
  0.4094545096899438  0.4997418647332381  0.1022721614389823
  0.4090652071638630  0.4999182928241837  0.6029210463972987
  0.4094545096899438  0.8335914686000976  0.1022721614389823
  0.4090652071638630  0.8334150405091520  0.6029210463972987
  0.9964775552840166  0.1666666666666643  0.1201449261401422
  0.9956361268123715  0.1666666666666643  0.6299190251190936
  0.9972021970746496  0.5001410139787055  0.1271601992570197
  0.9961291361096372  0.4999617199617319  0.6271884848942051
  0.9972021970746496  0.8331923193546302  0.1271601992570197
  0.9961291361096372  0.8333716133716038  0.6271884848942051
  0.5044961346059935  0.0004589692504737  0.3728247335912371
  0.5030568716495480  0.0003005640041351  0.8723906974814852
  0.5044961346059935  0.3328743640828620  0.3728247335912371
  0.5030568716495480  0.3330327693292006  0.8723906974814852
  0.5046649325896055  0.6666666666666643  0.3731437710545507
  0.5028725624342272  0.6666666666666643  0.8719597844099809
  0.6745291464049359  0.1666666666666643  0.2803088909371283
  0.6729333060022782  0.1666666666666643  0.7809902200744574
  0.6712981447087927  0.5012736609515542  0.2794210433067335
  0.6727123156801795  0.5001428382833168  0.7809795457977629
  0.6712981447087927  0.8320596723817815  0.2794210433067335
  0.6727123156801795  0.8331904950500189  0.7809795457977629
  0.8248495233743185  0.9945735467323971  0.2170135005121026
  0.8275698297319138  0.9996318455035151  0.7195665706290413
  0.8248495233743185  0.3387597866009386  0.2170135005121026
  0.8275698297319138  0.3337014878298206  0.7195665706290413
  0.8268944048359188  0.6666666666666643  0.2188610657726215
  0.8275700983950927  0.6666666666666643  0.7195854353597397
  0.8246125799828548  0.9961329634379865  0.4465806050699896
  0.8326269130248036  0.9996570519377812  0.9462809977281097
  0.8246125799828548  0.3372003698953492  0.4465806050699896
  0.8326269130248036  0.3336762813955545  0.9462809977281097
  0.8301547231261495  0.6666666666666643  0.4455450997118646
  0.8330973683766487  0.6666666666666643  0.9461176384049566
  0.6676852534413698  0.1666666666666643  0.0537347281148328
  0.6669884725709139  0.1666666666666643  0.5548204751461157
  0.6661668138563783  0.5006474325218520  0.0531418579331628
  0.6664851771398048  0.5004991772765095  0.5549949169624497
  0.6661668138563783  0.8326859008114837  0.0531418579331628
  0.6664851771398048  0.8328341560568262  0.5549949169624497
  0.4966806674807458  0.0004286146450241  0.1268928342283573
  0.4966708912995585  0.9999994175155607  0.6284303347583347
  0.4966806674807458  0.3329047186883116  0.1268928342283573
  0.4966708912995585  0.3333339158177751  0.6284303347583347
  0.4961246002576729  0.6666666666666643  0.1263359759051781
  0.4963678053792435  0.6666666666666643  0.6286677659985500
  0.0039074947760156  0.1666666666666643  0.8722390381995311
  0.0033981812761894  0.5021589585236370  0.3736882751912773
  0.0041693739532889  0.4999329203595266  0.8730704384600543
  0.0033981812761894  0.8311743748096987  0.3736882751912773
  0.0041693739532889  0.8334004129738091  0.8730704384600543
  0.1744101807906944  0.9976229530418692  0.2808517890041315
  0.1724518826452268  0.0000474364288863  0.7803069782657701
  0.1744101807906944  0.3357103802914665  0.2808517890041315
  0.1724518826452268  0.3332858969044494  0.7803069782657701
  0.1739422904900394  0.6666666666666643  0.2811768555761773
  0.1724215792289456  0.6666666666666643  0.7805306856089302
  0.3283267768469642  0.1666666666666643  0.2200569846457867
  0.3272974485261599  0.1666666666666643  0.7194122280352389
  0.3290749840370424  0.5006415308937022  0.2198206879307776
  0.3280258797706139  0.5003058439454264  0.7203068375363699
  0.3290749840370424  0.8326918024396335  0.2198206879307776
  0.3280258797706139  0.8330274893879093  0.7203068375363699
  0.3338611810860215  0.1666666666666643  0.4461763752656935
  0.3322046536092103  0.1666666666666643  0.9457639896807706
  0.3344719942539456  0.5005761337076748  0.4461461859154809
  0.3321922818328886  0.4998141744952775  0.9458483809303857
  0.3344719942539456  0.8327571996256609  0.4461461859154809
  0.3321922818328886  0.8335191588380582  0.9458483809303857
  0.1690436965715918  0.0002826891656440  0.0545293489429497
  0.1702973574195923  0.9976276636174291  0.5540096230789828
  0.1690436965715918  0.3330506441676917  0.0545293489429497
  0.1702973574195923  0.3357056697159067  0.5540096230789828
  0.1684950700324421  0.6666666666666643  0.0549362453674433
  0.1692228421318447  0.6666666666666643  0.5547961475714800
  0.9992060010865913  0.1666666666666643  0.3697145032265325
 
  0.00000000E+00  0.00000000E+00  0.00000000E+00
  0.00000000E+00  0.00000000E+00  0.00000000E+00
  0.00000000E+00  0.00000000E+00  0.00000000E+00
  0.00000000E+00  0.00000000E+00  0.00000000E+00
  0.00000000E+00  0.00000000E+00  0.00000000E+00
  0.00000000E+00  0.00000000E+00  0.00000000E+00
  0.00000000E+00  0.00000000E+00  0.00000000E+00
  0.00000000E+00  0.00000000E+00  0.00000000E+00
  0.00000000E+00  0.00000000E+00  0.00000000E+00
  0.00000000E+00  0.00000000E+00  0.00000000E+00
  0.00000000E+00  0.00000000E+00  0.00000000E+00
  0.00000000E+00  0.00000000E+00  0.00000000E+00
  0.00000000E+00  0.00000000E+00  0.00000000E+00
  0.00000000E+00  0.00000000E+00  0.00000000E+00
  0.00000000E+00  0.00000000E+00  0.00000000E+00
  0.00000000E+00  0.00000000E+00  0.00000000E+00
  0.00000000E+00  0.00000000E+00  0.00000000E+00
  0.00000000E+00  0.00000000E+00  0.00000000E+00
  0.00000000E+00  0.00000000E+00  0.00000000E+00
  0.00000000E+00  0.00000000E+00  0.00000000E+00
  0.00000000E+00  0.00000000E+00  0.00000000E+00
  0.00000000E+00  0.00000000E+00  0.00000000E+00
  0.00000000E+00  0.00000000E+00  0.00000000E+00
  0.00000000E+00  0.00000000E+00  0.00000000E+00
  0.00000000E+00  0.00000000E+00  0.00000000E+00
  0.00000000E+00  0.00000000E+00  0.00000000E+00
  0.00000000E+00  0.00000000E+00  0.00000000E+00
  0.00000000E+00  0.00000000E+00  0.00000000E+00
  0.00000000E+00  0.00000000E+00  0.00000000E+00
  0.00000000E+00  0.00000000E+00  0.00000000E+00
  0.00000000E+00  0.00000000E+00  0.00000000E+00
  0.00000000E+00  0.00000000E+00  0.00000000E+00
  0.00000000E+00  0.00000000E+00  0.00000000E+00
  0.00000000E+00  0.00000000E+00  0.00000000E+00
  0.00000000E+00  0.00000000E+00  0.00000000E+00
  0.00000000E+00  0.00000000E+00  0.00000000E+00
  0.00000000E+00  0.00000000E+00  0.00000000E+00
  0.00000000E+00  0.00000000E+00  0.00000000E+00
  0.00000000E+00  0.00000000E+00  0.00000000E+00
  0.00000000E+00  0.00000000E+00  0.00000000E+00
  0.00000000E+00  0.00000000E+00  0.00000000E+00
  0.00000000E+00  0.00000000E+00  0.00000000E+00
  0.00000000E+00  0.00000000E+00  0.00000000E+00
  0.00000000E+00  0.00000000E+00  0.00000000E+00
  0.00000000E+00  0.00000000E+00  0.00000000E+00
  0.00000000E+00  0.00000000E+00  0.00000000E+00
  0.00000000E+00  0.00000000E+00  0.00000000E+00
  0.00000000E+00  0.00000000E+00  0.00000000E+00
  0.00000000E+00  0.00000000E+00  0.00000000E+00
  0.00000000E+00  0.00000000E+00  0.00000000E+00
  0.00000000E+00  0.00000000E+00  0.00000000E+00
  0.00000000E+00  0.00000000E+00  0.00000000E+00
  0.00000000E+00  0.00000000E+00  0.00000000E+00
  0.00000000E+00  0.00000000E+00  0.00000000E+00
  0.00000000E+00  0.00000000E+00  0.00000000E+00
  0.00000000E+00  0.00000000E+00  0.00000000E+00
  0.00000000E+00  0.00000000E+00  0.00000000E+00
  0.00000000E+00  0.00000000E+00  0.00000000E+00
  0.00000000E+00  0.00000000E+00  0.00000000E+00
  0.00000000E+00  0.00000000E+00  0.00000000E+00
  0.00000000E+00  0.00000000E+00  0.00000000E+00
  0.00000000E+00  0.00000000E+00  0.00000000E+00
  0.00000000E+00  0.00000000E+00  0.00000000E+00
  0.00000000E+00  0.00000000E+00  0.00000000E+00
  0.00000000E+00  0.00000000E+00  0.00000000E+00
  0.00000000E+00  0.00000000E+00  0.00000000E+00
  0.00000000E+00  0.00000000E+00  0.00000000E+00
  0.00000000E+00  0.00000000E+00  0.00000000E+00
  0.00000000E+00  0.00000000E+00  0.00000000E+00
  0.00000000E+00  0.00000000E+00  0.00000000E+00
  0.00000000E+00  0.00000000E+00  0.00000000E+00
  0.00000000E+00  0.00000000E+00  0.00000000E+00
  0.00000000E+00  0.00000000E+00  0.00000000E+00
  0.00000000E+00  0.00000000E+00  0.00000000E+00
  0.00000000E+00  0.00000000E+00  0.00000000E+00
  0.00000000E+00  0.00000000E+00  0.00000000E+00
  0.00000000E+00  0.00000000E+00  0.00000000E+00
  0.00000000E+00  0.00000000E+00  0.00000000E+00
  0.00000000E+00  0.00000000E+00  0.00000000E+00
  0.00000000E+00  0.00000000E+00  0.00000000E+00
  0.00000000E+00  0.00000000E+00  0.00000000E+00
  0.00000000E+00  0.00000000E+00  0.00000000E+00
  0.00000000E+00  0.00000000E+00  0.00000000E+00
  0.00000000E+00  0.00000000E+00  0.00000000E+00
  0.00000000E+00  0.00000000E+00  0.00000000E+00
  0.00000000E+00  0.00000000E+00  0.00000000E+00
  0.00000000E+00  0.00000000E+00  0.00000000E+00
  0.00000000E+00  0.00000000E+00  0.00000000E+00
  0.00000000E+00  0.00000000E+00  0.00000000E+00
  0.00000000E+00  0.00000000E+00  0.00000000E+00
  0.00000000E+00  0.00000000E+00  0.00000000E+00
  0.00000000E+00  0.00000000E+00  0.00000000E+00
  0.00000000E+00  0.00000000E+00  0.00000000E+00
  0.00000000E+00  0.00000000E+00  0.00000000E+00
  0.00000000E+00  0.00000000E+00  0.00000000E+00
  0.00000000E+00  0.00000000E+00  0.00000000E+00
  0.00000000E+00  0.00000000E+00  0.00000000E+00
  0.00000000E+00  0.00000000E+00  0.00000000E+00
  0.00000000E+00  0.00000000E+00  0.00000000E+00
  0.00000000E+00  0.00000000E+00  0.00000000E+00
  0.00000000E+00  0.00000000E+00  0.00000000E+00
  0.00000000E+00  0.00000000E+00  0.00000000E+00
  0.00000000E+00  0.00000000E+00  0.00000000E+00
  0.00000000E+00  0.00000000E+00  0.00000000E+00
  0.00000000E+00  0.00000000E+00  0.00000000E+00
  0.00000000E+00  0.00000000E+00  0.00000000E+00
  0.00000000E+00  0.00000000E+00  0.00000000E+00
  0.00000000E+00  0.00000000E+00  0.00000000E+00
  0.00000000E+00  0.00000000E+00  0.00000000E+00
  0.00000000E+00  0.00000000E+00  0.00000000E+00
  0.00000000E+00  0.00000000E+00  0.00000000E+00
  0.00000000E+00  0.00000000E+00  0.00000000E+00
  0.00000000E+00  0.00000000E+00  0.00000000E+00
  0.00000000E+00  0.00000000E+00  0.00000000E+00
  0.00000000E+00  0.00000000E+00  0.00000000E+00
  0.00000000E+00  0.00000000E+00  0.00000000E+00
  0.00000000E+00  0.00000000E+00  0.00000000E+00
  0.00000000E+00  0.00000000E+00  0.00000000E+00
  0.00000000E+00  0.00000000E+00  0.00000000E+00
  0.00000000E+00  0.00000000E+00  0.00000000E+00
