 running    4 mpi-ranks, on    1 nodes
 distrk:  each k-point on    1 cores,    4 groups
 distr:  one band on    1 cores,    1 groups
 OpenACC runtime initialized ...    4 GPUs detected
 vasp.6.4.2 20Jul23 (build Nov 12 2023 22:16:35) complex                         
 POSCAR found type information on POSCAR GaO CuN 
 POSCAR found :  4 types and     120 ions
 scaLAPACK will be used selectively (only on CPU)
 LDA part: xc-table for Pade appr. of Perdew
 POSCAR, INCAR and KPOINTS ok, starting setup
 FFT: planning ... GRIDC
 FFT: planning ... GRID_SOFT
 FFT: planning ... GRID
 WAVECAR not read
 initial charge from wavefunction
 entering main loop
       N       E                     dE             d eps       ncg     rms          ort
DAV:   1    -0.183750923852E+05   -0.18375E+05   -0.54626E+05  5056   0.743E+03
DAV:   2    -0.623491156195E+05   -0.43974E+05   -0.42676E+05  5056   0.120E+03
DAV:   3    -0.668728506255E+05   -0.45237E+04   -0.40492E+04  5056   0.351E+02
DAV:   4    -0.674084811930E+05   -0.53563E+03   -0.45520E+03  5056   0.103E+02
DAV:   5    -0.373472706772E+05    0.30061E+05   -0.71088E+02  5056   0.533E+01
 gam= 0.000 g(H,U,f)=  0.674E+05 0.309E+05 0.476E+04 ort(H,U,f) = 0.000E+00 0.000E+00 0.000E+00
SDA:   6     0.182334454357E+05    0.55581E+05   -0.71088E+02  5056   0.103E+06 0.000E+00
 gam= 0.000 trial= 0.400  step= 0.275 mean= 0.400
 gam= 0.179 g(H,U,f)=  0.141E+05 0.367E+04 0.678E+03 ort(H,U,f) = 0.113E+05-0.237E+04-0.919E+03
CGA:   7     0.425526163017E+04   -0.13978E+05   -0.14183E+05  5056   0.184E+05 0.798E+04
 gam= 0.179 trial= 0.394  step= 0.207 mean= 0.394
 gam= 0.000 g(H,U,f)=  0.524E+04 0.682E+04 0.302E+04 ort(H,U,f) = 0.198E+04-0.102E+05-0.551E+04
CGA:   8     0.147996049398E+04   -0.27753E+04   -0.20586E+04  5056   0.151E+05-0.137E+05
 gam= 0.000 trial= 0.384  step= 0.162 mean= 0.384
 gam= 0.000 g(H,U,f)=  0.275E+04 0.111E+05 0.212E+04 ort(H,U,f) = 0.688E+03-0.949E+04-0.226E+04
CGA:   9     0.970587945552E+03   -0.50937E+03   -0.12216E+04  5056   0.159E+05-0.111E+05
 gam= 0.000 trial= 0.373  step= 0.153 mean= 0.373
 gam= 0.469 g(H,U,f)=  0.219E+04 0.501E+04 0.282E+03 ort(H,U,f) =-0.131E+03-0.399E+04-0.280E+03
CGA:  10     0.593223020019E+03   -0.37736E+03   -0.12192E+04  5056   0.748E+04-0.440E+04
 gam= 0.469 trial= 0.362  step= 0.243 mean= 0.362
 gam= 0.512 g(H,U,f)=  0.893E+03 0.277E+04 0.162E+03 ort(H,U,f) = 0.184E+03-0.651E+03-0.870E+02
CGA:  11    -0.227229362234E+02   -0.61595E+03   -0.65812E+03  5056   0.383E+04-0.554E+03
 gam= 0.512 trial= 0.356  step= 0.285 mean= 0.356
 gam= 0.656 g(H,U,f)=  0.726E+03 0.169E+04 0.919E+02 ort(H,U,f) = 0.868E+02 0.942E+02 0.291E+01
CGA:  12    -0.489089215638E+03   -0.46637E+03   -0.50439E+03  5056   0.251E+04 0.184E+03
 gam= 0.656 trial= 0.353  step= 0.256 mean= 0.353
 gam= 0.145 g(H,U,f)=  0.232E+03 0.130E+03 0.228E+01 ort(H,U,f) = 0.159E+03 0.192E+03 0.194E+01
CGA:  13    -0.760778447142E+03   -0.27169E+03   -0.33752E+03  5056   0.364E+03 0.353E+03
 gam= 0.145 trial= 0.348  step= 0.467 mean= 0.348
 gam= 0.278 g(H,U,f)=  0.590E+02 0.406E+02 0.177E+01 ort(H,U,f) =-0.341E+01 0.454E+02 0.215E+00
CGA:  14    -0.861382447105E+03   -0.10060E+03   -0.97068E+02  5056   0.101E+03 0.422E+02
 gam= 0.278 trial= 0.354  step= 0.883 mean= 0.354
 gam= 0.620 g(H,U,f)=  0.490E+02 0.127E+02 0.104E+01 ort(H,U,f) =-0.219E+02 0.157E+02 0.202E+01
CGA:  15    -0.910834858382E+03   -0.49452E+02   -0.49917E+02  5056   0.628E+02-0.420E+01
 gam= 0.620 trial= 0.380  step= 0.758 mean= 0.380
 gam= 0.601 g(H,U,f)=  0.340E+02 0.376E+01 0.589E-14 ort(H,U,f) =-0.119E+02 0.507E+01-0.607E-13
CGA:  16    -0.931029633857E+03   -0.20195E+02   -0.22816E+02  5056   0.378E+02-0.682E+01
 gam= 0.601 trial= 0.399  step= 0.335 mean= 0.399
 gam= 0.589 g(H,U,f)=  0.213E+02 0.986E+00 0.146E-01 ort(H,U,f) =-0.168E+01 0.691E+00 0.518E-02
CGA:  17    -0.936773551139E+03   -0.57439E+01   -0.56417E+01  5056   0.223E+02-0.989E+00
 gam= 0.589 trial= 0.396  step= 0.453 mean= 0.396
 gam= 0.335 g(H,U,f)=  0.652E+01 0.945E+00 0.269E-02 ort(H,U,f) =-0.344E+01 0.561E+00 0.298E-02
CGA:  18    -0.941529876519E+03   -0.47563E+01   -0.49054E+01  5056   0.746E+01-0.288E+01
 gam= 0.335 trial= 0.399  step= 0.615 mean= 0.399
 gam= 1.089 g(H,U,f)=  0.580E+01 0.233E+01 0.217E-21 ort(H,U,f) =-0.350E-01-0.145E+01 0.344E-22
CGA:  19    -0.943348082454E+03   -0.18182E+01   -0.19993E+01  5056   0.813E+01-0.148E+01
 gam= 1.089 trial= 0.410  step= 0.303 mean= 0.410
 gam= 0.453 g(H,U,f)=  0.260E+01 0.108E+01 0.310E-14 ort(H,U,f) =-0.393E+00 0.519E+00-0.403E-14
CGA:  20    -0.944311508426E+03   -0.96343E+00   -0.98612E+00  5056   0.368E+01 0.126E+00
 gam= 0.453 trial= 0.404  step= 0.441 mean= 0.404
 gam= 1.034 g(H,U,f)=  0.312E+01 0.690E+00 0.745E-15 ort(H,U,f) =-0.863E+00 0.865E+00-0.240E-15
CGA:  21    -0.945139335907E+03   -0.82783E+00   -0.82428E+00  5056   0.381E+01 0.245E-02
 gam= 1.034 trial= 0.406  step= 0.365 mean= 0.406
 gam= 0.549 g(H,U,f)=  0.157E+01 0.526E+00 0.485E-17 ort(H,U,f) =-0.850E+00 0.615E+00 0.228E-16
CGA:  22    -0.945845950859E+03   -0.70661E+00   -0.69494E+00  5056   0.209E+01-0.236E+00
 gam= 0.549 trial= 0.404  step= 0.469 mean= 0.404
 gam= 1.048 g(H,U,f)=  0.156E+01 0.629E+00 0.472E-15 ort(H,U,f) =-0.508E+00 0.500E+00 0.223E-14
CGA:  23    -0.946304082686E+03   -0.45813E+00   -0.46048E+00  5056   0.219E+01-0.850E-02
 gam= 1.048 trial= 0.407  step= 0.264 mean= 0.407
 gam= 0.481 g(H,U,f)=  0.807E+00 0.249E+00 0.724E-15 ort(H,U,f) =-0.218E+00 0.247E+00-0.499E-14
CGA:  24    -0.946598105772E+03   -0.29402E+00   -0.28798E+00  5056   0.106E+01 0.290E-01
 gam= 0.481 trial= 0.400  step= 0.360 mean= 0.400
 gam= 1.020 g(H,U,f)=  0.723E+00 0.355E+00 0.187E-12 ort(H,U,f) = 0.545E-03-0.349E-02-0.389E-12
CGA:  25    -0.946791040850E+03   -0.19294E+00   -0.19253E+00  5056   0.108E+01-0.295E-02
 gam= 1.020 trial= 0.398  step= 0.295 mean= 0.398
 gam= 0.615 g(H,U,f)=  0.442E+00 0.221E+00 0.247E-13 ort(H,U,f) =-0.738E-01 0.934E-01-0.295E-13
CGA:  26    -0.946948738055E+03   -0.15770E+00   -0.15853E+00  5056   0.663E+00 0.196E-01
 gam= 0.615 trial= 0.393  step= 0.304 mean= 0.393
 gam= 0.908 g(H,U,f)=  0.437E+00 0.165E+00 0.365E-12 ort(H,U,f) =-0.106E+00 0.124E+00 0.689E-13
CGA:  27    -0.947050739831E+03   -0.10200E+00   -0.10256E+00  5056   0.602E+00 0.182E-01
 gam= 0.908 trial= 0.389  step= 0.356 mean= 0.389
 gam= 0.821 g(H,U,f)=  0.359E+00 0.135E+00 0.622E-19 ort(H,U,f) =-0.131E+00 0.151E+00 0.722E-19
CGA:  28    -0.947160313652E+03   -0.10957E+00   -0.10994E+00  5056   0.494E+00 0.202E-01
 gam= 0.821 trial= 0.387  step= 0.305 mean= 0.387
 gam= 0.797 g(H,U,f)=  0.311E+00 0.829E-01 0.603E-19 ort(H,U,f) =-0.161E+00 0.172E+00 0.153E-18
CGA:  29    -0.947237143193E+03   -0.76830E-01   -0.77794E-01  5056   0.394E+00 0.108E-01
 gam= 0.797 trial= 0.383  step= 0.403 mean= 0.383
 gam= 0.941 g(H,U,f)=  0.316E+00 0.545E-01 0.110E-11 ort(H,U,f) =-0.119E+00 0.123E+00-0.141E-11
CGA:  30    -0.947318289662E+03   -0.81146E-01   -0.81057E-01  5056   0.371E+00 0.419E-02
 gam= 0.941 trial= 0.384  step= 0.268 mean= 0.384
 gam= 0.594 g(H,U,f)=  0.189E+00 0.313E-01 0.112E-13 ort(H,U,f) =-0.501E-01 0.487E-01-0.341E-12
CGA:  31    -0.947369115383E+03   -0.50826E-01   -0.50138E-01  5056   0.220E+00-0.137E-02
 gam= 0.594 trial= 0.378  step= 0.351 mean= 0.378
 gam= 0.859 g(H,U,f)=  0.148E+00 0.410E-01 0.183E-13 ort(H,U,f) = 0.367E-02-0.550E-02-0.137E-13
CGA:  32    -0.947407644866E+03   -0.38529E-01   -0.38467E-01  5056   0.189E+00-0.183E-02
 gam= 0.859 trial= 0.377  step= 0.283 mean= 0.377
 gam= 0.533 g(H,U,f)=  0.759E-01 0.247E-01 0.743E-13 ort(H,U,f) = 0.487E-04 0.273E-03-0.183E-12
CGA:  33    -0.947434111509E+03   -0.26467E-01   -0.26538E-01  5056   0.101E+00 0.322E-03
 gam= 0.533 trial= 0.372  step= 0.353 mean= 0.372
 gam= 0.914 g(H,U,f)=  0.755E-01 0.165E-01 0.260E-15 ort(H,U,f) =-0.395E-02 0.403E-02 0.393E-15
CGA:  34    -0.947451879358E+03   -0.17768E-01   -0.17772E-01  5056   0.920E-01 0.765E-04
 gam= 0.914 trial= 0.371  step= 0.342 mean= 0.371
 gam= 0.637 g(H,U,f)=  0.474E-01 0.112E-01 0.861E-12 ort(H,U,f) =-0.132E-02 0.117E-02 0.739E-12
CGA:  35    -0.947467641674E+03   -0.15762E-01   -0.15756E-01  5056   0.586E-01-0.149E-03
 gam= 0.637 trial= 0.370  step= 0.292 mean= 0.370
 gam= 0.788 g(H,U,f)=  0.325E-01 0.137E-01 0.143E-13 ort(H,U,f) =-0.383E-02 0.394E-02 0.255E-13
CGA:  36    -0.947476178140E+03   -0.85365E-02   -0.85334E-02  5056   0.462E-01 0.110E-03
 gam= 0.788 trial= 0.366  step= 0.353 mean= 0.366
 gam= 0.763 g(H,U,f)=  0.256E-01 0.962E-02 0.996E-17 ort(H,U,f) =-0.655E-02 0.668E-02 0.286E-16
CGA:  37    -0.947484344026E+03   -0.81659E-02   -0.81669E-02  5056   0.352E-01 0.131E-03
 gam= 0.763 trial= 0.365  step= 0.275 mean= 0.365
 gam= 0.660 g(H,U,f)=  0.171E-01 0.616E-02 0.880E-20 ort(H,U,f) =-0.212E-02 0.210E-02 0.362E-19
CGA:  38    -0.947489207863E+03   -0.48638E-02   -0.48631E-02  5056   0.232E-01-0.160E-04
 gam= 0.660 trial= 0.361  step= 0.359 mean= 0.361
 gam= 0.926 g(H,U,f)=  0.152E-01 0.635E-02 0.394E-15 ort(H,U,f) =-0.133E-02 0.130E-02-0.407E-14
CGA:  39    -0.947493376223E+03   -0.41684E-02   -0.41683E-02  5056   0.215E-01-0.306E-04
 gam= 0.926 trial= 0.361  step= 0.274 mean= 0.361
 gam= 0.000 g(H,U,f)=  0.946E-02 0.325E-02 0.361E-15 ort(H,U,f) =-0.345E-02 0.346E-02-0.186E-14
SDA:  40    -0.947496320405E+03   -0.29442E-02   -0.29423E-02  5056   0.127E-01 0.673E-05
 gam= 0.000 trial= 0.356  step= 0.994 mean= 0.356
 gam= 0.516 g(H,U,f)=  0.481E-02 0.175E-02 0.125E-15 ort(H,U,f) =-0.192E-02 0.191E-02 0.213E-15
CGA:  41    -0.947502639046E+03   -0.63186E-02   -0.63198E-02  5056   0.656E-02-0.333E-05
 gam= 0.516 trial= 0.388  step= 0.745 mean= 0.388
 gam= 0.716 g(H,U,f)=  0.364E-02 0.106E-02 0.348E-14 ort(H,U,f) =-0.175E-02 0.175E-02 0.141E-13
CGA:  42    -0.947505082513E+03   -0.24435E-02   -0.24432E-02  5056   0.469E-02 0.912E-06
 gam= 0.716 trial= 0.406  step= 0.439 mean= 0.406
 gam= 0.475 g(H,U,f)=  0.164E-02 0.589E-03 0.125E-21 ort(H,U,f) =-0.931E-03 0.919E-03-0.395E-21
CGA:  43    -0.947506113149E+03   -0.10306E-02   -0.10309E-02  5056   0.223E-02-0.121E-04
 gam= 0.475 trial= 0.408  step= 0.598 mean= 0.408
 gam= 0.565 g(H,U,f)=  0.104E-02 0.225E-03 0.467E-19 ort(H,U,f) =-0.571E-03 0.575E-03-0.182E-19
CGA:  44    -0.947506778767E+03   -0.66562E-03   -0.66502E-03  5056   0.126E-02 0.427E-05
 gam= 0.565 trial= 0.417  step= 0.631 mean= 0.417
 gam= 0.479 g(H,U,f)=  0.477E-03 0.126E-03 0.366E-17 ort(H,U,f) =-0.320E-03 0.312E-03 0.392E-17
CGA:  45    -0.947507176071E+03   -0.39730E-03   -0.39824E-03  5056   0.603E-03-0.835E-05
 gam= 0.479 trial= 0.428  step= 0.778 mean= 0.428
 gam= 0.642 g(H,U,f)=  0.322E-03 0.655E-04 0.216E-15 ort(H,U,f) =-0.152E-03 0.153E-03 0.643E-15
CGA:  46    -0.947507409332E+03   -0.23326E-03   -0.23319E-03  5056   0.387E-03 0.525E-06
 gam= 0.642 trial= 0.445  step= 0.689 mean= 0.445
 gam= 0.563 g(H,U,f)=  0.183E-03 0.353E-04 0.968E-17 ort(H,U,f) =-0.935E-04 0.961E-04 0.143E-16
CGA:  47    -0.947507543164E+03   -0.13383E-03   -0.13352E-03  5056   0.218E-03 0.255E-05
 gam= 0.563 trial= 0.458  step= 0.614 mean= 0.458
 gam= 0.502 g(H,U,f)=  0.900E-04 0.195E-04 0.271E-24 ort(H,U,f) =-0.501E-04 0.515E-04 0.101E-23
CGA:  48    -0.947507610703E+03   -0.67539E-04   -0.67427E-04  5056   0.110E-03 0.138E-05
 gam= 0.502 trial= 0.465  step= 0.682 mean= 0.465
 gam= 0.548 g(H,U,f)=  0.511E-04 0.895E-05 0.234E-23 ort(H,U,f) =-0.250E-04 0.253E-04 0.702E-22
CGA:  49    -0.947507648337E+03   -0.37634E-04   -0.37599E-04  5056   0.600E-04 0.316E-06
 gam= 0.548 trial= 0.476  step= 0.615 mean= 0.476
 gam= 0.512 g(H,U,f)=  0.258E-04 0.486E-05 0.210E-19 ort(H,U,f) =-0.126E-04 0.128E-04-0.780E-19
CGA:  50    -0.947507666848E+03   -0.18510E-04   -0.18497E-04  5056   0.307E-04 0.198E-06
 gam= 0.512 trial= 0.483  step= 0.667 mean= 0.483
 gam= 0.578 g(H,U,f)=  0.154E-04 0.241E-05 0.739E-17 ort(H,U,f) =-0.633E-05 0.632E-05-0.717E-17
CGA:  51    -0.947507677117E+03   -0.10269E-04   -0.10270E-04  5056   0.178E-04-0.944E-08
 gam= 0.578 trial= 0.492  step= 0.575 mean= 0.492
 gam= 0.532 g(H,U,f)=  0.818E-05 0.128E-05 0.232E-17 ort(H,U,f) =-0.388E-05 0.348E-05-0.119E-17
CGA:  52    -0.947507682204E+03   -0.50870E-05   -0.51036E-05  5056   0.946E-05-0.399E-06
 gam= 0.532 trial= 0.496  step= 0.586 mean= 0.496
 final diagonalization
   1 F= -.94750768E+03 E0= -.94750768E+03  d E =-.138172E-10
 writing wavefunctions
Warning: ieee_invalid is signaling
Warning: ieee_divide_by_zero is signaling
Warning: ieee_underflow is signaling
Warning: ieee_inexact is signaling
FORTRAN STOP
Warning: ieee_invalid is signaling
Warning: ieee_divide_by_zero is signaling
Warning: ieee_underflow is signaling
Warning: ieee_inexact is signaling
FORTRAN STOP
Warning: ieee_invalid is signaling
Warning: ieee_divide_by_zero is signaling
Warning: ieee_underflow is signaling
Warning: ieee_inexact is signaling
FORTRAN STOP
Warning: ieee_invalid is signaling
Warning: ieee_divide_by_zero is signaling
Warning: ieee_underflow is signaling
Warning: ieee_inexact is signaling
FORTRAN STOP
