       N       E                     dE             d eps       ncg     rms          ort
DAV:   1    -0.183750923852E+05   -0.18375E+05   -0.54626E+05  5056   0.743E+03
DAV:   2    -0.623491156195E+05   -0.43974E+05   -0.42676E+05  5056   0.120E+03
DAV:   3    -0.668728506255E+05   -0.45237E+04   -0.40492E+04  5056   0.351E+02
DAV:   4    -0.674084811930E+05   -0.53563E+03   -0.45520E+03  5056   0.103E+02
DAV:   5    -0.373472706772E+05    0.30061E+05   -0.71088E+02  5056   0.533E+01
SDA:   6     0.182334454357E+05    0.55581E+05   -0.71088E+02  5056   0.103E+06 0.000E+00
CGA:   7     0.425526163017E+04   -0.13978E+05   -0.14183E+05  5056   0.184E+05 0.798E+04
CGA:   8     0.147996049398E+04   -0.27753E+04   -0.20586E+04  5056   0.151E+05-0.137E+05
CGA:   9     0.970587945552E+03   -0.50937E+03   -0.12216E+04  5056   0.159E+05-0.111E+05
CGA:  10     0.593223020019E+03   -0.37736E+03   -0.12192E+04  5056   0.748E+04-0.440E+04
CGA:  11    -0.227229362234E+02   -0.61595E+03   -0.65812E+03  5056   0.383E+04-0.554E+03
CGA:  12    -0.489089215638E+03   -0.46637E+03   -0.50439E+03  5056   0.251E+04 0.184E+03
CGA:  13    -0.760778447142E+03   -0.27169E+03   -0.33752E+03  5056   0.364E+03 0.353E+03
CGA:  14    -0.861382447105E+03   -0.10060E+03   -0.97068E+02  5056   0.101E+03 0.422E+02
CGA:  15    -0.910834858382E+03   -0.49452E+02   -0.49917E+02  5056   0.628E+02-0.420E+01
CGA:  16    -0.931029633857E+03   -0.20195E+02   -0.22816E+02  5056   0.378E+02-0.682E+01
CGA:  17    -0.936773551139E+03   -0.57439E+01   -0.56417E+01  5056   0.223E+02-0.989E+00
CGA:  18    -0.941529876519E+03   -0.47563E+01   -0.49054E+01  5056   0.746E+01-0.288E+01
CGA:  19    -0.943348082454E+03   -0.18182E+01   -0.19993E+01  5056   0.813E+01-0.148E+01
CGA:  20    -0.944311508426E+03   -0.96343E+00   -0.98612E+00  5056   0.368E+01 0.126E+00
CGA:  21    -0.945139335907E+03   -0.82783E+00   -0.82428E+00  5056   0.381E+01 0.245E-02
CGA:  22    -0.945845950859E+03   -0.70661E+00   -0.69494E+00  5056   0.209E+01-0.236E+00
CGA:  23    -0.946304082686E+03   -0.45813E+00   -0.46048E+00  5056   0.219E+01-0.850E-02
CGA:  24    -0.946598105772E+03   -0.29402E+00   -0.28798E+00  5056   0.106E+01 0.290E-01
CGA:  25    -0.946791040850E+03   -0.19294E+00   -0.19253E+00  5056   0.108E+01-0.295E-02
CGA:  26    -0.946948738055E+03   -0.15770E+00   -0.15853E+00  5056   0.663E+00 0.196E-01
CGA:  27    -0.947050739831E+03   -0.10200E+00   -0.10256E+00  5056   0.602E+00 0.182E-01
CGA:  28    -0.947160313652E+03   -0.10957E+00   -0.10994E+00  5056   0.494E+00 0.202E-01
CGA:  29    -0.947237143193E+03   -0.76830E-01   -0.77794E-01  5056   0.394E+00 0.108E-01
CGA:  30    -0.947318289662E+03   -0.81146E-01   -0.81057E-01  5056   0.371E+00 0.419E-02
CGA:  31    -0.947369115383E+03   -0.50826E-01   -0.50138E-01  5056   0.220E+00-0.137E-02
CGA:  32    -0.947407644866E+03   -0.38529E-01   -0.38467E-01  5056   0.189E+00-0.183E-02
CGA:  33    -0.947434111509E+03   -0.26467E-01   -0.26538E-01  5056   0.101E+00 0.322E-03
CGA:  34    -0.947451879358E+03   -0.17768E-01   -0.17772E-01  5056   0.920E-01 0.765E-04
CGA:  35    -0.947467641674E+03   -0.15762E-01   -0.15756E-01  5056   0.586E-01-0.149E-03
CGA:  36    -0.947476178140E+03   -0.85365E-02   -0.85334E-02  5056   0.462E-01 0.110E-03
CGA:  37    -0.947484344026E+03   -0.81659E-02   -0.81669E-02  5056   0.352E-01 0.131E-03
CGA:  38    -0.947489207863E+03   -0.48638E-02   -0.48631E-02  5056   0.232E-01-0.160E-04
CGA:  39    -0.947493376223E+03   -0.41684E-02   -0.41683E-02  5056   0.215E-01-0.306E-04
SDA:  40    -0.947496320405E+03   -0.29442E-02   -0.29423E-02  5056   0.127E-01 0.673E-05
CGA:  41    -0.947502639046E+03   -0.63186E-02   -0.63198E-02  5056   0.656E-02-0.333E-05
CGA:  42    -0.947505082513E+03   -0.24435E-02   -0.24432E-02  5056   0.469E-02 0.912E-06
CGA:  43    -0.947506113149E+03   -0.10306E-02   -0.10309E-02  5056   0.223E-02-0.121E-04
CGA:  44    -0.947506778767E+03   -0.66562E-03   -0.66502E-03  5056   0.126E-02 0.427E-05
CGA:  45    -0.947507176071E+03   -0.39730E-03   -0.39824E-03  5056   0.603E-03-0.835E-05
CGA:  46    -0.947507409332E+03   -0.23326E-03   -0.23319E-03  5056   0.387E-03 0.525E-06
CGA:  47    -0.947507543164E+03   -0.13383E-03   -0.13352E-03  5056   0.218E-03 0.255E-05
CGA:  48    -0.947507610703E+03   -0.67539E-04   -0.67427E-04  5056   0.110E-03 0.138E-05
CGA:  49    -0.947507648337E+03   -0.37634E-04   -0.37599E-04  5056   0.600E-04 0.316E-06
CGA:  50    -0.947507666848E+03   -0.18510E-04   -0.18497E-04  5056   0.307E-04 0.198E-06
CGA:  51    -0.947507677117E+03   -0.10269E-04   -0.10270E-04  5056   0.178E-04-0.944E-08
CGA:  52    -0.947507682204E+03   -0.50870E-05   -0.51036E-05  5056   0.946E-05-0.399E-06
   1 F= -.94750768E+03 E0= -.94750768E+03  d E =-.138172E-10
