Ga48 O72                                
    1.000000000000000     
     0.0000000000000000   12.2804734172212839    0.0000000000000000
     9.1427020537309431    0.0000000000000000    0.0000000000000000
     0.0000000000000000   -2.7682617730220320  -11.3006977184464645
   Ga   O    P 
    47    71     1
Direct
  0.6632135696904840  0.9934060993037406  0.1524518088374904
  0.6595500005178039  0.9991960458537079  0.6587601110841845
  0.6632135696904840  0.3399272340295951  0.1524518088374904
  0.6595500005178039  0.3341372874796278  0.6587601110841845
  0.6600642072681140  0.6666666666666643  0.1558749508388857
  0.6608740392303858  0.6666666666666643  0.6553327524324004
  0.8418790138262011  0.1666666666666643  0.8460158692153783
  0.8455569693926321  0.5009306902819759  0.3353299785957233
  0.8426619576912628  0.4998879065373245  0.8437765158551258
  0.8455569693926321  0.8324026430513598  0.3353299785957233
  0.8426619576912628  0.8334454267960112  0.8437765158551258
  0.5900183622069903  0.1666666666666643  0.4028292639541959
  0.5919883666631449  0.1666666666666643  0.8999995095694189
  0.5927090692428578  0.5003592087613669  0.3974395536538253
  0.5893013474129631  0.5013039229335234  0.8941116555760402
  0.5927090692428578  0.8329741245719688  0.3974395536538253
  0.5893013474129631  0.8320294103998123  0.8941116555760402
  0.9122003521839375  0.9987442228120855  0.1036404224366478
  0.9113305886804568  0.0010240605669622  0.6073391474107694
  0.9122003521839375  0.3345891105212502  0.1036404224366478
  0.9113305886804568  0.3323092727663735  0.6073391474107694
  0.9122391130875229  0.6666666666666643  0.0996171814519755
  0.9084150643074693  0.6666666666666643  0.6001134581068044
  0.1622599457265324  0.1666666666666643  0.1585661513054504
  0.1630991330581253  0.1666666666666643  0.6561485302001415
  0.1616375143290583  0.4995477123348522  0.1583642973328239
  0.1593544732689125  0.4989669535664092  0.6535196206681135
  0.1616375143290583  0.8337856209984835  0.1583642973328239
  0.1593544732689125  0.8343663797669265  0.6535196206681135
  0.3410893607870094  0.9994497442662436  0.3438522038402994
  0.3415151644500511  0.9999159971852123  0.8439257043885888
  0.3410893607870094  0.3338835890670921  0.3438522038402994
  0.3415151644500511  0.3334173361481234  0.8439257043885888
  0.3421392862018848  0.6666666666666643  0.3441114236771696
  0.3396809623302062  0.6666666666666643  0.8429424046480776
  0.0872143757211035  0.0311966533723904  0.3958229033725758
  0.0925486424069533  0.0000713973834081  0.8982592220721841
  0.0872143757211035  0.3021366799609453  0.3958229033725758
  0.0925486424069533  0.3332619359499276  0.8982592220721841
  0.0874352768433440  0.6666666666666643  0.3955464028856355
  0.0927324999152503  0.6666666666666643  0.8983222519245047
  0.4129521564076768  0.1666666666666643  0.1039634361370076
  0.4106237087666713  0.1666666666666643  0.6035013738564956
  0.4118541916620728  0.4992346850290801  0.1034985394770800
  0.4099175782682991  0.5005738726889533  0.6029529252907793
  0.4118541916620728  0.8340986483042556  0.1034985394770800
  0.4099175782682991  0.8327594606443824  0.6029529252907793
  0.9977467912418376  0.1666666666666643  0.1376020416841328
  0.9982754883795621  0.1666666666666643  0.6227640310785318
  0.9996321469041192  0.5010292454314254  0.1253198107421412
  0.9950125728829278  0.4992766148139083  0.6246946641167099
  0.9996321469041192  0.8323040879019103  0.1253198107421412
  0.9950125728829278  0.8340567185194274  0.6246946641167099
  0.5055332513011379  0.9999160909255664  0.3720262965594827
  0.5045876065264068  0.0004592922317812  0.8736744489485986
  0.5055332513011379  0.3334172424077693  0.3720262965594827
  0.5045876065264068  0.3328740411015545  0.8736744489485986
  0.5055689737987024  0.6666666666666643  0.3732139079017642
  0.5016228549871613  0.6666666666666643  0.8683890541086896
  0.6912530133741797  0.1666666666666643  0.2984664340873380
  0.6739946837725483  0.1666666666666643  0.7836409994022588
  0.6755834019308224  0.5009232114901678  0.2817027275970361
  0.6739507838320620  0.5001519731802802  0.7800021618667117
  0.6755834019308224  0.8324101218431679  0.2817027275970361
  0.6739507838320620  0.8331813601530556  0.7800021618667117
  0.8240713432842597  0.9810401075597142  0.2109523728933880
  0.8281208075698387  0.0009395628456517  0.7208942266224128
  0.8240713432842597  0.3522932257736215  0.2109523728933880
  0.8281208075698387  0.3323937704876840  0.7208942266224128
  0.8301442789838234  0.6666666666666643  0.2160238597753548
  0.8285117495867240  0.6666666666666643  0.7183928923210843
  0.8264801924220322  0.0169365634117042  0.4488900791138306
  0.8345836915228588  0.9998959011017874  0.9469395623973469
  0.8264801924220322  0.3163967699216315  0.4488900791138306
  0.8345836915228588  0.3334374322315483  0.9469395623973469
  0.8375031115235672  0.6666666666666643  0.4414873117286291
  0.8331202630821011  0.6666666666666643  0.9443012537927373
  0.6684024187474904  0.1666666666666643  0.0582449258719535
  0.6674009189765755  0.1666666666666643  0.5582314261301420
  0.6651317313489358  0.5044703128270172  0.0500065730181873
  0.6711248815399173  0.4990177815060974  0.5538948578648828
  0.6651317313489358  0.8288630205063185  0.0500065730181873
  0.6711248815399173  0.8343155518272383  0.5538948578648828
  0.5019165280674116  0.0005026159664752  0.1311104278649537
  0.4976414857818412  0.9993583364746428  0.6285384662988207
  0.5019165280674116  0.3328307173668605  0.1311104278649537
  0.4976414857818412  0.3339749968586929  0.6285384662988207
  0.4982193212185635  0.6666666666666643  0.1283627787716171
  0.4986612145359359  0.6666666666666643  0.6270648001751411
  0.0042170001943092  0.1666666666666643  0.8722273697605871
  0.0063989369829400  0.4874185554499419  0.3746647861031960
  0.0047389754700049  0.4999915348662540  0.8711810210867696
  0.0063989369829400  0.8459147778833938  0.3746647861031960
  0.0047389754700049  0.8333417984670817  0.8711810210867696
  0.1750722534190956  0.9989045308311901  0.2796106460760583
  0.1736317002914376  0.0003946842373210  0.7810191694809845
  0.1750722534190956  0.3344288025021456  0.2796106460760583
  0.1736317002914376  0.3329386490960147  0.7810191694809845
  0.1730475152685784  0.6666666666666643  0.2813627915430317
  0.1724705367260881  0.6666666666666643  0.7793540704817161
  0.3311491643919666  0.1666666666666643  0.2200920949516885
  0.3302494211712670  0.1666666666666643  0.7213137431176051
  0.3302170248723471  0.5005622553516318  0.2200803752845886
  0.3279732337079935  0.5001880762547373  0.7195079210267110
  0.3302170248723471  0.8327710779817039  0.2200803752845886
  0.3279732337079935  0.8331452570785984  0.7195079210267110
  0.3360963190202853  0.1666666666666643  0.4465881469278798
  0.3355837599574514  0.1666666666666643  0.9475925420294971
  0.3354656230509576  0.5004627682394158  0.4463469254878802
  0.3346119507429748  0.4995409332327796  0.9469136745630564
  0.3354656230509576  0.8328705650939199  0.4463469254878802
  0.3346119507429748  0.8337924001005561  0.9469136745630564
  0.1687118549138802  0.0009142886921865  0.0542431209801180
  0.1688116104004180  0.9999626078867365  0.5545655271259733
  0.1687118549138802  0.3324190446411492  0.0542431209801180
  0.1688116104004180  0.3333707254465992  0.5545655271259733
  0.1702763816516821  0.6666666666666643  0.0545631494229397
  0.1648510652259532  0.6666666666666643  0.5524999281038276
  0.8327534293990553  0.1666666666666643  0.3630517506041642
 
  0.00000000E+00  0.00000000E+00  0.00000000E+00
  0.00000000E+00  0.00000000E+00  0.00000000E+00
  0.00000000E+00  0.00000000E+00  0.00000000E+00
  0.00000000E+00  0.00000000E+00  0.00000000E+00
  0.00000000E+00  0.00000000E+00  0.00000000E+00
  0.00000000E+00  0.00000000E+00  0.00000000E+00
  0.00000000E+00  0.00000000E+00  0.00000000E+00
  0.00000000E+00  0.00000000E+00  0.00000000E+00
  0.00000000E+00  0.00000000E+00  0.00000000E+00
  0.00000000E+00  0.00000000E+00  0.00000000E+00
  0.00000000E+00  0.00000000E+00  0.00000000E+00
  0.00000000E+00  0.00000000E+00  0.00000000E+00
  0.00000000E+00  0.00000000E+00  0.00000000E+00
  0.00000000E+00  0.00000000E+00  0.00000000E+00
  0.00000000E+00  0.00000000E+00  0.00000000E+00
  0.00000000E+00  0.00000000E+00  0.00000000E+00
  0.00000000E+00  0.00000000E+00  0.00000000E+00
  0.00000000E+00  0.00000000E+00  0.00000000E+00
  0.00000000E+00  0.00000000E+00  0.00000000E+00
  0.00000000E+00  0.00000000E+00  0.00000000E+00
  0.00000000E+00  0.00000000E+00  0.00000000E+00
  0.00000000E+00  0.00000000E+00  0.00000000E+00
  0.00000000E+00  0.00000000E+00  0.00000000E+00
  0.00000000E+00  0.00000000E+00  0.00000000E+00
  0.00000000E+00  0.00000000E+00  0.00000000E+00
  0.00000000E+00  0.00000000E+00  0.00000000E+00
  0.00000000E+00  0.00000000E+00  0.00000000E+00
  0.00000000E+00  0.00000000E+00  0.00000000E+00
  0.00000000E+00  0.00000000E+00  0.00000000E+00
  0.00000000E+00  0.00000000E+00  0.00000000E+00
  0.00000000E+00  0.00000000E+00  0.00000000E+00
  0.00000000E+00  0.00000000E+00  0.00000000E+00
  0.00000000E+00  0.00000000E+00  0.00000000E+00
  0.00000000E+00  0.00000000E+00  0.00000000E+00
  0.00000000E+00  0.00000000E+00  0.00000000E+00
  0.00000000E+00  0.00000000E+00  0.00000000E+00
  0.00000000E+00  0.00000000E+00  0.00000000E+00
  0.00000000E+00  0.00000000E+00  0.00000000E+00
  0.00000000E+00  0.00000000E+00  0.00000000E+00
  0.00000000E+00  0.00000000E+00  0.00000000E+00
  0.00000000E+00  0.00000000E+00  0.00000000E+00
  0.00000000E+00  0.00000000E+00  0.00000000E+00
  0.00000000E+00  0.00000000E+00  0.00000000E+00
  0.00000000E+00  0.00000000E+00  0.00000000E+00
  0.00000000E+00  0.00000000E+00  0.00000000E+00
  0.00000000E+00  0.00000000E+00  0.00000000E+00
  0.00000000E+00  0.00000000E+00  0.00000000E+00
  0.00000000E+00  0.00000000E+00  0.00000000E+00
  0.00000000E+00  0.00000000E+00  0.00000000E+00
  0.00000000E+00  0.00000000E+00  0.00000000E+00
  0.00000000E+00  0.00000000E+00  0.00000000E+00
  0.00000000E+00  0.00000000E+00  0.00000000E+00
  0.00000000E+00  0.00000000E+00  0.00000000E+00
  0.00000000E+00  0.00000000E+00  0.00000000E+00
  0.00000000E+00  0.00000000E+00  0.00000000E+00
  0.00000000E+00  0.00000000E+00  0.00000000E+00
  0.00000000E+00  0.00000000E+00  0.00000000E+00
  0.00000000E+00  0.00000000E+00  0.00000000E+00
  0.00000000E+00  0.00000000E+00  0.00000000E+00
  0.00000000E+00  0.00000000E+00  0.00000000E+00
  0.00000000E+00  0.00000000E+00  0.00000000E+00
  0.00000000E+00  0.00000000E+00  0.00000000E+00
  0.00000000E+00  0.00000000E+00  0.00000000E+00
  0.00000000E+00  0.00000000E+00  0.00000000E+00
  0.00000000E+00  0.00000000E+00  0.00000000E+00
  0.00000000E+00  0.00000000E+00  0.00000000E+00
  0.00000000E+00  0.00000000E+00  0.00000000E+00
  0.00000000E+00  0.00000000E+00  0.00000000E+00
  0.00000000E+00  0.00000000E+00  0.00000000E+00
  0.00000000E+00  0.00000000E+00  0.00000000E+00
  0.00000000E+00  0.00000000E+00  0.00000000E+00
  0.00000000E+00  0.00000000E+00  0.00000000E+00
  0.00000000E+00  0.00000000E+00  0.00000000E+00
  0.00000000E+00  0.00000000E+00  0.00000000E+00
  0.00000000E+00  0.00000000E+00  0.00000000E+00
  0.00000000E+00  0.00000000E+00  0.00000000E+00
  0.00000000E+00  0.00000000E+00  0.00000000E+00
  0.00000000E+00  0.00000000E+00  0.00000000E+00
  0.00000000E+00  0.00000000E+00  0.00000000E+00
  0.00000000E+00  0.00000000E+00  0.00000000E+00
  0.00000000E+00  0.00000000E+00  0.00000000E+00
  0.00000000E+00  0.00000000E+00  0.00000000E+00
  0.00000000E+00  0.00000000E+00  0.00000000E+00
  0.00000000E+00  0.00000000E+00  0.00000000E+00
  0.00000000E+00  0.00000000E+00  0.00000000E+00
  0.00000000E+00  0.00000000E+00  0.00000000E+00
  0.00000000E+00  0.00000000E+00  0.00000000E+00
  0.00000000E+00  0.00000000E+00  0.00000000E+00
  0.00000000E+00  0.00000000E+00  0.00000000E+00
  0.00000000E+00  0.00000000E+00  0.00000000E+00
  0.00000000E+00  0.00000000E+00  0.00000000E+00
  0.00000000E+00  0.00000000E+00  0.00000000E+00
  0.00000000E+00  0.00000000E+00  0.00000000E+00
  0.00000000E+00  0.00000000E+00  0.00000000E+00
  0.00000000E+00  0.00000000E+00  0.00000000E+00
  0.00000000E+00  0.00000000E+00  0.00000000E+00
  0.00000000E+00  0.00000000E+00  0.00000000E+00
  0.00000000E+00  0.00000000E+00  0.00000000E+00
  0.00000000E+00  0.00000000E+00  0.00000000E+00
  0.00000000E+00  0.00000000E+00  0.00000000E+00
  0.00000000E+00  0.00000000E+00  0.00000000E+00
  0.00000000E+00  0.00000000E+00  0.00000000E+00
  0.00000000E+00  0.00000000E+00  0.00000000E+00
  0.00000000E+00  0.00000000E+00  0.00000000E+00
  0.00000000E+00  0.00000000E+00  0.00000000E+00
  0.00000000E+00  0.00000000E+00  0.00000000E+00
  0.00000000E+00  0.00000000E+00  0.00000000E+00
  0.00000000E+00  0.00000000E+00  0.00000000E+00
  0.00000000E+00  0.00000000E+00  0.00000000E+00
  0.00000000E+00  0.00000000E+00  0.00000000E+00
  0.00000000E+00  0.00000000E+00  0.00000000E+00
  0.00000000E+00  0.00000000E+00  0.00000000E+00
  0.00000000E+00  0.00000000E+00  0.00000000E+00
  0.00000000E+00  0.00000000E+00  0.00000000E+00
  0.00000000E+00  0.00000000E+00  0.00000000E+00
  0.00000000E+00  0.00000000E+00  0.00000000E+00
  0.00000000E+00  0.00000000E+00  0.00000000E+00
  0.00000000E+00  0.00000000E+00  0.00000000E+00
  0.00000000E+00  0.00000000E+00  0.00000000E+00
