Ga8 O12                                 
    1.000000000000000     
     0.0000000000000000   12.2804737091000007    0.0000000000000000
     9.1427011490000005    0.0000000000000000    0.0000000000000000
     0.0000000000000000   -2.7682616411000001  -11.3006974810000003
   Ga   O    Cu   N 
    47    71     1     1
Direct
  0.6600635276727687  0.0005516967322521  0.1583968493081613
  0.6591340921729198  0.0003990014287254  0.6564435496501986
  0.6592930639092245  0.3333341146394915  0.1593300004727141
  0.6587166719754975  0.3333283746180200  0.6548799300637143
  0.6600665064256361  0.6661203706019379  0.1583957821002357
  0.6591361438040977  0.6662576516940746  0.6564419084071673
  0.8408632714788880  0.1671425825333728  0.3450399481664945
  0.8405261504559363  0.1670607356674338  0.8434562346387438
  0.8408635651312082  0.4995195719873280  0.3450393259534792
  0.8405288022307431  0.4996024915612622  0.8434568672058518
  0.8421851780691512  0.8333322220267831  0.3443536555480193
  0.8402574392891964  0.8333331645156079  0.8440820821771311
  0.5832716384738532  0.1705624861085369  0.3974200477866816
  0.5920486262472124  0.1668317032720807  0.8988925283291564
  0.5832687193580099  0.4961085022726408  0.3974166525983378
  0.5920509538211149  0.4998305661941416  0.8988883646409391
  0.5930947021710224  0.8333316782800679  0.3989242784820775
  0.5922511247168103  0.8333314537970651  0.8992424113423496
  0.9093281937356323  0.0010962562376520  0.1031567758759238
  0.9095025032730604  0.0001220509350759  0.6034235554121636
  0.9090926979513156  0.3333328334060468  0.1034101737815902
  0.9101072899937535  0.3333297317922046  0.6035660273038914
  0.9093302731731328  0.6655722882356727  0.1031549225778221
  0.9094991541767712  0.6665379281667896  0.6034204501339815
  0.1608422530899034  0.1656881897885185  0.1566167851560891
  0.1602030233223104  0.1666211220563056  0.6570875701357295
  0.1608519656499254  0.5009948921166369  0.1566131693522976
  0.1602019539653554  0.5000365966693181  0.6570864119342801
  0.1577206153161654  0.8333505564553079  0.1564375023932456
  0.1595148646576803  0.8333299280317661  0.6570670464458885
  0.3409168550386923  0.0000380420566231  0.3412951898600411
  0.3420094709525259  0.0000336931834184  0.8437175039476728
  0.3422216619820233  0.3333290011326540  0.8441478815324643
  0.3409183165644691  0.6666502495225188  0.3412543930166692
  0.3420109445782913  0.6666326621807812  0.8437051131680349
  0.0914878555512075  0.0004096082060201  0.3976017531443219
  0.0894684877590493  0.9997472707874948  0.8960888202010011
  0.0944255057233505  0.3333323657465002  0.3976454976362547
  0.0913215997773591  0.3333359729498184  0.8979273422961640
  0.0914935973450000  0.6662561081438483  0.3976019623572498
  0.0894667623622851  0.6669253792197836  0.8960876127154904
  0.4095968340725662  0.1659627933377692  0.1037120877352393
  0.4086883735033879  0.1653664439229345  0.6007586696886662
  0.4095938369701742  0.5007269829319441  0.1036929325721871
  0.4086919359768117  0.5012691783759422  0.6007490162459774
  0.4097567452137199  0.8333459667331198  0.1034979044114337
  0.4085089911583495  0.8333225747572470  0.6002429563761709
  0.9971255324847093  0.1675497829889920  0.1279937947466721
  0.9972728470328036  0.1665933557604404  0.6285563924163426
  0.9971255849245679  0.4991172841590128  0.1279947545741180
  0.9972727735142541  0.5000700309212931  0.6285552956493703
  0.9945344357047787  0.8333363431954410  0.1270875255871715
  0.9966603172086366  0.8333290721114679  0.6284120095866328
  0.5040173172523623  0.9967155459269605  0.3735227637853882
  0.5048789309584336  0.9999244590862233  0.8736871742895431
  0.5046628401069384  0.3333300996789390  0.8704246281151740
  0.5040117386261542  0.6699585628640676  0.3735030173818643
  0.5048806262752166  0.6667367720956818  0.8736797922550963
  0.6722956872378560  0.1667963168713626  0.2825382950075053
  0.6727414288776217  0.1672433393874400  0.7808793753632060
  0.6722961752191310  0.4998731152373352  0.2825368302148448
  0.6727466497904615  0.4994001687543133  0.7808722434628592
  0.6746701962587167  0.8333325763351596  0.2816974681156807
  0.6734223641067985  0.8333313359115806  0.7816418437663444
  0.8283320726482089  0.0011181365618853  0.2208004909473686
  0.8276272418556800  0.0006395928451681  0.7201057260752108
  0.8279280474482320  0.3333334660076730  0.2208371863048697
  0.8273310469555852  0.3333313170870440  0.7194866696677451
  0.8283339678127675  0.6655493234670118  0.2207981548629760
  0.8276287827603994  0.6660217205352410  0.7201070186725147
  0.8337075992927296  0.9999009862529604  0.4468706709894121
  0.8324663346800989  0.0007260195326424  0.9463990247075387
  0.8334105330877648  0.3333315884384334  0.4473918381025968
  0.8324583739284677  0.3333319726478408  0.9464774064416517
  0.8337077464301643  0.6667613306073576  0.4468686728890532
  0.8324656076942887  0.6659397419451736  0.9463969248118076
  0.6694800079793026  0.1670542895293892  0.0553087349171903
  0.6673989845656081  0.1657421642254917  0.5538055222932101
  0.6694809946718649  0.4996143785209455  0.0553080627126121
  0.6673961278140297  0.5009168366334933  0.5538008793043616
  0.6701008391394012  0.8333365645582873  0.0555698298545195
  0.6701143871795097  0.8333291352108816  0.5556035897001692
  0.4982719413326322  0.9993714129804943  0.1267808743493433
  0.4972792607119061  0.9990007051754191  0.6294039170668242
  0.4965560372381006  0.3333461060858269  0.1198781773189452
  0.4955743950606717  0.3333202598922256  0.6234548619147020
  0.4982697820949014  0.6673165666999168  0.1267782504721708
  0.4972791802908745  0.6676367412724815  0.6294019009865295
  0.0045121379084776  0.1678758840506518  0.3737005970863052
  0.0030229156423829  0.1673634770024819  0.8718471046947016
  0.0045188494633521  0.4987855614456507  0.3736990045797057
  0.0030236134397015  0.4993055817771150  0.8718438718099080
  0.0039099910004694  0.8333308357123315  0.3739639965709216
  0.0018096717328362  0.8333383932299654  0.8700800039376873
  0.1699331752923499  0.9981188002983217  0.2791777600570100
  0.1730245686159364  0.9998378699445141  0.7808758289506912
  0.1767585515186809  0.3333438786219247  0.2816567413910036
  0.1733260749845158  0.3333273740451830  0.7811799069040006
  0.1699472202386616  0.6685744813211798  0.2791830226949017
  0.1730226566481790  0.6668262870585977  0.7808696218624291
  0.3234790777410623  0.1515938223239530  0.2126007413011166
  0.3283732614223638  0.1665001719228272  0.7197836926249082
  0.3234789561028606  0.5151288226519242  0.2125630142884276
  0.3283693253304065  0.5001564424200993  0.7197736577536418
  0.3262279251604809  0.8333661327429880  0.2179690123374485
  0.3279408922214486  0.8333306088125809  0.7193159284851163
  0.3287372525184225  0.1573271430934611  0.4472814587074225
  0.3337287144800101  0.1663666907255887  0.9457001792982709
  0.3287593094340622  0.5092729340014088  0.4472273205853128
  0.3337248707769334  0.5002955363736064  0.9456745609294543
  0.3304975745092094  0.8333242196142550  0.4446423323996243
  0.3336645442215982  0.8333321417444566  0.9461372409916251
  0.1633173537090471  0.9982558573244660  0.0521328622611748
  0.1666577056080598  0.9997254570412295  0.5548277827736712
  0.1677912650338342  0.3333388561401023  0.0540255028293473
  0.1684800281860745  0.3333280554063052  0.5552479878258154
  0.1633085207943878  0.6684334695698908  0.0521324981096924
  0.1666696449945917  0.6669316392411204  0.5548243583508921
  0.3407409239300065  0.3333431304967078  0.3451166548090683
  0.4916359488493995  0.3333368908356178  0.3528607188381798
 
  0.00000000E+00  0.00000000E+00  0.00000000E+00
  0.00000000E+00  0.00000000E+00  0.00000000E+00
  0.00000000E+00  0.00000000E+00  0.00000000E+00
  0.00000000E+00  0.00000000E+00  0.00000000E+00
  0.00000000E+00  0.00000000E+00  0.00000000E+00
  0.00000000E+00  0.00000000E+00  0.00000000E+00
  0.00000000E+00  0.00000000E+00  0.00000000E+00
  0.00000000E+00  0.00000000E+00  0.00000000E+00
  0.00000000E+00  0.00000000E+00  0.00000000E+00
  0.00000000E+00  0.00000000E+00  0.00000000E+00
  0.00000000E+00  0.00000000E+00  0.00000000E+00
  0.00000000E+00  0.00000000E+00  0.00000000E+00
  0.00000000E+00  0.00000000E+00  0.00000000E+00
  0.00000000E+00  0.00000000E+00  0.00000000E+00
  0.00000000E+00  0.00000000E+00  0.00000000E+00
  0.00000000E+00  0.00000000E+00  0.00000000E+00
  0.00000000E+00  0.00000000E+00  0.00000000E+00
  0.00000000E+00  0.00000000E+00  0.00000000E+00
  0.00000000E+00  0.00000000E+00  0.00000000E+00
  0.00000000E+00  0.00000000E+00  0.00000000E+00
  0.00000000E+00  0.00000000E+00  0.00000000E+00
  0.00000000E+00  0.00000000E+00  0.00000000E+00
  0.00000000E+00  0.00000000E+00  0.00000000E+00
  0.00000000E+00  0.00000000E+00  0.00000000E+00
  0.00000000E+00  0.00000000E+00  0.00000000E+00
  0.00000000E+00  0.00000000E+00  0.00000000E+00
  0.00000000E+00  0.00000000E+00  0.00000000E+00
  0.00000000E+00  0.00000000E+00  0.00000000E+00
  0.00000000E+00  0.00000000E+00  0.00000000E+00
  0.00000000E+00  0.00000000E+00  0.00000000E+00
  0.00000000E+00  0.00000000E+00  0.00000000E+00
  0.00000000E+00  0.00000000E+00  0.00000000E+00
  0.00000000E+00  0.00000000E+00  0.00000000E+00
  0.00000000E+00  0.00000000E+00  0.00000000E+00
  0.00000000E+00  0.00000000E+00  0.00000000E+00
  0.00000000E+00  0.00000000E+00  0.00000000E+00
  0.00000000E+00  0.00000000E+00  0.00000000E+00
  0.00000000E+00  0.00000000E+00  0.00000000E+00
  0.00000000E+00  0.00000000E+00  0.00000000E+00
  0.00000000E+00  0.00000000E+00  0.00000000E+00
  0.00000000E+00  0.00000000E+00  0.00000000E+00
  0.00000000E+00  0.00000000E+00  0.00000000E+00
  0.00000000E+00  0.00000000E+00  0.00000000E+00
  0.00000000E+00  0.00000000E+00  0.00000000E+00
  0.00000000E+00  0.00000000E+00  0.00000000E+00
  0.00000000E+00  0.00000000E+00  0.00000000E+00
  0.00000000E+00  0.00000000E+00  0.00000000E+00
  0.00000000E+00  0.00000000E+00  0.00000000E+00
  0.00000000E+00  0.00000000E+00  0.00000000E+00
  0.00000000E+00  0.00000000E+00  0.00000000E+00
  0.00000000E+00  0.00000000E+00  0.00000000E+00
  0.00000000E+00  0.00000000E+00  0.00000000E+00
  0.00000000E+00  0.00000000E+00  0.00000000E+00
  0.00000000E+00  0.00000000E+00  0.00000000E+00
  0.00000000E+00  0.00000000E+00  0.00000000E+00
  0.00000000E+00  0.00000000E+00  0.00000000E+00
  0.00000000E+00  0.00000000E+00  0.00000000E+00
  0.00000000E+00  0.00000000E+00  0.00000000E+00
  0.00000000E+00  0.00000000E+00  0.00000000E+00
  0.00000000E+00  0.00000000E+00  0.00000000E+00
  0.00000000E+00  0.00000000E+00  0.00000000E+00
  0.00000000E+00  0.00000000E+00  0.00000000E+00
  0.00000000E+00  0.00000000E+00  0.00000000E+00
  0.00000000E+00  0.00000000E+00  0.00000000E+00
  0.00000000E+00  0.00000000E+00  0.00000000E+00
  0.00000000E+00  0.00000000E+00  0.00000000E+00
  0.00000000E+00  0.00000000E+00  0.00000000E+00
  0.00000000E+00  0.00000000E+00  0.00000000E+00
  0.00000000E+00  0.00000000E+00  0.00000000E+00
  0.00000000E+00  0.00000000E+00  0.00000000E+00
  0.00000000E+00  0.00000000E+00  0.00000000E+00
  0.00000000E+00  0.00000000E+00  0.00000000E+00
  0.00000000E+00  0.00000000E+00  0.00000000E+00
  0.00000000E+00  0.00000000E+00  0.00000000E+00
  0.00000000E+00  0.00000000E+00  0.00000000E+00
  0.00000000E+00  0.00000000E+00  0.00000000E+00
  0.00000000E+00  0.00000000E+00  0.00000000E+00
  0.00000000E+00  0.00000000E+00  0.00000000E+00
  0.00000000E+00  0.00000000E+00  0.00000000E+00
  0.00000000E+00  0.00000000E+00  0.00000000E+00
  0.00000000E+00  0.00000000E+00  0.00000000E+00
  0.00000000E+00  0.00000000E+00  0.00000000E+00
  0.00000000E+00  0.00000000E+00  0.00000000E+00
  0.00000000E+00  0.00000000E+00  0.00000000E+00
  0.00000000E+00  0.00000000E+00  0.00000000E+00
  0.00000000E+00  0.00000000E+00  0.00000000E+00
  0.00000000E+00  0.00000000E+00  0.00000000E+00
  0.00000000E+00  0.00000000E+00  0.00000000E+00
  0.00000000E+00  0.00000000E+00  0.00000000E+00
  0.00000000E+00  0.00000000E+00  0.00000000E+00
  0.00000000E+00  0.00000000E+00  0.00000000E+00
  0.00000000E+00  0.00000000E+00  0.00000000E+00
  0.00000000E+00  0.00000000E+00  0.00000000E+00
  0.00000000E+00  0.00000000E+00  0.00000000E+00
  0.00000000E+00  0.00000000E+00  0.00000000E+00
  0.00000000E+00  0.00000000E+00  0.00000000E+00
  0.00000000E+00  0.00000000E+00  0.00000000E+00
  0.00000000E+00  0.00000000E+00  0.00000000E+00
  0.00000000E+00  0.00000000E+00  0.00000000E+00
  0.00000000E+00  0.00000000E+00  0.00000000E+00
  0.00000000E+00  0.00000000E+00  0.00000000E+00
  0.00000000E+00  0.00000000E+00  0.00000000E+00
  0.00000000E+00  0.00000000E+00  0.00000000E+00
  0.00000000E+00  0.00000000E+00  0.00000000E+00
  0.00000000E+00  0.00000000E+00  0.00000000E+00
  0.00000000E+00  0.00000000E+00  0.00000000E+00
  0.00000000E+00  0.00000000E+00  0.00000000E+00
  0.00000000E+00  0.00000000E+00  0.00000000E+00
  0.00000000E+00  0.00000000E+00  0.00000000E+00
  0.00000000E+00  0.00000000E+00  0.00000000E+00
  0.00000000E+00  0.00000000E+00  0.00000000E+00
  0.00000000E+00  0.00000000E+00  0.00000000E+00
  0.00000000E+00  0.00000000E+00  0.00000000E+00
  0.00000000E+00  0.00000000E+00  0.00000000E+00
  0.00000000E+00  0.00000000E+00  0.00000000E+00
  0.00000000E+00  0.00000000E+00  0.00000000E+00
  0.00000000E+00  0.00000000E+00  0.00000000E+00
  0.00000000E+00  0.00000000E+00  0.00000000E+00
  0.00000000E+00  0.00000000E+00  0.00000000E+00
  0.00000000E+00  0.00000000E+00  0.00000000E+00
