Ga8 O12                                 
    1.000000000000000     
     0.0000000000000000   12.2804737091000007    0.0000000000000000
     9.1427011490000005    0.0000000000000000    0.0000000000000000
     0.0000000000000000   -2.7682616411000001  -11.3006974810000003
   Ga   O    Cu   N 
    47    71     1     1
Direct
  0.6600635276727673  0.0005516967322491  0.1583968493081637
  0.6591340921729164  0.0003990014287256  0.6564435496501984
  0.6592930639092279  0.3333341146394884  0.1593300004727143
  0.6587166719754973  0.3333283746180229  0.6548799300637153
  0.6600665064256339  0.6661203706019367  0.1583957821002359
  0.6591361438040998  0.6662576516940738  0.6564419084071688
  0.8408632714788868  0.1671425825333704  0.3450399481664962
  0.8405261504559373  0.1670607356674307  0.8434562346387469
  0.8408635651312054  0.4995195719873259  0.3450393259534812
  0.8405288022307422  0.4996024915612601  0.8434568672058512
  0.8421851780691527  0.8333322220267844  0.3443536555480163
  0.8402574392891978  0.8333331645156048  0.8440820821771337
  0.5832716384738518  0.1705624861085394  0.3974200477866798
  0.5920486262472145  0.1668317032720772  0.8988925283291560
  0.5832687193580124  0.4961085022726416  0.3974166525983379
  0.5920509538211115  0.4998305661941438  0.8988883646409391
  0.5930947021710230  0.8333316782800647  0.3989242784820800
  0.5922511247168125  0.8333314537970631  0.8992424113423491
  0.9093281937356359  0.0010962562376517  0.1031567758759258
  0.9095025032730597  0.0001220509350767  0.6034235554121642
  0.9090926979513126  0.3333328334060441  0.1034101737815920
  0.9101072899937526  0.3333297317922040  0.6035660273038921
  0.9093302731731300  0.6655722882356702  0.1031549225778230
  0.9094991541767713  0.6665379281667927  0.6034204501339823
  0.1608422530899047  0.1656881897885159  0.1566167851560860
  0.1602030233223111  0.1666211220563082  0.6570875701357261
  0.1608519656499246  0.5009948921166353  0.1566131693523001
  0.1602019539653579  0.5000365966693148  0.6570864119342769
  0.1577206153161625  0.8333505564553052  0.1564375023932427
  0.1595148646576778  0.8333299280317654  0.6570670464458895
  0.3409168550386897  0.0000380420566202  0.3412951898600388
  0.3420094709525237  0.0000336931834169  0.8437175039476724
  0.3422216619820265  0.3333290011326517  0.8441478815324651
  0.3409183165644659  0.6666502495225185  0.3412543930166660
  0.3420109445782941  0.6666326621807794  0.8437051131680350
  0.0914878555512053  0.0004096082060192  0.3976017531443218
  0.0894684877590461 -0.0002527292125046  0.8960888202010040
  0.0944255057233509  0.3333323657465024  0.3976454976362553
  0.0913215997773626  0.3333359729498189  0.8979273422961660
  0.0914935973450008  0.6662561081438496  0.3976019623572528
  0.0894667623622827  0.6669253792197842  0.8960876127154878
  0.4095968340725663  0.1659627933377676  0.1037120877352388
  0.4086883735033870  0.1653664439229323  0.6007586696886682
  0.4095938369701754  0.5007269829319418  0.1036929325721862
  0.4086919359768110  0.5012691783759422  0.6007490162459806
  0.4097567452137204  0.8333459667331214  0.1034979044114341
  0.4085089911583510  0.8333225747572482  0.6002429563761710
  0.9971255324847065  0.1675497829889885  0.1279937947466713
  0.9972728470328023  0.1665933557604408  0.6285563924163420
  0.9971255849245680  0.4991172841590119  0.1279947545741152
  0.9972727735142554  0.5000700309212908  0.6285552956493693
  0.9945344357047775  0.8333363431954391  0.1270875255871681
  0.9966603172086375  0.8333290721114696  0.6284120095866351
  0.5040173172523614 -0.0032844540730415  0.3735227637853911
  0.5048789309584345 -0.0000755409137792  0.8736871742895463
  0.5046628401069377  0.3333300996789406  0.8704246281151772
  0.5040117386261569  0.6699585628640679  0.3735030173818639
  0.5048806262752171  0.6667367720956822  0.8736797922550964
  0.6722956872378583  0.1667963168713641  0.2825382950075065
  0.6727414288776190  0.1672433393874407  0.7808793753632032
  0.6722961752191305  0.4998731152373367  0.2825368302148466
  0.6727466497904611  0.4994001687543155  0.7808722434628591
  0.6746701962587144  0.8333325763351608  0.2816974681156801
  0.6734223641068005  0.8333313359115840  0.7816418437663417
  0.8283320726482070  0.0011181365618869  0.2208004909473695
  0.8276272418556830  0.0006395928451707  0.7201057260752085
  0.8279280474482302  0.3333334660076707  0.2208371863048708
  0.8273310469555878  0.3333313170870447  0.7194866696677482
  0.8283339678127699  0.6655493234670150  0.2207981548629732
  0.8276287827604024  0.6660217205352386  0.7201070186725136
  0.8337075992927331 -0.0000990137470423  0.4468706709894138
  0.8324663346800968  0.0007260195326423  0.9463990247075376
  0.8334105330877631  0.3333315884384345  0.4473918381025950
  0.8324583739284697  0.3333319726478395  0.9464774064416490
  0.8337077464301668  0.6667613306073603  0.4468686728890499
  0.8324656076942881  0.6659397419451711  0.9463969248118108
  0.6694800079793052  0.1670542895293873  0.0553087349171929
  0.6673989845656101  0.1657421642254933  0.5538055222932124
  0.6694809946718658  0.4996143785209464  0.0553080627126140
  0.6673961278140285  0.5009168366334952  0.5538008793043584
  0.6701008391394032  0.8333365645582858  0.0555698298545210
  0.6701143871795119  0.8333291352108800  0.5556035897001725
  0.4982719413326319 -0.0006285870195071  0.1267808743493416
  0.4972792607119047 -0.0009992948245804  0.6294039170668232
  0.4965560372381015  0.3333461060858258  0.1198781773189440
  0.4955743950606725  0.3333202598922287  0.6234548619146989
  0.4982697820948999  0.6673165666999161  0.1267782504721699
  0.4972791802908769  0.6676367412724784  0.6294019009865311
  0.0045121379084799  0.1678758840506536  0.3737005970863043
  0.0030229156423832  0.1673634770024802  0.8718471046946997
  0.0045188494633509  0.4987855614456512  0.3736990045797023
  0.0030236134396983  0.4993055817771168  0.8718438718099084
  0.0039099910004681  0.8333308357123344  0.3739639965709226
  0.0018096717328332  0.8333383932299642  0.8700800039376843
  0.1699331752923522 -0.0018811997016754  0.2791777600570103
  0.1730245686159395 -0.0001621300554878  0.7808758289506929
  0.1767585515186841  0.3333438786219273  0.2816567413910069
  0.1733260749845146  0.3333273740451823  0.7811799069039982
  0.1699472202386609  0.6685744813211766  0.2791830226949002
  0.1730226566481820  0.6668262870585973  0.7808696218624295
  0.3234790777410602  0.1515938223239564  0.2126007413011175
  0.3283732614223633  0.1665001719228245  0.7197836926249109
  0.3234789561028633  0.5151288226519267  0.2125630142884248
  0.3283693253304041  0.5001564424200982  0.7197736577536424
  0.3262279251604843  0.8333661327429911  0.2179690123374501
  0.3279408922214472  0.8333306088125798  0.7193159284851149
  0.3287372525184240  0.1573271430934582  0.4472814587074247
  0.3337287144800115  0.1663666907255876  0.9457001792982731
  0.3287593094340617  0.5092729340014106  0.4472273205853117
  0.3337248707769334  0.5002955363736040  0.9456745609294558
  0.3304975745092079  0.8333242196142567  0.4446423323996215
  0.3336645442215979  0.8333321417444564  0.9461372409916233
  0.1633173537090498 -0.0017441426755370  0.0521328622611712
  0.1666577056080618 -0.0002745429587675  0.5548277827736686
  0.1677912650338333  0.3333388561401023  0.0540255028293455
  0.1684800281860730  0.3333280554063042  0.5552479878258135
  0.1633085207943848  0.6684334695698905  0.0521324981096892
  0.1666696449945931  0.6669316392411189  0.5548243583508947
  0.3407409239300035  0.3333431304967074  0.3451166548090652
  0.4916359488493967  0.3333368908356169  0.3528607188381830
 
  0.00000000E+00  0.00000000E+00  0.00000000E+00
  0.00000000E+00  0.00000000E+00  0.00000000E+00
  0.00000000E+00  0.00000000E+00  0.00000000E+00
  0.00000000E+00  0.00000000E+00  0.00000000E+00
  0.00000000E+00  0.00000000E+00  0.00000000E+00
  0.00000000E+00  0.00000000E+00  0.00000000E+00
  0.00000000E+00  0.00000000E+00  0.00000000E+00
  0.00000000E+00  0.00000000E+00  0.00000000E+00
  0.00000000E+00  0.00000000E+00  0.00000000E+00
  0.00000000E+00  0.00000000E+00  0.00000000E+00
  0.00000000E+00  0.00000000E+00  0.00000000E+00
  0.00000000E+00  0.00000000E+00  0.00000000E+00
  0.00000000E+00  0.00000000E+00  0.00000000E+00
  0.00000000E+00  0.00000000E+00  0.00000000E+00
  0.00000000E+00  0.00000000E+00  0.00000000E+00
  0.00000000E+00  0.00000000E+00  0.00000000E+00
  0.00000000E+00  0.00000000E+00  0.00000000E+00
  0.00000000E+00  0.00000000E+00  0.00000000E+00
  0.00000000E+00  0.00000000E+00  0.00000000E+00
  0.00000000E+00  0.00000000E+00  0.00000000E+00
  0.00000000E+00  0.00000000E+00  0.00000000E+00
  0.00000000E+00  0.00000000E+00  0.00000000E+00
  0.00000000E+00  0.00000000E+00  0.00000000E+00
  0.00000000E+00  0.00000000E+00  0.00000000E+00
  0.00000000E+00  0.00000000E+00  0.00000000E+00
  0.00000000E+00  0.00000000E+00  0.00000000E+00
  0.00000000E+00  0.00000000E+00  0.00000000E+00
  0.00000000E+00  0.00000000E+00  0.00000000E+00
  0.00000000E+00  0.00000000E+00  0.00000000E+00
  0.00000000E+00  0.00000000E+00  0.00000000E+00
  0.00000000E+00  0.00000000E+00  0.00000000E+00
  0.00000000E+00  0.00000000E+00  0.00000000E+00
  0.00000000E+00  0.00000000E+00  0.00000000E+00
  0.00000000E+00  0.00000000E+00  0.00000000E+00
  0.00000000E+00  0.00000000E+00  0.00000000E+00
  0.00000000E+00  0.00000000E+00  0.00000000E+00
  0.00000000E+00  0.00000000E+00  0.00000000E+00
  0.00000000E+00  0.00000000E+00  0.00000000E+00
  0.00000000E+00  0.00000000E+00  0.00000000E+00
  0.00000000E+00  0.00000000E+00  0.00000000E+00
  0.00000000E+00  0.00000000E+00  0.00000000E+00
  0.00000000E+00  0.00000000E+00  0.00000000E+00
  0.00000000E+00  0.00000000E+00  0.00000000E+00
  0.00000000E+00  0.00000000E+00  0.00000000E+00
  0.00000000E+00  0.00000000E+00  0.00000000E+00
  0.00000000E+00  0.00000000E+00  0.00000000E+00
  0.00000000E+00  0.00000000E+00  0.00000000E+00
  0.00000000E+00  0.00000000E+00  0.00000000E+00
  0.00000000E+00  0.00000000E+00  0.00000000E+00
  0.00000000E+00  0.00000000E+00  0.00000000E+00
  0.00000000E+00  0.00000000E+00  0.00000000E+00
  0.00000000E+00  0.00000000E+00  0.00000000E+00
  0.00000000E+00  0.00000000E+00  0.00000000E+00
  0.00000000E+00  0.00000000E+00  0.00000000E+00
  0.00000000E+00  0.00000000E+00  0.00000000E+00
  0.00000000E+00  0.00000000E+00  0.00000000E+00
  0.00000000E+00  0.00000000E+00  0.00000000E+00
  0.00000000E+00  0.00000000E+00  0.00000000E+00
  0.00000000E+00  0.00000000E+00  0.00000000E+00
  0.00000000E+00  0.00000000E+00  0.00000000E+00
  0.00000000E+00  0.00000000E+00  0.00000000E+00
  0.00000000E+00  0.00000000E+00  0.00000000E+00
  0.00000000E+00  0.00000000E+00  0.00000000E+00
  0.00000000E+00  0.00000000E+00  0.00000000E+00
  0.00000000E+00  0.00000000E+00  0.00000000E+00
  0.00000000E+00  0.00000000E+00  0.00000000E+00
  0.00000000E+00  0.00000000E+00  0.00000000E+00
  0.00000000E+00  0.00000000E+00  0.00000000E+00
  0.00000000E+00  0.00000000E+00  0.00000000E+00
  0.00000000E+00  0.00000000E+00  0.00000000E+00
  0.00000000E+00  0.00000000E+00  0.00000000E+00
  0.00000000E+00  0.00000000E+00  0.00000000E+00
  0.00000000E+00  0.00000000E+00  0.00000000E+00
  0.00000000E+00  0.00000000E+00  0.00000000E+00
  0.00000000E+00  0.00000000E+00  0.00000000E+00
  0.00000000E+00  0.00000000E+00  0.00000000E+00
  0.00000000E+00  0.00000000E+00  0.00000000E+00
  0.00000000E+00  0.00000000E+00  0.00000000E+00
  0.00000000E+00  0.00000000E+00  0.00000000E+00
  0.00000000E+00  0.00000000E+00  0.00000000E+00
  0.00000000E+00  0.00000000E+00  0.00000000E+00
  0.00000000E+00  0.00000000E+00  0.00000000E+00
  0.00000000E+00  0.00000000E+00  0.00000000E+00
  0.00000000E+00  0.00000000E+00  0.00000000E+00
  0.00000000E+00  0.00000000E+00  0.00000000E+00
  0.00000000E+00  0.00000000E+00  0.00000000E+00
  0.00000000E+00  0.00000000E+00  0.00000000E+00
  0.00000000E+00  0.00000000E+00  0.00000000E+00
  0.00000000E+00  0.00000000E+00  0.00000000E+00
  0.00000000E+00  0.00000000E+00  0.00000000E+00
  0.00000000E+00  0.00000000E+00  0.00000000E+00
  0.00000000E+00  0.00000000E+00  0.00000000E+00
  0.00000000E+00  0.00000000E+00  0.00000000E+00
  0.00000000E+00  0.00000000E+00  0.00000000E+00
  0.00000000E+00  0.00000000E+00  0.00000000E+00
  0.00000000E+00  0.00000000E+00  0.00000000E+00
  0.00000000E+00  0.00000000E+00  0.00000000E+00
  0.00000000E+00  0.00000000E+00  0.00000000E+00
  0.00000000E+00  0.00000000E+00  0.00000000E+00
  0.00000000E+00  0.00000000E+00  0.00000000E+00
  0.00000000E+00  0.00000000E+00  0.00000000E+00
  0.00000000E+00  0.00000000E+00  0.00000000E+00
  0.00000000E+00  0.00000000E+00  0.00000000E+00
  0.00000000E+00  0.00000000E+00  0.00000000E+00
  0.00000000E+00  0.00000000E+00  0.00000000E+00
  0.00000000E+00  0.00000000E+00  0.00000000E+00
  0.00000000E+00  0.00000000E+00  0.00000000E+00
  0.00000000E+00  0.00000000E+00  0.00000000E+00
  0.00000000E+00  0.00000000E+00  0.00000000E+00
  0.00000000E+00  0.00000000E+00  0.00000000E+00
  0.00000000E+00  0.00000000E+00  0.00000000E+00
  0.00000000E+00  0.00000000E+00  0.00000000E+00
  0.00000000E+00  0.00000000E+00  0.00000000E+00
  0.00000000E+00  0.00000000E+00  0.00000000E+00
  0.00000000E+00  0.00000000E+00  0.00000000E+00
  0.00000000E+00  0.00000000E+00  0.00000000E+00
  0.00000000E+00  0.00000000E+00  0.00000000E+00
  0.00000000E+00  0.00000000E+00  0.00000000E+00
  0.00000000E+00  0.00000000E+00  0.00000000E+00
  0.00000000E+00  0.00000000E+00  0.00000000E+00
