Ga8 O12                                 
    1.000000000000000     
     0.0000000000000000   12.2804737091000007    0.0000000000000000
     9.1427011490000005    0.0000000000000000    0.0000000000000000
     0.0000000000000000   -2.7682616411000001  -11.3006974810000003
   Ga   O    N    Fe
    47    71     1     1
Direct
  0.6588405607301340  0.0004593917085245  0.1577875753322928
  0.6584165920974883  0.9998984276452774  0.6561471603706934
  0.6599696717540127  0.3333590310087189  0.1577445911584761
  0.6596180339461171  0.3331304823073680  0.6551778166858568
  0.6593432743537093  0.6665572218497999  0.1569955926442290
  0.6581457810485105  0.6655344830218226  0.6550805268719841
  0.8412512279983773  0.1669499170819932  0.3444331567138903
  0.8409573739805509  0.1665037980820259  0.8430447656406912
  0.8416805650350696  0.4998623983742618  0.3442120235824717
  0.8409873457026578  0.4999760452377373  0.8428249273652497
  0.8414942798819212  0.8334037486041552  0.3435254619125345
  0.8407874665344579  0.8331454688515905  0.8428647170791450
  0.5858806879091034  0.1665359876873680  0.3967505263925446
  0.5917044197722561  0.1665139366096540  0.8976569042880342
  0.5858551283976823  0.4998988498123680  0.3939475381057918
  0.5916313134185316  0.5000286139750187  0.8971416887188255
  0.5914553602865098  0.8332448246054085  0.3978001287382753
  0.5917893816294821  0.8333393465089856  0.8979229067509777
  0.9085513061049113  0.0002943376080680  0.1023099197745339
  0.9097439577195487  0.9997376401241880  0.6029603407601485
  0.9084430765854563  0.3334826808889346  0.1021800591072903
  0.9102469079403903  0.3332297303078349  0.6025862710648937
  0.9089232579584490  0.6665984169186743  0.1021212765886830
  0.9097938217584840  0.6666756893531485  0.6027940990452691
  0.1588033138030198  0.1677962208358608  0.1580421513381722
  0.1598062334739510  0.1666545683193732  0.6572921693229716
  0.1591443713166356  0.4991103908803609  0.1580899952736772
  0.1597828942475275  0.4998463852861477  0.6572786749021233
  0.1586421889926157  0.8335576946911303  0.1566343639633203
  0.1600737301335116  0.8332765489344069  0.6571249672911605
  0.3398838611877935  0.0008692860789878  0.3437250606999669
  0.3419634099885087  0.0000775304009224  0.8438980591122842
  0.3417926872678265  0.3332716298909517  0.8432207693780072
  0.3398343008856202  0.6669093370891801  0.3430987059300392
  0.3419899888859490  0.6666102309970015  0.8437416144998835
  0.0908836926588776  0.0003919464938065  0.3980497016647320
  0.0915147282236362  0.0001447173722369  0.8982098390422664
  0.0944428627078082  0.3332521813747533  0.3975574015940140
  0.0913246150428151  0.3332921472694892  0.8980966190701807
  0.0910350709831036  0.6663848367345295  0.3979798031963000
  0.0916438494970961  0.6663782744213123  0.8982260445761980
  0.4084609657318765  0.1671391671418618  0.1039540357042199
  0.4076935099868422  0.1676346801840438  0.5997041989677854
  0.4089773253478484  0.5000326197470599  0.1036978427704867
  0.4071660782867852  0.4983457020572573  0.5992372897957026
  0.4088498787660413  0.8334623283180349  0.1030976815519082
  0.4085740877803161  0.8330849523537012  0.6020178933049110
  0.9960394662916272  0.1670325920868336  0.1269170148279031
  0.9972617270149016  0.1663155117983806  0.6281178510570271
  0.9961986290798279  0.4997712077448284  0.1268640609456284
  0.9973129189003345  0.5001054997192469  0.6280804412860874
  0.9960376092566037  0.8335678841532115  0.1266724723593171
  0.9974953516193210  0.8332146539940268  0.6282124988869171
  0.5020756684071870  0.9970447747493978  0.3727961460015763
  0.5043351789271000  0.9999125555976178  0.8727498855689504
  0.5043529759724805  0.3332488030999059  0.8730057240393734
  0.5020029140143905  0.6694396165986163  0.3725541094760345
  0.5043439318434793  0.6667268392479997  0.8724390938312467
  0.6721214104103268  0.1667012127584186  0.2821155422766992
  0.6724911417014781  0.1666689292332890  0.7797992332855230
  0.6728089088754601  0.5007290715776591  0.2808519123210687
  0.6723909853818810  0.4996980728342066  0.7792103765608758
  0.6731666517010240  0.8333775405848698  0.2809808743969739
  0.6721045066198670  0.8329871234424573  0.7797305928028635
  0.8274845584825599  0.0006785896997314  0.2198849769961697
  0.8274149212395940  0.9998629129072185  0.7193639931984563
  0.8274761338430636  0.3333196192898455  0.2198901496123398
  0.8275546283385324  0.3332292488664024  0.7188567370627936
  0.8278247043495028  0.6665144968883823  0.2196334308319834
  0.8271404827665023  0.6661156989304615  0.7189051259120589
  0.8336362682260727  0.9998113316332038  0.4463227567602530
  0.8316796008165994  0.9999058417105431  0.9455569220023392
  0.8331623653798488  0.3335133573023725  0.4463893346902026
  0.8315928830912043  0.3333571964446165  0.9453622283928809
  0.8336359224730572  0.6667740674679052  0.4461428370628795
  0.8316864386518716  0.6665468831352825  0.9454387805668674
  0.6672001543389499  0.1669333171550491  0.0548197638211647
  0.6669121072443644  0.1660383228896194  0.5528691716180489
  0.6672479157090123  0.4996557605104854  0.0542596757186757
  0.6657392512993141  0.4992063340935857  0.5511536933067731
  0.6676291905139777  0.8336627600155566  0.0548544468340992
  0.6680966054341084  0.8330651282912385  0.5543254016302726
  0.4959643948522796  0.0004768265017319  0.1283871214283323
  0.4952778401510898  0.0005278312824615  0.6259159744670626
  0.4970159881529952  0.3333672512277559  0.1333704366852331
  0.4965660246225809  0.3332667539575240  0.6245677207025082
  0.4963817070115937  0.6667206018291481  0.1281264237303645
  0.4949206529552157  0.6653186294524360  0.6252623527511716
  0.0045499668083266  0.1678430712295267  0.3729221403266223
  0.0036741740777941  0.1666419580981255  0.8728427587506999
  0.0047457560401654  0.4988775553239861  0.3728427908988863
  0.0037125634120301  0.4999722882547388  0.8727774237161938
  0.0039834348658871  0.8333389391762012  0.3731365242458864
  0.0040070606885152  0.8332042694321018  0.8732438532600924
  0.1716530257816586  0.0000813555537817  0.2803035234121793
  0.1735093861290977  0.0002833513678553  0.7812727662497139
  0.1754829288219071  0.3337365749119314  0.2801733965582258
  0.1734217598361738  0.3332621002599438  0.7813419933512264
  0.1716018125565597  0.6670280941815818  0.2800552402683820
  0.1735469449257110  0.6662589546166231  0.7812363333894723
  0.3273448905378444  0.1691405835310178  0.2223408788258752
  0.3283977607097412  0.1668172904635341  0.7193729523319021
  0.3282051697850079  0.4987623234752476  0.2221826783580525
  0.3283161885906978  0.4995824628054706  0.7192240744463092
  0.3264484607165627  0.8337335769009613  0.2193385166992101
  0.3280900125079498  0.8332688982694805  0.7200976484107642
  0.3309502397377528  0.1719102210691048  0.4424998189332428
  0.3339624670802550  0.1671435986390577  0.9466166530293947
  0.3293230142243573  0.4946594931689248  0.4415700941150860
  0.3340876853670380  0.4996013497374676  0.9465114337825895
  0.3299084630953502  0.8334402334496716  0.4459222150327520
  0.3329435968844052  0.8333036413248109  0.9461890603889032
  0.1686460933920486  0.0010884053340519  0.0548871028779985
  0.1688796913459072  0.0002521845594003  0.5545201226301089
  0.1686156187668999  0.3334503166924350  0.0543740436899540
  0.1685316159582300  0.3332307928073348  0.5550765110089202
  0.1687015950556372  0.6658394716031566  0.0549121591298771
  0.1689230660858811  0.6662914688016173  0.5544912733161738
  0.4903932147529204  0.3331473937838680  0.3693985099166355
  0.3458671877606747  0.3345132854281161  0.3395833652985516
 
  0.00000000E+00  0.00000000E+00  0.00000000E+00
  0.00000000E+00  0.00000000E+00  0.00000000E+00
  0.00000000E+00  0.00000000E+00  0.00000000E+00
  0.00000000E+00  0.00000000E+00  0.00000000E+00
  0.00000000E+00  0.00000000E+00  0.00000000E+00
  0.00000000E+00  0.00000000E+00  0.00000000E+00
  0.00000000E+00  0.00000000E+00  0.00000000E+00
  0.00000000E+00  0.00000000E+00  0.00000000E+00
  0.00000000E+00  0.00000000E+00  0.00000000E+00
  0.00000000E+00  0.00000000E+00  0.00000000E+00
  0.00000000E+00  0.00000000E+00  0.00000000E+00
  0.00000000E+00  0.00000000E+00  0.00000000E+00
  0.00000000E+00  0.00000000E+00  0.00000000E+00
  0.00000000E+00  0.00000000E+00  0.00000000E+00
  0.00000000E+00  0.00000000E+00  0.00000000E+00
  0.00000000E+00  0.00000000E+00  0.00000000E+00
  0.00000000E+00  0.00000000E+00  0.00000000E+00
  0.00000000E+00  0.00000000E+00  0.00000000E+00
  0.00000000E+00  0.00000000E+00  0.00000000E+00
  0.00000000E+00  0.00000000E+00  0.00000000E+00
  0.00000000E+00  0.00000000E+00  0.00000000E+00
  0.00000000E+00  0.00000000E+00  0.00000000E+00
  0.00000000E+00  0.00000000E+00  0.00000000E+00
  0.00000000E+00  0.00000000E+00  0.00000000E+00
  0.00000000E+00  0.00000000E+00  0.00000000E+00
  0.00000000E+00  0.00000000E+00  0.00000000E+00
  0.00000000E+00  0.00000000E+00  0.00000000E+00
  0.00000000E+00  0.00000000E+00  0.00000000E+00
  0.00000000E+00  0.00000000E+00  0.00000000E+00
  0.00000000E+00  0.00000000E+00  0.00000000E+00
  0.00000000E+00  0.00000000E+00  0.00000000E+00
  0.00000000E+00  0.00000000E+00  0.00000000E+00
  0.00000000E+00  0.00000000E+00  0.00000000E+00
  0.00000000E+00  0.00000000E+00  0.00000000E+00
  0.00000000E+00  0.00000000E+00  0.00000000E+00
  0.00000000E+00  0.00000000E+00  0.00000000E+00
  0.00000000E+00  0.00000000E+00  0.00000000E+00
  0.00000000E+00  0.00000000E+00  0.00000000E+00
  0.00000000E+00  0.00000000E+00  0.00000000E+00
  0.00000000E+00  0.00000000E+00  0.00000000E+00
  0.00000000E+00  0.00000000E+00  0.00000000E+00
  0.00000000E+00  0.00000000E+00  0.00000000E+00
  0.00000000E+00  0.00000000E+00  0.00000000E+00
  0.00000000E+00  0.00000000E+00  0.00000000E+00
  0.00000000E+00  0.00000000E+00  0.00000000E+00
  0.00000000E+00  0.00000000E+00  0.00000000E+00
  0.00000000E+00  0.00000000E+00  0.00000000E+00
  0.00000000E+00  0.00000000E+00  0.00000000E+00
  0.00000000E+00  0.00000000E+00  0.00000000E+00
  0.00000000E+00  0.00000000E+00  0.00000000E+00
  0.00000000E+00  0.00000000E+00  0.00000000E+00
  0.00000000E+00  0.00000000E+00  0.00000000E+00
  0.00000000E+00  0.00000000E+00  0.00000000E+00
  0.00000000E+00  0.00000000E+00  0.00000000E+00
  0.00000000E+00  0.00000000E+00  0.00000000E+00
  0.00000000E+00  0.00000000E+00  0.00000000E+00
  0.00000000E+00  0.00000000E+00  0.00000000E+00
  0.00000000E+00  0.00000000E+00  0.00000000E+00
  0.00000000E+00  0.00000000E+00  0.00000000E+00
  0.00000000E+00  0.00000000E+00  0.00000000E+00
  0.00000000E+00  0.00000000E+00  0.00000000E+00
  0.00000000E+00  0.00000000E+00  0.00000000E+00
  0.00000000E+00  0.00000000E+00  0.00000000E+00
  0.00000000E+00  0.00000000E+00  0.00000000E+00
  0.00000000E+00  0.00000000E+00  0.00000000E+00
  0.00000000E+00  0.00000000E+00  0.00000000E+00
  0.00000000E+00  0.00000000E+00  0.00000000E+00
  0.00000000E+00  0.00000000E+00  0.00000000E+00
  0.00000000E+00  0.00000000E+00  0.00000000E+00
  0.00000000E+00  0.00000000E+00  0.00000000E+00
  0.00000000E+00  0.00000000E+00  0.00000000E+00
  0.00000000E+00  0.00000000E+00  0.00000000E+00
  0.00000000E+00  0.00000000E+00  0.00000000E+00
  0.00000000E+00  0.00000000E+00  0.00000000E+00
  0.00000000E+00  0.00000000E+00  0.00000000E+00
  0.00000000E+00  0.00000000E+00  0.00000000E+00
  0.00000000E+00  0.00000000E+00  0.00000000E+00
  0.00000000E+00  0.00000000E+00  0.00000000E+00
  0.00000000E+00  0.00000000E+00  0.00000000E+00
  0.00000000E+00  0.00000000E+00  0.00000000E+00
  0.00000000E+00  0.00000000E+00  0.00000000E+00
  0.00000000E+00  0.00000000E+00  0.00000000E+00
  0.00000000E+00  0.00000000E+00  0.00000000E+00
  0.00000000E+00  0.00000000E+00  0.00000000E+00
  0.00000000E+00  0.00000000E+00  0.00000000E+00
  0.00000000E+00  0.00000000E+00  0.00000000E+00
  0.00000000E+00  0.00000000E+00  0.00000000E+00
  0.00000000E+00  0.00000000E+00  0.00000000E+00
  0.00000000E+00  0.00000000E+00  0.00000000E+00
  0.00000000E+00  0.00000000E+00  0.00000000E+00
  0.00000000E+00  0.00000000E+00  0.00000000E+00
  0.00000000E+00  0.00000000E+00  0.00000000E+00
  0.00000000E+00  0.00000000E+00  0.00000000E+00
  0.00000000E+00  0.00000000E+00  0.00000000E+00
  0.00000000E+00  0.00000000E+00  0.00000000E+00
  0.00000000E+00  0.00000000E+00  0.00000000E+00
  0.00000000E+00  0.00000000E+00  0.00000000E+00
  0.00000000E+00  0.00000000E+00  0.00000000E+00
  0.00000000E+00  0.00000000E+00  0.00000000E+00
  0.00000000E+00  0.00000000E+00  0.00000000E+00
  0.00000000E+00  0.00000000E+00  0.00000000E+00
  0.00000000E+00  0.00000000E+00  0.00000000E+00
  0.00000000E+00  0.00000000E+00  0.00000000E+00
  0.00000000E+00  0.00000000E+00  0.00000000E+00
  0.00000000E+00  0.00000000E+00  0.00000000E+00
  0.00000000E+00  0.00000000E+00  0.00000000E+00
  0.00000000E+00  0.00000000E+00  0.00000000E+00
  0.00000000E+00  0.00000000E+00  0.00000000E+00
  0.00000000E+00  0.00000000E+00  0.00000000E+00
  0.00000000E+00  0.00000000E+00  0.00000000E+00
  0.00000000E+00  0.00000000E+00  0.00000000E+00
  0.00000000E+00  0.00000000E+00  0.00000000E+00
  0.00000000E+00  0.00000000E+00  0.00000000E+00
  0.00000000E+00  0.00000000E+00  0.00000000E+00
  0.00000000E+00  0.00000000E+00  0.00000000E+00
  0.00000000E+00  0.00000000E+00  0.00000000E+00
  0.00000000E+00  0.00000000E+00  0.00000000E+00
  0.00000000E+00  0.00000000E+00  0.00000000E+00
  0.00000000E+00  0.00000000E+00  0.00000000E+00
  0.00000000E+00  0.00000000E+00  0.00000000E+00
