 running    4 mpi-ranks, on    1 nodes
 distrk:  each k-point on    1 cores,    4 groups
 distr:  one band on    1 cores,    1 groups
 OpenACC runtime initialized ...    4 GPUs detected
 vasp.6.4.2 20Jul23 (build Nov 12 2023 22:16:35) complex                         
 POSCAR found type information on POSCAR GaO N Fe
 POSCAR found :  4 types and     120 ions
 scaLAPACK will be used selectively (only on CPU)
 LDA part: xc-table for Pade appr. of Perdew
 POSCAR, INCAR and KPOINTS ok, starting setup
 FFT: planning ... GRIDC
 FFT: planning ... GRID_SOFT
 FFT: planning ... GRID
 WAVECAR not read
 initial charge from wavefunction
 entering main loop
       N       E                     dE             d eps       ncg     rms          rms(c)
DAV:   1     0.121877299803E+05    0.12188E+05   -0.58366E+05 10544   0.705E+03
DAV:   2    -0.308974985622E+05   -0.43085E+05   -0.41674E+05 13328   0.119E+03
DAV:   3    -0.353921588683E+05   -0.44947E+04   -0.40735E+04 14276   0.351E+02
DAV:   4    -0.358530849559E+05   -0.46093E+03   -0.40253E+03 16808   0.100E+02
DAV:   5    -0.358985396355E+05   -0.45455E+02   -0.41390E+02 19544   0.295E+01    0.731E+02
DAV:   6    -0.107340458310E+05    0.25164E+05   -0.19095E+04 14190   0.242E+02    0.548E+02
DAV:   7    -0.407866929982E+04    0.66554E+04   -0.76418E+03 16000   0.172E+02    0.268E+02
DAV:   8    -0.117667552713E+04    0.29020E+04   -0.10240E+04 15044   0.267E+02    0.218E+02
DAV:   9    -0.771282246789E+03    0.40539E+03   -0.12643E+03 14892   0.118E+02    0.162E+02
DAV:  10    -0.807525749450E+03   -0.36244E+02   -0.10247E+03 14984   0.751E+01    0.690E+01
DAV:  11    -0.753425130638E+03    0.54101E+02   -0.32217E+02 13384   0.846E+01    0.116E+02
DAV:  12    -0.733384276517E+03    0.20041E+02   -0.93544E+01 14560   0.255E+01    0.814E+01
DAV:  13    -0.726819564970E+03    0.65647E+01   -0.36291E+01 13552   0.233E+01    0.807E+01
DAV:  14    -0.726158139913E+03    0.66143E+00   -0.13696E+01 14984   0.178E+01    0.663E+01
DAV:  15    -0.720932805500E+03    0.52253E+01   -0.20422E+01 15352   0.124E+01    0.423E+01
DAV:  16    -0.720422499916E+03    0.51031E+00   -0.62827E+00 14016   0.701E+00    0.323E+01
DAV:  17    -0.720240437298E+03    0.18206E+00   -0.14481E+00 12848   0.270E+00    0.291E+01
DAV:  18    -0.720132989421E+03    0.10745E+00   -0.12883E-01 14440   0.138E+00    0.280E+01
DAV:  19    -0.719601462526E+03    0.53153E+00   -0.18271E-01 15240   0.424E+00    0.222E+01
DAV:  20    -0.718530795351E+03    0.10707E+01   -0.94028E-01 15936   0.877E+00    0.986E+00
DAV:  21    -0.718500608566E+03    0.30187E-01   -0.10125E+00 12176   0.249E+00    0.797E+00
DAV:  22    -0.718516589774E+03   -0.15981E-01   -0.20103E-01 13768   0.983E-01    0.780E+00
DAV:  23    -0.718519102760E+03   -0.25130E-02   -0.62538E-03 15440   0.220E-01    0.781E+00
DAV:  24    -0.718518616576E+03    0.48618E-03   -0.11498E-03 17288   0.229E-01    0.778E+00
DAV:  25    -0.718523484510E+03   -0.48679E-02   -0.53951E-01 14280   0.223E+00    0.795E+00
DAV:  26    -0.718517778859E+03    0.57057E-02   -0.45221E-01 13424   0.493E-01    0.682E+00
DAV:  27    -0.718619944619E+03   -0.10217E+00   -0.19031E+00 15128   0.226E+00    0.856E+00
DAV:  28    -0.718555179416E+03    0.64765E-01   -0.67388E-01 13592   0.648E-01    0.602E+00
DAV:  29    -0.718621666755E+03   -0.66487E-01   -0.83573E-01 14224   0.579E+00    0.861E+00
DAV:  30    -0.718634202051E+03   -0.12535E-01   -0.20495E-01 15344   0.371E+00    0.788E+00
DAV:  31    -0.718658352292E+03   -0.24150E-01   -0.99275E-02 15592   0.170E+00    0.861E+00
DAV:  32    -0.718657992750E+03    0.35954E-03   -0.20665E-02 15184   0.816E-01    0.850E+00
DAV:  33    -0.718690685616E+03   -0.32693E-01   -0.26838E-02 16088   0.884E-01    0.915E+00
DAV:  34    -0.718686000910E+03    0.46847E-02   -0.13843E-02 15232   0.598E-01    0.909E+00
DAV:  35    -0.718686555200E+03   -0.55429E-03   -0.73013E-03 16240   0.516E-01    0.930E+00
DAV:  36    -0.718684772466E+03    0.17827E-02   -0.76075E-03 11192   0.178E-01    0.922E+00
DAV:  37    -0.718685391350E+03   -0.61888E-03   -0.65384E-04 12080   0.143E-01    0.929E+00
DAV:  38    -0.718677677807E+03    0.77135E-02   -0.58437E-03 12632   0.844E-01    0.905E+00
DAV:  39    -0.718695258562E+03   -0.17581E-01   -0.75154E-03 12864   0.740E-01    0.938E+00
DAV:  40    -0.718662145134E+03    0.33113E-01   -0.10857E-02 13184   0.671E-01    0.891E+00
DAV:  41    -0.718622138699E+03    0.40006E-01   -0.60378E-03 15136   0.667E-01    0.855E+00
DAV:  42    -0.718592250574E+03    0.29888E-01   -0.54098E-03 15576   0.394E-01    0.817E+00
DAV:  43    -0.718582744539E+03    0.95060E-02   -0.12374E-03 13136   0.170E-01    0.816E+00
DAV:  44    -0.718567145717E+03    0.15599E-01   -0.27091E-03 12576   0.186E-01    0.790E+00
DAV:  45    -0.718470777606E+03    0.96368E-01   -0.30727E-02 15224   0.101E+00    0.677E+00
DAV:  46    -0.718420482357E+03    0.50295E-01   -0.10336E-02 14840   0.461E-01    0.617E+00
DAV:  47    -0.718397257030E+03    0.23225E-01   -0.68823E-03 14312   0.137E-01    0.563E+00
DAV:  48    -0.718396045914E+03    0.12111E-02   -0.25672E-03 14400   0.893E-02    0.582E+00
DAV:  49    -0.718340133985E+03    0.55912E-01   -0.17911E-01 13328   0.664E-01    0.305E+00
DAV:  50    -0.718344413051E+03   -0.42791E-02   -0.15254E-01 15384   0.345E-01    0.495E+00
DAV:  51    -0.718328045153E+03    0.16368E-01   -0.19959E-01 12192   0.109E+00    0.254E+00
DAV:  52    -0.718285672712E+03    0.42372E-01   -0.17917E-02 13688   0.559E-01    0.228E+00
DAV:  53    -0.718279687100E+03    0.59856E-02   -0.37868E-02 14576   0.550E-01    0.116E+00
DAV:  54    -0.718275232369E+03    0.44547E-02   -0.10997E-02 14376   0.214E-01    0.149E+00
DAV:  55    -0.718275845862E+03   -0.61349E-03   -0.42765E-03 12968   0.878E-01    0.141E+00
DAV:  56    -0.718268932090E+03    0.69138E-02   -0.33737E-02 15416   0.687E-01    0.288E-01
DAV:  57    -0.718267236078E+03    0.16960E-02   -0.11084E-02 14800   0.207E-01    0.562E-01
DAV:  58    -0.718267280499E+03   -0.44421E-04   -0.10597E-02 13480   0.841E-02    0.184E-01
DAV:  59    -0.718268157680E+03   -0.87718E-03   -0.19159E-02 12040   0.183E-01    0.778E-01
DAV:  60    -0.718268420058E+03   -0.26238E-03   -0.37069E-02 10848   0.246E-01    0.365E-01
DAV:  61    -0.718267684282E+03    0.73578E-03   -0.24512E-02 11152   0.161E-01    0.451E-01
DAV:  62    -0.718268468359E+03   -0.78408E-03   -0.39950E-02 11120   0.897E-02    0.660E-01
DAV:  63    -0.718268932975E+03   -0.46462E-03   -0.50710E-02 10304   0.114E-01    0.552E-01
DAV:  64    -0.718269246600E+03   -0.31363E-03   -0.55522E-02 10408   0.193E-01    0.700E-01
DAV:  65    -0.718270025912E+03   -0.77931E-03   -0.72099E-02  8312   0.107E-01    0.750E-01
DAV:  66    -0.718270736293E+03   -0.71038E-03   -0.86134E-02  8568   0.131E-01    0.815E-01
DAV:  67    -0.718271518296E+03   -0.78200E-03   -0.10176E-01  8264   0.111E-01    0.880E-01
DAV:  68    -0.718272799831E+03   -0.12815E-02   -0.12686E-01  8328   0.153E-01    0.101E+00
DAV:  69    -0.718273580018E+03   -0.78019E-03   -0.14383E-01  8264   0.132E-01    0.979E-01
DAV:  70    -0.718274841186E+03   -0.12612E-02   -0.16670E-01  8312   0.163E-01    0.117E+00
DAV:  71    -0.718274828406E+03    0.12780E-04   -0.16899E-01  8280   0.148E-01    0.953E-01
DAV:  72    -0.718275726460E+03   -0.89805E-03   -0.18209E-01  8352   0.152E-01    0.126E+00
DAV:  73    -0.718275639465E+03    0.86996E-04   -0.18554E-01  8368   0.154E-01    0.950E-01
DAV:  74    -0.718276303217E+03   -0.66375E-03   -0.19244E-01  8384   0.155E-01    0.131E+00
DAV:  75    -0.718276015251E+03    0.28797E-03   -0.19285E-01  8376   0.158E-01    0.934E-01
DAV:  76    -0.718276486575E+03   -0.47132E-03   -0.19519E-01  8384   0.154E-01    0.134E+00
DAV:  77    -0.718276055721E+03    0.43085E-03   -0.19329E-01  8352   0.159E-01    0.910E-01
DAV:  78    -0.718276397427E+03   -0.34171E-03   -0.19269E-01  8360   0.154E-01    0.134E+00
DAV:  79    -0.718275926784E+03    0.47064E-03   -0.19044E-01  8344   0.156E-01    0.887E-01
DAV:  80    -0.718276229149E+03   -0.30237E-03   -0.18883E-01  8344   0.153E-01    0.134E+00
DAV:  81    -0.718275543028E+03    0.68612E-03   -0.18143E-01  8312   0.159E-01    0.829E-01
DAV:  82    -0.718275933583E+03   -0.39056E-03   -0.18097E-01  8288   0.149E-01    0.135E+00
DAV:  83    -0.718275529016E+03    0.40457E-03   -0.18182E-01  8288   0.149E-01    0.830E-01
DAV:  84    -0.718275815896E+03   -0.28688E-03   -0.17912E-01  8288   0.150E-01    0.133E+00
DAV:  85    -0.718275411356E+03    0.40454E-03   -0.17964E-01  8280   0.149E-01    0.832E-01
DAV:  86    -0.718275593808E+03   -0.18245E-03   -0.17550E-01  8272   0.149E-01    0.131E+00
DAV:  87    -0.718275156866E+03    0.43694E-03   -0.17448E-01  8264   0.147E-01    0.823E-01
DAV:  88    -0.718275438965E+03   -0.28210E-03   -0.17245E-01  8256   0.146E-01    0.130E+00
DAV:  89    -0.718275002127E+03    0.43684E-03   -0.17125E-01  8240   0.145E-01    0.812E-01
DAV:  90    -0.718275297359E+03   -0.29523E-03   -0.16950E-01  8240   0.145E-01    0.130E+00
DAV:  91    -0.718274852521E+03    0.44484E-03   -0.16811E-01  8240   0.144E-01    0.797E-01
DAV:  92    -0.718275056804E+03   -0.20428E-03   -0.16480E-01  8240   0.144E-01    0.128E+00
DAV:  93    -0.718274653080E+03    0.40372E-03   -0.16421E-01  8240   0.142E-01    0.790E-01
DAV:  94    -0.718274902173E+03   -0.24909E-03   -0.16188E-01  8240   0.142E-01    0.127E+00
DAV:  95    -0.718274525638E+03    0.37653E-03   -0.16172E-01  8240   0.141E-01    0.786E-01
DAV:  96    -0.718274853829E+03   -0.32819E-03   -0.16083E-01  8240   0.141E-01    0.127E+00
DAV:  97    -0.718274366717E+03    0.48711E-03   -0.15781E-01  8240   0.141E-01    0.756E-01
DAV:  98    -0.718274519419E+03   -0.15270E-03   -0.15392E-01  8232   0.140E-01    0.125E+00
DAV:  99    -0.718274081562E+03    0.43786E-03   -0.15205E-01  8224   0.138E-01    0.740E-01
DAV: 100    -0.718274242451E+03   -0.16089E-03   -0.14854E-01  8224   0.137E-01    0.123E+00
DAV: 101    -0.718273917573E+03    0.32488E-03   -0.14925E-01  8224   0.135E-01    0.746E-01
DAV: 102    -0.718274233513E+03   -0.31594E-03   -0.14864E-01  8218   0.135E-01    0.123E+00
DAV: 103    -0.718273950217E+03    0.28330E-03   -0.15019E-01  8218   0.135E-01    0.760E-01
DAV: 104    -0.718274375515E+03   -0.42530E-03   -0.15162E-01  8218   0.135E-01    0.124E+00
DAV: 105    -0.718274079038E+03    0.29648E-03   -0.15286E-01  8224   0.136E-01    0.770E-01
DAV: 106    -0.718274479170E+03   -0.40013E-03   -0.15378E-01  8218   0.136E-01    0.124E+00
DAV: 107    -0.718274167229E+03    0.31194E-03   -0.15465E-01  8218   0.137E-01    0.774E-01
DAV: 108    -0.718274536776E+03   -0.36955E-03   -0.15492E-01  8218   0.137E-01    0.124E+00
DAV: 109    -0.718274220045E+03    0.31673E-03   -0.15573E-01  8218   0.137E-01    0.776E-01
DAV: 110    -0.718274565302E+03   -0.34526E-03   -0.15550E-01  8218   0.137E-01    0.124E+00
DAV: 111    -0.718274239824E+03    0.32548E-03   -0.15611E-01  8218   0.137E-01    0.776E-01
DAV: 112    -0.718274571778E+03   -0.33195E-03   -0.15561E-01  8218   0.138E-01    0.125E+00
DAV: 113    -0.718274246769E+03    0.32501E-03   -0.15626E-01  8218   0.138E-01    0.776E-01
DAV: 114    -0.718274573739E+03   -0.32697E-03   -0.15565E-01  8218   0.138E-01    0.125E+00
DAV: 115    -0.718274250033E+03    0.32371E-03   -0.15634E-01  8218   0.138E-01    0.777E-01
DAV: 116    -0.718274579129E+03   -0.32910E-03   -0.15577E-01  8218   0.138E-01    0.125E+00
DAV: 117    -0.718274270256E+03    0.30887E-03   -0.15683E-01  8218   0.137E-01    0.781E-01
DAV: 118    -0.718274629199E+03   -0.35894E-03   -0.15680E-01  8218   0.138E-01    0.125E+00
DAV: 119    -0.718274313802E+03    0.31540E-03   -0.15771E-01  8218   0.138E-01    0.784E-01
DAV: 120    -0.718274678349E+03   -0.36455E-03   -0.15776E-01  8218   0.138E-01    0.125E+00
DAV: 121    -0.718274357676E+03    0.32067E-03   -0.15860E-01  8218   0.138E-01    0.787E-01
DAV: 122    -0.718274736160E+03   -0.37848E-03   -0.15885E-01  8218   0.138E-01    0.126E+00
DAV: 123    -0.718274405024E+03    0.33114E-03   -0.15953E-01  8218   0.139E-01    0.789E-01
DAV: 124    -0.718274779302E+03   -0.37428E-03   -0.15966E-01  8218   0.139E-01    0.126E+00
DAV: 125    -0.718274440469E+03    0.33883E-03   -0.16022E-01  8218   0.139E-01    0.790E-01
DAV: 126    -0.718274807486E+03   -0.36702E-03   -0.16019E-01  8218   0.139E-01    0.126E+00
DAV: 127    -0.718274460654E+03    0.34683E-03   -0.16060E-01  8218   0.139E-01    0.790E-01
DAV: 128    -0.718274823529E+03   -0.36287E-03   -0.16046E-01  8218   0.139E-01    0.126E+00
DAV: 129    -0.718274473483E+03    0.35005E-03   -0.16084E-01  8218   0.139E-01    0.790E-01
DAV: 130    -0.718274833472E+03   -0.35999E-03   -0.16063E-01  8226   0.140E-01    0.126E+00
DAV: 131    -0.718274481208E+03    0.35226E-03   -0.16098E-01  8226   0.140E-01    0.789E-01
DAV: 132    -0.718274838235E+03   -0.35703E-03   -0.16070E-01  8226   0.140E-01    0.126E+00
DAV: 133    -0.718274484869E+03    0.35337E-03   -0.16105E-01  8226   0.140E-01    0.789E-01
DAV: 134    -0.718274840282E+03   -0.35541E-03   -0.16072E-01  8226   0.140E-01    0.126E+00
DAV: 135    -0.718274486194E+03    0.35409E-03   -0.16106E-01  8226   0.140E-01    0.788E-01
DAV: 136    -0.718274841078E+03   -0.35488E-03   -0.16071E-01  8226   0.140E-01    0.126E+00
DAV: 137    -0.718274486781E+03    0.35430E-03   -0.16106E-01  8226   0.140E-01    0.788E-01
DAV: 138    -0.718274837951E+03   -0.35117E-03   -0.16063E-01  8226   0.140E-01    0.126E+00
DAV: 139    -0.718274484098E+03    0.35385E-03   -0.16100E-01  8226   0.140E-01    0.787E-01
DAV: 140    -0.718274834373E+03   -0.35027E-03   -0.16054E-01  8226   0.140E-01    0.126E+00
DAV: 141    -0.718274487524E+03    0.34685E-03   -0.16110E-01  8226   0.139E-01    0.788E-01
DAV: 142    -0.718274842627E+03   -0.35510E-03   -0.16069E-01  8226   0.139E-01    0.127E+00
DAV: 143    -0.718274500323E+03    0.34230E-03   -0.16136E-01  8226   0.139E-01    0.788E-01
DAV: 144    -0.718274848492E+03   -0.34817E-03   -0.16078E-01  8226   0.140E-01    0.127E+00
DAV: 145    -0.718274509361E+03    0.33913E-03   -0.16155E-01  8226   0.140E-01    0.788E-01
DAV: 146    -0.718274859336E+03   -0.34998E-03   -0.16095E-01  8226   0.140E-01    0.127E+00
DAV: 147    -0.718274531218E+03    0.32812E-03   -0.16203E-01  8226   0.140E-01    0.788E-01
DAV: 148    -0.718274862890E+03   -0.33167E-03   -0.16095E-01  8226   0.140E-01    0.127E+00
DAV: 149    -0.718274558453E+03    0.30444E-03   -0.16264E-01  8226   0.140E-01    0.789E-01
DAV: 150    -0.718274881986E+03   -0.32353E-03   -0.16133E-01  8226   0.140E-01    0.127E+00
DAV: 151    -0.718274560327E+03    0.32166E-03   -0.16262E-01  8226   0.140E-01    0.790E-01
DAV: 152    -0.718274904818E+03   -0.34449E-03   -0.16181E-01  8226   0.140E-01    0.127E+00
DAV: 153    -0.718274557321E+03    0.34750E-03   -0.16248E-01  8226   0.140E-01    0.790E-01
DAV: 154    -0.718274916845E+03   -0.35952E-03   -0.16206E-01  8226   0.140E-01    0.127E+00
DAV: 155    -0.718274550485E+03    0.36636E-03   -0.16227E-01  8226   0.140E-01    0.789E-01
DAV: 156    -0.718274923057E+03   -0.37257E-03   -0.16217E-01  8226   0.140E-01    0.127E+00
DAV: 157    -0.718274547170E+03    0.37589E-03   -0.16217E-01  8226   0.140E-01    0.789E-01
DAV: 158    -0.718274925846E+03   -0.37868E-03   -0.16220E-01  8226   0.140E-01    0.127E+00
DAV: 159    -0.718274550463E+03    0.37538E-03   -0.16225E-01  8226   0.140E-01    0.789E-01
DAV: 160    -0.718274926996E+03   -0.37653E-03   -0.16220E-01  8226   0.140E-01    0.127E+00
DAV: 161    -0.718274557240E+03    0.36976E-03   -0.16240E-01  8226   0.140E-01    0.789E-01
DAV: 162    -0.718274930512E+03   -0.37327E-03   -0.16225E-01  8226   0.140E-01    0.127E+00
DAV: 163    -0.718274564089E+03    0.36642E-03   -0.16255E-01  8226   0.140E-01    0.789E-01
DAV: 164    -0.718274934690E+03   -0.37060E-03   -0.16231E-01  8226   0.140E-01    0.127E+00
DAV: 165    -0.718274569866E+03    0.36482E-03   -0.16267E-01  8226   0.140E-01    0.789E-01
DAV: 166    -0.718274938949E+03   -0.36908E-03   -0.16238E-01  8226   0.140E-01    0.127E+00
DAV: 167    -0.718274574221E+03    0.36473E-03   -0.16275E-01  8226   0.140E-01    0.789E-01
DAV: 168    -0.718274943274E+03   -0.36905E-03   -0.16245E-01  8226   0.140E-01    0.127E+00
DAV: 169    -0.718274578443E+03    0.36483E-03   -0.16284E-01  8226   0.140E-01    0.789E-01
DAV: 170    -0.718274947107E+03   -0.36866E-03   -0.16251E-01  8226   0.140E-01    0.128E+00
DAV: 171    -0.718274582137E+03    0.36497E-03   -0.16291E-01  8226   0.140E-01    0.789E-01
DAV: 172    -0.718274951259E+03   -0.36912E-03   -0.16258E-01  8226   0.140E-01    0.128E+00
DAV: 173    -0.718274585470E+03    0.36579E-03   -0.16297E-01  8226   0.140E-01    0.789E-01
DAV: 174    -0.718274954512E+03   -0.36904E-03   -0.16263E-01  8226   0.140E-01    0.128E+00
DAV: 175    -0.718274588504E+03    0.36601E-03   -0.16303E-01  8226   0.140E-01    0.789E-01
DAV: 176    -0.718274957700E+03   -0.36920E-03   -0.16268E-01  8226   0.140E-01    0.128E+00
DAV: 177    -0.718274591458E+03    0.36624E-03   -0.16308E-01  8226   0.140E-01    0.789E-01
DAV: 178    -0.718274961244E+03   -0.36979E-03   -0.16274E-01  8226   0.140E-01    0.128E+00
DAV: 179    -0.718274594352E+03    0.36689E-03   -0.16314E-01  8226   0.140E-01    0.789E-01
DAV: 180    -0.718274964082E+03   -0.36973E-03   -0.16279E-01  8226   0.140E-01    0.128E+00
DAV: 181    -0.718274597482E+03    0.36660E-03   -0.16320E-01  8226   0.140E-01    0.789E-01
DAV: 182    -0.718274968181E+03   -0.37070E-03   -0.16286E-01  8226   0.140E-01    0.128E+00
DAV: 183    -0.718274600564E+03    0.36762E-03   -0.16326E-01  8226   0.140E-01    0.789E-01
DAV: 184    -0.718274971369E+03   -0.37081E-03   -0.16291E-01  8226   0.141E-01    0.128E+00
DAV: 185    -0.718274603385E+03    0.36798E-03   -0.16331E-01  8226   0.141E-01    0.789E-01
DAV: 186    -0.718274974605E+03   -0.37122E-03   -0.16296E-01  8226   0.141E-01    0.128E+00
DAV: 187    -0.718274606678E+03    0.36793E-03   -0.16338E-01  8226   0.141E-01    0.789E-01
DAV: 188    -0.718274977695E+03   -0.37102E-03   -0.16302E-01  8226   0.141E-01    0.128E+00
DAV: 189    -0.718274609554E+03    0.36814E-03   -0.16344E-01  8226   0.141E-01    0.789E-01
DAV: 190    -0.718274980346E+03   -0.37079E-03   -0.16306E-01  8226   0.141E-01    0.128E+00
DAV: 191    -0.718274612672E+03    0.36767E-03   -0.16351E-01  8226   0.141E-01    0.789E-01
DAV: 192    -0.718274979646E+03   -0.36697E-03   -0.16302E-01  8220   0.141E-01    0.128E+00
DAV: 193    -0.718274624920E+03    0.35473E-03   -0.16379E-01  8220   0.141E-01    0.789E-01
DAV: 194    -0.718274979667E+03   -0.35475E-03   -0.16299E-01  8220   0.141E-01    0.128E+00
DAV: 195    -0.718274640270E+03    0.33940E-03   -0.16414E-01  8220   0.141E-01    0.789E-01
DAV: 196    -0.718274987393E+03   -0.34712E-03   -0.16313E-01  8220   0.141E-01    0.128E+00
DAV: 197    -0.718274653123E+03    0.33427E-03   -0.16442E-01  8220   0.141E-01    0.790E-01
DAV: 198    -0.718274998897E+03   -0.34577E-03   -0.16337E-01  8220   0.141E-01    0.128E+00
DAV: 199    -0.718274651458E+03    0.34744E-03   -0.16435E-01  8220   0.141E-01    0.790E-01
DAV: 200    -0.718275008365E+03   -0.35691E-03   -0.16358E-01  8220   0.141E-01    0.128E+00
DAV: 201    -0.718274646345E+03    0.36202E-03   -0.16420E-01  8220   0.141E-01    0.790E-01
DAV: 202    -0.718275011605E+03   -0.36526E-03   -0.16365E-01  8220   0.141E-01    0.128E+00
DAV: 203    -0.718274641305E+03    0.37030E-03   -0.16407E-01  8220   0.141E-01    0.790E-01
DAV: 204    -0.718275011964E+03   -0.37066E-03   -0.16366E-01  8220   0.141E-01    0.128E+00
DAV: 205    -0.718274635840E+03    0.37612E-03   -0.16394E-01  8220   0.141E-01    0.790E-01
DAV: 206    -0.718275010591E+03   -0.37475E-03   -0.16363E-01  8220   0.141E-01    0.128E+00
DAV: 207    -0.718274628902E+03    0.38169E-03   -0.16378E-01  8220   0.141E-01    0.789E-01
DAV: 208    -0.718275010065E+03   -0.38116E-03   -0.16362E-01  8220   0.141E-01    0.128E+00
DAV: 209    -0.718274622797E+03    0.38727E-03   -0.16364E-01  8220   0.141E-01    0.789E-01
DAV: 210    -0.718275007574E+03   -0.38478E-03   -0.16357E-01  8220   0.141E-01    0.128E+00
DAV: 211    -0.718274619761E+03    0.38781E-03   -0.16357E-01  8220   0.141E-01    0.789E-01
DAV: 212    -0.718275005742E+03   -0.38598E-03   -0.16353E-01  8220   0.141E-01    0.128E+00
DAV: 213    -0.718274619003E+03    0.38674E-03   -0.16356E-01  8220   0.141E-01    0.789E-01
DAV: 214    -0.718275003258E+03   -0.38425E-03   -0.16347E-01  8220   0.141E-01    0.128E+00
DAV: 215    -0.718274620476E+03    0.38278E-03   -0.16360E-01  8220   0.141E-01    0.789E-01
DAV: 216    -0.718275001956E+03   -0.38148E-03   -0.16343E-01  8220   0.141E-01    0.128E+00
DAV: 217    -0.718274622702E+03    0.37925E-03   -0.16366E-01  8220   0.141E-01    0.789E-01
DAV: 218    -0.718275002385E+03   -0.37968E-03   -0.16344E-01  8220   0.140E-01    0.128E+00
DAV: 219    -0.718274625274E+03    0.37711E-03   -0.16371E-01  8220   0.141E-01    0.789E-01
DAV: 220    -0.718275003317E+03   -0.37804E-03   -0.16345E-01  8220   0.141E-01    0.128E+00
DAV: 221    -0.718274627782E+03    0.37553E-03   -0.16377E-01  8220   0.141E-01    0.789E-01
DAV: 222    -0.718275005057E+03   -0.37727E-03   -0.16348E-01  8220   0.141E-01    0.128E+00
DAV: 223    -0.718274629755E+03    0.37530E-03   -0.16381E-01  8220   0.141E-01    0.789E-01
DAV: 224    -0.718275006421E+03   -0.37667E-03   -0.16351E-01  8220   0.141E-01    0.128E+00
DAV: 225    -0.718274631374E+03    0.37505E-03   -0.16384E-01  8220   0.141E-01    0.789E-01
DAV: 226    -0.718275007605E+03   -0.37623E-03   -0.16353E-01  8220   0.141E-01    0.128E+00
DAV: 227    -0.718274632648E+03    0.37496E-03   -0.16387E-01  8220   0.141E-01    0.789E-01
DAV: 228    -0.718275008903E+03   -0.37625E-03   -0.16355E-01  8220   0.141E-01    0.128E+00
DAV: 229    -0.718274633894E+03    0.37501E-03   -0.16389E-01  8220   0.141E-01    0.789E-01
DAV: 230    -0.718275009970E+03   -0.37608E-03   -0.16357E-01  8220   0.141E-01    0.128E+00
DAV: 231    -0.718274635115E+03    0.37485E-03   -0.16392E-01  8220   0.141E-01    0.789E-01
DAV: 232    -0.718275011235E+03   -0.37612E-03   -0.16359E-01  8220   0.141E-01    0.128E+00
DAV: 233    -0.718274636174E+03    0.37506E-03   -0.16394E-01  8220   0.141E-01    0.789E-01
DAV: 234    -0.718275012145E+03   -0.37597E-03   -0.16361E-01  8220   0.141E-01    0.128E+00
DAV: 235    -0.718274637116E+03    0.37503E-03   -0.16396E-01  8220   0.141E-01    0.789E-01
DAV: 236    -0.718275013079E+03   -0.37596E-03   -0.16362E-01  8220   0.141E-01    0.128E+00
DAV: 237    -0.718274639294E+03    0.37378E-03   -0.16401E-01  8220   0.141E-01    0.789E-01
DAV: 238    -0.718275012984E+03   -0.37369E-03   -0.16362E-01  8220   0.141E-01    0.128E+00
DAV: 239    -0.718274641788E+03    0.37120E-03   -0.16407E-01  8220   0.141E-01    0.789E-01
DAV: 240    -0.718275013565E+03   -0.37178E-03   -0.16362E-01  8220   0.141E-01    0.128E+00
DAV: 241    -0.718274645099E+03    0.36847E-03   -0.16415E-01  8220   0.141E-01    0.788E-01
DAV: 242    -0.718275007381E+03   -0.36228E-03   -0.16344E-01  8220   0.141E-01    0.128E+00
DAV: 243    -0.718274680292E+03    0.32709E-03   -0.16498E-01  8220   0.141E-01    0.789E-01
DAV: 244    -0.718275000268E+03   -0.31998E-03   -0.16326E-01  8220   0.142E-01    0.128E+00
DAV: 245    -0.718274680576E+03    0.31969E-03   -0.16499E-01  8220   0.141E-01    0.790E-01
DAV: 246    -0.718275026561E+03   -0.34598E-03   -0.16387E-01  8220   0.141E-01    0.128E+00
DAV: 247    -0.718274665398E+03    0.36116E-03   -0.16457E-01  8220   0.141E-01    0.790E-01
DAV: 248    -0.718275032748E+03   -0.36735E-03   -0.16401E-01  8220   0.141E-01    0.128E+00
DAV: 249    -0.718274658423E+03    0.37432E-03   -0.16440E-01  8220   0.141E-01    0.790E-01
DAV: 250    -0.718275031191E+03   -0.37277E-03   -0.16398E-01  8220   0.141E-01    0.128E+00
DAV: 251    -0.718274654283E+03    0.37691E-03   -0.16430E-01  8220   0.141E-01    0.790E-01
DAV: 252    -0.718275029413E+03   -0.37513E-03   -0.16394E-01  8220   0.141E-01    0.128E+00
DAV: 253    -0.718274651086E+03    0.37833E-03   -0.16424E-01  8220   0.141E-01    0.790E-01
DAV: 254    -0.718275027189E+03   -0.37610E-03   -0.16390E-01  8220   0.141E-01    0.128E+00
DAV: 255    -0.718274649053E+03    0.37814E-03   -0.16419E-01  8220   0.141E-01    0.789E-01
DAV: 256    -0.718275025341E+03   -0.37629E-03   -0.16386E-01  8220   0.141E-01    0.128E+00
DAV: 257    -0.718274646565E+03    0.37878E-03   -0.16414E-01  8220   0.141E-01    0.789E-01
DAV: 258    -0.718275024740E+03   -0.37817E-03   -0.16385E-01  8220   0.141E-01    0.128E+00
DAV: 259    -0.718274645222E+03    0.37952E-03   -0.16411E-01  8220   0.141E-01    0.789E-01
DAV: 260    -0.718275023806E+03   -0.37858E-03   -0.16383E-01  8220   0.141E-01    0.128E+00
DAV: 261    -0.718274644551E+03    0.37925E-03   -0.16410E-01  8220   0.141E-01    0.789E-01
DAV: 262    -0.718275023772E+03   -0.37922E-03   -0.16383E-01  8220   0.141E-01    0.128E+00
DAV: 263    -0.718274643725E+03    0.38005E-03   -0.16408E-01  8220   0.141E-01    0.789E-01
DAV: 264    -0.718275023121E+03   -0.37940E-03   -0.16381E-01  8220   0.141E-01    0.128E+00
DAV: 265    -0.718274643364E+03    0.37976E-03   -0.16407E-01  8220   0.141E-01    0.789E-01
DAV: 266    -0.718275022502E+03   -0.37914E-03   -0.16380E-01  8220   0.141E-01    0.128E+00
DAV: 267    -0.718274642920E+03    0.37958E-03   -0.16406E-01  8220   0.141E-01    0.789E-01
DAV: 268    -0.718275022424E+03   -0.37950E-03   -0.16380E-01  8220   0.141E-01    0.128E+00
DAV: 269    -0.718274642971E+03    0.37945E-03   -0.16406E-01  8220   0.141E-01    0.789E-01
DAV: 270    -0.718275022254E+03   -0.37928E-03   -0.16379E-01  8220   0.141E-01    0.128E+00
DAV: 271    -0.718274643247E+03    0.37901E-03   -0.16407E-01  8220   0.141E-01    0.789E-01
DAV: 272    -0.718275022653E+03   -0.37941E-03   -0.16380E-01  8220   0.141E-01    0.128E+00
DAV: 273    -0.718274643498E+03    0.37916E-03   -0.16407E-01  8220   0.141E-01    0.789E-01
DAV: 274    -0.718275022702E+03   -0.37920E-03   -0.16380E-01  8220   0.141E-01    0.128E+00
DAV: 275    -0.718274643836E+03    0.37887E-03   -0.16408E-01  8220   0.141E-01    0.789E-01
DAV: 276    -0.718275022634E+03   -0.37880E-03   -0.16380E-01  8220   0.141E-01    0.128E+00
DAV: 277    -0.718274643907E+03    0.37873E-03   -0.16408E-01  8220   0.141E-01    0.789E-01
DAV: 278    -0.718275022818E+03   -0.37891E-03   -0.16380E-01  8220   0.141E-01    0.128E+00
DAV: 279    -0.718274644206E+03    0.37861E-03   -0.16409E-01  8214   0.141E-01    0.789E-01
DAV: 280    -0.718275022859E+03   -0.37865E-03   -0.16380E-01  8214   0.141E-01    0.128E+00
DAV: 281    -0.718274644602E+03    0.37826E-03   -0.16410E-01  8214   0.141E-01    0.789E-01
DAV: 282    -0.718275023010E+03   -0.37841E-03   -0.16380E-01  8214   0.141E-01    0.128E+00
DAV: 283    -0.718274644971E+03    0.37804E-03   -0.16411E-01  8214   0.141E-01    0.789E-01
DAV: 284    -0.718275023069E+03   -0.37810E-03   -0.16380E-01  8214   0.141E-01    0.128E+00
DAV: 285    -0.718274645325E+03    0.37774E-03   -0.16412E-01  8214   0.141E-01    0.789E-01
DAV: 286    -0.718275023163E+03   -0.37784E-03   -0.16380E-01  8214   0.141E-01    0.128E+00
DAV: 287    -0.718274646152E+03    0.37701E-03   -0.16414E-01  8214   0.141E-01    0.789E-01
DAV: 288    -0.718275020702E+03   -0.37455E-03   -0.16374E-01  8214   0.141E-01    0.128E+00
DAV: 289    -0.718274659168E+03    0.36153E-03   -0.16446E-01  8214   0.141E-01    0.788E-01
DAV: 290    -0.718275011211E+03   -0.35204E-03   -0.16344E-01  8214   0.141E-01    0.129E+00
DAV: 291    -0.718274710893E+03    0.30032E-03   -0.16566E-01  8214   0.141E-01    0.790E-01
DAV: 292    -0.718275012209E+03   -0.30132E-03   -0.16350E-01  8214   0.142E-01    0.128E+00
DAV: 293    -0.718274680958E+03    0.33125E-03   -0.16495E-01  8214   0.141E-01    0.790E-01
DAV: 294    -0.718275037305E+03   -0.35635E-03   -0.16409E-01  8214   0.141E-01    0.128E+00
DAV: 295    -0.718274666264E+03    0.37104E-03   -0.16456E-01  8214   0.141E-01    0.790E-01
DAV: 296    -0.718275038876E+03   -0.37261E-03   -0.16412E-01  8214   0.141E-01    0.128E+00
DAV: 297    -0.718274660431E+03    0.37844E-03   -0.16442E-01  8214   0.141E-01    0.790E-01
DAV: 298    -0.718275036024E+03   -0.37559E-03   -0.16406E-01  8214   0.141E-01    0.128E+00
DAV: 299    -0.718274656888E+03    0.37914E-03   -0.16435E-01  8214   0.141E-01    0.790E-01
DAV: 300    -0.718275033006E+03   -0.37612E-03   -0.16400E-01  8214   0.141E-01    0.128E+00
DAV: 301    -0.718274654448E+03    0.37856E-03   -0.16430E-01  8214   0.141E-01    0.790E-01
DAV: 302    -0.718275031075E+03   -0.37663E-03   -0.16396E-01  8214   0.141E-01    0.128E+00
DAV: 303    -0.718274652640E+03    0.37844E-03   -0.16426E-01  8214   0.141E-01    0.789E-01
DAV: 304    -0.718275029499E+03   -0.37686E-03   -0.16393E-01  8214   0.141E-01    0.128E+00
DAV: 305    -0.718274651485E+03    0.37801E-03   -0.16424E-01  8214   0.141E-01    0.789E-01
DAV: 306    -0.718275028350E+03   -0.37687E-03   -0.16391E-01  8214   0.141E-01    0.128E+00
DAV: 307    -0.718274650349E+03    0.37800E-03   -0.16422E-01  8202   0.141E-01    0.789E-01
DAV: 308    -0.718275027715E+03   -0.37737E-03   -0.16389E-01  8202   0.141E-01    0.128E+00
DAV: 309    -0.718274649728E+03    0.37799E-03   -0.16421E-01  8202   0.141E-01    0.789E-01
DAV: 310    -0.718275027087E+03   -0.37736E-03   -0.16388E-01  8202   0.141E-01    0.128E+00
DAV: 311    -0.718274649303E+03    0.37778E-03   -0.16420E-01  8202   0.141E-01    0.789E-01
DAV: 312    -0.718275026977E+03   -0.37767E-03   -0.16388E-01  8202   0.141E-01    0.128E+00
DAV: 313    -0.718274648857E+03    0.37812E-03   -0.16419E-01  8202   0.141E-01    0.789E-01
DAV: 314    -0.718275026571E+03   -0.37771E-03   -0.16387E-01  8202   0.141E-01    0.128E+00
DAV: 315    -0.718274648617E+03    0.37795E-03   -0.16418E-01  8202   0.141E-01    0.789E-01
DAV: 316    -0.718275026223E+03   -0.37761E-03   -0.16386E-01  8202   0.141E-01    0.128E+00
DAV: 317    -0.718274648166E+03    0.37806E-03   -0.16417E-01  8202   0.141E-01    0.789E-01
DAV: 318    -0.718275026169E+03   -0.37800E-03   -0.16386E-01  8202   0.141E-01    0.128E+00
DAV: 319    -0.718274648055E+03    0.37811E-03   -0.16417E-01  8202   0.141E-01    0.789E-01
DAV: 320    -0.718275025949E+03   -0.37789E-03   -0.16386E-01  8202   0.141E-01    0.128E+00
DAV: 321    -0.718274647999E+03    0.37795E-03   -0.16417E-01  8202   0.141E-01    0.789E-01
DAV: 322    -0.718275026107E+03   -0.37811E-03   -0.16386E-01  8202   0.141E-01    0.128E+00
DAV: 323    -0.718274647797E+03    0.37831E-03   -0.16416E-01  8202   0.141E-01    0.789E-01
DAV: 324    -0.718275025893E+03   -0.37810E-03   -0.16386E-01  8202   0.141E-01    0.128E+00
DAV: 325    -0.718274647713E+03    0.37818E-03   -0.16416E-01  8202   0.141E-01    0.789E-01
DAV: 326    -0.718275025748E+03   -0.37804E-03   -0.16386E-01  8202   0.141E-01    0.128E+00
DAV: 327    -0.718274647487E+03    0.37826E-03   -0.16416E-01  8202   0.141E-01    0.789E-01
DAV: 328    -0.718275025908E+03   -0.37842E-03   -0.16386E-01  8202   0.141E-01    0.128E+00
DAV: 329    -0.718274647587E+03    0.37832E-03   -0.16416E-01  8202   0.141E-01    0.789E-01
DAV: 330    -0.718275025848E+03   -0.37826E-03   -0.16386E-01  8202   0.141E-01    0.128E+00
DAV: 331    -0.718274647716E+03    0.37813E-03   -0.16416E-01  8202   0.141E-01    0.789E-01
DAV: 332    -0.718275025531E+03   -0.37782E-03   -0.16385E-01  8202   0.141E-01    0.128E+00
DAV: 333    -0.718274647835E+03    0.37770E-03   -0.16417E-01  8202   0.141E-01    0.789E-01
DAV: 334    -0.718275025361E+03   -0.37753E-03   -0.16385E-01  8202   0.141E-01    0.128E+00
DAV: 335    -0.718274647983E+03    0.37738E-03   -0.16417E-01  8202   0.141E-01    0.789E-01
DAV: 336    -0.718275025394E+03   -0.37741E-03   -0.16385E-01  8202   0.141E-01    0.128E+00
DAV: 337    -0.718274649795E+03    0.37560E-03   -0.16422E-01  8202   0.141E-01    0.789E-01
DAV: 338    -0.718275021747E+03   -0.37195E-03   -0.16372E-01  8202   0.141E-01    0.129E+00
DAV: 339    -0.718274693809E+03    0.32794E-03   -0.16525E-01  8202   0.141E-01    0.787E-01
DAV: 340    -0.718274977916E+03   -0.28411E-03   -0.16272E-01  8202   0.142E-01    0.129E+00
DAV: 341    -0.718274689269E+03    0.28865E-03   -0.16522E-01  8202   0.141E-01    0.790E-01
DAV: 342    -0.718275032885E+03   -0.34362E-03   -0.16399E-01  8202   0.141E-01    0.128E+00
DAV: 343    -0.718274667197E+03    0.36569E-03   -0.16458E-01  8202   0.141E-01    0.790E-01
DAV: 344    -0.718275039215E+03   -0.37202E-03   -0.16413E-01  8210   0.141E-01    0.128E+00
DAV: 345    -0.718274661302E+03    0.37791E-03   -0.16444E-01  8210   0.141E-01    0.790E-01
DAV: 346    -0.718275036700E+03   -0.37540E-03   -0.16408E-01  8210   0.141E-01    0.128E+00
DAV: 347    -0.718274657616E+03    0.37908E-03   -0.16436E-01  8210   0.141E-01    0.790E-01
DAV: 348    -0.718275033824E+03   -0.37621E-03   -0.16402E-01  8210   0.141E-01    0.128E+00
DAV: 349    -0.718274655211E+03    0.37861E-03   -0.16432E-01  8210   0.141E-01    0.790E-01
DAV: 350    -0.718275031539E+03   -0.37633E-03   -0.16397E-01  8210   0.141E-01    0.128E+00
DAV: 351    -0.718274653398E+03    0.37814E-03   -0.16428E-01  8210   0.141E-01    0.790E-01
DAV: 352    -0.718275030044E+03   -0.37665E-03   -0.16394E-01  8210   0.141E-01    0.128E+00
DAV: 353    -0.718274652027E+03    0.37802E-03   -0.16425E-01  8210   0.141E-01    0.789E-01
DAV: 354    -0.718275028801E+03   -0.37677E-03   -0.16392E-01  8210   0.141E-01    0.128E+00
DAV: 355    -0.718274651114E+03    0.37769E-03   -0.16424E-01  8210   0.141E-01    0.789E-01
DAV: 356    -0.718275027869E+03   -0.37675E-03   -0.16390E-01  8210   0.141E-01    0.128E+00
DAV: 357    -0.718274650251E+03    0.37762E-03   -0.16422E-01  8210   0.141E-01    0.789E-01
DAV: 358    -0.718275027341E+03   -0.37709E-03   -0.16389E-01  8210   0.141E-01    0.128E+00
DAV: 359    -0.718274649861E+03    0.37748E-03   -0.16421E-01  8210   0.141E-01    0.789E-01
DAV: 360    -0.718275026960E+03   -0.37710E-03   -0.16388E-01  8210   0.141E-01    0.128E+00
DAV: 361    -0.718274649673E+03    0.37729E-03   -0.16421E-01  8210   0.141E-01    0.789E-01
DAV: 362    -0.718275027022E+03   -0.37735E-03   -0.16388E-01  8210   0.141E-01    0.128E+00
DAV: 363    -0.718274649569E+03    0.37745E-03   -0.16420E-01  8210   0.141E-01    0.789E-01
DAV: 364    -0.718275026870E+03   -0.37730E-03   -0.16388E-01  8210   0.141E-01    0.128E+00
DAV: 365    -0.718274649526E+03    0.37734E-03   -0.16420E-01  8210   0.141E-01    0.789E-01
DAV: 366    -0.718275026696E+03   -0.37717E-03   -0.16387E-01  8210   0.141E-01    0.128E+00
DAV: 367    -0.718274649276E+03    0.37742E-03   -0.16420E-01  8210   0.141E-01    0.789E-01
DAV: 368    -0.718275026705E+03   -0.37743E-03   -0.16387E-01  8210   0.141E-01    0.128E+00
DAV: 369    -0.718274649296E+03    0.37741E-03   -0.16420E-01  8210   0.141E-01    0.789E-01
DAV: 370    -0.718275026620E+03   -0.37732E-03   -0.16387E-01  8210   0.141E-01    0.128E+00
DAV: 371    -0.718274649325E+03    0.37730E-03   -0.16420E-01  8210   0.141E-01    0.789E-01
DAV: 372    -0.718275026841E+03   -0.37752E-03   -0.16388E-01  8210   0.141E-01    0.128E+00
DAV: 373    -0.718274649280E+03    0.37756E-03   -0.16420E-01  8210   0.141E-01    0.789E-01
DAV: 374    -0.718275026713E+03   -0.37743E-03   -0.16388E-01  8210   0.141E-01    0.128E+00
DAV: 375    -0.718274649215E+03    0.37750E-03   -0.16420E-01  8210   0.141E-01    0.789E-01
DAV: 376    -0.718275026494E+03   -0.37728E-03   -0.16387E-01  8210   0.141E-01    0.128E+00
DAV: 377    -0.718274648867E+03    0.37763E-03   -0.16419E-01  8204   0.141E-01    0.789E-01
DAV: 378    -0.718275026431E+03   -0.37756E-03   -0.16387E-01  8204   0.141E-01    0.128E+00
DAV: 379    -0.718274648846E+03    0.37759E-03   -0.16419E-01  8204   0.141E-01    0.789E-01
DAV: 380    -0.718275026411E+03   -0.37757E-03   -0.16387E-01  8204   0.141E-01    0.128E+00
DAV: 381    -0.718274649001E+03    0.37741E-03   -0.16419E-01  8204   0.141E-01    0.789E-01
DAV: 382    -0.718275026304E+03   -0.37730E-03   -0.16387E-01  8204   0.141E-01    0.128E+00
DAV: 383    -0.718274648346E+03    0.37796E-03   -0.16418E-01  8204   0.141E-01    0.789E-01
DAV: 384    -0.718275026113E+03   -0.37777E-03   -0.16387E-01  8204   0.141E-01    0.128E+00
DAV: 385    -0.718274647577E+03    0.37854E-03   -0.16416E-01  8204   0.141E-01    0.789E-01
DAV: 386    -0.718275025530E+03   -0.37795E-03   -0.16386E-01  8204   0.141E-01    0.128E+00
DAV: 387    -0.718274643115E+03    0.38241E-03   -0.16405E-01  8204   0.141E-01    0.790E-01
DAV: 388    -0.718275029026E+03   -0.38591E-03   -0.16397E-01  8204   0.141E-01    0.128E+00
DAV: 389    -0.718274602627E+03    0.42640E-03   -0.16295E-01  8204   0.141E-01    0.791E-01
DAV: 390    -0.718275067475E+03   -0.46485E-03   -0.16481E-01  8204   0.141E-01    0.128E+00
DAV: 391    -0.718274609004E+03    0.45847E-03   -0.16320E-01  8204   0.141E-01    0.788E-01
DAV: 392    -0.718275011753E+03   -0.40275E-03   -0.16357E-01  8204   0.141E-01    0.128E+00
DAV: 393    -0.718274629337E+03    0.38242E-03   -0.16379E-01  8204   0.141E-01    0.788E-01
DAV: 394    -0.718275007297E+03   -0.37796E-03   -0.16347E-01  8204   0.141E-01    0.128E+00
DAV: 395    -0.718274636931E+03    0.37037E-03   -0.16397E-01  8204   0.141E-01    0.788E-01
DAV: 396    -0.718275010570E+03   -0.37364E-03   -0.16355E-01  8204   0.141E-01    0.128E+00
DAV: 397    -0.718274641125E+03    0.36945E-03   -0.16405E-01  8204   0.141E-01    0.789E-01
DAV: 398    -0.718275013730E+03   -0.37261E-03   -0.16361E-01  8204   0.141E-01    0.128E+00
DAV: 399    -0.718274643708E+03    0.37002E-03   -0.16410E-01  8204   0.141E-01    0.789E-01
DAV: 400    -0.718275016240E+03   -0.37253E-03   -0.16366E-01  8204   0.141E-01    0.128E+00
DAV: 401    -0.718274645491E+03    0.37075E-03   -0.16414E-01  8204   0.141E-01    0.789E-01
DAV: 402    -0.718275017809E+03   -0.37232E-03   -0.16370E-01  8204   0.141E-01    0.128E+00
DAV: 403    -0.718274646741E+03    0.37107E-03   -0.16416E-01  8204   0.141E-01    0.789E-01
DAV: 404    -0.718275019113E+03   -0.37237E-03   -0.16372E-01  8204   0.141E-01    0.128E+00
DAV: 405    -0.718274647603E+03    0.37151E-03   -0.16418E-01  8204   0.141E-01    0.789E-01
DAV: 406    -0.718275020165E+03   -0.37256E-03   -0.16374E-01  8204   0.141E-01    0.128E+00
DAV: 407    -0.718274648490E+03    0.37168E-03   -0.16420E-01  8204   0.141E-01    0.789E-01
DAV: 408    -0.718275020981E+03   -0.37249E-03   -0.16376E-01  8204   0.141E-01    0.128E+00
DAV: 409    -0.718274649133E+03    0.37185E-03   -0.16421E-01  8204   0.141E-01    0.789E-01
DAV: 410    -0.718275021764E+03   -0.37263E-03   -0.16377E-01  8204   0.141E-01    0.128E+00
DAV: 411    -0.718274649659E+03    0.37210E-03   -0.16422E-01  8204   0.141E-01    0.789E-01
DAV: 412    -0.718275022253E+03   -0.37259E-03   -0.16378E-01  8204   0.141E-01    0.128E+00
DAV: 413    -0.718274650114E+03    0.37214E-03   -0.16423E-01  8204   0.141E-01    0.789E-01
DAV: 414    -0.718275022813E+03   -0.37270E-03   -0.16380E-01  8204   0.141E-01    0.128E+00
DAV: 415    -0.718274650434E+03    0.37238E-03   -0.16424E-01  8204   0.141E-01    0.789E-01
DAV: 416    -0.718275023250E+03   -0.37282E-03   -0.16380E-01  8204   0.141E-01    0.128E+00
DAV: 417    -0.718274650755E+03    0.37250E-03   -0.16424E-01  8204   0.141E-01    0.789E-01
DAV: 418    -0.718275023493E+03   -0.37274E-03   -0.16381E-01  8204   0.141E-01    0.128E+00
DAV: 419    -0.718274650842E+03    0.37265E-03   -0.16424E-01  8204   0.141E-01    0.789E-01
DAV: 420    -0.718275023641E+03   -0.37280E-03   -0.16381E-01  8204   0.141E-01    0.128E+00
DAV: 421    -0.718274650771E+03    0.37287E-03   -0.16424E-01  8204   0.141E-01    0.789E-01
DAV: 422    -0.718275023590E+03   -0.37282E-03   -0.16381E-01  8204   0.141E-01    0.128E+00
DAV: 423    -0.718274650723E+03    0.37287E-03   -0.16424E-01  8204   0.141E-01    0.789E-01
DAV: 424    -0.718275023718E+03   -0.37299E-03   -0.16382E-01  8204   0.141E-01    0.128E+00
DAV: 425    -0.718274650757E+03    0.37296E-03   -0.16424E-01  8204   0.141E-01    0.789E-01
DAV: 426    -0.718275023938E+03   -0.37318E-03   -0.16382E-01  8204   0.141E-01    0.128E+00
DAV: 427    -0.718274650909E+03    0.37303E-03   -0.16425E-01  8204   0.141E-01    0.789E-01
DAV: 428    -0.718275024114E+03   -0.37320E-03   -0.16382E-01  8204   0.141E-01    0.128E+00
DAV: 429    -0.718274650956E+03    0.37316E-03   -0.16425E-01  8204   0.141E-01    0.789E-01
DAV: 430    -0.718275024283E+03   -0.37333E-03   -0.16383E-01  8204   0.141E-01    0.128E+00
DAV: 431    -0.718274650881E+03    0.37340E-03   -0.16424E-01  8204   0.141E-01    0.789E-01
DAV: 432    -0.718275025303E+03   -0.37442E-03   -0.16385E-01  8204   0.141E-01    0.128E+00
DAV: 433    -0.718274650086E+03    0.37522E-03   -0.16422E-01  8204   0.141E-01    0.789E-01
DAV: 434    -0.718275026206E+03   -0.37612E-03   -0.16387E-01  8204   0.141E-01    0.128E+00
DAV: 435    -0.718274647869E+03    0.37834E-03   -0.16417E-01  8204   0.141E-01    0.789E-01
DAV: 436    -0.718275025759E+03   -0.37789E-03   -0.16388E-01  8204   0.141E-01    0.128E+00
DAV: 437    -0.718274624004E+03    0.40176E-03   -0.16349E-01  8204   0.141E-01    0.792E-01
DAV: 438    -0.718275066993E+03   -0.44299E-03   -0.16479E-01  8204   0.142E-01    0.128E+00
DAV: 439    -0.718274585842E+03    0.48115E-03   -0.16267E-01  8204   0.141E-01    0.787E-01
DAV: 440    -0.718275004326E+03   -0.41848E-03   -0.16345E-01  8204   0.140E-01    0.128E+00
DAV: 441    -0.718274616012E+03    0.38831E-03   -0.16350E-01  8204   0.141E-01    0.788E-01
DAV: 442    -0.718274998706E+03   -0.38269E-03   -0.16331E-01  8204   0.141E-01    0.128E+00
DAV: 443    -0.718274627458E+03    0.37125E-03   -0.16377E-01  8204   0.141E-01    0.788E-01
DAV: 444    -0.718275003676E+03   -0.37622E-03   -0.16341E-01  8204   0.141E-01    0.128E+00
DAV: 445    -0.718274633671E+03    0.37001E-03   -0.16390E-01  8204   0.141E-01    0.788E-01
DAV: 446    -0.718275008678E+03   -0.37501E-03   -0.16352E-01  8204   0.141E-01    0.128E+00
DAV: 447    -0.718274638192E+03    0.37049E-03   -0.16399E-01  8204   0.141E-01    0.789E-01
DAV: 448    -0.718275012359E+03   -0.37417E-03   -0.16359E-01  8204   0.141E-01    0.128E+00
DAV: 449    -0.718274641170E+03    0.37119E-03   -0.16405E-01  8204   0.141E-01    0.789E-01
DAV: 450    -0.718275015140E+03   -0.37397E-03   -0.16365E-01  8204   0.141E-01    0.128E+00
DAV: 451    -0.718274643338E+03    0.37180E-03   -0.16409E-01  8204   0.141E-01    0.789E-01
DAV: 452    -0.718275016898E+03   -0.37356E-03   -0.16368E-01  8204   0.141E-01    0.128E+00
DAV: 453    -0.718274644988E+03    0.37191E-03   -0.16413E-01  8204   0.141E-01    0.789E-01
DAV: 454    -0.718275018471E+03   -0.37348E-03   -0.16371E-01  8204   0.141E-01    0.128E+00
DAV: 455    -0.718274646243E+03    0.37223E-03   -0.16415E-01  8204   0.141E-01    0.789E-01
DAV: 456    -0.718275019862E+03   -0.37362E-03   -0.16374E-01  8204   0.141E-01    0.128E+00
DAV: 457    -0.718274647598E+03    0.37226E-03   -0.16418E-01  8204   0.141E-01    0.789E-01
DAV: 458    -0.718275020882E+03   -0.37328E-03   -0.16376E-01  8204   0.141E-01    0.128E+00
DAV: 459    -0.718274648459E+03    0.37242E-03   -0.16420E-01  8204   0.141E-01    0.789E-01
DAV: 460    -0.718275021741E+03   -0.37328E-03   -0.16378E-01  8204   0.141E-01    0.128E+00
DAV: 461    -0.718274649021E+03    0.37272E-03   -0.16421E-01  8204   0.141E-01    0.789E-01
DAV: 462    -0.718275022047E+03   -0.37303E-03   -0.16378E-01  8204   0.141E-01    0.128E+00
DAV: 463    -0.718274649429E+03    0.37262E-03   -0.16422E-01  8204   0.141E-01    0.789E-01
DAV: 464    -0.718275022462E+03   -0.37303E-03   -0.16379E-01  8204   0.141E-01    0.128E+00
DAV: 465    -0.718274649677E+03    0.37278E-03   -0.16422E-01  8204   0.141E-01    0.789E-01
DAV: 466    -0.718275022862E+03   -0.37319E-03   -0.16380E-01  8204   0.141E-01    0.128E+00
DAV: 467    -0.718274650135E+03    0.37273E-03   -0.16423E-01  8204   0.141E-01    0.789E-01
DAV: 468    -0.718275023030E+03   -0.37289E-03   -0.16380E-01  8204   0.141E-01    0.128E+00
DAV: 469    -0.718274650252E+03    0.37278E-03   -0.16423E-01  8204   0.141E-01    0.789E-01
DAV: 470    -0.718275023220E+03   -0.37297E-03   -0.16381E-01  8204   0.141E-01    0.128E+00
DAV: 471    -0.718274650309E+03    0.37291E-03   -0.16423E-01  8204   0.141E-01    0.789E-01
DAV: 472    -0.718275023117E+03   -0.37281E-03   -0.16381E-01  8204   0.141E-01    0.128E+00
DAV: 473    -0.718274650407E+03    0.37271E-03   -0.16424E-01  8204   0.141E-01    0.789E-01
DAV: 474    -0.718275023257E+03   -0.37285E-03   -0.16381E-01  8204   0.141E-01    0.128E+00
DAV: 475    -0.718274650407E+03    0.37285E-03   -0.16424E-01  8204   0.141E-01    0.789E-01
DAV: 476    -0.718275023371E+03   -0.37296E-03   -0.16381E-01  8204   0.141E-01    0.128E+00
DAV: 477    -0.718274650484E+03    0.37289E-03   -0.16424E-01  8204   0.141E-01    0.789E-01
DAV: 478    -0.718275023346E+03   -0.37286E-03   -0.16381E-01  8204   0.141E-01    0.128E+00
DAV: 479    -0.718274650358E+03    0.37299E-03   -0.16424E-01  8204   0.141E-01    0.789E-01
DAV: 480    -0.718275023368E+03   -0.37301E-03   -0.16381E-01  8204   0.141E-01    0.128E+00
DAV: 481    -0.718274650039E+03    0.37333E-03   -0.16422E-01  8204   0.141E-01    0.790E-01
DAV: 482    -0.718275026211E+03   -0.37617E-03   -0.16389E-01  8204   0.141E-01    0.128E+00
DAV: 483    -0.718274633505E+03    0.39271E-03   -0.16375E-01  8204   0.141E-01    0.791E-01
DAV: 484    -0.718275057082E+03   -0.42358E-03   -0.16457E-01  8204   0.141E-01    0.128E+00
DAV: 485    -0.718274568239E+03    0.48884E-03   -0.16228E-01  8204   0.141E-01    0.787E-01
DAV: 486    -0.718275001829E+03   -0.43359E-03   -0.16342E-01  8204   0.140E-01    0.128E+00
DAV: 487    -0.718274607720E+03    0.39411E-03   -0.16331E-01  8204   0.140E-01    0.787E-01
DAV: 488    -0.718274993564E+03   -0.38584E-03   -0.16321E-01  8204   0.140E-01    0.128E+00
DAV: 489    -0.718274622048E+03    0.37152E-03   -0.16366E-01  8198   0.140E-01    0.788E-01
DAV: 490    -0.718274999284E+03   -0.37724E-03   -0.16333E-01  8204   0.141E-01    0.128E+00
DAV: 491    -0.718274629784E+03    0.36950E-03   -0.16382E-01  8198   0.141E-01    0.788E-01
DAV: 492    -0.718275004957E+03   -0.37517E-03   -0.16345E-01  8204   0.141E-01    0.128E+00
DAV: 493    -0.718274635085E+03    0.36987E-03   -0.16393E-01  8192   0.141E-01    0.789E-01
DAV: 494    -0.718275009502E+03   -0.37442E-03   -0.16354E-01  8204   0.141E-01    0.128E+00
DAV: 495    -0.718274638733E+03    0.37077E-03   -0.16400E-01  8204   0.141E-01    0.789E-01
DAV: 496    -0.718275012932E+03   -0.37420E-03   -0.16361E-01  8198   0.141E-01    0.128E+00
DAV: 497    -0.718274641685E+03    0.37125E-03   -0.16406E-01  8198   0.141E-01    0.789E-01
DAV: 498    -0.718275015410E+03   -0.37373E-03   -0.16366E-01  8198   0.141E-01    0.128E+00
DAV: 499    -0.718274643767E+03    0.37164E-03   -0.16410E-01  8198   0.141E-01    0.789E-01
DAV: 500    -0.718275017411E+03   -0.37364E-03   -0.16370E-01  8198   0.141E-01
 -----------------------------------------------------------------------------
|                                                                             |
|           W    W    AA    RRRRR   N    N  II  N    N   GGGG   !!!           |
|           W    W   A  A   R    R  NN   N  II  NN   N  G    G  !!!           |
|           W    W  A    A  R    R  N N  N  II  N N  N  G       !!!           |
|           W WW W  AAAAAA  RRRRR   N  N N  II  N  N N  G  GGG   !            |
|           WW  WW  A    A  R   R   N   NN  II  N   NN  G    G                |
|           W    W  A    A  R    R  N    N  II  N    N   GGGG   !!!           |
|                                                                             |
|     The electronic self-consistency was not achieved in the given           |
|     number of steps (NELM). The forces and other quantities evaluated       |
|     might not be reliable so examine the results carefully. If you find     |
|     spurious results, we suggest increasing NELM, if you were close to      |
|     convergence or switching to a different ALGO or adjusting the           |
|     density mixing parameters otherwise.                                    |
|                                                                             |
 -----------------------------------------------------------------------------

   1 F= -.71827502E+03 E0= -.71827123E+03  d E =-.757352E-02
 writing wavefunctions
Warning: ieee_invalid is signaling
Warning: ieee_divide_by_zero is signaling
Warning: ieee_underflow is signaling
Warning: ieee_inexact is signaling
FORTRAN STOP
Warning: ieee_invalid is signaling
Warning: ieee_divide_by_zero is signaling
Warning: ieee_underflow is signaling
Warning: ieee_inexact is signaling
FORTRAN STOP
Warning: ieee_invalid is signaling
Warning: ieee_divide_by_zero is signaling
Warning: ieee_underflow is signaling
Warning: ieee_inexact is signaling
FORTRAN STOP
Warning: ieee_invalid is signaling
Warning: ieee_divide_by_zero is signaling
Warning: ieee_underflow is signaling
Warning: ieee_inexact is signaling
FORTRAN STOP
