<?xml version="1.0" encoding="ISO-8859-1"?>
<modeling>
 <generator>
  <i name="program" type="string">vasp </i>
  <i name="version" type="string">6.4.2  </i>
  <i name="subversion" type="string">20Jul23 (build Nov 12 2023 22:16:35) complex                          parallel </i>
  <i name="platform" type="string">LinuxNV </i>
  <i name="date" type="string">2025 05 13 </i>
  <i name="time" type="string">12:27:41 </i>
 </generator>
 <incar>
  <i type="int" name="ISTART">     0</i>
  <i type="string" name="PREC">Normal</i>
  <i type="int" name="ISPIN">     1</i>
  <i type="int" name="ICHARG">     0</i>
  <i type="int" name="NELM">   500</i>
  <i type="int" name="IBRION">    -1</i>
  <i name="EDIFF">      0.00001000</i>
  <i name="EDIFFG">     -0.00500000</i>
  <i type="int" name="NSW">     0</i>
  <i type="int" name="ISIF">     2</i>
  <i type="int" name="ISYM">     0</i>
  <i name="ENCUT">    450.00000000</i>
  <i type="string" name="LREAL">Auto</i>
  <i type="logical" name="LPLANE"> T  </i>
  <i type="int" name="ISMEAR">     0</i>
  <i name="SIGMA">      0.05000000</i>
  <i type="logical" name="LWAVE"> T  </i>
  <i type="logical" name="LCHARG"> T  </i>
  <i type="int" name="ICORELEVEL">     1</i>
 </incar>
 <primitive_cell>
  <structure name="primitive_cell" >
   <crystal>
    <varray name="basis" >
     <v>       0.00000000      12.28047371       0.00000000 </v>
     <v>       9.14270115       0.00000000       0.00000000 </v>
     <v>       0.00000000      -2.76826164     -11.30069748 </v>
    </varray>
    <i name="volume">   1268.80503319 </i>
    <varray name="rec_basis" >
     <v>       0.00000000       0.08143008      -0.01994742 </v>
     <v>       0.10937687      -0.00000000       0.00000000 </v>
     <v>       0.00000000       0.00000000      -0.08849011 </v>
    </varray>
   </crystal>
   <varray name="positions" >
    <v>       0.65884056       0.00045939       0.15778758 </v>
    <v>       0.65841659       0.99989843       0.65614716 </v>
    <v>       0.65996967       0.33335903       0.15774459 </v>
    <v>       0.65961803       0.33313048       0.65517782 </v>
    <v>       0.65934327       0.66655722       0.15699559 </v>
    <v>       0.65814578       0.66553448       0.65508053 </v>
    <v>       0.84125123       0.16694992       0.34443316 </v>
    <v>       0.84095737       0.16650380       0.84304477 </v>
    <v>       0.84168057       0.49986240       0.34421202 </v>
    <v>       0.84098735       0.49997605       0.84282493 </v>
    <v>       0.84149428       0.83340375       0.34352546 </v>
    <v>       0.84078747       0.83314547       0.84286472 </v>
    <v>       0.58588069       0.16653599       0.39675053 </v>
    <v>       0.59170442       0.16651394       0.89765690 </v>
    <v>       0.58585513       0.49989885       0.39394754 </v>
    <v>       0.59163131       0.50002861       0.89714169 </v>
    <v>       0.59145536       0.83324482       0.39780013 </v>
    <v>       0.59178938       0.83333935       0.89792291 </v>
    <v>       0.90855131       0.00029434       0.10230992 </v>
    <v>       0.90974396       0.99973764       0.60296034 </v>
    <v>       0.90844308       0.33348268       0.10218006 </v>
    <v>       0.91024691       0.33322973       0.60258627 </v>
    <v>       0.90892326       0.66659842       0.10212128 </v>
    <v>       0.90979382       0.66667569       0.60279410 </v>
    <v>       0.15880331       0.16779622       0.15804215 </v>
    <v>       0.15980623       0.16665457       0.65729217 </v>
    <v>       0.15914437       0.49911039       0.15809000 </v>
    <v>       0.15978289       0.49984639       0.65727867 </v>
    <v>       0.15864219       0.83355769       0.15663436 </v>
    <v>       0.16007373       0.83327655       0.65712497 </v>
    <v>       0.33988386       0.00086929       0.34372506 </v>
    <v>       0.34196341       0.00007753       0.84389806 </v>
    <v>       0.34179269       0.33327163       0.84322077 </v>
    <v>       0.33983430       0.66690934       0.34309871 </v>
    <v>       0.34198999       0.66661023       0.84374161 </v>
    <v>       0.09088369       0.00039195       0.39804970 </v>
    <v>       0.09151473       0.00014472       0.89820984 </v>
    <v>       0.09444286       0.33325218       0.39755740 </v>
    <v>       0.09132462       0.33329215       0.89809662 </v>
    <v>       0.09103507       0.66638484       0.39797980 </v>
    <v>       0.09164385       0.66637827       0.89822604 </v>
    <v>       0.40846097       0.16713917       0.10395404 </v>
    <v>       0.40769351       0.16763468       0.59970420 </v>
    <v>       0.40897733       0.50003262       0.10369784 </v>
    <v>       0.40716608       0.49834570       0.59923729 </v>
    <v>       0.40884988       0.83346233       0.10309768 </v>
    <v>       0.40857409       0.83308495       0.60201789 </v>
    <v>       0.99603947       0.16703259       0.12691701 </v>
    <v>       0.99726173       0.16631551       0.62811785 </v>
    <v>       0.99619863       0.49977121       0.12686406 </v>
    <v>       0.99731292       0.50010550       0.62808044 </v>
    <v>       0.99603761       0.83356788       0.12667247 </v>
    <v>       0.99749535       0.83321465       0.62821250 </v>
    <v>       0.50207567       0.99704477       0.37279615 </v>
    <v>       0.50433518       0.99991256       0.87274989 </v>
    <v>       0.50435298       0.33324880       0.87300572 </v>
    <v>       0.50200291       0.66943962       0.37255411 </v>
    <v>       0.50434393       0.66672684       0.87243909 </v>
    <v>       0.67212141       0.16670121       0.28211554 </v>
    <v>       0.67249114       0.16666893       0.77979923 </v>
    <v>       0.67280891       0.50072907       0.28085191 </v>
    <v>       0.67239099       0.49969807       0.77921038 </v>
    <v>       0.67316665       0.83337754       0.28098087 </v>
    <v>       0.67210451       0.83298712       0.77973059 </v>
    <v>       0.82748456       0.00067859       0.21988498 </v>
    <v>       0.82741492       0.99986291       0.71936399 </v>
    <v>       0.82747613       0.33331962       0.21989015 </v>
    <v>       0.82755463       0.33322925       0.71885674 </v>
    <v>       0.82782470       0.66651450       0.21963343 </v>
    <v>       0.82714048       0.66611570       0.71890513 </v>
    <v>       0.83363627       0.99981133       0.44632276 </v>
    <v>       0.83167960       0.99990584       0.94555692 </v>
    <v>       0.83316237       0.33351336       0.44638933 </v>
    <v>       0.83159288       0.33335720       0.94536223 </v>
    <v>       0.83363592       0.66677407       0.44614284 </v>
    <v>       0.83168644       0.66654688       0.94543878 </v>
    <v>       0.66720015       0.16693332       0.05481976 </v>
    <v>       0.66691211       0.16603832       0.55286917 </v>
    <v>       0.66724792       0.49965576       0.05425968 </v>
    <v>       0.66573925       0.49920633       0.55115369 </v>
    <v>       0.66762919       0.83366276       0.05485445 </v>
    <v>       0.66809661       0.83306513       0.55432540 </v>
    <v>       0.49596439       0.00047683       0.12838712 </v>
    <v>       0.49527784       0.00052783       0.62591597 </v>
    <v>       0.49701599       0.33336725       0.13337044 </v>
    <v>       0.49656602       0.33326675       0.62456772 </v>
    <v>       0.49638171       0.66672060       0.12812642 </v>
    <v>       0.49492065       0.66531863       0.62526235 </v>
    <v>       0.00454997       0.16784307       0.37292214 </v>
    <v>       0.00367417       0.16664196       0.87284276 </v>
    <v>       0.00474576       0.49887756       0.37284279 </v>
    <v>       0.00371256       0.49997229       0.87277742 </v>
    <v>       0.00398343       0.83333894       0.37313652 </v>
    <v>       0.00400706       0.83320427       0.87324385 </v>
    <v>       0.17165303       0.00008136       0.28030352 </v>
    <v>       0.17350939       0.00028335       0.78127277 </v>
    <v>       0.17548293       0.33373657       0.28017340 </v>
    <v>       0.17342176       0.33326210       0.78134199 </v>
    <v>       0.17160181       0.66702809       0.28005524 </v>
    <v>       0.17354694       0.66625895       0.78123633 </v>
    <v>       0.32734489       0.16914058       0.22234088 </v>
    <v>       0.32839776       0.16681729       0.71937295 </v>
    <v>       0.32820517       0.49876232       0.22218268 </v>
    <v>       0.32831619       0.49958246       0.71922407 </v>
    <v>       0.32644846       0.83373358       0.21933852 </v>
    <v>       0.32809001       0.83326890       0.72009765 </v>
    <v>       0.33095024       0.17191022       0.44249982 </v>
    <v>       0.33396247       0.16714360       0.94661665 </v>
    <v>       0.32932301       0.49465949       0.44157009 </v>
    <v>       0.33408769       0.49960135       0.94651143 </v>
    <v>       0.32990846       0.83344023       0.44592222 </v>
    <v>       0.33294360       0.83330364       0.94618906 </v>
    <v>       0.16864609       0.00108841       0.05488710 </v>
    <v>       0.16887969       0.00025218       0.55452012 </v>
    <v>       0.16861562       0.33345032       0.05437404 </v>
    <v>       0.16853162       0.33323079       0.55507651 </v>
    <v>       0.16870160       0.66583947       0.05491216 </v>
    <v>       0.16892307       0.66629147       0.55449127 </v>
    <v>       0.49039321       0.33314739       0.36939851 </v>
    <v>       0.34586719       0.33451329       0.33958337 </v>
   </varray>
  </structure>
  <varray name="primitive_index" >
   <v type="int" >        1 </v>
   <v type="int" >        2 </v>
   <v type="int" >        3 </v>
   <v type="int" >        4 </v>
   <v type="int" >        5 </v>
   <v type="int" >        6 </v>
   <v type="int" >        7 </v>
   <v type="int" >        8 </v>
   <v type="int" >        9 </v>
   <v type="int" >       10 </v>
   <v type="int" >       11 </v>
   <v type="int" >       12 </v>
   <v type="int" >       13 </v>
   <v type="int" >       14 </v>
   <v type="int" >       15 </v>
   <v type="int" >       16 </v>
   <v type="int" >       17 </v>
   <v type="int" >       18 </v>
   <v type="int" >       19 </v>
   <v type="int" >       20 </v>
   <v type="int" >       21 </v>
   <v type="int" >       22 </v>
   <v type="int" >       23 </v>
   <v type="int" >       24 </v>
   <v type="int" >       25 </v>
   <v type="int" >       26 </v>
   <v type="int" >       27 </v>
   <v type="int" >       28 </v>
   <v type="int" >       29 </v>
   <v type="int" >       30 </v>
   <v type="int" >       31 </v>
   <v type="int" >       32 </v>
   <v type="int" >       33 </v>
   <v type="int" >       34 </v>
   <v type="int" >       35 </v>
   <v type="int" >       36 </v>
   <v type="int" >       37 </v>
   <v type="int" >       38 </v>
   <v type="int" >       39 </v>
   <v type="int" >       40 </v>
   <v type="int" >       41 </v>
   <v type="int" >       42 </v>
   <v type="int" >       43 </v>
   <v type="int" >       44 </v>
   <v type="int" >       45 </v>
   <v type="int" >       46 </v>
   <v type="int" >       47 </v>
   <v type="int" >       48 </v>
   <v type="int" >       49 </v>
   <v type="int" >       50 </v>
   <v type="int" >       51 </v>
   <v type="int" >       52 </v>
   <v type="int" >       53 </v>
   <v type="int" >       54 </v>
   <v type="int" >       55 </v>
   <v type="int" >       56 </v>
   <v type="int" >       57 </v>
   <v type="int" >       58 </v>
   <v type="int" >       59 </v>
   <v type="int" >       60 </v>
   <v type="int" >       61 </v>
   <v type="int" >       62 </v>
   <v type="int" >       63 </v>
   <v type="int" >       64 </v>
   <v type="int" >       65 </v>
   <v type="int" >       66 </v>
   <v type="int" >       67 </v>
   <v type="int" >       68 </v>
   <v type="int" >       69 </v>
   <v type="int" >       70 </v>
   <v type="int" >       71 </v>
   <v type="int" >       72 </v>
   <v type="int" >       73 </v>
   <v type="int" >       74 </v>
   <v type="int" >       75 </v>
   <v type="int" >       76 </v>
   <v type="int" >       77 </v>
   <v type="int" >       78 </v>
   <v type="int" >       79 </v>
   <v type="int" >       80 </v>
   <v type="int" >       81 </v>
   <v type="int" >       82 </v>
   <v type="int" >       83 </v>
   <v type="int" >       84 </v>
   <v type="int" >       85 </v>
   <v type="int" >       86 </v>
   <v type="int" >       87 </v>
   <v type="int" >       88 </v>
   <v type="int" >       89 </v>
   <v type="int" >       90 </v>
   <v type="int" >       91 </v>
   <v type="int" >       92 </v>
   <v type="int" >       93 </v>
   <v type="int" >       94 </v>
   <v type="int" >       95 </v>
   <v type="int" >       96 </v>
   <v type="int" >       97 </v>
   <v type="int" >       98 </v>
   <v type="int" >       99 </v>
   <v type="int" >      100 </v>
   <v type="int" >      101 </v>
   <v type="int" >      102 </v>
   <v type="int" >      103 </v>
   <v type="int" >      104 </v>
   <v type="int" >      105 </v>
   <v type="int" >      106 </v>
   <v type="int" >      107 </v>
   <v type="int" >      108 </v>
   <v type="int" >      109 </v>
   <v type="int" >      110 </v>
   <v type="int" >      111 </v>
   <v type="int" >      112 </v>
   <v type="int" >      113 </v>
   <v type="int" >      114 </v>
   <v type="int" >      115 </v>
   <v type="int" >      116 </v>
   <v type="int" >      117 </v>
   <v type="int" >      118 </v>
   <v type="int" >      119 </v>
   <v type="int" >      120 </v>
  </varray>
 </primitive_cell>
 <kpoints>
  <generation param="Gamma">
   <v type="int" name="divisions">       2        2        2 </v>
   <v name="usershift">      0.00000000       0.00000000       0.00000000 </v>
   <v name="genvec1">      0.50000000       0.00000000      -0.00000000 </v>
   <v name="genvec2">      0.00000000       0.50000000       0.00000000 </v>
   <v name="genvec3">      0.00000000       0.00000000       0.50000000 </v>
   <v name="shift">      0.00000000       0.00000000       0.00000000 </v>
  </generation>
  <varray name="kpointlist" >
   <v>       0.00000000       0.00000000       0.00000000 </v>
   <v>       0.50000000       0.00000000       0.00000000 </v>
   <v>       0.00000000       0.50000000       0.00000000 </v>
   <v>       0.50000000       0.50000000       0.00000000 </v>
   <v>       0.00000000       0.00000000       0.50000000 </v>
   <v>       0.50000000       0.00000000       0.50000000 </v>
   <v>       0.00000000       0.50000000       0.50000000 </v>
   <v>       0.50000000       0.50000000       0.50000000 </v>
  </varray>
  <varray name="weights" >
   <v>       0.12500000 </v>
   <v>       0.12500000 </v>
   <v>       0.12500000 </v>
   <v>       0.12500000 </v>
   <v>       0.12500000 </v>
   <v>       0.12500000 </v>
   <v>       0.12500000 </v>
   <v>       0.12500000 </v>
  </varray>
 </kpoints>
 <parameters>
  <separator name="general" >
   <i type="string" name="SYSTEM">unknown system</i>
   <i type="logical" name="LCOMPAT"> F  </i>
  </separator>
  <separator name="electronic" >
   <i type="string" name="PREC">normal</i>
   <i name="ENMAX">    450.00000000</i>
   <i name="ENAUG">    627.11200000</i>
   <i name="EDIFF">      0.00001000</i>
   <i type="int" name="IALGO">    38</i>
   <i type="int" name="IWAVPR">    10</i>
   <i type="int" name="NBANDS">   630</i>
   <i type="int" name="NBANDSLOW">    -1</i>
   <i type="int" name="NBANDSHIGH">    -1</i>
   <i name="NELECT">   1050.00000000</i>
   <i type="int" name="TURBO">     0</i>
   <i type="int" name="IRESTART">     0</i>
   <i type="int" name="NREBOOT">     0</i>
   <i type="int" name="NMIN">     0</i>
   <i name="EREF">      0.00000000</i>
   <separator name="electronic smearing" >
    <i type="int" name="ISMEAR">     0</i>
    <i name="SIGMA">      0.05000000</i>
    <i name="KSPACING">      0.50000000</i>
    <i type="logical" name="KGAMMA"> T  </i>
    <i type="logical" name="KBLOWUP"> T  </i>
   </separator>
   <separator name="electronic projectors" >
    <i type="logical" name="LREAL"> T  </i>
    <v name="ROPT">     -0.00050000     -0.00050000     -0.00050000     -0.00050000</v>
    <i type="int" name="LMAXPAW">  -100</i>
    <i type="int" name="LMAXMIX">     2</i>
    <i type="logical" name="NLSPLINE"> F  </i>
   </separator>
   <separator name="electronic startup" >
    <i type="int" name="ISTART">     0</i>
    <i type="int" name="ICHARG">     0</i>
    <i type="int" name="INIWAV">     1</i>
   </separator>
   <separator name="electronic spin" >
    <i type="int" name="ISPIN">     1</i>
    <i type="logical" name="LNONCOLLINEAR"> F  </i>
    <v name="MAGMOM">      1.00000000      1.00000000      1.00000000      1.00000000      1.00000000      1.00000000      1.00000000      1.00000000      1.00000000      1.00000000      1.00000000      1.00000000      1.00000000      1.00000000      1.00000000      1.00000000      1.00000000      1.00000000      1.00000000      1.00000000
      1.00000000      1.00000000      1.00000000      1.00000000      1.00000000      1.00000000      1.00000000      1.00000000      1.00000000      1.00000000      1.00000000      1.00000000      1.00000000      1.00000000      1.00000000      1.00000000      1.00000000      1.00000000      1.00000000      1.00000000
      1.00000000      1.00000000      1.00000000      1.00000000      1.00000000      1.00000000      1.00000000      1.00000000      1.00000000      1.00000000      1.00000000      1.00000000      1.00000000      1.00000000      1.00000000      1.00000000      1.00000000      1.00000000      1.00000000      1.00000000
      1.00000000      1.00000000      1.00000000      1.00000000      1.00000000      1.00000000      1.00000000      1.00000000      1.00000000      1.00000000      1.00000000      1.00000000      1.00000000      1.00000000      1.00000000      1.00000000      1.00000000      1.00000000      1.00000000      1.00000000
      1.00000000      1.00000000      1.00000000      1.00000000      1.00000000      1.00000000      1.00000000      1.00000000      1.00000000      1.00000000      1.00000000      1.00000000      1.00000000      1.00000000      1.00000000      1.00000000      1.00000000      1.00000000      1.00000000      1.00000000
      1.00000000      1.00000000      1.00000000      1.00000000      1.00000000      1.00000000      1.00000000      1.00000000      1.00000000      1.00000000      1.00000000      1.00000000      1.00000000      1.00000000      1.00000000      1.00000000      1.00000000      1.00000000      1.00000000      1.00000000
</v>
    <i name="NUPDOWN">     -1.00000000</i>
    <i type="logical" name="LSORBIT"> F  </i>
    <v name="SAXIS">      0.00000000      0.00000000      1.00000000</v>
    <i type="logical" name="LSPIRAL"> F  </i>
    <v name="QSPIRAL">      0.00000000      0.00000000      0.00000000</v>
    <i type="logical" name="LZEROZ"> F  </i>
   </separator>
   <separator name="electronic exchange-correlation" >
    <i type="logical" name="LASPH"> F  </i>
    <i type="logical" name="LMETAGGA"> F  </i>
   </separator>
   <separator name="electronic convergence" >
    <i type="int" name="NELM">   500</i>
    <i type="int" name="NELMDL">    -5</i>
    <i type="int" name="NELMIN">     2</i>
    <i name="ENINI">    450.00000000</i>
    <separator name="electronic convergence detail" >
     <i type="logical" name="LDIAG"> T  </i>
     <i type="logical" name="LSUBROT"> F  </i>
     <i name="WEIMIN">      0.00000000</i>
     <i name="EBREAK">      0.00000000</i>
     <i name="DEPER">      0.30000000</i>
     <i type="int" name="NRMM">     4</i>
     <i name="TIME">      0.40000000</i>
    </separator>
   </separator>
   <separator name="electronic mixer" >
    <i name="AMIX">      0.40000000</i>
    <i name="BMIX">      1.00000000</i>
    <i name="AMIN">      0.10000000</i>
    <i name="AMIX_MAG">      1.60000000</i>
    <i name="BMIX_MAG">      1.00000000</i>
    <separator name="electronic mixer details" >
     <i type="int" name="IMIX">     4</i>
     <i type="logical" name="MIXFIRST"> F  </i>
     <i type="int" name="MAXMIX">   -45</i>
     <i name="WC">    100.00000000</i>
     <i type="int" name="INIMIX">     1</i>
     <i type="int" name="MIXPRE">     1</i>
     <i type="int" name="MREMOVE">     5</i>
    </separator>
   </separator>
   <separator name="electronic dipolcorrection" >
    <i type="logical" name="LDIPOL"> F  </i>
    <i type="logical" name="LMONO"> F  </i>
    <i type="int" name="IDIPOL">     0</i>
    <i name="EPSILON">      1.00000000</i>
    <v name="DIPOL">   -100.00000000   -100.00000000   -100.00000000</v>
    <i name="EFIELD">      0.00000000</i>
   </separator>
  </separator>
  <separator name="grids" >
   <i type="int" name="NGX">    64</i>
   <i type="int" name="NGY">    48</i>
   <i type="int" name="NGZ">    60</i>
   <i type="int" name="NGXF">   128</i>
   <i type="int" name="NGYF">    96</i>
   <i type="int" name="NGZF">   120</i>
   <i type="logical" name="ADDGRID"> F  </i>
  </separator>
  <separator name="ionic" >
   <i type="int" name="NSW">     0</i>
   <i type="int" name="IBRION">    -1</i>
   <i type="int" name="MDALGO">     0</i>
   <i type="int" name="ISIF">     2</i>
   <i name="PSTRESS">      0.00000000</i>
   <i name="EDIFFG">     -0.00500000</i>
   <i type="int" name="NFREE">     0</i>
   <i name="POTIM">      0.50000000</i>
   <i name="SMASS">     -3.00000000</i>
   <i name="SCALEE">      1.00000000</i>
  </separator>
  <separator name="ionic md" >
   <i name="TEBEG">      0.00010000</i>
   <i name="TEEND">      0.00010000</i>
   <i type="int" name="NBLOCK">     1</i>
   <i type="int" name="KBLOCK">     1</i>
   <i type="int" name="NPACO">   256</i>
   <i name="APACO">     10.00000000</i>
  </separator>
  <separator name="symmetry" >
   <i type="int" name="ISYM">     0</i>
   <i name="SYMPREC">      0.00001000</i>
  </separator>
  <separator name="dos" >
   <i type="int" name="LORBIT">     0</i>
   <v name="RWIGS">     -1.00000000     -1.00000000     -1.00000000     -1.00000000</v>
   <i type="int" name="NEDOS">   301</i>
   <i name="EMIN">     10.00000000</i>
   <i name="EMAX">    -10.00000000</i>
   <i name="EFERMI">      0.00000000</i>
  </separator>
  <separator name="writing" >
   <i type="int" name="NWRITE">     2</i>
   <i type="logical" name="LWAVE"> T  </i>
   <i type="logical" name="LDOWNSAMPLE"> F  </i>
   <i type="logical" name="LCHARG"> T  </i>
   <i type="logical" name="LPARD"> F  </i>
   <i type="logical" name="LVTOT"> F  </i>
   <i type="logical" name="LVHAR"> F  </i>
   <i type="logical" name="LELF"> F  </i>
   <i type="logical" name="LOPTICS"> F  </i>
   <v name="STM">      0.00000000      0.00000000      0.00000000      0.00000000      0.00000000      0.00000000      0.00000000</v>
  </separator>
  <separator name="performance" >
   <i type="int" name="NPAR">     1</i>
   <i type="int" name="NSIM">     4</i>
   <i type="int" name="NBLK">    -1</i>
   <i type="logical" name="LPLANE"> T  </i>
   <i type="logical" name="LSCALAPACK"> T  </i>
   <i type="logical" name="LSCAAWARE"> F  </i>
   <i type="logical" name="LSCALU"> F  </i>
   <i type="logical" name="LASYNC"> F  </i>
   <i type="logical" name="LORBITALREAL"> F  </i>
  </separator>
  <separator name="miscellaneous" >
   <i type="int" name="IDIOT">     3</i>
   <i type="int" name="PHON_NSTRUCT">    -1</i>
   <i type="logical" name="LMUSIC"> F  </i>
   <v name="POMASS">     69.72300000     16.00000000     14.00100000     55.84700000</v>
   <v name="DARWINR">      0.00000000      0.00000000      0.00000000      0.00000000</v>
   <v name="DARWINV">      1.00000000      1.00000000      1.00000000      1.00000000</v>
   <i type="logical" name="LCORR"> T  </i>
  </separator>
  <i type="logical" name="GGA_COMPAT"> T  </i>
  <i type="logical" name="LBERRY"> F  </i>
  <i type="int" name="ICORELEVEL">     1</i>
  <i type="int" name="CLNT">     1</i>
  <i type="int" name="CLN">     1</i>
  <i type="int" name="CLL">     0</i>
  <i name="CLZ">      0.00000000</i>
  <i type="logical" name="LDAU"> F  </i>
  <i type="int" name="I_CONSTRAINED_M">     0</i>
  <separator name="electronic exchange-correlation" >
   <i type="string" name="GGA">--</i>
   <i type="int" name="VOSKOWN">     0</i>
   <i type="logical" name="LHFCALC"> F  </i>
   <i type="string" name="PRECFOCK"></i>
   <i type="logical" name="LSYMGRAD"> F  </i>
   <i type="logical" name="LHFONE"> F  </i>
   <i type="logical" name="LRHFCALC"> F  </i>
   <i type="logical" name="LTHOMAS"> F  </i>
   <i type="logical" name="LMODELHF"> F  </i>
   <i type="logical" name="LFOCKACE"> F  </i>
   <i name="ENCUT4O">     -1.00000000</i>
   <i type="int" name="EXXOEP">     0</i>
   <i type="int" name="FOURORBIT">     0</i>
   <i name="AEXX">      0.00000000</i>
   <i name="HFALPHA">      0.00000000</i>
   <i name="MCALPHA">      0.00000000</i>
   <i name="ALDAX">      1.00000000</i>
   <i name="AGGAX">      1.00000000</i>
   <i name="ALDAC">      1.00000000</i>
   <i name="AGGAC">      1.00000000</i>
   <i type="int" name="NKREDX">     1</i>
   <i type="int" name="NKREDY">     1</i>
   <i type="int" name="NKREDZ">     1</i>
   <i type="logical" name="SHIFTRED"> F  </i>
   <i type="logical" name="ODDONLY"> F  </i>
   <i type="logical" name="EVENONLY"> F  </i>
   <i type="int" name="LMAXFOCK">     0</i>
   <i type="int" name="NMAXFOCKAE">     0</i>
   <i type="logical" name="LFOCKAEDFT"> F  </i>
   <i name="HFSCREEN">      0.00000000</i>
   <i name="HFSCREENC">      0.00000000</i>
   <i type="int" name="NBANDSGWLOW">     0</i>
  </separator>
  <separator name="vdW DFT" >
   <i type="logical" name="LUSE_VDW"> F  </i>
   <i type="int" name="IVDW_NL">     1</i>
   <i type="logical" name="LSPIN_VDW"> F  </i>
   <i name="Zab_VDW">     -0.84910000</i>
   <i name="PARAM1">      0.12340000</i>
   <i name="PARAM2">      1.00000000</i>
   <i name="PARAM3">      0.00000000</i>
  </separator>
  <separator name="model GW" >
   <i type="int" name="MODEL_GW">     0</i>
   <i name="MODEL_EPS0">      6.34402517</i>
   <i name="MODEL_ALPHA">      1.00000000</i>
  </separator>
  <separator name="linear response parameters" >
   <i type="logical" name="LEPSILON"> F  </i>
   <i type="logical" name="LRPA"> F  </i>
   <i type="logical" name="LNABLA"> F  </i>
   <i type="logical" name="LVEL"> F  </i>
   <i name="CSHIFT">      0.10000000</i>
   <i name="OMEGAMAX">     -1.00000000</i>
   <i name="DEG_THRESHOLD">      0.00200000</i>
   <i name="RTIME">     -0.10000000</i>
   <i name="WPLASMAI">      0.00000000</i>
   <v name="DFIELD">      0.00000000      0.00000000      0.00000000</v>
   <v name="WPLASMA">      0.00000000      0.00000000      0.00000000      0.00000000      0.00000000      0.00000000      0.00000000      0.00000000      0.00000000</v>
  </separator>
  <separator name="orbital magnetization" >
   <i type="logical" name="NUCIND"> F  </i>
   <v name="MAGPOS">      0.00000000      0.00000000      0.00000000</v>
   <i type="logical" name="LNICSALL"> T  </i>
   <i type="logical" name="ORBITALMAG"> F  </i>
   <i type="logical" name="LMAGBLOCH"> F  </i>
   <i type="logical" name="LCHIMAG"> F  </i>
   <i type="logical" name="LGAUGE"> T  </i>
   <i type="int" name="MAGATOM">     0</i>
   <v name="MAGDIPOL">      0.00000000      0.00000000      0.00000000</v>
   <v name="AVECCONST">      0.00000000      0.00000000      0.00000000</v>
  </separator>
  <separator name="response functions" >
   <i type="logical" name="LALL_IN_ONE"> F  </i>
   <i type="int" name="IALL_IN_ONE">    -1</i>
   <i type="int" name="NBANDS_WAVE">    -1</i>
   <i type="logical" name="LFINITE_TEMPERATURE"> F  </i>
   <i type="logical" name="LADDER"> F  </i>
   <i type="logical" name="LRPAFORCE"> F  </i>
   <i type="logical" name="LFXC"> F  </i>
   <i type="logical" name="LHARTREE"> T  </i>
   <i type="int" name="IBSE">     0</i>
   <v type="int" name="KPOINT">    -1     0     0     0</v>
   <i type="logical" name="LTCTC"> F  </i>
   <i type="logical" name="LTCTE"> F  </i>
   <i type="logical" name="LTETE"> F  </i>
   <i type="logical" name="LTRIPLET"> F  </i>
   <i type="logical" name="LFXCEPS"> F  </i>
   <i type="logical" name="LFXHEG"> F  </i>
   <i type="int" name="NATURALO">     2</i>
   <i type="logical" name="LHOLEGF"> F  </i>
   <i type="logical" name="L2ORDER"> F  </i>
   <i type="logical" name="LDMP1"> F  </i>
   <i type="logical" name="LMP2LT"> F  </i>
   <i type="logical" name="LSMP2LT"> F  </i>
   <i type="logical" name="LGWLF"> F  </i>
   <i name="ENCUTGW">     -1.60000002</i>
   <i name="ENCUTGWSOFT">     -1.60000002</i>
   <i name="ENCUTLF">     -1.00000000</i>
   <i type="logical" name="LESF_SPLINES"> F  </i>
   <i type="int" name="LMAXMP2">    -1</i>
   <i name="SCISSOR">      0.00000000</i>
   <i type="int" name="NOMEGA">     0</i>
   <i type="int" name="NOMEGAR">     0</i>
   <i type="int" name="NBANDSGW">    -1</i>
   <i type="int" name="NBANDSO">    -1</i>
   <i type="int" name="NBANDSV">    -1</i>
   <i type="int" name="NELMGW">     1</i>
   <i type="int" name="NELMHF">     1</i>
   <i type="int" name="DIM">     3</i>
   <i type="int" name="IESPILON">     4</i>
   <i type="int" name="ANTIRES">     0</i>
   <i name="OMEGAMAX">    -30.00000000</i>
   <i name="OMEGAMIN">    -30.00000000</i>
   <i name="OMEGATL">   -200.00000000</i>
   <i type="int" name="OMEGAGRID">     0</i>
   <i name="CSHIFT">     -0.10000000</i>
   <i type="logical" name="LSELFENERGY"> F  </i>
   <i type="logical" name="LSPECTRAL"> F  </i>
   <i type="logical" name="LSPECTRALGW"> F  </i>
   <i type="logical" name="LSINGLES"> F  </i>
   <i type="logical" name="LFERMIGW"> F  </i>
   <i type="logical" name="ODDONLYGW"> F  </i>
   <i type="logical" name="EVENONLYGW"> F  </i>
   <i type="int" name="NKREDLFX">     1</i>
   <i type="int" name="NKREDLFY">     1</i>
   <i type="int" name="NKREDLFZ">     1</i>
   <i type="int" name="MAXMEM">  2800</i>
   <i type="int" name="TELESCOPE">     0</i>
   <i type="int" name="NTAUPAR">    -1</i>
   <i type="int" name="NOMEGAPAR">    -1</i>
   <i name="DAMP_NEWTON">      0.80000001</i>
   <i name="LAMBDA">      1.00000000</i>
  </separator>
  <separator name="External order field" >
   <i name="OFIELD_KAPPA">      0.00000000</i>
   <v name="OFIELD_K">      0.00000000      0.00000000      0.00000000</v>
   <i name="OFIELD_Q6_NEAR">      0.00000000</i>
   <i name="OFIELD_Q6_FAR">      0.00000000</i>
   <i name="OFIELD_A">      0.00000000</i>
  </separator>
  <separator name="optional k-points parameters" >
   <i type="int" name="KPOINTS_OPT_MODE">     1</i>
   <i type="logical" name="LKPOINTS_OPT"> F  </i>
  </separator>
 </parameters>
 <atominfo>
  <atoms>     120 </atoms>
  <types>       4 </types>
  <array name="atoms" >
   <dimension dim="1">ion</dimension>
   <field type="string">element</field>
   <field type="int">atomtype</field>
   <set>
    <rc><c>Ga</c><c>   1</c></rc>
    <rc><c>Ga</c><c>   1</c></rc>
    <rc><c>Ga</c><c>   1</c></rc>
    <rc><c>Ga</c><c>   1</c></rc>
    <rc><c>Ga</c><c>   1</c></rc>
    <rc><c>Ga</c><c>   1</c></rc>
    <rc><c>Ga</c><c>   1</c></rc>
    <rc><c>Ga</c><c>   1</c></rc>
    <rc><c>Ga</c><c>   1</c></rc>
    <rc><c>Ga</c><c>   1</c></rc>
    <rc><c>Ga</c><c>   1</c></rc>
    <rc><c>Ga</c><c>   1</c></rc>
    <rc><c>Ga</c><c>   1</c></rc>
    <rc><c>Ga</c><c>   1</c></rc>
    <rc><c>Ga</c><c>   1</c></rc>
    <rc><c>Ga</c><c>   1</c></rc>
    <rc><c>Ga</c><c>   1</c></rc>
    <rc><c>Ga</c><c>   1</c></rc>
    <rc><c>Ga</c><c>   1</c></rc>
    <rc><c>Ga</c><c>   1</c></rc>
    <rc><c>Ga</c><c>   1</c></rc>
    <rc><c>Ga</c><c>   1</c></rc>
    <rc><c>Ga</c><c>   1</c></rc>
    <rc><c>Ga</c><c>   1</c></rc>
    <rc><c>Ga</c><c>   1</c></rc>
    <rc><c>Ga</c><c>   1</c></rc>
    <rc><c>Ga</c><c>   1</c></rc>
    <rc><c>Ga</c><c>   1</c></rc>
    <rc><c>Ga</c><c>   1</c></rc>
    <rc><c>Ga</c><c>   1</c></rc>
    <rc><c>Ga</c><c>   1</c></rc>
    <rc><c>Ga</c><c>   1</c></rc>
    <rc><c>Ga</c><c>   1</c></rc>
    <rc><c>Ga</c><c>   1</c></rc>
    <rc><c>Ga</c><c>   1</c></rc>
    <rc><c>Ga</c><c>   1</c></rc>
    <rc><c>Ga</c><c>   1</c></rc>
    <rc><c>Ga</c><c>   1</c></rc>
    <rc><c>Ga</c><c>   1</c></rc>
    <rc><c>Ga</c><c>   1</c></rc>
    <rc><c>Ga</c><c>   1</c></rc>
    <rc><c>Ga</c><c>   1</c></rc>
    <rc><c>Ga</c><c>   1</c></rc>
    <rc><c>Ga</c><c>   1</c></rc>
    <rc><c>Ga</c><c>   1</c></rc>
    <rc><c>Ga</c><c>   1</c></rc>
    <rc><c>Ga</c><c>   1</c></rc>
    <rc><c>O </c><c>   2</c></rc>
    <rc><c>O </c><c>   2</c></rc>
    <rc><c>O </c><c>   2</c></rc>
    <rc><c>O </c><c>   2</c></rc>
    <rc><c>O </c><c>   2</c></rc>
    <rc><c>O </c><c>   2</c></rc>
    <rc><c>O </c><c>   2</c></rc>
    <rc><c>O </c><c>   2</c></rc>
    <rc><c>O </c><c>   2</c></rc>
    <rc><c>O </c><c>   2</c></rc>
    <rc><c>O </c><c>   2</c></rc>
    <rc><c>O </c><c>   2</c></rc>
    <rc><c>O </c><c>   2</c></rc>
    <rc><c>O </c><c>   2</c></rc>
    <rc><c>O </c><c>   2</c></rc>
    <rc><c>O </c><c>   2</c></rc>
    <rc><c>O </c><c>   2</c></rc>
    <rc><c>O </c><c>   2</c></rc>
    <rc><c>O </c><c>   2</c></rc>
    <rc><c>O </c><c>   2</c></rc>
    <rc><c>O </c><c>   2</c></rc>
    <rc><c>O </c><c>   2</c></rc>
    <rc><c>O </c><c>   2</c></rc>
    <rc><c>O </c><c>   2</c></rc>
    <rc><c>O </c><c>   2</c></rc>
    <rc><c>O </c><c>   2</c></rc>
    <rc><c>O </c><c>   2</c></rc>
    <rc><c>O </c><c>   2</c></rc>
    <rc><c>O </c><c>   2</c></rc>
    <rc><c>O </c><c>   2</c></rc>
    <rc><c>O </c><c>   2</c></rc>
    <rc><c>O </c><c>   2</c></rc>
    <rc><c>O </c><c>   2</c></rc>
    <rc><c>O </c><c>   2</c></rc>
    <rc><c>O </c><c>   2</c></rc>
    <rc><c>O </c><c>   2</c></rc>
    <rc><c>O </c><c>   2</c></rc>
    <rc><c>O </c><c>   2</c></rc>
    <rc><c>O </c><c>   2</c></rc>
    <rc><c>O </c><c>   2</c></rc>
    <rc><c>O </c><c>   2</c></rc>
    <rc><c>O </c><c>   2</c></rc>
    <rc><c>O </c><c>   2</c></rc>
    <rc><c>O </c><c>   2</c></rc>
    <rc><c>O </c><c>   2</c></rc>
    <rc><c>O </c><c>   2</c></rc>
    <rc><c>O </c><c>   2</c></rc>
    <rc><c>O </c><c>   2</c></rc>
    <rc><c>O </c><c>   2</c></rc>
    <rc><c>O </c><c>   2</c></rc>
    <rc><c>O </c><c>   2</c></rc>
    <rc><c>O </c><c>   2</c></rc>
    <rc><c>O </c><c>   2</c></rc>
    <rc><c>O </c><c>   2</c></rc>
    <rc><c>O </c><c>   2</c></rc>
    <rc><c>O </c><c>   2</c></rc>
    <rc><c>O </c><c>   2</c></rc>
    <rc><c>O </c><c>   2</c></rc>
    <rc><c>O </c><c>   2</c></rc>
    <rc><c>O </c><c>   2</c></rc>
    <rc><c>O </c><c>   2</c></rc>
    <rc><c>O </c><c>   2</c></rc>
    <rc><c>O </c><c>   2</c></rc>
    <rc><c>O </c><c>   2</c></rc>
    <rc><c>O </c><c>   2</c></rc>
    <rc><c>O </c><c>   2</c></rc>
    <rc><c>O </c><c>   2</c></rc>
    <rc><c>O </c><c>   2</c></rc>
    <rc><c>O </c><c>   2</c></rc>
    <rc><c>O </c><c>   2</c></rc>
    <rc><c>O </c><c>   2</c></rc>
    <rc><c>N </c><c>   3</c></rc>
    <rc><c>Fe</c><c>   4</c></rc>
   </set>
  </array>
  <array name="atomtypes" >
   <dimension dim="1">type</dimension>
   <field type="int">atomspertype</field>
   <field type="string">element</field>
   <field>mass</field>
   <field>valence</field>
   <field type="string">pseudopotential</field>
   <set>
    <rc><c>  47</c><c>Ga</c><c>     69.72300000</c><c>     13.00000000</c><c>  PAW_PBE Ga_d 06Jul2010                </c></rc>
    <rc><c>  71</c><c>O </c><c>     16.00000000</c><c>      6.00000000</c><c>  PAW_PBE O 08Apr2002                   </c></rc>
    <rc><c>   1</c><c>N </c><c>     14.00100000</c><c>      5.00000000</c><c>  PAW_PBE N 08Apr2002                   </c></rc>
    <rc><c>   1</c><c>Fe</c><c>     55.84700000</c><c>      8.00000000</c><c>  PAW_PBE Fe 06Sep2000                  </c></rc>
   </set>
  </array>
 </atominfo>
 <structure name="initialpos" >
  <crystal>
   <varray name="basis" >
    <v>       0.00000000      12.28047371       0.00000000 </v>
    <v>       9.14270115       0.00000000       0.00000000 </v>
    <v>       0.00000000      -2.76826164     -11.30069748 </v>
   </varray>
   <i name="volume">   1268.80503319 </i>
   <varray name="rec_basis" >
    <v>       0.00000000       0.08143008      -0.01994742 </v>
    <v>       0.10937687      -0.00000000       0.00000000 </v>
    <v>       0.00000000       0.00000000      -0.08849011 </v>
   </varray>
  </crystal>
  <varray name="positions" >
   <v>       0.65884056       0.00045939       0.15778758 </v>
   <v>       0.65841659       0.99989843       0.65614716 </v>
   <v>       0.65996967       0.33335903       0.15774459 </v>
   <v>       0.65961803       0.33313048       0.65517782 </v>
   <v>       0.65934327       0.66655722       0.15699559 </v>
   <v>       0.65814578       0.66553448       0.65508053 </v>
   <v>       0.84125123       0.16694992       0.34443316 </v>
   <v>       0.84095737       0.16650380       0.84304477 </v>
   <v>       0.84168057       0.49986240       0.34421202 </v>
   <v>       0.84098735       0.49997605       0.84282493 </v>
   <v>       0.84149428       0.83340375       0.34352546 </v>
   <v>       0.84078747       0.83314547       0.84286472 </v>
   <v>       0.58588069       0.16653599       0.39675053 </v>
   <v>       0.59170442       0.16651394       0.89765690 </v>
   <v>       0.58585513       0.49989885       0.39394754 </v>
   <v>       0.59163131       0.50002861       0.89714169 </v>
   <v>       0.59145536       0.83324482       0.39780013 </v>
   <v>       0.59178938       0.83333935       0.89792291 </v>
   <v>       0.90855131       0.00029434       0.10230992 </v>
   <v>       0.90974396       0.99973764       0.60296034 </v>
   <v>       0.90844308       0.33348268       0.10218006 </v>
   <v>       0.91024691       0.33322973       0.60258627 </v>
   <v>       0.90892326       0.66659842       0.10212128 </v>
   <v>       0.90979382       0.66667569       0.60279410 </v>
   <v>       0.15880331       0.16779622       0.15804215 </v>
   <v>       0.15980623       0.16665457       0.65729217 </v>
   <v>       0.15914437       0.49911039       0.15809000 </v>
   <v>       0.15978289       0.49984639       0.65727867 </v>
   <v>       0.15864219       0.83355769       0.15663436 </v>
   <v>       0.16007373       0.83327655       0.65712497 </v>
   <v>       0.33988386       0.00086929       0.34372506 </v>
   <v>       0.34196341       0.00007753       0.84389806 </v>
   <v>       0.34179269       0.33327163       0.84322077 </v>
   <v>       0.33983430       0.66690934       0.34309871 </v>
   <v>       0.34198999       0.66661023       0.84374161 </v>
   <v>       0.09088369       0.00039195       0.39804970 </v>
   <v>       0.09151473       0.00014472       0.89820984 </v>
   <v>       0.09444286       0.33325218       0.39755740 </v>
   <v>       0.09132462       0.33329215       0.89809662 </v>
   <v>       0.09103507       0.66638484       0.39797980 </v>
   <v>       0.09164385       0.66637827       0.89822604 </v>
   <v>       0.40846097       0.16713917       0.10395404 </v>
   <v>       0.40769351       0.16763468       0.59970420 </v>
   <v>       0.40897733       0.50003262       0.10369784 </v>
   <v>       0.40716608       0.49834570       0.59923729 </v>
   <v>       0.40884988       0.83346233       0.10309768 </v>
   <v>       0.40857409       0.83308495       0.60201789 </v>
   <v>       0.99603947       0.16703259       0.12691701 </v>
   <v>       0.99726173       0.16631551       0.62811785 </v>
   <v>       0.99619863       0.49977121       0.12686406 </v>
   <v>       0.99731292       0.50010550       0.62808044 </v>
   <v>       0.99603761       0.83356788       0.12667247 </v>
   <v>       0.99749535       0.83321465       0.62821250 </v>
   <v>       0.50207567       0.99704477       0.37279615 </v>
   <v>       0.50433518       0.99991256       0.87274989 </v>
   <v>       0.50435298       0.33324880       0.87300572 </v>
   <v>       0.50200291       0.66943962       0.37255411 </v>
   <v>       0.50434393       0.66672684       0.87243909 </v>
   <v>       0.67212141       0.16670121       0.28211554 </v>
   <v>       0.67249114       0.16666893       0.77979923 </v>
   <v>       0.67280891       0.50072907       0.28085191 </v>
   <v>       0.67239099       0.49969807       0.77921038 </v>
   <v>       0.67316665       0.83337754       0.28098087 </v>
   <v>       0.67210451       0.83298712       0.77973059 </v>
   <v>       0.82748456       0.00067859       0.21988498 </v>
   <v>       0.82741492       0.99986291       0.71936399 </v>
   <v>       0.82747613       0.33331962       0.21989015 </v>
   <v>       0.82755463       0.33322925       0.71885674 </v>
   <v>       0.82782470       0.66651450       0.21963343 </v>
   <v>       0.82714048       0.66611570       0.71890513 </v>
   <v>       0.83363627       0.99981133       0.44632276 </v>
   <v>       0.83167960       0.99990584       0.94555692 </v>
   <v>       0.83316237       0.33351336       0.44638933 </v>
   <v>       0.83159288       0.33335720       0.94536223 </v>
   <v>       0.83363592       0.66677407       0.44614284 </v>
   <v>       0.83168644       0.66654688       0.94543878 </v>
   <v>       0.66720015       0.16693332       0.05481976 </v>
   <v>       0.66691211       0.16603832       0.55286917 </v>
   <v>       0.66724792       0.49965576       0.05425968 </v>
   <v>       0.66573925       0.49920633       0.55115369 </v>
   <v>       0.66762919       0.83366276       0.05485445 </v>
   <v>       0.66809661       0.83306513       0.55432540 </v>
   <v>       0.49596439       0.00047683       0.12838712 </v>
   <v>       0.49527784       0.00052783       0.62591597 </v>
   <v>       0.49701599       0.33336725       0.13337044 </v>
   <v>       0.49656602       0.33326675       0.62456772 </v>
   <v>       0.49638171       0.66672060       0.12812642 </v>
   <v>       0.49492065       0.66531863       0.62526235 </v>
   <v>       0.00454997       0.16784307       0.37292214 </v>
   <v>       0.00367417       0.16664196       0.87284276 </v>
   <v>       0.00474576       0.49887756       0.37284279 </v>
   <v>       0.00371256       0.49997229       0.87277742 </v>
   <v>       0.00398343       0.83333894       0.37313652 </v>
   <v>       0.00400706       0.83320427       0.87324385 </v>
   <v>       0.17165303       0.00008136       0.28030352 </v>
   <v>       0.17350939       0.00028335       0.78127277 </v>
   <v>       0.17548293       0.33373657       0.28017340 </v>
   <v>       0.17342176       0.33326210       0.78134199 </v>
   <v>       0.17160181       0.66702809       0.28005524 </v>
   <v>       0.17354694       0.66625895       0.78123633 </v>
   <v>       0.32734489       0.16914058       0.22234088 </v>
   <v>       0.32839776       0.16681729       0.71937295 </v>
   <v>       0.32820517       0.49876232       0.22218268 </v>
   <v>       0.32831619       0.49958246       0.71922407 </v>
   <v>       0.32644846       0.83373358       0.21933852 </v>
   <v>       0.32809001       0.83326890       0.72009765 </v>
   <v>       0.33095024       0.17191022       0.44249982 </v>
   <v>       0.33396247       0.16714360       0.94661665 </v>
   <v>       0.32932301       0.49465949       0.44157009 </v>
   <v>       0.33408769       0.49960135       0.94651143 </v>
   <v>       0.32990846       0.83344023       0.44592222 </v>
   <v>       0.33294360       0.83330364       0.94618906 </v>
   <v>       0.16864609       0.00108841       0.05488710 </v>
   <v>       0.16887969       0.00025218       0.55452012 </v>
   <v>       0.16861562       0.33345032       0.05437404 </v>
   <v>       0.16853162       0.33323079       0.55507651 </v>
   <v>       0.16870160       0.66583947       0.05491216 </v>
   <v>       0.16892307       0.66629147       0.55449127 </v>
   <v>       0.49039321       0.33314739       0.36939851 </v>
   <v>       0.34586719       0.33451329       0.33958337 </v>
  </varray>
 </structure>
 <calculation>
  <scstep>
   <time name="dav">    1.87    1.87</time>
   <time name="total">    2.03    2.03</time>
   <energy>
    <i name="alphaZ">   5490.26774318 </i>
    <i name="ewald"> -87878.92610613 </i>
    <i name="hartreedc">  -2090.97856211 </i>
    <i name="XCdc">   2772.14345144 </i>
    <i name="pawpsdc">  81177.74881411 </i>
    <i name="pawaedc"> -83245.77841787 </i>
    <i name="eentropy">     -0.01016330 </i>
    <i name="bandstr"> -36586.52364015 </i>
    <i name="atom"> 132549.78686116 </i>
    <i name="e_fr_energy">  12187.72998033 </i>
    <i name="e_wo_entrp">  12187.74014363 </i>
    <i name="e_0_energy">  12187.73506198 </i>
   </energy>
  </scstep>
  <scstep>
   <time name="dav">    2.69    2.69</time>
   <time name="total">    2.70    2.70</time>
   <energy>
    <i name="e_fr_energy"> -30897.49856219 </i>
    <i name="e_wo_entrp"> -30897.48639550 </i>
    <i name="e_0_energy"> -30897.49247884 </i>
   </energy>
  </scstep>
  <scstep>
   <time name="dav">    2.31    2.31</time>
   <time name="total">    2.31    2.31</time>
   <energy>
    <i name="e_fr_energy"> -35392.15886829 </i>
    <i name="e_wo_entrp"> -35392.13758918 </i>
    <i name="e_0_energy"> -35392.14822873 </i>
   </energy>
  </scstep>
  <scstep>
   <time name="dav">    2.64    2.64</time>
   <time name="total">    2.65    2.65</time>
   <energy>
    <i name="e_fr_energy"> -35853.08495589 </i>
    <i name="e_wo_entrp"> -35853.03688181 </i>
    <i name="e_0_energy"> -35853.06091885 </i>
   </energy>
  </scstep>
  <scstep>
   <time name="dav">    3.09    3.09</time>
   <time name="total">    3.35    3.35</time>
   <energy>
    <i name="e_fr_energy"> -35898.53963545 </i>
    <i name="e_wo_entrp"> -35898.46601920 </i>
    <i name="e_0_energy"> -35898.50282732 </i>
   </energy>
  </scstep>
  <scstep>
   <time name="dav">    2.30    2.30</time>
   <time name="total">    2.68    2.68</time>
   <energy>
    <i name="e_fr_energy"> -10734.04583096 </i>
    <i name="e_wo_entrp"> -10734.00892440 </i>
    <i name="e_0_energy"> -10734.02737768 </i>
   </energy>
  </scstep>
  <scstep>
   <time name="dav">    2.52    2.52</time>
   <time name="total">    2.90    2.90</time>
   <energy>
    <i name="e_fr_energy">  -4078.66929982 </i>
    <i name="e_wo_entrp">  -4078.62556295 </i>
    <i name="e_0_energy">  -4078.64743139 </i>
   </energy>
  </scstep>
  <scstep>
   <time name="dav">    2.42    2.42</time>
   <time name="total">    2.80    2.80</time>
   <energy>
    <i name="e_fr_energy">  -1176.67552713 </i>
    <i name="e_wo_entrp">  -1176.63981304 </i>
    <i name="e_0_energy">  -1176.65767009 </i>
   </energy>
  </scstep>
  <scstep>
   <time name="dav">    2.41    2.41</time>
   <time name="total">    2.78    2.78</time>
   <energy>
    <i name="e_fr_energy">   -771.28224679 </i>
    <i name="e_wo_entrp">   -771.26973560 </i>
    <i name="e_0_energy">   -771.27599119 </i>
   </energy>
  </scstep>
  <scstep>
   <time name="dav">    2.42    2.42</time>
   <time name="total">    2.80    2.80</time>
   <energy>
    <i name="e_fr_energy">   -807.52574945 </i>
    <i name="e_wo_entrp">   -807.50460722 </i>
    <i name="e_0_energy">   -807.51517834 </i>
   </energy>
  </scstep>
  <scstep>
   <time name="dav">    2.19    2.19</time>
   <time name="total">    2.57    2.57</time>
   <energy>
    <i name="e_fr_energy">   -753.42513064 </i>
    <i name="e_wo_entrp">   -753.42465855 </i>
    <i name="e_0_energy">   -753.42489459 </i>
   </energy>
  </scstep>
  <scstep>
   <time name="dav">    2.36    2.36</time>
   <time name="total">    2.74    2.74</time>
   <energy>
    <i name="e_fr_energy">   -733.38427652 </i>
    <i name="e_wo_entrp">   -733.37950512 </i>
    <i name="e_0_energy">   -733.38189082 </i>
   </energy>
  </scstep>
  <scstep>
   <time name="dav">    2.22    2.22</time>
   <time name="total">    2.61    2.61</time>
   <energy>
    <i name="e_fr_energy">   -726.81956497 </i>
    <i name="e_wo_entrp">   -726.81956496 </i>
    <i name="e_0_energy">   -726.81956497 </i>
   </energy>
  </scstep>
  <scstep>
   <time name="dav">    2.40    2.40</time>
   <time name="total">    2.78    2.78</time>
   <energy>
    <i name="e_fr_energy">   -726.15813991 </i>
    <i name="e_wo_entrp">   -726.14147181 </i>
    <i name="e_0_energy">   -726.14980586 </i>
   </energy>
  </scstep>
  <scstep>
   <time name="dav">    2.47    2.47</time>
   <time name="total">    2.85    2.85</time>
   <energy>
    <i name="e_fr_energy">   -720.93280550 </i>
    <i name="e_wo_entrp">   -720.92169109 </i>
    <i name="e_0_energy">   -720.92724829 </i>
   </energy>
  </scstep>
  <scstep>
   <time name="dav">    2.28    2.28</time>
   <time name="total">    2.67    2.67</time>
   <energy>
    <i name="e_fr_energy">   -720.42249992 </i>
    <i name="e_wo_entrp">   -720.42248854 </i>
    <i name="e_0_energy">   -720.42249423 </i>
   </energy>
  </scstep>
  <scstep>
   <time name="dav">    2.12    2.12</time>
   <time name="total">    2.51    2.51</time>
   <energy>
    <i name="e_fr_energy">   -720.24043730 </i>
    <i name="e_wo_entrp">   -720.24038563 </i>
    <i name="e_0_energy">   -720.24041146 </i>
   </energy>
  </scstep>
  <scstep>
   <time name="dav">    2.35    2.35</time>
   <time name="total">    2.74    2.74</time>
   <energy>
    <i name="e_fr_energy">   -720.13298942 </i>
    <i name="e_wo_entrp">   -720.13288951 </i>
    <i name="e_0_energy">   -720.13293947 </i>
   </energy>
  </scstep>
  <scstep>
   <time name="dav">    2.45    2.45</time>
   <time name="total">    2.85    2.85</time>
   <energy>
    <i name="e_fr_energy">   -719.60146253 </i>
    <i name="e_wo_entrp">   -719.59851559 </i>
    <i name="e_0_energy">   -719.59998906 </i>
   </energy>
  </scstep>
  <scstep>
   <time name="dav">    2.53    2.53</time>
   <time name="total">    2.93    2.93</time>
   <energy>
    <i name="e_fr_energy">   -718.53079535 </i>
    <i name="e_wo_entrp">   -718.51586057 </i>
    <i name="e_0_energy">   -718.52332796 </i>
   </energy>
  </scstep>
  <scstep>
   <time name="dav">    2.01    2.01</time>
   <time name="total">    2.41    2.41</time>
   <energy>
    <i name="e_fr_energy">   -718.50060857 </i>
    <i name="e_wo_entrp">   -718.48564156 </i>
    <i name="e_0_energy">   -718.49312507 </i>
   </energy>
  </scstep>
  <scstep>
   <time name="dav">    2.22    2.23</time>
   <time name="total">    2.63    2.63</time>
   <energy>
    <i name="e_fr_energy">   -718.51658977 </i>
    <i name="e_wo_entrp">   -718.50203120 </i>
    <i name="e_0_energy">   -718.50931048 </i>
   </energy>
  </scstep>
  <scstep>
   <time name="dav">    2.48    2.48</time>
   <time name="total">    2.89    2.89</time>
   <energy>
    <i name="e_fr_energy">   -718.51910276 </i>
    <i name="e_wo_entrp">   -718.50433538 </i>
    <i name="e_0_energy">   -718.51171907 </i>
   </energy>
  </scstep>
  <scstep>
   <time name="dav">    2.77    2.77</time>
   <time name="total">    3.18    3.18</time>
   <energy>
    <i name="e_fr_energy">   -718.51861658 </i>
    <i name="e_wo_entrp">   -718.50399017 </i>
    <i name="e_0_energy">   -718.51130337 </i>
   </energy>
  </scstep>
  <scstep>
   <time name="dav">    2.30    2.30</time>
   <time name="total">    2.71    2.71</time>
   <energy>
    <i name="e_fr_energy">   -718.52348451 </i>
    <i name="e_wo_entrp">   -718.51971925 </i>
    <i name="e_0_energy">   -718.52160188 </i>
   </energy>
  </scstep>
  <scstep>
   <time name="dav">    2.16    2.16</time>
   <time name="total">    2.58    2.58</time>
   <energy>
    <i name="e_fr_energy">   -718.51777886 </i>
    <i name="e_wo_entrp">   -718.50817617 </i>
    <i name="e_0_energy">   -718.51297752 </i>
   </energy>
  </scstep>
  <scstep>
   <time name="dav">    2.42    2.42</time>
   <time name="total">    2.85    2.85</time>
   <energy>
    <i name="e_fr_energy">   -718.61994462 </i>
    <i name="e_wo_entrp">   -718.61988653 </i>
    <i name="e_0_energy">   -718.61991558 </i>
   </energy>
  </scstep>
  <scstep>
   <time name="dav">    2.18    2.18</time>
   <time name="total">    2.61    2.61</time>
   <energy>
    <i name="e_fr_energy">   -718.55517942 </i>
    <i name="e_wo_entrp">   -718.55421309 </i>
    <i name="e_0_energy">   -718.55469625 </i>
   </energy>
  </scstep>
  <scstep>
   <time name="dav">    2.31    2.31</time>
   <time name="total">    2.74    2.74</time>
   <energy>
    <i name="e_fr_energy">   -718.62166675 </i>
    <i name="e_wo_entrp">   -718.62165964 </i>
    <i name="e_0_energy">   -718.62166320 </i>
   </energy>
  </scstep>
  <scstep>
   <time name="dav">    2.44    2.44</time>
   <time name="total">    2.87    2.87</time>
   <energy>
    <i name="e_fr_energy">   -718.63420205 </i>
    <i name="e_wo_entrp">   -718.63419830 </i>
    <i name="e_0_energy">   -718.63420018 </i>
   </energy>
  </scstep>
  <scstep>
   <time name="dav">    2.48    2.48</time>
   <time name="total">    2.92    2.92</time>
   <energy>
    <i name="e_fr_energy">   -718.65835229 </i>
    <i name="e_wo_entrp">   -718.65834863 </i>
    <i name="e_0_energy">   -718.65835046 </i>
   </energy>
  </scstep>
  <scstep>
   <time name="dav">    2.43    2.43</time>
   <time name="total">    2.88    2.88</time>
   <energy>
    <i name="e_fr_energy">   -718.65799275 </i>
    <i name="e_wo_entrp">   -718.65798554 </i>
    <i name="e_0_energy">   -718.65798914 </i>
   </energy>
  </scstep>
  <scstep>
   <time name="dav">    2.56    2.56</time>
   <time name="total">    3.00    3.00</time>
   <energy>
    <i name="e_fr_energy">   -718.69068562 </i>
    <i name="e_wo_entrp">   -718.69068032 </i>
    <i name="e_0_energy">   -718.69068297 </i>
   </energy>
  </scstep>
  <scstep>
   <time name="dav">    2.42    2.42</time>
   <time name="total">    2.87    2.87</time>
   <energy>
    <i name="e_fr_energy">   -718.68600091 </i>
    <i name="e_wo_entrp">   -718.68599398 </i>
    <i name="e_0_energy">   -718.68599745 </i>
   </energy>
  </scstep>
  <scstep>
   <time name="dav">    2.59    2.59</time>
   <time name="total">    3.04    3.04</time>
   <energy>
    <i name="e_fr_energy">   -718.68655520 </i>
    <i name="e_wo_entrp">   -718.68654703 </i>
    <i name="e_0_energy">   -718.68655111 </i>
   </energy>
  </scstep>
  <scstep>
   <time name="dav">    1.86    1.86</time>
   <time name="total">    2.32    2.32</time>
   <energy>
    <i name="e_fr_energy">   -718.68477247 </i>
    <i name="e_wo_entrp">   -718.68476400 </i>
    <i name="e_0_energy">   -718.68476823 </i>
   </energy>
  </scstep>
  <scstep>
   <time name="dav">    1.99    1.99</time>
   <time name="total">    2.45    2.45</time>
   <energy>
    <i name="e_fr_energy">   -718.68539135 </i>
    <i name="e_wo_entrp">   -718.68538236 </i>
    <i name="e_0_energy">   -718.68538685 </i>
   </energy>
  </scstep>
  <scstep>
   <time name="dav">    2.11    2.11</time>
   <time name="total">    2.58    2.58</time>
   <energy>
    <i name="e_fr_energy">   -718.67767781 </i>
    <i name="e_wo_entrp">   -718.67766879 </i>
    <i name="e_0_energy">   -718.67767330 </i>
   </energy>
  </scstep>
  <scstep>
   <time name="dav">    2.13    2.13</time>
   <time name="total">    2.61    2.61</time>
   <energy>
    <i name="e_fr_energy">   -718.69525856 </i>
    <i name="e_wo_entrp">   -718.69525244 </i>
    <i name="e_0_energy">   -718.69525550 </i>
   </energy>
  </scstep>
  <scstep>
   <time name="dav">    2.18    2.18</time>
   <time name="total">    2.66    2.66</time>
   <energy>
    <i name="e_fr_energy">   -718.66214513 </i>
    <i name="e_wo_entrp">   -718.66212957 </i>
    <i name="e_0_energy">   -718.66213735 </i>
   </energy>
  </scstep>
  <scstep>
   <time name="dav">    2.43    2.43</time>
   <time name="total">    2.92    2.92</time>
   <energy>
    <i name="e_fr_energy">   -718.62213870 </i>
    <i name="e_wo_entrp">   -718.62208718 </i>
    <i name="e_0_energy">   -718.62211294 </i>
   </energy>
  </scstep>
  <scstep>
   <time name="dav">    2.47    2.47</time>
   <time name="total">    2.97    2.97</time>
   <energy>
    <i name="e_fr_energy">   -718.59225057 </i>
    <i name="e_wo_entrp">   -718.59214020 </i>
    <i name="e_0_energy">   -718.59219539 </i>
   </energy>
  </scstep>
  <scstep>
   <time name="dav">    2.15    2.15</time>
   <time name="total">    2.66    2.67</time>
   <energy>
    <i name="e_fr_energy">   -718.58274454 </i>
    <i name="e_wo_entrp">   -718.58259762 </i>
    <i name="e_0_energy">   -718.58267108 </i>
   </energy>
  </scstep>
  <scstep>
   <time name="dav">    2.06    2.06</time>
   <time name="total">    2.57    2.57</time>
   <energy>
    <i name="e_fr_energy">   -718.56714572 </i>
    <i name="e_wo_entrp">   -718.56693725 </i>
    <i name="e_0_energy">   -718.56704148 </i>
   </energy>
  </scstep>
  <scstep>
   <time name="dav">    2.43    2.43</time>
   <time name="total">    2.94    2.94</time>
   <energy>
    <i name="e_fr_energy">   -718.47077761 </i>
    <i name="e_wo_entrp">   -718.46896721 </i>
    <i name="e_0_energy">   -718.46987241 </i>
   </energy>
  </scstep>
  <scstep>
   <time name="dav">    2.37    2.37</time>
   <time name="total">    2.89    2.89</time>
   <energy>
    <i name="e_fr_energy">   -718.42048236 </i>
    <i name="e_wo_entrp">   -718.41562020 </i>
    <i name="e_0_energy">   -718.41805128 </i>
   </energy>
  </scstep>
  <scstep>
   <time name="dav">    2.30    2.30</time>
   <time name="total">    2.83    2.83</time>
   <energy>
    <i name="e_fr_energy">   -718.39725703 </i>
    <i name="e_wo_entrp">   -718.39083325 </i>
    <i name="e_0_energy">   -718.39404514 </i>
   </energy>
  </scstep>
  <scstep>
   <time name="dav">    2.33    2.33</time>
   <time name="total">    2.86    2.86</time>
   <energy>
    <i name="e_fr_energy">   -718.39604591 </i>
    <i name="e_wo_entrp">   -718.38982456 </i>
    <i name="e_0_energy">   -718.39293524 </i>
   </energy>
  </scstep>
  <scstep>
   <time name="dav">    2.17    2.17</time>
   <time name="total">    2.72    2.72</time>
   <energy>
    <i name="e_fr_energy">   -718.34013399 </i>
    <i name="e_wo_entrp">   -718.32955523 </i>
    <i name="e_0_energy">   -718.33484461 </i>
   </energy>
  </scstep>
  <scstep>
   <time name="dav">    2.47    2.47</time>
   <time name="total">    2.99    2.99</time>
   <energy>
    <i name="e_fr_energy">   -718.34441305 </i>
    <i name="e_wo_entrp">   -718.33656619 </i>
    <i name="e_0_energy">   -718.34048962 </i>
   </energy>
  </scstep>
  <scstep>
   <time name="dav">    2.02    2.02</time>
   <time name="total">    2.54    2.54</time>
   <energy>
    <i name="e_fr_energy">   -718.32804515 </i>
    <i name="e_wo_entrp">   -718.31712286 </i>
    <i name="e_0_energy">   -718.32258401 </i>
   </energy>
  </scstep>
  <scstep>
   <time name="dav">    2.24    2.24</time>
   <time name="total">    2.77    2.77</time>
   <energy>
    <i name="e_fr_energy">   -718.28567271 </i>
    <i name="e_wo_entrp">   -718.27018092 </i>
    <i name="e_0_energy">   -718.27792682 </i>
   </energy>
  </scstep>
  <scstep>
   <time name="dav">    2.37    2.37</time>
   <time name="total">    2.90    2.90</time>
   <energy>
    <i name="e_fr_energy">   -718.27968710 </i>
    <i name="e_wo_entrp">   -718.26822737 </i>
    <i name="e_0_energy">   -718.27395724 </i>
   </energy>
  </scstep>
  <scstep>
   <time name="dav">    2.28    2.28</time>
   <time name="total">    2.82    2.82</time>
   <energy>
    <i name="e_fr_energy">   -718.27523237 </i>
    <i name="e_wo_entrp">   -718.26269213 </i>
    <i name="e_0_energy">   -718.26896225 </i>
   </energy>
  </scstep>
  <scstep>
   <time name="dav">    2.11    2.11</time>
   <time name="total">    2.63    2.64</time>
   <energy>
    <i name="e_fr_energy">   -718.27584586 </i>
    <i name="e_wo_entrp">   -718.26245397 </i>
    <i name="e_0_energy">   -718.26914991 </i>
   </energy>
  </scstep>
  <scstep>
   <time name="dav">    2.47    2.47</time>
   <time name="total">    2.99    2.99</time>
   <energy>
    <i name="e_fr_energy">   -718.26893209 </i>
    <i name="e_wo_entrp">   -718.25633455 </i>
    <i name="e_0_energy">   -718.26263332 </i>
   </energy>
  </scstep>
  <scstep>
   <time name="dav">    2.35    2.35</time>
   <time name="total">    2.87    2.87</time>
   <energy>
    <i name="e_fr_energy">   -718.26723608 </i>
    <i name="e_wo_entrp">   -718.25493617 </i>
    <i name="e_0_energy">   -718.26108612 </i>
   </energy>
  </scstep>
  <scstep>
   <time name="dav">    2.20    2.20</time>
   <time name="total">    2.74    2.74</time>
   <energy>
    <i name="e_fr_energy">   -718.26728050 </i>
    <i name="e_wo_entrp">   -718.25524289 </i>
    <i name="e_0_energy">   -718.26126169 </i>
   </energy>
  </scstep>
  <scstep>
   <time name="dav">    1.98    1.98</time>
   <time name="total">    2.53    2.53</time>
   <energy>
    <i name="e_fr_energy">   -718.26815768 </i>
    <i name="e_wo_entrp">   -718.25658008 </i>
    <i name="e_0_energy">   -718.26236888 </i>
   </energy>
  </scstep>
  <scstep>
   <time name="dav">    1.86    1.86</time>
   <time name="total">    2.39    2.39</time>
   <energy>
    <i name="e_fr_energy">   -718.26842006 </i>
    <i name="e_wo_entrp">   -718.25712397 </i>
    <i name="e_0_energy">   -718.26277201 </i>
   </energy>
  </scstep>
  <scstep>
   <time name="dav">    1.87    1.87</time>
   <time name="total">    2.39    2.39</time>
   <energy>
    <i name="e_fr_energy">   -718.26768428 </i>
    <i name="e_wo_entrp">   -718.25695363 </i>
    <i name="e_0_energy">   -718.26231895 </i>
   </energy>
  </scstep>
  <scstep>
   <time name="dav">    1.88    1.88</time>
   <time name="total">    2.41    2.41</time>
   <energy>
    <i name="e_fr_energy">   -718.26846836 </i>
    <i name="e_wo_entrp">   -718.25844198 </i>
    <i name="e_0_energy">   -718.26345517 </i>
   </energy>
  </scstep>
  <scstep>
   <time name="dav">    1.76    1.76</time>
   <time name="total">    2.29    2.29</time>
   <energy>
    <i name="e_fr_energy">   -718.26893297 </i>
    <i name="e_wo_entrp">   -718.25902965 </i>
    <i name="e_0_energy">   -718.26398131 </i>
   </energy>
  </scstep>
  <scstep>
   <time name="dav">    1.77    1.77</time>
   <time name="total">    2.31    2.31</time>
   <energy>
    <i name="e_fr_energy">   -718.26924660 </i>
    <i name="e_wo_entrp">   -718.25928388 </i>
    <i name="e_0_energy">   -718.26426524 </i>
   </energy>
  </scstep>
  <scstep>
   <time name="dav">    1.51    1.51</time>
   <time name="total">    2.06    2.06</time>
   <energy>
    <i name="e_fr_energy">   -718.27002591 </i>
    <i name="e_wo_entrp">   -718.26021805 </i>
    <i name="e_0_energy">   -718.26512198 </i>
   </energy>
  </scstep>
  <scstep>
   <time name="dav">    1.54    1.54</time>
   <time name="total">    2.05    2.06</time>
   <energy>
    <i name="e_fr_energy">   -718.27073629 </i>
    <i name="e_wo_entrp">   -718.26115763 </i>
    <i name="e_0_energy">   -718.26594696 </i>
   </energy>
  </scstep>
  <scstep>
   <time name="dav">    1.50    1.50</time>
   <time name="total">    2.02    2.02</time>
   <energy>
    <i name="e_fr_energy">   -718.27151830 </i>
    <i name="e_wo_entrp">   -718.26209989 </i>
    <i name="e_0_energy">   -718.26680909 </i>
   </energy>
  </scstep>
  <scstep>
   <time name="dav">    1.51    1.51</time>
   <time name="total">    2.04    2.04</time>
   <energy>
    <i name="e_fr_energy">   -718.27279983 </i>
    <i name="e_wo_entrp">   -718.26388266 </i>
    <i name="e_0_energy">   -718.26834125 </i>
   </energy>
  </scstep>
  <scstep>
   <time name="dav">    1.49    1.49</time>
   <time name="total">    2.05    2.05</time>
   <energy>
    <i name="e_fr_energy">   -718.27358002 </i>
    <i name="e_wo_entrp">   -718.26477711 </i>
    <i name="e_0_energy">   -718.26917856 </i>
   </energy>
  </scstep>
  <scstep>
   <time name="dav">    1.51    1.51</time>
   <time name="total">    2.03    2.04</time>
   <energy>
    <i name="e_fr_energy">   -718.27484119 </i>
    <i name="e_wo_entrp">   -718.26646560 </i>
    <i name="e_0_energy">   -718.27065340 </i>
   </energy>
  </scstep>
  <scstep>
   <time name="dav">    1.50    1.50</time>
   <time name="total">    2.02    2.02</time>
   <energy>
    <i name="e_fr_energy">   -718.27482841 </i>
    <i name="e_wo_entrp">   -718.26658734 </i>
    <i name="e_0_energy">   -718.27070787 </i>
   </energy>
  </scstep>
  <scstep>
   <time name="dav">    1.53    1.53</time>
   <time name="total">    2.05    2.05</time>
   <energy>
    <i name="e_fr_energy">   -718.27572646 </i>
    <i name="e_wo_entrp">   -718.26770303 </i>
    <i name="e_0_energy">   -718.27171474 </i>
   </energy>
  </scstep>
  <scstep>
   <time name="dav">    1.53    1.53</time>
   <time name="total">    2.07    2.07</time>
   <energy>
    <i name="e_fr_energy">   -718.27563946 </i>
    <i name="e_wo_entrp">   -718.26775434 </i>
    <i name="e_0_energy">   -718.27169690 </i>
   </energy>
  </scstep>
  <scstep>
   <time name="dav">    1.53    1.53</time>
   <time name="total">    2.07    2.07</time>
   <energy>
    <i name="e_fr_energy">   -718.27630322 </i>
    <i name="e_wo_entrp">   -718.26852051 </i>
    <i name="e_0_energy">   -718.27241186 </i>
   </energy>
  </scstep>
  <scstep>
   <time name="dav">    1.53    1.53</time>
   <time name="total">    2.05    2.05</time>
   <energy>
    <i name="e_fr_energy">   -718.27601525 </i>
    <i name="e_wo_entrp">   -718.26834706 </i>
    <i name="e_0_energy">   -718.27218116 </i>
   </energy>
  </scstep>
  <scstep>
   <time name="dav">    1.53    1.53</time>
   <time name="total">    2.05    2.05</time>
   <energy>
    <i name="e_fr_energy">   -718.27648657 </i>
    <i name="e_wo_entrp">   -718.26886123 </i>
    <i name="e_0_energy">   -718.27267390 </i>
   </energy>
  </scstep>
  <scstep>
   <time name="dav">    1.53    1.53</time>
   <time name="total">    2.06    2.06</time>
   <energy>
    <i name="e_fr_energy">   -718.27605572 </i>
    <i name="e_wo_entrp">   -718.26849460 </i>
    <i name="e_0_energy">   -718.27227516 </i>
   </energy>
  </scstep>
  <scstep>
   <time name="dav">    1.53    1.53</time>
   <time name="total">    2.06    2.06</time>
   <energy>
    <i name="e_fr_energy">   -718.27639743 </i>
    <i name="e_wo_entrp">   -718.26883484 </i>
    <i name="e_0_energy">   -718.27261613 </i>
   </energy>
  </scstep>
  <scstep>
   <time name="dav">    1.53    1.53</time>
   <time name="total">    2.06    2.06</time>
   <energy>
    <i name="e_fr_energy">   -718.27592678 </i>
    <i name="e_wo_entrp">   -718.26840847 </i>
    <i name="e_0_energy">   -718.27216763 </i>
   </energy>
  </scstep>
  <scstep>
   <time name="dav">    1.53    1.53</time>
   <time name="total">    2.06    2.06</time>
   <energy>
    <i name="e_fr_energy">   -718.27622915 </i>
    <i name="e_wo_entrp">   -718.26869457 </i>
    <i name="e_0_energy">   -718.27246186 </i>
   </energy>
  </scstep>
  <scstep>
   <time name="dav">    1.52    1.52</time>
   <time name="total">    2.03    2.03</time>
   <energy>
    <i name="e_fr_energy">   -718.27554303 </i>
    <i name="e_wo_entrp">   -718.26802125 </i>
    <i name="e_0_energy">   -718.27178214 </i>
   </energy>
  </scstep>
  <scstep>
   <time name="dav">    1.51    1.51</time>
   <time name="total">    2.03    2.03</time>
   <energy>
    <i name="e_fr_energy">   -718.27593358 </i>
    <i name="e_wo_entrp">   -718.26842264 </i>
    <i name="e_0_energy">   -718.27217811 </i>
   </energy>
  </scstep>
  <scstep>
   <time name="dav">    1.51    1.51</time>
   <time name="total">    2.03    2.03</time>
   <energy>
    <i name="e_fr_energy">   -718.27552902 </i>
    <i name="e_wo_entrp">   -718.26804803 </i>
    <i name="e_0_energy">   -718.27178852 </i>
   </energy>
  </scstep>
  <scstep>
   <time name="dav">    1.51    1.51</time>
   <time name="total">    2.05    2.05</time>
   <energy>
    <i name="e_fr_energy">   -718.27581590 </i>
    <i name="e_wo_entrp">   -718.26830050 </i>
    <i name="e_0_energy">   -718.27205820 </i>
   </energy>
  </scstep>
  <scstep>
   <time name="dav">    1.51    1.51</time>
   <time name="total">    2.03    2.03</time>
   <energy>
    <i name="e_fr_energy">   -718.27541136 </i>
    <i name="e_wo_entrp">   -718.26792299 </i>
    <i name="e_0_energy">   -718.27166718 </i>
   </energy>
  </scstep>
  <scstep>
   <time name="dav">    1.50    1.50</time>
   <time name="total">    2.02    2.02</time>
   <energy>
    <i name="e_fr_energy">   -718.27559381 </i>
    <i name="e_wo_entrp">   -718.26802631 </i>
    <i name="e_0_energy">   -718.27181006 </i>
   </energy>
  </scstep>
  <scstep>
   <time name="dav">    1.50    1.50</time>
   <time name="total">    2.03    2.03</time>
   <energy>
    <i name="e_fr_energy">   -718.27515687 </i>
    <i name="e_wo_entrp">   -718.26761278 </i>
    <i name="e_0_energy">   -718.27138482 </i>
   </energy>
  </scstep>
  <scstep>
   <time name="dav">    1.50    1.50</time>
   <time name="total">    2.04    2.04</time>
   <energy>
    <i name="e_fr_energy">   -718.27543897 </i>
    <i name="e_wo_entrp">   -718.26785764 </i>
    <i name="e_0_energy">   -718.27164830 </i>
   </energy>
  </scstep>
  <scstep>
   <time name="dav">    1.50    1.50</time>
   <time name="total">    2.04    2.04</time>
   <energy>
    <i name="e_fr_energy">   -718.27500213 </i>
    <i name="e_wo_entrp">   -718.26743597 </i>
    <i name="e_0_energy">   -718.27121905 </i>
   </energy>
  </scstep>
  <scstep>
   <time name="dav">    1.50    1.50</time>
   <time name="total">    2.02    2.02</time>
   <energy>
    <i name="e_fr_energy">   -718.27529736 </i>
    <i name="e_wo_entrp">   -718.26770166 </i>
    <i name="e_0_energy">   -718.27149951 </i>
   </energy>
  </scstep>
  <scstep>
   <time name="dav">    1.50    1.50</time>
   <time name="total">    2.02    2.02</time>
   <energy>
    <i name="e_fr_energy">   -718.27485252 </i>
    <i name="e_wo_entrp">   -718.26730280 </i>
    <i name="e_0_energy">   -718.27107766 </i>
   </energy>
  </scstep>
  <scstep>
   <time name="dav">    1.50    1.50</time>
   <time name="total">    2.03    2.03</time>
   <energy>
    <i name="e_fr_energy">   -718.27505680 </i>
    <i name="e_wo_entrp">   -718.26742086 </i>
    <i name="e_0_energy">   -718.27123883 </i>
   </energy>
  </scstep>
  <scstep>
   <time name="dav">    1.50    1.50</time>
   <time name="total">    2.03    2.03</time>
   <energy>
    <i name="e_fr_energy">   -718.27465308 </i>
    <i name="e_wo_entrp">   -718.26705896 </i>
    <i name="e_0_energy">   -718.27085602 </i>
   </energy>
  </scstep>
  <scstep>
   <time name="dav">    1.50    1.50</time>
   <time name="total">    2.06    2.06</time>
   <energy>
    <i name="e_fr_energy">   -718.27490217 </i>
    <i name="e_wo_entrp">   -718.26723773 </i>
    <i name="e_0_energy">   -718.27106995 </i>
   </energy>
  </scstep>
  <scstep>
   <time name="dav">    1.50    1.50</time>
   <time name="total">    2.02    2.03</time>
   <energy>
    <i name="e_fr_energy">   -718.27452564 </i>
    <i name="e_wo_entrp">   -718.26690218 </i>
    <i name="e_0_energy">   -718.27071391 </i>
   </energy>
  </scstep>
  <scstep>
   <time name="dav">    1.50    1.50</time>
   <time name="total">    2.02    2.02</time>
   <energy>
    <i name="e_fr_energy">   -718.27485383 </i>
    <i name="e_wo_entrp">   -718.26718101 </i>
    <i name="e_0_energy">   -718.27101742 </i>
   </energy>
  </scstep>
  <scstep>
   <time name="dav">    1.50    1.50</time>
   <time name="total">    2.02    2.02</time>
   <energy>
    <i name="e_fr_energy">   -718.27436672 </i>
    <i name="e_wo_entrp">   -718.26675768 </i>
    <i name="e_0_energy">   -718.27056220 </i>
   </energy>
  </scstep>
  <scstep>
   <time name="dav">    1.50    1.50</time>
   <time name="total">    2.03    2.03</time>
   <energy>
    <i name="e_fr_energy">   -718.27451942 </i>
    <i name="e_wo_entrp">   -718.26678247 </i>
    <i name="e_0_energy">   -718.27065095 </i>
   </energy>
  </scstep>
  <scstep>
   <time name="dav">    1.50    1.50</time>
   <time name="total">    2.03    2.04</time>
   <energy>
    <i name="e_fr_energy">   -718.27408156 </i>
    <i name="e_wo_entrp">   -718.26641213 </i>
    <i name="e_0_energy">   -718.27024685 </i>
   </energy>
  </scstep>
  <scstep>
   <time name="dav">    1.49    1.49</time>
   <time name="total">    2.02    2.02</time>
   <energy>
    <i name="e_fr_energy">   -718.27424245 </i>
    <i name="e_wo_entrp">   -718.26646766 </i>
    <i name="e_0_energy">   -718.27035505 </i>
   </energy>
  </scstep>
  <scstep>
   <time name="dav">    1.50    1.50</time>
   <time name="total">    2.01    2.01</time>
   <energy>
    <i name="e_fr_energy">   -718.27391757 </i>
    <i name="e_wo_entrp">   -718.26616838 </i>
    <i name="e_0_energy">   -718.27004298 </i>
   </energy>
  </scstep>
  <scstep>
   <time name="dav">    1.50    1.50</time>
   <time name="total">    2.02    2.02</time>
   <energy>
    <i name="e_fr_energy">   -718.27423351 </i>
    <i name="e_wo_entrp">   -718.26649468 </i>
    <i name="e_0_energy">   -718.27036410 </i>
   </energy>
  </scstep>
  <scstep>
   <time name="dav">    1.50    1.50</time>
   <time name="total">    2.03    2.03</time>
   <energy>
    <i name="e_fr_energy">   -718.27395022 </i>
    <i name="e_wo_entrp">   -718.26615912 </i>
    <i name="e_0_energy">   -718.27005467 </i>
   </energy>
  </scstep>
  <scstep>
   <time name="dav">    1.50    1.50</time>
   <time name="total">    2.04    2.04</time>
   <energy>
    <i name="e_fr_energy">   -718.27437551 </i>
    <i name="e_wo_entrp">   -718.26668647 </i>
    <i name="e_0_energy">   -718.27053099 </i>
   </energy>
  </scstep>
  <scstep>
   <time name="dav">    1.50    1.50</time>
   <time name="total">    2.02    2.02</time>
   <energy>
    <i name="e_fr_energy">   -718.27407904 </i>
    <i name="e_wo_entrp">   -718.26632587 </i>
    <i name="e_0_energy">   -718.27020245 </i>
   </energy>
  </scstep>
  <scstep>
   <time name="dav">    1.50    1.50</time>
   <time name="total">    2.02    2.02</time>
   <energy>
    <i name="e_fr_energy">   -718.27447917 </i>
    <i name="e_wo_entrp">   -718.26678690 </i>
    <i name="e_0_energy">   -718.27063303 </i>
   </energy>
  </scstep>
  <scstep>
   <time name="dav">    1.49    1.49</time>
   <time name="total">    2.01    2.01</time>
   <energy>
    <i name="e_fr_energy">   -718.27416723 </i>
    <i name="e_wo_entrp">   -718.26646138 </i>
    <i name="e_0_energy">   -718.27031431 </i>
   </energy>
  </scstep>
  <scstep>
   <time name="dav">    1.49    1.49</time>
   <time name="total">    2.02    2.02</time>
   <energy>
    <i name="e_fr_energy">   -718.27453678 </i>
    <i name="e_wo_entrp">   -718.26684464 </i>
    <i name="e_0_energy">   -718.27069071 </i>
   </energy>
  </scstep>
  <scstep>
   <time name="dav">    1.49    1.49</time>
   <time name="total">    2.03    2.03</time>
   <energy>
    <i name="e_fr_energy">   -718.27422005 </i>
    <i name="e_wo_entrp">   -718.26654590 </i>
    <i name="e_0_energy">   -718.27038297 </i>
   </energy>
  </scstep>
  <scstep>
   <time name="dav">    1.49    1.49</time>
   <time name="total">    2.02    2.02</time>
   <energy>
    <i name="e_fr_energy">   -718.27456530 </i>
    <i name="e_wo_entrp">   -718.26687336 </i>
    <i name="e_0_energy">   -718.27071933 </i>
   </energy>
  </scstep>
  <scstep>
   <time name="dav">    1.49    1.49</time>
   <time name="total">    2.01    2.01</time>
   <energy>
    <i name="e_fr_energy">   -718.27423982 </i>
    <i name="e_wo_entrp">   -718.26658025 </i>
    <i name="e_0_energy">   -718.27041004 </i>
   </energy>
  </scstep>
  <scstep>
   <time name="dav">    1.50    1.50</time>
   <time name="total">    2.02    2.02</time>
   <energy>
    <i name="e_fr_energy">   -718.27457178 </i>
    <i name="e_wo_entrp">   -718.26687970 </i>
    <i name="e_0_energy">   -718.27072574 </i>
   </energy>
  </scstep>
  <scstep>
   <time name="dav">    1.50    1.50</time>
   <time name="total">    2.03    2.03</time>
   <energy>
    <i name="e_fr_energy">   -718.27424677 </i>
    <i name="e_wo_entrp">   -718.26659474 </i>
    <i name="e_0_energy">   -718.27042075 </i>
   </energy>
  </scstep>
  <scstep>
   <time name="dav">    1.50    1.50</time>
   <time name="total">    2.04    2.04</time>
   <energy>
    <i name="e_fr_energy">   -718.27457374 </i>
    <i name="e_wo_entrp">   -718.26688411 </i>
    <i name="e_0_energy">   -718.27072893 </i>
   </energy>
  </scstep>
  <scstep>
   <time name="dav">    1.50    1.50</time>
   <time name="total">    2.02    2.02</time>
   <energy>
    <i name="e_fr_energy">   -718.27425003 </i>
    <i name="e_wo_entrp">   -718.26660021 </i>
    <i name="e_0_energy">   -718.27042512 </i>
   </energy>
  </scstep>
  <scstep>
   <time name="dav">    1.49    1.49</time>
   <time name="total">    2.01    2.01</time>
   <energy>
    <i name="e_fr_energy">   -718.27457913 </i>
    <i name="e_wo_entrp">   -718.26689524 </i>
    <i name="e_0_energy">   -718.27073718 </i>
   </energy>
  </scstep>
  <scstep>
   <time name="dav">    1.50    1.50</time>
   <time name="total">    2.02    2.03</time>
   <energy>
    <i name="e_fr_energy">   -718.27427026 </i>
    <i name="e_wo_entrp">   -718.26660100 </i>
    <i name="e_0_energy">   -718.27043563 </i>
   </energy>
  </scstep>
  <scstep>
   <time name="dav">    1.49    1.49</time>
   <time name="total">    2.03    2.03</time>
   <energy>
    <i name="e_fr_energy">   -718.27462920 </i>
    <i name="e_wo_entrp">   -718.26695710 </i>
    <i name="e_0_energy">   -718.27079315 </i>
   </energy>
  </scstep>
  <scstep>
   <time name="dav">    1.49    1.49</time>
   <time name="total">    2.03    2.03</time>
   <energy>
    <i name="e_fr_energy">   -718.27431380 </i>
    <i name="e_wo_entrp">   -718.26665002 </i>
    <i name="e_0_energy">   -718.27048191 </i>
   </energy>
  </scstep>
  <scstep>
   <time name="dav">    1.49    1.49</time>
   <time name="total">    2.02    2.02</time>
   <energy>
    <i name="e_fr_energy">   -718.27467835 </i>
    <i name="e_wo_entrp">   -718.26702019 </i>
    <i name="e_0_energy">   -718.27084927 </i>
   </energy>
  </scstep>
  <scstep>
   <time name="dav">    1.49    1.49</time>
   <time name="total">    2.02    2.02</time>
   <energy>
    <i name="e_fr_energy">   -718.27435768 </i>
    <i name="e_wo_entrp">   -718.26669527 </i>
    <i name="e_0_energy">   -718.27052647 </i>
   </energy>
  </scstep>
  <scstep>
   <time name="dav">    1.49    1.49</time>
   <time name="total">    2.02    2.02</time>
   <energy>
    <i name="e_fr_energy">   -718.27473616 </i>
    <i name="e_wo_entrp">   -718.26710021 </i>
    <i name="e_0_energy">   -718.27091819 </i>
   </energy>
  </scstep>
  <scstep>
   <time name="dav">    1.49    1.49</time>
   <time name="total">    2.03    2.03</time>
   <energy>
    <i name="e_fr_energy">   -718.27440502 </i>
    <i name="e_wo_entrp">   -718.26675533 </i>
    <i name="e_0_energy">   -718.27058017 </i>
   </energy>
  </scstep>
  <scstep>
   <time name="dav">    1.49    1.49</time>
   <time name="total">    2.03    2.04</time>
   <energy>
    <i name="e_fr_energy">   -718.27477930 </i>
    <i name="e_wo_entrp">   -718.26715574 </i>
    <i name="e_0_energy">   -718.27096752 </i>
   </energy>
  </scstep>
  <scstep>
   <time name="dav">    1.50    1.50</time>
   <time name="total">    2.03    2.03</time>
   <energy>
    <i name="e_fr_energy">   -718.27444047 </i>
    <i name="e_wo_entrp">   -718.26680157 </i>
    <i name="e_0_energy">   -718.27062102 </i>
   </energy>
  </scstep>
  <scstep>
   <time name="dav">    1.49    1.49</time>
   <time name="total">    2.01    2.01</time>
   <energy>
    <i name="e_fr_energy">   -718.27480749 </i>
    <i name="e_wo_entrp">   -718.26719153 </i>
    <i name="e_0_energy">   -718.27099951 </i>
   </energy>
  </scstep>
  <scstep>
   <time name="dav">    1.50    1.50</time>
   <time name="total">    2.02    2.02</time>
   <energy>
    <i name="e_fr_energy">   -718.27446065 </i>
    <i name="e_wo_entrp">   -718.26682866 </i>
    <i name="e_0_energy">   -718.27064466 </i>
   </energy>
  </scstep>
  <scstep>
   <time name="dav">    1.49    1.49</time>
   <time name="total">    2.03    2.03</time>
   <energy>
    <i name="e_fr_energy">   -718.27482353 </i>
    <i name="e_wo_entrp">   -718.26721100 </i>
    <i name="e_0_energy">   -718.27101726 </i>
   </energy>
  </scstep>
  <scstep>
   <time name="dav">    1.49    1.49</time>
   <time name="total">    2.04    2.04</time>
   <energy>
    <i name="e_fr_energy">   -718.27447348 </i>
    <i name="e_wo_entrp">   -718.26684640 </i>
    <i name="e_0_energy">   -718.27065994 </i>
   </energy>
  </scstep>
  <scstep>
   <time name="dav">    1.49    1.49</time>
   <time name="total">    2.02    2.02</time>
   <energy>
    <i name="e_fr_energy">   -718.27483347 </i>
    <i name="e_wo_entrp">   -718.26722243 </i>
    <i name="e_0_energy">   -718.27102795 </i>
   </energy>
  </scstep>
  <scstep>
   <time name="dav">    1.49    1.49</time>
   <time name="total">    2.01    2.01</time>
   <energy>
    <i name="e_fr_energy">   -718.27448121 </i>
    <i name="e_wo_entrp">   -718.26685832 </i>
    <i name="e_0_energy">   -718.27066977 </i>
   </energy>
  </scstep>
  <scstep>
   <time name="dav">    1.50    1.50</time>
   <time name="total">    2.02    2.02</time>
   <energy>
    <i name="e_fr_energy">   -718.27483823 </i>
    <i name="e_wo_entrp">   -718.26722638 </i>
    <i name="e_0_energy">   -718.27103231 </i>
   </energy>
  </scstep>
  <scstep>
   <time name="dav">    1.49    1.49</time>
   <time name="total">    2.02    2.02</time>
   <energy>
    <i name="e_fr_energy">   -718.27448487 </i>
    <i name="e_wo_entrp">   -718.26686430 </i>
    <i name="e_0_energy">   -718.27067458 </i>
   </energy>
  </scstep>
  <scstep>
   <time name="dav">    1.50    1.50</time>
   <time name="total">    2.04    2.04</time>
   <energy>
    <i name="e_fr_energy">   -718.27484028 </i>
    <i name="e_wo_entrp">   -718.26722753 </i>
    <i name="e_0_energy">   -718.27103391 </i>
   </energy>
  </scstep>
  <scstep>
   <time name="dav">    1.50    1.50</time>
   <time name="total">    2.02    2.02</time>
   <energy>
    <i name="e_fr_energy">   -718.27448619 </i>
    <i name="e_wo_entrp">   -718.26686692 </i>
    <i name="e_0_energy">   -718.27067656 </i>
   </energy>
  </scstep>
  <scstep>
   <time name="dav">    1.50    1.50</time>
   <time name="total">    2.02    2.02</time>
   <energy>
    <i name="e_fr_energy">   -718.27484108 </i>
    <i name="e_wo_entrp">   -718.26722586 </i>
    <i name="e_0_energy">   -718.27103347 </i>
   </energy>
  </scstep>
  <scstep>
   <time name="dav">    1.50    1.50</time>
   <time name="total">    2.02    2.02</time>
   <energy>
    <i name="e_fr_energy">   -718.27448678 </i>
    <i name="e_wo_entrp">   -718.26687103 </i>
    <i name="e_0_energy">   -718.27067891 </i>
   </energy>
  </scstep>
  <scstep>
   <time name="dav">    1.50    1.50</time>
   <time name="total">    2.03    2.03</time>
   <energy>
    <i name="e_fr_energy">   -718.27483795 </i>
    <i name="e_wo_entrp">   -718.26721936 </i>
    <i name="e_0_energy">   -718.27102865 </i>
   </energy>
  </scstep>
  <scstep>
   <time name="dav">    1.50    1.50</time>
   <time name="total">    2.04    2.04</time>
   <energy>
    <i name="e_fr_energy">   -718.27448410 </i>
    <i name="e_wo_entrp">   -718.26686905 </i>
    <i name="e_0_energy">   -718.27067657 </i>
   </energy>
  </scstep>
  <scstep>
   <time name="dav">    1.50    1.50</time>
   <time name="total">    2.02    2.02</time>
   <energy>
    <i name="e_fr_energy">   -718.27483437 </i>
    <i name="e_wo_entrp">   -718.26721339 </i>
    <i name="e_0_energy">   -718.27102388 </i>
   </energy>
  </scstep>
  <scstep>
   <time name="dav">    1.50    1.50</time>
   <time name="total">    2.02    2.02</time>
   <energy>
    <i name="e_fr_energy">   -718.27448752 </i>
    <i name="e_wo_entrp">   -718.26688233 </i>
    <i name="e_0_energy">   -718.27068493 </i>
   </energy>
  </scstep>
  <scstep>
   <time name="dav">    1.49    1.49</time>
   <time name="total">    2.02    2.02</time>
   <energy>
    <i name="e_fr_energy">   -718.27484263 </i>
    <i name="e_wo_entrp">   -718.26721005 </i>
    <i name="e_0_energy">   -718.27102634 </i>
   </energy>
  </scstep>
  <scstep>
   <time name="dav">    1.50    1.50</time>
   <time name="total">    2.03    2.03</time>
   <energy>
    <i name="e_fr_energy">   -718.27450032 </i>
    <i name="e_wo_entrp">   -718.26691006 </i>
    <i name="e_0_energy">   -718.27070519 </i>
   </energy>
  </scstep>
  <scstep>
   <time name="dav">    1.49    1.49</time>
   <time name="total">    2.04    2.04</time>
   <energy>
    <i name="e_fr_energy">   -718.27484849 </i>
    <i name="e_wo_entrp">   -718.26720813 </i>
    <i name="e_0_energy">   -718.27102831 </i>
   </energy>
  </scstep>
  <scstep>
   <time name="dav">    1.49    1.49</time>
   <time name="total">    2.02    2.02</time>
   <energy>
    <i name="e_fr_energy">   -718.27450936 </i>
    <i name="e_wo_entrp">   -718.26692737 </i>
    <i name="e_0_energy">   -718.27071837 </i>
   </energy>
  </scstep>
  <scstep>
   <time name="dav">    1.49    1.49</time>
   <time name="total">    2.01    2.01</time>
   <energy>
    <i name="e_fr_energy">   -718.27485934 </i>
    <i name="e_wo_entrp">   -718.26720387 </i>
    <i name="e_0_energy">   -718.27103160 </i>
   </energy>
  </scstep>
  <scstep>
   <time name="dav">    1.49    1.49</time>
   <time name="total">    2.02    2.02</time>
   <energy>
    <i name="e_fr_energy">   -718.27453122 </i>
    <i name="e_wo_entrp">   -718.26699158 </i>
    <i name="e_0_energy">   -718.27076140 </i>
   </energy>
  </scstep>
  <scstep>
   <time name="dav">    1.49    1.49</time>
   <time name="total">    2.02    2.02</time>
   <energy>
    <i name="e_fr_energy">   -718.27486289 </i>
    <i name="e_wo_entrp">   -718.26716827 </i>
    <i name="e_0_energy">   -718.27101558 </i>
   </energy>
  </scstep>
  <scstep>
   <time name="dav">    1.49    1.49</time>
   <time name="total">    2.03    2.03</time>
   <energy>
    <i name="e_fr_energy">   -718.27455845 </i>
    <i name="e_wo_entrp">   -718.26704232 </i>
    <i name="e_0_energy">   -718.27080039 </i>
   </energy>
  </scstep>
  <scstep>
   <time name="dav">    1.49    1.49</time>
   <time name="total">    2.01    2.01</time>
   <energy>
    <i name="e_fr_energy">   -718.27488199 </i>
    <i name="e_wo_entrp">   -718.26721689 </i>
    <i name="e_0_energy">   -718.27104944 </i>
   </energy>
  </scstep>
  <scstep>
   <time name="dav">    1.50    1.50</time>
   <time name="total">    2.01    2.01</time>
   <energy>
    <i name="e_fr_energy">   -718.27456033 </i>
    <i name="e_wo_entrp">   -718.26700458 </i>
    <i name="e_0_energy">   -718.27078245 </i>
   </energy>
  </scstep>
  <scstep>
   <time name="dav">    1.49    1.49</time>
   <time name="total">    2.02    2.02</time>
   <energy>
    <i name="e_fr_energy">   -718.27490482 </i>
    <i name="e_wo_entrp">   -718.26728209 </i>
    <i name="e_0_energy">   -718.27109345 </i>
   </energy>
  </scstep>
  <scstep>
   <time name="dav">    1.49    1.49</time>
   <time name="total">    2.03    2.03</time>
   <energy>
    <i name="e_fr_energy">   -718.27455732 </i>
    <i name="e_wo_entrp">   -718.26696800 </i>
    <i name="e_0_energy">   -718.27076266 </i>
   </energy>
  </scstep>
  <scstep>
   <time name="dav">    1.49    1.49</time>
   <time name="total">    2.03    2.03</time>
   <energy>
    <i name="e_fr_energy">   -718.27491685 </i>
    <i name="e_wo_entrp">   -718.26732424 </i>
    <i name="e_0_energy">   -718.27112054 </i>
   </energy>
  </scstep>
  <scstep>
   <time name="dav">    1.49    1.50</time>
   <time name="total">    2.02    2.03</time>
   <energy>
    <i name="e_fr_energy">   -718.27455049 </i>
    <i name="e_wo_entrp">   -718.26693625 </i>
    <i name="e_0_energy">   -718.27074337 </i>
   </energy>
  </scstep>
  <scstep>
   <time name="dav">    1.49    1.49</time>
   <time name="total">    2.01    2.01</time>
   <energy>
    <i name="e_fr_energy">   -718.27492306 </i>
    <i name="e_wo_entrp">   -718.26734924 </i>
    <i name="e_0_energy">   -718.27113615 </i>
   </energy>
  </scstep>
  <scstep>
   <time name="dav">    1.49    1.49</time>
   <time name="total">    2.02    2.02</time>
   <energy>
    <i name="e_fr_energy">   -718.27454717 </i>
    <i name="e_wo_entrp">   -718.26692181 </i>
    <i name="e_0_energy">   -718.27073449 </i>
   </energy>
  </scstep>
  <scstep>
   <time name="dav">    1.49    1.49</time>
   <time name="total">    2.02    2.02</time>
   <energy>
    <i name="e_fr_energy">   -718.27492585 </i>
    <i name="e_wo_entrp">   -718.26735366 </i>
    <i name="e_0_energy">   -718.27113975 </i>
   </energy>
  </scstep>
  <scstep>
   <time name="dav">    1.49    1.49</time>
   <time name="total">    2.03    2.03</time>
   <energy>
    <i name="e_fr_energy">   -718.27455046 </i>
    <i name="e_wo_entrp">   -718.26693117 </i>
    <i name="e_0_energy">   -718.27074082 </i>
   </energy>
  </scstep>
  <scstep>
   <time name="dav">    1.49    1.49</time>
   <time name="total">    2.01    2.01</time>
   <energy>
    <i name="e_fr_energy">   -718.27492700 </i>
    <i name="e_wo_entrp">   -718.26734706 </i>
    <i name="e_0_energy">   -718.27113703 </i>
   </energy>
  </scstep>
  <scstep>
   <time name="dav">    1.49    1.49</time>
   <time name="total">    2.01    2.01</time>
   <energy>
    <i name="e_fr_energy">   -718.27455724 </i>
    <i name="e_wo_entrp">   -718.26694710 </i>
    <i name="e_0_energy">   -718.27075217 </i>
   </energy>
  </scstep>
  <scstep>
   <time name="dav">    1.49    1.49</time>
   <time name="total">    2.01    2.01</time>
   <energy>
    <i name="e_fr_energy">   -718.27493051 </i>
    <i name="e_wo_entrp">   -718.26734507 </i>
    <i name="e_0_energy">   -718.27113779 </i>
   </energy>
  </scstep>
  <scstep>
   <time name="dav">    1.49    1.49</time>
   <time name="total">    2.02    2.02</time>
   <energy>
    <i name="e_fr_energy">   -718.27456409 </i>
    <i name="e_wo_entrp">   -718.26696145 </i>
    <i name="e_0_energy">   -718.27076277 </i>
   </energy>
  </scstep>
  <scstep>
   <time name="dav">    1.49    1.49</time>
   <time name="total">    2.03    2.03</time>
   <energy>
    <i name="e_fr_energy">   -718.27493469 </i>
    <i name="e_wo_entrp">   -718.26734614 </i>
    <i name="e_0_energy">   -718.27114041 </i>
   </energy>
  </scstep>
  <scstep>
   <time name="dav">    1.49    1.49</time>
   <time name="total">    2.01    2.01</time>
   <energy>
    <i name="e_fr_energy">   -718.27456987 </i>
    <i name="e_wo_entrp">   -718.26697204 </i>
    <i name="e_0_energy">   -718.27077095 </i>
   </energy>
  </scstep>
  <scstep>
   <time name="dav">    1.49    1.49</time>
   <time name="total">    2.01    2.01</time>
   <energy>
    <i name="e_fr_energy">   -718.27493895 </i>
    <i name="e_wo_entrp">   -718.26734973 </i>
    <i name="e_0_energy">   -718.27114434 </i>
   </energy>
  </scstep>
  <scstep>
   <time name="dav">    1.49    1.49</time>
   <time name="total">    2.01    2.01</time>
   <energy>
    <i name="e_fr_energy">   -718.27457422 </i>
    <i name="e_wo_entrp">   -718.26697782 </i>
    <i name="e_0_energy">   -718.27077602 </i>
   </energy>
  </scstep>
  <scstep>
   <time name="dav">    1.50    1.50</time>
   <time name="total">    2.03    2.03</time>
   <energy>
    <i name="e_fr_energy">   -718.27494327 </i>
    <i name="e_wo_entrp">   -718.26735402 </i>
    <i name="e_0_energy">   -718.27114865 </i>
   </energy>
  </scstep>
  <scstep>
   <time name="dav">    1.49    1.49</time>
   <time name="total">    2.04    2.04</time>
   <energy>
    <i name="e_fr_energy">   -718.27457844 </i>
    <i name="e_wo_entrp">   -718.26698433 </i>
    <i name="e_0_energy">   -718.27078139 </i>
   </energy>
  </scstep>
  <scstep>
   <time name="dav">    1.50    1.50</time>
   <time name="total">    2.02    2.02</time>
   <energy>
    <i name="e_fr_energy">   -718.27494711 </i>
    <i name="e_wo_entrp">   -718.26735774 </i>
    <i name="e_0_energy">   -718.27115242 </i>
   </energy>
  </scstep>
  <scstep>
   <time name="dav">    1.49    1.49</time>
   <time name="total">    2.02    2.02</time>
   <energy>
    <i name="e_fr_energy">   -718.27458214 </i>
    <i name="e_wo_entrp">   -718.26698837 </i>
    <i name="e_0_energy">   -718.27078525 </i>
   </energy>
  </scstep>
  <scstep>
   <time name="dav">    1.50    1.49</time>
   <time name="total">    2.02    2.02</time>
   <energy>
    <i name="e_fr_energy">   -718.27495126 </i>
    <i name="e_wo_entrp">   -718.26736329 </i>
    <i name="e_0_energy">   -718.27115727 </i>
   </energy>
  </scstep>
  <scstep>
   <time name="dav">    1.50    1.50</time>
   <time name="total">    2.02    2.02</time>
   <energy>
    <i name="e_fr_energy">   -718.27458547 </i>
    <i name="e_wo_entrp">   -718.26699301 </i>
    <i name="e_0_energy">   -718.27078924 </i>
   </energy>
  </scstep>
  <scstep>
   <time name="dav">    1.49    1.49</time>
   <time name="total">    2.04    2.04</time>
   <energy>
    <i name="e_fr_energy">   -718.27495451 </i>
    <i name="e_wo_entrp">   -718.26736664 </i>
    <i name="e_0_energy">   -718.27116058 </i>
   </energy>
  </scstep>
  <scstep>
   <time name="dav">    1.49    1.49</time>
   <time name="total">    2.02    2.02</time>
   <energy>
    <i name="e_fr_energy">   -718.27458850 </i>
    <i name="e_wo_entrp">   -718.26699762 </i>
    <i name="e_0_energy">   -718.27079306 </i>
   </energy>
  </scstep>
  <scstep>
   <time name="dav">    1.50    1.50</time>
   <time name="total">    2.01    2.01</time>
   <energy>
    <i name="e_fr_energy">   -718.27495770 </i>
    <i name="e_wo_entrp">   -718.26737060 </i>
    <i name="e_0_energy">   -718.27116415 </i>
   </energy>
  </scstep>
  <scstep>
   <time name="dav">    1.50    1.50</time>
   <time name="total">    2.02    2.02</time>
   <energy>
    <i name="e_fr_energy">   -718.27459146 </i>
    <i name="e_wo_entrp">   -718.26700027 </i>
    <i name="e_0_energy">   -718.27079586 </i>
   </energy>
  </scstep>
  <scstep>
   <time name="dav">    1.50    1.50</time>
   <time name="total">    2.02    2.02</time>
   <energy>
    <i name="e_fr_energy">   -718.27496124 </i>
    <i name="e_wo_entrp">   -718.26737509 </i>
    <i name="e_0_energy">   -718.27116817 </i>
   </energy>
  </scstep>
  <scstep>
   <time name="dav">    1.50    1.50</time>
   <time name="total">    2.04    2.04</time>
   <energy>
    <i name="e_fr_energy">   -718.27459435 </i>
    <i name="e_wo_entrp">   -718.26700427 </i>
    <i name="e_0_energy">   -718.27079931 </i>
   </energy>
  </scstep>
  <scstep>
   <time name="dav">    1.49    1.49</time>
   <time name="total">    2.01    2.01</time>
   <energy>
    <i name="e_fr_energy">   -718.27496408 </i>
    <i name="e_wo_entrp">   -718.26737818 </i>
    <i name="e_0_energy">   -718.27117113 </i>
   </energy>
  </scstep>
  <scstep>
   <time name="dav">    1.49    1.49</time>
   <time name="total">    2.01    2.01</time>
   <energy>
    <i name="e_fr_energy">   -718.27459748 </i>
    <i name="e_wo_entrp">   -718.26700740 </i>
    <i name="e_0_energy">   -718.27080244 </i>
   </energy>
  </scstep>
  <scstep>
   <time name="dav">    1.49    1.49</time>
   <time name="total">    2.01    2.01</time>
   <energy>
    <i name="e_fr_energy">   -718.27496818 </i>
    <i name="e_wo_entrp">   -718.26738420 </i>
    <i name="e_0_energy">   -718.27117619 </i>
   </energy>
  </scstep>
  <scstep>
   <time name="dav">    1.49    1.49</time>
   <time name="total">    2.02    2.02</time>
   <energy>
    <i name="e_fr_energy">   -718.27460056 </i>
    <i name="e_wo_entrp">   -718.26701116 </i>
    <i name="e_0_energy">   -718.27080586 </i>
   </energy>
  </scstep>
  <scstep>
   <time name="dav">    1.49    1.49</time>
   <time name="total">    2.04    2.04</time>
   <energy>
    <i name="e_fr_energy">   -718.27497137 </i>
    <i name="e_wo_entrp">   -718.26738798 </i>
    <i name="e_0_energy">   -718.27117968 </i>
   </energy>
  </scstep>
  <scstep>
   <time name="dav">    1.48    1.50</time>
   <time name="total">    2.00    2.02</time>
   <energy>
    <i name="e_fr_energy">   -718.27460338 </i>
    <i name="e_wo_entrp">   -718.26701499 </i>
    <i name="e_0_energy">   -718.27080919 </i>
   </energy>
  </scstep>
  <scstep>
   <time name="dav">    1.50    1.50</time>
   <time name="total">    2.01    2.01</time>
   <energy>
    <i name="e_fr_energy">   -718.27497461 </i>
    <i name="e_wo_entrp">   -718.26739173 </i>
    <i name="e_0_energy">   -718.27118317 </i>
   </energy>
  </scstep>
  <scstep>
   <time name="dav">    1.49    1.49</time>
   <time name="total">    2.02    2.02</time>
   <energy>
    <i name="e_fr_energy">   -718.27460668 </i>
    <i name="e_wo_entrp">   -718.26701942 </i>
    <i name="e_0_energy">   -718.27081305 </i>
   </energy>
  </scstep>
  <scstep>
   <time name="dav">    1.50    1.50</time>
   <time name="total">    2.03    2.03</time>
   <energy>
    <i name="e_fr_energy">   -718.27497769 </i>
    <i name="e_wo_entrp">   -718.26739507 </i>
    <i name="e_0_energy">   -718.27118638 </i>
   </energy>
  </scstep>
  <scstep>
   <time name="dav">    1.50    1.50</time>
   <time name="total">    2.04    2.04</time>
   <energy>
    <i name="e_fr_energy">   -718.27460955 </i>
    <i name="e_wo_entrp">   -718.26702358 </i>
    <i name="e_0_energy">   -718.27081657 </i>
   </energy>
  </scstep>
  <scstep>
   <time name="dav">    1.50    1.50</time>
   <time name="total">    2.02    2.02</time>
   <energy>
    <i name="e_fr_energy">   -718.27498035 </i>
    <i name="e_wo_entrp">   -718.26739793 </i>
    <i name="e_0_energy">   -718.27118914 </i>
   </energy>
  </scstep>
  <scstep>
   <time name="dav">    1.50    1.50</time>
   <time name="total">    2.02    2.02</time>
   <energy>
    <i name="e_fr_energy">   -718.27461267 </i>
    <i name="e_wo_entrp">   -718.26703742 </i>
    <i name="e_0_energy">   -718.27082505 </i>
   </energy>
  </scstep>
  <scstep>
   <time name="dav">    1.50    1.49</time>
   <time name="total">    2.02    2.02</time>
   <energy>
    <i name="e_fr_energy">   -718.27497965 </i>
    <i name="e_wo_entrp">   -718.26737668 </i>
    <i name="e_0_energy">   -718.27117816 </i>
   </energy>
  </scstep>
  <scstep>
   <time name="dav">    1.50    1.50</time>
   <time name="total">    2.03    2.03</time>
   <energy>
    <i name="e_fr_energy">   -718.27462492 </i>
    <i name="e_wo_entrp">   -718.26707883 </i>
    <i name="e_0_energy">   -718.27085187 </i>
   </energy>
  </scstep>
  <scstep>
   <time name="dav">    1.49    1.49</time>
   <time name="total">    2.03    2.03</time>
   <energy>
    <i name="e_fr_energy">   -718.27497967 </i>
    <i name="e_wo_entrp">   -718.26735028 </i>
    <i name="e_0_energy">   -718.27116497 </i>
   </energy>
  </scstep>
  <scstep>
   <time name="dav">    1.49    1.49</time>
   <time name="total">    2.01    2.01</time>
   <energy>
    <i name="e_fr_energy">   -718.27464027 </i>
    <i name="e_wo_entrp">   -718.26711645 </i>
    <i name="e_0_energy">   -718.27087836 </i>
   </energy>
  </scstep>
  <scstep>
   <time name="dav">    1.49    1.49</time>
   <time name="total">    2.01    2.01</time>
   <energy>
    <i name="e_fr_energy">   -718.27498739 </i>
    <i name="e_wo_entrp">   -718.26734988 </i>
    <i name="e_0_energy">   -718.27116864 </i>
   </energy>
  </scstep>
  <scstep>
   <time name="dav">    1.49    1.49</time>
   <time name="total">    2.02    2.02</time>
   <energy>
    <i name="e_fr_energy">   -718.27465312 </i>
    <i name="e_wo_entrp">   -718.26713212 </i>
    <i name="e_0_energy">   -718.27089262 </i>
   </energy>
  </scstep>
  <scstep>
   <time name="dav">    1.50    1.50</time>
   <time name="total">    2.03    2.03</time>
   <energy>
    <i name="e_fr_energy">   -718.27499890 </i>
    <i name="e_wo_entrp">   -718.26738176 </i>
    <i name="e_0_energy">   -718.27119033 </i>
   </energy>
  </scstep>
  <scstep>
   <time name="dav">    1.49    1.49</time>
   <time name="total">    2.03    2.03</time>
   <energy>
    <i name="e_fr_energy">   -718.27465146 </i>
    <i name="e_wo_entrp">   -718.26710598 </i>
    <i name="e_0_energy">   -718.27087872 </i>
   </energy>
  </scstep>
  <scstep>
   <time name="dav">    1.50    1.50</time>
   <time name="total">    2.02    2.02</time>
   <energy>
    <i name="e_fr_energy">   -718.27500836 </i>
    <i name="e_wo_entrp">   -718.26741542 </i>
    <i name="e_0_energy">   -718.27121189 </i>
   </energy>
  </scstep>
  <scstep>
   <time name="dav">    1.50    1.50</time>
   <time name="total">    2.02    2.02</time>
   <energy>
    <i name="e_fr_energy">   -718.27464635 </i>
    <i name="e_wo_entrp">   -718.26708110 </i>
    <i name="e_0_energy">   -718.27086372 </i>
   </energy>
  </scstep>
  <scstep>
   <time name="dav">    1.50    1.49</time>
   <time name="total">    2.02    2.02</time>
   <energy>
    <i name="e_fr_energy">   -718.27501160 </i>
    <i name="e_wo_entrp">   -718.26743274 </i>
    <i name="e_0_energy">   -718.27122217 </i>
   </energy>
  </scstep>
  <scstep>
   <time name="dav">    1.49    1.49</time>
   <time name="total">    2.03    2.03</time>
   <energy>
    <i name="e_fr_energy">   -718.27464130 </i>
    <i name="e_wo_entrp">   -718.26706280 </i>
    <i name="e_0_energy">   -718.27085205 </i>
   </energy>
  </scstep>
  <scstep>
   <time name="dav">    1.49    1.49</time>
   <time name="total">    2.03    2.03</time>
   <energy>
    <i name="e_fr_energy">   -718.27501196 </i>
    <i name="e_wo_entrp">   -718.26744278 </i>
    <i name="e_0_energy">   -718.27122737 </i>
   </energy>
  </scstep>
  <scstep>
   <time name="dav">    1.49    1.49</time>
   <time name="total">    2.01    2.01</time>
   <energy>
    <i name="e_fr_energy">   -718.27463584 </i>
    <i name="e_wo_entrp">   -718.26704750 </i>
    <i name="e_0_energy">   -718.27084167 </i>
   </energy>
  </scstep>
  <scstep>
   <time name="dav">    1.50    1.50</time>
   <time name="total">    2.01    2.01</time>
   <energy>
    <i name="e_fr_energy">   -718.27501059 </i>
    <i name="e_wo_entrp">   -718.26745059 </i>
    <i name="e_0_energy">   -718.27123059 </i>
   </energy>
  </scstep>
  <scstep>
   <time name="dav">    1.50    1.50</time>
   <time name="total">    2.02    2.02</time>
   <energy>
    <i name="e_fr_energy">   -718.27462890 </i>
    <i name="e_wo_entrp">   -718.26702614 </i>
    <i name="e_0_energy">   -718.27082752 </i>
   </energy>
  </scstep>
  <scstep>
   <time name="dav">    1.50    1.50</time>
   <time name="total">    2.03    2.03</time>
   <energy>
    <i name="e_fr_energy">   -718.27501006 </i>
    <i name="e_wo_entrp">   -718.26745956 </i>
    <i name="e_0_energy">   -718.27123481 </i>
   </energy>
  </scstep>
  <scstep>
   <time name="dav">    1.49    1.49</time>
   <time name="total">    2.03    2.03</time>
   <energy>
    <i name="e_fr_energy">   -718.27462280 </i>
    <i name="e_wo_entrp">   -718.26701185 </i>
    <i name="e_0_energy">   -718.27081732 </i>
   </energy>
  </scstep>
  <scstep>
   <time name="dav">    1.50    1.50</time>
   <time name="total">    2.02    2.02</time>
   <energy>
    <i name="e_fr_energy">   -718.27500757 </i>
    <i name="e_wo_entrp">   -718.26745886 </i>
    <i name="e_0_energy">   -718.27123322 </i>
   </energy>
  </scstep>
  <scstep>
   <time name="dav">    1.50    1.50</time>
   <time name="total">    2.02    2.02</time>
   <energy>
    <i name="e_fr_energy">   -718.27461976 </i>
    <i name="e_wo_entrp">   -718.26700676 </i>
    <i name="e_0_energy">   -718.27081326 </i>
   </energy>
  </scstep>
  <scstep>
   <time name="dav">    1.50    1.50</time>
   <time name="total">    2.02    2.02</time>
   <energy>
    <i name="e_fr_energy">   -718.27500574 </i>
    <i name="e_wo_entrp">   -718.26745591 </i>
    <i name="e_0_energy">   -718.27123083 </i>
   </energy>
  </scstep>
  <scstep>
   <time name="dav">    1.50    1.50</time>
   <time name="total">    2.04    2.04</time>
   <energy>
    <i name="e_fr_energy">   -718.27461900 </i>
    <i name="e_wo_entrp">   -718.26700998 </i>
    <i name="e_0_energy">   -718.27081449 </i>
   </energy>
  </scstep>
  <scstep>
   <time name="dav">    1.49    1.50</time>
   <time name="total">    2.02    2.04</time>
   <energy>
    <i name="e_fr_energy">   -718.27500326 </i>
    <i name="e_wo_entrp">   -718.26744703 </i>
    <i name="e_0_energy">   -718.27122515 </i>
   </energy>
  </scstep>
  <scstep>
   <time name="dav">    1.50    1.50</time>
   <time name="total">    2.02    2.02</time>
   <energy>
    <i name="e_fr_energy">   -718.27462048 </i>
    <i name="e_wo_entrp">   -718.26701852 </i>
    <i name="e_0_energy">   -718.27081950 </i>
   </energy>
  </scstep>
  <scstep>
   <time name="dav">    1.50    1.50</time>
   <time name="total">    2.02    2.02</time>
   <energy>
    <i name="e_fr_energy">   -718.27500196 </i>
    <i name="e_wo_entrp">   -718.26743993 </i>
    <i name="e_0_energy">   -718.27122094 </i>
   </energy>
  </scstep>
  <scstep>
   <time name="dav">    1.50    1.50</time>
   <time name="total">    2.02    2.02</time>
   <energy>
    <i name="e_fr_energy">   -718.27462270 </i>
    <i name="e_wo_entrp">   -718.26702556 </i>
    <i name="e_0_energy">   -718.27082413 </i>
   </energy>
  </scstep>
  <scstep>
   <time name="dav">    1.50    1.50</time>
   <time name="total">    2.02    2.02</time>
   <energy>
    <i name="e_fr_energy">   -718.27500239 </i>
    <i name="e_wo_entrp">   -718.26743655 </i>
    <i name="e_0_energy">   -718.27121947 </i>
   </energy>
  </scstep>
  <scstep>
   <time name="dav">    1.49    1.49</time>
   <time name="total">    2.03    2.03</time>
   <energy>
    <i name="e_fr_energy">   -718.27462527 </i>
    <i name="e_wo_entrp">   -718.26703242 </i>
    <i name="e_0_energy">   -718.27082885 </i>
   </energy>
  </scstep>
  <scstep>
   <time name="dav">    1.50    1.50</time>
   <time name="total">    2.02    2.02</time>
   <energy>
    <i name="e_fr_energy">   -718.27500332 </i>
    <i name="e_wo_entrp">   -718.26743477 </i>
    <i name="e_0_energy">   -718.27121904 </i>
   </energy>
  </scstep>
  <scstep>
   <time name="dav">    1.49    1.49</time>
   <time name="total">    2.01    2.01</time>
   <energy>
    <i name="e_fr_energy">   -718.27462778 </i>
    <i name="e_wo_entrp">   -718.26703742 </i>
    <i name="e_0_energy">   -718.27083260 </i>
   </energy>
  </scstep>
  <scstep>
   <time name="dav">    1.50    1.50</time>
   <time name="total">    2.02    2.02</time>
   <energy>
    <i name="e_fr_energy">   -718.27500506 </i>
    <i name="e_wo_entrp">   -718.26743599 </i>
    <i name="e_0_energy">   -718.27122052 </i>
   </energy>
  </scstep>
  <scstep>
   <time name="dav">    1.50    1.50</time>
   <time name="total">    2.03    2.03</time>
   <energy>
    <i name="e_fr_energy">   -718.27462975 </i>
    <i name="e_wo_entrp">   -718.26704107 </i>
    <i name="e_0_energy">   -718.27083541 </i>
   </energy>
  </scstep>
  <scstep>
   <time name="dav">    1.50    1.50</time>
   <time name="total">    2.04    2.04</time>
   <energy>
    <i name="e_fr_energy">   -718.27500642 </i>
    <i name="e_wo_entrp">   -718.26743679 </i>
    <i name="e_0_energy">   -718.27122160 </i>
   </energy>
  </scstep>
  <scstep>
   <time name="dav">    1.50    1.50</time>
   <time name="total">    2.02    2.02</time>
   <energy>
    <i name="e_fr_energy">   -718.27463137 </i>
    <i name="e_wo_entrp">   -718.26704413 </i>
    <i name="e_0_energy">   -718.27083775 </i>
   </energy>
  </scstep>
  <scstep>
   <time name="dav">    1.50    1.50</time>
   <time name="total">    2.01    2.01</time>
   <energy>
    <i name="e_fr_energy">   -718.27500760 </i>
    <i name="e_wo_entrp">   -718.26743789 </i>
    <i name="e_0_energy">   -718.27122275 </i>
   </energy>
  </scstep>
  <scstep>
   <time name="dav">    1.50    1.50</time>
   <time name="total">    2.02    2.02</time>
   <energy>
    <i name="e_fr_energy">   -718.27463265 </i>
    <i name="e_wo_entrp">   -718.26704571 </i>
    <i name="e_0_energy">   -718.27083918 </i>
   </energy>
  </scstep>
  <scstep>
   <time name="dav">    1.50    1.50</time>
   <time name="total">    2.03    2.03</time>
   <energy>
    <i name="e_fr_energy">   -718.27500890 </i>
    <i name="e_wo_entrp">   -718.26743930 </i>
    <i name="e_0_energy">   -718.27122410 </i>
   </energy>
  </scstep>
  <scstep>
   <time name="dav">    1.50    1.50</time>
   <time name="total">    2.03    2.03</time>
   <energy>
    <i name="e_fr_energy">   -718.27463389 </i>
    <i name="e_wo_entrp">   -718.26704765 </i>
    <i name="e_0_energy">   -718.27084077 </i>
   </energy>
  </scstep>
  <scstep>
   <time name="dav">    1.49    1.49</time>
   <time name="total">    2.01    2.01</time>
   <energy>
    <i name="e_fr_energy">   -718.27500997 </i>
    <i name="e_wo_entrp">   -718.26744023 </i>
    <i name="e_0_energy">   -718.27122510 </i>
   </energy>
  </scstep>
  <scstep>
   <time name="dav">    1.50    1.50</time>
   <time name="total">    2.01    2.01</time>
   <energy>
    <i name="e_fr_energy">   -718.27463511 </i>
    <i name="e_wo_entrp">   -718.26704926 </i>
    <i name="e_0_energy">   -718.27084219 </i>
   </energy>
  </scstep>
  <scstep>
   <time name="dav">    1.50    1.50</time>
   <time name="total">    2.02    2.02</time>
   <energy>
    <i name="e_fr_energy">   -718.27501123 </i>
    <i name="e_wo_entrp">   -718.26744188 </i>
    <i name="e_0_energy">   -718.27122656 </i>
   </energy>
  </scstep>
  <scstep>
   <time name="dav">    1.50    1.50</time>
   <time name="total">    2.03    2.03</time>
   <energy>
    <i name="e_fr_energy">   -718.27463617 </i>
    <i name="e_wo_entrp">   -718.26705083 </i>
    <i name="e_0_energy">   -718.27084350 </i>
   </energy>
  </scstep>
  <scstep>
   <time name="dav">    1.50    1.50</time>
   <time name="total">    2.03    2.04</time>
   <energy>
    <i name="e_fr_energy">   -718.27501215 </i>
    <i name="e_wo_entrp">   -718.26744274 </i>
    <i name="e_0_energy">   -718.27122744 </i>
   </energy>
  </scstep>
  <scstep>
   <time name="dav">    1.50    1.50</time>
   <time name="total">    2.02    2.02</time>
   <energy>
    <i name="e_fr_energy">   -718.27463712 </i>
    <i name="e_wo_entrp">   -718.26705240 </i>
    <i name="e_0_energy">   -718.27084476 </i>
   </energy>
  </scstep>
  <scstep>
   <time name="dav">    1.49    1.49</time>
   <time name="total">    2.01    2.01</time>
   <energy>
    <i name="e_fr_energy">   -718.27501308 </i>
    <i name="e_wo_entrp">   -718.26744201 </i>
    <i name="e_0_energy">   -718.27122754 </i>
   </energy>
  </scstep>
  <scstep>
   <time name="dav">    1.50    1.50</time>
   <time name="total">    2.02    2.02</time>
   <energy>
    <i name="e_fr_energy">   -718.27463929 </i>
    <i name="e_wo_entrp">   -718.26705970 </i>
    <i name="e_0_energy">   -718.27084950 </i>
   </energy>
  </scstep>
  <scstep>
   <time name="dav">    1.50    1.49</time>
   <time name="total">    2.02    2.02</time>
   <energy>
    <i name="e_fr_energy">   -718.27501298 </i>
    <i name="e_wo_entrp">   -718.26743755 </i>
    <i name="e_0_energy">   -718.27122526 </i>
   </energy>
  </scstep>
  <scstep>
   <time name="dav">    1.50    1.50</time>
   <time name="total">    2.03    2.04</time>
   <energy>
    <i name="e_fr_energy">   -718.27464179 </i>
    <i name="e_wo_entrp">   -718.26706680 </i>
    <i name="e_0_energy">   -718.27085429 </i>
   </energy>
  </scstep>
  <scstep>
   <time name="dav">    1.50    1.50</time>
   <time name="total">    2.02    2.02</time>
   <energy>
    <i name="e_fr_energy">   -718.27501357 </i>
    <i name="e_wo_entrp">   -718.26743498 </i>
    <i name="e_0_energy">   -718.27122427 </i>
   </energy>
  </scstep>
  <scstep>
   <time name="dav">    1.50    1.50</time>
   <time name="total">    2.02    2.02</time>
   <energy>
    <i name="e_fr_energy">   -718.27464510 </i>
    <i name="e_wo_entrp">   -718.26709645 </i>
    <i name="e_0_energy">   -718.27087077 </i>
   </energy>
  </scstep>
  <scstep>
   <time name="dav">    1.49    1.49</time>
   <time name="total">    2.02    2.02</time>
   <energy>
    <i name="e_fr_energy">   -718.27500738 </i>
    <i name="e_wo_entrp">   -718.26736375 </i>
    <i name="e_0_energy">   -718.27118557 </i>
   </energy>
  </scstep>
  <scstep>
   <time name="dav">    1.50    1.50</time>
   <time name="total">    2.03    2.03</time>
   <energy>
    <i name="e_fr_energy">   -718.27468029 </i>
    <i name="e_wo_entrp">   -718.26721728 </i>
    <i name="e_0_energy">   -718.27094878 </i>
   </energy>
  </scstep>
  <scstep>
   <time name="dav">    1.49    1.50</time>
   <time name="total">    2.03    2.04</time>
   <energy>
    <i name="e_fr_energy">   -718.27500027 </i>
    <i name="e_wo_entrp">   -718.26733385 </i>
    <i name="e_0_energy">   -718.27116706 </i>
   </energy>
  </scstep>
  <scstep>
   <time name="dav">    1.49    1.49</time>
   <time name="total">    2.02    2.02</time>
   <energy>
    <i name="e_fr_energy">   -718.27468058 </i>
    <i name="e_wo_entrp">   -718.26716789 </i>
    <i name="e_0_energy">   -718.27092423 </i>
   </energy>
  </scstep>
  <scstep>
   <time name="dav">    1.49    1.49</time>
   <time name="total">    2.00    2.00</time>
   <energy>
    <i name="e_fr_energy">   -718.27502656 </i>
    <i name="e_wo_entrp">   -718.26742921 </i>
    <i name="e_0_energy">   -718.27122788 </i>
   </energy>
  </scstep>
  <scstep>
   <time name="dav">    1.50    1.50</time>
   <time name="total">    2.02    2.02</time>
   <energy>
    <i name="e_fr_energy">   -718.27466540 </i>
    <i name="e_wo_entrp">   -718.26710565 </i>
    <i name="e_0_energy">   -718.27088552 </i>
   </energy>
  </scstep>
  <scstep>
   <time name="dav">    1.49    1.49</time>
   <time name="total">    2.02    2.02</time>
   <energy>
    <i name="e_fr_energy">   -718.27503275 </i>
    <i name="e_wo_entrp">   -718.26746053 </i>
    <i name="e_0_energy">   -718.27124664 </i>
   </energy>
  </scstep>
  <scstep>
   <time name="dav">    1.50    1.50</time>
   <time name="total">    2.04    2.04</time>
   <energy>
    <i name="e_fr_energy">   -718.27465842 </i>
    <i name="e_wo_entrp">   -718.26708402 </i>
    <i name="e_0_energy">   -718.27087122 </i>
   </energy>
  </scstep>
  <scstep>
   <time name="dav">    1.50    1.50</time>
   <time name="total">    2.02    2.02</time>
   <energy>
    <i name="e_fr_energy">   -718.27503119 </i>
    <i name="e_wo_entrp">   -718.26746478 </i>
    <i name="e_0_energy">   -718.27124799 </i>
   </energy>
  </scstep>
  <scstep>
   <time name="dav">    1.49    1.49</time>
   <time name="total">    2.01    2.01</time>
   <energy>
    <i name="e_fr_energy">   -718.27465428 </i>
    <i name="e_wo_entrp">   -718.26707365 </i>
    <i name="e_0_energy">   -718.27086397 </i>
   </energy>
  </scstep>
  <scstep>
   <time name="dav">    1.49    1.49</time>
   <time name="total">    2.03    2.03</time>
   <energy>
    <i name="e_fr_energy">   -718.27502941 </i>
    <i name="e_wo_entrp">   -718.26746593 </i>
    <i name="e_0_energy">   -718.27124767 </i>
   </energy>
  </scstep>
  <scstep>
   <time name="dav">    1.49    1.49</time>
   <time name="total">    2.03    2.03</time>
   <energy>
    <i name="e_fr_energy">   -718.27465109 </i>
    <i name="e_wo_entrp">   -718.26706792 </i>
    <i name="e_0_energy">   -718.27085950 </i>
   </energy>
  </scstep>
  <scstep>
   <time name="dav">    1.49    1.49</time>
   <time name="total">    2.03    2.03</time>
   <energy>
    <i name="e_fr_energy">   -718.27502719 </i>
    <i name="e_wo_entrp">   -718.26746360 </i>
    <i name="e_0_energy">   -718.27124540 </i>
   </energy>
  </scstep>
  <scstep>
   <time name="dav">    1.49    1.49</time>
   <time name="total">    2.02    2.02</time>
   <energy>
    <i name="e_fr_energy">   -718.27464905 </i>
    <i name="e_wo_entrp">   -718.26706532 </i>
    <i name="e_0_energy">   -718.27085719 </i>
   </energy>
  </scstep>
  <scstep>
   <time name="dav">    1.49    1.49</time>
   <time name="total">    2.01    2.01</time>
   <energy>
    <i name="e_fr_energy">   -718.27502534 </i>
    <i name="e_wo_entrp">   -718.26746272 </i>
    <i name="e_0_energy">   -718.27124403 </i>
   </energy>
  </scstep>
  <scstep>
   <time name="dav">    1.50    1.50</time>
   <time name="total">    2.02    2.02</time>
   <energy>
    <i name="e_fr_energy">   -718.27464657 </i>
    <i name="e_wo_entrp">   -718.26705888 </i>
    <i name="e_0_energy">   -718.27085272 </i>
   </energy>
  </scstep>
  <scstep>
   <time name="dav">    1.50    1.49</time>
   <time name="total">    2.03    2.03</time>
   <energy>
    <i name="e_fr_energy">   -718.27502474 </i>
    <i name="e_wo_entrp">   -718.26746348 </i>
    <i name="e_0_energy">   -718.27124411 </i>
   </energy>
  </scstep>
  <scstep>
   <time name="dav">    1.50    1.50</time>
   <time name="total">    2.04    2.04</time>
   <energy>
    <i name="e_fr_energy">   -718.27464522 </i>
    <i name="e_wo_entrp">   -718.26705660 </i>
    <i name="e_0_energy">   -718.27085091 </i>
   </energy>
  </scstep>
  <scstep>
   <time name="dav">    1.50    1.50</time>
   <time name="total">    2.02    2.02</time>
   <energy>
    <i name="e_fr_energy">   -718.27502381 </i>
    <i name="e_wo_entrp">   -718.26746221 </i>
    <i name="e_0_energy">   -718.27124301 </i>
   </energy>
  </scstep>
  <scstep>
   <time name="dav">    1.50    1.50</time>
   <time name="total">    2.01    2.01</time>
   <energy>
    <i name="e_fr_energy">   -718.27464455 </i>
    <i name="e_wo_entrp">   -718.26705460 </i>
    <i name="e_0_energy">   -718.27084957 </i>
   </energy>
  </scstep>
  <scstep>
   <time name="dav">    1.50    1.50</time>
   <time name="total">    2.02    2.02</time>
   <energy>
    <i name="e_fr_energy">   -718.27502377 </i>
    <i name="e_wo_entrp">   -718.26746354 </i>
    <i name="e_0_energy">   -718.27124366 </i>
   </energy>
  </scstep>
  <scstep>
   <time name="dav">    1.50    1.50</time>
   <time name="total">    2.02    2.02</time>
   <energy>
    <i name="e_fr_energy">   -718.27464373 </i>
    <i name="e_wo_entrp">   -718.26705329 </i>
    <i name="e_0_energy">   -718.27084851 </i>
   </energy>
  </scstep>
  <scstep>
   <time name="dav">    1.50    1.50</time>
   <time name="total">    2.04    2.04</time>
   <energy>
    <i name="e_fr_energy">   -718.27502312 </i>
    <i name="e_wo_entrp">   -718.26746249 </i>
    <i name="e_0_energy">   -718.27124280 </i>
   </energy>
  </scstep>
  <scstep>
   <time name="dav">    1.49    1.49</time>
   <time name="total">    2.02    2.02</time>
   <energy>
    <i name="e_fr_energy">   -718.27464336 </i>
    <i name="e_wo_entrp">   -718.26705353 </i>
    <i name="e_0_energy">   -718.27084844 </i>
   </energy>
  </scstep>
  <scstep>
   <time name="dav">    1.49    1.49</time>
   <time name="total">    2.01    2.01</time>
   <energy>
    <i name="e_fr_energy">   -718.27502250 </i>
    <i name="e_wo_entrp">   -718.26746160 </i>
    <i name="e_0_energy">   -718.27124205 </i>
   </energy>
  </scstep>
  <scstep>
   <time name="dav">    1.49    1.49</time>
   <time name="total">    2.02    2.02</time>
   <energy>
    <i name="e_fr_energy">   -718.27464292 </i>
    <i name="e_wo_entrp">   -718.26705249 </i>
    <i name="e_0_energy">   -718.27084770 </i>
   </energy>
  </scstep>
  <scstep>
   <time name="dav">    1.49    1.49</time>
   <time name="total">    2.02    2.02</time>
   <energy>
    <i name="e_fr_energy">   -718.27502242 </i>
    <i name="e_wo_entrp">   -718.26746133 </i>
    <i name="e_0_energy">   -718.27124188 </i>
   </energy>
  </scstep>
  <scstep>
   <time name="dav">    1.49    1.49</time>
   <time name="total">    2.03    2.03</time>
   <energy>
    <i name="e_fr_energy">   -718.27464297 </i>
    <i name="e_wo_entrp">   -718.26705308 </i>
    <i name="e_0_energy">   -718.27084802 </i>
   </energy>
  </scstep>
  <scstep>
   <time name="dav">    1.49    1.49</time>
   <time name="total">    2.01    2.01</time>
   <energy>
    <i name="e_fr_energy">   -718.27502225 </i>
    <i name="e_wo_entrp">   -718.26746044 </i>
    <i name="e_0_energy">   -718.27124135 </i>
   </energy>
  </scstep>
  <scstep>
   <time name="dav">    1.50    1.50</time>
   <time name="total">    2.01    2.01</time>
   <energy>
    <i name="e_fr_energy">   -718.27464325 </i>
    <i name="e_wo_entrp">   -718.26705338 </i>
    <i name="e_0_energy">   -718.27084832 </i>
   </energy>
  </scstep>
  <scstep>
   <time name="dav">    1.50    1.50</time>
   <time name="total">    2.01    2.01</time>
   <energy>
    <i name="e_fr_energy">   -718.27502265 </i>
    <i name="e_wo_entrp">   -718.26746112 </i>
    <i name="e_0_energy">   -718.27124189 </i>
   </energy>
  </scstep>
  <scstep>
   <time name="dav">    1.50    1.50</time>
   <time name="total">    2.04    2.04</time>
   <energy>
    <i name="e_fr_energy">   -718.27464350 </i>
    <i name="e_wo_entrp">   -718.26705407 </i>
    <i name="e_0_energy">   -718.27084878 </i>
   </energy>
  </scstep>
  <scstep>
   <time name="dav">    1.50    1.50</time>
   <time name="total">    2.03    2.04</time>
   <energy>
    <i name="e_fr_energy">   -718.27502270 </i>
    <i name="e_wo_entrp">   -718.26746065 </i>
    <i name="e_0_energy">   -718.27124168 </i>
   </energy>
  </scstep>
  <scstep>
   <time name="dav">    1.50    1.50</time>
   <time name="total">    2.02    2.02</time>
   <energy>
    <i name="e_fr_energy">   -718.27464384 </i>
    <i name="e_wo_entrp">   -718.26705529 </i>
    <i name="e_0_energy">   -718.27084956 </i>
   </energy>
  </scstep>
  <scstep>
   <time name="dav">    1.50    1.50</time>
   <time name="total">    2.01    2.02</time>
   <energy>
    <i name="e_fr_energy">   -718.27502263 </i>
    <i name="e_wo_entrp">   -718.26746030 </i>
    <i name="e_0_energy">   -718.27124147 </i>
   </energy>
  </scstep>
  <scstep>
   <time name="dav">    1.50    1.50</time>
   <time name="total">    2.02    2.02</time>
   <energy>
    <i name="e_fr_energy">   -718.27464391 </i>
    <i name="e_wo_entrp">   -718.26705523 </i>
    <i name="e_0_energy">   -718.27084957 </i>
   </energy>
  </scstep>
  <scstep>
   <time name="dav">    1.50    1.50</time>
   <time name="total">    2.03    2.03</time>
   <energy>
    <i name="e_fr_energy">   -718.27502282 </i>
    <i name="e_wo_entrp">   -718.26746029 </i>
    <i name="e_0_energy">   -718.27124155 </i>
   </energy>
  </scstep>
  <scstep>
   <time name="dav">    1.50    1.50</time>
   <time name="total">    2.04    2.04</time>
   <energy>
    <i name="e_fr_energy">   -718.27464421 </i>
    <i name="e_wo_entrp">   -718.26705614 </i>
    <i name="e_0_energy">   -718.27085017 </i>
   </energy>
  </scstep>
  <scstep>
   <time name="dav">    1.50    1.50</time>
   <time name="total">    2.02    2.02</time>
   <energy>
    <i name="e_fr_energy">   -718.27502286 </i>
    <i name="e_wo_entrp">   -718.26745976 </i>
    <i name="e_0_energy">   -718.27124131 </i>
   </energy>
  </scstep>
  <scstep>
   <time name="dav">    1.49    1.49</time>
   <time name="total">    2.01    2.01</time>
   <energy>
    <i name="e_fr_energy">   -718.27464460 </i>
    <i name="e_wo_entrp">   -718.26705715 </i>
    <i name="e_0_energy">   -718.27085087 </i>
   </energy>
  </scstep>
  <scstep>
   <time name="dav">    1.49    1.49</time>
   <time name="total">    2.01    2.02</time>
   <energy>
    <i name="e_fr_energy">   -718.27502301 </i>
    <i name="e_wo_entrp">   -718.26745953 </i>
    <i name="e_0_energy">   -718.27124127 </i>
   </energy>
  </scstep>
  <scstep>
   <time name="dav">    1.50    1.50</time>
   <time name="total">    2.02    2.03</time>
   <energy>
    <i name="e_fr_energy">   -718.27464497 </i>
    <i name="e_wo_entrp">   -718.26705822 </i>
    <i name="e_0_energy">   -718.27085160 </i>
   </energy>
  </scstep>
  <scstep>
   <time name="dav">    1.50    1.50</time>
   <time name="total">    2.04    2.04</time>
   <energy>
    <i name="e_fr_energy">   -718.27502307 </i>
    <i name="e_wo_entrp">   -718.26745906 </i>
    <i name="e_0_energy">   -718.27124107 </i>
   </energy>
  </scstep>
  <scstep>
   <time name="dav">    1.50    1.50</time>
   <time name="total">    2.03    2.03</time>
   <energy>
    <i name="e_fr_energy">   -718.27464532 </i>
    <i name="e_wo_entrp">   -718.26705928 </i>
    <i name="e_0_energy">   -718.27085230 </i>
   </energy>
  </scstep>
  <scstep>
   <time name="dav">    1.50    1.50</time>
   <time name="total">    2.01    2.01</time>
   <energy>
    <i name="e_fr_energy">   -718.27502316 </i>
    <i name="e_wo_entrp">   -718.26745841 </i>
    <i name="e_0_energy">   -718.27124079 </i>
   </energy>
  </scstep>
  <scstep>
   <time name="dav">    1.50    1.49</time>
   <time name="total">    2.02    2.02</time>
   <energy>
    <i name="e_fr_energy">   -718.27464615 </i>
    <i name="e_wo_entrp">   -718.26706869 </i>
    <i name="e_0_energy">   -718.27085742 </i>
   </energy>
  </scstep>
  <scstep>
   <time name="dav">    1.49    1.49</time>
   <time name="total">    2.02    2.02</time>
   <energy>
    <i name="e_fr_energy">   -718.27502070 </i>
    <i name="e_wo_entrp">   -718.26743354 </i>
    <i name="e_0_energy">   -718.27122712 </i>
   </energy>
  </scstep>
  <scstep>
   <time name="dav">    1.49    1.49</time>
   <time name="total">    2.03    2.03</time>
   <energy>
    <i name="e_fr_energy">   -718.27465917 </i>
    <i name="e_wo_entrp">   -718.26713903 </i>
    <i name="e_0_energy">   -718.27089910 </i>
   </energy>
  </scstep>
  <scstep>
   <time name="dav">    1.49    1.49</time>
   <time name="total">    2.02    2.02</time>
   <energy>
    <i name="e_fr_energy">   -718.27501121 </i>
    <i name="e_wo_entrp">   -718.26732121 </i>
    <i name="e_0_energy">   -718.27116621 </i>
   </energy>
  </scstep>
  <scstep>
   <time name="dav">    1.49    1.49</time>
   <time name="total">    2.01    2.01</time>
   <energy>
    <i name="e_fr_energy">   -718.27471089 </i>
    <i name="e_wo_entrp">   -718.26728284 </i>
    <i name="e_0_energy">   -718.27099687 </i>
   </energy>
  </scstep>
  <scstep>
   <time name="dav">    1.49    1.49</time>
   <time name="total">    2.01    2.01</time>
   <energy>
    <i name="e_fr_energy">   -718.27501221 </i>
    <i name="e_wo_entrp">   -718.26736166 </i>
    <i name="e_0_energy">   -718.27118694 </i>
   </energy>
  </scstep>
  <scstep>
   <time name="dav">    1.49    1.49</time>
   <time name="total">    2.02    2.02</time>
   <energy>
    <i name="e_fr_energy">   -718.27468096 </i>
    <i name="e_wo_entrp">   -718.26714958 </i>
    <i name="e_0_energy">   -718.27091527 </i>
   </energy>
  </scstep>
  <scstep>
   <time name="dav">    1.50    1.50</time>
   <time name="total">    2.03    2.03</time>
   <energy>
    <i name="e_fr_energy">   -718.27503730 </i>
    <i name="e_wo_entrp">   -718.26745674 </i>
    <i name="e_0_energy">   -718.27124702 </i>
   </energy>
  </scstep>
  <scstep>
   <time name="dav">    1.49    1.49</time>
   <time name="total">    2.01    2.01</time>
   <energy>
    <i name="e_fr_energy">   -718.27466626 </i>
    <i name="e_wo_entrp">   -718.26709644 </i>
    <i name="e_0_energy">   -718.27088135 </i>
   </energy>
  </scstep>
  <scstep>
   <time name="dav">    1.50    1.50</time>
   <time name="total">    2.02    2.02</time>
   <energy>
    <i name="e_fr_energy">   -718.27503888 </i>
    <i name="e_wo_entrp">   -718.26747454 </i>
    <i name="e_0_energy">   -718.27125671 </i>
   </energy>
  </scstep>
  <scstep>
   <time name="dav">    1.50    1.50</time>
   <time name="total">    2.02    2.02</time>
   <energy>
    <i name="e_fr_energy">   -718.27466043 </i>
    <i name="e_wo_entrp">   -718.26708113 </i>
    <i name="e_0_energy">   -718.27087078 </i>
   </energy>
  </scstep>
  <scstep>
   <time name="dav">    1.50    1.50</time>
   <time name="total">    2.02    2.02</time>
   <energy>
    <i name="e_fr_energy">   -718.27503602 </i>
    <i name="e_wo_entrp">   -718.26747422 </i>
    <i name="e_0_energy">   -718.27125512 </i>
   </energy>
  </scstep>
  <scstep>
   <time name="dav">    1.50    1.50</time>
   <time name="total">    2.03    2.03</time>
   <energy>
    <i name="e_fr_energy">   -718.27465689 </i>
    <i name="e_wo_entrp">   -718.26707538 </i>
    <i name="e_0_energy">   -718.27086613 </i>
   </energy>
  </scstep>
  <scstep>
   <time name="dav">    1.50    1.50</time>
   <time name="total">    2.02    2.02</time>
   <energy>
    <i name="e_fr_energy">   -718.27503301 </i>
    <i name="e_wo_entrp">   -718.26747057 </i>
    <i name="e_0_energy">   -718.27125179 </i>
   </energy>
  </scstep>
  <scstep>
   <time name="dav">    1.50    1.50</time>
   <time name="total">    2.01    2.01</time>
   <energy>
    <i name="e_fr_energy">   -718.27465445 </i>
    <i name="e_wo_entrp">   -718.26707168 </i>
    <i name="e_0_energy">   -718.27086306 </i>
   </energy>
  </scstep>
  <scstep>
   <time name="dav">    1.49    1.49</time>
   <time name="total">    2.02    2.02</time>
   <energy>
    <i name="e_fr_energy">   -718.27503108 </i>
    <i name="e_wo_entrp">   -718.26746853 </i>
    <i name="e_0_energy">   -718.27124980 </i>
   </energy>
  </scstep>
  <scstep>
   <time name="dav">    1.49    1.50</time>
   <time name="total">    2.02    2.03</time>
   <energy>
    <i name="e_fr_energy">   -718.27465264 </i>
    <i name="e_wo_entrp">   -718.26706934 </i>
    <i name="e_0_energy">   -718.27086099 </i>
   </energy>
  </scstep>
  <scstep>
   <time name="dav">    1.49    1.49</time>
   <time name="total">    2.03    2.03</time>
   <energy>
    <i name="e_fr_energy">   -718.27502950 </i>
    <i name="e_wo_entrp">   -718.26746627 </i>
    <i name="e_0_energy">   -718.27124788 </i>
   </energy>
  </scstep>
  <scstep>
   <time name="dav">    1.50    1.50</time>
   <time name="total">    2.02    2.02</time>
   <energy>
    <i name="e_fr_energy">   -718.27465148 </i>
    <i name="e_wo_entrp">   -718.26706811 </i>
    <i name="e_0_energy">   -718.27085980 </i>
   </energy>
  </scstep>
  <scstep>
   <time name="dav">    1.50    1.50</time>
   <time name="total">    2.02    2.02</time>
   <energy>
    <i name="e_fr_energy">   -718.27502835 </i>
    <i name="e_wo_entrp">   -718.26746502 </i>
    <i name="e_0_energy">   -718.27124668 </i>
   </energy>
  </scstep>
  <scstep>
   <time name="dav">    1.50    1.50</time>
   <time name="total">    2.02    2.02</time>
   <energy>
    <i name="e_fr_energy">   -718.27465035 </i>
    <i name="e_wo_entrp">   -718.26706592 </i>
    <i name="e_0_energy">   -718.27085813 </i>
   </energy>
  </scstep>
  <scstep>
   <time name="dav">    1.50    1.50</time>
   <time name="total">    2.03    2.03</time>
   <energy>
    <i name="e_fr_energy">   -718.27502771 </i>
    <i name="e_wo_entrp">   -718.26746435 </i>
    <i name="e_0_energy">   -718.27124603 </i>
   </energy>
  </scstep>
  <scstep>
   <time name="dav">    1.50    1.50</time>
   <time name="total">    2.05    2.05</time>
   <energy>
    <i name="e_fr_energy">   -718.27464973 </i>
    <i name="e_wo_entrp">   -718.26706524 </i>
    <i name="e_0_energy">   -718.27085748 </i>
   </energy>
  </scstep>
  <scstep>
   <time name="dav">    1.50    1.50</time>
   <time name="total">    2.02    2.02</time>
   <energy>
    <i name="e_fr_energy">   -718.27502709 </i>
    <i name="e_wo_entrp">   -718.26746334 </i>
    <i name="e_0_energy">   -718.27124521 </i>
   </energy>
  </scstep>
  <scstep>
   <time name="dav">    1.50    1.50</time>
   <time name="total">    2.02    2.02</time>
   <energy>
    <i name="e_fr_energy">   -718.27464930 </i>
    <i name="e_wo_entrp">   -718.26706415 </i>
    <i name="e_0_energy">   -718.27085673 </i>
   </energy>
  </scstep>
  <scstep>
   <time name="dav">    1.50    1.50</time>
   <time name="total">    2.02    2.02</time>
   <energy>
    <i name="e_fr_energy">   -718.27502698 </i>
    <i name="e_wo_entrp">   -718.26746382 </i>
    <i name="e_0_energy">   -718.27124540 </i>
   </energy>
  </scstep>
  <scstep>
   <time name="dav">    1.50    1.50</time>
   <time name="total">    2.03    2.03</time>
   <energy>
    <i name="e_fr_energy">   -718.27464886 </i>
    <i name="e_wo_entrp">   -718.26706355 </i>
    <i name="e_0_energy">   -718.27085620 </i>
   </energy>
  </scstep>
  <scstep>
   <time name="dav">    1.50    1.50</time>
   <time name="total">    2.03    2.03</time>
   <energy>
    <i name="e_fr_energy">   -718.27502657 </i>
    <i name="e_wo_entrp">   -718.26746317 </i>
    <i name="e_0_energy">   -718.27124487 </i>
   </energy>
  </scstep>
  <scstep>
   <time name="dav">    1.50    1.49</time>
   <time name="total">    2.02    2.02</time>
   <energy>
    <i name="e_fr_energy">   -718.27464862 </i>
    <i name="e_wo_entrp">   -718.26706352 </i>
    <i name="e_0_energy">   -718.27085607 </i>
   </energy>
  </scstep>
  <scstep>
   <time name="dav">    1.50    1.49</time>
   <time name="total">    2.01    2.01</time>
   <energy>
    <i name="e_fr_energy">   -718.27502622 </i>
    <i name="e_wo_entrp">   -718.26746297 </i>
    <i name="e_0_energy">   -718.27124460 </i>
   </energy>
  </scstep>
  <scstep>
   <time name="dav">    1.50    1.50</time>
   <time name="total">    2.02    2.02</time>
   <energy>
    <i name="e_fr_energy">   -718.27464817 </i>
    <i name="e_wo_entrp">   -718.26706225 </i>
    <i name="e_0_energy">   -718.27085521 </i>
   </energy>
  </scstep>
  <scstep>
   <time name="dav">    1.50    1.50</time>
   <time name="total">    2.02    2.03</time>
   <energy>
    <i name="e_fr_energy">   -718.27502617 </i>
    <i name="e_wo_entrp">   -718.26746305 </i>
    <i name="e_0_energy">   -718.27124461 </i>
   </energy>
  </scstep>
  <scstep>
   <time name="dav">    1.50    1.50</time>
   <time name="total">    2.04    2.04</time>
   <energy>
    <i name="e_fr_energy">   -718.27464805 </i>
    <i name="e_wo_entrp">   -718.26706230 </i>
    <i name="e_0_energy">   -718.27085518 </i>
   </energy>
  </scstep>
  <scstep>
   <time name="dav">    1.49    1.49</time>
   <time name="total">    2.02    2.02</time>
   <energy>
    <i name="e_fr_energy">   -718.27502595 </i>
    <i name="e_wo_entrp">   -718.26746253 </i>
    <i name="e_0_energy">   -718.27124424 </i>
   </energy>
  </scstep>
  <scstep>
   <time name="dav">    1.50    1.50</time>
   <time name="total">    2.03    2.03</time>
   <energy>
    <i name="e_fr_energy">   -718.27464800 </i>
    <i name="e_wo_entrp">   -718.26706179 </i>
    <i name="e_0_energy">   -718.27085490 </i>
   </energy>
  </scstep>
  <scstep>
   <time name="dav">    1.50    1.50</time>
   <time name="total">    2.02    2.02</time>
   <energy>
    <i name="e_fr_energy">   -718.27502611 </i>
    <i name="e_wo_entrp">   -718.26746330 </i>
    <i name="e_0_energy">   -718.27124470 </i>
   </energy>
  </scstep>
  <scstep>
   <time name="dav">    1.50    1.50</time>
   <time name="total">    2.03    2.03</time>
   <energy>
    <i name="e_fr_energy">   -718.27464780 </i>
    <i name="e_wo_entrp">   -718.26706152 </i>
    <i name="e_0_energy">   -718.27085466 </i>
   </energy>
  </scstep>
  <scstep>
   <time name="dav">    1.50    1.50</time>
   <time name="total">    2.04    2.04</time>
   <energy>
    <i name="e_fr_energy">   -718.27502589 </i>
    <i name="e_wo_entrp">   -718.26746288 </i>
    <i name="e_0_energy">   -718.27124439 </i>
   </energy>
  </scstep>
  <scstep>
   <time name="dav">    1.50    1.50</time>
   <time name="total">    2.02    2.02</time>
   <energy>
    <i name="e_fr_energy">   -718.27464771 </i>
    <i name="e_wo_entrp">   -718.26706168 </i>
    <i name="e_0_energy">   -718.27085470 </i>
   </energy>
  </scstep>
  <scstep>
   <time name="dav">    1.50    1.50</time>
   <time name="total">    2.01    2.01</time>
   <energy>
    <i name="e_fr_energy">   -718.27502575 </i>
    <i name="e_wo_entrp">   -718.26746289 </i>
    <i name="e_0_energy">   -718.27124432 </i>
   </energy>
  </scstep>
  <scstep>
   <time name="dav">    1.50    1.50</time>
   <time name="total">    2.02    2.03</time>
   <energy>
    <i name="e_fr_energy">   -718.27464749 </i>
    <i name="e_wo_entrp">   -718.26706073 </i>
    <i name="e_0_energy">   -718.27085411 </i>
   </energy>
  </scstep>
  <scstep>
   <time name="dav">    1.50    1.50</time>
   <time name="total">    2.03    2.03</time>
   <energy>
    <i name="e_fr_energy">   -718.27502591 </i>
    <i name="e_wo_entrp">   -718.26746316 </i>
    <i name="e_0_energy">   -718.27124453 </i>
   </energy>
  </scstep>
  <scstep>
   <time name="dav">    1.50    1.50</time>
   <time name="total">    2.04    2.04</time>
   <energy>
    <i name="e_fr_energy">   -718.27464759 </i>
    <i name="e_wo_entrp">   -718.26706112 </i>
    <i name="e_0_energy">   -718.27085435 </i>
   </energy>
  </scstep>
  <scstep>
   <time name="dav">    1.50    1.50</time>
   <time name="total">    2.02    2.02</time>
   <energy>
    <i name="e_fr_energy">   -718.27502585 </i>
    <i name="e_wo_entrp">   -718.26746279 </i>
    <i name="e_0_energy">   -718.27124432 </i>
   </energy>
  </scstep>
  <scstep>
   <time name="dav">    1.50    1.50</time>
   <time name="total">    2.02    2.02</time>
   <energy>
    <i name="e_fr_energy">   -718.27464772 </i>
    <i name="e_wo_entrp">   -718.26706211 </i>
    <i name="e_0_energy">   -718.27085491 </i>
   </energy>
  </scstep>
  <scstep>
   <time name="dav">    1.49    1.50</time>
   <time name="total">    2.01    2.02</time>
   <energy>
    <i name="e_fr_energy">   -718.27502553 </i>
    <i name="e_wo_entrp">   -718.26746174 </i>
    <i name="e_0_energy">   -718.27124364 </i>
   </energy>
  </scstep>
  <scstep>
   <time name="dav">    1.49    1.50</time>
   <time name="total">    2.03    2.04</time>
   <energy>
    <i name="e_fr_energy">   -718.27464784 </i>
    <i name="e_wo_entrp">   -718.26706292 </i>
    <i name="e_0_energy">   -718.27085538 </i>
   </energy>
  </scstep>
  <scstep>
   <time name="dav">    1.49    1.49</time>
   <time name="total">    2.03    2.04</time>
   <energy>
    <i name="e_fr_energy">   -718.27502536 </i>
    <i name="e_wo_entrp">   -718.26746102 </i>
    <i name="e_0_energy">   -718.27124319 </i>
   </energy>
  </scstep>
  <scstep>
   <time name="dav">    1.50    1.50</time>
   <time name="total">    2.02    2.02</time>
   <energy>
    <i name="e_fr_energy">   -718.27464798 </i>
    <i name="e_wo_entrp">   -718.26706356 </i>
    <i name="e_0_energy">   -718.27085577 </i>
   </energy>
  </scstep>
  <scstep>
   <time name="dav">    1.50    1.50</time>
   <time name="total">    2.02    2.02</time>
   <energy>
    <i name="e_fr_energy">   -718.27502539 </i>
    <i name="e_wo_entrp">   -718.26745906 </i>
    <i name="e_0_energy">   -718.27124223 </i>
   </energy>
  </scstep>
  <scstep>
   <time name="dav">    1.50    1.50</time>
   <time name="total">    2.02    2.02</time>
   <energy>
    <i name="e_fr_energy">   -718.27464979 </i>
    <i name="e_wo_entrp">   -718.26708338 </i>
    <i name="e_0_energy">   -718.27086659 </i>
   </energy>
  </scstep>
  <scstep>
   <time name="dav">    1.50    1.50</time>
   <time name="total">    2.03    2.03</time>
   <energy>
    <i name="e_fr_energy">   -718.27502175 </i>
    <i name="e_wo_entrp">   -718.26738948 </i>
    <i name="e_0_energy">   -718.27120561 </i>
   </energy>
  </scstep>
  <scstep>
   <time name="dav">    1.50    1.50</time>
   <time name="total">    2.04    2.04</time>
   <energy>
    <i name="e_fr_energy">   -718.27469381 </i>
    <i name="e_wo_entrp">   -718.26730130 </i>
    <i name="e_0_energy">   -718.27099756 </i>
   </energy>
  </scstep>
  <scstep>
   <time name="dav">    1.50    1.50</time>
   <time name="total">    2.02    2.02</time>
   <energy>
    <i name="e_fr_energy">   -718.27497792 </i>
    <i name="e_wo_entrp">   -718.26725409 </i>
    <i name="e_0_energy">   -718.27111600 </i>
   </energy>
  </scstep>
  <scstep>
   <time name="dav">    1.50    1.50</time>
   <time name="total">    2.01    2.01</time>
   <energy>
    <i name="e_fr_energy">   -718.27468927 </i>
    <i name="e_wo_entrp">   -718.26718720 </i>
    <i name="e_0_energy">   -718.27093823 </i>
   </energy>
  </scstep>
  <scstep>
   <time name="dav">    1.50    1.50</time>
   <time name="total">    2.02    2.02</time>
   <energy>
    <i name="e_fr_energy">   -718.27503289 </i>
    <i name="e_wo_entrp">   -718.26744040 </i>
    <i name="e_0_energy">   -718.27123664 </i>
   </energy>
  </scstep>
  <scstep>
   <time name="dav">    1.50    1.50</time>
   <time name="total">    2.03    2.03</time>
   <energy>
    <i name="e_fr_energy">   -718.27466720 </i>
    <i name="e_wo_entrp">   -718.26710108 </i>
    <i name="e_0_energy">   -718.27088414 </i>
   </energy>
  </scstep>
  <scstep>
   <time name="dav">    1.49    1.49</time>
   <time name="total">    2.04    2.04</time>
   <energy>
    <i name="e_fr_energy">   -718.27503921 </i>
    <i name="e_wo_entrp">   -718.26747313 </i>
    <i name="e_0_energy">   -718.27125617 </i>
   </energy>
  </scstep>
  <scstep>
   <time name="dav">    1.50    1.50</time>
   <time name="total">    2.02    2.02</time>
   <energy>
    <i name="e_fr_energy">   -718.27466130 </i>
    <i name="e_wo_entrp">   -718.26708321 </i>
    <i name="e_0_energy">   -718.27087225 </i>
   </energy>
  </scstep>
  <scstep>
   <time name="dav">    1.50    1.50</time>
   <time name="total">    2.01    2.02</time>
   <energy>
    <i name="e_fr_energy">   -718.27503670 </i>
    <i name="e_wo_entrp">   -718.26747466 </i>
    <i name="e_0_energy">   -718.27125568 </i>
   </energy>
  </scstep>
  <scstep>
   <time name="dav">    1.50    1.50</time>
   <time name="total">    2.02    2.02</time>
   <energy>
    <i name="e_fr_energy">   -718.27465762 </i>
    <i name="e_wo_entrp">   -718.26707623 </i>
    <i name="e_0_energy">   -718.27086692 </i>
   </energy>
  </scstep>
  <scstep>
   <time name="dav">    1.50    1.50</time>
   <time name="total">    2.03    2.03</time>
   <energy>
    <i name="e_fr_energy">   -718.27503382 </i>
    <i name="e_wo_entrp">   -718.26747165 </i>
    <i name="e_0_energy">   -718.27125274 </i>
   </energy>
  </scstep>
  <scstep>
   <time name="dav">    1.49    1.50</time>
   <time name="total">    2.03    2.04</time>
   <energy>
    <i name="e_fr_energy">   -718.27465521 </i>
    <i name="e_wo_entrp">   -718.26707306 </i>
    <i name="e_0_energy">   -718.27086413 </i>
   </energy>
  </scstep>
  <scstep>
   <time name="dav">    1.49    1.49</time>
   <time name="total">    2.02    2.02</time>
   <energy>
    <i name="e_fr_energy">   -718.27503154 </i>
    <i name="e_wo_entrp">   -718.26746867 </i>
    <i name="e_0_energy">   -718.27125010 </i>
   </energy>
  </scstep>
  <scstep>
   <time name="dav">    1.49    1.49</time>
   <time name="total">    2.01    2.01</time>
   <energy>
    <i name="e_fr_energy">   -718.27465340 </i>
    <i name="e_wo_entrp">   -718.26707046 </i>
    <i name="e_0_energy">   -718.27086193 </i>
   </energy>
  </scstep>
  <scstep>
   <time name="dav">    1.49    1.49</time>
   <time name="total">    2.03    2.03</time>
   <energy>
    <i name="e_fr_energy">   -718.27503004 </i>
    <i name="e_wo_entrp">   -718.26746701 </i>
    <i name="e_0_energy">   -718.27124853 </i>
   </energy>
  </scstep>
  <scstep>
   <time name="dav">    1.50    1.50</time>
   <time name="total">    2.03    2.03</time>
   <energy>
    <i name="e_fr_energy">   -718.27465203 </i>
    <i name="e_wo_entrp">   -718.26706875 </i>
    <i name="e_0_energy">   -718.27086039 </i>
   </energy>
  </scstep>
  <scstep>
   <time name="dav">    1.50    1.49</time>
   <time name="total">    2.04    2.04</time>
   <energy>
    <i name="e_fr_energy">   -718.27502880 </i>
    <i name="e_wo_entrp">   -718.26746518 </i>
    <i name="e_0_energy">   -718.27124699 </i>
   </energy>
  </scstep>
  <scstep>
   <time name="dav">    1.49    1.49</time>
   <time name="total">    2.01    2.01</time>
   <energy>
    <i name="e_fr_energy">   -718.27465111 </i>
    <i name="e_wo_entrp">   -718.26706784 </i>
    <i name="e_0_energy">   -718.27085948 </i>
   </energy>
  </scstep>
  <scstep>
   <time name="dav">    1.49    1.49</time>
   <time name="total">    2.01    2.01</time>
   <energy>
    <i name="e_fr_energy">   -718.27502787 </i>
    <i name="e_wo_entrp">   -718.26746408 </i>
    <i name="e_0_energy">   -718.27124598 </i>
   </energy>
  </scstep>
  <scstep>
   <time name="dav">    1.50    1.50</time>
   <time name="total">    2.02    2.02</time>
   <energy>
    <i name="e_fr_energy">   -718.27465025 </i>
    <i name="e_wo_entrp">   -718.26706631 </i>
    <i name="e_0_energy">   -718.27085828 </i>
   </energy>
  </scstep>
  <scstep>
   <time name="dav">    1.50    1.50</time>
   <time name="total">    2.03    2.03</time>
   <energy>
    <i name="e_fr_energy">   -718.27502734 </i>
    <i name="e_wo_entrp">   -718.26746336 </i>
    <i name="e_0_energy">   -718.27124535 </i>
   </energy>
  </scstep>
  <scstep>
   <time name="dav">    1.50    1.50</time>
   <time name="total">    2.04    2.04</time>
   <energy>
    <i name="e_fr_energy">   -718.27464986 </i>
    <i name="e_wo_entrp">   -718.26706596 </i>
    <i name="e_0_energy">   -718.27085791 </i>
   </energy>
  </scstep>
  <scstep>
   <time name="dav">    1.50    1.50</time>
   <time name="total">    2.02    2.02</time>
   <energy>
    <i name="e_fr_energy">   -718.27502696 </i>
    <i name="e_wo_entrp">   -718.26746264 </i>
    <i name="e_0_energy">   -718.27124480 </i>
   </energy>
  </scstep>
  <scstep>
   <time name="dav">    1.50    1.50</time>
   <time name="total">    2.03    2.03</time>
   <energy>
    <i name="e_fr_energy">   -718.27464967 </i>
    <i name="e_wo_entrp">   -718.26706534 </i>
    <i name="e_0_energy">   -718.27085751 </i>
   </energy>
  </scstep>
  <scstep>
   <time name="dav">    1.50    1.50</time>
   <time name="total">    2.02    2.03</time>
   <energy>
    <i name="e_fr_energy">   -718.27502702 </i>
    <i name="e_wo_entrp">   -718.26746302 </i>
    <i name="e_0_energy">   -718.27124502 </i>
   </energy>
  </scstep>
  <scstep>
   <time name="dav">    1.50    1.50</time>
   <time name="total">    2.03    2.03</time>
   <energy>
    <i name="e_fr_energy">   -718.27464957 </i>
    <i name="e_wo_entrp">   -718.26706529 </i>
    <i name="e_0_energy">   -718.27085743 </i>
   </energy>
  </scstep>
  <scstep>
   <time name="dav">    1.50    1.50</time>
   <time name="total">    2.04    2.04</time>
   <energy>
    <i name="e_fr_energy">   -718.27502687 </i>
    <i name="e_wo_entrp">   -718.26746268 </i>
    <i name="e_0_energy">   -718.27124478 </i>
   </energy>
  </scstep>
  <scstep>
   <time name="dav">    1.50    1.50</time>
   <time name="total">    2.02    2.02</time>
   <energy>
    <i name="e_fr_energy">   -718.27464953 </i>
    <i name="e_wo_entrp">   -718.26706548 </i>
    <i name="e_0_energy">   -718.27085750 </i>
   </energy>
  </scstep>
  <scstep>
   <time name="dav">    1.49    1.49</time>
   <time name="total">    2.01    2.01</time>
   <energy>
    <i name="e_fr_energy">   -718.27502670 </i>
    <i name="e_wo_entrp">   -718.26746261 </i>
    <i name="e_0_energy">   -718.27124465 </i>
   </energy>
  </scstep>
  <scstep>
   <time name="dav">    1.50    1.50</time>
   <time name="total">    2.02    2.02</time>
   <energy>
    <i name="e_fr_energy">   -718.27464928 </i>
    <i name="e_wo_entrp">   -718.26706472 </i>
    <i name="e_0_energy">   -718.27085700 </i>
   </energy>
  </scstep>
  <scstep>
   <time name="dav">    1.49    1.49</time>
   <time name="total">    2.02    2.02</time>
   <energy>
    <i name="e_fr_energy">   -718.27502670 </i>
    <i name="e_wo_entrp">   -718.26746263 </i>
    <i name="e_0_energy">   -718.27124467 </i>
   </energy>
  </scstep>
  <scstep>
   <time name="dav">    1.50    1.50</time>
   <time name="total">    2.04    2.04</time>
   <energy>
    <i name="e_fr_energy">   -718.27464930 </i>
    <i name="e_wo_entrp">   -718.26706492 </i>
    <i name="e_0_energy">   -718.27085711 </i>
   </energy>
  </scstep>
  <scstep>
   <time name="dav">    1.50    1.50</time>
   <time name="total">    2.02    2.02</time>
   <energy>
    <i name="e_fr_energy">   -718.27502662 </i>
    <i name="e_wo_entrp">   -718.26746235 </i>
    <i name="e_0_energy">   -718.27124448 </i>
   </energy>
  </scstep>
  <scstep>
   <time name="dav">    1.50    1.50</time>
   <time name="total">    2.01    2.01</time>
   <energy>
    <i name="e_fr_energy">   -718.27464932 </i>
    <i name="e_wo_entrp">   -718.26706457 </i>
    <i name="e_0_energy">   -718.27085695 </i>
   </energy>
  </scstep>
  <scstep>
   <time name="dav">    1.50    1.50</time>
   <time name="total">    2.02    2.02</time>
   <energy>
    <i name="e_fr_energy">   -718.27502684 </i>
    <i name="e_wo_entrp">   -718.26746303 </i>
    <i name="e_0_energy">   -718.27124494 </i>
   </energy>
  </scstep>
  <scstep>
   <time name="dav">    1.50    1.50</time>
   <time name="total">    2.02    2.02</time>
   <energy>
    <i name="e_fr_energy">   -718.27464928 </i>
    <i name="e_wo_entrp">   -718.26706458 </i>
    <i name="e_0_energy">   -718.27085693 </i>
   </energy>
  </scstep>
  <scstep>
   <time name="dav">    1.50    1.50</time>
   <time name="total">    2.04    2.04</time>
   <energy>
    <i name="e_fr_energy">   -718.27502671 </i>
    <i name="e_wo_entrp">   -718.26746279 </i>
    <i name="e_0_energy">   -718.27124475 </i>
   </energy>
  </scstep>
  <scstep>
   <time name="dav">    1.49    1.49</time>
   <time name="total">    2.02    2.02</time>
   <energy>
    <i name="e_fr_energy">   -718.27464921 </i>
    <i name="e_wo_entrp">   -718.26706473 </i>
    <i name="e_0_energy">   -718.27085697 </i>
   </energy>
  </scstep>
  <scstep>
   <time name="dav">    1.49    1.49</time>
   <time name="total">    2.01    2.01</time>
   <energy>
    <i name="e_fr_energy">   -718.27502649 </i>
    <i name="e_wo_entrp">   -718.26746273 </i>
    <i name="e_0_energy">   -718.27124461 </i>
   </energy>
  </scstep>
  <scstep>
   <time name="dav">    1.49    1.49</time>
   <time name="total">    2.02    2.02</time>
   <energy>
    <i name="e_fr_energy">   -718.27464887 </i>
    <i name="e_wo_entrp">   -718.26706386 </i>
    <i name="e_0_energy">   -718.27085636 </i>
   </energy>
  </scstep>
  <scstep>
   <time name="dav">    1.50    1.50</time>
   <time name="total">    2.03    2.03</time>
   <energy>
    <i name="e_fr_energy">   -718.27502643 </i>
    <i name="e_wo_entrp">   -718.26746269 </i>
    <i name="e_0_energy">   -718.27124456 </i>
   </energy>
  </scstep>
  <scstep>
   <time name="dav">    1.49    1.49</time>
   <time name="total">    2.04    2.04</time>
   <energy>
    <i name="e_fr_energy">   -718.27464885 </i>
    <i name="e_wo_entrp">   -718.26706396 </i>
    <i name="e_0_energy">   -718.27085640 </i>
   </energy>
  </scstep>
  <scstep>
   <time name="dav">    1.50    1.50</time>
   <time name="total">    2.02    2.02</time>
   <energy>
    <i name="e_fr_energy">   -718.27502641 </i>
    <i name="e_wo_entrp">   -718.26746244 </i>
    <i name="e_0_energy">   -718.27124442 </i>
   </energy>
  </scstep>
  <scstep>
   <time name="dav">    1.50    1.50</time>
   <time name="total">    2.02    2.02</time>
   <energy>
    <i name="e_fr_energy">   -718.27464900 </i>
    <i name="e_wo_entrp">   -718.26706459 </i>
    <i name="e_0_energy">   -718.27085679 </i>
   </energy>
  </scstep>
  <scstep>
   <time name="dav">    1.49    1.49</time>
   <time name="total">    2.01    2.01</time>
   <energy>
    <i name="e_fr_energy">   -718.27502630 </i>
    <i name="e_wo_entrp">   -718.26746315 </i>
    <i name="e_0_energy">   -718.27124473 </i>
   </energy>
  </scstep>
  <scstep>
   <time name="dav">    1.50    1.50</time>
   <time name="total">    2.02    2.03</time>
   <energy>
    <i name="e_fr_energy">   -718.27464835 </i>
    <i name="e_wo_entrp">   -718.26706288 </i>
    <i name="e_0_energy">   -718.27085561 </i>
   </energy>
  </scstep>
  <scstep>
   <time name="dav">    1.50    1.50</time>
   <time name="total">    2.04    2.04</time>
   <energy>
    <i name="e_fr_energy">   -718.27502611 </i>
    <i name="e_wo_entrp">   -718.26746388 </i>
    <i name="e_0_energy">   -718.27124500 </i>
   </energy>
  </scstep>
  <scstep>
   <time name="dav">    1.50    1.50</time>
   <time name="total">    2.02    2.02</time>
   <energy>
    <i name="e_fr_energy">   -718.27464758 </i>
    <i name="e_wo_entrp">   -718.26706098 </i>
    <i name="e_0_energy">   -718.27085428 </i>
   </energy>
  </scstep>
  <scstep>
   <time name="dav">    1.49    1.49</time>
   <time name="total">    2.01    2.01</time>
   <energy>
    <i name="e_fr_energy">   -718.27502553 </i>
    <i name="e_wo_entrp">   -718.26746871 </i>
    <i name="e_0_energy">   -718.27124712 </i>
   </energy>
  </scstep>
  <scstep>
   <time name="dav">    1.50    1.50</time>
   <time name="total">    2.02    2.02</time>
   <energy>
    <i name="e_fr_energy">   -718.27464312 </i>
    <i name="e_wo_entrp">   -718.26703539 </i>
    <i name="e_0_energy">   -718.27083925 </i>
   </energy>
  </scstep>
  <scstep>
   <time name="dav">    1.50    1.49</time>
   <time name="total">    2.02    2.02</time>
   <energy>
    <i name="e_fr_energy">   -718.27502903 </i>
    <i name="e_wo_entrp">   -718.26754442 </i>
    <i name="e_0_energy">   -718.27128672 </i>
   </energy>
  </scstep>
  <scstep>
   <time name="dav">    1.50    1.50</time>
   <time name="total">    2.03    2.03</time>
   <energy>
    <i name="e_fr_energy">   -718.27460263 </i>
    <i name="e_wo_entrp">   -718.26682648 </i>
    <i name="e_0_energy">   -718.27071455 </i>
   </energy>
  </scstep>
  <scstep>
   <time name="dav">    1.49    1.49</time>
   <time name="total">    2.02    2.02</time>
   <energy>
    <i name="e_fr_energy">   -718.27506747 </i>
    <i name="e_wo_entrp">   -718.26764228 </i>
    <i name="e_0_energy">   -718.27135488 </i>
   </energy>
  </scstep>
  <scstep>
   <time name="dav">    1.50    1.50</time>
   <time name="total">    2.02    2.02</time>
   <energy>
    <i name="e_fr_energy">   -718.27460900 </i>
    <i name="e_wo_entrp">   -718.26695812 </i>
    <i name="e_0_energy">   -718.27078356 </i>
   </energy>
  </scstep>
  <scstep>
   <time name="dav">    1.49    1.50</time>
   <time name="total">    2.02    2.02</time>
   <energy>
    <i name="e_fr_energy">   -718.27501175 </i>
    <i name="e_wo_entrp">   -718.26746376 </i>
    <i name="e_0_energy">   -718.27123776 </i>
   </energy>
  </scstep>
  <scstep>
   <time name="dav">    1.50    1.50</time>
   <time name="total">    2.03    2.04</time>
   <energy>
    <i name="e_fr_energy">   -718.27462934 </i>
    <i name="e_wo_entrp">   -718.26703778 </i>
    <i name="e_0_energy">   -718.27083356 </i>
   </energy>
  </scstep>
  <scstep>
   <time name="dav">    1.50    1.50</time>
   <time name="total">    2.04    2.04</time>
   <energy>
    <i name="e_fr_energy">   -718.27500730 </i>
    <i name="e_wo_entrp">   -718.26743347 </i>
    <i name="e_0_energy">   -718.27122038 </i>
   </energy>
  </scstep>
  <scstep>
   <time name="dav">    1.50    1.50</time>
   <time name="total">    2.02    2.02</time>
   <energy>
    <i name="e_fr_energy">   -718.27463693 </i>
    <i name="e_wo_entrp">   -718.26705883 </i>
    <i name="e_0_energy">   -718.27084788 </i>
   </energy>
  </scstep>
  <scstep>
   <time name="dav">    1.50    1.50</time>
   <time name="total">    2.01    2.01</time>
   <energy>
    <i name="e_fr_energy">   -718.27501057 </i>
    <i name="e_wo_entrp">   -718.26743283 </i>
    <i name="e_0_energy">   -718.27122170 </i>
   </energy>
  </scstep>
  <scstep>
   <time name="dav">    1.50    1.50</time>
   <time name="total">    2.02    2.02</time>
   <energy>
    <i name="e_fr_energy">   -718.27464112 </i>
    <i name="e_wo_entrp">   -718.26706663 </i>
    <i name="e_0_energy">   -718.27085388 </i>
   </energy>
  </scstep>
  <scstep>
   <time name="dav">    1.49    1.49</time>
   <time name="total">    2.02    2.02</time>
   <energy>
    <i name="e_fr_energy">   -718.27501373 </i>
    <i name="e_wo_entrp">   -718.26743629 </i>
    <i name="e_0_energy">   -718.27122501 </i>
   </energy>
  </scstep>
  <scstep>
   <time name="dav">    1.50    1.50</time>
   <time name="total">    2.03    2.03</time>
   <energy>
    <i name="e_fr_energy">   -718.27464371 </i>
    <i name="e_wo_entrp">   -718.26706975 </i>
    <i name="e_0_energy">   -718.27085673 </i>
   </energy>
  </scstep>
  <scstep>
   <time name="dav">    1.50    1.50</time>
   <time name="total">    2.02    2.02</time>
   <energy>
    <i name="e_fr_energy">   -718.27501624 </i>
    <i name="e_wo_entrp">   -718.26743995 </i>
    <i name="e_0_energy">   -718.27122810 </i>
   </energy>
  </scstep>
  <scstep>
   <time name="dav">    1.50    1.50</time>
   <time name="total">    2.02    2.02</time>
   <energy>
    <i name="e_fr_energy">   -718.27464549 </i>
    <i name="e_wo_entrp">   -718.26707200 </i>
    <i name="e_0_energy">   -718.27085874 </i>
   </energy>
  </scstep>
  <scstep>
   <time name="dav">    1.50    1.50</time>
   <time name="total">    2.02    2.02</time>
   <energy>
    <i name="e_fr_energy">   -718.27501781 </i>
    <i name="e_wo_entrp">   -718.26744203 </i>
    <i name="e_0_energy">   -718.27122992 </i>
   </energy>
  </scstep>
  <scstep>
   <time name="dav">    1.50    1.50</time>
   <time name="total">    2.03    2.03</time>
   <energy>
    <i name="e_fr_energy">   -718.27464674 </i>
    <i name="e_wo_entrp">   -718.26707316 </i>
    <i name="e_0_energy">   -718.27085995 </i>
   </energy>
  </scstep>
  <scstep>
   <time name="dav">    1.50    1.50</time>
   <time name="total">    2.04    2.04</time>
   <energy>
    <i name="e_fr_energy">   -718.27501911 </i>
    <i name="e_wo_entrp">   -718.26744414 </i>
    <i name="e_0_energy">   -718.27123163 </i>
   </energy>
  </scstep>
  <scstep>
   <time name="dav">    1.50    1.50</time>
   <time name="total">    2.02    2.02</time>
   <energy>
    <i name="e_fr_energy">   -718.27464760 </i>
    <i name="e_wo_entrp">   -718.26707370 </i>
    <i name="e_0_energy">   -718.27086065 </i>
   </energy>
  </scstep>
  <scstep>
   <time name="dav">    1.49    1.49</time>
   <time name="total">    2.01    2.01</time>
   <energy>
    <i name="e_fr_energy">   -718.27502017 </i>
    <i name="e_wo_entrp">   -718.26744563 </i>
    <i name="e_0_energy">   -718.27123290 </i>
   </energy>
  </scstep>
  <scstep>
   <time name="dav">    1.50    1.50</time>
   <time name="total">    2.02    2.02</time>
   <energy>
    <i name="e_fr_energy">   -718.27464849 </i>
    <i name="e_wo_entrp">   -718.26707483 </i>
    <i name="e_0_energy">   -718.27086166 </i>
   </energy>
  </scstep>
  <scstep>
   <time name="dav">    1.49    1.49</time>
   <time name="total">    2.02    2.02</time>
   <energy>
    <i name="e_fr_energy">   -718.27502098 </i>
    <i name="e_wo_entrp">   -718.26744684 </i>
    <i name="e_0_energy">   -718.27123391 </i>
   </energy>
  </scstep>
  <scstep>
   <time name="dav">    1.49    1.49</time>
   <time name="total">    2.03    2.03</time>
   <energy>
    <i name="e_fr_energy">   -718.27464913 </i>
    <i name="e_wo_entrp">   -718.26707522 </i>
    <i name="e_0_energy">   -718.27086218 </i>
   </energy>
  </scstep>
  <scstep>
   <time name="dav">    1.49    1.49</time>
   <time name="total">    2.02    2.02</time>
   <energy>
    <i name="e_fr_energy">   -718.27502176 </i>
    <i name="e_wo_entrp">   -718.26744816 </i>
    <i name="e_0_energy">   -718.27123496 </i>
   </energy>
  </scstep>
  <scstep>
   <time name="dav">    1.49    1.49</time>
   <time name="total">    2.01    2.01</time>
   <energy>
    <i name="e_fr_energy">   -718.27464966 </i>
    <i name="e_wo_entrp">   -718.26707582 </i>
    <i name="e_0_energy">   -718.27086274 </i>
   </energy>
  </scstep>
  <scstep>
   <time name="dav">    1.49    1.49</time>
   <time name="total">    2.01    2.01</time>
   <energy>
    <i name="e_fr_energy">   -718.27502225 </i>
    <i name="e_wo_entrp">   -718.26744878 </i>
    <i name="e_0_energy">   -718.27123551 </i>
   </energy>
  </scstep>
  <scstep>
   <time name="dav">    1.50    1.50</time>
   <time name="total">    2.03    2.03</time>
   <energy>
    <i name="e_fr_energy">   -718.27465011 </i>
    <i name="e_wo_entrp">   -718.26707609 </i>
    <i name="e_0_energy">   -718.27086310 </i>
   </energy>
  </scstep>
  <scstep>
   <time name="dav">    1.50    1.50</time>
   <time name="total">    2.03    2.03</time>
   <energy>
    <i name="e_fr_energy">   -718.27502281 </i>
    <i name="e_wo_entrp">   -718.26744978 </i>
    <i name="e_0_energy">   -718.27123630 </i>
   </energy>
  </scstep>
  <scstep>
   <time name="dav">    1.50    1.50</time>
   <time name="total">    2.03    2.03</time>
   <energy>
    <i name="e_fr_energy">   -718.27465043 </i>
    <i name="e_wo_entrp">   -718.26707611 </i>
    <i name="e_0_energy">   -718.27086327 </i>
   </energy>
  </scstep>
  <scstep>
   <time name="dav">    1.50    1.50</time>
   <time name="total">    2.02    2.02</time>
   <energy>
    <i name="e_fr_energy">   -718.27502325 </i>
    <i name="e_wo_entrp">   -718.26745049 </i>
    <i name="e_0_energy">   -718.27123687 </i>
   </energy>
  </scstep>
  <scstep>
   <time name="dav">    1.50    1.50</time>
   <time name="total">    2.03    2.03</time>
   <energy>
    <i name="e_fr_energy">   -718.27465075 </i>
    <i name="e_wo_entrp">   -718.26707655 </i>
    <i name="e_0_energy">   -718.27086365 </i>
   </energy>
  </scstep>
  <scstep>
   <time name="dav">    1.50    1.50</time>
   <time name="total">    2.03    2.03</time>
   <energy>
    <i name="e_fr_energy">   -718.27502349 </i>
    <i name="e_wo_entrp">   -718.26745101 </i>
    <i name="e_0_energy">   -718.27123725 </i>
   </energy>
  </scstep>
  <scstep>
   <time name="dav">    1.50    1.50</time>
   <time name="total">    2.03    2.03</time>
   <energy>
    <i name="e_fr_energy">   -718.27465084 </i>
    <i name="e_wo_entrp">   -718.26707637 </i>
    <i name="e_0_energy">   -718.27086361 </i>
   </energy>
  </scstep>
  <scstep>
   <time name="dav">    1.50    1.50</time>
   <time name="total">    2.02    2.02</time>
   <energy>
    <i name="e_fr_energy">   -718.27502364 </i>
    <i name="e_wo_entrp">   -718.26745151 </i>
    <i name="e_0_energy">   -718.27123757 </i>
   </energy>
  </scstep>
  <scstep>
   <time name="dav">    1.50    1.50</time>
   <time name="total">    2.02    2.03</time>
   <energy>
    <i name="e_fr_energy">   -718.27465077 </i>
    <i name="e_wo_entrp">   -718.26707621 </i>
    <i name="e_0_energy">   -718.27086349 </i>
   </energy>
  </scstep>
  <scstep>
   <time name="dav">    1.49    1.49</time>
   <time name="total">    2.01    2.01</time>
   <energy>
    <i name="e_fr_energy">   -718.27502359 </i>
    <i name="e_wo_entrp">   -718.26745147 </i>
    <i name="e_0_energy">   -718.27123753 </i>
   </energy>
  </scstep>
  <scstep>
   <time name="dav">    1.50    1.50</time>
   <time name="total">    2.03    2.03</time>
   <energy>
    <i name="e_fr_energy">   -718.27465072 </i>
    <i name="e_wo_entrp">   -718.26707587 </i>
    <i name="e_0_energy">   -718.27086330 </i>
   </energy>
  </scstep>
  <scstep>
   <time name="dav">    1.50    1.50</time>
   <time name="total">    2.04    2.04</time>
   <energy>
    <i name="e_fr_energy">   -718.27502372 </i>
    <i name="e_wo_entrp">   -718.26745183 </i>
    <i name="e_0_energy">   -718.27123777 </i>
   </energy>
  </scstep>
  <scstep>
   <time name="dav">    1.50    1.50</time>
   <time name="total">    2.02    2.02</time>
   <energy>
    <i name="e_fr_energy">   -718.27465076 </i>
    <i name="e_wo_entrp">   -718.26707554 </i>
    <i name="e_0_energy">   -718.27086315 </i>
   </energy>
  </scstep>
  <scstep>
   <time name="dav">    1.50    1.50</time>
   <time name="total">    2.01    2.01</time>
   <energy>
    <i name="e_fr_energy">   -718.27502394 </i>
    <i name="e_wo_entrp">   -718.26745223 </i>
    <i name="e_0_energy">   -718.27123808 </i>
   </energy>
  </scstep>
  <scstep>
   <time name="dav">    1.50    1.50</time>
   <time name="total">    2.02    2.02</time>
   <energy>
    <i name="e_fr_energy">   -718.27465091 </i>
    <i name="e_wo_entrp">   -718.26707562 </i>
    <i name="e_0_energy">   -718.27086327 </i>
   </energy>
  </scstep>
  <scstep>
   <time name="dav">    1.50    1.50</time>
   <time name="total">    2.03    2.03</time>
   <energy>
    <i name="e_fr_energy">   -718.27502411 </i>
    <i name="e_wo_entrp">   -718.26745265 </i>
    <i name="e_0_energy">   -718.27123838 </i>
   </energy>
  </scstep>
  <scstep>
   <time name="dav">    1.50    1.50</time>
   <time name="total">    2.03    2.03</time>
   <energy>
    <i name="e_fr_energy">   -718.27465096 </i>
    <i name="e_wo_entrp">   -718.26707539 </i>
    <i name="e_0_energy">   -718.27086317 </i>
   </energy>
  </scstep>
  <scstep>
   <time name="dav">    1.49    1.49</time>
   <time name="total">    2.01    2.02</time>
   <energy>
    <i name="e_fr_energy">   -718.27502428 </i>
    <i name="e_wo_entrp">   -718.26745313 </i>
    <i name="e_0_energy">   -718.27123870 </i>
   </energy>
  </scstep>
  <scstep>
   <time name="dav">    1.50    1.50</time>
   <time name="total">    2.01    2.01</time>
   <energy>
    <i name="e_fr_energy">   -718.27465088 </i>
    <i name="e_wo_entrp">   -718.26707300 </i>
    <i name="e_0_energy">   -718.27086194 </i>
   </energy>
  </scstep>
  <scstep>
   <time name="dav">    1.49    1.49</time>
   <time name="total">    2.01    2.01</time>
   <energy>
    <i name="e_fr_energy">   -718.27502530 </i>
    <i name="e_wo_entrp">   -718.26745709 </i>
    <i name="e_0_energy">   -718.27124119 </i>
   </energy>
  </scstep>
  <scstep>
   <time name="dav">    1.49    1.49</time>
   <time name="total">    2.03    2.03</time>
   <energy>
    <i name="e_fr_energy">   -718.27465009 </i>
    <i name="e_wo_entrp">   -718.26706831 </i>
    <i name="e_0_energy">   -718.27085920 </i>
   </energy>
  </scstep>
  <scstep>
   <time name="dav">    1.49    1.49</time>
   <time name="total">    2.05    2.05</time>
   <energy>
    <i name="e_fr_energy">   -718.27502621 </i>
    <i name="e_wo_entrp">   -718.26746311 </i>
    <i name="e_0_energy">   -718.27124466 </i>
   </energy>
  </scstep>
  <scstep>
   <time name="dav">    1.50    1.50</time>
   <time name="total">    2.02    2.02</time>
   <energy>
    <i name="e_fr_energy">   -718.27464787 </i>
    <i name="e_wo_entrp">   -718.26705898 </i>
    <i name="e_0_energy">   -718.27085342 </i>
   </energy>
  </scstep>
  <scstep>
   <time name="dav">    1.50    1.50</time>
   <time name="total">    2.01    2.01</time>
   <energy>
    <i name="e_fr_energy">   -718.27502576 </i>
    <i name="e_wo_entrp">   -718.26749933 </i>
    <i name="e_0_energy">   -718.27126255 </i>
   </energy>
  </scstep>
  <scstep>
   <time name="dav">    1.50    1.50</time>
   <time name="total">    2.02    2.02</time>
   <energy>
    <i name="e_fr_energy">   -718.27462400 </i>
    <i name="e_wo_entrp">   -718.26689540 </i>
    <i name="e_0_energy">   -718.27075970 </i>
   </energy>
  </scstep>
  <scstep>
   <time name="dav">    1.50    1.50</time>
   <time name="total">    2.02    2.02</time>
   <energy>
    <i name="e_fr_energy">   -718.27506699 </i>
    <i name="e_wo_entrp">   -718.26767395 </i>
    <i name="e_0_energy">   -718.27137047 </i>
   </energy>
  </scstep>
  <scstep>
   <time name="dav">    1.50    1.50</time>
   <time name="total">    2.04    2.04</time>
   <energy>
    <i name="e_fr_energy">   -718.27458584 </i>
    <i name="e_wo_entrp">   -718.26690208 </i>
    <i name="e_0_energy">   -718.27074396 </i>
   </energy>
  </scstep>
  <scstep>
   <time name="dav">    1.49    1.49</time>
   <time name="total">    2.01    2.01</time>
   <energy>
    <i name="e_fr_energy">   -718.27500433 </i>
    <i name="e_wo_entrp">   -718.26746702 </i>
    <i name="e_0_energy">   -718.27123567 </i>
   </energy>
  </scstep>
  <scstep>
   <time name="dav">    1.49    1.49</time>
   <time name="total">    2.01    2.01</time>
   <energy>
    <i name="e_fr_energy">   -718.27461601 </i>
    <i name="e_wo_entrp">   -718.26701207 </i>
    <i name="e_0_energy">   -718.27081404 </i>
   </energy>
  </scstep>
  <scstep>
   <time name="dav">    1.49    1.49</time>
   <time name="total">    2.01    2.01</time>
   <energy>
    <i name="e_fr_energy">   -718.27499871 </i>
    <i name="e_wo_entrp">   -718.26742715 </i>
    <i name="e_0_energy">   -718.27121293 </i>
   </energy>
  </scstep>
  <scstep>
   <time name="dav">    1.49    1.49</time>
   <time name="total">    2.02    2.02</time>
   <energy>
    <i name="e_fr_energy">   -718.27462746 </i>
    <i name="e_wo_entrp">   -718.26704217 </i>
    <i name="e_0_energy">   -718.27083482 </i>
   </energy>
  </scstep>
  <scstep>
   <time name="dav">    1.49    1.49</time>
   <time name="total">    2.03    2.03</time>
   <energy>
    <i name="e_fr_energy">   -718.27500368 </i>
    <i name="e_wo_entrp">   -718.26742730 </i>
    <i name="e_0_energy">   -718.27121549 </i>
   </energy>
  </scstep>
  <scstep>
   <time name="dav">    1.49    1.49</time>
   <time name="total">    2.01    2.01</time>
   <energy>
    <i name="e_fr_energy">   -718.27463367 </i>
    <i name="e_wo_entrp">   -718.26705292 </i>
    <i name="e_0_energy">   -718.27084329 </i>
   </energy>
  </scstep>
  <scstep>
   <time name="dav">    1.49    1.49</time>
   <time name="total">    2.01    2.01</time>
   <energy>
    <i name="e_fr_energy">   -718.27500868 </i>
    <i name="e_wo_entrp">   -718.26743244 </i>
    <i name="e_0_energy">   -718.27122056 </i>
   </energy>
  </scstep>
  <scstep>
   <time name="dav">    1.49    1.49</time>
   <time name="total">    2.03    2.03</time>
   <energy>
    <i name="e_fr_energy">   -718.27463819 </i>
    <i name="e_wo_entrp">   -718.26705973 </i>
    <i name="e_0_energy">   -718.27084896 </i>
   </energy>
  </scstep>
  <scstep>
   <time name="dav">    1.49    1.49</time>
   <time name="total">    2.02    2.02</time>
   <energy>
    <i name="e_fr_energy">   -718.27501236 </i>
    <i name="e_wo_entrp">   -718.26743712 </i>
    <i name="e_0_energy">   -718.27122474 </i>
   </energy>
  </scstep>
  <scstep>
   <time name="dav">    1.50    1.50</time>
   <time name="total">    2.03    2.03</time>
   <energy>
    <i name="e_fr_energy">   -718.27464117 </i>
    <i name="e_wo_entrp">   -718.26706339 </i>
    <i name="e_0_energy">   -718.27085228 </i>
   </energy>
  </scstep>
  <scstep>
   <time name="dav">    1.50    1.50</time>
   <time name="total">    2.02    2.02</time>
   <energy>
    <i name="e_fr_energy">   -718.27501514 </i>
    <i name="e_wo_entrp">   -718.26744100 </i>
    <i name="e_0_energy">   -718.27122807 </i>
   </energy>
  </scstep>
  <scstep>
   <time name="dav">    1.49    1.50</time>
   <time name="total">    2.02    2.03</time>
   <energy>
    <i name="e_fr_energy">   -718.27464334 </i>
    <i name="e_wo_entrp">   -718.26706650 </i>
    <i name="e_0_energy">   -718.27085492 </i>
   </energy>
  </scstep>
  <scstep>
   <time name="dav">    1.49    1.50</time>
   <time name="total">    2.02    2.03</time>
   <energy>
    <i name="e_fr_energy">   -718.27501690 </i>
    <i name="e_wo_entrp">   -718.26744296 </i>
    <i name="e_0_energy">   -718.27122993 </i>
   </energy>
  </scstep>
  <scstep>
   <time name="dav">    1.50    1.50</time>
   <time name="total">    2.03    2.03</time>
   <energy>
    <i name="e_fr_energy">   -718.27464499 </i>
    <i name="e_wo_entrp">   -718.26706848 </i>
    <i name="e_0_energy">   -718.27085674 </i>
   </energy>
  </scstep>
  <scstep>
   <time name="dav">    1.50    1.50</time>
   <time name="total">    2.04    2.04</time>
   <energy>
    <i name="e_fr_energy">   -718.27501847 </i>
    <i name="e_wo_entrp">   -718.26744517 </i>
    <i name="e_0_energy">   -718.27123182 </i>
   </energy>
  </scstep>
  <scstep>
   <time name="dav">    1.49    1.49</time>
   <time name="total">    2.02    2.02</time>
   <energy>
    <i name="e_fr_energy">   -718.27464624 </i>
    <i name="e_wo_entrp">   -718.26706970 </i>
    <i name="e_0_energy">   -718.27085797 </i>
   </energy>
  </scstep>
  <scstep>
   <time name="dav">    1.49    1.49</time>
   <time name="total">    2.01    2.01</time>
   <energy>
    <i name="e_fr_energy">   -718.27501986 </i>
    <i name="e_wo_entrp">   -718.26744675 </i>
    <i name="e_0_energy">   -718.27123331 </i>
   </energy>
  </scstep>
  <scstep>
   <time name="dav">    1.49    1.49</time>
   <time name="total">    2.02    2.02</time>
   <energy>
    <i name="e_fr_energy">   -718.27464760 </i>
    <i name="e_wo_entrp">   -718.26707184 </i>
    <i name="e_0_energy">   -718.27085972 </i>
   </energy>
  </scstep>
  <scstep>
   <time name="dav">    1.50    1.50</time>
   <time name="total">    2.02    2.02</time>
   <energy>
    <i name="e_fr_energy">   -718.27502088 </i>
    <i name="e_wo_entrp">   -718.26744804 </i>
    <i name="e_0_energy">   -718.27123446 </i>
   </energy>
  </scstep>
  <scstep>
   <time name="dav">    1.50    1.50</time>
   <time name="total">    2.03    2.03</time>
   <energy>
    <i name="e_fr_energy">   -718.27464846 </i>
    <i name="e_wo_entrp">   -718.26707271 </i>
    <i name="e_0_energy">   -718.27086058 </i>
   </energy>
  </scstep>
  <scstep>
   <time name="dav">    1.50    1.50</time>
   <time name="total">    2.02    2.02</time>
   <energy>
    <i name="e_fr_energy">   -718.27502174 </i>
    <i name="e_wo_entrp">   -718.26744942 </i>
    <i name="e_0_energy">   -718.27123558 </i>
   </energy>
  </scstep>
  <scstep>
   <time name="dav">    1.50    1.50</time>
   <time name="total">    2.01    2.01</time>
   <energy>
    <i name="e_fr_energy">   -718.27464902 </i>
    <i name="e_wo_entrp">   -718.26707373 </i>
    <i name="e_0_energy">   -718.27086137 </i>
   </energy>
  </scstep>
  <scstep>
   <time name="dav">    1.50    1.50</time>
   <time name="total">    2.02    2.02</time>
   <energy>
    <i name="e_fr_energy">   -718.27502205 </i>
    <i name="e_wo_entrp">   -718.26744953 </i>
    <i name="e_0_energy">   -718.27123579 </i>
   </energy>
  </scstep>
  <scstep>
   <time name="dav">    1.49    1.49</time>
   <time name="total">    2.02    2.02</time>
   <energy>
    <i name="e_fr_energy">   -718.27464943 </i>
    <i name="e_wo_entrp">   -718.26707413 </i>
    <i name="e_0_energy">   -718.27086178 </i>
   </energy>
  </scstep>
  <scstep>
   <time name="dav">    1.49    1.49</time>
   <time name="total">    2.03    2.03</time>
   <energy>
    <i name="e_fr_energy">   -718.27502246 </i>
    <i name="e_wo_entrp">   -718.26745025 </i>
    <i name="e_0_energy">   -718.27123635 </i>
   </energy>
  </scstep>
  <scstep>
   <time name="dav">    1.49    1.49</time>
   <time name="total">    2.02    2.02</time>
   <energy>
    <i name="e_fr_energy">   -718.27464968 </i>
    <i name="e_wo_entrp">   -718.26707414 </i>
    <i name="e_0_energy">   -718.27086191 </i>
   </energy>
  </scstep>
  <scstep>
   <time name="dav">    1.49    1.49</time>
   <time name="total">    2.01    2.01</time>
   <energy>
    <i name="e_fr_energy">   -718.27502286 </i>
    <i name="e_wo_entrp">   -718.26745061 </i>
    <i name="e_0_energy">   -718.27123673 </i>
   </energy>
  </scstep>
  <scstep>
   <time name="dav">    1.49    1.49</time>
   <time name="total">    2.01    2.01</time>
   <energy>
    <i name="e_fr_energy">   -718.27465014 </i>
    <i name="e_wo_entrp">   -718.26707515 </i>
    <i name="e_0_energy">   -718.27086264 </i>
   </energy>
  </scstep>
  <scstep>
   <time name="dav">    1.50    1.50</time>
   <time name="total">    2.03    2.03</time>
   <energy>
    <i name="e_fr_energy">   -718.27502303 </i>
    <i name="e_wo_entrp">   -718.26745082 </i>
    <i name="e_0_energy">   -718.27123693 </i>
   </energy>
  </scstep>
  <scstep>
   <time name="dav">    1.49    1.49</time>
   <time name="total">    2.03    2.03</time>
   <energy>
    <i name="e_fr_energy">   -718.27465025 </i>
    <i name="e_wo_entrp">   -718.26707508 </i>
    <i name="e_0_energy">   -718.27086267 </i>
   </energy>
  </scstep>
  <scstep>
   <time name="dav">    1.49    1.49</time>
   <time name="total">    2.02    2.02</time>
   <energy>
    <i name="e_fr_energy">   -718.27502322 </i>
    <i name="e_wo_entrp">   -718.26745129 </i>
    <i name="e_0_energy">   -718.27123726 </i>
   </energy>
  </scstep>
  <scstep>
   <time name="dav">    1.49    1.49</time>
   <time name="total">    2.02    2.02</time>
   <energy>
    <i name="e_fr_energy">   -718.27465031 </i>
    <i name="e_wo_entrp">   -718.26707545 </i>
    <i name="e_0_energy">   -718.27086288 </i>
   </energy>
  </scstep>
  <scstep>
   <time name="dav">    1.49    1.49</time>
   <time name="total">    2.02    2.02</time>
   <energy>
    <i name="e_fr_energy">   -718.27502312 </i>
    <i name="e_wo_entrp">   -718.26745084 </i>
    <i name="e_0_energy">   -718.27123698 </i>
   </energy>
  </scstep>
  <scstep>
   <time name="dav">    1.50    1.50</time>
   <time name="total">    2.03    2.03</time>
   <energy>
    <i name="e_fr_energy">   -718.27465041 </i>
    <i name="e_wo_entrp">   -718.26707547 </i>
    <i name="e_0_energy">   -718.27086294 </i>
   </energy>
  </scstep>
  <scstep>
   <time name="dav">    1.50    1.50</time>
   <time name="total">    2.04    2.04</time>
   <energy>
    <i name="e_fr_energy">   -718.27502326 </i>
    <i name="e_wo_entrp">   -718.26745120 </i>
    <i name="e_0_energy">   -718.27123723 </i>
   </energy>
  </scstep>
  <scstep>
   <time name="dav">    1.50    1.50</time>
   <time name="total">    2.02    2.02</time>
   <energy>
    <i name="e_fr_energy">   -718.27465041 </i>
    <i name="e_wo_entrp">   -718.26707522 </i>
    <i name="e_0_energy">   -718.27086281 </i>
   </energy>
  </scstep>
  <scstep>
   <time name="dav">    1.50    1.50</time>
   <time name="total">    2.01    2.01</time>
   <energy>
    <i name="e_fr_energy">   -718.27502337 </i>
    <i name="e_wo_entrp">   -718.26745138 </i>
    <i name="e_0_energy">   -718.27123738 </i>
   </energy>
  </scstep>
  <scstep>
   <time name="dav">    1.50    1.50</time>
   <time name="total">    2.02    2.02</time>
   <energy>
    <i name="e_fr_energy">   -718.27465048 </i>
    <i name="e_wo_entrp">   -718.26707541 </i>
    <i name="e_0_energy">   -718.27086295 </i>
   </energy>
  </scstep>
  <scstep>
   <time name="dav">    1.49    1.49</time>
   <time name="total">    2.03    2.03</time>
   <energy>
    <i name="e_fr_energy">   -718.27502335 </i>
    <i name="e_wo_entrp">   -718.26745149 </i>
    <i name="e_0_energy">   -718.27123742 </i>
   </energy>
  </scstep>
  <scstep>
   <time name="dav">    1.50    1.50</time>
   <time name="total">    2.04    2.04</time>
   <energy>
    <i name="e_fr_energy">   -718.27465036 </i>
    <i name="e_wo_entrp">   -718.26707499 </i>
    <i name="e_0_energy">   -718.27086267 </i>
   </energy>
  </scstep>
  <scstep>
   <time name="dav">    1.50    1.49</time>
   <time name="total">    2.03    2.03</time>
   <energy>
    <i name="e_fr_energy">   -718.27502337 </i>
    <i name="e_wo_entrp">   -718.26745172 </i>
    <i name="e_0_energy">   -718.27123754 </i>
   </energy>
  </scstep>
  <scstep>
   <time name="dav">    1.48    1.50</time>
   <time name="total">    2.01    2.02</time>
   <energy>
    <i name="e_fr_energy">   -718.27465004 </i>
    <i name="e_wo_entrp">   -718.26706622 </i>
    <i name="e_0_energy">   -718.27085813 </i>
   </energy>
  </scstep>
  <scstep>
   <time name="dav">    1.50    1.50</time>
   <time name="total">    2.02    2.02</time>
   <energy>
    <i name="e_fr_energy">   -718.27502621 </i>
    <i name="e_wo_entrp">   -718.26748438 </i>
    <i name="e_0_energy">   -718.27125530 </i>
   </energy>
  </scstep>
  <scstep>
   <time name="dav">    1.50    1.50</time>
   <time name="total">    2.02    2.02</time>
   <energy>
    <i name="e_fr_energy">   -718.27463351 </i>
    <i name="e_wo_entrp">   -718.26694701 </i>
    <i name="e_0_energy">   -718.27079026 </i>
   </energy>
  </scstep>
  <scstep>
   <time name="dav">    1.50    1.50</time>
   <time name="total">    2.04    2.04</time>
   <energy>
    <i name="e_fr_energy">   -718.27505708 </i>
    <i name="e_wo_entrp">   -718.26767453 </i>
    <i name="e_0_energy">   -718.27136580 </i>
   </energy>
  </scstep>
  <scstep>
   <time name="dav">    1.49    1.49</time>
   <time name="total">    2.01    2.01</time>
   <energy>
    <i name="e_fr_energy">   -718.27456824 </i>
    <i name="e_wo_entrp">   -718.26685497 </i>
    <i name="e_0_energy">   -718.27071160 </i>
   </energy>
  </scstep>
  <scstep>
   <time name="dav">    1.50    1.50</time>
   <time name="total">    2.01    2.01</time>
   <energy>
    <i name="e_fr_energy">   -718.27500183 </i>
    <i name="e_wo_entrp">   -718.26747500 </i>
    <i name="e_0_energy">   -718.27123841 </i>
   </energy>
  </scstep>
  <scstep>
   <time name="dav">    1.50    1.50</time>
   <time name="total">    2.02    2.02</time>
   <energy>
    <i name="e_fr_energy">   -718.27460772 </i>
    <i name="e_wo_entrp">   -718.26699563 </i>
    <i name="e_0_energy">   -718.27080167 </i>
   </energy>
  </scstep>
  <scstep>
   <time name="dav">    1.49    1.49</time>
   <time name="total">    2.02    2.02</time>
   <energy>
    <i name="e_fr_energy">   -718.27499356 </i>
    <i name="e_wo_entrp">   -718.26742316 </i>
    <i name="e_0_energy">   -718.27120836 </i>
   </energy>
  </scstep>
  <scstep>
   <time name="dav">    1.49    1.49</time>
   <time name="total">    2.03    2.03</time>
   <energy>
    <i name="e_fr_energy">   -718.27462205 </i>
    <i name="e_wo_entrp">   -718.26703373 </i>
    <i name="e_0_energy">   -718.27082789 </i>
   </energy>
  </scstep>
  <scstep>
   <time name="dav">    1.49    1.49</time>
   <time name="total">    2.01    2.02</time>
   <energy>
    <i name="e_fr_energy">   -718.27499928 </i>
    <i name="e_wo_entrp">   -718.26742232 </i>
    <i name="e_0_energy">   -718.27121080 </i>
   </energy>
  </scstep>
  <scstep>
   <time name="dav">    1.49    1.49</time>
   <time name="total">    2.01    2.01</time>
   <energy>
    <i name="e_fr_energy">   -718.27462978 </i>
    <i name="e_wo_entrp">   -718.26704807 </i>
    <i name="e_0_energy">   -718.27083893 </i>
   </energy>
  </scstep>
  <scstep>
   <time name="dav">    1.49    1.49</time>
   <time name="total">    2.01    2.01</time>
   <energy>
    <i name="e_fr_energy">   -718.27500496 </i>
    <i name="e_wo_entrp">   -718.26742771 </i>
    <i name="e_0_energy">   -718.27121633 </i>
   </energy>
  </scstep>
  <scstep>
   <time name="dav">    1.49    1.49</time>
   <time name="total">    2.01    2.01</time>
   <energy>
    <i name="e_fr_energy">   -718.27463509 </i>
    <i name="e_wo_entrp">   -718.26705563 </i>
    <i name="e_0_energy">   -718.27084536 </i>
   </energy>
  </scstep>
  <scstep>
   <time name="dav">    1.49    1.49</time>
   <time name="total">    2.03    2.03</time>
   <energy>
    <i name="e_fr_energy">   -718.27500950 </i>
    <i name="e_wo_entrp">   -718.26743354 </i>
    <i name="e_0_energy">   -718.27122152 </i>
   </energy>
  </scstep>
  <scstep>
   <time name="dav">    1.49    1.49</time>
   <time name="total">    2.02    2.02</time>
   <energy>
    <i name="e_fr_energy">   -718.27463873 </i>
    <i name="e_wo_entrp">   -718.26706014 </i>
    <i name="e_0_energy">   -718.27084944 </i>
   </energy>
  </scstep>
  <scstep>
   <time name="dav">    1.49    1.49</time>
   <time name="total">    2.01    2.01</time>
   <energy>
    <i name="e_fr_energy">   -718.27501293 </i>
    <i name="e_wo_entrp">   -718.26743785 </i>
    <i name="e_0_energy">   -718.27122539 </i>
   </energy>
  </scstep>
  <scstep>
   <time name="dav">    1.49    1.49</time>
   <time name="total">    2.02    2.02</time>
   <energy>
    <i name="e_fr_energy">   -718.27464168 </i>
    <i name="e_wo_entrp">   -718.26706427 </i>
    <i name="e_0_energy">   -718.27085298 </i>
   </energy>
  </scstep>
  <scstep>
   <time name="dav">    1.49    1.49</time>
   <time name="total">    2.02    2.02</time>
   <energy>
    <i name="e_fr_energy">   -718.27501541 </i>
    <i name="e_wo_entrp">   -718.26744109 </i>
    <i name="e_0_energy">   -718.27122825 </i>
   </energy>
  </scstep>
  <scstep>
   <time name="dav">    1.49    1.49</time>
   <time name="total">    2.03    2.03</time>
   <energy>
    <i name="e_fr_energy">   -718.27464377 </i>
    <i name="e_wo_entrp">   -718.26706665 </i>
    <i name="e_0_energy">   -718.27085521 </i>
   </energy>
  </scstep>
  <scstep>
   <time name="dav">    1.49    1.49</time>
   <time name="total">    2.17    2.17</time>
   <energy>
    <i name="alphaZ">   5490.26774318 </i>
    <i name="ewald"> -87878.92610613 </i>
    <i name="hartreedc"> -33336.53522804 </i>
    <i name="XCdc">   4156.46568117 </i>
    <i name="pawpsdc"> 118469.24834982 </i>
    <i name="pawaedc">-134531.52075742 </i>
    <i name="eentropy">     -0.00757352 </i>
    <i name="bandstr">  -5637.05398764 </i>
    <i name="atom"> 132549.78686116 </i>
    <i name="e_fr_energy">   -718.27501741 </i>
    <i name="e_wo_entrp">   -718.26744390 </i>
    <i name="e_0_energy">   -718.27123065 </i>
   </energy>
  </scstep>
  <structure>
   <crystal>
    <varray name="basis" >
     <v>       0.00000000      12.28047371       0.00000000 </v>
     <v>       9.14270115       0.00000000       0.00000000 </v>
     <v>       0.00000000      -2.76826164     -11.30069748 </v>
    </varray>
    <i name="volume">   1268.80503319 </i>
    <varray name="rec_basis" >
     <v>       0.00000000       0.08143008      -0.01994742 </v>
     <v>       0.10937687      -0.00000000       0.00000000 </v>
     <v>       0.00000000       0.00000000      -0.08849011 </v>
    </varray>
   </crystal>
   <varray name="positions" >
    <v>       0.65884056       0.00045939       0.15778758 </v>
    <v>       0.65841659       0.99989843       0.65614716 </v>
    <v>       0.65996967       0.33335903       0.15774459 </v>
    <v>       0.65961803       0.33313048       0.65517782 </v>
    <v>       0.65934327       0.66655722       0.15699559 </v>
    <v>       0.65814578       0.66553448       0.65508053 </v>
    <v>       0.84125123       0.16694992       0.34443316 </v>
    <v>       0.84095737       0.16650380       0.84304477 </v>
    <v>       0.84168057       0.49986240       0.34421202 </v>
    <v>       0.84098735       0.49997605       0.84282493 </v>
    <v>       0.84149428       0.83340375       0.34352546 </v>
    <v>       0.84078747       0.83314547       0.84286472 </v>
    <v>       0.58588069       0.16653599       0.39675053 </v>
    <v>       0.59170442       0.16651394       0.89765690 </v>
    <v>       0.58585513       0.49989885       0.39394754 </v>
    <v>       0.59163131       0.50002861       0.89714169 </v>
    <v>       0.59145536       0.83324482       0.39780013 </v>
    <v>       0.59178938       0.83333935       0.89792291 </v>
    <v>       0.90855131       0.00029434       0.10230992 </v>
    <v>       0.90974396       0.99973764       0.60296034 </v>
    <v>       0.90844308       0.33348268       0.10218006 </v>
    <v>       0.91024691       0.33322973       0.60258627 </v>
    <v>       0.90892326       0.66659842       0.10212128 </v>
    <v>       0.90979382       0.66667569       0.60279410 </v>
    <v>       0.15880331       0.16779622       0.15804215 </v>
    <v>       0.15980623       0.16665457       0.65729217 </v>
    <v>       0.15914437       0.49911039       0.15809000 </v>
    <v>       0.15978289       0.49984639       0.65727867 </v>
    <v>       0.15864219       0.83355769       0.15663436 </v>
    <v>       0.16007373       0.83327655       0.65712497 </v>
    <v>       0.33988386       0.00086929       0.34372506 </v>
    <v>       0.34196341       0.00007753       0.84389806 </v>
    <v>       0.34179269       0.33327163       0.84322077 </v>
    <v>       0.33983430       0.66690934       0.34309871 </v>
    <v>       0.34198999       0.66661023       0.84374161 </v>
    <v>       0.09088369       0.00039195       0.39804970 </v>
    <v>       0.09151473       0.00014472       0.89820984 </v>
    <v>       0.09444286       0.33325218       0.39755740 </v>
    <v>       0.09132462       0.33329215       0.89809662 </v>
    <v>       0.09103507       0.66638484       0.39797980 </v>
    <v>       0.09164385       0.66637827       0.89822604 </v>
    <v>       0.40846097       0.16713917       0.10395404 </v>
    <v>       0.40769351       0.16763468       0.59970420 </v>
    <v>       0.40897733       0.50003262       0.10369784 </v>
    <v>       0.40716608       0.49834570       0.59923729 </v>
    <v>       0.40884988       0.83346233       0.10309768 </v>
    <v>       0.40857409       0.83308495       0.60201789 </v>
    <v>       0.99603947       0.16703259       0.12691701 </v>
    <v>       0.99726173       0.16631551       0.62811785 </v>
    <v>       0.99619863       0.49977121       0.12686406 </v>
    <v>       0.99731292       0.50010550       0.62808044 </v>
    <v>       0.99603761       0.83356788       0.12667247 </v>
    <v>       0.99749535       0.83321465       0.62821250 </v>
    <v>       0.50207567       0.99704477       0.37279615 </v>
    <v>       0.50433518       0.99991256       0.87274989 </v>
    <v>       0.50435298       0.33324880       0.87300572 </v>
    <v>       0.50200291       0.66943962       0.37255411 </v>
    <v>       0.50434393       0.66672684       0.87243909 </v>
    <v>       0.67212141       0.16670121       0.28211554 </v>
    <v>       0.67249114       0.16666893       0.77979923 </v>
    <v>       0.67280891       0.50072907       0.28085191 </v>
    <v>       0.67239099       0.49969807       0.77921038 </v>
    <v>       0.67316665       0.83337754       0.28098087 </v>
    <v>       0.67210451       0.83298712       0.77973059 </v>
    <v>       0.82748456       0.00067859       0.21988498 </v>
    <v>       0.82741492       0.99986291       0.71936399 </v>
    <v>       0.82747613       0.33331962       0.21989015 </v>
    <v>       0.82755463       0.33322925       0.71885674 </v>
    <v>       0.82782470       0.66651450       0.21963343 </v>
    <v>       0.82714048       0.66611570       0.71890513 </v>
    <v>       0.83363627       0.99981133       0.44632276 </v>
    <v>       0.83167960       0.99990584       0.94555692 </v>
    <v>       0.83316237       0.33351336       0.44638933 </v>
    <v>       0.83159288       0.33335720       0.94536223 </v>
    <v>       0.83363592       0.66677407       0.44614284 </v>
    <v>       0.83168644       0.66654688       0.94543878 </v>
    <v>       0.66720015       0.16693332       0.05481976 </v>
    <v>       0.66691211       0.16603832       0.55286917 </v>
    <v>       0.66724792       0.49965576       0.05425968 </v>
    <v>       0.66573925       0.49920633       0.55115369 </v>
    <v>       0.66762919       0.83366276       0.05485445 </v>
    <v>       0.66809661       0.83306513       0.55432540 </v>
    <v>       0.49596439       0.00047683       0.12838712 </v>
    <v>       0.49527784       0.00052783       0.62591597 </v>
    <v>       0.49701599       0.33336725       0.13337044 </v>
    <v>       0.49656602       0.33326675       0.62456772 </v>
    <v>       0.49638171       0.66672060       0.12812642 </v>
    <v>       0.49492065       0.66531863       0.62526235 </v>
    <v>       0.00454997       0.16784307       0.37292214 </v>
    <v>       0.00367417       0.16664196       0.87284276 </v>
    <v>       0.00474576       0.49887756       0.37284279 </v>
    <v>       0.00371256       0.49997229       0.87277742 </v>
    <v>       0.00398343       0.83333894       0.37313652 </v>
    <v>       0.00400706       0.83320427       0.87324385 </v>
    <v>       0.17165303       0.00008136       0.28030352 </v>
    <v>       0.17350939       0.00028335       0.78127277 </v>
    <v>       0.17548293       0.33373657       0.28017340 </v>
    <v>       0.17342176       0.33326210       0.78134199 </v>
    <v>       0.17160181       0.66702809       0.28005524 </v>
    <v>       0.17354694       0.66625895       0.78123633 </v>
    <v>       0.32734489       0.16914058       0.22234088 </v>
    <v>       0.32839776       0.16681729       0.71937295 </v>
    <v>       0.32820517       0.49876232       0.22218268 </v>
    <v>       0.32831619       0.49958246       0.71922407 </v>
    <v>       0.32644846       0.83373358       0.21933852 </v>
    <v>       0.32809001       0.83326890       0.72009765 </v>
    <v>       0.33095024       0.17191022       0.44249982 </v>
    <v>       0.33396247       0.16714360       0.94661665 </v>
    <v>       0.32932301       0.49465949       0.44157009 </v>
    <v>       0.33408769       0.49960135       0.94651143 </v>
    <v>       0.32990846       0.83344023       0.44592222 </v>
    <v>       0.33294360       0.83330364       0.94618906 </v>
    <v>       0.16864609       0.00108841       0.05488710 </v>
    <v>       0.16887969       0.00025218       0.55452012 </v>
    <v>       0.16861562       0.33345032       0.05437404 </v>
    <v>       0.16853162       0.33323079       0.55507651 </v>
    <v>       0.16870160       0.66583947       0.05491216 </v>
    <v>       0.16892307       0.66629147       0.55449127 </v>
    <v>       0.49039321       0.33314739       0.36939851 </v>
    <v>       0.34586719       0.33451329       0.33958337 </v>
   </varray>
  </structure>
  <varray name="forces" >
   <v>       0.00089960      -0.00062439       0.00087491 </v>
   <v>       0.00068328       0.00004258       0.00063978 </v>
   <v>       0.00084003      -0.00041321       0.00035684 </v>
   <v>       0.00032605       0.00034438      -0.00000107 </v>
   <v>       0.00026897       0.00020982       0.00028188 </v>
   <v>      -0.00095126      -0.00029737      -0.00086409 </v>
   <v>       0.00020849      -0.00068685      -0.00003598 </v>
   <v>       0.00022863      -0.00016637      -0.00028501 </v>
   <v>      -0.00018481       0.00018631      -0.00065731 </v>
   <v>       0.00015956       0.00023502      -0.00000919 </v>
   <v>      -0.00061480       0.00006429       0.00064524 </v>
   <v>       0.00028948      -0.00011412       0.00022430 </v>
   <v>       0.00103953      -0.00137209      -0.00258718 </v>
   <v>       0.00098025       0.00061312       0.00013836 </v>
   <v>      -0.00135903      -0.00153529       0.00283876 </v>
   <v>       0.00059083       0.00067818      -0.00216179 </v>
   <v>       0.00039874      -0.00028648       0.00006175 </v>
   <v>      -0.00126686       0.00074648      -0.00048254 </v>
   <v>      -0.00030683       0.00090027      -0.00039011 </v>
   <v>      -0.00063775      -0.00004469      -0.00101157 </v>
   <v>       0.00072493      -0.00006430       0.00186485 </v>
   <v>       0.00010106      -0.00033690      -0.00053515 </v>
   <v>      -0.00049654      -0.00040460      -0.00012600 </v>
   <v>      -0.00014936       0.00017131       0.00019911 </v>
   <v>      -0.00140634       0.00133871       0.00088061 </v>
   <v>      -0.00093543       0.00102709      -0.00013354 </v>
   <v>       0.00104368      -0.00020878       0.00028889 </v>
   <v>       0.00111944       0.00001476       0.00051849 </v>
   <v>       0.00024729       0.00052777       0.00028801 </v>
   <v>      -0.00025237       0.00105950       0.00018407 </v>
   <v>      -0.00070273      -0.00041237       0.00109827 </v>
   <v>      -0.00007107      -0.00029290      -0.00044833 </v>
   <v>      -0.00026457      -0.00024485      -0.00068752 </v>
   <v>       0.00018217      -0.00142844       0.00040193 </v>
   <v>       0.00043510      -0.00004999      -0.00031751 </v>
   <v>      -0.00065031       0.00029444       0.00087756 </v>
   <v>       0.00006639       0.00053782      -0.00016760 </v>
   <v>       0.00094670      -0.00028000      -0.00022901 </v>
   <v>       0.00012477       0.00022778      -0.00027066 </v>
   <v>       0.00041465       0.00038355      -0.00105381 </v>
   <v>      -0.00029015      -0.00013397      -0.00081543 </v>
   <v>      -0.00042753      -0.00167851      -0.00142551 </v>
   <v>       0.00088211       0.00107763       0.00013451 </v>
   <v>      -0.00129925       0.00065302       0.00019865 </v>
   <v>      -0.00045845       0.00046117       0.00017658 </v>
   <v>       0.00059747      -0.00096705      -0.00023781 </v>
   <v>      -0.00022133       0.00007874       0.00046222 </v>
   <v>      -0.00083466      -0.00012109       0.00039960 </v>
   <v>       0.00103752      -0.00005762       0.00046033 </v>
   <v>       0.00015656      -0.00023556       0.00117246 </v>
   <v>      -0.00057202      -0.00028825       0.00022731 </v>
   <v>       0.00041954      -0.00068374       0.00084268 </v>
   <v>      -0.00113228      -0.00021182       0.00047894 </v>
   <v>      -0.00059409      -0.00055552      -0.00043389 </v>
   <v>       0.00076534      -0.00015756      -0.00137353 </v>
   <v>      -0.00050733       0.00013301      -0.00045319 </v>
   <v>      -0.00044183       0.00083617      -0.00175817 </v>
   <v>       0.00113727       0.00145664      -0.00266101 </v>
   <v>       0.00076909       0.00050106      -0.00014135 </v>
   <v>      -0.00023311      -0.00060874       0.00018039 </v>
   <v>       0.00048115       0.00033870      -0.00001040 </v>
   <v>       0.00028780      -0.00006341      -0.00068146 </v>
   <v>      -0.00030209      -0.00026522       0.00059373 </v>
   <v>       0.00057575      -0.00090352       0.00065182 </v>
   <v>       0.00032886       0.00004281       0.00019237 </v>
   <v>      -0.00061511      -0.00000837       0.00089215 </v>
   <v>      -0.00066572      -0.00106922      -0.00067217 </v>
   <v>      -0.00031142       0.00094613       0.00059614 </v>
   <v>       0.00008532      -0.00034972      -0.00033274 </v>
   <v>      -0.00070496      -0.00112413      -0.00068928 </v>
   <v>       0.00036048      -0.00125644       0.00016266 </v>
   <v>       0.00107285      -0.00171595       0.00134311 </v>
   <v>      -0.00042608      -0.00039092      -0.00018769 </v>
   <v>       0.00036479      -0.00020571      -0.00024541 </v>
   <v>      -0.00049808      -0.00004649       0.00017467 </v>
   <v>      -0.00141814      -0.00186874       0.00219362 </v>
   <v>       0.00016428       0.00160468       0.00163049 </v>
   <v>      -0.00158376      -0.00056764      -0.00142210 </v>
   <v>       0.00068459       0.00137009       0.00093727 </v>
   <v>       0.00029350      -0.00040516       0.00139152 </v>
   <v>       0.00041669      -0.00080554      -0.00008591 </v>
   <v>       0.00003737       0.00027010      -0.00006473 </v>
   <v>       0.00001495       0.00109459       0.00051122 </v>
   <v>      -0.00048271       0.00017189      -0.00010433 </v>
   <v>       0.00069810       0.00066377       0.00085791 </v>
   <v>      -0.00110209      -0.00028220       0.00032496 </v>
   <v>      -0.00048109      -0.00060837      -0.00028667 </v>
   <v>       0.00034829       0.00011405      -0.00081046 </v>
   <v>       0.00025545       0.00025889       0.00013573 </v>
   <v>      -0.00014314      -0.00006244       0.00036065 </v>
   <v>      -0.00027193       0.00006481      -0.00069063 </v>
   <v>       0.00054896      -0.00064458       0.00007703 </v>
   <v>       0.00051915       0.00021121      -0.00047845 </v>
   <v>      -0.00023528      -0.00055949      -0.00005655 </v>
   <v>       0.00005717      -0.00117450       0.00049608 </v>
   <v>      -0.00028970       0.00012509      -0.00009170 </v>
   <v>      -0.00049640      -0.00095744       0.00047329 </v>
   <v>       0.00051841      -0.00009623       0.00120531 </v>
   <v>      -0.00093799       0.00085368      -0.00058449 </v>
   <v>      -0.00007557       0.00043673       0.00036463 </v>
   <v>      -0.00123678      -0.00167430       0.00270335 </v>
   <v>      -0.00001819       0.00006143       0.00016863 </v>
   <v>      -0.00062472       0.00143867      -0.00161924 </v>
   <v>       0.00018476      -0.00032234      -0.00077148 </v>
   <v>      -0.00026065       0.00088816      -0.00017973 </v>
   <v>      -0.00012204       0.00008717      -0.00027106 </v>
   <v>      -0.00143488       0.00099247       0.00068538 </v>
   <v>       0.00033029      -0.00033624       0.00110735 </v>
   <v>      -0.00057639      -0.00356335       0.00007978 </v>
   <v>      -0.00042852      -0.00042407      -0.00117666 </v>
   <v>       0.00122663      -0.00021902      -0.00022927 </v>
   <v>      -0.00068986       0.00179255      -0.00133312 </v>
   <v>       0.00027108       0.00001692       0.00072094 </v>
   <v>      -0.00007822       0.00108107      -0.00028139 </v>
   <v>       0.00030535       0.00040710      -0.00055894 </v>
   <v>       0.00058594      -0.00016366      -0.00021925 </v>
   <v>      -0.00092584       0.00090232       0.00053215 </v>
   <v>       0.00045438       0.00085371      -0.00006520 </v>
   <v>      -0.00198697       0.00648697      -0.00141376 </v>
   <v>       0.00712954      -0.00127854      -0.00159214 </v>
  </varray>
  <varray name="stress" >
   <v>      54.35478509      -0.05364918      -0.22810809 </v>
   <v>      -0.05364978      45.21603988      -1.07864360 </v>
   <v>      -0.22810671      -1.07864033      46.47158422 </v>
  </varray>
  <energy>
   <i name="e_fr_energy">   -718.27501741 </i>
   <i name="e_wo_entrp">   -718.26744390 </i>
   <i name="e_0_energy">   -718.27123065 </i>
  </energy>
  <time name="totalsc"> 1064.76 1067.49</time>
  <eigenvalues>
   <array>
    <dimension dim="1">band</dimension>
    <dimension dim="2">kpoint</dimension>
    <dimension dim="3">spin</dimension>
    <field>eigene</field>
    <field>occ</field>
    <set>
     <set comment="spin 1">
      <set comment="kpoint 1">
       <r>  -15.0810    1.0000 </r>
       <r>  -14.8103    1.0000 </r>
       <r>  -14.7505    1.0000 </r>
       <r>  -14.6762    1.0000 </r>
       <r>  -14.5613    1.0000 </r>
       <r>  -14.4101    1.0000 </r>
       <r>  -14.4058    1.0000 </r>
       <r>  -14.3470    1.0000 </r>
       <r>  -14.2701    1.0000 </r>
       <r>  -14.2300    1.0000 </r>
       <r>  -14.2242    1.0000 </r>
       <r>  -14.1627    1.0000 </r>
       <r>  -14.1592    1.0000 </r>
       <r>  -14.1275    1.0000 </r>
       <r>  -14.1175    1.0000 </r>
       <r>  -14.1034    1.0000 </r>
       <r>  -14.0996    1.0000 </r>
       <r>  -14.0754    1.0000 </r>
       <r>  -13.9621    1.0000 </r>
       <r>  -13.9599    1.0000 </r>
       <r>  -13.9410    1.0000 </r>
       <r>  -13.9344    1.0000 </r>
       <r>  -13.9286    1.0000 </r>
       <r>  -13.9155    1.0000 </r>
       <r>  -13.9111    1.0000 </r>
       <r>  -13.8525    1.0000 </r>
       <r>  -13.8087    1.0000 </r>
       <r>  -13.8050    1.0000 </r>
       <r>  -13.7950    1.0000 </r>
       <r>  -13.7713    1.0000 </r>
       <r>  -13.7670    1.0000 </r>
       <r>  -13.7634    1.0000 </r>
       <r>  -13.7280    1.0000 </r>
       <r>  -13.7250    1.0000 </r>
       <r>  -13.7028    1.0000 </r>
       <r>  -13.6964    1.0000 </r>
       <r>  -13.6758    1.0000 </r>
       <r>  -13.6623    1.0000 </r>
       <r>  -13.6138    1.0000 </r>
       <r>  -13.6060    1.0000 </r>
       <r>  -13.6002    1.0000 </r>
       <r>  -13.5950    1.0000 </r>
       <r>  -13.5904    1.0000 </r>
       <r>  -13.5791    1.0000 </r>
       <r>  -13.5587    1.0000 </r>
       <r>  -13.5484    1.0000 </r>
       <r>  -13.5392    1.0000 </r>
       <r>  -13.4877    1.0000 </r>
       <r>  -13.4716    1.0000 </r>
       <r>  -13.4694    1.0000 </r>
       <r>  -13.4588    1.0000 </r>
       <r>  -13.4284    1.0000 </r>
       <r>  -13.4173    1.0000 </r>
       <r>  -13.3563    1.0000 </r>
       <r>  -13.3467    1.0000 </r>
       <r>  -13.3440    1.0000 </r>
       <r>  -13.3426    1.0000 </r>
       <r>  -13.3412    1.0000 </r>
       <r>  -13.3401    1.0000 </r>
       <r>  -13.3365    1.0000 </r>
       <r>  -13.3328    1.0000 </r>
       <r>  -13.3317    1.0000 </r>
       <r>  -13.3269    1.0000 </r>
       <r>  -13.3228    1.0000 </r>
       <r>  -13.3173    1.0000 </r>
       <r>  -13.2996    1.0000 </r>
       <r>  -13.2931    1.0000 </r>
       <r>  -13.2832    1.0000 </r>
       <r>  -13.2477    1.0000 </r>
       <r>  -13.1844    1.0000 </r>
       <r>  -13.1831    1.0000 </r>
       <r>  -10.3279    1.0000 </r>
       <r>   -9.1416    1.0000 </r>
       <r>   -9.1407    1.0000 </r>
       <r>   -9.1278    1.0000 </r>
       <r>   -9.1167    1.0000 </r>
       <r>   -9.1053    1.0000 </r>
       <r>   -9.1028    1.0000 </r>
       <r>   -9.1001    1.0000 </r>
       <r>   -9.0990    1.0000 </r>
       <r>   -9.0939    1.0000 </r>
       <r>   -9.0834    1.0000 </r>
       <r>   -9.0723    1.0000 </r>
       <r>   -9.0690    1.0000 </r>
       <r>   -9.0683    1.0000 </r>
       <r>   -9.0434    1.0000 </r>
       <r>   -9.0387    1.0000 </r>
       <r>   -9.0350    1.0000 </r>
       <r>   -9.0320    1.0000 </r>
       <r>   -9.0270    1.0000 </r>
       <r>   -9.0240    1.0000 </r>
       <r>   -9.0196    1.0000 </r>
       <r>   -9.0171    1.0000 </r>
       <r>   -9.0167    1.0000 </r>
       <r>   -9.0128    1.0000 </r>
       <r>   -9.0098    1.0000 </r>
       <r>   -9.0071    1.0000 </r>
       <r>   -9.0064    1.0000 </r>
       <r>   -9.0029    1.0000 </r>
       <r>   -9.0021    1.0000 </r>
       <r>   -9.0003    1.0000 </r>
       <r>   -8.9942    1.0000 </r>
       <r>   -8.9931    1.0000 </r>
       <r>   -8.9888    1.0000 </r>
       <r>   -8.9870    1.0000 </r>
       <r>   -8.9845    1.0000 </r>
       <r>   -8.9819    1.0000 </r>
       <r>   -8.9799    1.0000 </r>
       <r>   -8.9709    1.0000 </r>
       <r>   -8.9696    1.0000 </r>
       <r>   -8.9674    1.0000 </r>
       <r>   -8.9617    1.0000 </r>
       <r>   -8.9610    1.0000 </r>
       <r>   -8.9566    1.0000 </r>
       <r>   -8.9563    1.0000 </r>
       <r>   -8.9514    1.0000 </r>
       <r>   -8.9490    1.0000 </r>
       <r>   -8.9477    1.0000 </r>
       <r>   -8.9451    1.0000 </r>
       <r>   -8.9418    1.0000 </r>
       <r>   -8.9392    1.0000 </r>
       <r>   -8.9366    1.0000 </r>
       <r>   -8.9349    1.0000 </r>
       <r>   -8.9259    1.0000 </r>
       <r>   -8.9247    1.0000 </r>
       <r>   -8.9231    1.0000 </r>
       <r>   -8.9201    1.0000 </r>
       <r>   -8.9191    1.0000 </r>
       <r>   -8.9158    1.0000 </r>
       <r>   -8.9144    1.0000 </r>
       <r>   -8.9136    1.0000 </r>
       <r>   -8.9113    1.0000 </r>
       <r>   -8.9094    1.0000 </r>
       <r>   -8.9090    1.0000 </r>
       <r>   -8.9005    1.0000 </r>
       <r>   -8.8995    1.0000 </r>
       <r>   -8.8964    1.0000 </r>
       <r>   -8.8959    1.0000 </r>
       <r>   -8.8924    1.0000 </r>
       <r>   -8.8922    1.0000 </r>
       <r>   -8.8885    1.0000 </r>
       <r>   -8.8875    1.0000 </r>
       <r>   -8.8859    1.0000 </r>
       <r>   -8.8836    1.0000 </r>
       <r>   -8.8812    1.0000 </r>
       <r>   -8.8792    1.0000 </r>
       <r>   -8.8783    1.0000 </r>
       <r>   -8.8759    1.0000 </r>
       <r>   -8.8755    1.0000 </r>
       <r>   -8.8736    1.0000 </r>
       <r>   -8.8719    1.0000 </r>
       <r>   -8.8713    1.0000 </r>
       <r>   -8.8666    1.0000 </r>
       <r>   -8.8647    1.0000 </r>
       <r>   -8.8634    1.0000 </r>
       <r>   -8.8629    1.0000 </r>
       <r>   -8.8608    1.0000 </r>
       <r>   -8.8586    1.0000 </r>
       <r>   -8.8566    1.0000 </r>
       <r>   -8.8549    1.0000 </r>
       <r>   -8.8515    1.0000 </r>
       <r>   -8.8486    1.0000 </r>
       <r>   -8.8474    1.0000 </r>
       <r>   -8.8455    1.0000 </r>
       <r>   -8.8444    1.0000 </r>
       <r>   -8.8440    1.0000 </r>
       <r>   -8.8411    1.0000 </r>
       <r>   -8.8396    1.0000 </r>
       <r>   -8.8391    1.0000 </r>
       <r>   -8.8350    1.0000 </r>
       <r>   -8.8320    1.0000 </r>
       <r>   -8.8283    1.0000 </r>
       <r>   -8.8267    1.0000 </r>
       <r>   -8.8254    1.0000 </r>
       <r>   -8.8232    1.0000 </r>
       <r>   -8.8179    1.0000 </r>
       <r>   -8.8164    1.0000 </r>
       <r>   -8.8086    1.0000 </r>
       <r>   -8.8076    1.0000 </r>
       <r>   -8.8072    1.0000 </r>
       <r>   -8.8024    1.0000 </r>
       <r>   -8.7969    1.0000 </r>
       <r>   -8.7966    1.0000 </r>
       <r>   -8.7911    1.0000 </r>
       <r>   -8.7849    1.0000 </r>
       <r>   -8.7833    1.0000 </r>
       <r>   -8.7801    1.0000 </r>
       <r>   -8.7760    1.0000 </r>
       <r>   -8.7666    1.0000 </r>
       <r>   -8.7647    1.0000 </r>
       <r>   -8.7643    1.0000 </r>
       <r>   -8.7625    1.0000 </r>
       <r>   -8.7598    1.0000 </r>
       <r>   -8.7583    1.0000 </r>
       <r>   -8.7546    1.0000 </r>
       <r>   -8.7538    1.0000 </r>
       <r>   -8.7473    1.0000 </r>
       <r>   -8.7361    1.0000 </r>
       <r>   -8.7263    1.0000 </r>
       <r>   -8.7262    1.0000 </r>
       <r>   -8.7238    1.0000 </r>
       <r>   -8.7233    1.0000 </r>
       <r>   -8.7187    1.0000 </r>
       <r>   -8.7157    1.0000 </r>
       <r>   -8.7121    1.0000 </r>
       <r>   -8.7088    1.0000 </r>
       <r>   -8.7059    1.0000 </r>
       <r>   -8.7054    1.0000 </r>
       <r>   -8.6971    1.0000 </r>
       <r>   -8.6958    1.0000 </r>
       <r>   -8.6947    1.0000 </r>
       <r>   -8.6934    1.0000 </r>
       <r>   -8.6926    1.0000 </r>
       <r>   -8.6888    1.0000 </r>
       <r>   -8.6860    1.0000 </r>
       <r>   -8.6843    1.0000 </r>
       <r>   -8.6792    1.0000 </r>
       <r>   -8.6784    1.0000 </r>
       <r>   -8.6754    1.0000 </r>
       <r>   -8.6746    1.0000 </r>
       <r>   -8.6661    1.0000 </r>
       <r>   -8.6632    1.0000 </r>
       <r>   -8.6626    1.0000 </r>
       <r>   -8.6575    1.0000 </r>
       <r>   -8.6565    1.0000 </r>
       <r>   -8.6552    1.0000 </r>
       <r>   -8.6529    1.0000 </r>
       <r>   -8.6512    1.0000 </r>
       <r>   -8.6505    1.0000 </r>
       <r>   -8.6495    1.0000 </r>
       <r>   -8.6456    1.0000 </r>
       <r>   -8.6442    1.0000 </r>
       <r>   -8.6425    1.0000 </r>
       <r>   -8.6407    1.0000 </r>
       <r>   -8.6375    1.0000 </r>
       <r>   -8.6363    1.0000 </r>
       <r>   -8.6346    1.0000 </r>
       <r>   -8.6329    1.0000 </r>
       <r>   -8.6268    1.0000 </r>
       <r>   -8.6260    1.0000 </r>
       <r>   -8.6232    1.0000 </r>
       <r>   -8.6230    1.0000 </r>
       <r>   -8.6206    1.0000 </r>
       <r>   -8.6203    1.0000 </r>
       <r>   -8.6124    1.0000 </r>
       <r>   -8.6105    1.0000 </r>
       <r>   -8.6067    1.0000 </r>
       <r>   -8.6035    1.0000 </r>
       <r>   -8.6028    1.0000 </r>
       <r>   -8.6003    1.0000 </r>
       <r>   -8.5983    1.0000 </r>
       <r>   -8.5969    1.0000 </r>
       <r>   -8.5956    1.0000 </r>
       <r>   -8.5937    1.0000 </r>
       <r>   -8.5861    1.0000 </r>
       <r>   -8.5860    1.0000 </r>
       <r>   -8.5855    1.0000 </r>
       <r>   -8.5852    1.0000 </r>
       <r>   -8.5805    1.0000 </r>
       <r>   -8.5756    1.0000 </r>
       <r>   -8.5640    1.0000 </r>
       <r>   -8.5502    1.0000 </r>
       <r>   -8.5438    1.0000 </r>
       <r>   -8.5355    1.0000 </r>
       <r>   -8.5309    1.0000 </r>
       <r>   -8.5178    1.0000 </r>
       <r>   -8.5039    1.0000 </r>
       <r>   -8.4845    1.0000 </r>
       <r>   -8.4822    1.0000 </r>
       <r>   -8.4423    1.0000 </r>
       <r>   -8.4386    1.0000 </r>
       <r>   -8.4146    1.0000 </r>
       <r>   -8.3941    1.0000 </r>
       <r>   -8.3654    1.0000 </r>
       <r>   -8.3639    1.0000 </r>
       <r>   -8.3438    1.0000 </r>
       <r>   -8.3383    1.0000 </r>
       <r>   -8.3372    1.0000 </r>
       <r>   -8.3337    1.0000 </r>
       <r>   -8.3277    1.0000 </r>
       <r>   -8.3147    1.0000 </r>
       <r>   -8.2793    1.0000 </r>
       <r>   -8.2754    1.0000 </r>
       <r>   -8.2627    1.0000 </r>
       <r>   -8.2259    1.0000 </r>
       <r>   -8.1848    1.0000 </r>
       <r>   -8.1111    1.0000 </r>
       <r>   -8.0972    1.0000 </r>
       <r>   -8.0847    1.0000 </r>
       <r>   -8.0692    1.0000 </r>
       <r>   -8.0616    1.0000 </r>
       <r>   -8.0516    1.0000 </r>
       <r>   -8.0456    1.0000 </r>
       <r>   -8.0410    1.0000 </r>
       <r>   -8.0368    1.0000 </r>
       <r>   -8.0317    1.0000 </r>
       <r>   -7.9998    1.0000 </r>
       <r>   -7.9834    1.0000 </r>
       <r>   -7.9700    1.0000 </r>
       <r>   -7.9653    1.0000 </r>
       <r>   -7.9516    1.0000 </r>
       <r>   -7.9452    1.0000 </r>
       <r>   -7.9044    1.0000 </r>
       <r>   -7.8881    1.0000 </r>
       <r>   -7.8853    1.0000 </r>
       <r>   -7.7664    1.0000 </r>
       <r>   -7.6995    1.0000 </r>
       <r>   -3.2147    1.0000 </r>
       <r>   -3.1910    1.0000 </r>
       <r>   -2.9464    1.0000 </r>
       <r>   -2.9256    1.0000 </r>
       <r>   -2.6088    1.0000 </r>
       <r>   -2.6031    1.0000 </r>
       <r>   -2.5727    1.0000 </r>
       <r>   -2.5484    1.0000 </r>
       <r>   -2.4974    1.0000 </r>
       <r>   -2.4930    1.0000 </r>
       <r>   -2.4182    1.0000 </r>
       <r>   -2.3733    1.0000 </r>
       <r>   -2.3688    1.0000 </r>
       <r>   -2.3414    1.0000 </r>
       <r>   -2.3362    1.0000 </r>
       <r>   -2.3148    1.0000 </r>
       <r>   -2.2747    1.0000 </r>
       <r>   -2.2455    1.0000 </r>
       <r>   -2.1631    1.0000 </r>
       <r>   -2.1250    1.0000 </r>
       <r>   -2.0304    1.0000 </r>
       <r>   -1.9698    1.0000 </r>
       <r>   -1.9186    1.0000 </r>
       <r>   -1.9095    1.0000 </r>
       <r>   -1.8815    1.0000 </r>
       <r>   -1.8770    1.0000 </r>
       <r>   -1.7970    1.0000 </r>
       <r>   -1.7602    1.0000 </r>
       <r>   -1.7461    1.0000 </r>
       <r>   -1.6725    1.0000 </r>
       <r>   -1.6663    1.0000 </r>
       <r>   -1.6338    1.0000 </r>
       <r>   -1.6137    1.0000 </r>
       <r>   -1.4848    1.0000 </r>
       <r>   -1.3812    1.0000 </r>
       <r>   -1.3519    1.0000 </r>
       <r>   -1.3212    1.0000 </r>
       <r>   -1.3058    1.0000 </r>
       <r>   -1.2998    1.0000 </r>
       <r>   -1.2674    1.0000 </r>
       <r>   -1.2553    1.0000 </r>
       <r>   -1.1352    1.0000 </r>
       <r>   -1.0516    1.0000 </r>
       <r>   -0.9383    1.0000 </r>
       <r>   -0.8843    1.0000 </r>
       <r>   -0.8564    1.0000 </r>
       <r>   -0.7621    1.0000 </r>
       <r>   -0.7103    1.0000 </r>
       <r>   -0.6562    1.0000 </r>
       <r>   -0.6368    1.0000 </r>
       <r>   -0.6250    1.0000 </r>
       <r>   -0.5507    1.0000 </r>
       <r>   -0.5375    1.0000 </r>
       <r>   -0.5137    1.0000 </r>
       <r>   -0.5024    1.0000 </r>
       <r>   -0.4850    1.0000 </r>
       <r>   -0.4656    1.0000 </r>
       <r>   -0.3903    1.0000 </r>
       <r>   -0.3060    1.0000 </r>
       <r>   -0.2739    1.0000 </r>
       <r>   -0.2134    1.0000 </r>
       <r>   -0.1264    1.0000 </r>
       <r>   -0.1221    1.0000 </r>
       <r>   -0.1138    1.0000 </r>
       <r>   -0.1006    1.0000 </r>
       <r>   -0.0625    1.0000 </r>
       <r>   -0.0239    1.0000 </r>
       <r>    0.0274    1.0000 </r>
       <r>    0.0960    1.0000 </r>
       <r>    0.1290    1.0000 </r>
       <r>    0.1471    1.0000 </r>
       <r>    0.1745    1.0000 </r>
       <r>    0.1924    1.0000 </r>
       <r>    0.2159    1.0000 </r>
       <r>    0.2225    1.0000 </r>
       <r>    0.2957    1.0000 </r>
       <r>    0.3127    1.0000 </r>
       <r>    0.3229    1.0000 </r>
       <r>    0.3675    1.0000 </r>
       <r>    0.3823    1.0000 </r>
       <r>    0.4643    1.0000 </r>
       <r>    0.5681    1.0000 </r>
       <r>    0.5704    1.0000 </r>
       <r>    0.6016    1.0000 </r>
       <r>    0.6627    1.0000 </r>
       <r>    0.6812    1.0000 </r>
       <r>    0.6883    1.0000 </r>
       <r>    0.7006    1.0000 </r>
       <r>    0.7482    1.0000 </r>
       <r>    0.8034    1.0000 </r>
       <r>    0.8362    1.0000 </r>
       <r>    0.8389    1.0000 </r>
       <r>    0.8744    1.0000 </r>
       <r>    0.8901    1.0000 </r>
       <r>    0.9586    1.0000 </r>
       <r>    0.9864    1.0000 </r>
       <r>    1.0645    1.0000 </r>
       <r>    1.1002    1.0000 </r>
       <r>    1.1178    1.0000 </r>
       <r>    1.1234    1.0000 </r>
       <r>    1.1391    1.0000 </r>
       <r>    1.1552    1.0000 </r>
       <r>    1.1716    1.0000 </r>
       <r>    1.1931    1.0000 </r>
       <r>    1.2017    1.0000 </r>
       <r>    1.2260    1.0000 </r>
       <r>    1.2419    1.0000 </r>
       <r>    1.2908    1.0000 </r>
       <r>    1.2940    1.0000 </r>
       <r>    1.3367    1.0000 </r>
       <r>    1.3633    1.0000 </r>
       <r>    1.3849    1.0000 </r>
       <r>    1.3974    1.0000 </r>
       <r>    1.4102    1.0000 </r>
       <r>    1.4262    1.0000 </r>
       <r>    1.4319    1.0000 </r>
       <r>    1.4529    1.0000 </r>
       <r>    1.4960    1.0000 </r>
       <r>    1.5220    1.0000 </r>
       <r>    1.5479    1.0000 </r>
       <r>    1.5597    1.0000 </r>
       <r>    1.5781    1.0000 </r>
       <r>    1.5847    1.0000 </r>
       <r>    1.5975    1.0000 </r>
       <r>    1.6111    1.0000 </r>
       <r>    1.6226    1.0000 </r>
       <r>    1.6644    1.0000 </r>
       <r>    1.6786    1.0000 </r>
       <r>    1.7257    1.0000 </r>
       <r>    1.7478    1.0000 </r>
       <r>    1.7580    1.0000 </r>
       <r>    1.7931    1.0000 </r>
       <r>    1.8396    1.0000 </r>
       <r>    1.8577    1.0000 </r>
       <r>    1.9257    1.0000 </r>
       <r>    1.9392    1.0000 </r>
       <r>    1.9432    1.0000 </r>
       <r>    2.0198    1.0000 </r>
       <r>    2.0406    1.0000 </r>
       <r>    2.0734    1.0000 </r>
       <r>    2.1421    1.0000 </r>
       <r>    2.2203    1.0000 </r>
       <r>    2.2312    1.0000 </r>
       <r>    2.2584    1.0000 </r>
       <r>    2.2667    1.0000 </r>
       <r>    2.2759    1.0000 </r>
       <r>    2.2899    1.0000 </r>
       <r>    2.3348    1.0000 </r>
       <r>    2.3493    1.0000 </r>
       <r>    2.3605    1.0000 </r>
       <r>    2.3781    1.0000 </r>
       <r>    2.4142    1.0000 </r>
       <r>    2.4746    1.0000 </r>
       <r>    2.5167    1.0000 </r>
       <r>    2.5203    1.0000 </r>
       <r>    2.5207    1.0000 </r>
       <r>    2.5291    1.0000 </r>
       <r>    2.5386    1.0000 </r>
       <r>    2.5510    1.0000 </r>
       <r>    2.5564    1.0000 </r>
       <r>    2.5650    1.0000 </r>
       <r>    2.5829    1.0000 </r>
       <r>    2.5898    1.0000 </r>
       <r>    2.6062    1.0000 </r>
       <r>    2.6088    1.0000 </r>
       <r>    2.6246    1.0000 </r>
       <r>    2.6265    1.0000 </r>
       <r>    2.6648    1.0000 </r>
       <r>    2.6985    1.0000 </r>
       <r>    2.7376    1.0000 </r>
       <r>    2.8104    1.0000 </r>
       <r>    2.8260    1.0000 </r>
       <r>    2.8429    1.0000 </r>
       <r>    2.8638    1.0000 </r>
       <r>    2.8803    1.0000 </r>
       <r>    2.9073    1.0000 </r>
       <r>    2.9213    1.0000 </r>
       <r>    2.9281    1.0000 </r>
       <r>    2.9371    1.0000 </r>
       <r>    2.9411    1.0000 </r>
       <r>    2.9570    1.0000 </r>
       <r>    3.0094    1.0000 </r>
       <r>    3.0380    1.0000 </r>
       <r>    3.0450    1.0000 </r>
       <r>    3.0545    1.0000 </r>
       <r>    3.0620    1.0000 </r>
       <r>    3.0731    1.0000 </r>
       <r>    3.0796    1.0000 </r>
       <r>    3.0820    1.0000 </r>
       <r>    3.0890    1.0000 </r>
       <r>    3.0990    1.0000 </r>
       <r>    3.1135    1.0000 </r>
       <r>    3.1310    1.0000 </r>
       <r>    3.1426    1.0000 </r>
       <r>    3.1746    1.0000 </r>
       <r>    3.1877    1.0000 </r>
       <r>    3.2412    1.0000 </r>
       <r>    3.2566    1.0000 </r>
       <r>    3.2616    1.0000 </r>
       <r>    3.2654    1.0000 </r>
       <r>    3.3025    1.0000 </r>
       <r>    3.3065    1.0000 </r>
       <r>    3.3448    1.0000 </r>
       <r>    3.3695    1.0000 </r>
       <r>    3.3878    1.0000 </r>
       <r>    3.4143    1.0000 </r>
       <r>    3.4313    1.0000 </r>
       <r>    3.4596    1.0000 </r>
       <r>    3.4787    1.0000 </r>
       <r>    3.5938    1.0000 </r>
       <r>    3.6611    1.0000 </r>
       <r>    3.6713    1.0000 </r>
       <r>    3.6911    1.0000 </r>
       <r>    3.6928    1.0000 </r>
       <r>    3.7303    1.0000 </r>
       <r>    3.8099    1.0000 </r>
       <r>    4.9507    1.0000 </r>
       <r>    5.3302    0.9606 </r>
       <r>    5.4687    0.0154 </r>
       <r>    6.0866    0.0000 </r>
       <r>    6.8893    0.0000 </r>
       <r>    7.2064    0.0000 </r>
       <r>    8.2310    0.0000 </r>
       <r>    8.4384    0.0000 </r>
       <r>    8.5425    0.0000 </r>
       <r>    8.5613    0.0000 </r>
       <r>    8.8544    0.0000 </r>
       <r>    8.9768    0.0000 </r>
       <r>    9.3342    0.0000 </r>
       <r>    9.3557    0.0000 </r>
       <r>    9.3752    0.0000 </r>
       <r>    9.4924    0.0000 </r>
       <r>    9.4965    0.0000 </r>
       <r>    9.5480    0.0000 </r>
       <r>    9.6460    0.0000 </r>
       <r>    9.6587    0.0000 </r>
       <r>    9.8345    0.0000 </r>
       <r>    9.8422    0.0000 </r>
       <r>    9.8664    0.0000 </r>
       <r>    9.8679    0.0000 </r>
       <r>    9.8910    0.0000 </r>
       <r>    9.9193    0.0000 </r>
       <r>    9.9546    0.0000 </r>
       <r>   10.0157    0.0000 </r>
       <r>   10.0908    0.0000 </r>
       <r>   10.1512    0.0000 </r>
       <r>   10.2416    0.0000 </r>
       <r>   10.3630    0.0000 </r>
       <r>   10.3787    0.0000 </r>
       <r>   10.3841    0.0000 </r>
       <r>   10.3998    0.0000 </r>
       <r>   10.4504    0.0000 </r>
       <r>   10.4717    0.0000 </r>
       <r>   10.6012    0.0000 </r>
       <r>   10.6347    0.0000 </r>
       <r>   10.7921    0.0000 </r>
       <r>   10.8349    0.0000 </r>
       <r>   10.9365    0.0000 </r>
       <r>   11.0446    0.0000 </r>
       <r>   11.0881    0.0000 </r>
       <r>   11.1248    0.0000 </r>
       <r>   11.1433    0.0000 </r>
       <r>   11.1991    0.0000 </r>
       <r>   11.2180    0.0000 </r>
       <r>   11.2209    0.0000 </r>
       <r>   11.3176    0.0000 </r>
       <r>   11.4512    0.0000 </r>
       <r>   11.5370    0.0000 </r>
       <r>   11.6064    0.0000 </r>
       <r>   11.6400    0.0000 </r>
       <r>   11.7226    0.0000 </r>
       <r>   11.7808    0.0000 </r>
       <r>   11.8161    0.0000 </r>
       <r>   11.8727    0.0000 </r>
       <r>   12.0243    0.0000 </r>
       <r>   12.3984    0.0000 </r>
       <r>   12.4097    0.0000 </r>
       <r>   12.4310    0.0000 </r>
       <r>   12.4408    0.0000 </r>
       <r>   12.4802    0.0000 </r>
       <r>   12.5609    0.0000 </r>
       <r>   12.5903    0.0000 </r>
       <r>   12.6690    0.0000 </r>
       <r>   12.6825    0.0000 </r>
       <r>   12.7734    0.0000 </r>
       <r>   12.7878    0.0000 </r>
       <r>   12.8515    0.0000 </r>
       <r>   12.8717    0.0000 </r>
       <r>   12.8759    0.0000 </r>
       <r>   12.9629    0.0000 </r>
       <r>   12.9893    0.0000 </r>
       <r>   13.0501    0.0000 </r>
       <r>   13.0724    0.0000 </r>
       <r>   13.1035    0.0000 </r>
       <r>   13.1571    0.0000 </r>
       <r>   13.1720    0.0000 </r>
       <r>   13.1861    0.0000 </r>
       <r>   13.2469    0.0000 </r>
       <r>   13.2563    0.0000 </r>
       <r>   13.2688    0.0000 </r>
       <r>   13.3086    0.0000 </r>
       <r>   13.3691    0.0000 </r>
       <r>   13.4490    0.0000 </r>
       <r>   13.5108    0.0000 </r>
       <r>   13.5577    0.0000 </r>
       <r>   13.6029    0.0000 </r>
       <r>   13.6082    0.0000 </r>
       <r>   13.6151    0.0000 </r>
       <r>   13.6358    0.0000 </r>
       <r>   13.6458    0.0000 </r>
       <r>   13.6842    0.0000 </r>
       <r>   13.7587    0.0000 </r>
       <r>   13.7890    0.0000 </r>
       <r>   13.8779    0.0000 </r>
       <r>   13.9071    0.0000 </r>
       <r>   13.9873    0.0000 </r>
       <r>   14.1116    0.0000 </r>
       <r>   14.1595    0.0000 </r>
       <r>   14.4158    0.0000 </r>
       <r>   14.4408    0.0000 </r>
       <r>   14.5556    0.0000 </r>
       <r>   14.6001    0.0000 </r>
       <r>   14.7146    0.0000 </r>
      </set>
      <set comment="kpoint 2">
       <r>  -14.9803    1.0000 </r>
       <r>  -14.9659    1.0000 </r>
       <r>  -14.7647    1.0000 </r>
       <r>  -14.7436    1.0000 </r>
       <r>  -14.3439    1.0000 </r>
       <r>  -14.3340    1.0000 </r>
       <r>  -14.3291    1.0000 </r>
       <r>  -14.3272    1.0000 </r>
       <r>  -14.2964    1.0000 </r>
       <r>  -14.2801    1.0000 </r>
       <r>  -14.2396    1.0000 </r>
       <r>  -14.2252    1.0000 </r>
       <r>  -14.1966    1.0000 </r>
       <r>  -14.1881    1.0000 </r>
       <r>  -14.1758    1.0000 </r>
       <r>  -14.1433    1.0000 </r>
       <r>  -14.0688    1.0000 </r>
       <r>  -14.0573    1.0000 </r>
       <r>  -13.9435    1.0000 </r>
       <r>  -13.9393    1.0000 </r>
       <r>  -13.9249    1.0000 </r>
       <r>  -13.9161    1.0000 </r>
       <r>  -13.9117    1.0000 </r>
       <r>  -13.9055    1.0000 </r>
       <r>  -13.8961    1.0000 </r>
       <r>  -13.8957    1.0000 </r>
       <r>  -13.8871    1.0000 </r>
       <r>  -13.8257    1.0000 </r>
       <r>  -13.7857    1.0000 </r>
       <r>  -13.7816    1.0000 </r>
       <r>  -13.7734    1.0000 </r>
       <r>  -13.7681    1.0000 </r>
       <r>  -13.7086    1.0000 </r>
       <r>  -13.7036    1.0000 </r>
       <r>  -13.6985    1.0000 </r>
       <r>  -13.6853    1.0000 </r>
       <r>  -13.6724    1.0000 </r>
       <r>  -13.6246    1.0000 </r>
       <r>  -13.6116    1.0000 </r>
       <r>  -13.6005    1.0000 </r>
       <r>  -13.5907    1.0000 </r>
       <r>  -13.5876    1.0000 </r>
       <r>  -13.5812    1.0000 </r>
       <r>  -13.5800    1.0000 </r>
       <r>  -13.5648    1.0000 </r>
       <r>  -13.5429    1.0000 </r>
       <r>  -13.5380    1.0000 </r>
       <r>  -13.4994    1.0000 </r>
       <r>  -13.4842    1.0000 </r>
       <r>  -13.4650    1.0000 </r>
       <r>  -13.4527    1.0000 </r>
       <r>  -13.4430    1.0000 </r>
       <r>  -13.4423    1.0000 </r>
       <r>  -13.3592    1.0000 </r>
       <r>  -13.3486    1.0000 </r>
       <r>  -13.3444    1.0000 </r>
       <r>  -13.3443    1.0000 </r>
       <r>  -13.3382    1.0000 </r>
       <r>  -13.3366    1.0000 </r>
       <r>  -13.3328    1.0000 </r>
       <r>  -13.3318    1.0000 </r>
       <r>  -13.3288    1.0000 </r>
       <r>  -13.3273    1.0000 </r>
       <r>  -13.3238    1.0000 </r>
       <r>  -13.3207    1.0000 </r>
       <r>  -13.2984    1.0000 </r>
       <r>  -13.2882    1.0000 </r>
       <r>  -13.2803    1.0000 </r>
       <r>  -13.2444    1.0000 </r>
       <r>  -13.1877    1.0000 </r>
       <r>  -13.1844    1.0000 </r>
       <r>  -10.3279    1.0000 </r>
       <r>   -9.1415    1.0000 </r>
       <r>   -9.1382    1.0000 </r>
       <r>   -9.1287    1.0000 </r>
       <r>   -9.1164    1.0000 </r>
       <r>   -9.1041    1.0000 </r>
       <r>   -9.1010    1.0000 </r>
       <r>   -9.0997    1.0000 </r>
       <r>   -9.0941    1.0000 </r>
       <r>   -9.0934    1.0000 </r>
       <r>   -9.0820    1.0000 </r>
       <r>   -9.0716    1.0000 </r>
       <r>   -9.0703    1.0000 </r>
       <r>   -9.0683    1.0000 </r>
       <r>   -9.0438    1.0000 </r>
       <r>   -9.0383    1.0000 </r>
       <r>   -9.0372    1.0000 </r>
       <r>   -9.0334    1.0000 </r>
       <r>   -9.0296    1.0000 </r>
       <r>   -9.0270    1.0000 </r>
       <r>   -9.0250    1.0000 </r>
       <r>   -9.0236    1.0000 </r>
       <r>   -9.0174    1.0000 </r>
       <r>   -9.0157    1.0000 </r>
       <r>   -9.0132    1.0000 </r>
       <r>   -9.0062    1.0000 </r>
       <r>   -9.0039    1.0000 </r>
       <r>   -9.0036    1.0000 </r>
       <r>   -8.9970    1.0000 </r>
       <r>   -8.9949    1.0000 </r>
       <r>   -8.9932    1.0000 </r>
       <r>   -8.9911    1.0000 </r>
       <r>   -8.9895    1.0000 </r>
       <r>   -8.9880    1.0000 </r>
       <r>   -8.9851    1.0000 </r>
       <r>   -8.9828    1.0000 </r>
       <r>   -8.9790    1.0000 </r>
       <r>   -8.9646    1.0000 </r>
       <r>   -8.9640    1.0000 </r>
       <r>   -8.9608    1.0000 </r>
       <r>   -8.9595    1.0000 </r>
       <r>   -8.9589    1.0000 </r>
       <r>   -8.9576    1.0000 </r>
       <r>   -8.9557    1.0000 </r>
       <r>   -8.9543    1.0000 </r>
       <r>   -8.9521    1.0000 </r>
       <r>   -8.9482    1.0000 </r>
       <r>   -8.9449    1.0000 </r>
       <r>   -8.9438    1.0000 </r>
       <r>   -8.9405    1.0000 </r>
       <r>   -8.9355    1.0000 </r>
       <r>   -8.9311    1.0000 </r>
       <r>   -8.9278    1.0000 </r>
       <r>   -8.9270    1.0000 </r>
       <r>   -8.9244    1.0000 </r>
       <r>   -8.9232    1.0000 </r>
       <r>   -8.9211    1.0000 </r>
       <r>   -8.9164    1.0000 </r>
       <r>   -8.9129    1.0000 </r>
       <r>   -8.9118    1.0000 </r>
       <r>   -8.9089    1.0000 </r>
       <r>   -8.9062    1.0000 </r>
       <r>   -8.8998    1.0000 </r>
       <r>   -8.8977    1.0000 </r>
       <r>   -8.8960    1.0000 </r>
       <r>   -8.8951    1.0000 </r>
       <r>   -8.8947    1.0000 </r>
       <r>   -8.8941    1.0000 </r>
       <r>   -8.8920    1.0000 </r>
       <r>   -8.8907    1.0000 </r>
       <r>   -8.8870    1.0000 </r>
       <r>   -8.8850    1.0000 </r>
       <r>   -8.8837    1.0000 </r>
       <r>   -8.8830    1.0000 </r>
       <r>   -8.8811    1.0000 </r>
       <r>   -8.8798    1.0000 </r>
       <r>   -8.8790    1.0000 </r>
       <r>   -8.8770    1.0000 </r>
       <r>   -8.8736    1.0000 </r>
       <r>   -8.8728    1.0000 </r>
       <r>   -8.8688    1.0000 </r>
       <r>   -8.8668    1.0000 </r>
       <r>   -8.8651    1.0000 </r>
       <r>   -8.8634    1.0000 </r>
       <r>   -8.8612    1.0000 </r>
       <r>   -8.8608    1.0000 </r>
       <r>   -8.8557    1.0000 </r>
       <r>   -8.8536    1.0000 </r>
       <r>   -8.8511    1.0000 </r>
       <r>   -8.8505    1.0000 </r>
       <r>   -8.8489    1.0000 </r>
       <r>   -8.8467    1.0000 </r>
       <r>   -8.8460    1.0000 </r>
       <r>   -8.8437    1.0000 </r>
       <r>   -8.8414    1.0000 </r>
       <r>   -8.8396    1.0000 </r>
       <r>   -8.8369    1.0000 </r>
       <r>   -8.8330    1.0000 </r>
       <r>   -8.8288    1.0000 </r>
       <r>   -8.8274    1.0000 </r>
       <r>   -8.8261    1.0000 </r>
       <r>   -8.8224    1.0000 </r>
       <r>   -8.8194    1.0000 </r>
       <r>   -8.8166    1.0000 </r>
       <r>   -8.8140    1.0000 </r>
       <r>   -8.8052    1.0000 </r>
       <r>   -8.8037    1.0000 </r>
       <r>   -8.8005    1.0000 </r>
       <r>   -8.7981    1.0000 </r>
       <r>   -8.7971    1.0000 </r>
       <r>   -8.7898    1.0000 </r>
       <r>   -8.7894    1.0000 </r>
       <r>   -8.7886    1.0000 </r>
       <r>   -8.7866    1.0000 </r>
       <r>   -8.7854    1.0000 </r>
       <r>   -8.7835    1.0000 </r>
       <r>   -8.7823    1.0000 </r>
       <r>   -8.7800    1.0000 </r>
       <r>   -8.7745    1.0000 </r>
       <r>   -8.7730    1.0000 </r>
       <r>   -8.7685    1.0000 </r>
       <r>   -8.7675    1.0000 </r>
       <r>   -8.7642    1.0000 </r>
       <r>   -8.7575    1.0000 </r>
       <r>   -8.7541    1.0000 </r>
       <r>   -8.7535    1.0000 </r>
       <r>   -8.7474    1.0000 </r>
       <r>   -8.7361    1.0000 </r>
       <r>   -8.7324    1.0000 </r>
       <r>   -8.7266    1.0000 </r>
       <r>   -8.7222    1.0000 </r>
       <r>   -8.7194    1.0000 </r>
       <r>   -8.7185    1.0000 </r>
       <r>   -8.7123    1.0000 </r>
       <r>   -8.7121    1.0000 </r>
       <r>   -8.7098    1.0000 </r>
       <r>   -8.7053    1.0000 </r>
       <r>   -8.6968    1.0000 </r>
       <r>   -8.6961    1.0000 </r>
       <r>   -8.6934    1.0000 </r>
       <r>   -8.6919    1.0000 </r>
       <r>   -8.6883    1.0000 </r>
       <r>   -8.6874    1.0000 </r>
       <r>   -8.6860    1.0000 </r>
       <r>   -8.6856    1.0000 </r>
       <r>   -8.6773    1.0000 </r>
       <r>   -8.6746    1.0000 </r>
       <r>   -8.6741    1.0000 </r>
       <r>   -8.6717    1.0000 </r>
       <r>   -8.6711    1.0000 </r>
       <r>   -8.6684    1.0000 </r>
       <r>   -8.6678    1.0000 </r>
       <r>   -8.6669    1.0000 </r>
       <r>   -8.6571    1.0000 </r>
       <r>   -8.6550    1.0000 </r>
       <r>   -8.6544    1.0000 </r>
       <r>   -8.6505    1.0000 </r>
       <r>   -8.6493    1.0000 </r>
       <r>   -8.6480    1.0000 </r>
       <r>   -8.6439    1.0000 </r>
       <r>   -8.6431    1.0000 </r>
       <r>   -8.6420    1.0000 </r>
       <r>   -8.6409    1.0000 </r>
       <r>   -8.6391    1.0000 </r>
       <r>   -8.6366    1.0000 </r>
       <r>   -8.6330    1.0000 </r>
       <r>   -8.6295    1.0000 </r>
       <r>   -8.6248    1.0000 </r>
       <r>   -8.6242    1.0000 </r>
       <r>   -8.6222    1.0000 </r>
       <r>   -8.6218    1.0000 </r>
       <r>   -8.6194    1.0000 </r>
       <r>   -8.6161    1.0000 </r>
       <r>   -8.6139    1.0000 </r>
       <r>   -8.6100    1.0000 </r>
       <r>   -8.6093    1.0000 </r>
       <r>   -8.6067    1.0000 </r>
       <r>   -8.6044    1.0000 </r>
       <r>   -8.5995    1.0000 </r>
       <r>   -8.5983    1.0000 </r>
       <r>   -8.5960    1.0000 </r>
       <r>   -8.5948    1.0000 </r>
       <r>   -8.5923    1.0000 </r>
       <r>   -8.5859    1.0000 </r>
       <r>   -8.5851    1.0000 </r>
       <r>   -8.5835    1.0000 </r>
       <r>   -8.5823    1.0000 </r>
       <r>   -8.5758    1.0000 </r>
       <r>   -8.5749    1.0000 </r>
       <r>   -8.5692    1.0000 </r>
       <r>   -8.5679    1.0000 </r>
       <r>   -8.5534    1.0000 </r>
       <r>   -8.5426    1.0000 </r>
       <r>   -8.5416    1.0000 </r>
       <r>   -8.5330    1.0000 </r>
       <r>   -8.5303    1.0000 </r>
       <r>   -8.5157    1.0000 </r>
       <r>   -8.5140    1.0000 </r>
       <r>   -8.5117    1.0000 </r>
       <r>   -8.5002    1.0000 </r>
       <r>   -8.4687    1.0000 </r>
       <r>   -8.4529    1.0000 </r>
       <r>   -8.3817    1.0000 </r>
       <r>   -8.3371    1.0000 </r>
       <r>   -8.3055    1.0000 </r>
       <r>   -8.3007    1.0000 </r>
       <r>   -8.2969    1.0000 </r>
       <r>   -8.2961    1.0000 </r>
       <r>   -8.2865    1.0000 </r>
       <r>   -8.2591    1.0000 </r>
       <r>   -8.2451    1.0000 </r>
       <r>   -8.2199    1.0000 </r>
       <r>   -8.2104    1.0000 </r>
       <r>   -8.1592    1.0000 </r>
       <r>   -8.1474    1.0000 </r>
       <r>   -8.1294    1.0000 </r>
       <r>   -8.1128    1.0000 </r>
       <r>   -8.0705    1.0000 </r>
       <r>   -8.0690    1.0000 </r>
       <r>   -8.0677    1.0000 </r>
       <r>   -8.0649    1.0000 </r>
       <r>   -8.0531    1.0000 </r>
       <r>   -8.0491    1.0000 </r>
       <r>   -8.0075    1.0000 </r>
       <r>   -7.9830    1.0000 </r>
       <r>   -7.9676    1.0000 </r>
       <r>   -7.9562    1.0000 </r>
       <r>   -7.9542    1.0000 </r>
       <r>   -7.9539    1.0000 </r>
       <r>   -7.9486    1.0000 </r>
       <r>   -7.9441    1.0000 </r>
       <r>   -7.9364    1.0000 </r>
       <r>   -7.9346    1.0000 </r>
       <r>   -7.9218    1.0000 </r>
       <r>   -7.9169    1.0000 </r>
       <r>   -7.6965    1.0000 </r>
       <r>   -3.2086    1.0000 </r>
       <r>   -3.1848    1.0000 </r>
       <r>   -2.8185    1.0000 </r>
       <r>   -2.8097    1.0000 </r>
       <r>   -2.7925    1.0000 </r>
       <r>   -2.7778    1.0000 </r>
       <r>   -2.4334    1.0000 </r>
       <r>   -2.4297    1.0000 </r>
       <r>   -2.4216    1.0000 </r>
       <r>   -2.3882    1.0000 </r>
       <r>   -2.3580    1.0000 </r>
       <r>   -2.3232    1.0000 </r>
       <r>   -2.3134    1.0000 </r>
       <r>   -2.3008    1.0000 </r>
       <r>   -2.2943    1.0000 </r>
       <r>   -2.2888    1.0000 </r>
       <r>   -2.2648    1.0000 </r>
       <r>   -2.2605    1.0000 </r>
       <r>   -2.2474    1.0000 </r>
       <r>   -2.2444    1.0000 </r>
       <r>   -2.2262    1.0000 </r>
       <r>   -2.2024    1.0000 </r>
       <r>   -2.1779    1.0000 </r>
       <r>   -2.1611    1.0000 </r>
       <r>   -2.1371    1.0000 </r>
       <r>   -1.9303    1.0000 </r>
       <r>   -1.8002    1.0000 </r>
       <r>   -1.7160    1.0000 </r>
       <r>   -1.5888    1.0000 </r>
       <r>   -1.5755    1.0000 </r>
       <r>   -1.5659    1.0000 </r>
       <r>   -1.4755    1.0000 </r>
       <r>   -1.3865    1.0000 </r>
       <r>   -1.3688    1.0000 </r>
       <r>   -1.3170    1.0000 </r>
       <r>   -1.3124    1.0000 </r>
       <r>   -1.2693    1.0000 </r>
       <r>   -1.2504    1.0000 </r>
       <r>   -1.2033    1.0000 </r>
       <r>   -1.1993    1.0000 </r>
       <r>   -1.1845    1.0000 </r>
       <r>   -1.1509    1.0000 </r>
       <r>   -1.1295    1.0000 </r>
       <r>   -1.0353    1.0000 </r>
       <r>   -0.8964    1.0000 </r>
       <r>   -0.8747    1.0000 </r>
       <r>   -0.8682    1.0000 </r>
       <r>   -0.8634    1.0000 </r>
       <r>   -0.8134    1.0000 </r>
       <r>   -0.7273    1.0000 </r>
       <r>   -0.6840    1.0000 </r>
       <r>   -0.6495    1.0000 </r>
       <r>   -0.6158    1.0000 </r>
       <r>   -0.4749    1.0000 </r>
       <r>   -0.4389    1.0000 </r>
       <r>   -0.3975    1.0000 </r>
       <r>   -0.3540    1.0000 </r>
       <r>   -0.3504    1.0000 </r>
       <r>   -0.3379    1.0000 </r>
       <r>   -0.2933    1.0000 </r>
       <r>   -0.2508    1.0000 </r>
       <r>   -0.1568    1.0000 </r>
       <r>   -0.0781    1.0000 </r>
       <r>   -0.0344    1.0000 </r>
       <r>    0.0394    1.0000 </r>
       <r>    0.0891    1.0000 </r>
       <r>    0.0938    1.0000 </r>
       <r>    0.1111    1.0000 </r>
       <r>    0.1306    1.0000 </r>
       <r>    0.1385    1.0000 </r>
       <r>    0.1472    1.0000 </r>
       <r>    0.1673    1.0000 </r>
       <r>    0.2177    1.0000 </r>
       <r>    0.2922    1.0000 </r>
       <r>    0.3232    1.0000 </r>
       <r>    0.3457    1.0000 </r>
       <r>    0.3531    1.0000 </r>
       <r>    0.3654    1.0000 </r>
       <r>    0.3802    1.0000 </r>
       <r>    0.3920    1.0000 </r>
       <r>    0.4895    1.0000 </r>
       <r>    0.5276    1.0000 </r>
       <r>    0.5696    1.0000 </r>
       <r>    0.5861    1.0000 </r>
       <r>    0.6161    1.0000 </r>
       <r>    0.6597    1.0000 </r>
       <r>    0.6945    1.0000 </r>
       <r>    0.7117    1.0000 </r>
       <r>    0.7272    1.0000 </r>
       <r>    0.7937    1.0000 </r>
       <r>    0.7964    1.0000 </r>
       <r>    0.8153    1.0000 </r>
       <r>    0.8474    1.0000 </r>
       <r>    0.8586    1.0000 </r>
       <r>    0.8681    1.0000 </r>
       <r>    0.9266    1.0000 </r>
       <r>    0.9615    1.0000 </r>
       <r>    0.9932    1.0000 </r>
       <r>    0.9980    1.0000 </r>
       <r>    1.0153    1.0000 </r>
       <r>    1.0184    1.0000 </r>
       <r>    1.0313    1.0000 </r>
       <r>    1.0607    1.0000 </r>
       <r>    1.0836    1.0000 </r>
       <r>    1.0902    1.0000 </r>
       <r>    1.1655    1.0000 </r>
       <r>    1.1804    1.0000 </r>
       <r>    1.1968    1.0000 </r>
       <r>    1.2190    1.0000 </r>
       <r>    1.2391    1.0000 </r>
       <r>    1.2749    1.0000 </r>
       <r>    1.3382    1.0000 </r>
       <r>    1.4148    1.0000 </r>
       <r>    1.4451    1.0000 </r>
       <r>    1.4774    1.0000 </r>
       <r>    1.4835    1.0000 </r>
       <r>    1.4905    1.0000 </r>
       <r>    1.4931    1.0000 </r>
       <r>    1.5270    1.0000 </r>
       <r>    1.5360    1.0000 </r>
       <r>    1.5504    1.0000 </r>
       <r>    1.6651    1.0000 </r>
       <r>    1.6710    1.0000 </r>
       <r>    1.6804    1.0000 </r>
       <r>    1.6941    1.0000 </r>
       <r>    1.7066    1.0000 </r>
       <r>    1.7469    1.0000 </r>
       <r>    1.7569    1.0000 </r>
       <r>    1.7793    1.0000 </r>
       <r>    1.7797    1.0000 </r>
       <r>    1.7865    1.0000 </r>
       <r>    1.8019    1.0000 </r>
       <r>    1.8267    1.0000 </r>
       <r>    1.8428    1.0000 </r>
       <r>    1.8450    1.0000 </r>
       <r>    1.9123    1.0000 </r>
       <r>    1.9138    1.0000 </r>
       <r>    2.0057    1.0000 </r>
       <r>    2.0452    1.0000 </r>
       <r>    2.0708    1.0000 </r>
       <r>    2.2528    1.0000 </r>
       <r>    2.2536    1.0000 </r>
       <r>    2.2941    1.0000 </r>
       <r>    2.3166    1.0000 </r>
       <r>    2.3560    1.0000 </r>
       <r>    2.3664    1.0000 </r>
       <r>    2.3750    1.0000 </r>
       <r>    2.3927    1.0000 </r>
       <r>    2.4020    1.0000 </r>
       <r>    2.4227    1.0000 </r>
       <r>    2.4367    1.0000 </r>
       <r>    2.4578    1.0000 </r>
       <r>    2.4669    1.0000 </r>
       <r>    2.4915    1.0000 </r>
       <r>    2.5027    1.0000 </r>
       <r>    2.5179    1.0000 </r>
       <r>    2.5203    1.0000 </r>
       <r>    2.5313    1.0000 </r>
       <r>    2.5437    1.0000 </r>
       <r>    2.5629    1.0000 </r>
       <r>    2.6257    1.0000 </r>
       <r>    2.6469    1.0000 </r>
       <r>    2.6533    1.0000 </r>
       <r>    2.6747    1.0000 </r>
       <r>    2.6757    1.0000 </r>
       <r>    2.6905    1.0000 </r>
       <r>    2.6968    1.0000 </r>
       <r>    2.7095    1.0000 </r>
       <r>    2.7478    1.0000 </r>
       <r>    2.7902    1.0000 </r>
       <r>    2.8175    1.0000 </r>
       <r>    2.8440    1.0000 </r>
       <r>    2.8491    1.0000 </r>
       <r>    2.8650    1.0000 </r>
       <r>    2.8812    1.0000 </r>
       <r>    2.8823    1.0000 </r>
       <r>    2.9086    1.0000 </r>
       <r>    2.9117    1.0000 </r>
       <r>    2.9410    1.0000 </r>
       <r>    2.9660    1.0000 </r>
       <r>    2.9805    1.0000 </r>
       <r>    2.9996    1.0000 </r>
       <r>    3.0097    1.0000 </r>
       <r>    3.0334    1.0000 </r>
       <r>    3.0372    1.0000 </r>
       <r>    3.0388    1.0000 </r>
       <r>    3.0550    1.0000 </r>
       <r>    3.0597    1.0000 </r>
       <r>    3.0627    1.0000 </r>
       <r>    3.0722    1.0000 </r>
       <r>    3.0765    1.0000 </r>
       <r>    3.0814    1.0000 </r>
       <r>    3.0869    1.0000 </r>
       <r>    3.0881    1.0000 </r>
       <r>    3.1073    1.0000 </r>
       <r>    3.1184    1.0000 </r>
       <r>    3.1876    1.0000 </r>
       <r>    3.2007    1.0000 </r>
       <r>    3.2013    1.0000 </r>
       <r>    3.2109    1.0000 </r>
       <r>    3.2210    1.0000 </r>
       <r>    3.2229    1.0000 </r>
       <r>    3.2325    1.0000 </r>
       <r>    3.2913    1.0000 </r>
       <r>    3.3794    1.0000 </r>
       <r>    3.3883    1.0000 </r>
       <r>    3.4151    1.0000 </r>
       <r>    3.4411    1.0000 </r>
       <r>    3.5604    1.0000 </r>
       <r>    3.6470    1.0000 </r>
       <r>    3.6682    1.0000 </r>
       <r>    3.6752    1.0000 </r>
       <r>    3.6786    1.0000 </r>
       <r>    3.6842    1.0000 </r>
       <r>    3.6874    1.0000 </r>
       <r>    3.7718    1.0000 </r>
       <r>    4.9491    1.0000 </r>
       <r>    5.3331    0.9532 </r>
       <r>    5.4660    0.0187 </r>
       <r>    6.8314    0.0000 </r>
       <r>    6.8896    0.0000 </r>
       <r>    6.9531    0.0000 </r>
       <r>    7.3385    0.0000 </r>
       <r>    8.4670    0.0000 </r>
       <r>    8.5349    0.0000 </r>
       <r>    8.8895    0.0000 </r>
       <r>    8.9348    0.0000 </r>
       <r>    9.1565    0.0000 </r>
       <r>    9.2207    0.0000 </r>
       <r>    9.3625    0.0000 </r>
       <r>    9.3677    0.0000 </r>
       <r>    9.3995    0.0000 </r>
       <r>    9.4033    0.0000 </r>
       <r>    9.7242    0.0000 </r>
       <r>    9.7289    0.0000 </r>
       <r>    9.7381    0.0000 </r>
       <r>    9.7845    0.0000 </r>
       <r>    9.9065    0.0000 </r>
       <r>    9.9174    0.0000 </r>
       <r>    9.9248    0.0000 </r>
       <r>    9.9322    0.0000 </r>
       <r>    9.9515    0.0000 </r>
       <r>    9.9643    0.0000 </r>
       <r>   10.0405    0.0000 </r>
       <r>   10.1035    0.0000 </r>
       <r>   10.1980    0.0000 </r>
       <r>   10.2094    0.0000 </r>
       <r>   10.2231    0.0000 </r>
       <r>   10.2629    0.0000 </r>
       <r>   10.3101    0.0000 </r>
       <r>   10.3517    0.0000 </r>
       <r>   10.3626    0.0000 </r>
       <r>   10.3750    0.0000 </r>
       <r>   10.4078    0.0000 </r>
       <r>   10.5591    0.0000 </r>
       <r>   10.6226    0.0000 </r>
       <r>   10.9766    0.0000 </r>
       <r>   11.2204    0.0000 </r>
       <r>   11.2415    0.0000 </r>
       <r>   11.3135    0.0000 </r>
       <r>   11.3407    0.0000 </r>
       <r>   11.3475    0.0000 </r>
       <r>   11.3527    0.0000 </r>
       <r>   11.3768    0.0000 </r>
       <r>   11.3813    0.0000 </r>
       <r>   11.3850    0.0000 </r>
       <r>   11.4643    0.0000 </r>
       <r>   11.4891    0.0000 </r>
       <r>   11.5427    0.0000 </r>
       <r>   11.5685    0.0000 </r>
       <r>   11.5813    0.0000 </r>
       <r>   11.6209    0.0000 </r>
       <r>   11.6290    0.0000 </r>
       <r>   11.6473    0.0000 </r>
       <r>   12.1052    0.0000 </r>
       <r>   12.1879    0.0000 </r>
       <r>   12.4712    0.0000 </r>
       <r>   12.5505    0.0000 </r>
       <r>   12.5601    0.0000 </r>
       <r>   12.5858    0.0000 </r>
       <r>   12.6370    0.0000 </r>
       <r>   12.6768    0.0000 </r>
       <r>   12.6796    0.0000 </r>
       <r>   12.6982    0.0000 </r>
       <r>   12.7022    0.0000 </r>
       <r>   12.7213    0.0000 </r>
       <r>   12.7577    0.0000 </r>
       <r>   12.7779    0.0000 </r>
       <r>   12.7840    0.0000 </r>
       <r>   12.8321    0.0000 </r>
       <r>   12.8664    0.0000 </r>
       <r>   12.8828    0.0000 </r>
       <r>   12.8956    0.0000 </r>
       <r>   12.9353    0.0000 </r>
       <r>   13.0669    0.0000 </r>
       <r>   13.1138    0.0000 </r>
       <r>   13.1382    0.0000 </r>
       <r>   13.1433    0.0000 </r>
       <r>   13.1988    0.0000 </r>
       <r>   13.2022    0.0000 </r>
       <r>   13.2443    0.0000 </r>
       <r>   13.2988    0.0000 </r>
       <r>   13.4404    0.0000 </r>
       <r>   13.4444    0.0000 </r>
       <r>   13.4965    0.0000 </r>
       <r>   13.5385    0.0000 </r>
       <r>   13.7009    0.0000 </r>
       <r>   13.7617    0.0000 </r>
       <r>   13.7691    0.0000 </r>
       <r>   13.7899    0.0000 </r>
       <r>   13.8109    0.0000 </r>
       <r>   13.8293    0.0000 </r>
       <r>   13.8699    0.0000 </r>
       <r>   13.8990    0.0000 </r>
       <r>   13.9045    0.0000 </r>
       <r>   13.9157    0.0000 </r>
       <r>   14.4525    0.0000 </r>
       <r>   14.4766    0.0000 </r>
       <r>   14.5213    0.0000 </r>
       <r>   14.5377    0.0000 </r>
       <r>   14.6421    0.0000 </r>
       <r>   14.6519    0.0000 </r>
       <r>   14.6733    0.0000 </r>
      </set>
      <set comment="kpoint 3">
       <r>  -14.8987    1.0000 </r>
       <r>  -14.8755    1.0000 </r>
       <r>  -14.6499    1.0000 </r>
       <r>  -14.6287    1.0000 </r>
       <r>  -14.5840    1.0000 </r>
       <r>  -14.5719    1.0000 </r>
       <r>  -14.5219    1.0000 </r>
       <r>  -14.4880    1.0000 </r>
       <r>  -14.4288    1.0000 </r>
       <r>  -14.4064    1.0000 </r>
       <r>  -14.2310    1.0000 </r>
       <r>  -14.2158    1.0000 </r>
       <r>  -14.1633    1.0000 </r>
       <r>  -14.1445    1.0000 </r>
       <r>  -14.0170    1.0000 </r>
       <r>  -13.9978    1.0000 </r>
       <r>  -13.9699    1.0000 </r>
       <r>  -13.9606    1.0000 </r>
       <r>  -13.8893    1.0000 </r>
       <r>  -13.8753    1.0000 </r>
       <r>  -13.8713    1.0000 </r>
       <r>  -13.8683    1.0000 </r>
       <r>  -13.8568    1.0000 </r>
       <r>  -13.8530    1.0000 </r>
       <r>  -13.8471    1.0000 </r>
       <r>  -13.8406    1.0000 </r>
       <r>  -13.8361    1.0000 </r>
       <r>  -13.8298    1.0000 </r>
       <r>  -13.8131    1.0000 </r>
       <r>  -13.7922    1.0000 </r>
       <r>  -13.7796    1.0000 </r>
       <r>  -13.7503    1.0000 </r>
       <r>  -13.7444    1.0000 </r>
       <r>  -13.7238    1.0000 </r>
       <r>  -13.7161    1.0000 </r>
       <r>  -13.6872    1.0000 </r>
       <r>  -13.6868    1.0000 </r>
       <r>  -13.6726    1.0000 </r>
       <r>  -13.6726    1.0000 </r>
       <r>  -13.6654    1.0000 </r>
       <r>  -13.6461    1.0000 </r>
       <r>  -13.6308    1.0000 </r>
       <r>  -13.6155    1.0000 </r>
       <r>  -13.5936    1.0000 </r>
       <r>  -13.5817    1.0000 </r>
       <r>  -13.5404    1.0000 </r>
       <r>  -13.5379    1.0000 </r>
       <r>  -13.5061    1.0000 </r>
       <r>  -13.4876    1.0000 </r>
       <r>  -13.4568    1.0000 </r>
       <r>  -13.4558    1.0000 </r>
       <r>  -13.3875    1.0000 </r>
       <r>  -13.3816    1.0000 </r>
       <r>  -13.3667    1.0000 </r>
       <r>  -13.3647    1.0000 </r>
       <r>  -13.3557    1.0000 </r>
       <r>  -13.3511    1.0000 </r>
       <r>  -13.3430    1.0000 </r>
       <r>  -13.3390    1.0000 </r>
       <r>  -13.3355    1.0000 </r>
       <r>  -13.3351    1.0000 </r>
       <r>  -13.3297    1.0000 </r>
       <r>  -13.3284    1.0000 </r>
       <r>  -13.3206    1.0000 </r>
       <r>  -13.3040    1.0000 </r>
       <r>  -13.2994    1.0000 </r>
       <r>  -13.2919    1.0000 </r>
       <r>  -13.2680    1.0000 </r>
       <r>  -13.2475    1.0000 </r>
       <r>  -13.1939    1.0000 </r>
       <r>  -13.1757    1.0000 </r>
       <r>  -10.3280    1.0000 </r>
       <r>   -9.1349    1.0000 </r>
       <r>   -9.1281    1.0000 </r>
       <r>   -9.1104    1.0000 </r>
       <r>   -9.1025    1.0000 </r>
       <r>   -9.1021    1.0000 </r>
       <r>   -9.0965    1.0000 </r>
       <r>   -9.0937    1.0000 </r>
       <r>   -9.0902    1.0000 </r>
       <r>   -9.0829    1.0000 </r>
       <r>   -9.0809    1.0000 </r>
       <r>   -9.0776    1.0000 </r>
       <r>   -9.0739    1.0000 </r>
       <r>   -9.0593    1.0000 </r>
       <r>   -9.0540    1.0000 </r>
       <r>   -9.0527    1.0000 </r>
       <r>   -9.0494    1.0000 </r>
       <r>   -9.0471    1.0000 </r>
       <r>   -9.0373    1.0000 </r>
       <r>   -9.0326    1.0000 </r>
       <r>   -9.0313    1.0000 </r>
       <r>   -9.0267    1.0000 </r>
       <r>   -9.0251    1.0000 </r>
       <r>   -9.0210    1.0000 </r>
       <r>   -9.0188    1.0000 </r>
       <r>   -9.0151    1.0000 </r>
       <r>   -9.0125    1.0000 </r>
       <r>   -9.0046    1.0000 </r>
       <r>   -9.0001    1.0000 </r>
       <r>   -8.9950    1.0000 </r>
       <r>   -8.9932    1.0000 </r>
       <r>   -8.9901    1.0000 </r>
       <r>   -8.9891    1.0000 </r>
       <r>   -8.9878    1.0000 </r>
       <r>   -8.9844    1.0000 </r>
       <r>   -8.9830    1.0000 </r>
       <r>   -8.9805    1.0000 </r>
       <r>   -8.9762    1.0000 </r>
       <r>   -8.9745    1.0000 </r>
       <r>   -8.9732    1.0000 </r>
       <r>   -8.9710    1.0000 </r>
       <r>   -8.9674    1.0000 </r>
       <r>   -8.9666    1.0000 </r>
       <r>   -8.9648    1.0000 </r>
       <r>   -8.9612    1.0000 </r>
       <r>   -8.9607    1.0000 </r>
       <r>   -8.9587    1.0000 </r>
       <r>   -8.9583    1.0000 </r>
       <r>   -8.9559    1.0000 </r>
       <r>   -8.9555    1.0000 </r>
       <r>   -8.9511    1.0000 </r>
       <r>   -8.9502    1.0000 </r>
       <r>   -8.9470    1.0000 </r>
       <r>   -8.9464    1.0000 </r>
       <r>   -8.9460    1.0000 </r>
       <r>   -8.9381    1.0000 </r>
       <r>   -8.9372    1.0000 </r>
       <r>   -8.9354    1.0000 </r>
       <r>   -8.9329    1.0000 </r>
       <r>   -8.9310    1.0000 </r>
       <r>   -8.9299    1.0000 </r>
       <r>   -8.9272    1.0000 </r>
       <r>   -8.9242    1.0000 </r>
       <r>   -8.9204    1.0000 </r>
       <r>   -8.9129    1.0000 </r>
       <r>   -8.9095    1.0000 </r>
       <r>   -8.9033    1.0000 </r>
       <r>   -8.8998    1.0000 </r>
       <r>   -8.8951    1.0000 </r>
       <r>   -8.8919    1.0000 </r>
       <r>   -8.8907    1.0000 </r>
       <r>   -8.8863    1.0000 </r>
       <r>   -8.8844    1.0000 </r>
       <r>   -8.8815    1.0000 </r>
       <r>   -8.8804    1.0000 </r>
       <r>   -8.8742    1.0000 </r>
       <r>   -8.8703    1.0000 </r>
       <r>   -8.8695    1.0000 </r>
       <r>   -8.8667    1.0000 </r>
       <r>   -8.8644    1.0000 </r>
       <r>   -8.8638    1.0000 </r>
       <r>   -8.8561    1.0000 </r>
       <r>   -8.8550    1.0000 </r>
       <r>   -8.8536    1.0000 </r>
       <r>   -8.8507    1.0000 </r>
       <r>   -8.8500    1.0000 </r>
       <r>   -8.8494    1.0000 </r>
       <r>   -8.8479    1.0000 </r>
       <r>   -8.8430    1.0000 </r>
       <r>   -8.8394    1.0000 </r>
       <r>   -8.8357    1.0000 </r>
       <r>   -8.8334    1.0000 </r>
       <r>   -8.8307    1.0000 </r>
       <r>   -8.8299    1.0000 </r>
       <r>   -8.8273    1.0000 </r>
       <r>   -8.8264    1.0000 </r>
       <r>   -8.8233    1.0000 </r>
       <r>   -8.8219    1.0000 </r>
       <r>   -8.8194    1.0000 </r>
       <r>   -8.8181    1.0000 </r>
       <r>   -8.8165    1.0000 </r>
       <r>   -8.8165    1.0000 </r>
       <r>   -8.8153    1.0000 </r>
       <r>   -8.8115    1.0000 </r>
       <r>   -8.8105    1.0000 </r>
       <r>   -8.8098    1.0000 </r>
       <r>   -8.8063    1.0000 </r>
       <r>   -8.8035    1.0000 </r>
       <r>   -8.8029    1.0000 </r>
       <r>   -8.7978    1.0000 </r>
       <r>   -8.7967    1.0000 </r>
       <r>   -8.7926    1.0000 </r>
       <r>   -8.7901    1.0000 </r>
       <r>   -8.7893    1.0000 </r>
       <r>   -8.7880    1.0000 </r>
       <r>   -8.7867    1.0000 </r>
       <r>   -8.7864    1.0000 </r>
       <r>   -8.7855    1.0000 </r>
       <r>   -8.7819    1.0000 </r>
       <r>   -8.7807    1.0000 </r>
       <r>   -8.7771    1.0000 </r>
       <r>   -8.7764    1.0000 </r>
       <r>   -8.7746    1.0000 </r>
       <r>   -8.7678    1.0000 </r>
       <r>   -8.7675    1.0000 </r>
       <r>   -8.7595    1.0000 </r>
       <r>   -8.7515    1.0000 </r>
       <r>   -8.7492    1.0000 </r>
       <r>   -8.7489    1.0000 </r>
       <r>   -8.7431    1.0000 </r>
       <r>   -8.7327    1.0000 </r>
       <r>   -8.7222    1.0000 </r>
       <r>   -8.7070    1.0000 </r>
       <r>   -8.7042    1.0000 </r>
       <r>   -8.7018    1.0000 </r>
       <r>   -8.7006    1.0000 </r>
       <r>   -8.6983    1.0000 </r>
       <r>   -8.6902    1.0000 </r>
       <r>   -8.6897    1.0000 </r>
       <r>   -8.6872    1.0000 </r>
       <r>   -8.6845    1.0000 </r>
       <r>   -8.6839    1.0000 </r>
       <r>   -8.6821    1.0000 </r>
       <r>   -8.6783    1.0000 </r>
       <r>   -8.6774    1.0000 </r>
       <r>   -8.6755    1.0000 </r>
       <r>   -8.6675    1.0000 </r>
       <r>   -8.6672    1.0000 </r>
       <r>   -8.6644    1.0000 </r>
       <r>   -8.6587    1.0000 </r>
       <r>   -8.6565    1.0000 </r>
       <r>   -8.6528    1.0000 </r>
       <r>   -8.6498    1.0000 </r>
       <r>   -8.6479    1.0000 </r>
       <r>   -8.6462    1.0000 </r>
       <r>   -8.6429    1.0000 </r>
       <r>   -8.6422    1.0000 </r>
       <r>   -8.6419    1.0000 </r>
       <r>   -8.6390    1.0000 </r>
       <r>   -8.6368    1.0000 </r>
       <r>   -8.6358    1.0000 </r>
       <r>   -8.6353    1.0000 </r>
       <r>   -8.6337    1.0000 </r>
       <r>   -8.6325    1.0000 </r>
       <r>   -8.6286    1.0000 </r>
       <r>   -8.6259    1.0000 </r>
       <r>   -8.6252    1.0000 </r>
       <r>   -8.6229    1.0000 </r>
       <r>   -8.6160    1.0000 </r>
       <r>   -8.6101    1.0000 </r>
       <r>   -8.6095    1.0000 </r>
       <r>   -8.6081    1.0000 </r>
       <r>   -8.6070    1.0000 </r>
       <r>   -8.6054    1.0000 </r>
       <r>   -8.6041    1.0000 </r>
       <r>   -8.6023    1.0000 </r>
       <r>   -8.6011    1.0000 </r>
       <r>   -8.6003    1.0000 </r>
       <r>   -8.5982    1.0000 </r>
       <r>   -8.5973    1.0000 </r>
       <r>   -8.5928    1.0000 </r>
       <r>   -8.5916    1.0000 </r>
       <r>   -8.5896    1.0000 </r>
       <r>   -8.5859    1.0000 </r>
       <r>   -8.5849    1.0000 </r>
       <r>   -8.5693    1.0000 </r>
       <r>   -8.5678    1.0000 </r>
       <r>   -8.5632    1.0000 </r>
       <r>   -8.5534    1.0000 </r>
       <r>   -8.5129    1.0000 </r>
       <r>   -8.4992    1.0000 </r>
       <r>   -8.4970    1.0000 </r>
       <r>   -8.4916    1.0000 </r>
       <r>   -8.4907    1.0000 </r>
       <r>   -8.4749    1.0000 </r>
       <r>   -8.4745    1.0000 </r>
       <r>   -8.4626    1.0000 </r>
       <r>   -8.4452    1.0000 </r>
       <r>   -8.4400    1.0000 </r>
       <r>   -8.4389    1.0000 </r>
       <r>   -8.4278    1.0000 </r>
       <r>   -8.4266    1.0000 </r>
       <r>   -8.4131    1.0000 </r>
       <r>   -8.4091    1.0000 </r>
       <r>   -8.3654    1.0000 </r>
       <r>   -8.3632    1.0000 </r>
       <r>   -8.3348    1.0000 </r>
       <r>   -8.3252    1.0000 </r>
       <r>   -8.3111    1.0000 </r>
       <r>   -8.3087    1.0000 </r>
       <r>   -8.3038    1.0000 </r>
       <r>   -8.2943    1.0000 </r>
       <r>   -8.2756    1.0000 </r>
       <r>   -8.2584    1.0000 </r>
       <r>   -8.2426    1.0000 </r>
       <r>   -8.2159    1.0000 </r>
       <r>   -8.2112    1.0000 </r>
       <r>   -8.1954    1.0000 </r>
       <r>   -8.1554    1.0000 </r>
       <r>   -8.1093    1.0000 </r>
       <r>   -8.0787    1.0000 </r>
       <r>   -8.0376    1.0000 </r>
       <r>   -8.0360    1.0000 </r>
       <r>   -8.0203    1.0000 </r>
       <r>   -8.0065    1.0000 </r>
       <r>   -7.9930    1.0000 </r>
       <r>   -7.9814    1.0000 </r>
       <r>   -7.9347    1.0000 </r>
       <r>   -7.9161    1.0000 </r>
       <r>   -7.9012    1.0000 </r>
       <r>   -7.8556    1.0000 </r>
       <r>   -7.8474    1.0000 </r>
       <r>   -7.8351    1.0000 </r>
       <r>   -7.8155    1.0000 </r>
       <r>   -7.8116    1.0000 </r>
       <r>   -7.7246    1.0000 </r>
       <r>   -3.0777    1.0000 </r>
       <r>   -3.0727    1.0000 </r>
       <r>   -3.0217    1.0000 </r>
       <r>   -3.0180    1.0000 </r>
       <r>   -2.9012    1.0000 </r>
       <r>   -2.8654    1.0000 </r>
       <r>   -2.8079    1.0000 </r>
       <r>   -2.7918    1.0000 </r>
       <r>   -2.6136    1.0000 </r>
       <r>   -2.5976    1.0000 </r>
       <r>   -2.5583    1.0000 </r>
       <r>   -2.5471    1.0000 </r>
       <r>   -2.3510    1.0000 </r>
       <r>   -2.3375    1.0000 </r>
       <r>   -2.3160    1.0000 </r>
       <r>   -2.3143    1.0000 </r>
       <r>   -2.2595    1.0000 </r>
       <r>   -2.2301    1.0000 </r>
       <r>   -2.1418    1.0000 </r>
       <r>   -2.1366    1.0000 </r>
       <r>   -2.1091    1.0000 </r>
       <r>   -2.0725    1.0000 </r>
       <r>   -2.0626    1.0000 </r>
       <r>   -2.0325    1.0000 </r>
       <r>   -1.9769    1.0000 </r>
       <r>   -1.9266    1.0000 </r>
       <r>   -1.7607    1.0000 </r>
       <r>   -1.7375    1.0000 </r>
       <r>   -1.7350    1.0000 </r>
       <r>   -1.7276    1.0000 </r>
       <r>   -1.6798    1.0000 </r>
       <r>   -1.6507    1.0000 </r>
       <r>   -1.5819    1.0000 </r>
       <r>   -1.4944    1.0000 </r>
       <r>   -1.4441    1.0000 </r>
       <r>   -1.2525    1.0000 </r>
       <r>   -1.1274    1.0000 </r>
       <r>   -1.1215    1.0000 </r>
       <r>   -1.0700    1.0000 </r>
       <r>   -1.0387    1.0000 </r>
       <r>   -1.0342    1.0000 </r>
       <r>   -0.9965    1.0000 </r>
       <r>   -0.9953    1.0000 </r>
       <r>   -0.9305    1.0000 </r>
       <r>   -0.9217    1.0000 </r>
       <r>   -0.8035    1.0000 </r>
       <r>   -0.7835    1.0000 </r>
       <r>   -0.6502    1.0000 </r>
       <r>   -0.5963    1.0000 </r>
       <r>   -0.5843    1.0000 </r>
       <r>   -0.4276    1.0000 </r>
       <r>   -0.4221    1.0000 </r>
       <r>   -0.3269    1.0000 </r>
       <r>   -0.2700    1.0000 </r>
       <r>   -0.2145    1.0000 </r>
       <r>   -0.1886    1.0000 </r>
       <r>   -0.1373    1.0000 </r>
       <r>   -0.1138    1.0000 </r>
       <r>   -0.0699    1.0000 </r>
       <r>   -0.0527    1.0000 </r>
       <r>   -0.0490    1.0000 </r>
       <r>   -0.0135    1.0000 </r>
       <r>    0.0107    1.0000 </r>
       <r>    0.0242    1.0000 </r>
       <r>    0.0324    1.0000 </r>
       <r>    0.0580    1.0000 </r>
       <r>    0.0841    1.0000 </r>
       <r>    0.0977    1.0000 </r>
       <r>    0.1467    1.0000 </r>
       <r>    0.1546    1.0000 </r>
       <r>    0.1802    1.0000 </r>
       <r>    0.1986    1.0000 </r>
       <r>    0.2630    1.0000 </r>
       <r>    0.2753    1.0000 </r>
       <r>    0.2910    1.0000 </r>
       <r>    0.3130    1.0000 </r>
       <r>    0.3534    1.0000 </r>
       <r>    0.3705    1.0000 </r>
       <r>    0.3783    1.0000 </r>
       <r>    0.4017    1.0000 </r>
       <r>    0.4192    1.0000 </r>
       <r>    0.4463    1.0000 </r>
       <r>    0.4817    1.0000 </r>
       <r>    0.5188    1.0000 </r>
       <r>    0.5487    1.0000 </r>
       <r>    0.6126    1.0000 </r>
       <r>    0.6367    1.0000 </r>
       <r>    0.6900    1.0000 </r>
       <r>    0.7778    1.0000 </r>
       <r>    0.7959    1.0000 </r>
       <r>    0.8202    1.0000 </r>
       <r>    0.8483    1.0000 </r>
       <r>    0.8618    1.0000 </r>
       <r>    0.8720    1.0000 </r>
       <r>    0.8769    1.0000 </r>
       <r>    0.8948    1.0000 </r>
       <r>    0.9377    1.0000 </r>
       <r>    0.9452    1.0000 </r>
       <r>    0.9689    1.0000 </r>
       <r>    0.9867    1.0000 </r>
       <r>    0.9927    1.0000 </r>
       <r>    1.0060    1.0000 </r>
       <r>    1.0591    1.0000 </r>
       <r>    1.0741    1.0000 </r>
       <r>    1.0782    1.0000 </r>
       <r>    1.1039    1.0000 </r>
       <r>    1.1772    1.0000 </r>
       <r>    1.2192    1.0000 </r>
       <r>    1.2356    1.0000 </r>
       <r>    1.2840    1.0000 </r>
       <r>    1.2936    1.0000 </r>
       <r>    1.3878    1.0000 </r>
       <r>    1.4048    1.0000 </r>
       <r>    1.4317    1.0000 </r>
       <r>    1.4395    1.0000 </r>
       <r>    1.4425    1.0000 </r>
       <r>    1.4675    1.0000 </r>
       <r>    1.4747    1.0000 </r>
       <r>    1.5100    1.0000 </r>
       <r>    1.5406    1.0000 </r>
       <r>    1.5522    1.0000 </r>
       <r>    1.5542    1.0000 </r>
       <r>    1.5695    1.0000 </r>
       <r>    1.6108    1.0000 </r>
       <r>    1.6499    1.0000 </r>
       <r>    1.6792    1.0000 </r>
       <r>    1.6992    1.0000 </r>
       <r>    1.7319    1.0000 </r>
       <r>    1.7416    1.0000 </r>
       <r>    1.7779    1.0000 </r>
       <r>    1.7922    1.0000 </r>
       <r>    1.7930    1.0000 </r>
       <r>    1.8066    1.0000 </r>
       <r>    1.8422    1.0000 </r>
       <r>    1.8852    1.0000 </r>
       <r>    1.9382    1.0000 </r>
       <r>    2.0049    1.0000 </r>
       <r>    2.0179    1.0000 </r>
       <r>    2.0586    1.0000 </r>
       <r>    2.0690    1.0000 </r>
       <r>    2.0882    1.0000 </r>
       <r>    2.1100    1.0000 </r>
       <r>    2.1545    1.0000 </r>
       <r>    2.1608    1.0000 </r>
       <r>    2.1816    1.0000 </r>
       <r>    2.1875    1.0000 </r>
       <r>    2.2311    1.0000 </r>
       <r>    2.2324    1.0000 </r>
       <r>    2.2516    1.0000 </r>
       <r>    2.2675    1.0000 </r>
       <r>    2.2914    1.0000 </r>
       <r>    2.2924    1.0000 </r>
       <r>    2.3564    1.0000 </r>
       <r>    2.3978    1.0000 </r>
       <r>    2.4238    1.0000 </r>
       <r>    2.4261    1.0000 </r>
       <r>    2.4957    1.0000 </r>
       <r>    2.4968    1.0000 </r>
       <r>    2.5549    1.0000 </r>
       <r>    2.5847    1.0000 </r>
       <r>    2.6038    1.0000 </r>
       <r>    2.6111    1.0000 </r>
       <r>    2.6341    1.0000 </r>
       <r>    2.6868    1.0000 </r>
       <r>    2.6984    1.0000 </r>
       <r>    2.7144    1.0000 </r>
       <r>    2.7530    1.0000 </r>
       <r>    2.7685    1.0000 </r>
       <r>    2.7783    1.0000 </r>
       <r>    2.7834    1.0000 </r>
       <r>    2.7855    1.0000 </r>
       <r>    2.7928    1.0000 </r>
       <r>    2.7986    1.0000 </r>
       <r>    2.7987    1.0000 </r>
       <r>    2.8111    1.0000 </r>
       <r>    2.8241    1.0000 </r>
       <r>    2.8537    1.0000 </r>
       <r>    2.8645    1.0000 </r>
       <r>    2.8812    1.0000 </r>
       <r>    2.8971    1.0000 </r>
       <r>    2.9088    1.0000 </r>
       <r>    2.9161    1.0000 </r>
       <r>    2.9379    1.0000 </r>
       <r>    2.9621    1.0000 </r>
       <r>    2.9854    1.0000 </r>
       <r>    3.0056    1.0000 </r>
       <r>    3.0135    1.0000 </r>
       <r>    3.0300    1.0000 </r>
       <r>    3.0417    1.0000 </r>
       <r>    3.0561    1.0000 </r>
       <r>    3.0782    1.0000 </r>
       <r>    3.0847    1.0000 </r>
       <r>    3.1173    1.0000 </r>
       <r>    3.1456    1.0000 </r>
       <r>    3.1520    1.0000 </r>
       <r>    3.1578    1.0000 </r>
       <r>    3.1809    1.0000 </r>
       <r>    3.1974    1.0000 </r>
       <r>    3.2307    1.0000 </r>
       <r>    3.2328    1.0000 </r>
       <r>    3.2371    1.0000 </r>
       <r>    3.2780    1.0000 </r>
       <r>    3.2985    1.0000 </r>
       <r>    3.3147    1.0000 </r>
       <r>    3.3276    1.0000 </r>
       <r>    3.3331    1.0000 </r>
       <r>    3.3974    1.0000 </r>
       <r>    3.4164    1.0000 </r>
       <r>    3.6137    1.0000 </r>
       <r>    3.6308    1.0000 </r>
       <r>    3.6472    1.0000 </r>
       <r>    3.6485    1.0000 </r>
       <r>    3.7283    1.0000 </r>
       <r>    3.7298    1.0000 </r>
       <r>    3.7392    1.0000 </r>
       <r>    3.8285    1.0000 </r>
       <r>    4.9735    1.0000 </r>
       <r>    5.2859    0.9987 </r>
       <r>    5.4821    0.0056 </r>
       <r>    6.7993    0.0000 </r>
       <r>    7.2336    0.0000 </r>
       <r>    7.3291    0.0000 </r>
       <r>    7.3931    0.0000 </r>
       <r>    8.6620    0.0000 </r>
       <r>    8.6808    0.0000 </r>
       <r>    8.8257    0.0000 </r>
       <r>    8.9260    0.0000 </r>
       <r>    8.9839    0.0000 </r>
       <r>    9.0273    0.0000 </r>
       <r>    9.1311    0.0000 </r>
       <r>    9.1734    0.0000 </r>
       <r>    9.4247    0.0000 </r>
       <r>    9.4716    0.0000 </r>
       <r>    9.4902    0.0000 </r>
       <r>    9.5311    0.0000 </r>
       <r>    9.5523    0.0000 </r>
       <r>    9.6882    0.0000 </r>
       <r>    9.7715    0.0000 </r>
       <r>    9.8363    0.0000 </r>
       <r>   10.2159    0.0000 </r>
       <r>   10.2217    0.0000 </r>
       <r>   10.3987    0.0000 </r>
       <r>   10.4322    0.0000 </r>
       <r>   10.4607    0.0000 </r>
       <r>   10.4890    0.0000 </r>
       <r>   10.5136    0.0000 </r>
       <r>   10.5173    0.0000 </r>
       <r>   10.5211    0.0000 </r>
       <r>   10.5564    0.0000 </r>
       <r>   10.5703    0.0000 </r>
       <r>   10.6339    0.0000 </r>
       <r>   10.6385    0.0000 </r>
       <r>   10.6785    0.0000 </r>
       <r>   10.7041    0.0000 </r>
       <r>   10.7080    0.0000 </r>
       <r>   10.7159    0.0000 </r>
       <r>   10.8341    0.0000 </r>
       <r>   10.8563    0.0000 </r>
       <r>   10.9907    0.0000 </r>
       <r>   11.0152    0.0000 </r>
       <r>   11.2424    0.0000 </r>
       <r>   11.3032    0.0000 </r>
       <r>   11.3325    0.0000 </r>
       <r>   11.3581    0.0000 </r>
       <r>   11.3783    0.0000 </r>
       <r>   11.3850    0.0000 </r>
       <r>   11.5919    0.0000 </r>
       <r>   11.6124    0.0000 </r>
       <r>   11.6896    0.0000 </r>
       <r>   11.6966    0.0000 </r>
       <r>   11.7037    0.0000 </r>
       <r>   11.7350    0.0000 </r>
       <r>   11.9462    0.0000 </r>
       <r>   12.0238    0.0000 </r>
       <r>   12.0599    0.0000 </r>
       <r>   12.0704    0.0000 </r>
       <r>   12.1035    0.0000 </r>
       <r>   12.1186    0.0000 </r>
       <r>   12.2006    0.0000 </r>
       <r>   12.2380    0.0000 </r>
       <r>   12.2645    0.0000 </r>
       <r>   12.2877    0.0000 </r>
       <r>   12.2930    0.0000 </r>
       <r>   12.3443    0.0000 </r>
       <r>   12.3504    0.0000 </r>
       <r>   12.4196    0.0000 </r>
       <r>   12.4728    0.0000 </r>
       <r>   12.4767    0.0000 </r>
       <r>   12.5072    0.0000 </r>
       <r>   12.5419    0.0000 </r>
       <r>   12.5922    0.0000 </r>
       <r>   12.5974    0.0000 </r>
       <r>   13.0072    0.0000 </r>
       <r>   13.0833    0.0000 </r>
       <r>   13.1348    0.0000 </r>
       <r>   13.1661    0.0000 </r>
       <r>   13.2349    0.0000 </r>
       <r>   13.2505    0.0000 </r>
       <r>   13.3072    0.0000 </r>
       <r>   13.3219    0.0000 </r>
       <r>   13.5378    0.0000 </r>
       <r>   13.6564    0.0000 </r>
       <r>   13.7255    0.0000 </r>
       <r>   13.7508    0.0000 </r>
       <r>   13.7811    0.0000 </r>
       <r>   13.8186    0.0000 </r>
       <r>   13.9483    0.0000 </r>
       <r>   13.9827    0.0000 </r>
       <r>   14.0098    0.0000 </r>
       <r>   14.0683    0.0000 </r>
       <r>   14.0742    0.0000 </r>
       <r>   14.1005    0.0000 </r>
       <r>   14.1540    0.0000 </r>
       <r>   14.2282    0.0000 </r>
       <r>   14.3388    0.0000 </r>
       <r>   14.3630    0.0000 </r>
       <r>   14.3746    0.0000 </r>
       <r>   14.4279    0.0000 </r>
       <r>   14.4452    0.0000 </r>
       <r>   14.5106    0.0000 </r>
       <r>   14.5196    0.0000 </r>
       <r>   14.6240    0.0000 </r>
       <r>   14.6379    0.0000 </r>
      </set>
      <set comment="kpoint 4">
       <r>  -14.7994    1.0000 </r>
       <r>  -14.7950    1.0000 </r>
       <r>  -14.7882    1.0000 </r>
       <r>  -14.7644    1.0000 </r>
       <r>  -14.6006    1.0000 </r>
       <r>  -14.5974    1.0000 </r>
       <r>  -14.5909    1.0000 </r>
       <r>  -14.5420    1.0000 </r>
       <r>  -14.1846    1.0000 </r>
       <r>  -14.1753    1.0000 </r>
       <r>  -14.1695    1.0000 </r>
       <r>  -14.1608    1.0000 </r>
       <r>  -14.1323    1.0000 </r>
       <r>  -14.1311    1.0000 </r>
       <r>  -14.1205    1.0000 </r>
       <r>  -14.0836    1.0000 </r>
       <r>  -13.9758    1.0000 </r>
       <r>  -13.9747    1.0000 </r>
       <r>  -13.9725    1.0000 </r>
       <r>  -13.9675    1.0000 </r>
       <r>  -13.9586    1.0000 </r>
       <r>  -13.9563    1.0000 </r>
       <r>  -13.8647    1.0000 </r>
       <r>  -13.8593    1.0000 </r>
       <r>  -13.8535    1.0000 </r>
       <r>  -13.8473    1.0000 </r>
       <r>  -13.8429    1.0000 </r>
       <r>  -13.8413    1.0000 </r>
       <r>  -13.8206    1.0000 </r>
       <r>  -13.8102    1.0000 </r>
       <r>  -13.7943    1.0000 </r>
       <r>  -13.7289    1.0000 </r>
       <r>  -13.7231    1.0000 </r>
       <r>  -13.6874    1.0000 </r>
       <r>  -13.6790    1.0000 </r>
       <r>  -13.6698    1.0000 </r>
       <r>  -13.6505    1.0000 </r>
       <r>  -13.6412    1.0000 </r>
       <r>  -13.6112    1.0000 </r>
       <r>  -13.6082    1.0000 </r>
       <r>  -13.6054    1.0000 </r>
       <r>  -13.5982    1.0000 </r>
       <r>  -13.5928    1.0000 </r>
       <r>  -13.5903    1.0000 </r>
       <r>  -13.5850    1.0000 </r>
       <r>  -13.5784    1.0000 </r>
       <r>  -13.5507    1.0000 </r>
       <r>  -13.5111    1.0000 </r>
       <r>  -13.5091    1.0000 </r>
       <r>  -13.5032    1.0000 </r>
       <r>  -13.4874    1.0000 </r>
       <r>  -13.3875    1.0000 </r>
       <r>  -13.3808    1.0000 </r>
       <r>  -13.3689    1.0000 </r>
       <r>  -13.3648    1.0000 </r>
       <r>  -13.3583    1.0000 </r>
       <r>  -13.3566    1.0000 </r>
       <r>  -13.3458    1.0000 </r>
       <r>  -13.3362    1.0000 </r>
       <r>  -13.3341    1.0000 </r>
       <r>  -13.3335    1.0000 </r>
       <r>  -13.3309    1.0000 </r>
       <r>  -13.3263    1.0000 </r>
       <r>  -13.3169    1.0000 </r>
       <r>  -13.3043    1.0000 </r>
       <r>  -13.2993    1.0000 </r>
       <r>  -13.2711    1.0000 </r>
       <r>  -13.2673    1.0000 </r>
       <r>  -13.2558    1.0000 </r>
       <r>  -13.1964    1.0000 </r>
       <r>  -13.1765    1.0000 </r>
       <r>  -10.3280    1.0000 </r>
       <r>   -9.1340    1.0000 </r>
       <r>   -9.1241    1.0000 </r>
       <r>   -9.1077    1.0000 </r>
       <r>   -9.1056    1.0000 </r>
       <r>   -9.1045    1.0000 </r>
       <r>   -9.0931    1.0000 </r>
       <r>   -9.0927    1.0000 </r>
       <r>   -9.0889    1.0000 </r>
       <r>   -9.0842    1.0000 </r>
       <r>   -9.0838    1.0000 </r>
       <r>   -9.0795    1.0000 </r>
       <r>   -9.0776    1.0000 </r>
       <r>   -9.0590    1.0000 </r>
       <r>   -9.0537    1.0000 </r>
       <r>   -9.0508    1.0000 </r>
       <r>   -9.0461    1.0000 </r>
       <r>   -9.0452    1.0000 </r>
       <r>   -9.0332    1.0000 </r>
       <r>   -9.0321    1.0000 </r>
       <r>   -9.0309    1.0000 </r>
       <r>   -9.0288    1.0000 </r>
       <r>   -9.0269    1.0000 </r>
       <r>   -9.0207    1.0000 </r>
       <r>   -9.0194    1.0000 </r>
       <r>   -9.0171    1.0000 </r>
       <r>   -9.0162    1.0000 </r>
       <r>   -9.0080    1.0000 </r>
       <r>   -8.9999    1.0000 </r>
       <r>   -8.9947    1.0000 </r>
       <r>   -8.9933    1.0000 </r>
       <r>   -8.9887    1.0000 </r>
       <r>   -8.9882    1.0000 </r>
       <r>   -8.9860    1.0000 </r>
       <r>   -8.9838    1.0000 </r>
       <r>   -8.9821    1.0000 </r>
       <r>   -8.9806    1.0000 </r>
       <r>   -8.9788    1.0000 </r>
       <r>   -8.9777    1.0000 </r>
       <r>   -8.9736    1.0000 </r>
       <r>   -8.9713    1.0000 </r>
       <r>   -8.9696    1.0000 </r>
       <r>   -8.9658    1.0000 </r>
       <r>   -8.9645    1.0000 </r>
       <r>   -8.9610    1.0000 </r>
       <r>   -8.9609    1.0000 </r>
       <r>   -8.9598    1.0000 </r>
       <r>   -8.9576    1.0000 </r>
       <r>   -8.9555    1.0000 </r>
       <r>   -8.9534    1.0000 </r>
       <r>   -8.9517    1.0000 </r>
       <r>   -8.9515    1.0000 </r>
       <r>   -8.9466    1.0000 </r>
       <r>   -8.9451    1.0000 </r>
       <r>   -8.9435    1.0000 </r>
       <r>   -8.9416    1.0000 </r>
       <r>   -8.9404    1.0000 </r>
       <r>   -8.9390    1.0000 </r>
       <r>   -8.9366    1.0000 </r>
       <r>   -8.9335    1.0000 </r>
       <r>   -8.9316    1.0000 </r>
       <r>   -8.9284    1.0000 </r>
       <r>   -8.9271    1.0000 </r>
       <r>   -8.9211    1.0000 </r>
       <r>   -8.9139    1.0000 </r>
       <r>   -8.9089    1.0000 </r>
       <r>   -8.8982    1.0000 </r>
       <r>   -8.8895    1.0000 </r>
       <r>   -8.8824    1.0000 </r>
       <r>   -8.8795    1.0000 </r>
       <r>   -8.8776    1.0000 </r>
       <r>   -8.8736    1.0000 </r>
       <r>   -8.8730    1.0000 </r>
       <r>   -8.8722    1.0000 </r>
       <r>   -8.8708    1.0000 </r>
       <r>   -8.8684    1.0000 </r>
       <r>   -8.8656    1.0000 </r>
       <r>   -8.8635    1.0000 </r>
       <r>   -8.8616    1.0000 </r>
       <r>   -8.8599    1.0000 </r>
       <r>   -8.8581    1.0000 </r>
       <r>   -8.8532    1.0000 </r>
       <r>   -8.8524    1.0000 </r>
       <r>   -8.8501    1.0000 </r>
       <r>   -8.8449    1.0000 </r>
       <r>   -8.8446    1.0000 </r>
       <r>   -8.8428    1.0000 </r>
       <r>   -8.8424    1.0000 </r>
       <r>   -8.8401    1.0000 </r>
       <r>   -8.8377    1.0000 </r>
       <r>   -8.8361    1.0000 </r>
       <r>   -8.8339    1.0000 </r>
       <r>   -8.8331    1.0000 </r>
       <r>   -8.8314    1.0000 </r>
       <r>   -8.8295    1.0000 </r>
       <r>   -8.8265    1.0000 </r>
       <r>   -8.8261    1.0000 </r>
       <r>   -8.8230    1.0000 </r>
       <r>   -8.8224    1.0000 </r>
       <r>   -8.8217    1.0000 </r>
       <r>   -8.8192    1.0000 </r>
       <r>   -8.8190    1.0000 </r>
       <r>   -8.8175    1.0000 </r>
       <r>   -8.8142    1.0000 </r>
       <r>   -8.8136    1.0000 </r>
       <r>   -8.8130    1.0000 </r>
       <r>   -8.8111    1.0000 </r>
       <r>   -8.8103    1.0000 </r>
       <r>   -8.8073    1.0000 </r>
       <r>   -8.8064    1.0000 </r>
       <r>   -8.8034    1.0000 </r>
       <r>   -8.8030    1.0000 </r>
       <r>   -8.7988    1.0000 </r>
       <r>   -8.7960    1.0000 </r>
       <r>   -8.7951    1.0000 </r>
       <r>   -8.7894    1.0000 </r>
       <r>   -8.7863    1.0000 </r>
       <r>   -8.7842    1.0000 </r>
       <r>   -8.7822    1.0000 </r>
       <r>   -8.7780    1.0000 </r>
       <r>   -8.7697    1.0000 </r>
       <r>   -8.7643    1.0000 </r>
       <r>   -8.7636    1.0000 </r>
       <r>   -8.7548    1.0000 </r>
       <r>   -8.7531    1.0000 </r>
       <r>   -8.7475    1.0000 </r>
       <r>   -8.7471    1.0000 </r>
       <r>   -8.7464    1.0000 </r>
       <r>   -8.7443    1.0000 </r>
       <r>   -8.7414    1.0000 </r>
       <r>   -8.7342    1.0000 </r>
       <r>   -8.7324    1.0000 </r>
       <r>   -8.7227    1.0000 </r>
       <r>   -8.7174    1.0000 </r>
       <r>   -8.7065    1.0000 </r>
       <r>   -8.6959    1.0000 </r>
       <r>   -8.6928    1.0000 </r>
       <r>   -8.6922    1.0000 </r>
       <r>   -8.6909    1.0000 </r>
       <r>   -8.6882    1.0000 </r>
       <r>   -8.6863    1.0000 </r>
       <r>   -8.6855    1.0000 </r>
       <r>   -8.6837    1.0000 </r>
       <r>   -8.6819    1.0000 </r>
       <r>   -8.6771    1.0000 </r>
       <r>   -8.6749    1.0000 </r>
       <r>   -8.6719    1.0000 </r>
       <r>   -8.6707    1.0000 </r>
       <r>   -8.6693    1.0000 </r>
       <r>   -8.6681    1.0000 </r>
       <r>   -8.6671    1.0000 </r>
       <r>   -8.6580    1.0000 </r>
       <r>   -8.6559    1.0000 </r>
       <r>   -8.6506    1.0000 </r>
       <r>   -8.6504    1.0000 </r>
       <r>   -8.6481    1.0000 </r>
       <r>   -8.6456    1.0000 </r>
       <r>   -8.6423    1.0000 </r>
       <r>   -8.6417    1.0000 </r>
       <r>   -8.6410    1.0000 </r>
       <r>   -8.6393    1.0000 </r>
       <r>   -8.6360    1.0000 </r>
       <r>   -8.6332    1.0000 </r>
       <r>   -8.6330    1.0000 </r>
       <r>   -8.6318    1.0000 </r>
       <r>   -8.6287    1.0000 </r>
       <r>   -8.6269    1.0000 </r>
       <r>   -8.6239    1.0000 </r>
       <r>   -8.6193    1.0000 </r>
       <r>   -8.6154    1.0000 </r>
       <r>   -8.6121    1.0000 </r>
       <r>   -8.6109    1.0000 </r>
       <r>   -8.6099    1.0000 </r>
       <r>   -8.6089    1.0000 </r>
       <r>   -8.6052    1.0000 </r>
       <r>   -8.6033    1.0000 </r>
       <r>   -8.6010    1.0000 </r>
       <r>   -8.6004    1.0000 </r>
       <r>   -8.5970    1.0000 </r>
       <r>   -8.5953    1.0000 </r>
       <r>   -8.5948    1.0000 </r>
       <r>   -8.5923    1.0000 </r>
       <r>   -8.5917    1.0000 </r>
       <r>   -8.5886    1.0000 </r>
       <r>   -8.5878    1.0000 </r>
       <r>   -8.5859    1.0000 </r>
       <r>   -8.5845    1.0000 </r>
       <r>   -8.5832    1.0000 </r>
       <r>   -8.5781    1.0000 </r>
       <r>   -8.5700    1.0000 </r>
       <r>   -8.5536    1.0000 </r>
       <r>   -8.5515    1.0000 </r>
       <r>   -8.5346    1.0000 </r>
       <r>   -8.4797    1.0000 </r>
       <r>   -8.4668    1.0000 </r>
       <r>   -8.4662    1.0000 </r>
       <r>   -8.4608    1.0000 </r>
       <r>   -8.4492    1.0000 </r>
       <r>   -8.4416    1.0000 </r>
       <r>   -8.4323    1.0000 </r>
       <r>   -8.4232    1.0000 </r>
       <r>   -8.4001    1.0000 </r>
       <r>   -8.3934    1.0000 </r>
       <r>   -8.3881    1.0000 </r>
       <r>   -8.3552    1.0000 </r>
       <r>   -8.3517    1.0000 </r>
       <r>   -8.3331    1.0000 </r>
       <r>   -8.3323    1.0000 </r>
       <r>   -8.3079    1.0000 </r>
       <r>   -8.3042    1.0000 </r>
       <r>   -8.2776    1.0000 </r>
       <r>   -8.2644    1.0000 </r>
       <r>   -8.2418    1.0000 </r>
       <r>   -8.2121    1.0000 </r>
       <r>   -8.1858    1.0000 </r>
       <r>   -8.1757    1.0000 </r>
       <r>   -8.1570    1.0000 </r>
       <r>   -8.1532    1.0000 </r>
       <r>   -8.1485    1.0000 </r>
       <r>   -8.0967    1.0000 </r>
       <r>   -8.0565    1.0000 </r>
       <r>   -8.0275    1.0000 </r>
       <r>   -8.0216    1.0000 </r>
       <r>   -7.9966    1.0000 </r>
       <r>   -7.9834    1.0000 </r>
       <r>   -7.9777    1.0000 </r>
       <r>   -7.9704    1.0000 </r>
       <r>   -7.9647    1.0000 </r>
       <r>   -7.9508    1.0000 </r>
       <r>   -7.9462    1.0000 </r>
       <r>   -7.9278    1.0000 </r>
       <r>   -7.9083    1.0000 </r>
       <r>   -7.8473    1.0000 </r>
       <r>   -7.8361    1.0000 </r>
       <r>   -7.8204    1.0000 </r>
       <r>   -7.7224    1.0000 </r>
       <r>   -3.0682    1.0000 </r>
       <r>   -3.0600    1.0000 </r>
       <r>   -3.0582    1.0000 </r>
       <r>   -3.0476    1.0000 </r>
       <r>   -3.0388    1.0000 </r>
       <r>   -2.9492    1.0000 </r>
       <r>   -2.7402    1.0000 </r>
       <r>   -2.7175    1.0000 </r>
       <r>   -2.5706    1.0000 </r>
       <r>   -2.5531    1.0000 </r>
       <r>   -2.3969    1.0000 </r>
       <r>   -2.3961    1.0000 </r>
       <r>   -2.3504    1.0000 </r>
       <r>   -2.3398    1.0000 </r>
       <r>   -2.2590    1.0000 </r>
       <r>   -2.2395    1.0000 </r>
       <r>   -2.2263    1.0000 </r>
       <r>   -2.2146    1.0000 </r>
       <r>   -2.1693    1.0000 </r>
       <r>   -2.1593    1.0000 </r>
       <r>   -2.1491    1.0000 </r>
       <r>   -2.0971    1.0000 </r>
       <r>   -2.0606    1.0000 </r>
       <r>   -2.0289    1.0000 </r>
       <r>   -1.9686    1.0000 </r>
       <r>   -1.9480    1.0000 </r>
       <r>   -1.8865    1.0000 </r>
       <r>   -1.8775    1.0000 </r>
       <r>   -1.8444    1.0000 </r>
       <r>   -1.8345    1.0000 </r>
       <r>   -1.8306    1.0000 </r>
       <r>   -1.6005    1.0000 </r>
       <r>   -1.4375    1.0000 </r>
       <r>   -1.4359    1.0000 </r>
       <r>   -1.4289    1.0000 </r>
       <r>   -1.2027    1.0000 </r>
       <r>   -1.1825    1.0000 </r>
       <r>   -1.1617    1.0000 </r>
       <r>   -1.1102    1.0000 </r>
       <r>   -1.0886    1.0000 </r>
       <r>   -1.0393    1.0000 </r>
       <r>   -1.0091    1.0000 </r>
       <r>   -0.9394    1.0000 </r>
       <r>   -0.9064    1.0000 </r>
       <r>   -0.8576    1.0000 </r>
       <r>   -0.8472    1.0000 </r>
       <r>   -0.8280    1.0000 </r>
       <r>   -0.7685    1.0000 </r>
       <r>   -0.7672    1.0000 </r>
       <r>   -0.5880    1.0000 </r>
       <r>   -0.3855    1.0000 </r>
       <r>   -0.3767    1.0000 </r>
       <r>   -0.3353    1.0000 </r>
       <r>   -0.3010    1.0000 </r>
       <r>   -0.2886    1.0000 </r>
       <r>   -0.2811    1.0000 </r>
       <r>   -0.0737    1.0000 </r>
       <r>   -0.0395    1.0000 </r>
       <r>   -0.0268    1.0000 </r>
       <r>   -0.0013    1.0000 </r>
       <r>    0.0354    1.0000 </r>
       <r>    0.0382    1.0000 </r>
       <r>    0.0451    1.0000 </r>
       <r>    0.0928    1.0000 </r>
       <r>    0.1125    1.0000 </r>
       <r>    0.1284    1.0000 </r>
       <r>    0.1303    1.0000 </r>
       <r>    0.1338    1.0000 </r>
       <r>    0.1489    1.0000 </r>
       <r>    0.1673    1.0000 </r>
       <r>    0.1827    1.0000 </r>
       <r>    0.1839    1.0000 </r>
       <r>    0.2060    1.0000 </r>
       <r>    0.2637    1.0000 </r>
       <r>    0.3728    1.0000 </r>
       <r>    0.4023    1.0000 </r>
       <r>    0.4076    1.0000 </r>
       <r>    0.4192    1.0000 </r>
       <r>    0.4263    1.0000 </r>
       <r>    0.4596    1.0000 </r>
       <r>    0.4714    1.0000 </r>
       <r>    0.5035    1.0000 </r>
       <r>    0.5671    1.0000 </r>
       <r>    0.5822    1.0000 </r>
       <r>    0.6178    1.0000 </r>
       <r>    0.6459    1.0000 </r>
       <r>    0.6821    1.0000 </r>
       <r>    0.6890    1.0000 </r>
       <r>    0.6971    1.0000 </r>
       <r>    0.6990    1.0000 </r>
       <r>    0.7181    1.0000 </r>
       <r>    0.7267    1.0000 </r>
       <r>    0.7643    1.0000 </r>
       <r>    0.8534    1.0000 </r>
       <r>    0.9165    1.0000 </r>
       <r>    0.9300    1.0000 </r>
       <r>    0.9348    1.0000 </r>
       <r>    0.9484    1.0000 </r>
       <r>    0.9838    1.0000 </r>
       <r>    1.0244    1.0000 </r>
       <r>    1.0656    1.0000 </r>
       <r>    1.0848    1.0000 </r>
       <r>    1.0975    1.0000 </r>
       <r>    1.1006    1.0000 </r>
       <r>    1.1324    1.0000 </r>
       <r>    1.1359    1.0000 </r>
       <r>    1.1662    1.0000 </r>
       <r>    1.1927    1.0000 </r>
       <r>    1.1990    1.0000 </r>
       <r>    1.2134    1.0000 </r>
       <r>    1.2236    1.0000 </r>
       <r>    1.2401    1.0000 </r>
       <r>    1.2455    1.0000 </r>
       <r>    1.2560    1.0000 </r>
       <r>    1.2796    1.0000 </r>
       <r>    1.3151    1.0000 </r>
       <r>    1.3406    1.0000 </r>
       <r>    1.3759    1.0000 </r>
       <r>    1.3856    1.0000 </r>
       <r>    1.4232    1.0000 </r>
       <r>    1.4515    1.0000 </r>
       <r>    1.5482    1.0000 </r>
       <r>    1.6396    1.0000 </r>
       <r>    1.6411    1.0000 </r>
       <r>    1.6770    1.0000 </r>
       <r>    1.6828    1.0000 </r>
       <r>    1.7018    1.0000 </r>
       <r>    1.7398    1.0000 </r>
       <r>    1.7640    1.0000 </r>
       <r>    1.7722    1.0000 </r>
       <r>    1.7838    1.0000 </r>
       <r>    1.8097    1.0000 </r>
       <r>    1.9134    1.0000 </r>
       <r>    1.9276    1.0000 </r>
       <r>    1.9981    1.0000 </r>
       <r>    2.0016    1.0000 </r>
       <r>    2.0113    1.0000 </r>
       <r>    2.0313    1.0000 </r>
       <r>    2.0482    1.0000 </r>
       <r>    2.0830    1.0000 </r>
       <r>    2.0860    1.0000 </r>
       <r>    2.1377    1.0000 </r>
       <r>    2.1510    1.0000 </r>
       <r>    2.1917    1.0000 </r>
       <r>    2.2044    1.0000 </r>
       <r>    2.2554    1.0000 </r>
       <r>    2.2616    1.0000 </r>
       <r>    2.3146    1.0000 </r>
       <r>    2.3531    1.0000 </r>
       <r>    2.3726    1.0000 </r>
       <r>    2.4004    1.0000 </r>
       <r>    2.4067    1.0000 </r>
       <r>    2.4088    1.0000 </r>
       <r>    2.4151    1.0000 </r>
       <r>    2.4279    1.0000 </r>
       <r>    2.4388    1.0000 </r>
       <r>    2.4459    1.0000 </r>
       <r>    2.4585    1.0000 </r>
       <r>    2.4954    1.0000 </r>
       <r>    2.5151    1.0000 </r>
       <r>    2.5727    1.0000 </r>
       <r>    2.5988    1.0000 </r>
       <r>    2.6059    1.0000 </r>
       <r>    2.6476    1.0000 </r>
       <r>    2.6564    1.0000 </r>
       <r>    2.6623    1.0000 </r>
       <r>    2.7026    1.0000 </r>
       <r>    2.7048    1.0000 </r>
       <r>    2.7089    1.0000 </r>
       <r>    2.7175    1.0000 </r>
       <r>    2.7750    1.0000 </r>
       <r>    2.7959    1.0000 </r>
       <r>    2.7987    1.0000 </r>
       <r>    2.8023    1.0000 </r>
       <r>    2.8134    1.0000 </r>
       <r>    2.8149    1.0000 </r>
       <r>    2.8171    1.0000 </r>
       <r>    2.8399    1.0000 </r>
       <r>    2.8494    1.0000 </r>
       <r>    2.8517    1.0000 </r>
       <r>    2.9455    1.0000 </r>
       <r>    2.9468    1.0000 </r>
       <r>    2.9880    1.0000 </r>
       <r>    2.9993    1.0000 </r>
       <r>    3.0095    1.0000 </r>
       <r>    3.0140    1.0000 </r>
       <r>    3.0188    1.0000 </r>
       <r>    3.0235    1.0000 </r>
       <r>    3.0325    1.0000 </r>
       <r>    3.0367    1.0000 </r>
       <r>    3.0429    1.0000 </r>
       <r>    3.0461    1.0000 </r>
       <r>    3.0558    1.0000 </r>
       <r>    3.0626    1.0000 </r>
       <r>    3.0977    1.0000 </r>
       <r>    3.1005    1.0000 </r>
       <r>    3.1421    1.0000 </r>
       <r>    3.1601    1.0000 </r>
       <r>    3.1872    1.0000 </r>
       <r>    3.1988    1.0000 </r>
       <r>    3.2667    1.0000 </r>
       <r>    3.3100    1.0000 </r>
       <r>    3.3417    1.0000 </r>
       <r>    3.3799    1.0000 </r>
       <r>    3.3874    1.0000 </r>
       <r>    3.4273    1.0000 </r>
       <r>    3.5472    1.0000 </r>
       <r>    3.6208    1.0000 </r>
       <r>    3.6452    1.0000 </r>
       <r>    3.6467    1.0000 </r>
       <r>    3.6619    1.0000 </r>
       <r>    3.6652    1.0000 </r>
       <r>    3.6855    1.0000 </r>
       <r>    3.6884    1.0000 </r>
       <r>    3.6971    1.0000 </r>
       <r>    3.8018    1.0000 </r>
       <r>    4.9741    1.0000 </r>
       <r>    5.2817    0.9991 </r>
       <r>    5.4802    0.0065 </r>
       <r>    6.8000    0.0000 </r>
       <r>    7.2431    0.0000 </r>
       <r>    7.7309    0.0000 </r>
       <r>    7.7721    0.0000 </r>
       <r>    7.7778    0.0000 </r>
       <r>    7.8537    0.0000 </r>
       <r>    9.0532    0.0000 </r>
       <r>    9.0556    0.0000 </r>
       <r>    9.0742    0.0000 </r>
       <r>    9.1444    0.0000 </r>
       <r>    9.3003    0.0000 </r>
       <r>    9.3806    0.0000 </r>
       <r>    9.4840    0.0000 </r>
       <r>    9.4942    0.0000 </r>
       <r>    9.5072    0.0000 </r>
       <r>    9.5289    0.0000 </r>
       <r>    9.5551    0.0000 </r>
       <r>    9.5677    0.0000 </r>
       <r>    9.6218    0.0000 </r>
       <r>    9.7389    0.0000 </r>
       <r>   10.1529    0.0000 </r>
       <r>   10.1587    0.0000 </r>
       <r>   10.4919    0.0000 </r>
       <r>   10.4945    0.0000 </r>
       <r>   10.5008    0.0000 </r>
       <r>   10.5205    0.0000 </r>
       <r>   10.5273    0.0000 </r>
       <r>   10.5383    0.0000 </r>
       <r>   10.5412    0.0000 </r>
       <r>   10.5469    0.0000 </r>
       <r>   10.5492    0.0000 </r>
       <r>   10.5624    0.0000 </r>
       <r>   10.6316    0.0000 </r>
       <r>   10.8456    0.0000 </r>
       <r>   10.8728    0.0000 </r>
       <r>   10.8915    0.0000 </r>
       <r>   10.8961    0.0000 </r>
       <r>   10.9499    0.0000 </r>
       <r>   10.9802    0.0000 </r>
       <r>   10.9944    0.0000 </r>
       <r>   11.0988    0.0000 </r>
       <r>   11.1139    0.0000 </r>
       <r>   11.1284    0.0000 </r>
       <r>   11.1313    0.0000 </r>
       <r>   11.1378    0.0000 </r>
       <r>   11.4483    0.0000 </r>
       <r>   11.4552    0.0000 </r>
       <r>   11.6182    0.0000 </r>
       <r>   11.6248    0.0000 </r>
       <r>   11.6280    0.0000 </r>
       <r>   11.6676    0.0000 </r>
       <r>   11.9352    0.0000 </r>
       <r>   12.0568    0.0000 </r>
       <r>   12.0612    0.0000 </r>
       <r>   12.0677    0.0000 </r>
       <r>   12.0759    0.0000 </r>
       <r>   12.0872    0.0000 </r>
       <r>   12.0944    0.0000 </r>
       <r>   12.1085    0.0000 </r>
       <r>   12.1162    0.0000 </r>
       <r>   12.1338    0.0000 </r>
       <r>   12.1597    0.0000 </r>
       <r>   12.2013    0.0000 </r>
       <r>   12.2189    0.0000 </r>
       <r>   12.2551    0.0000 </r>
       <r>   12.2894    0.0000 </r>
       <r>   12.2954    0.0000 </r>
       <r>   12.4582    0.0000 </r>
       <r>   12.5013    0.0000 </r>
       <r>   12.5165    0.0000 </r>
       <r>   12.5735    0.0000 </r>
       <r>   12.6180    0.0000 </r>
       <r>   12.6987    0.0000 </r>
       <r>   12.8296    0.0000 </r>
       <r>   12.8344    0.0000 </r>
       <r>   12.9384    0.0000 </r>
       <r>   12.9820    0.0000 </r>
       <r>   13.0137    0.0000 </r>
       <r>   13.0838    0.0000 </r>
       <r>   13.3112    0.0000 </r>
       <r>   13.3678    0.0000 </r>
       <r>   13.4724    0.0000 </r>
       <r>   13.5907    0.0000 </r>
       <r>   13.8434    0.0000 </r>
       <r>   13.8640    0.0000 </r>
       <r>   13.8773    0.0000 </r>
       <r>   13.9214    0.0000 </r>
       <r>   13.9991    0.0000 </r>
       <r>   14.0531    0.0000 </r>
       <r>   14.0704    0.0000 </r>
       <r>   14.0975    0.0000 </r>
       <r>   14.1372    0.0000 </r>
       <r>   14.1469    0.0000 </r>
       <r>   14.1533    0.0000 </r>
       <r>   14.1575    0.0000 </r>
       <r>   14.1757    0.0000 </r>
       <r>   14.3753    0.0000 </r>
       <r>   14.3988    0.0000 </r>
       <r>   14.4263    0.0000 </r>
       <r>   14.4398    0.0000 </r>
       <r>   14.5219    0.0000 </r>
       <r>   14.6588    0.0000 </r>
       <r>   14.7156    0.0000 </r>
       <r>   14.7319    0.0000 </r>
      </set>
      <set comment="kpoint 5">
       <r>  -14.9940    1.0000 </r>
       <r>  -14.9556    1.0000 </r>
       <r>  -14.7396    1.0000 </r>
       <r>  -14.7108    1.0000 </r>
       <r>  -14.4451    1.0000 </r>
       <r>  -14.4153    1.0000 </r>
       <r>  -14.3520    1.0000 </r>
       <r>  -14.3454    1.0000 </r>
       <r>  -14.3253    1.0000 </r>
       <r>  -14.3158    1.0000 </r>
       <r>  -14.1664    1.0000 </r>
       <r>  -14.1581    1.0000 </r>
       <r>  -14.1471    1.0000 </r>
       <r>  -14.1411    1.0000 </r>
       <r>  -14.1316    1.0000 </r>
       <r>  -14.1021    1.0000 </r>
       <r>  -14.0427    1.0000 </r>
       <r>  -14.0302    1.0000 </r>
       <r>  -14.0210    1.0000 </r>
       <r>  -14.0178    1.0000 </r>
       <r>  -14.0081    1.0000 </r>
       <r>  -13.9509    1.0000 </r>
       <r>  -13.9352    1.0000 </r>
       <r>  -13.9029    1.0000 </r>
       <r>  -13.8410    1.0000 </r>
       <r>  -13.8313    1.0000 </r>
       <r>  -13.8158    1.0000 </r>
       <r>  -13.7948    1.0000 </r>
       <r>  -13.7664    1.0000 </r>
       <r>  -13.7482    1.0000 </r>
       <r>  -13.7405    1.0000 </r>
       <r>  -13.7374    1.0000 </r>
       <r>  -13.7316    1.0000 </r>
       <r>  -13.7307    1.0000 </r>
       <r>  -13.7212    1.0000 </r>
       <r>  -13.7114    1.0000 </r>
       <r>  -13.7089    1.0000 </r>
       <r>  -13.6202    1.0000 </r>
       <r>  -13.6034    1.0000 </r>
       <r>  -13.5979    1.0000 </r>
       <r>  -13.5973    1.0000 </r>
       <r>  -13.5936    1.0000 </r>
       <r>  -13.5931    1.0000 </r>
       <r>  -13.5864    1.0000 </r>
       <r>  -13.5815    1.0000 </r>
       <r>  -13.5517    1.0000 </r>
       <r>  -13.5407    1.0000 </r>
       <r>  -13.4920    1.0000 </r>
       <r>  -13.4699    1.0000 </r>
       <r>  -13.4355    1.0000 </r>
       <r>  -13.4245    1.0000 </r>
       <r>  -13.4218    1.0000 </r>
       <r>  -13.4198    1.0000 </r>
       <r>  -13.4143    1.0000 </r>
       <r>  -13.4119    1.0000 </r>
       <r>  -13.4042    1.0000 </r>
       <r>  -13.3916    1.0000 </r>
       <r>  -13.3828    1.0000 </r>
       <r>  -13.3674    1.0000 </r>
       <r>  -13.3203    1.0000 </r>
       <r>  -13.3179    1.0000 </r>
       <r>  -13.3176    1.0000 </r>
       <r>  -13.3096    1.0000 </r>
       <r>  -13.2991    1.0000 </r>
       <r>  -13.2896    1.0000 </r>
       <r>  -13.2844    1.0000 </r>
       <r>  -13.2708    1.0000 </r>
       <r>  -13.2607    1.0000 </r>
       <r>  -13.2389    1.0000 </r>
       <r>  -13.1826    1.0000 </r>
       <r>  -13.1823    1.0000 </r>
       <r>  -10.3279    1.0000 </r>
       <r>   -9.1416    1.0000 </r>
       <r>   -9.1372    1.0000 </r>
       <r>   -9.1173    1.0000 </r>
       <r>   -9.1169    1.0000 </r>
       <r>   -9.1126    1.0000 </r>
       <r>   -9.1054    1.0000 </r>
       <r>   -9.1005    1.0000 </r>
       <r>   -9.0998    1.0000 </r>
       <r>   -9.0987    1.0000 </r>
       <r>   -9.0944    1.0000 </r>
       <r>   -9.0690    1.0000 </r>
       <r>   -9.0686    1.0000 </r>
       <r>   -9.0481    1.0000 </r>
       <r>   -9.0341    1.0000 </r>
       <r>   -9.0336    1.0000 </r>
       <r>   -9.0327    1.0000 </r>
       <r>   -9.0266    1.0000 </r>
       <r>   -9.0226    1.0000 </r>
       <r>   -9.0200    1.0000 </r>
       <r>   -9.0171    1.0000 </r>
       <r>   -9.0129    1.0000 </r>
       <r>   -9.0103    1.0000 </r>
       <r>   -9.0098    1.0000 </r>
       <r>   -9.0086    1.0000 </r>
       <r>   -9.0074    1.0000 </r>
       <r>   -9.0050    1.0000 </r>
       <r>   -8.9992    1.0000 </r>
       <r>   -8.9979    1.0000 </r>
       <r>   -8.9970    1.0000 </r>
       <r>   -8.9874    1.0000 </r>
       <r>   -8.9862    1.0000 </r>
       <r>   -8.9827    1.0000 </r>
       <r>   -8.9799    1.0000 </r>
       <r>   -8.9782    1.0000 </r>
       <r>   -8.9743    1.0000 </r>
       <r>   -8.9720    1.0000 </r>
       <r>   -8.9705    1.0000 </r>
       <r>   -8.9680    1.0000 </r>
       <r>   -8.9655    1.0000 </r>
       <r>   -8.9627    1.0000 </r>
       <r>   -8.9582    1.0000 </r>
       <r>   -8.9578    1.0000 </r>
       <r>   -8.9572    1.0000 </r>
       <r>   -8.9556    1.0000 </r>
       <r>   -8.9549    1.0000 </r>
       <r>   -8.9496    1.0000 </r>
       <r>   -8.9490    1.0000 </r>
       <r>   -8.9471    1.0000 </r>
       <r>   -8.9413    1.0000 </r>
       <r>   -8.9375    1.0000 </r>
       <r>   -8.9362    1.0000 </r>
       <r>   -8.9335    1.0000 </r>
       <r>   -8.9286    1.0000 </r>
       <r>   -8.9284    1.0000 </r>
       <r>   -8.9268    1.0000 </r>
       <r>   -8.9196    1.0000 </r>
       <r>   -8.9169    1.0000 </r>
       <r>   -8.9157    1.0000 </r>
       <r>   -8.9142    1.0000 </r>
       <r>   -8.9121    1.0000 </r>
       <r>   -8.9085    1.0000 </r>
       <r>   -8.9068    1.0000 </r>
       <r>   -8.9042    1.0000 </r>
       <r>   -8.9038    1.0000 </r>
       <r>   -8.9018    1.0000 </r>
       <r>   -8.8973    1.0000 </r>
       <r>   -8.8961    1.0000 </r>
       <r>   -8.8946    1.0000 </r>
       <r>   -8.8936    1.0000 </r>
       <r>   -8.8919    1.0000 </r>
       <r>   -8.8914    1.0000 </r>
       <r>   -8.8867    1.0000 </r>
       <r>   -8.8863    1.0000 </r>
       <r>   -8.8848    1.0000 </r>
       <r>   -8.8819    1.0000 </r>
       <r>   -8.8771    1.0000 </r>
       <r>   -8.8759    1.0000 </r>
       <r>   -8.8741    1.0000 </r>
       <r>   -8.8735    1.0000 </r>
       <r>   -8.8714    1.0000 </r>
       <r>   -8.8706    1.0000 </r>
       <r>   -8.8690    1.0000 </r>
       <r>   -8.8677    1.0000 </r>
       <r>   -8.8672    1.0000 </r>
       <r>   -8.8653    1.0000 </r>
       <r>   -8.8642    1.0000 </r>
       <r>   -8.8620    1.0000 </r>
       <r>   -8.8617    1.0000 </r>
       <r>   -8.8594    1.0000 </r>
       <r>   -8.8587    1.0000 </r>
       <r>   -8.8573    1.0000 </r>
       <r>   -8.8565    1.0000 </r>
       <r>   -8.8530    1.0000 </r>
       <r>   -8.8495    1.0000 </r>
       <r>   -8.8476    1.0000 </r>
       <r>   -8.8468    1.0000 </r>
       <r>   -8.8418    1.0000 </r>
       <r>   -8.8404    1.0000 </r>
       <r>   -8.8369    1.0000 </r>
       <r>   -8.8344    1.0000 </r>
       <r>   -8.8322    1.0000 </r>
       <r>   -8.8258    1.0000 </r>
       <r>   -8.8239    1.0000 </r>
       <r>   -8.8217    1.0000 </r>
       <r>   -8.8190    1.0000 </r>
       <r>   -8.8182    1.0000 </r>
       <r>   -8.8142    1.0000 </r>
       <r>   -8.8115    1.0000 </r>
       <r>   -8.8064    1.0000 </r>
       <r>   -8.8045    1.0000 </r>
       <r>   -8.7916    1.0000 </r>
       <r>   -8.7885    1.0000 </r>
       <r>   -8.7854    1.0000 </r>
       <r>   -8.7759    1.0000 </r>
       <r>   -8.7741    1.0000 </r>
       <r>   -8.7737    1.0000 </r>
       <r>   -8.7719    1.0000 </r>
       <r>   -8.7683    1.0000 </r>
       <r>   -8.7652    1.0000 </r>
       <r>   -8.7652    1.0000 </r>
       <r>   -8.7557    1.0000 </r>
       <r>   -8.7517    1.0000 </r>
       <r>   -8.7442    1.0000 </r>
       <r>   -8.7413    1.0000 </r>
       <r>   -8.7390    1.0000 </r>
       <r>   -8.7339    1.0000 </r>
       <r>   -8.7324    1.0000 </r>
       <r>   -8.7313    1.0000 </r>
       <r>   -8.7282    1.0000 </r>
       <r>   -8.7275    1.0000 </r>
       <r>   -8.7264    1.0000 </r>
       <r>   -8.7186    1.0000 </r>
       <r>   -8.7175    1.0000 </r>
       <r>   -8.7113    1.0000 </r>
       <r>   -8.7085    1.0000 </r>
       <r>   -8.7062    1.0000 </r>
       <r>   -8.6946    1.0000 </r>
       <r>   -8.6937    1.0000 </r>
       <r>   -8.6933    1.0000 </r>
       <r>   -8.6894    1.0000 </r>
       <r>   -8.6878    1.0000 </r>
       <r>   -8.6836    1.0000 </r>
       <r>   -8.6833    1.0000 </r>
       <r>   -8.6818    1.0000 </r>
       <r>   -8.6784    1.0000 </r>
       <r>   -8.6779    1.0000 </r>
       <r>   -8.6703    1.0000 </r>
       <r>   -8.6701    1.0000 </r>
       <r>   -8.6638    1.0000 </r>
       <r>   -8.6632    1.0000 </r>
       <r>   -8.6614    1.0000 </r>
       <r>   -8.6606    1.0000 </r>
       <r>   -8.6600    1.0000 </r>
       <r>   -8.6559    1.0000 </r>
       <r>   -8.6553    1.0000 </r>
       <r>   -8.6523    1.0000 </r>
       <r>   -8.6504    1.0000 </r>
       <r>   -8.6499    1.0000 </r>
       <r>   -8.6453    1.0000 </r>
       <r>   -8.6424    1.0000 </r>
       <r>   -8.6422    1.0000 </r>
       <r>   -8.6406    1.0000 </r>
       <r>   -8.6390    1.0000 </r>
       <r>   -8.6383    1.0000 </r>
       <r>   -8.6331    1.0000 </r>
       <r>   -8.6323    1.0000 </r>
       <r>   -8.6278    1.0000 </r>
       <r>   -8.6261    1.0000 </r>
       <r>   -8.6244    1.0000 </r>
       <r>   -8.6236    1.0000 </r>
       <r>   -8.6227    1.0000 </r>
       <r>   -8.6210    1.0000 </r>
       <r>   -8.6202    1.0000 </r>
       <r>   -8.6171    1.0000 </r>
       <r>   -8.6165    1.0000 </r>
       <r>   -8.6132    1.0000 </r>
       <r>   -8.6093    1.0000 </r>
       <r>   -8.6078    1.0000 </r>
       <r>   -8.6063    1.0000 </r>
       <r>   -8.6052    1.0000 </r>
       <r>   -8.5992    1.0000 </r>
       <r>   -8.5954    1.0000 </r>
       <r>   -8.5878    1.0000 </r>
       <r>   -8.5851    1.0000 </r>
       <r>   -8.5823    1.0000 </r>
       <r>   -8.5756    1.0000 </r>
       <r>   -8.5567    1.0000 </r>
       <r>   -8.5516    1.0000 </r>
       <r>   -8.5499    1.0000 </r>
       <r>   -8.5280    1.0000 </r>
       <r>   -8.5240    1.0000 </r>
       <r>   -8.5143    1.0000 </r>
       <r>   -8.5077    1.0000 </r>
       <r>   -8.4834    1.0000 </r>
       <r>   -8.4745    1.0000 </r>
       <r>   -8.4709    1.0000 </r>
       <r>   -8.4592    1.0000 </r>
       <r>   -8.4376    1.0000 </r>
       <r>   -8.4277    1.0000 </r>
       <r>   -8.4154    1.0000 </r>
       <r>   -8.4006    1.0000 </r>
       <r>   -8.3767    1.0000 </r>
       <r>   -8.3436    1.0000 </r>
       <r>   -8.3385    1.0000 </r>
       <r>   -8.3268    1.0000 </r>
       <r>   -8.3265    1.0000 </r>
       <r>   -8.3223    1.0000 </r>
       <r>   -8.2920    1.0000 </r>
       <r>   -8.2771    1.0000 </r>
       <r>   -8.2745    1.0000 </r>
       <r>   -8.2680    1.0000 </r>
       <r>   -8.2316    1.0000 </r>
       <r>   -8.2203    1.0000 </r>
       <r>   -8.2194    1.0000 </r>
       <r>   -8.1778    1.0000 </r>
       <r>   -8.1653    1.0000 </r>
       <r>   -8.1427    1.0000 </r>
       <r>   -8.1363    1.0000 </r>
       <r>   -8.1185    1.0000 </r>
       <r>   -8.1044    1.0000 </r>
       <r>   -8.0598    1.0000 </r>
       <r>   -8.0310    1.0000 </r>
       <r>   -8.0014    1.0000 </r>
       <r>   -7.9967    1.0000 </r>
       <r>   -7.9842    1.0000 </r>
       <r>   -7.9816    1.0000 </r>
       <r>   -7.9695    1.0000 </r>
       <r>   -7.9629    1.0000 </r>
       <r>   -7.9237    1.0000 </r>
       <r>   -7.9199    1.0000 </r>
       <r>   -7.9167    1.0000 </r>
       <r>   -7.9142    1.0000 </r>
       <r>   -7.8091    1.0000 </r>
       <r>   -7.8047    1.0000 </r>
       <r>   -7.6959    1.0000 </r>
       <r>   -2.9492    1.0000 </r>
       <r>   -2.9236    1.0000 </r>
       <r>   -2.7730    1.0000 </r>
       <r>   -2.7601    1.0000 </r>
       <r>   -2.7403    1.0000 </r>
       <r>   -2.7323    1.0000 </r>
       <r>   -2.7114    1.0000 </r>
       <r>   -2.6725    1.0000 </r>
       <r>   -2.4782    1.0000 </r>
       <r>   -2.4742    1.0000 </r>
       <r>   -2.4584    1.0000 </r>
       <r>   -2.4190    1.0000 </r>
       <r>   -2.3383    1.0000 </r>
       <r>   -2.3236    1.0000 </r>
       <r>   -2.2971    1.0000 </r>
       <r>   -2.2809    1.0000 </r>
       <r>   -2.2452    1.0000 </r>
       <r>   -2.2364    1.0000 </r>
       <r>   -2.2180    1.0000 </r>
       <r>   -2.1584    1.0000 </r>
       <r>   -2.1432    1.0000 </r>
       <r>   -2.1034    1.0000 </r>
       <r>   -1.9656    1.0000 </r>
       <r>   -1.9415    1.0000 </r>
       <r>   -1.9383    1.0000 </r>
       <r>   -1.9009    1.0000 </r>
       <r>   -1.8926    1.0000 </r>
       <r>   -1.8919    1.0000 </r>
       <r>   -1.8862    1.0000 </r>
       <r>   -1.8791    1.0000 </r>
       <r>   -1.8092    1.0000 </r>
       <r>   -1.6880    1.0000 </r>
       <r>   -1.5790    1.0000 </r>
       <r>   -1.5578    1.0000 </r>
       <r>   -1.5498    1.0000 </r>
       <r>   -1.4123    1.0000 </r>
       <r>   -1.3309    1.0000 </r>
       <r>   -1.2755    1.0000 </r>
       <r>   -1.0997    1.0000 </r>
       <r>   -1.0931    1.0000 </r>
       <r>   -1.0571    1.0000 </r>
       <r>   -1.0211    1.0000 </r>
       <r>   -0.9592    1.0000 </r>
       <r>   -0.8884    1.0000 </r>
       <r>   -0.8026    1.0000 </r>
       <r>   -0.7797    1.0000 </r>
       <r>   -0.7586    1.0000 </r>
       <r>   -0.7312    1.0000 </r>
       <r>   -0.7126    1.0000 </r>
       <r>   -0.6950    1.0000 </r>
       <r>   -0.6400    1.0000 </r>
       <r>   -0.5224    1.0000 </r>
       <r>   -0.4492    1.0000 </r>
       <r>   -0.4209    1.0000 </r>
       <r>   -0.4096    1.0000 </r>
       <r>   -0.4044    1.0000 </r>
       <r>   -0.3751    1.0000 </r>
       <r>   -0.3686    1.0000 </r>
       <r>   -0.3509    1.0000 </r>
       <r>   -0.3456    1.0000 </r>
       <r>   -0.3287    1.0000 </r>
       <r>   -0.3125    1.0000 </r>
       <r>   -0.2352    1.0000 </r>
       <r>   -0.1831    1.0000 </r>
       <r>   -0.1604    1.0000 </r>
       <r>   -0.1023    1.0000 </r>
       <r>   -0.0792    1.0000 </r>
       <r>   -0.0249    1.0000 </r>
       <r>    0.0099    1.0000 </r>
       <r>    0.0770    1.0000 </r>
       <r>    0.1090    1.0000 </r>
       <r>    0.1151    1.0000 </r>
       <r>    0.2717    1.0000 </r>
       <r>    0.3351    1.0000 </r>
       <r>    0.3779    1.0000 </r>
       <r>    0.4157    1.0000 </r>
       <r>    0.4212    1.0000 </r>
       <r>    0.4321    1.0000 </r>
       <r>    0.4621    1.0000 </r>
       <r>    0.4825    1.0000 </r>
       <r>    0.5447    1.0000 </r>
       <r>    0.5596    1.0000 </r>
       <r>    0.6512    1.0000 </r>
       <r>    0.6704    1.0000 </r>
       <r>    0.6737    1.0000 </r>
       <r>    0.6811    1.0000 </r>
       <r>    0.6995    1.0000 </r>
       <r>    0.7231    1.0000 </r>
       <r>    0.7523    1.0000 </r>
       <r>    0.7976    1.0000 </r>
       <r>    0.8034    1.0000 </r>
       <r>    0.8405    1.0000 </r>
       <r>    0.8549    1.0000 </r>
       <r>    0.8572    1.0000 </r>
       <r>    0.8961    1.0000 </r>
       <r>    0.9003    1.0000 </r>
       <r>    0.9973    1.0000 </r>
       <r>    1.0008    1.0000 </r>
       <r>    1.0340    1.0000 </r>
       <r>    1.0626    1.0000 </r>
       <r>    1.0911    1.0000 </r>
       <r>    1.1399    1.0000 </r>
       <r>    1.1571    1.0000 </r>
       <r>    1.1693    1.0000 </r>
       <r>    1.2092    1.0000 </r>
       <r>    1.2252    1.0000 </r>
       <r>    1.2559    1.0000 </r>
       <r>    1.2611    1.0000 </r>
       <r>    1.3057    1.0000 </r>
       <r>    1.3867    1.0000 </r>
       <r>    1.3933    1.0000 </r>
       <r>    1.4353    1.0000 </r>
       <r>    1.4420    1.0000 </r>
       <r>    1.4550    1.0000 </r>
       <r>    1.4925    1.0000 </r>
       <r>    1.4992    1.0000 </r>
       <r>    1.5386    1.0000 </r>
       <r>    1.5711    1.0000 </r>
       <r>    1.5738    1.0000 </r>
       <r>    1.5772    1.0000 </r>
       <r>    1.6193    1.0000 </r>
       <r>    1.6238    1.0000 </r>
       <r>    1.6807    1.0000 </r>
       <r>    1.7170    1.0000 </r>
       <r>    1.7240    1.0000 </r>
       <r>    1.7395    1.0000 </r>
       <r>    1.7476    1.0000 </r>
       <r>    1.7511    1.0000 </r>
       <r>    1.7602    1.0000 </r>
       <r>    1.7610    1.0000 </r>
       <r>    1.8037    1.0000 </r>
       <r>    1.8089    1.0000 </r>
       <r>    1.8583    1.0000 </r>
       <r>    1.9004    1.0000 </r>
       <r>    1.9092    1.0000 </r>
       <r>    1.9156    1.0000 </r>
       <r>    1.9335    1.0000 </r>
       <r>    1.9427    1.0000 </r>
       <r>    2.0021    1.0000 </r>
       <r>    2.0350    1.0000 </r>
       <r>    2.0379    1.0000 </r>
       <r>    2.0705    1.0000 </r>
       <r>    2.1579    1.0000 </r>
       <r>    2.2026    1.0000 </r>
       <r>    2.2497    1.0000 </r>
       <r>    2.2623    1.0000 </r>
       <r>    2.2728    1.0000 </r>
       <r>    2.2893    1.0000 </r>
       <r>    2.3346    1.0000 </r>
       <r>    2.3517    1.0000 </r>
       <r>    2.3912    1.0000 </r>
       <r>    2.4089    1.0000 </r>
       <r>    2.4187    1.0000 </r>
       <r>    2.4273    1.0000 </r>
       <r>    2.4593    1.0000 </r>
       <r>    2.4749    1.0000 </r>
       <r>    2.4827    1.0000 </r>
       <r>    2.4900    1.0000 </r>
       <r>    2.5450    1.0000 </r>
       <r>    2.5900    1.0000 </r>
       <r>    2.6150    1.0000 </r>
       <r>    2.6450    1.0000 </r>
       <r>    2.6526    1.0000 </r>
       <r>    2.6585    1.0000 </r>
       <r>    2.6733    1.0000 </r>
       <r>    2.6863    1.0000 </r>
       <r>    2.6920    1.0000 </r>
       <r>    2.6976    1.0000 </r>
       <r>    2.7002    1.0000 </r>
       <r>    2.7122    1.0000 </r>
       <r>    2.7257    1.0000 </r>
       <r>    2.7311    1.0000 </r>
       <r>    2.8241    1.0000 </r>
       <r>    2.8441    1.0000 </r>
       <r>    2.8731    1.0000 </r>
       <r>    2.8889    1.0000 </r>
       <r>    2.9074    1.0000 </r>
       <r>    2.9169    1.0000 </r>
       <r>    2.9208    1.0000 </r>
       <r>    2.9350    1.0000 </r>
       <r>    2.9513    1.0000 </r>
       <r>    2.9917    1.0000 </r>
       <r>    3.0101    1.0000 </r>
       <r>    3.0332    1.0000 </r>
       <r>    3.0506    1.0000 </r>
       <r>    3.0510    1.0000 </r>
       <r>    3.0823    1.0000 </r>
       <r>    3.0882    1.0000 </r>
       <r>    3.0967    1.0000 </r>
       <r>    3.1291    1.0000 </r>
       <r>    3.1460    1.0000 </r>
       <r>    3.1820    1.0000 </r>
       <r>    3.1841    1.0000 </r>
       <r>    3.1947    1.0000 </r>
       <r>    3.2030    1.0000 </r>
       <r>    3.2129    1.0000 </r>
       <r>    3.2182    1.0000 </r>
       <r>    3.2195    1.0000 </r>
       <r>    3.2304    1.0000 </r>
       <r>    3.2436    1.0000 </r>
       <r>    3.2610    1.0000 </r>
       <r>    3.2731    1.0000 </r>
       <r>    3.2785    1.0000 </r>
       <r>    3.3054    1.0000 </r>
       <r>    3.4234    1.0000 </r>
       <r>    3.4379    1.0000 </r>
       <r>    3.4556    1.0000 </r>
       <r>    3.4791    1.0000 </r>
       <r>    3.4813    1.0000 </r>
       <r>    3.4974    1.0000 </r>
       <r>    3.5096    1.0000 </r>
       <r>    3.5158    1.0000 </r>
       <r>    3.5520    1.0000 </r>
       <r>    3.6119    1.0000 </r>
       <r>    3.6418    1.0000 </r>
       <r>    3.7356    1.0000 </r>
       <r>    4.9582    1.0000 </r>
       <r>    5.3338    0.9513 </r>
       <r>    5.4476    0.0591 </r>
       <r>    6.8642    0.0000 </r>
       <r>    6.9683    0.0000 </r>
       <r>    7.0717    0.0000 </r>
       <r>    7.2274    0.0000 </r>
       <r>    8.3510    0.0000 </r>
       <r>    8.4028    0.0000 </r>
       <r>    8.9618    0.0000 </r>
       <r>    9.0632    0.0000 </r>
       <r>    9.4693    0.0000 </r>
       <r>    9.5465    0.0000 </r>
       <r>    9.6099    0.0000 </r>
       <r>    9.6142    0.0000 </r>
       <r>    9.6697    0.0000 </r>
       <r>    9.6766    0.0000 </r>
       <r>    9.7819    0.0000 </r>
       <r>    9.8020    0.0000 </r>
       <r>    9.8862    0.0000 </r>
       <r>    9.8998    0.0000 </r>
       <r>    9.9106    0.0000 </r>
       <r>    9.9212    0.0000 </r>
       <r>    9.9246    0.0000 </r>
       <r>    9.9385    0.0000 </r>
       <r>    9.9422    0.0000 </r>
       <r>    9.9765    0.0000 </r>
       <r>    9.9790    0.0000 </r>
       <r>   10.0235    0.0000 </r>
       <r>   10.0800    0.0000 </r>
       <r>   10.0908    0.0000 </r>
       <r>   10.1243    0.0000 </r>
       <r>   10.1290    0.0000 </r>
       <r>   10.1805    0.0000 </r>
       <r>   10.2393    0.0000 </r>
       <r>   10.2667    0.0000 </r>
       <r>   10.2995    0.0000 </r>
       <r>   10.3170    0.0000 </r>
       <r>   10.5880    0.0000 </r>
       <r>   10.6637    0.0000 </r>
       <r>   10.8412    0.0000 </r>
       <r>   10.9522    0.0000 </r>
       <r>   10.9805    0.0000 </r>
       <r>   11.0515    0.0000 </r>
       <r>   11.0777    0.0000 </r>
       <r>   11.1106    0.0000 </r>
       <r>   11.1665    0.0000 </r>
       <r>   11.2099    0.0000 </r>
       <r>   11.2174    0.0000 </r>
       <r>   11.2357    0.0000 </r>
       <r>   11.3073    0.0000 </r>
       <r>   11.4122    0.0000 </r>
       <r>   11.4609    0.0000 </r>
       <r>   11.5423    0.0000 </r>
       <r>   11.5474    0.0000 </r>
       <r>   11.5492    0.0000 </r>
       <r>   12.1525    0.0000 </r>
       <r>   12.2226    0.0000 </r>
       <r>   12.2484    0.0000 </r>
       <r>   12.2680    0.0000 </r>
       <r>   12.3732    0.0000 </r>
       <r>   12.3936    0.0000 </r>
       <r>   12.3994    0.0000 </r>
       <r>   12.4291    0.0000 </r>
       <r>   12.5351    0.0000 </r>
       <r>   12.5381    0.0000 </r>
       <r>   12.5552    0.0000 </r>
       <r>   12.5757    0.0000 </r>
       <r>   12.8738    0.0000 </r>
       <r>   12.9155    0.0000 </r>
       <r>   12.9843    0.0000 </r>
       <r>   12.9897    0.0000 </r>
       <r>   13.0037    0.0000 </r>
       <r>   13.0189    0.0000 </r>
       <r>   13.0252    0.0000 </r>
       <r>   13.0687    0.0000 </r>
       <r>   13.0816    0.0000 </r>
       <r>   13.1113    0.0000 </r>
       <r>   13.1196    0.0000 </r>
       <r>   13.1263    0.0000 </r>
       <r>   13.2336    0.0000 </r>
       <r>   13.3096    0.0000 </r>
       <r>   13.3393    0.0000 </r>
       <r>   13.3456    0.0000 </r>
       <r>   13.3989    0.0000 </r>
       <r>   13.4444    0.0000 </r>
       <r>   13.4492    0.0000 </r>
       <r>   13.4675    0.0000 </r>
       <r>   13.4709    0.0000 </r>
       <r>   13.5077    0.0000 </r>
       <r>   13.5154    0.0000 </r>
       <r>   13.5661    0.0000 </r>
       <r>   13.5842    0.0000 </r>
       <r>   13.5998    0.0000 </r>
       <r>   13.6108    0.0000 </r>
       <r>   13.7160    0.0000 </r>
       <r>   13.9169    0.0000 </r>
       <r>   13.9842    0.0000 </r>
       <r>   13.9912    0.0000 </r>
       <r>   13.9982    0.0000 </r>
       <r>   14.1483    0.0000 </r>
       <r>   14.1528    0.0000 </r>
       <r>   14.1678    0.0000 </r>
       <r>   14.2701    0.0000 </r>
       <r>   14.5241    0.0000 </r>
       <r>   14.5324    0.0000 </r>
       <r>   14.5693    0.0000 </r>
      </set>
      <set comment="kpoint 6">
       <r>  -14.9397    1.0000 </r>
       <r>  -14.9196    1.0000 </r>
       <r>  -14.8317    1.0000 </r>
       <r>  -14.8159    1.0000 </r>
       <r>  -14.3460    1.0000 </r>
       <r>  -14.3278    1.0000 </r>
       <r>  -14.3119    1.0000 </r>
       <r>  -14.3015    1.0000 </r>
       <r>  -14.2960    1.0000 </r>
       <r>  -14.2853    1.0000 </r>
       <r>  -14.2453    1.0000 </r>
       <r>  -14.2415    1.0000 </r>
       <r>  -14.2250    1.0000 </r>
       <r>  -14.2040    1.0000 </r>
       <r>  -14.0971    1.0000 </r>
       <r>  -14.0897    1.0000 </r>
       <r>  -14.0590    1.0000 </r>
       <r>  -14.0320    1.0000 </r>
       <r>  -14.0169    1.0000 </r>
       <r>  -13.9835    1.0000 </r>
       <r>  -13.9453    1.0000 </r>
       <r>  -13.9379    1.0000 </r>
       <r>  -13.9302    1.0000 </r>
       <r>  -13.8896    1.0000 </r>
       <r>  -13.8322    1.0000 </r>
       <r>  -13.8234    1.0000 </r>
       <r>  -13.8227    1.0000 </r>
       <r>  -13.8104    1.0000 </r>
       <r>  -13.7973    1.0000 </r>
       <r>  -13.7711    1.0000 </r>
       <r>  -13.7654    1.0000 </r>
       <r>  -13.7642    1.0000 </r>
       <r>  -13.7554    1.0000 </r>
       <r>  -13.7447    1.0000 </r>
       <r>  -13.7385    1.0000 </r>
       <r>  -13.7235    1.0000 </r>
       <r>  -13.6983    1.0000 </r>
       <r>  -13.6022    1.0000 </r>
       <r>  -13.5928    1.0000 </r>
       <r>  -13.5908    1.0000 </r>
       <r>  -13.5895    1.0000 </r>
       <r>  -13.5839    1.0000 </r>
       <r>  -13.5790    1.0000 </r>
       <r>  -13.5759    1.0000 </r>
       <r>  -13.5687    1.0000 </r>
       <r>  -13.5434    1.0000 </r>
       <r>  -13.5314    1.0000 </r>
       <r>  -13.4811    1.0000 </r>
       <r>  -13.4702    1.0000 </r>
       <r>  -13.4494    1.0000 </r>
       <r>  -13.4417    1.0000 </r>
       <r>  -13.4347    1.0000 </r>
       <r>  -13.4291    1.0000 </r>
       <r>  -13.4208    1.0000 </r>
       <r>  -13.4107    1.0000 </r>
       <r>  -13.3988    1.0000 </r>
       <r>  -13.3886    1.0000 </r>
       <r>  -13.3753    1.0000 </r>
       <r>  -13.3665    1.0000 </r>
       <r>  -13.3180    1.0000 </r>
       <r>  -13.3159    1.0000 </r>
       <r>  -13.3156    1.0000 </r>
       <r>  -13.3111    1.0000 </r>
       <r>  -13.2999    1.0000 </r>
       <r>  -13.2878    1.0000 </r>
       <r>  -13.2799    1.0000 </r>
       <r>  -13.2646    1.0000 </r>
       <r>  -13.2555    1.0000 </r>
       <r>  -13.2501    1.0000 </r>
       <r>  -13.1845    1.0000 </r>
       <r>  -13.1824    1.0000 </r>
       <r>  -10.3279    1.0000 </r>
       <r>   -9.1415    1.0000 </r>
       <r>   -9.1344    1.0000 </r>
       <r>   -9.1186    1.0000 </r>
       <r>   -9.1165    1.0000 </r>
       <r>   -9.1056    1.0000 </r>
       <r>   -9.1040    1.0000 </r>
       <r>   -9.1023    1.0000 </r>
       <r>   -9.1017    1.0000 </r>
       <r>   -9.0984    1.0000 </r>
       <r>   -9.0948    1.0000 </r>
       <r>   -9.0685    1.0000 </r>
       <r>   -9.0635    1.0000 </r>
       <r>   -9.0483    1.0000 </r>
       <r>   -9.0362    1.0000 </r>
       <r>   -9.0348    1.0000 </r>
       <r>   -9.0321    1.0000 </r>
       <r>   -9.0279    1.0000 </r>
       <r>   -9.0243    1.0000 </r>
       <r>   -9.0237    1.0000 </r>
       <r>   -9.0218    1.0000 </r>
       <r>   -9.0198    1.0000 </r>
       <r>   -9.0169    1.0000 </r>
       <r>   -9.0151    1.0000 </r>
       <r>   -9.0120    1.0000 </r>
       <r>   -9.0097    1.0000 </r>
       <r>   -9.0017    1.0000 </r>
       <r>   -8.9940    1.0000 </r>
       <r>   -8.9916    1.0000 </r>
       <r>   -8.9886    1.0000 </r>
       <r>   -8.9880    1.0000 </r>
       <r>   -8.9864    1.0000 </r>
       <r>   -8.9862    1.0000 </r>
       <r>   -8.9760    1.0000 </r>
       <r>   -8.9730    1.0000 </r>
       <r>   -8.9717    1.0000 </r>
       <r>   -8.9701    1.0000 </r>
       <r>   -8.9696    1.0000 </r>
       <r>   -8.9623    1.0000 </r>
       <r>   -8.9622    1.0000 </r>
       <r>   -8.9601    1.0000 </r>
       <r>   -8.9583    1.0000 </r>
       <r>   -8.9571    1.0000 </r>
       <r>   -8.9560    1.0000 </r>
       <r>   -8.9545    1.0000 </r>
       <r>   -8.9521    1.0000 </r>
       <r>   -8.9490    1.0000 </r>
       <r>   -8.9466    1.0000 </r>
       <r>   -8.9464    1.0000 </r>
       <r>   -8.9444    1.0000 </r>
       <r>   -8.9387    1.0000 </r>
       <r>   -8.9366    1.0000 </r>
       <r>   -8.9357    1.0000 </r>
       <r>   -8.9308    1.0000 </r>
       <r>   -8.9291    1.0000 </r>
       <r>   -8.9265    1.0000 </r>
       <r>   -8.9208    1.0000 </r>
       <r>   -8.9195    1.0000 </r>
       <r>   -8.9186    1.0000 </r>
       <r>   -8.9152    1.0000 </r>
       <r>   -8.9111    1.0000 </r>
       <r>   -8.9109    1.0000 </r>
       <r>   -8.9067    1.0000 </r>
       <r>   -8.9030    1.0000 </r>
       <r>   -8.9008    1.0000 </r>
       <r>   -8.8992    1.0000 </r>
       <r>   -8.8984    1.0000 </r>
       <r>   -8.8982    1.0000 </r>
       <r>   -8.8967    1.0000 </r>
       <r>   -8.8936    1.0000 </r>
       <r>   -8.8913    1.0000 </r>
       <r>   -8.8894    1.0000 </r>
       <r>   -8.8875    1.0000 </r>
       <r>   -8.8852    1.0000 </r>
       <r>   -8.8847    1.0000 </r>
       <r>   -8.8836    1.0000 </r>
       <r>   -8.8804    1.0000 </r>
       <r>   -8.8798    1.0000 </r>
       <r>   -8.8776    1.0000 </r>
       <r>   -8.8758    1.0000 </r>
       <r>   -8.8714    1.0000 </r>
       <r>   -8.8698    1.0000 </r>
       <r>   -8.8687    1.0000 </r>
       <r>   -8.8677    1.0000 </r>
       <r>   -8.8674    1.0000 </r>
       <r>   -8.8641    1.0000 </r>
       <r>   -8.8636    1.0000 </r>
       <r>   -8.8624    1.0000 </r>
       <r>   -8.8618    1.0000 </r>
       <r>   -8.8594    1.0000 </r>
       <r>   -8.8559    1.0000 </r>
       <r>   -8.8541    1.0000 </r>
       <r>   -8.8522    1.0000 </r>
       <r>   -8.8499    1.0000 </r>
       <r>   -8.8472    1.0000 </r>
       <r>   -8.8451    1.0000 </r>
       <r>   -8.8424    1.0000 </r>
       <r>   -8.8391    1.0000 </r>
       <r>   -8.8355    1.0000 </r>
       <r>   -8.8292    1.0000 </r>
       <r>   -8.8283    1.0000 </r>
       <r>   -8.8254    1.0000 </r>
       <r>   -8.8223    1.0000 </r>
       <r>   -8.8175    1.0000 </r>
       <r>   -8.8118    1.0000 </r>
       <r>   -8.8101    1.0000 </r>
       <r>   -8.8067    1.0000 </r>
       <r>   -8.8044    1.0000 </r>
       <r>   -8.8029    1.0000 </r>
       <r>   -8.7964    1.0000 </r>
       <r>   -8.7939    1.0000 </r>
       <r>   -8.7934    1.0000 </r>
       <r>   -8.7886    1.0000 </r>
       <r>   -8.7877    1.0000 </r>
       <r>   -8.7871    1.0000 </r>
       <r>   -8.7861    1.0000 </r>
       <r>   -8.7774    1.0000 </r>
       <r>   -8.7755    1.0000 </r>
       <r>   -8.7696    1.0000 </r>
       <r>   -8.7610    1.0000 </r>
       <r>   -8.7602    1.0000 </r>
       <r>   -8.7555    1.0000 </r>
       <r>   -8.7549    1.0000 </r>
       <r>   -8.7541    1.0000 </r>
       <r>   -8.7517    1.0000 </r>
       <r>   -8.7450    1.0000 </r>
       <r>   -8.7421    1.0000 </r>
       <r>   -8.7390    1.0000 </r>
       <r>   -8.7339    1.0000 </r>
       <r>   -8.7328    1.0000 </r>
       <r>   -8.7316    1.0000 </r>
       <r>   -8.7291    1.0000 </r>
       <r>   -8.7284    1.0000 </r>
       <r>   -8.7281    1.0000 </r>
       <r>   -8.7150    1.0000 </r>
       <r>   -8.7081    1.0000 </r>
       <r>   -8.7018    1.0000 </r>
       <r>   -8.6987    1.0000 </r>
       <r>   -8.6933    1.0000 </r>
       <r>   -8.6900    1.0000 </r>
       <r>   -8.6886    1.0000 </r>
       <r>   -8.6880    1.0000 </r>
       <r>   -8.6855    1.0000 </r>
       <r>   -8.6850    1.0000 </r>
       <r>   -8.6814    1.0000 </r>
       <r>   -8.6784    1.0000 </r>
       <r>   -8.6758    1.0000 </r>
       <r>   -8.6745    1.0000 </r>
       <r>   -8.6721    1.0000 </r>
       <r>   -8.6669    1.0000 </r>
       <r>   -8.6644    1.0000 </r>
       <r>   -8.6630    1.0000 </r>
       <r>   -8.6619    1.0000 </r>
       <r>   -8.6589    1.0000 </r>
       <r>   -8.6561    1.0000 </r>
       <r>   -8.6552    1.0000 </r>
       <r>   -8.6520    1.0000 </r>
       <r>   -8.6498    1.0000 </r>
       <r>   -8.6494    1.0000 </r>
       <r>   -8.6480    1.0000 </r>
       <r>   -8.6435    1.0000 </r>
       <r>   -8.6429    1.0000 </r>
       <r>   -8.6414    1.0000 </r>
       <r>   -8.6371    1.0000 </r>
       <r>   -8.6369    1.0000 </r>
       <r>   -8.6360    1.0000 </r>
       <r>   -8.6326    1.0000 </r>
       <r>   -8.6319    1.0000 </r>
       <r>   -8.6307    1.0000 </r>
       <r>   -8.6290    1.0000 </r>
       <r>   -8.6264    1.0000 </r>
       <r>   -8.6249    1.0000 </r>
       <r>   -8.6227    1.0000 </r>
       <r>   -8.6197    1.0000 </r>
       <r>   -8.6139    1.0000 </r>
       <r>   -8.6136    1.0000 </r>
       <r>   -8.6101    1.0000 </r>
       <r>   -8.6086    1.0000 </r>
       <r>   -8.6072    1.0000 </r>
       <r>   -8.5989    1.0000 </r>
       <r>   -8.5955    1.0000 </r>
       <r>   -8.5949    1.0000 </r>
       <r>   -8.5922    1.0000 </r>
       <r>   -8.5882    1.0000 </r>
       <r>   -8.5855    1.0000 </r>
       <r>   -8.5849    1.0000 </r>
       <r>   -8.5756    1.0000 </r>
       <r>   -8.5699    1.0000 </r>
       <r>   -8.5644    1.0000 </r>
       <r>   -8.5536    1.0000 </r>
       <r>   -8.5432    1.0000 </r>
       <r>   -8.5404    1.0000 </r>
       <r>   -8.5381    1.0000 </r>
       <r>   -8.5372    1.0000 </r>
       <r>   -8.5155    1.0000 </r>
       <r>   -8.5038    1.0000 </r>
       <r>   -8.4995    1.0000 </r>
       <r>   -8.4481    1.0000 </r>
       <r>   -8.4398    1.0000 </r>
       <r>   -8.4383    1.0000 </r>
       <r>   -8.4124    1.0000 </r>
       <r>   -8.4081    1.0000 </r>
       <r>   -8.4009    1.0000 </r>
       <r>   -8.3885    1.0000 </r>
       <r>   -8.3758    1.0000 </r>
       <r>   -8.3464    1.0000 </r>
       <r>   -8.3317    1.0000 </r>
       <r>   -8.2932    1.0000 </r>
       <r>   -8.2917    1.0000 </r>
       <r>   -8.2649    1.0000 </r>
       <r>   -8.2113    1.0000 </r>
       <r>   -8.2083    1.0000 </r>
       <r>   -8.2001    1.0000 </r>
       <r>   -8.1460    1.0000 </r>
       <r>   -8.1118    1.0000 </r>
       <r>   -8.1023    1.0000 </r>
       <r>   -8.1012    1.0000 </r>
       <r>   -8.0976    1.0000 </r>
       <r>   -8.0901    1.0000 </r>
       <r>   -8.0771    1.0000 </r>
       <r>   -8.0755    1.0000 </r>
       <r>   -8.0638    1.0000 </r>
       <r>   -8.0559    1.0000 </r>
       <r>   -8.0318    1.0000 </r>
       <r>   -8.0252    1.0000 </r>
       <r>   -8.0138    1.0000 </r>
       <r>   -8.0074    1.0000 </r>
       <r>   -8.0064    1.0000 </r>
       <r>   -8.0054    1.0000 </r>
       <r>   -7.9402    1.0000 </r>
       <r>   -7.9243    1.0000 </r>
       <r>   -7.9052    1.0000 </r>
       <r>   -7.9038    1.0000 </r>
       <r>   -7.8802    1.0000 </r>
       <r>   -7.8763    1.0000 </r>
       <r>   -7.6925    1.0000 </r>
       <r>   -3.0398    1.0000 </r>
       <r>   -3.0076    1.0000 </r>
       <r>   -2.6481    1.0000 </r>
       <r>   -2.6388    1.0000 </r>
       <r>   -2.6256    1.0000 </r>
       <r>   -2.6071    1.0000 </r>
       <r>   -2.6053    1.0000 </r>
       <r>   -2.5904    1.0000 </r>
       <r>   -2.5660    1.0000 </r>
       <r>   -2.5641    1.0000 </r>
       <r>   -2.5220    1.0000 </r>
       <r>   -2.5036    1.0000 </r>
       <r>   -2.3518    1.0000 </r>
       <r>   -2.3483    1.0000 </r>
       <r>   -2.3416    1.0000 </r>
       <r>   -2.2898    1.0000 </r>
       <r>   -2.2220    1.0000 </r>
       <r>   -2.2173    1.0000 </r>
       <r>   -2.2101    1.0000 </r>
       <r>   -2.1527    1.0000 </r>
       <r>   -2.1085    1.0000 </r>
       <r>   -2.1015    1.0000 </r>
       <r>   -2.0767    1.0000 </r>
       <r>   -2.0471    1.0000 </r>
       <r>   -2.0251    1.0000 </r>
       <r>   -1.9817    1.0000 </r>
       <r>   -1.9361    1.0000 </r>
       <r>   -1.9227    1.0000 </r>
       <r>   -1.9075    1.0000 </r>
       <r>   -1.8981    1.0000 </r>
       <r>   -1.8041    1.0000 </r>
       <r>   -1.7460    1.0000 </r>
       <r>   -1.4077    1.0000 </r>
       <r>   -1.4064    1.0000 </r>
       <r>   -1.2833    1.0000 </r>
       <r>   -1.2671    1.0000 </r>
       <r>   -1.2578    1.0000 </r>
       <r>   -1.2523    1.0000 </r>
       <r>   -1.2242    1.0000 </r>
       <r>   -1.1957    1.0000 </r>
       <r>   -1.1849    1.0000 </r>
       <r>   -1.1682    1.0000 </r>
       <r>   -1.1229    1.0000 </r>
       <r>   -0.9713    1.0000 </r>
       <r>   -0.8892    1.0000 </r>
       <r>   -0.8598    1.0000 </r>
       <r>   -0.8096    1.0000 </r>
       <r>   -0.8064    1.0000 </r>
       <r>   -0.7063    1.0000 </r>
       <r>   -0.6678    1.0000 </r>
       <r>   -0.6339    1.0000 </r>
       <r>   -0.4715    1.0000 </r>
       <r>   -0.4678    1.0000 </r>
       <r>   -0.4515    1.0000 </r>
       <r>   -0.4513    1.0000 </r>
       <r>   -0.4042    1.0000 </r>
       <r>   -0.3289    1.0000 </r>
       <r>   -0.2794    1.0000 </r>
       <r>   -0.2451    1.0000 </r>
       <r>   -0.1817    1.0000 </r>
       <r>   -0.1669    1.0000 </r>
       <r>   -0.1310    1.0000 </r>
       <r>   -0.0383    1.0000 </r>
       <r>   -0.0159    1.0000 </r>
       <r>    0.0094    1.0000 </r>
       <r>    0.0402    1.0000 </r>
       <r>    0.0598    1.0000 </r>
       <r>    0.0636    1.0000 </r>
       <r>    0.0864    1.0000 </r>
       <r>    0.1044    1.0000 </r>
       <r>    0.1416    1.0000 </r>
       <r>    0.1667    1.0000 </r>
       <r>    0.1830    1.0000 </r>
       <r>    0.2318    1.0000 </r>
       <r>    0.2826    1.0000 </r>
       <r>    0.2860    1.0000 </r>
       <r>    0.3168    1.0000 </r>
       <r>    0.3652    1.0000 </r>
       <r>    0.4185    1.0000 </r>
       <r>    0.4209    1.0000 </r>
       <r>    0.4607    1.0000 </r>
       <r>    0.4661    1.0000 </r>
       <r>    0.4761    1.0000 </r>
       <r>    0.4913    1.0000 </r>
       <r>    0.5207    1.0000 </r>
       <r>    0.5397    1.0000 </r>
       <r>    0.5796    1.0000 </r>
       <r>    0.6460    1.0000 </r>
       <r>    0.7188    1.0000 </r>
       <r>    0.8137    1.0000 </r>
       <r>    0.8154    1.0000 </r>
       <r>    0.8405    1.0000 </r>
       <r>    0.8639    1.0000 </r>
       <r>    0.8654    1.0000 </r>
       <r>    0.8790    1.0000 </r>
       <r>    0.8961    1.0000 </r>
       <r>    0.9105    1.0000 </r>
       <r>    0.9657    1.0000 </r>
       <r>    0.9670    1.0000 </r>
       <r>    1.0591    1.0000 </r>
       <r>    1.0999    1.0000 </r>
       <r>    1.1176    1.0000 </r>
       <r>    1.2050    1.0000 </r>
       <r>    1.2155    1.0000 </r>
       <r>    1.2723    1.0000 </r>
       <r>    1.2919    1.0000 </r>
       <r>    1.3170    1.0000 </r>
       <r>    1.3491    1.0000 </r>
       <r>    1.3720    1.0000 </r>
       <r>    1.4042    1.0000 </r>
       <r>    1.4427    1.0000 </r>
       <r>    1.4532    1.0000 </r>
       <r>    1.4871    1.0000 </r>
       <r>    1.4975    1.0000 </r>
       <r>    1.5156    1.0000 </r>
       <r>    1.5444    1.0000 </r>
       <r>    1.5512    1.0000 </r>
       <r>    1.5607    1.0000 </r>
       <r>    1.5920    1.0000 </r>
       <r>    1.5965    1.0000 </r>
       <r>    1.6065    1.0000 </r>
       <r>    1.6083    1.0000 </r>
       <r>    1.6667    1.0000 </r>
       <r>    1.7287    1.0000 </r>
       <r>    1.7363    1.0000 </r>
       <r>    1.7425    1.0000 </r>
       <r>    1.7523    1.0000 </r>
       <r>    1.7562    1.0000 </r>
       <r>    1.7580    1.0000 </r>
       <r>    1.8018    1.0000 </r>
       <r>    1.8035    1.0000 </r>
       <r>    1.8561    1.0000 </r>
       <r>    1.8742    1.0000 </r>
       <r>    1.8908    1.0000 </r>
       <r>    1.9230    1.0000 </r>
       <r>    1.9458    1.0000 </r>
       <r>    1.9646    1.0000 </r>
       <r>    2.0125    1.0000 </r>
       <r>    2.0181    1.0000 </r>
       <r>    2.0573    1.0000 </r>
       <r>    2.0908    1.0000 </r>
       <r>    2.1348    1.0000 </r>
       <r>    2.1805    1.0000 </r>
       <r>    2.2152    1.0000 </r>
       <r>    2.2275    1.0000 </r>
       <r>    2.2565    1.0000 </r>
       <r>    2.2623    1.0000 </r>
       <r>    2.2992    1.0000 </r>
       <r>    2.3019    1.0000 </r>
       <r>    2.3092    1.0000 </r>
       <r>    2.3398    1.0000 </r>
       <r>    2.3415    1.0000 </r>
       <r>    2.3626    1.0000 </r>
       <r>    2.3648    1.0000 </r>
       <r>    2.3772    1.0000 </r>
       <r>    2.4432    1.0000 </r>
       <r>    2.4863    1.0000 </r>
       <r>    2.5157    1.0000 </r>
       <r>    2.5538    1.0000 </r>
       <r>    2.5795    1.0000 </r>
       <r>    2.5849    1.0000 </r>
       <r>    2.5986    1.0000 </r>
       <r>    2.6281    1.0000 </r>
       <r>    2.6484    1.0000 </r>
       <r>    2.6542    1.0000 </r>
       <r>    2.6674    1.0000 </r>
       <r>    2.6758    1.0000 </r>
       <r>    2.7105    1.0000 </r>
       <r>    2.7146    1.0000 </r>
       <r>    2.7336    1.0000 </r>
       <r>    2.8129    1.0000 </r>
       <r>    2.8198    1.0000 </r>
       <r>    2.8235    1.0000 </r>
       <r>    2.8443    1.0000 </r>
       <r>    2.8487    1.0000 </r>
       <r>    2.8845    1.0000 </r>
       <r>    2.9276    1.0000 </r>
       <r>    2.9482    1.0000 </r>
       <r>    2.9532    1.0000 </r>
       <r>    2.9693    1.0000 </r>
       <r>    2.9756    1.0000 </r>
       <r>    2.9776    1.0000 </r>
       <r>    2.9809    1.0000 </r>
       <r>    3.0010    1.0000 </r>
       <r>    3.0076    1.0000 </r>
       <r>    3.0158    1.0000 </r>
       <r>    3.0470    1.0000 </r>
       <r>    3.0519    1.0000 </r>
       <r>    3.0551    1.0000 </r>
       <r>    3.0675    1.0000 </r>
       <r>    3.1378    1.0000 </r>
       <r>    3.1444    1.0000 </r>
       <r>    3.1462    1.0000 </r>
       <r>    3.1649    1.0000 </r>
       <r>    3.1705    1.0000 </r>
       <r>    3.1758    1.0000 </r>
       <r>    3.1852    1.0000 </r>
       <r>    3.2239    1.0000 </r>
       <r>    3.2372    1.0000 </r>
       <r>    3.2562    1.0000 </r>
       <r>    3.2604    1.0000 </r>
       <r>    3.2774    1.0000 </r>
       <r>    3.2995    1.0000 </r>
       <r>    3.3133    1.0000 </r>
       <r>    3.4467    1.0000 </r>
       <r>    3.4669    1.0000 </r>
       <r>    3.4861    1.0000 </r>
       <r>    3.4891    1.0000 </r>
       <r>    3.4897    1.0000 </r>
       <r>    3.5037    1.0000 </r>
       <r>    3.5160    1.0000 </r>
       <r>    3.5221    1.0000 </r>
       <r>    3.6272    1.0000 </r>
       <r>    3.6339    1.0000 </r>
       <r>    3.6625    1.0000 </r>
       <r>    3.7668    1.0000 </r>
       <r>    4.9577    1.0000 </r>
       <r>    5.3365    0.9429 </r>
       <r>    5.4482    0.0571 </r>
       <r>    6.8645    0.0000 </r>
       <r>    7.1555    0.0000 </r>
       <r>    7.3142    0.0000 </r>
       <r>    7.3465    0.0000 </r>
       <r>    7.8006    0.0000 </r>
       <r>    7.8525    0.0000 </r>
       <r>    9.3036    0.0000 </r>
       <r>    9.3248    0.0000 </r>
       <r>    9.4344    0.0000 </r>
       <r>    9.5408    0.0000 </r>
       <r>    9.6744    0.0000 </r>
       <r>    9.6816    0.0000 </r>
       <r>    9.6850    0.0000 </r>
       <r>    9.6926    0.0000 </r>
       <r>    9.7148    0.0000 </r>
       <r>    9.7248    0.0000 </r>
       <r>    9.7396    0.0000 </r>
       <r>    9.7499    0.0000 </r>
       <r>    9.7564    0.0000 </r>
       <r>    9.7781    0.0000 </r>
       <r>    9.8020    0.0000 </r>
       <r>    9.8121    0.0000 </r>
       <r>    9.8691    0.0000 </r>
       <r>    9.9903    0.0000 </r>
       <r>   10.0970    0.0000 </r>
       <r>   10.1171    0.0000 </r>
       <r>   10.1448    0.0000 </r>
       <r>   10.2015    0.0000 </r>
       <r>   10.2235    0.0000 </r>
       <r>   10.2243    0.0000 </r>
       <r>   10.2386    0.0000 </r>
       <r>   10.4701    0.0000 </r>
       <r>   10.4977    0.0000 </r>
       <r>   10.5214    0.0000 </r>
       <r>   10.5478    0.0000 </r>
       <r>   10.5847    0.0000 </r>
       <r>   10.6205    0.0000 </r>
       <r>   10.7554    0.0000 </r>
       <r>   10.8330    0.0000 </r>
       <r>   10.8350    0.0000 </r>
       <r>   10.8577    0.0000 </r>
       <r>   10.8646    0.0000 </r>
       <r>   10.8936    0.0000 </r>
       <r>   11.1321    0.0000 </r>
       <r>   11.4108    0.0000 </r>
       <r>   11.4124    0.0000 </r>
       <r>   11.4234    0.0000 </r>
       <r>   11.4834    0.0000 </r>
       <r>   11.5594    0.0000 </r>
       <r>   11.5667    0.0000 </r>
       <r>   11.5749    0.0000 </r>
       <r>   11.5817    0.0000 </r>
       <r>   11.6348    0.0000 </r>
       <r>   11.9834    0.0000 </r>
       <r>   12.0512    0.0000 </r>
       <r>   12.2080    0.0000 </r>
       <r>   12.2437    0.0000 </r>
       <r>   12.3491    0.0000 </r>
       <r>   12.4283    0.0000 </r>
       <r>   12.4772    0.0000 </r>
       <r>   12.4858    0.0000 </r>
       <r>   12.5608    0.0000 </r>
       <r>   12.5682    0.0000 </r>
       <r>   12.5883    0.0000 </r>
       <r>   12.6055    0.0000 </r>
       <r>   12.7367    0.0000 </r>
       <r>   12.7562    0.0000 </r>
       <r>   12.8058    0.0000 </r>
       <r>   12.8252    0.0000 </r>
       <r>   12.8430    0.0000 </r>
       <r>   12.8585    0.0000 </r>
       <r>   12.8769    0.0000 </r>
       <r>   12.8975    0.0000 </r>
       <r>   12.9046    0.0000 </r>
       <r>   12.9171    0.0000 </r>
       <r>   13.0770    0.0000 </r>
       <r>   13.1740    0.0000 </r>
       <r>   13.2279    0.0000 </r>
       <r>   13.3268    0.0000 </r>
       <r>   13.3367    0.0000 </r>
       <r>   13.3675    0.0000 </r>
       <r>   13.3684    0.0000 </r>
       <r>   13.3825    0.0000 </r>
       <r>   13.4288    0.0000 </r>
       <r>   13.4436    0.0000 </r>
       <r>   13.4706    0.0000 </r>
       <r>   13.5087    0.0000 </r>
       <r>   13.5521    0.0000 </r>
       <r>   13.5903    0.0000 </r>
       <r>   13.7390    0.0000 </r>
       <r>   13.7503    0.0000 </r>
       <r>   13.7605    0.0000 </r>
       <r>   13.7711    0.0000 </r>
       <r>   13.8889    0.0000 </r>
       <r>   13.9327    0.0000 </r>
       <r>   13.9625    0.0000 </r>
       <r>   14.0025    0.0000 </r>
       <r>   14.4062    0.0000 </r>
       <r>   14.4314    0.0000 </r>
       <r>   14.4329    0.0000 </r>
       <r>   14.4704    0.0000 </r>
       <r>   14.5861    0.0000 </r>
       <r>   14.6059    0.0000 </r>
       <r>   14.6083    0.0000 </r>
      </set>
      <set comment="kpoint 7">
       <r>  -14.8095    1.0000 </r>
       <r>  -14.8046    1.0000 </r>
       <r>  -14.7975    1.0000 </r>
       <r>  -14.7439    1.0000 </r>
       <r>  -14.5696    1.0000 </r>
       <r>  -14.5664    1.0000 </r>
       <r>  -14.5604    1.0000 </r>
       <r>  -14.5152    1.0000 </r>
       <r>  -14.3167    1.0000 </r>
       <r>  -14.3099    1.0000 </r>
       <r>  -14.3071    1.0000 </r>
       <r>  -14.2656    1.0000 </r>
       <r>  -14.0470    1.0000 </r>
       <r>  -14.0366    1.0000 </r>
       <r>  -14.0308    1.0000 </r>
       <r>  -14.0074    1.0000 </r>
       <r>  -13.9537    1.0000 </r>
       <r>  -13.9337    1.0000 </r>
       <r>  -13.9332    1.0000 </r>
       <r>  -13.9308    1.0000 </r>
       <r>  -13.9287    1.0000 </r>
       <r>  -13.9235    1.0000 </r>
       <r>  -13.9078    1.0000 </r>
       <r>  -13.8672    1.0000 </r>
       <r>  -13.8609    1.0000 </r>
       <r>  -13.8597    1.0000 </r>
       <r>  -13.8476    1.0000 </r>
       <r>  -13.8038    1.0000 </r>
       <r>  -13.7930    1.0000 </r>
       <r>  -13.7912    1.0000 </r>
       <r>  -13.7703    1.0000 </r>
       <r>  -13.7282    1.0000 </r>
       <r>  -13.7234    1.0000 </r>
       <r>  -13.7148    1.0000 </r>
       <r>  -13.7044    1.0000 </r>
       <r>  -13.6834    1.0000 </r>
       <r>  -13.6708    1.0000 </r>
       <r>  -13.6657    1.0000 </r>
       <r>  -13.6589    1.0000 </r>
       <r>  -13.6405    1.0000 </r>
       <r>  -13.6302    1.0000 </r>
       <r>  -13.6259    1.0000 </r>
       <r>  -13.6001    1.0000 </r>
       <r>  -13.5597    1.0000 </r>
       <r>  -13.5581    1.0000 </r>
       <r>  -13.5465    1.0000 </r>
       <r>  -13.5284    1.0000 </r>
       <r>  -13.5030    1.0000 </r>
       <r>  -13.4981    1.0000 </r>
       <r>  -13.4912    1.0000 </r>
       <r>  -13.4704    1.0000 </r>
       <r>  -13.4332    1.0000 </r>
       <r>  -13.4297    1.0000 </r>
       <r>  -13.4175    1.0000 </r>
       <r>  -13.4015    1.0000 </r>
       <r>  -13.3666    1.0000 </r>
       <r>  -13.3604    1.0000 </r>
       <r>  -13.3587    1.0000 </r>
       <r>  -13.3497    1.0000 </r>
       <r>  -13.3455    1.0000 </r>
       <r>  -13.3291    1.0000 </r>
       <r>  -13.3264    1.0000 </r>
       <r>  -13.2943    1.0000 </r>
       <r>  -13.2919    1.0000 </r>
       <r>  -13.2829    1.0000 </r>
       <r>  -13.2790    1.0000 </r>
       <r>  -13.2644    1.0000 </r>
       <r>  -13.2595    1.0000 </r>
       <r>  -13.2483    1.0000 </r>
       <r>  -13.1885    1.0000 </r>
       <r>  -13.1742    1.0000 </r>
       <r>  -10.3280    1.0000 </r>
       <r>   -9.1341    1.0000 </r>
       <r>   -9.1260    1.0000 </r>
       <r>   -9.1100    1.0000 </r>
       <r>   -9.1042    1.0000 </r>
       <r>   -9.1026    1.0000 </r>
       <r>   -9.0967    1.0000 </r>
       <r>   -9.0886    1.0000 </r>
       <r>   -9.0877    1.0000 </r>
       <r>   -9.0865    1.0000 </r>
       <r>   -9.0833    1.0000 </r>
       <r>   -9.0821    1.0000 </r>
       <r>   -9.0810    1.0000 </r>
       <r>   -9.0657    1.0000 </r>
       <r>   -9.0601    1.0000 </r>
       <r>   -9.0583    1.0000 </r>
       <r>   -9.0485    1.0000 </r>
       <r>   -9.0474    1.0000 </r>
       <r>   -9.0460    1.0000 </r>
       <r>   -9.0291    1.0000 </r>
       <r>   -9.0223    1.0000 </r>
       <r>   -9.0223    1.0000 </r>
       <r>   -9.0200    1.0000 </r>
       <r>   -9.0154    1.0000 </r>
       <r>   -9.0130    1.0000 </r>
       <r>   -9.0052    1.0000 </r>
       <r>   -9.0033    1.0000 </r>
       <r>   -9.0026    1.0000 </r>
       <r>   -9.0004    1.0000 </r>
       <r>   -8.9985    1.0000 </r>
       <r>   -8.9907    1.0000 </r>
       <r>   -8.9895    1.0000 </r>
       <r>   -8.9889    1.0000 </r>
       <r>   -8.9830    1.0000 </r>
       <r>   -8.9824    1.0000 </r>
       <r>   -8.9815    1.0000 </r>
       <r>   -8.9749    1.0000 </r>
       <r>   -8.9719    1.0000 </r>
       <r>   -8.9690    1.0000 </r>
       <r>   -8.9684    1.0000 </r>
       <r>   -8.9654    1.0000 </r>
       <r>   -8.9636    1.0000 </r>
       <r>   -8.9617    1.0000 </r>
       <r>   -8.9610    1.0000 </r>
       <r>   -8.9595    1.0000 </r>
       <r>   -8.9549    1.0000 </r>
       <r>   -8.9530    1.0000 </r>
       <r>   -8.9515    1.0000 </r>
       <r>   -8.9506    1.0000 </r>
       <r>   -8.9488    1.0000 </r>
       <r>   -8.9467    1.0000 </r>
       <r>   -8.9463    1.0000 </r>
       <r>   -8.9454    1.0000 </r>
       <r>   -8.9421    1.0000 </r>
       <r>   -8.9407    1.0000 </r>
       <r>   -8.9393    1.0000 </r>
       <r>   -8.9387    1.0000 </r>
       <r>   -8.9384    1.0000 </r>
       <r>   -8.9365    1.0000 </r>
       <r>   -8.9336    1.0000 </r>
       <r>   -8.9295    1.0000 </r>
       <r>   -8.9291    1.0000 </r>
       <r>   -8.9262    1.0000 </r>
       <r>   -8.9258    1.0000 </r>
       <r>   -8.9185    1.0000 </r>
       <r>   -8.9159    1.0000 </r>
       <r>   -8.9156    1.0000 </r>
       <r>   -8.9069    1.0000 </r>
       <r>   -8.9025    1.0000 </r>
       <r>   -8.9005    1.0000 </r>
       <r>   -8.8901    1.0000 </r>
       <r>   -8.8891    1.0000 </r>
       <r>   -8.8878    1.0000 </r>
       <r>   -8.8859    1.0000 </r>
       <r>   -8.8819    1.0000 </r>
       <r>   -8.8783    1.0000 </r>
       <r>   -8.8740    1.0000 </r>
       <r>   -8.8693    1.0000 </r>
       <r>   -8.8671    1.0000 </r>
       <r>   -8.8639    1.0000 </r>
       <r>   -8.8633    1.0000 </r>
       <r>   -8.8598    1.0000 </r>
       <r>   -8.8593    1.0000 </r>
       <r>   -8.8592    1.0000 </r>
       <r>   -8.8561    1.0000 </r>
       <r>   -8.8532    1.0000 </r>
       <r>   -8.8517    1.0000 </r>
       <r>   -8.8494    1.0000 </r>
       <r>   -8.8487    1.0000 </r>
       <r>   -8.8481    1.0000 </r>
       <r>   -8.8459    1.0000 </r>
       <r>   -8.8451    1.0000 </r>
       <r>   -8.8428    1.0000 </r>
       <r>   -8.8419    1.0000 </r>
       <r>   -8.8350    1.0000 </r>
       <r>   -8.8321    1.0000 </r>
       <r>   -8.8292    1.0000 </r>
       <r>   -8.8230    1.0000 </r>
       <r>   -8.8225    1.0000 </r>
       <r>   -8.8203    1.0000 </r>
       <r>   -8.8150    1.0000 </r>
       <r>   -8.8144    1.0000 </r>
       <r>   -8.8138    1.0000 </r>
       <r>   -8.8120    1.0000 </r>
       <r>   -8.8107    1.0000 </r>
       <r>   -8.8084    1.0000 </r>
       <r>   -8.8046    1.0000 </r>
       <r>   -8.8024    1.0000 </r>
       <r>   -8.7973    1.0000 </r>
       <r>   -8.7967    1.0000 </r>
       <r>   -8.7963    1.0000 </r>
       <r>   -8.7959    1.0000 </r>
       <r>   -8.7944    1.0000 </r>
       <r>   -8.7917    1.0000 </r>
       <r>   -8.7896    1.0000 </r>
       <r>   -8.7850    1.0000 </r>
       <r>   -8.7813    1.0000 </r>
       <r>   -8.7790    1.0000 </r>
       <r>   -8.7776    1.0000 </r>
       <r>   -8.7761    1.0000 </r>
       <r>   -8.7727    1.0000 </r>
       <r>   -8.7702    1.0000 </r>
       <r>   -8.7696    1.0000 </r>
       <r>   -8.7694    1.0000 </r>
       <r>   -8.7656    1.0000 </r>
       <r>   -8.7592    1.0000 </r>
       <r>   -8.7523    1.0000 </r>
       <r>   -8.7491    1.0000 </r>
       <r>   -8.7471    1.0000 </r>
       <r>   -8.7416    1.0000 </r>
       <r>   -8.7276    1.0000 </r>
       <r>   -8.7125    1.0000 </r>
       <r>   -8.7068    1.0000 </r>
       <r>   -8.7042    1.0000 </r>
       <r>   -8.7014    1.0000 </r>
       <r>   -8.7006    1.0000 </r>
       <r>   -8.6987    1.0000 </r>
       <r>   -8.6940    1.0000 </r>
       <r>   -8.6929    1.0000 </r>
       <r>   -8.6897    1.0000 </r>
       <r>   -8.6835    1.0000 </r>
       <r>   -8.6782    1.0000 </r>
       <r>   -8.6764    1.0000 </r>
       <r>   -8.6760    1.0000 </r>
       <r>   -8.6743    1.0000 </r>
       <r>   -8.6697    1.0000 </r>
       <r>   -8.6690    1.0000 </r>
       <r>   -8.6653    1.0000 </r>
       <r>   -8.6628    1.0000 </r>
       <r>   -8.6561    1.0000 </r>
       <r>   -8.6501    1.0000 </r>
       <r>   -8.6482    1.0000 </r>
       <r>   -8.6469    1.0000 </r>
       <r>   -8.6461    1.0000 </r>
       <r>   -8.6443    1.0000 </r>
       <r>   -8.6435    1.0000 </r>
       <r>   -8.6398    1.0000 </r>
       <r>   -8.6391    1.0000 </r>
       <r>   -8.6378    1.0000 </r>
       <r>   -8.6359    1.0000 </r>
       <r>   -8.6346    1.0000 </r>
       <r>   -8.6328    1.0000 </r>
       <r>   -8.6311    1.0000 </r>
       <r>   -8.6301    1.0000 </r>
       <r>   -8.6293    1.0000 </r>
       <r>   -8.6277    1.0000 </r>
       <r>   -8.6264    1.0000 </r>
       <r>   -8.6174    1.0000 </r>
       <r>   -8.6147    1.0000 </r>
       <r>   -8.6123    1.0000 </r>
       <r>   -8.6118    1.0000 </r>
       <r>   -8.6078    1.0000 </r>
       <r>   -8.6064    1.0000 </r>
       <r>   -8.6052    1.0000 </r>
       <r>   -8.6043    1.0000 </r>
       <r>   -8.6002    1.0000 </r>
       <r>   -8.5993    1.0000 </r>
       <r>   -8.5953    1.0000 </r>
       <r>   -8.5939    1.0000 </r>
       <r>   -8.5912    1.0000 </r>
       <r>   -8.5872    1.0000 </r>
       <r>   -8.5859    1.0000 </r>
       <r>   -8.5836    1.0000 </r>
       <r>   -8.5812    1.0000 </r>
       <r>   -8.5801    1.0000 </r>
       <r>   -8.5787    1.0000 </r>
       <r>   -8.5751    1.0000 </r>
       <r>   -8.5716    1.0000 </r>
       <r>   -8.5693    1.0000 </r>
       <r>   -8.5673    1.0000 </r>
       <r>   -8.5583    1.0000 </r>
       <r>   -8.5528    1.0000 </r>
       <r>   -8.5092    1.0000 </r>
       <r>   -8.4900    1.0000 </r>
       <r>   -8.4699    1.0000 </r>
       <r>   -8.4642    1.0000 </r>
       <r>   -8.4495    1.0000 </r>
       <r>   -8.4424    1.0000 </r>
       <r>   -8.4411    1.0000 </r>
       <r>   -8.4343    1.0000 </r>
       <r>   -8.4262    1.0000 </r>
       <r>   -8.4253    1.0000 </r>
       <r>   -8.4221    1.0000 </r>
       <r>   -8.4131    1.0000 </r>
       <r>   -8.3688    1.0000 </r>
       <r>   -8.3653    1.0000 </r>
       <r>   -8.3595    1.0000 </r>
       <r>   -8.3392    1.0000 </r>
       <r>   -8.3105    1.0000 </r>
       <r>   -8.2977    1.0000 </r>
       <r>   -8.2881    1.0000 </r>
       <r>   -8.2813    1.0000 </r>
       <r>   -8.2109    1.0000 </r>
       <r>   -8.2014    1.0000 </r>
       <r>   -8.1825    1.0000 </r>
       <r>   -8.1631    1.0000 </r>
       <r>   -8.1538    1.0000 </r>
       <r>   -8.1441    1.0000 </r>
       <r>   -8.1391    1.0000 </r>
       <r>   -8.1187    1.0000 </r>
       <r>   -8.1122    1.0000 </r>
       <r>   -8.1083    1.0000 </r>
       <r>   -8.0902    1.0000 </r>
       <r>   -8.0413    1.0000 </r>
       <r>   -7.9526    1.0000 </r>
       <r>   -7.9492    1.0000 </r>
       <r>   -7.9381    1.0000 </r>
       <r>   -7.9359    1.0000 </r>
       <r>   -7.9278    1.0000 </r>
       <r>   -7.9220    1.0000 </r>
       <r>   -7.9182    1.0000 </r>
       <r>   -7.8808    1.0000 </r>
       <r>   -7.8508    1.0000 </r>
       <r>   -7.8494    1.0000 </r>
       <r>   -7.8252    1.0000 </r>
       <r>   -7.7245    1.0000 </r>
       <r>   -2.8362    1.0000 </r>
       <r>   -2.8269    1.0000 </r>
       <r>   -2.8237    1.0000 </r>
       <r>   -2.8157    1.0000 </r>
       <r>   -2.8094    1.0000 </r>
       <r>   -2.7885    1.0000 </r>
       <r>   -2.7695    1.0000 </r>
       <r>   -2.7289    1.0000 </r>
       <r>   -2.6295    1.0000 </r>
       <r>   -2.6195    1.0000 </r>
       <r>   -2.6042    1.0000 </r>
       <r>   -2.6008    1.0000 </r>
       <r>   -2.5939    1.0000 </r>
       <r>   -2.5673    1.0000 </r>
       <r>   -2.5342    1.0000 </r>
       <r>   -2.4307    1.0000 </r>
       <r>   -2.3943    1.0000 </r>
       <r>   -2.3525    1.0000 </r>
       <r>   -2.2812    1.0000 </r>
       <r>   -2.2674    1.0000 </r>
       <r>   -2.0615    1.0000 </r>
       <r>   -2.0576    1.0000 </r>
       <r>   -2.0397    1.0000 </r>
       <r>   -2.0337    1.0000 </r>
       <r>   -1.8899    1.0000 </r>
       <r>   -1.8714    1.0000 </r>
       <r>   -1.8635    1.0000 </r>
       <r>   -1.8540    1.0000 </r>
       <r>   -1.8332    1.0000 </r>
       <r>   -1.8132    1.0000 </r>
       <r>   -1.7814    1.0000 </r>
       <r>   -1.6479    1.0000 </r>
       <r>   -1.5616    1.0000 </r>
       <r>   -1.5485    1.0000 </r>
       <r>   -1.5252    1.0000 </r>
       <r>   -1.3915    1.0000 </r>
       <r>   -1.0979    1.0000 </r>
       <r>   -1.0973    1.0000 </r>
       <r>   -1.0824    1.0000 </r>
       <r>   -1.0015    1.0000 </r>
       <r>   -0.9931    1.0000 </r>
       <r>   -0.9782    1.0000 </r>
       <r>   -0.9360    1.0000 </r>
       <r>   -0.7176    1.0000 </r>
       <r>   -0.6041    1.0000 </r>
       <r>   -0.5985    1.0000 </r>
       <r>   -0.5887    1.0000 </r>
       <r>   -0.5446    1.0000 </r>
       <r>   -0.5216    1.0000 </r>
       <r>   -0.5134    1.0000 </r>
       <r>   -0.4998    1.0000 </r>
       <r>   -0.4954    1.0000 </r>
       <r>   -0.4696    1.0000 </r>
       <r>   -0.4618    1.0000 </r>
       <r>   -0.4442    1.0000 </r>
       <r>   -0.3400    1.0000 </r>
       <r>   -0.1449    1.0000 </r>
       <r>   -0.1298    1.0000 </r>
       <r>   -0.1007    1.0000 </r>
       <r>   -0.0879    1.0000 </r>
       <r>   -0.0231    1.0000 </r>
       <r>   -0.0077    1.0000 </r>
       <r>   -0.0049    1.0000 </r>
       <r>    0.0300    1.0000 </r>
       <r>    0.0507    1.0000 </r>
       <r>    0.0571    1.0000 </r>
       <r>    0.0626    1.0000 </r>
       <r>    0.0930    1.0000 </r>
       <r>    0.0969    1.0000 </r>
       <r>    0.1103    1.0000 </r>
       <r>    0.1516    1.0000 </r>
       <r>    0.1602    1.0000 </r>
       <r>    0.2387    1.0000 </r>
       <r>    0.2792    1.0000 </r>
       <r>    0.2855    1.0000 </r>
       <r>    0.3183    1.0000 </r>
       <r>    0.3993    1.0000 </r>
       <r>    0.4468    1.0000 </r>
       <r>    0.5052    1.0000 </r>
       <r>    0.5268    1.0000 </r>
       <r>    0.5310    1.0000 </r>
       <r>    0.5451    1.0000 </r>
       <r>    0.5562    1.0000 </r>
       <r>    0.5775    1.0000 </r>
       <r>    0.6009    1.0000 </r>
       <r>    0.6305    1.0000 </r>
       <r>    0.6449    1.0000 </r>
       <r>    0.6846    1.0000 </r>
       <r>    0.6867    1.0000 </r>
       <r>    0.7779    1.0000 </r>
       <r>    0.8291    1.0000 </r>
       <r>    0.8321    1.0000 </r>
       <r>    0.8436    1.0000 </r>
       <r>    0.8588    1.0000 </r>
       <r>    0.8861    1.0000 </r>
       <r>    0.8961    1.0000 </r>
       <r>    0.9390    1.0000 </r>
       <r>    0.9898    1.0000 </r>
       <r>    1.0616    1.0000 </r>
       <r>    1.0631    1.0000 </r>
       <r>    1.0776    1.0000 </r>
       <r>    1.0810    1.0000 </r>
       <r>    1.0869    1.0000 </r>
       <r>    1.1061    1.0000 </r>
       <r>    1.1241    1.0000 </r>
       <r>    1.1271    1.0000 </r>
       <r>    1.1290    1.0000 </r>
       <r>    1.1449    1.0000 </r>
       <r>    1.1742    1.0000 </r>
       <r>    1.1869    1.0000 </r>
       <r>    1.1965    1.0000 </r>
       <r>    1.2108    1.0000 </r>
       <r>    1.2741    1.0000 </r>
       <r>    1.3101    1.0000 </r>
       <r>    1.3593    1.0000 </r>
       <r>    1.3834    1.0000 </r>
       <r>    1.4011    1.0000 </r>
       <r>    1.5216    1.0000 </r>
       <r>    1.6375    1.0000 </r>
       <r>    1.6601    1.0000 </r>
       <r>    1.6645    1.0000 </r>
       <r>    1.7002    1.0000 </r>
       <r>    1.7562    1.0000 </r>
       <r>    1.7763    1.0000 </r>
       <r>    1.7931    1.0000 </r>
       <r>    1.8056    1.0000 </r>
       <r>    1.8258    1.0000 </r>
       <r>    1.8503    1.0000 </r>
       <r>    1.8639    1.0000 </r>
       <r>    1.8749    1.0000 </r>
       <r>    1.8899    1.0000 </r>
       <r>    1.8924    1.0000 </r>
       <r>    1.9255    1.0000 </r>
       <r>    1.9429    1.0000 </r>
       <r>    1.9545    1.0000 </r>
       <r>    1.9580    1.0000 </r>
       <r>    1.9871    1.0000 </r>
       <r>    1.9881    1.0000 </r>
       <r>    1.9904    1.0000 </r>
       <r>    2.0089    1.0000 </r>
       <r>    2.0379    1.0000 </r>
       <r>    2.1499    1.0000 </r>
       <r>    2.1845    1.0000 </r>
       <r>    2.1916    1.0000 </r>
       <r>    2.2196    1.0000 </r>
       <r>    2.2362    1.0000 </r>
       <r>    2.2516    1.0000 </r>
       <r>    2.2690    1.0000 </r>
       <r>    2.2708    1.0000 </r>
       <r>    2.2821    1.0000 </r>
       <r>    2.2834    1.0000 </r>
       <r>    2.2964    1.0000 </r>
       <r>    2.3078    1.0000 </r>
       <r>    2.3105    1.0000 </r>
       <r>    2.3282    1.0000 </r>
       <r>    2.3337    1.0000 </r>
       <r>    2.3527    1.0000 </r>
       <r>    2.4178    1.0000 </r>
       <r>    2.4492    1.0000 </r>
       <r>    2.4526    1.0000 </r>
       <r>    2.4554    1.0000 </r>
       <r>    2.4725    1.0000 </r>
       <r>    2.4776    1.0000 </r>
       <r>    2.4939    1.0000 </r>
       <r>    2.5329    1.0000 </r>
       <r>    2.5587    1.0000 </r>
       <r>    2.6049    1.0000 </r>
       <r>    2.6105    1.0000 </r>
       <r>    2.6441    1.0000 </r>
       <r>    2.6960    1.0000 </r>
       <r>    2.7386    1.0000 </r>
       <r>    2.7831    1.0000 </r>
       <r>    2.7897    1.0000 </r>
       <r>    2.7909    1.0000 </r>
       <r>    2.7954    1.0000 </r>
       <r>    2.8033    1.0000 </r>
       <r>    2.8146    1.0000 </r>
       <r>    2.8284    1.0000 </r>
       <r>    2.8321    1.0000 </r>
       <r>    2.8456    1.0000 </r>
       <r>    2.9424    1.0000 </r>
       <r>    2.9522    1.0000 </r>
       <r>    2.9759    1.0000 </r>
       <r>    2.9875    1.0000 </r>
       <r>    3.0408    1.0000 </r>
       <r>    3.0727    1.0000 </r>
       <r>    3.0808    1.0000 </r>
       <r>    3.0957    1.0000 </r>
       <r>    3.1036    1.0000 </r>
       <r>    3.1190    1.0000 </r>
       <r>    3.1321    1.0000 </r>
       <r>    3.1560    1.0000 </r>
       <r>    3.1569    1.0000 </r>
       <r>    3.1756    1.0000 </r>
       <r>    3.1814    1.0000 </r>
       <r>    3.2027    1.0000 </r>
       <r>    3.2124    1.0000 </r>
       <r>    3.2330    1.0000 </r>
       <r>    3.2628    1.0000 </r>
       <r>    3.2714    1.0000 </r>
       <r>    3.3159    1.0000 </r>
       <r>    3.3508    1.0000 </r>
       <r>    3.3687    1.0000 </r>
       <r>    3.3866    1.0000 </r>
       <r>    3.3919    1.0000 </r>
       <r>    3.4003    1.0000 </r>
       <r>    3.4114    1.0000 </r>
       <r>    3.4176    1.0000 </r>
       <r>    3.4199    1.0000 </r>
       <r>    3.4250    1.0000 </r>
       <r>    3.4349    1.0000 </r>
       <r>    3.5655    1.0000 </r>
       <r>    3.6834    1.0000 </r>
       <r>    3.6867    1.0000 </r>
       <r>    3.7179    1.0000 </r>
       <r>    3.7921    1.0000 </r>
       <r>    4.9831    1.0000 </r>
       <r>    5.2909    0.9980 </r>
       <r>    5.4683    0.0159 </r>
       <r>    6.7564    0.0000 </r>
       <r>    7.2650    0.0000 </r>
       <r>    7.9263    0.0000 </r>
       <r>    7.9474    0.0000 </r>
       <r>    7.9744    0.0000 </r>
       <r>    8.0821    0.0000 </r>
       <r>    8.8887    0.0000 </r>
       <r>    8.9079    0.0000 </r>
       <r>    8.9182    0.0000 </r>
       <r>    8.9792    0.0000 </r>
       <r>    9.4197    0.0000 </r>
       <r>    9.4240    0.0000 </r>
       <r>    9.4452    0.0000 </r>
       <r>    9.5366    0.0000 </r>
       <r>    9.7315    0.0000 </r>
       <r>    9.7366    0.0000 </r>
       <r>    9.7660    0.0000 </r>
       <r>    9.8225    0.0000 </r>
       <r>    9.8271    0.0000 </r>
       <r>    9.8600    0.0000 </r>
       <r>    9.8635    0.0000 </r>
       <r>   10.0169    0.0000 </r>
       <r>   10.2006    0.0000 </r>
       <r>   10.2278    0.0000 </r>
       <r>   10.2294    0.0000 </r>
       <r>   10.4409    0.0000 </r>
       <r>   10.5699    0.0000 </r>
       <r>   10.5782    0.0000 </r>
       <r>   10.5894    0.0000 </r>
       <r>   10.7072    0.0000 </r>
       <r>   10.7340    0.0000 </r>
       <r>   10.7623    0.0000 </r>
       <r>   10.7786    0.0000 </r>
       <r>   10.7839    0.0000 </r>
       <r>   10.7978    0.0000 </r>
       <r>   10.8282    0.0000 </r>
       <r>   10.8466    0.0000 </r>
       <r>   10.8745    0.0000 </r>
       <r>   10.9207    0.0000 </r>
       <r>   10.9332    0.0000 </r>
       <r>   10.9691    0.0000 </r>
       <r>   11.2096    0.0000 </r>
       <r>   11.2176    0.0000 </r>
       <r>   11.2667    0.0000 </r>
       <r>   11.3294    0.0000 </r>
       <r>   11.3858    0.0000 </r>
       <r>   11.3924    0.0000 </r>
       <r>   11.4222    0.0000 </r>
       <r>   11.4273    0.0000 </r>
       <r>   11.4891    0.0000 </r>
       <r>   11.4960    0.0000 </r>
       <r>   11.5285    0.0000 </r>
       <r>   11.6315    0.0000 </r>
       <r>   11.6666    0.0000 </r>
       <r>   11.6789    0.0000 </r>
       <r>   11.7064    0.0000 </r>
       <r>   11.7357    0.0000 </r>
       <r>   12.0755    0.0000 </r>
       <r>   12.1122    0.0000 </r>
       <r>   12.1481    0.0000 </r>
       <r>   12.1609    0.0000 </r>
       <r>   12.4281    0.0000 </r>
       <r>   12.4428    0.0000 </r>
       <r>   12.4924    0.0000 </r>
       <r>   12.4941    0.0000 </r>
       <r>   12.5895    0.0000 </r>
       <r>   12.5985    0.0000 </r>
       <r>   12.6488    0.0000 </r>
       <r>   12.6622    0.0000 </r>
       <r>   12.6948    0.0000 </r>
       <r>   12.6961    0.0000 </r>
       <r>   12.7506    0.0000 </r>
       <r>   12.7625    0.0000 </r>
       <r>   13.0520    0.0000 </r>
       <r>   13.3115    0.0000 </r>
       <r>   13.3189    0.0000 </r>
       <r>   13.3335    0.0000 </r>
       <r>   13.3487    0.0000 </r>
       <r>   13.3617    0.0000 </r>
       <r>   13.3708    0.0000 </r>
       <r>   13.4096    0.0000 </r>
       <r>   13.5254    0.0000 </r>
       <r>   13.5556    0.0000 </r>
       <r>   13.5844    0.0000 </r>
       <r>   13.5924    0.0000 </r>
       <r>   13.5993    0.0000 </r>
       <r>   13.6177    0.0000 </r>
       <r>   13.6255    0.0000 </r>
       <r>   13.6811    0.0000 </r>
       <r>   13.7861    0.0000 </r>
       <r>   13.8003    0.0000 </r>
       <r>   13.8142    0.0000 </r>
       <r>   14.1376    0.0000 </r>
       <r>   14.1628    0.0000 </r>
       <r>   14.1911    0.0000 </r>
       <r>   14.2192    0.0000 </r>
       <r>   14.3037    0.0000 </r>
       <r>   14.3554    0.0000 </r>
       <r>   14.3868    0.0000 </r>
       <r>   14.4658    0.0000 </r>
       <r>   14.5020    0.0000 </r>
       <r>   14.6075    0.0000 </r>
       <r>   14.6390    0.0000 </r>
       <r>   14.6435    0.0000 </r>
      </set>
      <set comment="kpoint 8">
       <r>  -14.7591    1.0000 </r>
       <r>  -14.7522    1.0000 </r>
       <r>  -14.7515    1.0000 </r>
       <r>  -14.7305    1.0000 </r>
       <r>  -14.6656    1.0000 </r>
       <r>  -14.6637    1.0000 </r>
       <r>  -14.6474    1.0000 </r>
       <r>  -14.6067    1.0000 </r>
       <r>  -14.2163    1.0000 </r>
       <r>  -14.2148    1.0000 </r>
       <r>  -14.2077    1.0000 </r>
       <r>  -14.1765    1.0000 </r>
       <r>  -14.0182    1.0000 </r>
       <r>  -14.0060    1.0000 </r>
       <r>  -14.0022    1.0000 </r>
       <r>  -13.9976    1.0000 </r>
       <r>  -13.9829    1.0000 </r>
       <r>  -13.9564    1.0000 </r>
       <r>  -13.9459    1.0000 </r>
       <r>  -13.9427    1.0000 </r>
       <r>  -13.9412    1.0000 </r>
       <r>  -13.9371    1.0000 </r>
       <r>  -13.9305    1.0000 </r>
       <r>  -13.9284    1.0000 </r>
       <r>  -13.9264    1.0000 </r>
       <r>  -13.9128    1.0000 </r>
       <r>  -13.9050    1.0000 </r>
       <r>  -13.8138    1.0000 </r>
       <r>  -13.8053    1.0000 </r>
       <r>  -13.8031    1.0000 </r>
       <r>  -13.7809    1.0000 </r>
       <r>  -13.7165    1.0000 </r>
       <r>  -13.7095    1.0000 </r>
       <r>  -13.6992    1.0000 </r>
       <r>  -13.6915    1.0000 </r>
       <r>  -13.6860    1.0000 </r>
       <r>  -13.6480    1.0000 </r>
       <r>  -13.6422    1.0000 </r>
       <r>  -13.6396    1.0000 </r>
       <r>  -13.6315    1.0000 </r>
       <r>  -13.6297    1.0000 </r>
       <r>  -13.6142    1.0000 </r>
       <r>  -13.6072    1.0000 </r>
       <r>  -13.5632    1.0000 </r>
       <r>  -13.5566    1.0000 </r>
       <r>  -13.5547    1.0000 </r>
       <r>  -13.5349    1.0000 </r>
       <r>  -13.4929    1.0000 </r>
       <r>  -13.4867    1.0000 </r>
       <r>  -13.4856    1.0000 </r>
       <r>  -13.4647    1.0000 </r>
       <r>  -13.4424    1.0000 </r>
       <r>  -13.4337    1.0000 </r>
       <r>  -13.4305    1.0000 </r>
       <r>  -13.4035    1.0000 </r>
       <r>  -13.3661    1.0000 </r>
       <r>  -13.3601    1.0000 </r>
       <r>  -13.3587    1.0000 </r>
       <r>  -13.3503    1.0000 </r>
       <r>  -13.3458    1.0000 </r>
       <r>  -13.3285    1.0000 </r>
       <r>  -13.3267    1.0000 </r>
       <r>  -13.2821    1.0000 </r>
       <r>  -13.2818    1.0000 </r>
       <r>  -13.2777    1.0000 </r>
       <r>  -13.2756    1.0000 </r>
       <r>  -13.2736    1.0000 </r>
       <r>  -13.2646    1.0000 </r>
       <r>  -13.2537    1.0000 </r>
       <r>  -13.1899    1.0000 </r>
       <r>  -13.1749    1.0000 </r>
       <r>  -10.3280    1.0000 </r>
       <r>   -9.1333    1.0000 </r>
       <r>   -9.1219    1.0000 </r>
       <r>   -9.1079    1.0000 </r>
       <r>   -9.1010    1.0000 </r>
       <r>   -9.1002    1.0000 </r>
       <r>   -9.0965    1.0000 </r>
       <r>   -9.0921    1.0000 </r>
       <r>   -9.0903    1.0000 </r>
       <r>   -9.0895    1.0000 </r>
       <r>   -9.0883    1.0000 </r>
       <r>   -9.0827    1.0000 </r>
       <r>   -9.0821    1.0000 </r>
       <r>   -9.0653    1.0000 </r>
       <r>   -9.0612    1.0000 </r>
       <r>   -9.0558    1.0000 </r>
       <r>   -9.0446    1.0000 </r>
       <r>   -9.0429    1.0000 </r>
       <r>   -9.0404    1.0000 </r>
       <r>   -9.0332    1.0000 </r>
       <r>   -9.0313    1.0000 </r>
       <r>   -9.0230    1.0000 </r>
       <r>   -9.0175    1.0000 </r>
       <r>   -9.0174    1.0000 </r>
       <r>   -9.0104    1.0000 </r>
       <r>   -9.0066    1.0000 </r>
       <r>   -9.0028    1.0000 </r>
       <r>   -8.9997    1.0000 </r>
       <r>   -8.9991    1.0000 </r>
       <r>   -8.9974    1.0000 </r>
       <r>   -8.9902    1.0000 </r>
       <r>   -8.9890    1.0000 </r>
       <r>   -8.9885    1.0000 </r>
       <r>   -8.9828    1.0000 </r>
       <r>   -8.9826    1.0000 </r>
       <r>   -8.9811    1.0000 </r>
       <r>   -8.9790    1.0000 </r>
       <r>   -8.9760    1.0000 </r>
       <r>   -8.9706    1.0000 </r>
       <r>   -8.9701    1.0000 </r>
       <r>   -8.9670    1.0000 </r>
       <r>   -8.9665    1.0000 </r>
       <r>   -8.9637    1.0000 </r>
       <r>   -8.9624    1.0000 </r>
       <r>   -8.9571    1.0000 </r>
       <r>   -8.9565    1.0000 </r>
       <r>   -8.9554    1.0000 </r>
       <r>   -8.9534    1.0000 </r>
       <r>   -8.9492    1.0000 </r>
       <r>   -8.9473    1.0000 </r>
       <r>   -8.9469    1.0000 </r>
       <r>   -8.9462    1.0000 </r>
       <r>   -8.9454    1.0000 </r>
       <r>   -8.9445    1.0000 </r>
       <r>   -8.9424    1.0000 </r>
       <r>   -8.9415    1.0000 </r>
       <r>   -8.9391    1.0000 </r>
       <r>   -8.9373    1.0000 </r>
       <r>   -8.9356    1.0000 </r>
       <r>   -8.9321    1.0000 </r>
       <r>   -8.9303    1.0000 </r>
       <r>   -8.9297    1.0000 </r>
       <r>   -8.9253    1.0000 </r>
       <r>   -8.9206    1.0000 </r>
       <r>   -8.9170    1.0000 </r>
       <r>   -8.9110    1.0000 </r>
       <r>   -8.9103    1.0000 </r>
       <r>   -8.9083    1.0000 </r>
       <r>   -8.9000    1.0000 </r>
       <r>   -8.8935    1.0000 </r>
       <r>   -8.8854    1.0000 </r>
       <r>   -8.8832    1.0000 </r>
       <r>   -8.8822    1.0000 </r>
       <r>   -8.8810    1.0000 </r>
       <r>   -8.8736    1.0000 </r>
       <r>   -8.8684    1.0000 </r>
       <r>   -8.8680    1.0000 </r>
       <r>   -8.8659    1.0000 </r>
       <r>   -8.8623    1.0000 </r>
       <r>   -8.8611    1.0000 </r>
       <r>   -8.8570    1.0000 </r>
       <r>   -8.8551    1.0000 </r>
       <r>   -8.8537    1.0000 </r>
       <r>   -8.8534    1.0000 </r>
       <r>   -8.8515    1.0000 </r>
       <r>   -8.8512    1.0000 </r>
       <r>   -8.8497    1.0000 </r>
       <r>   -8.8484    1.0000 </r>
       <r>   -8.8462    1.0000 </r>
       <r>   -8.8450    1.0000 </r>
       <r>   -8.8410    1.0000 </r>
       <r>   -8.8406    1.0000 </r>
       <r>   -8.8388    1.0000 </r>
       <r>   -8.8384    1.0000 </r>
       <r>   -8.8354    1.0000 </r>
       <r>   -8.8330    1.0000 </r>
       <r>   -8.8278    1.0000 </r>
       <r>   -8.8274    1.0000 </r>
       <r>   -8.8255    1.0000 </r>
       <r>   -8.8239    1.0000 </r>
       <r>   -8.8214    1.0000 </r>
       <r>   -8.8191    1.0000 </r>
       <r>   -8.8154    1.0000 </r>
       <r>   -8.8147    1.0000 </r>
       <r>   -8.8083    1.0000 </r>
       <r>   -8.8069    1.0000 </r>
       <r>   -8.8061    1.0000 </r>
       <r>   -8.8049    1.0000 </r>
       <r>   -8.8000    1.0000 </r>
       <r>   -8.7986    1.0000 </r>
       <r>   -8.7957    1.0000 </r>
       <r>   -8.7948    1.0000 </r>
       <r>   -8.7944    1.0000 </r>
       <r>   -8.7938    1.0000 </r>
       <r>   -8.7914    1.0000 </r>
       <r>   -8.7855    1.0000 </r>
       <r>   -8.7847    1.0000 </r>
       <r>   -8.7815    1.0000 </r>
       <r>   -8.7789    1.0000 </r>
       <r>   -8.7778    1.0000 </r>
       <r>   -8.7704    1.0000 </r>
       <r>   -8.7667    1.0000 </r>
       <r>   -8.7660    1.0000 </r>
       <r>   -8.7610    1.0000 </r>
       <r>   -8.7596    1.0000 </r>
       <r>   -8.7486    1.0000 </r>
       <r>   -8.7476    1.0000 </r>
       <r>   -8.7452    1.0000 </r>
       <r>   -8.7395    1.0000 </r>
       <r>   -8.7376    1.0000 </r>
       <r>   -8.7364    1.0000 </r>
       <r>   -8.7271    1.0000 </r>
       <r>   -8.7172    1.0000 </r>
       <r>   -8.7159    1.0000 </r>
       <r>   -8.7092    1.0000 </r>
       <r>   -8.7073    1.0000 </r>
       <r>   -8.7042    1.0000 </r>
       <r>   -8.6939    1.0000 </r>
       <r>   -8.6909    1.0000 </r>
       <r>   -8.6879    1.0000 </r>
       <r>   -8.6856    1.0000 </r>
       <r>   -8.6787    1.0000 </r>
       <r>   -8.6786    1.0000 </r>
       <r>   -8.6745    1.0000 </r>
       <r>   -8.6744    1.0000 </r>
       <r>   -8.6698    1.0000 </r>
       <r>   -8.6676    1.0000 </r>
       <r>   -8.6643    1.0000 </r>
       <r>   -8.6637    1.0000 </r>
       <r>   -8.6590    1.0000 </r>
       <r>   -8.6566    1.0000 </r>
       <r>   -8.6558    1.0000 </r>
       <r>   -8.6500    1.0000 </r>
       <r>   -8.6490    1.0000 </r>
       <r>   -8.6466    1.0000 </r>
       <r>   -8.6455    1.0000 </r>
       <r>   -8.6443    1.0000 </r>
       <r>   -8.6439    1.0000 </r>
       <r>   -8.6423    1.0000 </r>
       <r>   -8.6415    1.0000 </r>
       <r>   -8.6396    1.0000 </r>
       <r>   -8.6368    1.0000 </r>
       <r>   -8.6324    1.0000 </r>
       <r>   -8.6297    1.0000 </r>
       <r>   -8.6275    1.0000 </r>
       <r>   -8.6270    1.0000 </r>
       <r>   -8.6268    1.0000 </r>
       <r>   -8.6213    1.0000 </r>
       <r>   -8.6198    1.0000 </r>
       <r>   -8.6150    1.0000 </r>
       <r>   -8.6146    1.0000 </r>
       <r>   -8.6090    1.0000 </r>
       <r>   -8.6072    1.0000 </r>
       <r>   -8.6054    1.0000 </r>
       <r>   -8.6041    1.0000 </r>
       <r>   -8.6031    1.0000 </r>
       <r>   -8.6022    1.0000 </r>
       <r>   -8.5980    1.0000 </r>
       <r>   -8.5974    1.0000 </r>
       <r>   -8.5938    1.0000 </r>
       <r>   -8.5914    1.0000 </r>
       <r>   -8.5883    1.0000 </r>
       <r>   -8.5877    1.0000 </r>
       <r>   -8.5865    1.0000 </r>
       <r>   -8.5844    1.0000 </r>
       <r>   -8.5815    1.0000 </r>
       <r>   -8.5781    1.0000 </r>
       <r>   -8.5767    1.0000 </r>
       <r>   -8.5737    1.0000 </r>
       <r>   -8.5728    1.0000 </r>
       <r>   -8.5688    1.0000 </r>
       <r>   -8.5571    1.0000 </r>
       <r>   -8.5532    1.0000 </r>
       <r>   -8.5522    1.0000 </r>
       <r>   -8.5520    1.0000 </r>
       <r>   -8.5406    1.0000 </r>
       <r>   -8.4866    1.0000 </r>
       <r>   -8.4681    1.0000 </r>
       <r>   -8.4641    1.0000 </r>
       <r>   -8.4602    1.0000 </r>
       <r>   -8.4075    1.0000 </r>
       <r>   -8.3803    1.0000 </r>
       <r>   -8.3650    1.0000 </r>
       <r>   -8.3625    1.0000 </r>
       <r>   -8.3109    1.0000 </r>
       <r>   -8.3104    1.0000 </r>
       <r>   -8.3026    1.0000 </r>
       <r>   -8.2962    1.0000 </r>
       <r>   -8.2957    1.0000 </r>
       <r>   -8.2846    1.0000 </r>
       <r>   -8.2832    1.0000 </r>
       <r>   -8.2592    1.0000 </r>
       <r>   -8.2005    1.0000 </r>
       <r>   -8.1964    1.0000 </r>
       <r>   -8.1797    1.0000 </r>
       <r>   -8.1400    1.0000 </r>
       <r>   -8.1341    1.0000 </r>
       <r>   -8.1097    1.0000 </r>
       <r>   -8.1066    1.0000 </r>
       <r>   -8.0878    1.0000 </r>
       <r>   -8.0738    1.0000 </r>
       <r>   -8.0708    1.0000 </r>
       <r>   -8.0544    1.0000 </r>
       <r>   -8.0295    1.0000 </r>
       <r>   -7.9706    1.0000 </r>
       <r>   -7.9580    1.0000 </r>
       <r>   -7.9530    1.0000 </r>
       <r>   -7.9433    1.0000 </r>
       <r>   -7.9313    1.0000 </r>
       <r>   -7.9257    1.0000 </r>
       <r>   -7.9184    1.0000 </r>
       <r>   -7.9147    1.0000 </r>
       <r>   -7.9119    1.0000 </r>
       <r>   -7.9075    1.0000 </r>
       <r>   -7.8926    1.0000 </r>
       <r>   -7.7241    1.0000 </r>
       <r>   -2.8905    1.0000 </r>
       <r>   -2.8887    1.0000 </r>
       <r>   -2.8816    1.0000 </r>
       <r>   -2.8714    1.0000 </r>
       <r>   -2.8697    1.0000 </r>
       <r>   -2.8658    1.0000 </r>
       <r>   -2.8451    1.0000 </r>
       <r>   -2.7571    1.0000 </r>
       <r>   -2.5766    1.0000 </r>
       <r>   -2.5688    1.0000 </r>
       <r>   -2.5532    1.0000 </r>
       <r>   -2.5373    1.0000 </r>
       <r>   -2.5345    1.0000 </r>
       <r>   -2.5060    1.0000 </r>
       <r>   -2.4270    1.0000 </r>
       <r>   -2.4208    1.0000 </r>
       <r>   -2.2542    1.0000 </r>
       <r>   -2.2460    1.0000 </r>
       <r>   -2.2110    1.0000 </r>
       <r>   -2.1823    1.0000 </r>
       <r>   -1.9501    1.0000 </r>
       <r>   -1.9115    1.0000 </r>
       <r>   -1.9083    1.0000 </r>
       <r>   -1.9031    1.0000 </r>
       <r>   -1.9002    1.0000 </r>
       <r>   -1.8983    1.0000 </r>
       <r>   -1.8962    1.0000 </r>
       <r>   -1.8949    1.0000 </r>
       <r>   -1.8870    1.0000 </r>
       <r>   -1.8850    1.0000 </r>
       <r>   -1.8381    1.0000 </r>
       <r>   -1.7519    1.0000 </r>
       <r>   -1.6068    1.0000 </r>
       <r>   -1.5925    1.0000 </r>
       <r>   -1.5914    1.0000 </r>
       <r>   -1.4786    1.0000 </r>
       <r>   -1.3907    1.0000 </r>
       <r>   -1.3824    1.0000 </r>
       <r>   -1.3571    1.0000 </r>
       <r>   -1.0467    1.0000 </r>
       <r>   -1.0423    1.0000 </r>
       <r>   -1.0165    1.0000 </r>
       <r>   -0.9825    1.0000 </r>
       <r>   -0.8485    1.0000 </r>
       <r>   -0.7073    1.0000 </r>
       <r>   -0.6659    1.0000 </r>
       <r>   -0.6638    1.0000 </r>
       <r>   -0.6208    1.0000 </r>
       <r>   -0.4944    1.0000 </r>
       <r>   -0.4581    1.0000 </r>
       <r>   -0.4384    1.0000 </r>
       <r>   -0.3933    1.0000 </r>
       <r>   -0.2605    1.0000 </r>
       <r>   -0.1845    1.0000 </r>
       <r>   -0.1799    1.0000 </r>
       <r>   -0.1599    1.0000 </r>
       <r>   -0.1054    1.0000 </r>
       <r>   -0.0848    1.0000 </r>
       <r>   -0.0828    1.0000 </r>
       <r>   -0.0738    1.0000 </r>
       <r>   -0.0590    1.0000 </r>
       <r>   -0.0111    1.0000 </r>
       <r>    0.0193    1.0000 </r>
       <r>    0.0356    1.0000 </r>
       <r>    0.1178    1.0000 </r>
       <r>    0.1732    1.0000 </r>
       <r>    0.1966    1.0000 </r>
       <r>    0.2000    1.0000 </r>
       <r>    0.2117    1.0000 </r>
       <r>    0.2213    1.0000 </r>
       <r>    0.2323    1.0000 </r>
       <r>    0.2805    1.0000 </r>
       <r>    0.3074    1.0000 </r>
       <r>    0.3171    1.0000 </r>
       <r>    0.3208    1.0000 </r>
       <r>    0.3414    1.0000 </r>
       <r>    0.3553    1.0000 </r>
       <r>    0.3649    1.0000 </r>
       <r>    0.3749    1.0000 </r>
       <r>    0.3791    1.0000 </r>
       <r>    0.3869    1.0000 </r>
       <r>    0.4458    1.0000 </r>
       <r>    0.4544    1.0000 </r>
       <r>    0.5480    1.0000 </r>
       <r>    0.5579    1.0000 </r>
       <r>    0.6893    1.0000 </r>
       <r>    0.7019    1.0000 </r>
       <r>    0.7347    1.0000 </r>
       <r>    0.7519    1.0000 </r>
       <r>    0.7935    1.0000 </r>
       <r>    0.9017    1.0000 </r>
       <r>    0.9061    1.0000 </r>
       <r>    0.9248    1.0000 </r>
       <r>    0.9344    1.0000 </r>
       <r>    0.9508    1.0000 </r>
       <r>    0.9580    1.0000 </r>
       <r>    0.9764    1.0000 </r>
       <r>    0.9891    1.0000 </r>
       <r>    0.9905    1.0000 </r>
       <r>    0.9938    1.0000 </r>
       <r>    0.9993    1.0000 </r>
       <r>    1.0060    1.0000 </r>
       <r>    1.0299    1.0000 </r>
       <r>    1.0469    1.0000 </r>
       <r>    1.0768    1.0000 </r>
       <r>    1.0954    1.0000 </r>
       <r>    1.1043    1.0000 </r>
       <r>    1.1300    1.0000 </r>
       <r>    1.1932    1.0000 </r>
       <r>    1.2453    1.0000 </r>
       <r>    1.2649    1.0000 </r>
       <r>    1.2809    1.0000 </r>
       <r>    1.3004    1.0000 </r>
       <r>    1.3165    1.0000 </r>
       <r>    1.3429    1.0000 </r>
       <r>    1.3439    1.0000 </r>
       <r>    1.4181    1.0000 </r>
       <r>    1.4354    1.0000 </r>
       <r>    1.4597    1.0000 </r>
       <r>    1.4744    1.0000 </r>
       <r>    1.5024    1.0000 </r>
       <r>    1.5650    1.0000 </r>
       <r>    1.5956    1.0000 </r>
       <r>    1.6080    1.0000 </r>
       <r>    1.6678    1.0000 </r>
       <r>    1.6923    1.0000 </r>
       <r>    1.7381    1.0000 </r>
       <r>    1.7529    1.0000 </r>
       <r>    1.7660    1.0000 </r>
       <r>    1.7678    1.0000 </r>
       <r>    1.7932    1.0000 </r>
       <r>    1.8001    1.0000 </r>
       <r>    1.8476    1.0000 </r>
       <r>    1.8617    1.0000 </r>
       <r>    1.8700    1.0000 </r>
       <r>    1.8979    1.0000 </r>
       <r>    1.9121    1.0000 </r>
       <r>    1.9628    1.0000 </r>
       <r>    2.1110    1.0000 </r>
       <r>    2.1797    1.0000 </r>
       <r>    2.1978    1.0000 </r>
       <r>    2.2010    1.0000 </r>
       <r>    2.2075    1.0000 </r>
       <r>    2.2432    1.0000 </r>
       <r>    2.2623    1.0000 </r>
       <r>    2.2745    1.0000 </r>
       <r>    2.2884    1.0000 </r>
       <r>    2.2969    1.0000 </r>
       <r>    2.3044    1.0000 </r>
       <r>    2.3183    1.0000 </r>
       <r>    2.3285    1.0000 </r>
       <r>    2.3411    1.0000 </r>
       <r>    2.3436    1.0000 </r>
       <r>    2.3865    1.0000 </r>
       <r>    2.4311    1.0000 </r>
       <r>    2.4398    1.0000 </r>
       <r>    2.4927    1.0000 </r>
       <r>    2.4964    1.0000 </r>
       <r>    2.5101    1.0000 </r>
       <r>    2.5186    1.0000 </r>
       <r>    2.5533    1.0000 </r>
       <r>    2.5798    1.0000 </r>
       <r>    2.5982    1.0000 </r>
       <r>    2.6072    1.0000 </r>
       <r>    2.6150    1.0000 </r>
       <r>    2.6521    1.0000 </r>
       <r>    2.6558    1.0000 </r>
       <r>    2.6869    1.0000 </r>
       <r>    2.7056    1.0000 </r>
       <r>    2.7102    1.0000 </r>
       <r>    2.7136    1.0000 </r>
       <r>    2.7265    1.0000 </r>
       <r>    2.7663    1.0000 </r>
       <r>    2.7819    1.0000 </r>
       <r>    2.8009    1.0000 </r>
       <r>    2.8139    1.0000 </r>
       <r>    2.8182    1.0000 </r>
       <r>    2.8418    1.0000 </r>
       <r>    2.8576    1.0000 </r>
       <r>    2.8649    1.0000 </r>
       <r>    2.9101    1.0000 </r>
       <r>    2.9193    1.0000 </r>
       <r>    2.9326    1.0000 </r>
       <r>    2.9352    1.0000 </r>
       <r>    3.0068    1.0000 </r>
       <r>    3.0125    1.0000 </r>
       <r>    3.0183    1.0000 </r>
       <r>    3.0305    1.0000 </r>
       <r>    3.0386    1.0000 </r>
       <r>    3.0487    1.0000 </r>
       <r>    3.0512    1.0000 </r>
       <r>    3.1144    1.0000 </r>
       <r>    3.1400    1.0000 </r>
       <r>    3.1507    1.0000 </r>
       <r>    3.1735    1.0000 </r>
       <r>    3.1775    1.0000 </r>
       <r>    3.2250    1.0000 </r>
       <r>    3.2373    1.0000 </r>
       <r>    3.2427    1.0000 </r>
       <r>    3.2595    1.0000 </r>
       <r>    3.2620    1.0000 </r>
       <r>    3.2894    1.0000 </r>
       <r>    3.3056    1.0000 </r>
       <r>    3.3092    1.0000 </r>
       <r>    3.3506    1.0000 </r>
       <r>    3.3911    1.0000 </r>
       <r>    3.3990    1.0000 </r>
       <r>    3.4132    1.0000 </r>
       <r>    3.5817    1.0000 </r>
       <r>    3.5946    1.0000 </r>
       <r>    3.6022    1.0000 </r>
       <r>    3.6068    1.0000 </r>
       <r>    3.6235    1.0000 </r>
       <r>    3.6428    1.0000 </r>
       <r>    3.6538    1.0000 </r>
       <r>    3.7789    1.0000 </r>
       <r>    4.9833    1.0000 </r>
       <r>    5.2901    0.9981 </r>
       <r>    5.4651    0.0198 </r>
       <r>    6.7601    0.0000 </r>
       <r>    7.2731    0.0000 </r>
       <r>    8.1258    0.0000 </r>
       <r>    8.1277    0.0000 </r>
       <r>    8.1439    0.0000 </r>
       <r>    8.2041    0.0000 </r>
       <r>    8.4648    0.0000 </r>
       <r>    8.4941    0.0000 </r>
       <r>    8.5001    0.0000 </r>
       <r>    8.5959    0.0000 </r>
       <r>    9.6799    0.0000 </r>
       <r>    9.6871    0.0000 </r>
       <r>    9.7114    0.0000 </r>
       <r>    9.7304    0.0000 </r>
       <r>    9.7601    0.0000 </r>
       <r>    9.7666    0.0000 </r>
       <r>    9.7862    0.0000 </r>
       <r>    9.8430    0.0000 </r>
       <r>    9.8534    0.0000 </r>
       <r>    9.8692    0.0000 </r>
       <r>    9.8839    0.0000 </r>
       <r>   10.0545    0.0000 </r>
       <r>   10.0773    0.0000 </r>
       <r>   10.0841    0.0000 </r>
       <r>   10.1061    0.0000 </r>
       <r>   10.3063    0.0000 </r>
       <r>   10.6123    0.0000 </r>
       <r>   10.6221    0.0000 </r>
       <r>   10.6282    0.0000 </r>
       <r>   10.7243    0.0000 </r>
       <r>   10.7481    0.0000 </r>
       <r>   10.7701    0.0000 </r>
       <r>   10.7988    0.0000 </r>
       <r>   10.8518    0.0000 </r>
       <r>   10.9674    0.0000 </r>
       <r>   10.9925    0.0000 </r>
       <r>   11.0082    0.0000 </r>
       <r>   11.0356    0.0000 </r>
       <r>   11.1102    0.0000 </r>
       <r>   11.1203    0.0000 </r>
       <r>   11.1216    0.0000 </r>
       <r>   11.1345    0.0000 </r>
       <r>   11.1452    0.0000 </r>
       <r>   11.1616    0.0000 </r>
       <r>   11.1952    0.0000 </r>
       <r>   11.2253    0.0000 </r>
       <r>   11.2329    0.0000 </r>
       <r>   11.2803    0.0000 </r>
       <r>   11.3259    0.0000 </r>
       <r>   11.5988    0.0000 </r>
       <r>   11.6072    0.0000 </r>
       <r>   11.6157    0.0000 </r>
       <r>   11.6265    0.0000 </r>
       <r>   11.6462    0.0000 </r>
       <r>   11.6530    0.0000 </r>
       <r>   11.6670    0.0000 </r>
       <r>   11.8071    0.0000 </r>
       <r>   12.1233    0.0000 </r>
       <r>   12.2598    0.0000 </r>
       <r>   12.3302    0.0000 </r>
       <r>   12.3343    0.0000 </r>
       <r>   12.3371    0.0000 </r>
       <r>   12.3611    0.0000 </r>
       <r>   12.3709    0.0000 </r>
       <r>   12.3977    0.0000 </r>
       <r>   12.4209    0.0000 </r>
       <r>   12.4370    0.0000 </r>
       <r>   12.4927    0.0000 </r>
       <r>   12.5129    0.0000 </r>
       <r>   12.7353    0.0000 </r>
       <r>   12.7496    0.0000 </r>
       <r>   12.8217    0.0000 </r>
       <r>   12.8258    0.0000 </r>
       <r>   13.0058    0.0000 </r>
       <r>   13.0427    0.0000 </r>
       <r>   13.0811    0.0000 </r>
       <r>   13.1299    0.0000 </r>
       <r>   13.1935    0.0000 </r>
       <r>   13.2748    0.0000 </r>
       <r>   13.2763    0.0000 </r>
       <r>   13.3109    0.0000 </r>
       <r>   13.4174    0.0000 </r>
       <r>   13.4234    0.0000 </r>
       <r>   13.4405    0.0000 </r>
       <r>   13.4534    0.0000 </r>
       <r>   13.6177    0.0000 </r>
       <r>   13.6358    0.0000 </r>
       <r>   13.6402    0.0000 </r>
       <r>   13.7098    0.0000 </r>
       <r>   13.9538    0.0000 </r>
       <r>   13.9986    0.0000 </r>
       <r>   14.0072    0.0000 </r>
       <r>   14.1963    0.0000 </r>
       <r>   14.1982    0.0000 </r>
       <r>   14.2346    0.0000 </r>
       <r>   14.2615    0.0000 </r>
       <r>   14.3298    0.0000 </r>
       <r>   14.4466    0.0000 </r>
       <r>   14.4874    0.0000 </r>
       <r>   14.4950    0.0000 </r>
       <r>   14.5310    0.0000 </r>
       <r>   14.5765    0.0000 </r>
       <r>   14.5793    0.0000 </r>
       <r>   14.6196    0.0000 </r>
      </set>
     </set>
    </set>
   </array>
  </eigenvalues>
  <separator name="orbital magnetization" >
   <v name="MAGDIPOLOUT">      0.00000000      0.00000000      0.00000000</v>
  </separator>
  <dos>
   <i name="efermi">      5.39238119 </i>
   <total>
    <array>
     <dimension dim="1">gridpoints</dimension>
     <dimension dim="2">spin</dimension>
     <field>energy</field>
     <field>total</field>
     <field>integrated</field>
     <set>
      <set comment="spin 1">
       <r>   -16.5716     0.0000     0.0000 </r>
       <r>   -16.4623     0.0000     0.0000 </r>
       <r>   -16.3530     0.0000     0.0000 </r>
       <r>   -16.2437     0.0000     0.0000 </r>
       <r>   -16.1344     0.0000     0.0000 </r>
       <r>   -16.0251     0.0000     0.0000 </r>
       <r>   -15.9158     0.0000     0.0000 </r>
       <r>   -15.8064     0.0000     0.0000 </r>
       <r>   -15.6971     0.0000     0.0000 </r>
       <r>   -15.5878     0.0000     0.0000 </r>
       <r>   -15.4785     0.0000     0.0000 </r>
       <r>   -15.3692     0.0000     0.0000 </r>
       <r>   -15.2599     0.0000     0.0000 </r>
       <r>   -15.1506     0.0562     0.0061 </r>
       <r>   -15.0412     2.2976     0.2573 </r>
       <r>   -14.9319    10.5420     1.4097 </r>
       <r>   -14.8226    14.7389     3.0209 </r>
       <r>   -14.7133    34.5959     6.8027 </r>
       <r>   -14.6040    23.0113     9.3181 </r>
       <r>   -14.4947    24.1930    11.9628 </r>
       <r>   -14.3854    16.2070    13.7344 </r>
       <r>   -14.2761    43.7580    18.5178 </r>
       <r>   -14.1667    55.6768    24.6040 </r>
       <r>   -14.0574    56.4858    30.7787 </r>
       <r>   -13.9481    82.4718    39.7941 </r>
       <r>   -13.8388   114.8119    52.3446 </r>
       <r>   -13.7295   121.2536    65.5993 </r>
       <r>   -13.6202   128.1693    79.6100 </r>
       <r>   -13.5109   138.4627    94.7459 </r>
       <r>   -13.4015   113.9709   107.2045 </r>
       <r>   -13.2922   197.7360   128.8199 </r>
       <r>   -13.1829   101.6779   139.9347 </r>
       <r>   -13.0736    18.8545   141.9957 </r>
       <r>   -12.9643     0.0389   142.0000 </r>
       <r>   -12.8550     0.0000   142.0000 </r>
       <r>   -12.7457     0.0000   142.0000 </r>
       <r>   -12.6363     0.0000   142.0000 </r>
       <r>   -12.5270     0.0000   142.0000 </r>
       <r>   -12.4177     0.0000   142.0000 </r>
       <r>   -12.3084     0.0000   142.0000 </r>
       <r>   -12.1991     0.0000   142.0000 </r>
       <r>   -12.0898     0.0000   142.0000 </r>
       <r>   -11.9805     0.0000   142.0000 </r>
       <r>   -11.8711     0.0000   142.0000 </r>
       <r>   -11.7618     0.0000   142.0000 </r>
       <r>   -11.6525     0.0000   142.0000 </r>
       <r>   -11.5432     0.0000   142.0000 </r>
       <r>   -11.4339     0.0000   142.0000 </r>
       <r>   -11.3246     0.0000   142.0000 </r>
       <r>   -11.2153     0.0000   142.0000 </r>
       <r>   -11.1059     0.0000   142.0000 </r>
       <r>   -10.9966     0.0000   142.0000 </r>
       <r>   -10.8873     0.0000   142.0000 </r>
       <r>   -10.7780     0.0000   142.0000 </r>
       <r>   -10.6687     0.0000   142.0000 </r>
       <r>   -10.5594     0.0000   142.0000 </r>
       <r>   -10.4501     0.0051   142.0006 </r>
       <r>   -10.3407     6.5584   142.7175 </r>
       <r>   -10.2314    11.6745   143.9937 </r>
       <r>   -10.1221     0.0579   144.0000 </r>
       <r>   -10.0128     0.0000   144.0000 </r>
       <r>    -9.9035     0.0000   144.0000 </r>
       <r>    -9.7942     0.0000   144.0000 </r>
       <r>    -9.6849     0.0000   144.0000 </r>
       <r>    -9.5755     0.0000   144.0000 </r>
       <r>    -9.4662     0.0000   144.0000 </r>
       <r>    -9.3569     0.0000   144.0000 </r>
       <r>    -9.2476     0.0348   144.0038 </r>
       <r>    -9.1383    40.5579   148.4373 </r>
       <r>    -9.0290   329.9543   184.5060 </r>
       <r>    -8.9197   703.7588   261.4367 </r>
       <r>    -8.8104   821.0581   351.1898 </r>
       <r>    -8.7010   617.4378   418.6844 </r>
       <r>    -8.5917   743.1103   499.9168 </r>
       <r>    -8.4824   311.7845   533.9992 </r>
       <r>    -8.3731   138.4752   549.1365 </r>
       <r>    -8.2638   132.6807   563.6403 </r>
       <r>    -8.1545    93.9743   573.9131 </r>
       <r>    -8.0452   112.9133   586.2561 </r>
       <r>    -7.9358   130.5230   600.5241 </r>
       <r>    -7.8265    88.3115   610.1777 </r>
       <r>    -7.7172    24.2161   612.8249 </r>
       <r>    -7.6079    10.6863   613.9931 </r>
       <r>    -7.4986     0.0634   614.0000 </r>
       <r>    -7.3893     0.0000   614.0000 </r>
       <r>    -7.2800     0.0000   614.0000 </r>
       <r>    -7.1706     0.0000   614.0000 </r>
       <r>    -7.0613     0.0000   614.0000 </r>
       <r>    -6.9520     0.0000   614.0000 </r>
       <r>    -6.8427     0.0000   614.0000 </r>
       <r>    -6.7334     0.0000   614.0000 </r>
       <r>    -6.6241     0.0000   614.0000 </r>
       <r>    -6.5148     0.0000   614.0000 </r>
       <r>    -6.4054     0.0000   614.0000 </r>
       <r>    -6.2961     0.0000   614.0000 </r>
       <r>    -6.1868     0.0000   614.0000 </r>
       <r>    -6.0775     0.0000   614.0000 </r>
       <r>    -5.9682     0.0000   614.0000 </r>
       <r>    -5.8589     0.0000   614.0000 </r>
       <r>    -5.7496     0.0000   614.0000 </r>
       <r>    -5.6402     0.0000   614.0000 </r>
       <r>    -5.5309     0.0000   614.0000 </r>
       <r>    -5.4216     0.0000   614.0000 </r>
       <r>    -5.3123     0.0000   614.0000 </r>
       <r>    -5.2030     0.0000   614.0000 </r>
       <r>    -5.0937     0.0000   614.0000 </r>
       <r>    -4.9844     0.0000   614.0000 </r>
       <r>    -4.8750     0.0000   614.0000 </r>
       <r>    -4.7657     0.0000   614.0000 </r>
       <r>    -4.6564     0.0000   614.0000 </r>
       <r>    -4.5471     0.0000   614.0000 </r>
       <r>    -4.4378     0.0000   614.0000 </r>
       <r>    -4.3285     0.0000   614.0000 </r>
       <r>    -4.2192     0.0000   614.0000 </r>
       <r>    -4.1098     0.0000   614.0000 </r>
       <r>    -4.0005     0.0000   614.0000 </r>
       <r>    -3.8912     0.0000   614.0000 </r>
       <r>    -3.7819     0.0000   614.0000 </r>
       <r>    -3.6726     0.0000   614.0000 </r>
       <r>    -3.5633     0.0000   614.0000 </r>
       <r>    -3.4540     0.0000   614.0000 </r>
       <r>    -3.3447     0.0004   614.0000 </r>
       <r>    -3.2353     1.5672   614.1714 </r>
       <r>    -3.1260     8.0256   615.0487 </r>
       <r>    -3.0167    18.8643   617.1108 </r>
       <r>    -2.9074    19.3677   619.2280 </r>
       <r>    -2.7981    36.6016   623.2290 </r>
       <r>    -2.6888    31.7261   626.6971 </r>
       <r>    -2.5795    39.9666   631.0660 </r>
       <r>    -2.4701    45.9562   636.0897 </r>
       <r>    -2.3608    42.9438   640.7841 </r>
       <r>    -2.2515    67.9804   648.2153 </r>
       <r>    -2.1422    58.1486   654.5717 </r>
       <r>    -2.0329    41.9049   659.1525 </r>
       <r>    -1.9236    44.1425   663.9779 </r>
       <r>    -1.8143    67.5642   671.3636 </r>
       <r>    -1.7049    32.1789   674.8812 </r>
       <r>    -1.5956    27.5538   677.8932 </r>
       <r>    -1.4863    28.3523   680.9925 </r>
       <r>    -1.3770    28.6224   684.1214 </r>
       <r>    -1.2677    33.4818   687.7814 </r>
       <r>    -1.1584    35.3797   691.6489 </r>
       <r>    -1.0491    40.4987   696.0760 </r>
       <r>    -0.9397    39.8485   700.4320 </r>
       <r>    -0.8304    37.5082   704.5321 </r>
       <r>    -0.7211    34.4636   708.2995 </r>
       <r>    -0.6118    39.3067   712.5963 </r>
       <r>    -0.5025    35.4536   716.4718 </r>
       <r>    -0.3932    53.5849   722.3294 </r>
       <r>    -0.2839    47.4871   727.5204 </r>
       <r>    -0.1745    34.0209   731.2394 </r>
       <r>    -0.0652    53.5591   737.0941 </r>
       <r>     0.0441    67.7422   744.4993 </r>
       <r>     0.1534    81.3919   753.3966 </r>
       <r>     0.2627    64.9980   760.5018 </r>
       <r>     0.3720    68.3160   767.9697 </r>
       <r>     0.4813    70.3276   775.6575 </r>
       <r>     0.5907    58.4055   782.0420 </r>
       <r>     0.7000    61.4948   788.7642 </r>
       <r>     0.8093    59.4921   795.2675 </r>
       <r>     0.9186    81.4064   804.1664 </r>
       <r>     1.0279    80.0178   812.9135 </r>
       <r>     1.1372    85.9644   822.3106 </r>
       <r>     1.2465    81.2916   831.1969 </r>
       <r>     1.3559    65.3552   838.3411 </r>
       <r>     1.4652    73.1307   846.3354 </r>
       <r>     1.5745    76.0898   854.6530 </r>
       <r>     1.6838    71.2146   862.4378 </r>
       <r>     1.7931    99.7933   873.3466 </r>
       <r>     1.9024    80.6802   882.1661 </r>
       <r>     2.0117    68.3118   889.6335 </r>
       <r>     2.1210    54.1263   895.5503 </r>
       <r>     2.2304    61.3724   902.2591 </r>
       <r>     2.3397   105.5914   913.8018 </r>
       <r>     2.4490    93.4032   924.0120 </r>
       <r>     2.5583    94.1828   934.3075 </r>
       <r>     2.6676   100.7348   945.3193 </r>
       <r>     2.7769   100.6123   956.3176 </r>
       <r>     2.8862   114.6121   968.8463 </r>
       <r>     2.9956   107.3354   980.5796 </r>
       <r>     3.1049   142.5806   996.1656 </r>
       <r>     3.2142   117.0161  1008.9571 </r>
       <r>     3.3235    97.7955  1019.6475 </r>
       <r>     3.4328    68.5683  1027.1430 </r>
       <r>     3.5421    49.7507  1032.5815 </r>
       <r>     3.6514    50.9180  1038.1475 </r>
       <r>     3.7608    56.0815  1044.2780 </r>
       <r>     3.8701    15.2620  1045.9464 </r>
       <r>     3.9794     0.4908  1046.0000 </r>
       <r>     4.0887     0.0000  1046.0000 </r>
       <r>     4.1980     0.0000  1046.0000 </r>
       <r>     4.3073     0.0000  1046.0000 </r>
       <r>     4.4166     0.0000  1046.0000 </r>
       <r>     4.5260     0.0000  1046.0000 </r>
       <r>     4.6353     0.0000  1046.0000 </r>
       <r>     4.7446     0.0000  1046.0000 </r>
       <r>     4.8539     0.0248  1046.0027 </r>
       <r>     4.9632     8.5482  1046.9372 </r>
       <r>     5.0725     9.6806  1047.9954 </r>
       <r>     5.1818     0.0563  1048.0015 </r>
       <r>     5.2912     6.0364  1048.6614 </r>
       <r>     5.4005    12.7084  1050.0506 </r>
       <r>     5.5098    15.6544  1051.7619 </r>
       <r>     5.6191     2.1783  1052.0000 </r>
       <r>     5.7284     0.0003  1052.0000 </r>
       <r>     5.8377     0.0000  1052.0000 </r>
       <r>     5.9470     0.0001  1052.0000 </r>
       <r>     6.0564     0.4479  1052.0490 </r>
       <r>     6.1657     1.8100  1052.2468 </r>
       <r>     6.2750     0.0290  1052.2500 </r>
       <r>     6.3843     0.0000  1052.2500 </r>
       <r>     6.4936     0.0000  1052.2500 </r>
       <r>     6.6029     0.0000  1052.2500 </r>
       <r>     6.7122     0.4752  1052.3019 </r>
       <r>     6.8216     8.8166  1053.2657 </r>
       <r>     6.9309    11.5328  1054.5264 </r>
       <r>     7.0402     4.6964  1055.0398 </r>
       <r>     7.1495     3.0651  1055.3749 </r>
       <r>     7.2588    10.4051  1056.5123 </r>
       <r>     7.3681    12.6131  1057.8911 </r>
       <r>     7.4774     3.2636  1058.2478 </r>
       <r>     7.5868     0.0199  1058.2500 </r>
       <r>     7.6961     0.4340  1058.2974 </r>
       <r>     7.8054     7.1632  1059.0805 </r>
       <r>     7.9147     7.2957  1059.8780 </r>
       <r>     8.0240     5.5895  1060.4890 </r>
       <r>     8.1333     5.7750  1061.1203 </r>
       <r>     8.2426     6.8778  1061.8721 </r>
       <r>     8.3519     2.5275  1062.1484 </r>
       <r>     8.4613     7.6329  1062.9828 </r>
       <r>     8.5706    12.5863  1064.3587 </r>
       <r>     8.6799     6.2653  1065.0436 </r>
       <r>     8.7892     2.3173  1065.2969 </r>
       <r>     8.8985     9.1948  1066.3020 </r>
       <r>     9.0078    17.3284  1068.1962 </r>
       <r>     9.1171    13.0677  1069.6247 </r>
       <r>     9.2265     9.1448  1070.6244 </r>
       <r>     9.3358     9.8817  1071.7046 </r>
       <r>     9.4451    25.6733  1074.5110 </r>
       <r>     9.5544    32.4172  1078.0547 </r>
       <r>     9.6637    25.0918  1080.7976 </r>
       <r>     9.7730    51.8515  1086.4656 </r>
       <r>     9.8823    48.9820  1091.8201 </r>
       <r>     9.9917    42.3541  1096.4500 </r>
       <r>    10.1010    27.4287  1099.4483 </r>
       <r>    10.2103    35.0944  1103.2846 </r>
       <r>    10.3196    31.4476  1106.7223 </r>
       <r>    10.4289    24.7653  1109.4295 </r>
       <r>    10.5382    40.2987  1113.8347 </r>
       <r>    10.6475    46.8310  1118.9540 </r>
       <r>    10.7569    28.0861  1122.0242 </r>
       <r>    10.8662    39.1680  1126.3058 </r>
       <r>    10.9755    33.8945  1130.0109 </r>
       <r>    11.0848    28.7551  1133.1543 </r>
       <r>    11.1941    41.0999  1137.6471 </r>
       <r>    11.3034    35.8670  1141.5678 </r>
       <r>    11.4127    39.7277  1145.9106 </r>
       <r>    11.5221    33.9199  1149.6185 </r>
       <r>    11.6314    48.4862  1154.9188 </r>
       <r>    11.7407    38.1952  1159.0940 </r>
       <r>    11.8500    10.4906  1160.2408 </r>
       <r>    11.9593     6.3042  1160.9299 </r>
       <r>    12.0686    20.0662  1163.1234 </r>
       <r>    12.1779    37.8535  1167.2614 </r>
       <r>    12.2873    31.6810  1170.7245 </r>
       <r>    12.3966    34.4648  1174.4920 </r>
       <r>    12.5059    48.7490  1179.8210 </r>
       <r>    12.6152    48.2561  1185.0960 </r>
       <r>    12.7245    35.5735  1188.9847 </r>
       <r>    12.8338    38.2131  1193.1619 </r>
       <r>    12.9431    37.6044  1197.2726 </r>
       <r>    13.0525    33.9560  1200.9845 </r>
       <r>    13.1618    41.3947  1205.5095 </r>
       <r>    13.2711    34.8088  1209.3146 </r>
       <r>    13.3804    48.5517  1214.6220 </r>
       <r>    13.4897    44.2713  1219.4615 </r>
       <r>    13.5990    42.4384  1224.1006 </r>
       <r>    13.7083    37.7292  1228.2249 </r>
       <r>    13.8176    36.8835  1232.2568 </r>
       <r>    13.9270    31.9689  1235.7514 </r>
       <r>    14.0363    33.1900  1239.3796 </r>
       <r>    14.1456    27.9259  1242.4323 </r>
       <r>    14.2549    30.4201  1245.7576 </r>
       <r>    14.3642    16.4669  1247.5577 </r>
       <r>    14.4735    37.1212  1251.6155 </r>
       <r>    14.5828    38.0814  1255.7784 </r>
       <r>    14.6922    31.0254  1259.1699 </r>
       <r>    14.8015     7.5040  1259.9902 </r>
       <r>    14.9108     0.0900  1260.0000 </r>
       <r>    15.0201     0.0000  1260.0000 </r>
       <r>    15.1294     0.0000  1260.0000 </r>
       <r>    15.2387     0.0000  1260.0000 </r>
       <r>    15.3480     0.0000  1260.0000 </r>
       <r>    15.4574     0.0000  1260.0000 </r>
       <r>    15.5667     0.0000  1260.0000 </r>
       <r>    15.6760     0.0000  1260.0000 </r>
       <r>    15.7853     0.0000  1260.0000 </r>
       <r>    15.8946     0.0000  1260.0000 </r>
       <r>    16.0039     0.0000  1260.0000 </r>
       <r>    16.1132     0.0000  1260.0000 </r>
       <r>    16.2226     0.0000  1260.0000 </r>
      </set>
     </set>
    </array>
   </total>
  </dos>
 </calculation>
 <structure name="finalpos" >
  <crystal>
   <varray name="basis" >
    <v>       0.00000000      12.28047371       0.00000000 </v>
    <v>       9.14270115       0.00000000       0.00000000 </v>
    <v>       0.00000000      -2.76826164     -11.30069748 </v>
   </varray>
   <i name="volume">   1268.80503319 </i>
   <varray name="rec_basis" >
    <v>       0.00000000       0.08143008      -0.01994742 </v>
    <v>       0.10937687      -0.00000000       0.00000000 </v>
    <v>       0.00000000       0.00000000      -0.08849011 </v>
   </varray>
  </crystal>
  <varray name="positions" >
   <v>       0.65884056       0.00045939       0.15778758 </v>
   <v>       0.65841659       0.99989843       0.65614716 </v>
   <v>       0.65996967       0.33335903       0.15774459 </v>
   <v>       0.65961803       0.33313048       0.65517782 </v>
   <v>       0.65934327       0.66655722       0.15699559 </v>
   <v>       0.65814578       0.66553448       0.65508053 </v>
   <v>       0.84125123       0.16694992       0.34443316 </v>
   <v>       0.84095737       0.16650380       0.84304477 </v>
   <v>       0.84168057       0.49986240       0.34421202 </v>
   <v>       0.84098735       0.49997605       0.84282493 </v>
   <v>       0.84149428       0.83340375       0.34352546 </v>
   <v>       0.84078747       0.83314547       0.84286472 </v>
   <v>       0.58588069       0.16653599       0.39675053 </v>
   <v>       0.59170442       0.16651394       0.89765690 </v>
   <v>       0.58585513       0.49989885       0.39394754 </v>
   <v>       0.59163131       0.50002861       0.89714169 </v>
   <v>       0.59145536       0.83324482       0.39780013 </v>
   <v>       0.59178938       0.83333935       0.89792291 </v>
   <v>       0.90855131       0.00029434       0.10230992 </v>
   <v>       0.90974396       0.99973764       0.60296034 </v>
   <v>       0.90844308       0.33348268       0.10218006 </v>
   <v>       0.91024691       0.33322973       0.60258627 </v>
   <v>       0.90892326       0.66659842       0.10212128 </v>
   <v>       0.90979382       0.66667569       0.60279410 </v>
   <v>       0.15880331       0.16779622       0.15804215 </v>
   <v>       0.15980623       0.16665457       0.65729217 </v>
   <v>       0.15914437       0.49911039       0.15809000 </v>
   <v>       0.15978289       0.49984639       0.65727867 </v>
   <v>       0.15864219       0.83355769       0.15663436 </v>
   <v>       0.16007373       0.83327655       0.65712497 </v>
   <v>       0.33988386       0.00086929       0.34372506 </v>
   <v>       0.34196341       0.00007753       0.84389806 </v>
   <v>       0.34179269       0.33327163       0.84322077 </v>
   <v>       0.33983430       0.66690934       0.34309871 </v>
   <v>       0.34198999       0.66661023       0.84374161 </v>
   <v>       0.09088369       0.00039195       0.39804970 </v>
   <v>       0.09151473       0.00014472       0.89820984 </v>
   <v>       0.09444286       0.33325218       0.39755740 </v>
   <v>       0.09132462       0.33329215       0.89809662 </v>
   <v>       0.09103507       0.66638484       0.39797980 </v>
   <v>       0.09164385       0.66637827       0.89822604 </v>
   <v>       0.40846097       0.16713917       0.10395404 </v>
   <v>       0.40769351       0.16763468       0.59970420 </v>
   <v>       0.40897733       0.50003262       0.10369784 </v>
   <v>       0.40716608       0.49834570       0.59923729 </v>
   <v>       0.40884988       0.83346233       0.10309768 </v>
   <v>       0.40857409       0.83308495       0.60201789 </v>
   <v>       0.99603947       0.16703259       0.12691701 </v>
   <v>       0.99726173       0.16631551       0.62811785 </v>
   <v>       0.99619863       0.49977121       0.12686406 </v>
   <v>       0.99731292       0.50010550       0.62808044 </v>
   <v>       0.99603761       0.83356788       0.12667247 </v>
   <v>       0.99749535       0.83321465       0.62821250 </v>
   <v>       0.50207567       0.99704477       0.37279615 </v>
   <v>       0.50433518       0.99991256       0.87274989 </v>
   <v>       0.50435298       0.33324880       0.87300572 </v>
   <v>       0.50200291       0.66943962       0.37255411 </v>
   <v>       0.50434393       0.66672684       0.87243909 </v>
   <v>       0.67212141       0.16670121       0.28211554 </v>
   <v>       0.67249114       0.16666893       0.77979923 </v>
   <v>       0.67280891       0.50072907       0.28085191 </v>
   <v>       0.67239099       0.49969807       0.77921038 </v>
   <v>       0.67316665       0.83337754       0.28098087 </v>
   <v>       0.67210451       0.83298712       0.77973059 </v>
   <v>       0.82748456       0.00067859       0.21988498 </v>
   <v>       0.82741492       0.99986291       0.71936399 </v>
   <v>       0.82747613       0.33331962       0.21989015 </v>
   <v>       0.82755463       0.33322925       0.71885674 </v>
   <v>       0.82782470       0.66651450       0.21963343 </v>
   <v>       0.82714048       0.66611570       0.71890513 </v>
   <v>       0.83363627       0.99981133       0.44632276 </v>
   <v>       0.83167960       0.99990584       0.94555692 </v>
   <v>       0.83316237       0.33351336       0.44638933 </v>
   <v>       0.83159288       0.33335720       0.94536223 </v>
   <v>       0.83363592       0.66677407       0.44614284 </v>
   <v>       0.83168644       0.66654688       0.94543878 </v>
   <v>       0.66720015       0.16693332       0.05481976 </v>
   <v>       0.66691211       0.16603832       0.55286917 </v>
   <v>       0.66724792       0.49965576       0.05425968 </v>
   <v>       0.66573925       0.49920633       0.55115369 </v>
   <v>       0.66762919       0.83366276       0.05485445 </v>
   <v>       0.66809661       0.83306513       0.55432540 </v>
   <v>       0.49596439       0.00047683       0.12838712 </v>
   <v>       0.49527784       0.00052783       0.62591597 </v>
   <v>       0.49701599       0.33336725       0.13337044 </v>
   <v>       0.49656602       0.33326675       0.62456772 </v>
   <v>       0.49638171       0.66672060       0.12812642 </v>
   <v>       0.49492065       0.66531863       0.62526235 </v>
   <v>       0.00454997       0.16784307       0.37292214 </v>
   <v>       0.00367417       0.16664196       0.87284276 </v>
   <v>       0.00474576       0.49887756       0.37284279 </v>
   <v>       0.00371256       0.49997229       0.87277742 </v>
   <v>       0.00398343       0.83333894       0.37313652 </v>
   <v>       0.00400706       0.83320427       0.87324385 </v>
   <v>       0.17165303       0.00008136       0.28030352 </v>
   <v>       0.17350939       0.00028335       0.78127277 </v>
   <v>       0.17548293       0.33373657       0.28017340 </v>
   <v>       0.17342176       0.33326210       0.78134199 </v>
   <v>       0.17160181       0.66702809       0.28005524 </v>
   <v>       0.17354694       0.66625895       0.78123633 </v>
   <v>       0.32734489       0.16914058       0.22234088 </v>
   <v>       0.32839776       0.16681729       0.71937295 </v>
   <v>       0.32820517       0.49876232       0.22218268 </v>
   <v>       0.32831619       0.49958246       0.71922407 </v>
   <v>       0.32644846       0.83373358       0.21933852 </v>
   <v>       0.32809001       0.83326890       0.72009765 </v>
   <v>       0.33095024       0.17191022       0.44249982 </v>
   <v>       0.33396247       0.16714360       0.94661665 </v>
   <v>       0.32932301       0.49465949       0.44157009 </v>
   <v>       0.33408769       0.49960135       0.94651143 </v>
   <v>       0.32990846       0.83344023       0.44592222 </v>
   <v>       0.33294360       0.83330364       0.94618906 </v>
   <v>       0.16864609       0.00108841       0.05488710 </v>
   <v>       0.16887969       0.00025218       0.55452012 </v>
   <v>       0.16861562       0.33345032       0.05437404 </v>
   <v>       0.16853162       0.33323079       0.55507651 </v>
   <v>       0.16870160       0.66583947       0.05491216 </v>
   <v>       0.16892307       0.66629147       0.55449127 </v>
   <v>       0.49039321       0.33314739       0.36939851 </v>
   <v>       0.34586719       0.33451329       0.33958337 </v>
  </varray>
 </structure>
</modeling>
