Ga8 O12                                 
    1.000000000000000     
     0.0000000000000000   12.2804737091000007    0.0000000000000000
     9.1427011490000005    0.0000000000000000    0.0000000000000000
     0.0000000000000000   -2.7682616411000001  -11.3006974810000003
   Ga   O    Cu
    47    72     1
Direct
  0.6596217712451704  0.0001376154905586  0.1568131185511277
  0.6591037847524390  0.0000448570257845  0.6567340560497215
  0.6587026258185915  0.3333358044229513  0.1572497362618748
  0.6581951106243622  0.3333267820526089  0.6558591816918735
  0.6596418304947775  0.6665435213024509  0.1568087296459453
  0.6590837384854495  0.6666062014055072  0.6567353441356261
  0.8417524884746186  0.1669009801047920  0.3433717355787351
  0.8408786197387528  0.1670562165688878  0.8433894113009117
  0.8417459320541951  0.4997648979389382  0.3433709866915180
  0.8408765139377579  0.4996104121928298  0.8433867367564361
  0.8416171501877088  0.8333381323152267  0.3434929741800801
  0.8408763109117601  0.8333360609573717  0.8434473737523263
  0.5913587792128325  0.1678708091432668  0.3979077361609100
  0.5911534322006418  0.1667054247699014  0.8977807435246987
  0.5913593474068009  0.4987906326696177  0.3979022834607235
  0.5911524657934706  0.4999608601642080  0.8977753926713490
  0.5915558924902129  0.8333318942596648  0.3978649250903459
  0.5914876868692360  0.8333366806432423  0.8980129747884433
  0.9092625690491829  0.0002981116844438  0.1022069457745616
  0.9087153766960654  0.0002392405286287  0.6023812116592069
  0.9100088379030922  0.3333390278979849  0.1028484018483127
  0.9089016344318139  0.3333327512595901  0.6024303268339395
  0.9092794796735504  0.6663749347162948  0.1022062166148743
  0.9086989685976619  0.6664198225552340  0.6023766296753834
  0.1607783462849994  0.1673778821492817  0.1578392659599217
  0.1593443171346749  0.1666791241879864  0.6563139585047182
  0.1607957692144311  0.4993398776674098  0.1577946495863287
  0.1593404395325351  0.4999775741504635  0.6563057750330401
  0.1588607210090274  0.8333572961617577  0.1571932300845802
  0.1584748583090345  0.8333199160034894  0.6574678866129986
  0.3411176491403154  0.0017182395889961  0.3432202792530248
  0.3412040575265536  0.0001197329662119  0.8432842878666520
  0.3412287816623660  0.3333180980467958  0.8431425055647139
  0.3411280498831104  0.6648695906938897  0.3431298167046890
  0.3412081038766104  0.6665584653439467  0.8432338618169126
  0.0917807383669427  0.0001808385317901  0.3976822611135873
  0.0904775211420699  0.0000114053736411  0.8975872180175131
  0.0934786244118797  0.3333475022038002  0.3965014601679258
  0.0913403176074254  0.3333392899912013  0.8977130020477659
  0.0917633742796156  0.6665082099405382  0.3976706964291949
  0.0904349877750121  0.6667046622640243  0.8975389669970255
  0.4086465593554180  0.1659609132550628  0.1032660623436570
  0.4079647724673592  0.1658764801760384  0.6000489902721498
  0.4086637023755699  0.5007712536281304  0.1031972403141737
  0.4079421611661473  0.5006895406978842  0.5999807625176246
  0.4091464708766850  0.8333503562065658  0.1032188609884201
  0.4091449433837653  0.8333067034760901  0.6014324649434073
  0.9964375187093779  0.1664163490989807  0.1259060554013161
  0.9962211186396175  0.1667307860172187  0.6277860117567187
  0.9964430365676336  0.5002529873771451  0.1259061198042275
  0.9962199693984530  0.4999380727856106  0.6277811202831387
  0.9954264515770461  0.8333466441170145  0.1263942136884779
  0.9955313616329278  0.8333222831919684  0.6280291652583969
  0.5050459036418289  0.0001444290552115  0.3734333902835871
  0.5041103510546066  0.9998556148549014  0.8731632918952812
  0.5066959839703600  0.3333322869973472  0.3748147685918966
  0.5039641700130133  0.3333317100543454  0.8729078387129263
  0.5050558185832017  0.6665217144443005  0.3734085010807888
  0.5041145788248897  0.6668155032531047  0.8731478534123553
  0.6734913959171394  0.1661965980932010  0.2802034832321283
  0.6727265765842176  0.1670768301985390  0.7808404136228049
  0.6734976220299629  0.5004740136668815  0.2802001232480222
  0.6727240569222772  0.4995856671813641  0.7808354215946309
  0.6733851308344825  0.8333397022349871  0.2805631440050504
  0.6730891941275985  0.8333213222669045  0.7809770992410989
  0.8281227642853111  0.0001306689806242  0.2196716208552374
  0.8275543719849097  0.0001506449911801  0.7198639263398405
  0.8280361480046992  0.3333329033412866  0.2196400256968047
  0.8273171207517578  0.3333322776391938  0.7196182078870663
  0.8281308845899318  0.6665451443325594  0.2196680058438218
  0.8275531486560368  0.6665136435291927  0.7198680020041195
  0.8321281036239867  0.0001294901273852  0.4458252769208144
  0.8319363305914607  0.0002085136300138  0.9456286565128593
  0.8319330675969780  0.3333315380074779  0.4459263417738626
  0.8324062136211410  0.3333349933618948  0.9461206496228769
  0.8321253864276699  0.6665409766513761  0.4458194546102519
  0.8319431889492961  0.6664622201088051  0.9456288532975989
  0.6684595719093025  0.1670382461434983  0.0542021993016206
  0.6693006970491098  0.1660211500094491  0.5550279319350793
  0.6684586149994871  0.4996322037640937  0.0541960665681174
  0.6693007252694017  0.5006364508925785  0.5550274037207217
  0.6694292968609474  0.8333467257187408  0.0542616316736400
  0.6689748519250429  0.8333220880146968  0.5546547652097829
  0.4975730545906174  0.9995635669339080  0.1260866777441763
  0.4973907929832109  0.9996797750464026  0.6291667181186398
  0.4959913151679345  0.3333539535890608  0.1267138170337958
  0.4956355259302896  0.3332961132708405  0.6272373004247100
  0.4975993416053939  0.6671595680297671  0.1260549352641576
  0.4973579833828339  0.6668967699175070  0.6291185689297905
  0.0040991068369678  0.1669556722235157  0.3739095939176877
  0.0033207043851320  0.1669988997599532  0.8718380367173637
  0.0040936811739911  0.4997259670697218  0.3739177820287125
  0.0033196543571918  0.4996783157110229  0.8718301468773788
  0.0036461513160191  0.8333438104706161  0.3737553270009357
  0.0029189717548306  0.8333645430651870  0.8714174348758945
  0.1705736978852244  0.9980629121785682  0.2794309136234503
  0.1724996596034103  0.9998911560133550  0.7809125530406220
  0.1674049505998312  0.3333577682514814  0.2754529330720672
  0.1725820554289825  0.3333325502068902  0.7803312277298886
  0.1705762969939144  0.6686176544883509  0.2794306559496036
  0.1724866774764706  0.6667703976702057  0.7808848872044862
  0.3259847323884486  0.1572017606720806  0.2165602529475663
  0.3277262336192308  0.1665857748110682  0.7197459296540458
  0.3259392223673174  0.5097621221081141  0.2163345824417178
  0.3277221818917226  0.5000706645689164  0.7196760391502863
  0.3276514218223170  0.8334225943462243  0.2195327659494239
  0.3275917210269554  0.8333392890210405  0.7193392924488933
  0.3255969624735329  0.1574901587325499  0.4482990356745304
  0.3332017434274022  0.1666320341607914  0.9455896078168138
  0.3257084054234340  0.5088337896745685  0.4481034238486856
  0.3331981748104909  0.5000545853757856  0.9455263018568161
  0.3329514974823553  0.8332373367483683  0.4452234984887227
  0.3328319360193177  0.8333226353124203  0.9458735608153148
  0.1657677557697497  0.9993404489432081  0.0535453407213637
  0.1655630959701853  0.9990208326540539  0.5551627402619062
  0.1689807177559430  0.3333369505367259  0.0530667873197928
  0.1666130420019982  0.3333321790622463  0.5544047602860687
  0.1656906843114854  0.6674121665258852  0.0535055213979945
  0.1656163523723038  0.6676067059978266  0.5551373955804024
  0.3400081576367384  0.3332515579437114  0.3438199430603675
 
  0.00000000E+00  0.00000000E+00  0.00000000E+00
  0.00000000E+00  0.00000000E+00  0.00000000E+00
  0.00000000E+00  0.00000000E+00  0.00000000E+00
  0.00000000E+00  0.00000000E+00  0.00000000E+00
  0.00000000E+00  0.00000000E+00  0.00000000E+00
  0.00000000E+00  0.00000000E+00  0.00000000E+00
  0.00000000E+00  0.00000000E+00  0.00000000E+00
  0.00000000E+00  0.00000000E+00  0.00000000E+00
  0.00000000E+00  0.00000000E+00  0.00000000E+00
  0.00000000E+00  0.00000000E+00  0.00000000E+00
  0.00000000E+00  0.00000000E+00  0.00000000E+00
  0.00000000E+00  0.00000000E+00  0.00000000E+00
  0.00000000E+00  0.00000000E+00  0.00000000E+00
  0.00000000E+00  0.00000000E+00  0.00000000E+00
  0.00000000E+00  0.00000000E+00  0.00000000E+00
  0.00000000E+00  0.00000000E+00  0.00000000E+00
  0.00000000E+00  0.00000000E+00  0.00000000E+00
  0.00000000E+00  0.00000000E+00  0.00000000E+00
  0.00000000E+00  0.00000000E+00  0.00000000E+00
  0.00000000E+00  0.00000000E+00  0.00000000E+00
  0.00000000E+00  0.00000000E+00  0.00000000E+00
  0.00000000E+00  0.00000000E+00  0.00000000E+00
  0.00000000E+00  0.00000000E+00  0.00000000E+00
  0.00000000E+00  0.00000000E+00  0.00000000E+00
  0.00000000E+00  0.00000000E+00  0.00000000E+00
  0.00000000E+00  0.00000000E+00  0.00000000E+00
  0.00000000E+00  0.00000000E+00  0.00000000E+00
  0.00000000E+00  0.00000000E+00  0.00000000E+00
  0.00000000E+00  0.00000000E+00  0.00000000E+00
  0.00000000E+00  0.00000000E+00  0.00000000E+00
  0.00000000E+00  0.00000000E+00  0.00000000E+00
  0.00000000E+00  0.00000000E+00  0.00000000E+00
  0.00000000E+00  0.00000000E+00  0.00000000E+00
  0.00000000E+00  0.00000000E+00  0.00000000E+00
  0.00000000E+00  0.00000000E+00  0.00000000E+00
  0.00000000E+00  0.00000000E+00  0.00000000E+00
  0.00000000E+00  0.00000000E+00  0.00000000E+00
  0.00000000E+00  0.00000000E+00  0.00000000E+00
  0.00000000E+00  0.00000000E+00  0.00000000E+00
  0.00000000E+00  0.00000000E+00  0.00000000E+00
  0.00000000E+00  0.00000000E+00  0.00000000E+00
  0.00000000E+00  0.00000000E+00  0.00000000E+00
  0.00000000E+00  0.00000000E+00  0.00000000E+00
  0.00000000E+00  0.00000000E+00  0.00000000E+00
  0.00000000E+00  0.00000000E+00  0.00000000E+00
  0.00000000E+00  0.00000000E+00  0.00000000E+00
  0.00000000E+00  0.00000000E+00  0.00000000E+00
  0.00000000E+00  0.00000000E+00  0.00000000E+00
  0.00000000E+00  0.00000000E+00  0.00000000E+00
  0.00000000E+00  0.00000000E+00  0.00000000E+00
  0.00000000E+00  0.00000000E+00  0.00000000E+00
  0.00000000E+00  0.00000000E+00  0.00000000E+00
  0.00000000E+00  0.00000000E+00  0.00000000E+00
  0.00000000E+00  0.00000000E+00  0.00000000E+00
  0.00000000E+00  0.00000000E+00  0.00000000E+00
  0.00000000E+00  0.00000000E+00  0.00000000E+00
  0.00000000E+00  0.00000000E+00  0.00000000E+00
  0.00000000E+00  0.00000000E+00  0.00000000E+00
  0.00000000E+00  0.00000000E+00  0.00000000E+00
  0.00000000E+00  0.00000000E+00  0.00000000E+00
  0.00000000E+00  0.00000000E+00  0.00000000E+00
  0.00000000E+00  0.00000000E+00  0.00000000E+00
  0.00000000E+00  0.00000000E+00  0.00000000E+00
  0.00000000E+00  0.00000000E+00  0.00000000E+00
  0.00000000E+00  0.00000000E+00  0.00000000E+00
  0.00000000E+00  0.00000000E+00  0.00000000E+00
  0.00000000E+00  0.00000000E+00  0.00000000E+00
  0.00000000E+00  0.00000000E+00  0.00000000E+00
  0.00000000E+00  0.00000000E+00  0.00000000E+00
  0.00000000E+00  0.00000000E+00  0.00000000E+00
  0.00000000E+00  0.00000000E+00  0.00000000E+00
  0.00000000E+00  0.00000000E+00  0.00000000E+00
  0.00000000E+00  0.00000000E+00  0.00000000E+00
  0.00000000E+00  0.00000000E+00  0.00000000E+00
  0.00000000E+00  0.00000000E+00  0.00000000E+00
  0.00000000E+00  0.00000000E+00  0.00000000E+00
  0.00000000E+00  0.00000000E+00  0.00000000E+00
  0.00000000E+00  0.00000000E+00  0.00000000E+00
  0.00000000E+00  0.00000000E+00  0.00000000E+00
  0.00000000E+00  0.00000000E+00  0.00000000E+00
  0.00000000E+00  0.00000000E+00  0.00000000E+00
  0.00000000E+00  0.00000000E+00  0.00000000E+00
  0.00000000E+00  0.00000000E+00  0.00000000E+00
  0.00000000E+00  0.00000000E+00  0.00000000E+00
  0.00000000E+00  0.00000000E+00  0.00000000E+00
  0.00000000E+00  0.00000000E+00  0.00000000E+00
  0.00000000E+00  0.00000000E+00  0.00000000E+00
  0.00000000E+00  0.00000000E+00  0.00000000E+00
  0.00000000E+00  0.00000000E+00  0.00000000E+00
  0.00000000E+00  0.00000000E+00  0.00000000E+00
  0.00000000E+00  0.00000000E+00  0.00000000E+00
  0.00000000E+00  0.00000000E+00  0.00000000E+00
  0.00000000E+00  0.00000000E+00  0.00000000E+00
  0.00000000E+00  0.00000000E+00  0.00000000E+00
  0.00000000E+00  0.00000000E+00  0.00000000E+00
  0.00000000E+00  0.00000000E+00  0.00000000E+00
  0.00000000E+00  0.00000000E+00  0.00000000E+00
  0.00000000E+00  0.00000000E+00  0.00000000E+00
  0.00000000E+00  0.00000000E+00  0.00000000E+00
  0.00000000E+00  0.00000000E+00  0.00000000E+00
  0.00000000E+00  0.00000000E+00  0.00000000E+00
  0.00000000E+00  0.00000000E+00  0.00000000E+00
  0.00000000E+00  0.00000000E+00  0.00000000E+00
  0.00000000E+00  0.00000000E+00  0.00000000E+00
  0.00000000E+00  0.00000000E+00  0.00000000E+00
  0.00000000E+00  0.00000000E+00  0.00000000E+00
  0.00000000E+00  0.00000000E+00  0.00000000E+00
  0.00000000E+00  0.00000000E+00  0.00000000E+00
  0.00000000E+00  0.00000000E+00  0.00000000E+00
  0.00000000E+00  0.00000000E+00  0.00000000E+00
  0.00000000E+00  0.00000000E+00  0.00000000E+00
  0.00000000E+00  0.00000000E+00  0.00000000E+00
  0.00000000E+00  0.00000000E+00  0.00000000E+00
  0.00000000E+00  0.00000000E+00  0.00000000E+00
  0.00000000E+00  0.00000000E+00  0.00000000E+00
  0.00000000E+00  0.00000000E+00  0.00000000E+00
  0.00000000E+00  0.00000000E+00  0.00000000E+00
  0.00000000E+00  0.00000000E+00  0.00000000E+00
  0.00000000E+00  0.00000000E+00  0.00000000E+00
  0.00000000E+00  0.00000000E+00  0.00000000E+00
