       N       E                     dE             d eps       ncg     rms          ort
SDA:   1    -0.943257218847E+03   -0.94326E+03    0.00000E+00  5056   0.308E+02 0.000E+00
CGA:   2    -0.948481562215E+03   -0.52243E+01   -0.53803E+01  5056   0.660E+01 0.256E+01
CGA:   3    -0.951269318150E+03   -0.27878E+01   -0.26978E+01  5056   0.458E+01 0.472E+00
CGA:   4    -0.951800396872E+03   -0.53108E+00   -0.54091E+00  5056   0.145E+01-0.267E-01
CGA:   5    -0.952192286523E+03   -0.39189E+00   -0.38854E+00  5056   0.718E+00 0.365E-01
CGA:   6    -0.952346050612E+03   -0.15376E+00   -0.15374E+00  5056   0.234E+00 0.490E-02
CGA:   7    -0.952396482904E+03   -0.50432E-01   -0.50421E-01  5056   0.124E+00 0.704E-03
CGA:   8    -0.952414276780E+03   -0.17794E-01   -0.17829E-01  5056   0.339E-01 0.181E-03
CGA:   9    -0.952420014223E+03   -0.57374E-02   -0.57411E-02  5056   0.116E-01 0.875E-04
CGA:  10    -0.952422553852E+03   -0.25396E-02   -0.25387E-02  5056   0.494E-02 0.532E-04
CGA:  11    -0.952423596950E+03   -0.10431E-02   -0.10426E-02  5056   0.233E-02 0.636E-04
CGA:  12    -0.952424086084E+03   -0.48913E-03   -0.48890E-03  5056   0.119E-02 0.519E-04
CGA:  13    -0.952424309993E+03   -0.22391E-03   -0.22448E-03  5056   0.517E-03 0.307E-04
CGA:  14    -0.952424414429E+03   -0.10444E-03   -0.10454E-03  5056   0.203E-03 0.194E-04
CGA:  15    -0.952424458351E+03   -0.43922E-04   -0.43856E-04  5056   0.934E-04 0.104E-04
CGA:  16    -0.952424481678E+03   -0.23327E-04   -0.23119E-04  5056   0.561E-04 0.629E-05
CGA:  17    -0.952424496912E+03   -0.15234E-04   -0.15068E-04  5056   0.421E-04 0.349E-05
CGA:  18    -0.952424508193E+03   -0.11280E-04   -0.11223E-04  5056   0.380E-04 0.129E-05
CGA:  19    -0.952424518943E+03   -0.10750E-04   -0.10741E-04  5056   0.360E-04 0.138E-06
CGA:  20    -0.952424528712E+03   -0.97696E-05   -0.98312E-05  5056   0.328E-04-0.102E-05
   1 F= -.95242453E+03 E0= -.95242453E+03  d E =-.573207E-12
