       N       E                     dE             d eps       ncg     rms          ort
SDA:   1    -0.949639114030E+03   -0.94964E+03    0.00000E+00  5048   0.267E+02 0.000E+00
CGA:   2    -0.954823374993E+03   -0.51843E+01   -0.51891E+01  5048   0.767E+01 0.446E+00
CGA:   3    -0.958058621636E+03   -0.32352E+01   -0.34840E+01  5048   0.413E+01-0.349E+00
CGA:   4    -0.958709502816E+03   -0.65088E+00   -0.65891E+00  5048   0.147E+01 0.496E-01
CGA:   5    -0.959133312188E+03   -0.42381E+00   -0.42114E+00  5048   0.602E+00 0.275E-01
CGA:   6    -0.959262762145E+03   -0.12945E+00   -0.12946E+00  5048   0.213E+00 0.135E-02
CGA:   7    -0.959309741838E+03   -0.46980E-01   -0.46968E-01  5048   0.627E-01 0.108E-02
CGA:   8    -0.959323965945E+03   -0.14224E-01   -0.14224E-01  5048   0.202E-01 0.245E-04
CGA:   9    -0.959328476421E+03   -0.45105E-02   -0.45099E-02  5048   0.987E-02 0.503E-04
CGA:  10    -0.959331102657E+03   -0.26262E-02   -0.26195E-02  5048   0.419E-02 0.129E-03
CGA:  11    -0.959332113581E+03   -0.10109E-02   -0.10098E-02  5048   0.208E-02 0.519E-04
CGA:  12    -0.959332698812E+03   -0.58523E-03   -0.58471E-03  5048   0.920E-03 0.815E-05
CGA:  13    -0.959332917877E+03   -0.21906E-03   -0.21890E-03  5048   0.463E-03 0.101E-04
CGA:  14    -0.959333020120E+03   -0.10224E-03   -0.10227E-03  5048   0.249E-03 0.850E-05
CGA:  15    -0.959333079503E+03   -0.59383E-04   -0.59408E-04  5048   0.140E-03-0.193E-05
CGA:  16    -0.959333115795E+03   -0.36292E-04   -0.36530E-04  5048   0.900E-04-0.578E-05
CGA:  17    -0.959333135780E+03   -0.19985E-04   -0.20006E-04  5048   0.498E-04-0.284E-05
CGA:  18    -0.959333147003E+03   -0.11223E-04   -0.11230E-04  5048   0.254E-04-0.828E-06
CGA:  19    -0.959333152809E+03   -0.58064E-05   -0.58181E-05  5048   0.147E-04-0.145E-05
   1 F= -.95933315E+03 E0= -.95933315E+03  d E =-.998565E-12
