<?xml version="1.0" encoding="ISO-8859-1"?>
<modeling>
 <generator>
  <i name="program" type="string">vasp </i>
  <i name="version" type="string">6.4.2  </i>
  <i name="subversion" type="string">20Jul23 (build Nov 12 2023 22:16:35) complex                          parallel </i>
  <i name="platform" type="string">LinuxNV </i>
  <i name="date" type="string">2025 05 13 </i>
  <i name="time" type="string">06:58:52 </i>
 </generator>
 <incar>
  <i type="int" name="ISTART">     1</i>
  <i type="string" name="PREC">Normal</i>
  <i type="string" name="ALGO">All</i>
  <i type="int" name="ISPIN">     1</i>
  <i type="int" name="ICHARG">     1</i>
  <i type="int" name="NELM">   500</i>
  <i type="int" name="IBRION">    -1</i>
  <i name="EDIFF">      0.00001000</i>
  <i name="EDIFFG">     -0.00500000</i>
  <i type="int" name="NSW">     0</i>
  <i type="int" name="ISIF">     2</i>
  <i type="int" name="ISYM">     0</i>
  <i name="ENCUT">    450.00000000</i>
  <i name="NELECT">   1052.00000000</i>
  <i type="string" name="LREAL">Auto</i>
  <i type="logical" name="LPLANE"> T  </i>
  <i name="TIME">      0.40000000</i>
  <i type="int" name="ISMEAR">     0</i>
  <i name="SIGMA">      0.05000000</i>
  <i type="logical" name="LWAVE"> T  </i>
  <i type="logical" name="LCHARG"> T  </i>
  <i type="int" name="ICORELEVEL">     1</i>
  <i name="HFSCREEN">      0.20000000</i>
  <i type="logical" name="LHFCALC"> T  </i>
  <i type="int" name="LMAXFOCK">     4</i>
  <i name="AEXX">      0.32000000</i>
  <i type="string" name="PRECFOCK">Fast</i>
 </incar>
 <primitive_cell>
  <structure name="primitive_cell" >
   <crystal>
    <varray name="basis" >
     <v>       0.00000000      12.28047371       0.00000000 </v>
     <v>       9.14270115       0.00000000       0.00000000 </v>
     <v>       0.00000000      -2.76826164     -11.30069748 </v>
    </varray>
    <i name="volume">   1268.80503319 </i>
    <varray name="rec_basis" >
     <v>       0.00000000       0.08143008      -0.01994742 </v>
     <v>       0.10937687      -0.00000000       0.00000000 </v>
     <v>       0.00000000       0.00000000      -0.08849011 </v>
    </varray>
   </crystal>
   <varray name="positions" >
    <v>       0.66036804       0.00065943       0.15796592 </v>
    <v>       0.65956516       0.99997233       0.65687657 </v>
    <v>       0.66036813       0.33267485       0.15796297 </v>
    <v>       0.65956586       0.33336070       0.65687682 </v>
    <v>       0.65965831       0.66666663       0.15771750 </v>
    <v>       0.65912556       0.66666586       0.65682726 </v>
    <v>       0.84135874       0.16666061       0.84301537 </v>
    <v>       0.84102362       0.49775978       0.34435988 </v>
    <v>       0.84133892       0.49963043       0.84328622 </v>
    <v>       0.84102365       0.83557092       0.34436236 </v>
    <v>       0.84133868       0.83370033       0.84328778 </v>
    <v>       0.59485035       0.16666723       0.39735175 </v>
    <v>       0.59127380       0.16666614       0.89783734 </v>
    <v>       0.59114547       0.49954045       0.39756148 </v>
    <v>       0.59137840       0.49989557       0.89815973 </v>
    <v>       0.59114551       0.83379290       0.39756183 </v>
    <v>       0.59137888       0.83343814       0.89816033 </v>
    <v>       0.90810583       0.00038315       0.10374649 </v>
    <v>       0.90725566       0.00148074       0.59814893 </v>
    <v>       0.90810526       0.33295192       0.10374577 </v>
    <v>       0.90725414       0.33185177       0.59814522 </v>
    <v>       0.90856618       0.66666640       0.10284009 </v>
    <v>       0.90917302       0.66666471       0.60224932 </v>
    <v>       0.15864972       0.16666692       0.15718394 </v>
    <v>       0.15850452       0.16666700       0.65574855 </v>
    <v>       0.15880900       0.49957807       0.15700499 </v>
    <v>       0.15835800       0.49960812       0.65630422 </v>
    <v>       0.15880843       0.83375546       0.15700618 </v>
    <v>       0.15836055       0.83372403       0.65630598 </v>
    <v>       0.34136814       0.00034453       0.34371215 </v>
    <v>       0.34090004       0.00001538       0.84335226 </v>
    <v>       0.34136822       0.33298897       0.34371150 </v>
    <v>       0.34090008       0.33331840       0.84335215 </v>
    <v>       0.34128403       0.66666673       0.34322832 </v>
    <v>       0.34099005       0.66666631       0.84331467 </v>
    <v>       0.08871853       0.00163254       0.39726222 </v>
    <v>       0.09109471       0.00004264       0.89763018 </v>
    <v>       0.08871820       0.33170200       0.39726145 </v>
    <v>       0.09109404       0.33329032       0.89762911 </v>
    <v>       0.09158920       0.66666595       0.39784213 </v>
    <v>       0.09137837       0.66666633       0.89798922 </v>
    <v>       0.40923191       0.16666899       0.10277960 </v>
    <v>       0.40927689       0.16666667       0.60256461 </v>
    <v>       0.40937978       0.49977178       0.10264432 </v>
    <v>       0.40886728       0.49994282       0.60257562 </v>
    <v>       0.40938144       0.83356560       0.10264533 </v>
    <v>       0.40886767       0.83339050       0.60257572 </v>
    <v>       0.99637353       0.16666639       0.12662984 </v>
    <v>       0.99660423       0.16666651       0.62939586 </v>
    <v>       0.99627822       0.49983465       0.12686013 </v>
    <v>       0.99591755       0.49912327       0.62726924 </v>
    <v>       0.99627778       0.83350007       0.12686079 </v>
    <v>       0.99591767       0.83420834       0.62727075 </v>
    <v>       0.50425097       0.00112003       0.37317569 </v>
    <v>       0.50355160       0.99997403       0.87247647 </v>
    <v>       0.50425057       0.33221343       0.37317512 </v>
    <v>       0.50355205       0.33335858       0.87247683 </v>
    <v>       0.50362185       0.66666695       0.37323297 </v>
    <v>       0.50376121       0.66666721       0.87266289 </v>
    <v>       0.67361189       0.16666638       0.27910361 </v>
    <v>       0.67271931       0.16666609       0.78074095 </v>
    <v>       0.67132416       0.50115008       0.27997828 </v>
    <v>       0.67263939       0.49990975       0.78071603 </v>
    <v>       0.67132482       0.83218556       0.27997914 </v>
    <v>       0.67263928       0.83342297       0.78071641 </v>
    <v>       0.82715308       0.99941228       0.22050564 </v>
    <v>       0.82786357       0.99997225       0.71900727 </v>
    <v>       0.82715345       0.33392127       0.22050434 </v>
    <v>       0.82786357       0.33335917       0.71900523 </v>
    <v>       0.82752746       0.66666882       0.21989512 </v>
    <v>       0.82758275       0.66666667       0.71973023 </v>
    <v>       0.82932597       0.00186511       0.44313038 </v>
    <v>       0.83279901       0.00001018       0.94591550 </v>
    <v>       0.82932702       0.33148096       0.44313097 </v>
    <v>       0.83279849       0.33332167       0.94591370 </v>
    <v>       0.83211432       0.66666804       0.44599155 </v>
    <v>       0.83246041       0.66666528       0.94568912 </v>
    <v>       0.66848880       0.16666663       0.05364313 </v>
    <v>       0.66739706       0.16666624       0.55519708 </v>
    <v>       0.66797947       0.50000567       0.05440067 </v>
    <v>       0.66734570       0.50025549       0.55453877 </v>
    <v>       0.66798043       0.83332828       0.05440172 </v>
    <v>       0.66734520       0.83307774       0.55453886 </v>
    <v>       0.49665166       0.00021024       0.12702419 </v>
    <v>       0.49655895       0.99983832       0.62778804 </v>
    <v>       0.49665086       0.33312383       0.12702334 </v>
    <v>       0.49655916       0.33349513       0.62778809 </v>
    <v>       0.49629806       0.66666789       0.12683605 </v>
    <v>       0.49634590       0.66666649       0.62776190 </v>
    <v>       0.00178781       0.16666574       0.37358510 </v>
    <v>       0.00391739       0.16666606       0.87350436 </v>
    <v>       0.00416516       0.50056783       0.37282724 </v>
    <v>       0.00393427       0.50011432       0.87290111 </v>
    <v>       0.00416431       0.83276656       0.37282779 </v>
    <v>       0.00393423       0.83321884       0.87290133 </v>
    <v>       0.17254150       0.00002513       0.28077372 </v>
    <v>       0.17284898       0.99996997       0.78072399 </v>
    <v>       0.17254141       0.33330811       0.28077337 </v>
    <v>       0.17284885       0.33336340       0.78072339 </v>
    <v>       0.17308418       0.66666681       0.28041301 </v>
    <v>       0.17247536       0.66666615       0.78051852 </v>
    <v>       0.32746182       0.16666658       0.21973896 </v>
    <v>       0.32752122       0.16666695       0.71957743 </v>
    <v>       0.32774797       0.49963590       0.21970498 </v>
    <v>       0.32744146       0.50008228       0.71974948 </v>
    <v>       0.32774797       0.83369808       0.21970507 </v>
    <v>       0.32744190       0.83325057       0.71974985 </v>
    <v>       0.33213975       0.16666687       0.44616653 </v>
    <v>       0.33236427       0.16666675       0.94602653 </v>
    <v>       0.33261569       0.50000117       0.44589166 </v>
    <v>       0.33232218       0.50005398       0.94597180 </v>
    <v>       0.33261539       0.83333214       0.44589183 </v>
    <v>       0.33232250       0.83327982       0.94597250 </v>
    <v>       0.16826358       0.00010266       0.05428150 </v>
    <v>       0.16828798       0.99979640       0.55400994 </v>
    <v>       0.16826324       0.33323040       0.05428060 </v>
    <v>       0.16828796       0.33353656       0.55400946 </v>
    <v>       0.16807826       0.66666730       0.05460738 </v>
    <v>       0.16839726       0.66666648       0.55461397 </v>
    <v>       0.83798376       0.16665921       0.33582435 </v>
   </varray>
  </structure>
  <varray name="primitive_index" >
   <v type="int" >        1 </v>
   <v type="int" >        2 </v>
   <v type="int" >        3 </v>
   <v type="int" >        4 </v>
   <v type="int" >        5 </v>
   <v type="int" >        6 </v>
   <v type="int" >        7 </v>
   <v type="int" >        8 </v>
   <v type="int" >        9 </v>
   <v type="int" >       10 </v>
   <v type="int" >       11 </v>
   <v type="int" >       12 </v>
   <v type="int" >       13 </v>
   <v type="int" >       14 </v>
   <v type="int" >       15 </v>
   <v type="int" >       16 </v>
   <v type="int" >       17 </v>
   <v type="int" >       18 </v>
   <v type="int" >       19 </v>
   <v type="int" >       20 </v>
   <v type="int" >       21 </v>
   <v type="int" >       22 </v>
   <v type="int" >       23 </v>
   <v type="int" >       24 </v>
   <v type="int" >       25 </v>
   <v type="int" >       26 </v>
   <v type="int" >       27 </v>
   <v type="int" >       28 </v>
   <v type="int" >       29 </v>
   <v type="int" >       30 </v>
   <v type="int" >       31 </v>
   <v type="int" >       32 </v>
   <v type="int" >       33 </v>
   <v type="int" >       34 </v>
   <v type="int" >       35 </v>
   <v type="int" >       36 </v>
   <v type="int" >       37 </v>
   <v type="int" >       38 </v>
   <v type="int" >       39 </v>
   <v type="int" >       40 </v>
   <v type="int" >       41 </v>
   <v type="int" >       42 </v>
   <v type="int" >       43 </v>
   <v type="int" >       44 </v>
   <v type="int" >       45 </v>
   <v type="int" >       46 </v>
   <v type="int" >       47 </v>
   <v type="int" >       48 </v>
   <v type="int" >       49 </v>
   <v type="int" >       50 </v>
   <v type="int" >       51 </v>
   <v type="int" >       52 </v>
   <v type="int" >       53 </v>
   <v type="int" >       54 </v>
   <v type="int" >       55 </v>
   <v type="int" >       56 </v>
   <v type="int" >       57 </v>
   <v type="int" >       58 </v>
   <v type="int" >       59 </v>
   <v type="int" >       60 </v>
   <v type="int" >       61 </v>
   <v type="int" >       62 </v>
   <v type="int" >       63 </v>
   <v type="int" >       64 </v>
   <v type="int" >       65 </v>
   <v type="int" >       66 </v>
   <v type="int" >       67 </v>
   <v type="int" >       68 </v>
   <v type="int" >       69 </v>
   <v type="int" >       70 </v>
   <v type="int" >       71 </v>
   <v type="int" >       72 </v>
   <v type="int" >       73 </v>
   <v type="int" >       74 </v>
   <v type="int" >       75 </v>
   <v type="int" >       76 </v>
   <v type="int" >       77 </v>
   <v type="int" >       78 </v>
   <v type="int" >       79 </v>
   <v type="int" >       80 </v>
   <v type="int" >       81 </v>
   <v type="int" >       82 </v>
   <v type="int" >       83 </v>
   <v type="int" >       84 </v>
   <v type="int" >       85 </v>
   <v type="int" >       86 </v>
   <v type="int" >       87 </v>
   <v type="int" >       88 </v>
   <v type="int" >       89 </v>
   <v type="int" >       90 </v>
   <v type="int" >       91 </v>
   <v type="int" >       92 </v>
   <v type="int" >       93 </v>
   <v type="int" >       94 </v>
   <v type="int" >       95 </v>
   <v type="int" >       96 </v>
   <v type="int" >       97 </v>
   <v type="int" >       98 </v>
   <v type="int" >       99 </v>
   <v type="int" >      100 </v>
   <v type="int" >      101 </v>
   <v type="int" >      102 </v>
   <v type="int" >      103 </v>
   <v type="int" >      104 </v>
   <v type="int" >      105 </v>
   <v type="int" >      106 </v>
   <v type="int" >      107 </v>
   <v type="int" >      108 </v>
   <v type="int" >      109 </v>
   <v type="int" >      110 </v>
   <v type="int" >      111 </v>
   <v type="int" >      112 </v>
   <v type="int" >      113 </v>
   <v type="int" >      114 </v>
   <v type="int" >      115 </v>
   <v type="int" >      116 </v>
   <v type="int" >      117 </v>
   <v type="int" >      118 </v>
   <v type="int" >      119 </v>
   <v type="int" >      120 </v>
  </varray>
 </primitive_cell>
 <kpoints>
  <generation param="Gamma">
   <v type="int" name="divisions">       2        2        2 </v>
   <v name="usershift">      0.00000000       0.00000000       0.00000000 </v>
   <v name="genvec1">      0.50000000       0.00000000      -0.00000000 </v>
   <v name="genvec2">      0.00000000       0.50000000       0.00000000 </v>
   <v name="genvec3">      0.00000000       0.00000000       0.50000000 </v>
   <v name="shift">      0.00000000       0.00000000       0.00000000 </v>
  </generation>
  <varray name="kpointlist" >
   <v>       0.00000000       0.00000000       0.00000000 </v>
   <v>       0.50000000       0.00000000       0.00000000 </v>
   <v>       0.00000000       0.50000000       0.00000000 </v>
   <v>       0.50000000       0.50000000       0.00000000 </v>
   <v>       0.00000000       0.00000000       0.50000000 </v>
   <v>       0.50000000       0.00000000       0.50000000 </v>
   <v>       0.00000000       0.50000000       0.50000000 </v>
   <v>       0.50000000       0.50000000       0.50000000 </v>
  </varray>
  <varray name="weights" >
   <v>       0.12500000 </v>
   <v>       0.12500000 </v>
   <v>       0.12500000 </v>
   <v>       0.12500000 </v>
   <v>       0.12500000 </v>
   <v>       0.12500000 </v>
   <v>       0.12500000 </v>
   <v>       0.12500000 </v>
  </varray>
 </kpoints>
 <parameters>
  <separator name="general" >
   <i type="string" name="SYSTEM">unknown system</i>
   <i type="logical" name="LCOMPAT"> F  </i>
  </separator>
  <separator name="electronic" >
   <i type="string" name="PREC">normal</i>
   <i name="ENMAX">    450.00000000</i>
   <i name="ENAUG">    605.39200000</i>
   <i name="EDIFF">      0.00001000</i>
   <i type="int" name="IALGO">    58</i>
   <i type="int" name="IWAVPR">    10</i>
   <i type="int" name="NBANDS">   631</i>
   <i type="int" name="NBANDSLOW">    -1</i>
   <i type="int" name="NBANDSHIGH">    -1</i>
   <i name="NELECT">   1052.00000000</i>
   <i type="int" name="TURBO">     0</i>
   <i type="int" name="IRESTART">     0</i>
   <i type="int" name="NREBOOT">     0</i>
   <i type="int" name="NMIN">     0</i>
   <i name="EREF">      0.00000000</i>
   <separator name="electronic smearing" >
    <i type="int" name="ISMEAR">     0</i>
    <i name="SIGMA">      0.05000000</i>
    <i name="KSPACING">      0.50000000</i>
    <i type="logical" name="KGAMMA"> T  </i>
    <i type="logical" name="KBLOWUP"> T  </i>
   </separator>
   <separator name="electronic projectors" >
    <i type="logical" name="LREAL"> T  </i>
    <v name="ROPT">     -0.00050000     -0.00050000     -0.00050000</v>
    <i type="int" name="LMAXPAW">  -100</i>
    <i type="int" name="LMAXMIX">     2</i>
    <i type="logical" name="NLSPLINE"> F  </i>
   </separator>
   <separator name="electronic startup" >
    <i type="int" name="ISTART">     1</i>
    <i type="int" name="ICHARG">     1</i>
    <i type="int" name="INIWAV">     1</i>
   </separator>
   <separator name="electronic spin" >
    <i type="int" name="ISPIN">     1</i>
    <i type="logical" name="LNONCOLLINEAR"> F  </i>
    <v name="MAGMOM">      1.00000000      1.00000000      1.00000000      1.00000000      1.00000000      1.00000000      1.00000000      1.00000000      1.00000000      1.00000000      1.00000000      1.00000000      1.00000000      1.00000000      1.00000000      1.00000000      1.00000000      1.00000000      1.00000000      1.00000000
      1.00000000      1.00000000      1.00000000      1.00000000      1.00000000      1.00000000      1.00000000      1.00000000      1.00000000      1.00000000      1.00000000      1.00000000      1.00000000      1.00000000      1.00000000      1.00000000      1.00000000      1.00000000      1.00000000      1.00000000
      1.00000000      1.00000000      1.00000000      1.00000000      1.00000000      1.00000000      1.00000000      1.00000000      1.00000000      1.00000000      1.00000000      1.00000000      1.00000000      1.00000000      1.00000000      1.00000000      1.00000000      1.00000000      1.00000000      1.00000000
      1.00000000      1.00000000      1.00000000      1.00000000      1.00000000      1.00000000      1.00000000      1.00000000      1.00000000      1.00000000      1.00000000      1.00000000      1.00000000      1.00000000      1.00000000      1.00000000      1.00000000      1.00000000      1.00000000      1.00000000
      1.00000000      1.00000000      1.00000000      1.00000000      1.00000000      1.00000000      1.00000000      1.00000000      1.00000000      1.00000000      1.00000000      1.00000000      1.00000000      1.00000000      1.00000000      1.00000000      1.00000000      1.00000000      1.00000000      1.00000000
      1.00000000      1.00000000      1.00000000      1.00000000      1.00000000      1.00000000      1.00000000      1.00000000      1.00000000      1.00000000      1.00000000      1.00000000      1.00000000      1.00000000      1.00000000      1.00000000      1.00000000      1.00000000      1.00000000      1.00000000
</v>
    <i name="NUPDOWN">     -1.00000000</i>
    <i type="logical" name="LSORBIT"> F  </i>
    <v name="SAXIS">      0.00000000      0.00000000      1.00000000</v>
    <i type="logical" name="LSPIRAL"> F  </i>
    <v name="QSPIRAL">      0.00000000      0.00000000      0.00000000</v>
    <i type="logical" name="LZEROZ"> F  </i>
   </separator>
   <separator name="electronic exchange-correlation" >
    <i type="logical" name="LASPH"> F  </i>
    <i type="logical" name="LMETAGGA"> F  </i>
   </separator>
   <separator name="electronic convergence" >
    <i type="int" name="NELM">   500</i>
    <i type="int" name="NELMDL">     0</i>
    <i type="int" name="NELMIN">     2</i>
    <i name="ENINI">    450.00000000</i>
    <separator name="electronic convergence detail" >
     <i type="logical" name="LDIAG"> T  </i>
     <i type="logical" name="LSUBROT"> F  </i>
     <i name="WEIMIN">      0.00000000</i>
     <i name="EBREAK">      0.00000000</i>
     <i name="DEPER">      0.30000000</i>
     <i type="int" name="NRMM">     4</i>
     <i name="TIME">      0.40000000</i>
    </separator>
   </separator>
   <separator name="electronic mixer" >
    <i name="AMIX">      0.40000000</i>
    <i name="BMIX">      1.00000000</i>
    <i name="AMIN">      0.10000000</i>
    <i name="AMIX_MAG">      1.60000000</i>
    <i name="BMIX_MAG">      1.00000000</i>
    <separator name="electronic mixer details" >
     <i type="int" name="IMIX">     4</i>
     <i type="logical" name="MIXFIRST"> F  </i>
     <i type="int" name="MAXMIX">   -45</i>
     <i name="WC">    100.00000000</i>
     <i type="int" name="INIMIX">     1</i>
     <i type="int" name="MIXPRE">     1</i>
     <i type="int" name="MREMOVE">     5</i>
    </separator>
   </separator>
   <separator name="electronic dipolcorrection" >
    <i type="logical" name="LDIPOL"> F  </i>
    <i type="logical" name="LMONO"> F  </i>
    <i type="int" name="IDIPOL">     0</i>
    <i name="EPSILON">      1.00000000</i>
    <v name="DIPOL">   -100.00000000   -100.00000000   -100.00000000</v>
    <i name="EFIELD">      0.00000000</i>
   </separator>
  </separator>
  <separator name="grids" >
   <i type="int" name="NGX">    64</i>
   <i type="int" name="NGY">    48</i>
   <i type="int" name="NGZ">    60</i>
   <i type="int" name="NGXF">   128</i>
   <i type="int" name="NGYF">    96</i>
   <i type="int" name="NGZF">   120</i>
   <i type="logical" name="ADDGRID"> F  </i>
  </separator>
  <separator name="ionic" >
   <i type="int" name="NSW">     0</i>
   <i type="int" name="IBRION">    -1</i>
   <i type="int" name="MDALGO">     0</i>
   <i type="int" name="ISIF">     2</i>
   <i name="PSTRESS">      0.00000000</i>
   <i name="EDIFFG">     -0.00500000</i>
   <i type="int" name="NFREE">     0</i>
   <i name="POTIM">      0.50000000</i>
   <i name="SMASS">     -3.00000000</i>
   <i name="SCALEE">      1.00000000</i>
  </separator>
  <separator name="ionic md" >
   <i name="TEBEG">      0.00010000</i>
   <i name="TEEND">      0.00010000</i>
   <i type="int" name="NBLOCK">     1</i>
   <i type="int" name="KBLOCK">     1</i>
   <i type="int" name="NPACO">   256</i>
   <i name="APACO">     10.00000000</i>
  </separator>
  <separator name="symmetry" >
   <i type="int" name="ISYM">     0</i>
   <i name="SYMPREC">      0.00001000</i>
  </separator>
  <separator name="dos" >
   <i type="int" name="LORBIT">     0</i>
   <v name="RWIGS">     -1.00000000     -1.00000000     -1.00000000</v>
   <i type="int" name="NEDOS">   301</i>
   <i name="EMIN">     10.00000000</i>
   <i name="EMAX">    -10.00000000</i>
   <i name="EFERMI">      0.00000000</i>
  </separator>
  <separator name="writing" >
   <i type="int" name="NWRITE">     2</i>
   <i type="logical" name="LWAVE"> T  </i>
   <i type="logical" name="LDOWNSAMPLE"> F  </i>
   <i type="logical" name="LCHARG"> T  </i>
   <i type="logical" name="LPARD"> F  </i>
   <i type="logical" name="LVTOT"> F  </i>
   <i type="logical" name="LVHAR"> F  </i>
   <i type="logical" name="LELF"> F  </i>
   <i type="logical" name="LOPTICS"> F  </i>
   <v name="STM">      0.00000000      0.00000000      0.00000000      0.00000000      0.00000000      0.00000000      0.00000000</v>
  </separator>
  <separator name="performance" >
   <i type="int" name="NPAR">     1</i>
   <i type="int" name="NSIM">     4</i>
   <i type="int" name="NBLK">    -1</i>
   <i type="logical" name="LPLANE"> T  </i>
   <i type="logical" name="LSCALAPACK"> T  </i>
   <i type="logical" name="LSCAAWARE"> F  </i>
   <i type="logical" name="LSCALU"> F  </i>
   <i type="logical" name="LASYNC"> F  </i>
   <i type="logical" name="LORBITALREAL"> F  </i>
  </separator>
  <separator name="miscellaneous" >
   <i type="int" name="IDIOT">     3</i>
   <i type="int" name="PHON_NSTRUCT">    -1</i>
   <i type="logical" name="LMUSIC"> F  </i>
   <v name="POMASS">     69.72300000     16.00000000     55.84700000</v>
   <v name="DARWINR">      0.00000000      0.00000000      0.00000000</v>
   <v name="DARWINV">      1.00000000      1.00000000      1.00000000</v>
   <i type="logical" name="LCORR"> T  </i>
  </separator>
  <i type="logical" name="GGA_COMPAT"> T  </i>
  <i type="logical" name="LBERRY"> F  </i>
  <i type="int" name="ICORELEVEL">     1</i>
  <i type="int" name="CLNT">     1</i>
  <i type="int" name="CLN">     1</i>
  <i type="int" name="CLL">     0</i>
  <i name="CLZ">      0.00000000</i>
  <i type="logical" name="LDAU"> F  </i>
  <i type="int" name="I_CONSTRAINED_M">     0</i>
  <separator name="electronic exchange-correlation" >
   <i type="string" name="GGA">--</i>
   <i type="int" name="VOSKOWN">     0</i>
   <i type="logical" name="LHFCALC"> T  </i>
   <i type="string" name="PRECFOCK">fast</i>
   <i type="logical" name="LSYMGRAD"> F  </i>
   <i type="logical" name="LHFONE"> F  </i>
   <i type="logical" name="LRHFCALC"> F  </i>
   <i type="logical" name="LTHOMAS"> F  </i>
   <i type="logical" name="LMODELHF"> F  </i>
   <i type="logical" name="LFOCKACE"> T  </i>
   <i name="ENCUT4O">     -1.00000000</i>
   <i type="int" name="EXXOEP">     0</i>
   <i type="int" name="FOURORBIT">     0</i>
   <i name="AEXX">      0.32000000</i>
   <i name="HFALPHA">     -1.00000000</i>
   <i name="MCALPHA">      0.00000000</i>
   <i name="ALDAX">      0.68000000</i>
   <i name="AGGAX">      0.68000000</i>
   <i name="ALDAC">      1.00000000</i>
   <i name="AGGAC">      1.00000000</i>
   <i type="int" name="NKREDX">     1</i>
   <i type="int" name="NKREDY">     1</i>
   <i type="int" name="NKREDZ">     1</i>
   <i type="logical" name="SHIFTRED"> F  </i>
   <i type="logical" name="ODDONLY"> F  </i>
   <i type="logical" name="EVENONLY"> F  </i>
   <i type="int" name="LMAXFOCK">     4</i>
   <i type="int" name="NMAXFOCKAE">     1</i>
   <i type="logical" name="LFOCKAEDFT"> F  </i>
   <i name="HFSCREEN">      0.20000000</i>
   <i name="HFSCREENC">      0.20000000</i>
   <i type="int" name="NBANDSGWLOW">     1</i>
  </separator>
  <separator name="vdW DFT" >
   <i type="logical" name="LUSE_VDW"> F  </i>
   <i type="int" name="IVDW_NL">     1</i>
   <i type="logical" name="LSPIN_VDW"> F  </i>
   <i name="Zab_VDW">     -0.84910000</i>
   <i name="PARAM1">      0.12340000</i>
   <i name="PARAM2">      1.00000000</i>
   <i name="PARAM3">      0.00000000</i>
  </separator>
  <separator name="model GW" >
   <i type="int" name="MODEL_GW">     0</i>
   <i name="MODEL_EPS0">      6.34402517</i>
   <i name="MODEL_ALPHA">      1.00000000</i>
  </separator>
  <separator name="linear response parameters" >
   <i type="logical" name="LEPSILON"> F  </i>
   <i type="logical" name="LRPA"> F  </i>
   <i type="logical" name="LNABLA"> F  </i>
   <i type="logical" name="LVEL"> F  </i>
   <i name="CSHIFT">      0.10000000</i>
   <i name="OMEGAMAX">     -1.00000000</i>
   <i name="DEG_THRESHOLD">      0.00200000</i>
   <i name="RTIME">     -0.10000000</i>
   <i name="WPLASMAI">      0.00000000</i>
   <v name="DFIELD">      0.00000000      0.00000000      0.00000000</v>
   <v name="WPLASMA">      0.00000000      0.00000000      0.00000000      0.00000000      0.00000000      0.00000000      0.00000000      0.00000000      0.00000000</v>
  </separator>
  <separator name="orbital magnetization" >
   <i type="logical" name="NUCIND"> F  </i>
   <v name="MAGPOS">      0.00000000      0.00000000      0.00000000</v>
   <i type="logical" name="LNICSALL"> T  </i>
   <i type="logical" name="ORBITALMAG"> F  </i>
   <i type="logical" name="LMAGBLOCH"> F  </i>
   <i type="logical" name="LCHIMAG"> F  </i>
   <i type="logical" name="LGAUGE"> T  </i>
   <i type="int" name="MAGATOM">     0</i>
   <v name="MAGDIPOL">      0.00000000      0.00000000      0.00000000</v>
   <v name="AVECCONST">      0.00000000      0.00000000      0.00000000</v>
  </separator>
  <separator name="response functions" >
   <i type="logical" name="LALL_IN_ONE"> F  </i>
   <i type="int" name="IALL_IN_ONE">    -1</i>
   <i type="int" name="NBANDS_WAVE">    -1</i>
   <i type="logical" name="LFINITE_TEMPERATURE"> F  </i>
   <i type="logical" name="LADDER"> F  </i>
   <i type="logical" name="LRPAFORCE"> F  </i>
   <i type="logical" name="LFXC"> F  </i>
   <i type="logical" name="LHARTREE"> T  </i>
   <i type="int" name="IBSE">     0</i>
   <v type="int" name="KPOINT">    -1     0     0     0</v>
   <i type="logical" name="LTCTC"> F  </i>
   <i type="logical" name="LTCTE"> F  </i>
   <i type="logical" name="LTETE"> F  </i>
   <i type="logical" name="LTRIPLET"> F  </i>
   <i type="logical" name="LFXCEPS"> F  </i>
   <i type="logical" name="LFXHEG"> F  </i>
   <i type="int" name="NATURALO">     2</i>
   <i type="logical" name="LHOLEGF"> F  </i>
   <i type="logical" name="L2ORDER"> F  </i>
   <i type="logical" name="LDMP1"> F  </i>
   <i type="logical" name="LMP2LT"> F  </i>
   <i type="logical" name="LSMP2LT"> F  </i>
   <i type="logical" name="LGWLF"> F  </i>
   <i name="ENCUTGW">     -1.60000002</i>
   <i name="ENCUTGWSOFT">     -1.60000002</i>
   <i name="ENCUTLF">     -1.00000000</i>
   <i type="logical" name="LESF_SPLINES"> F  </i>
   <i type="int" name="LMAXMP2">    -1</i>
   <i name="SCISSOR">      0.00000000</i>
   <i type="int" name="NOMEGA">     0</i>
   <i type="int" name="NOMEGAR">     0</i>
   <i type="int" name="NBANDSGW">    -1</i>
   <i type="int" name="NBANDSO">    -1</i>
   <i type="int" name="NBANDSV">    -1</i>
   <i type="int" name="NELMGW">     1</i>
   <i type="int" name="NELMHF">     1</i>
   <i type="int" name="DIM">     3</i>
   <i type="int" name="IESPILON">     4</i>
   <i type="int" name="ANTIRES">     0</i>
   <i name="OMEGAMAX">    -30.00000000</i>
   <i name="OMEGAMIN">    -30.00000000</i>
   <i name="OMEGATL">   -200.00000000</i>
   <i type="int" name="OMEGAGRID">     0</i>
   <i name="CSHIFT">     -0.10000000</i>
   <i type="logical" name="LSELFENERGY"> F  </i>
   <i type="logical" name="LSPECTRAL"> F  </i>
   <i type="logical" name="LSPECTRALGW"> F  </i>
   <i type="logical" name="LSINGLES"> F  </i>
   <i type="logical" name="LFERMIGW"> F  </i>
   <i type="logical" name="ODDONLYGW"> F  </i>
   <i type="logical" name="EVENONLYGW"> F  </i>
   <i type="int" name="NKREDLFX">     1</i>
   <i type="int" name="NKREDLFY">     1</i>
   <i type="int" name="NKREDLFZ">     1</i>
   <i type="int" name="MAXMEM">  2800</i>
   <i type="int" name="TELESCOPE">     0</i>
   <i type="int" name="NTAUPAR">    -1</i>
   <i type="int" name="NOMEGAPAR">    -1</i>
   <i name="DAMP_NEWTON">      0.80000001</i>
   <i name="LAMBDA">      1.00000000</i>
  </separator>
  <separator name="External order field" >
   <i name="OFIELD_KAPPA">      0.00000000</i>
   <v name="OFIELD_K">      0.00000000      0.00000000      0.00000000</v>
   <i name="OFIELD_Q6_NEAR">      0.00000000</i>
   <i name="OFIELD_Q6_FAR">      0.00000000</i>
   <i name="OFIELD_A">      0.00000000</i>
  </separator>
  <separator name="optional k-points parameters" >
   <i type="int" name="KPOINTS_OPT_MODE">     1</i>
   <i type="logical" name="LKPOINTS_OPT"> F  </i>
  </separator>
 </parameters>
 <atominfo>
  <atoms>     120 </atoms>
  <types>       3 </types>
  <array name="atoms" >
   <dimension dim="1">ion</dimension>
   <field type="string">element</field>
   <field type="int">atomtype</field>
   <set>
    <rc><c>Ga</c><c>   1</c></rc>
    <rc><c>Ga</c><c>   1</c></rc>
    <rc><c>Ga</c><c>   1</c></rc>
    <rc><c>Ga</c><c>   1</c></rc>
    <rc><c>Ga</c><c>   1</c></rc>
    <rc><c>Ga</c><c>   1</c></rc>
    <rc><c>Ga</c><c>   1</c></rc>
    <rc><c>Ga</c><c>   1</c></rc>
    <rc><c>Ga</c><c>   1</c></rc>
    <rc><c>Ga</c><c>   1</c></rc>
    <rc><c>Ga</c><c>   1</c></rc>
    <rc><c>Ga</c><c>   1</c></rc>
    <rc><c>Ga</c><c>   1</c></rc>
    <rc><c>Ga</c><c>   1</c></rc>
    <rc><c>Ga</c><c>   1</c></rc>
    <rc><c>Ga</c><c>   1</c></rc>
    <rc><c>Ga</c><c>   1</c></rc>
    <rc><c>Ga</c><c>   1</c></rc>
    <rc><c>Ga</c><c>   1</c></rc>
    <rc><c>Ga</c><c>   1</c></rc>
    <rc><c>Ga</c><c>   1</c></rc>
    <rc><c>Ga</c><c>   1</c></rc>
    <rc><c>Ga</c><c>   1</c></rc>
    <rc><c>Ga</c><c>   1</c></rc>
    <rc><c>Ga</c><c>   1</c></rc>
    <rc><c>Ga</c><c>   1</c></rc>
    <rc><c>Ga</c><c>   1</c></rc>
    <rc><c>Ga</c><c>   1</c></rc>
    <rc><c>Ga</c><c>   1</c></rc>
    <rc><c>Ga</c><c>   1</c></rc>
    <rc><c>Ga</c><c>   1</c></rc>
    <rc><c>Ga</c><c>   1</c></rc>
    <rc><c>Ga</c><c>   1</c></rc>
    <rc><c>Ga</c><c>   1</c></rc>
    <rc><c>Ga</c><c>   1</c></rc>
    <rc><c>Ga</c><c>   1</c></rc>
    <rc><c>Ga</c><c>   1</c></rc>
    <rc><c>Ga</c><c>   1</c></rc>
    <rc><c>Ga</c><c>   1</c></rc>
    <rc><c>Ga</c><c>   1</c></rc>
    <rc><c>Ga</c><c>   1</c></rc>
    <rc><c>Ga</c><c>   1</c></rc>
    <rc><c>Ga</c><c>   1</c></rc>
    <rc><c>Ga</c><c>   1</c></rc>
    <rc><c>Ga</c><c>   1</c></rc>
    <rc><c>Ga</c><c>   1</c></rc>
    <rc><c>Ga</c><c>   1</c></rc>
    <rc><c>O </c><c>   2</c></rc>
    <rc><c>O </c><c>   2</c></rc>
    <rc><c>O </c><c>   2</c></rc>
    <rc><c>O </c><c>   2</c></rc>
    <rc><c>O </c><c>   2</c></rc>
    <rc><c>O </c><c>   2</c></rc>
    <rc><c>O </c><c>   2</c></rc>
    <rc><c>O </c><c>   2</c></rc>
    <rc><c>O </c><c>   2</c></rc>
    <rc><c>O </c><c>   2</c></rc>
    <rc><c>O </c><c>   2</c></rc>
    <rc><c>O </c><c>   2</c></rc>
    <rc><c>O </c><c>   2</c></rc>
    <rc><c>O </c><c>   2</c></rc>
    <rc><c>O </c><c>   2</c></rc>
    <rc><c>O </c><c>   2</c></rc>
    <rc><c>O </c><c>   2</c></rc>
    <rc><c>O </c><c>   2</c></rc>
    <rc><c>O </c><c>   2</c></rc>
    <rc><c>O </c><c>   2</c></rc>
    <rc><c>O </c><c>   2</c></rc>
    <rc><c>O </c><c>   2</c></rc>
    <rc><c>O </c><c>   2</c></rc>
    <rc><c>O </c><c>   2</c></rc>
    <rc><c>O </c><c>   2</c></rc>
    <rc><c>O </c><c>   2</c></rc>
    <rc><c>O </c><c>   2</c></rc>
    <rc><c>O </c><c>   2</c></rc>
    <rc><c>O </c><c>   2</c></rc>
    <rc><c>O </c><c>   2</c></rc>
    <rc><c>O </c><c>   2</c></rc>
    <rc><c>O </c><c>   2</c></rc>
    <rc><c>O </c><c>   2</c></rc>
    <rc><c>O </c><c>   2</c></rc>
    <rc><c>O </c><c>   2</c></rc>
    <rc><c>O </c><c>   2</c></rc>
    <rc><c>O </c><c>   2</c></rc>
    <rc><c>O </c><c>   2</c></rc>
    <rc><c>O </c><c>   2</c></rc>
    <rc><c>O </c><c>   2</c></rc>
    <rc><c>O </c><c>   2</c></rc>
    <rc><c>O </c><c>   2</c></rc>
    <rc><c>O </c><c>   2</c></rc>
    <rc><c>O </c><c>   2</c></rc>
    <rc><c>O </c><c>   2</c></rc>
    <rc><c>O </c><c>   2</c></rc>
    <rc><c>O </c><c>   2</c></rc>
    <rc><c>O </c><c>   2</c></rc>
    <rc><c>O </c><c>   2</c></rc>
    <rc><c>O </c><c>   2</c></rc>
    <rc><c>O </c><c>   2</c></rc>
    <rc><c>O </c><c>   2</c></rc>
    <rc><c>O </c><c>   2</c></rc>
    <rc><c>O </c><c>   2</c></rc>
    <rc><c>O </c><c>   2</c></rc>
    <rc><c>O </c><c>   2</c></rc>
    <rc><c>O </c><c>   2</c></rc>
    <rc><c>O </c><c>   2</c></rc>
    <rc><c>O </c><c>   2</c></rc>
    <rc><c>O </c><c>   2</c></rc>
    <rc><c>O </c><c>   2</c></rc>
    <rc><c>O </c><c>   2</c></rc>
    <rc><c>O </c><c>   2</c></rc>
    <rc><c>O </c><c>   2</c></rc>
    <rc><c>O </c><c>   2</c></rc>
    <rc><c>O </c><c>   2</c></rc>
    <rc><c>O </c><c>   2</c></rc>
    <rc><c>O </c><c>   2</c></rc>
    <rc><c>O </c><c>   2</c></rc>
    <rc><c>O </c><c>   2</c></rc>
    <rc><c>O </c><c>   2</c></rc>
    <rc><c>O </c><c>   2</c></rc>
    <rc><c>Fe</c><c>   3</c></rc>
   </set>
  </array>
  <array name="atomtypes" >
   <dimension dim="1">type</dimension>
   <field type="int">atomspertype</field>
   <field type="string">element</field>
   <field>mass</field>
   <field>valence</field>
   <field type="string">pseudopotential</field>
   <set>
    <rc><c>  47</c><c>Ga</c><c>     69.72300000</c><c>     13.00000000</c><c>  PAW_PBE Ga_d 06Jul2010                </c></rc>
    <rc><c>  72</c><c>O </c><c>     16.00000000</c><c>      6.00000000</c><c>  PAW_PBE O 08Apr2002                   </c></rc>
    <rc><c>   1</c><c>Fe</c><c>     55.84700000</c><c>      8.00000000</c><c>  PAW_PBE Fe 06Sep2000                  </c></rc>
   </set>
  </array>
 </atominfo>
 <structure name="initialpos" >
  <crystal>
   <varray name="basis" >
    <v>       0.00000000      12.28047371       0.00000000 </v>
    <v>       9.14270115       0.00000000       0.00000000 </v>
    <v>       0.00000000      -2.76826164     -11.30069748 </v>
   </varray>
   <i name="volume">   1268.80503319 </i>
   <varray name="rec_basis" >
    <v>       0.00000000       0.08143008      -0.01994742 </v>
    <v>       0.10937687      -0.00000000       0.00000000 </v>
    <v>       0.00000000       0.00000000      -0.08849011 </v>
   </varray>
  </crystal>
  <varray name="positions" >
   <v>       0.66036804       0.00065943       0.15796592 </v>
   <v>       0.65956516       0.99997233       0.65687657 </v>
   <v>       0.66036813       0.33267485       0.15796297 </v>
   <v>       0.65956586       0.33336070       0.65687682 </v>
   <v>       0.65965831       0.66666663       0.15771750 </v>
   <v>       0.65912556       0.66666586       0.65682726 </v>
   <v>       0.84135874       0.16666061       0.84301537 </v>
   <v>       0.84102362       0.49775978       0.34435988 </v>
   <v>       0.84133892       0.49963043       0.84328622 </v>
   <v>       0.84102365       0.83557092       0.34436236 </v>
   <v>       0.84133868       0.83370033       0.84328778 </v>
   <v>       0.59485035       0.16666723       0.39735175 </v>
   <v>       0.59127380       0.16666614       0.89783734 </v>
   <v>       0.59114547       0.49954045       0.39756148 </v>
   <v>       0.59137840       0.49989557       0.89815973 </v>
   <v>       0.59114551       0.83379290       0.39756183 </v>
   <v>       0.59137888       0.83343814       0.89816033 </v>
   <v>       0.90810583       0.00038315       0.10374649 </v>
   <v>       0.90725566       0.00148074       0.59814893 </v>
   <v>       0.90810526       0.33295192       0.10374577 </v>
   <v>       0.90725414       0.33185177       0.59814522 </v>
   <v>       0.90856618       0.66666640       0.10284009 </v>
   <v>       0.90917302       0.66666471       0.60224932 </v>
   <v>       0.15864972       0.16666692       0.15718394 </v>
   <v>       0.15850452       0.16666700       0.65574855 </v>
   <v>       0.15880900       0.49957807       0.15700499 </v>
   <v>       0.15835800       0.49960812       0.65630422 </v>
   <v>       0.15880843       0.83375546       0.15700618 </v>
   <v>       0.15836055       0.83372403       0.65630598 </v>
   <v>       0.34136814       0.00034453       0.34371215 </v>
   <v>       0.34090004       0.00001538       0.84335226 </v>
   <v>       0.34136822       0.33298897       0.34371150 </v>
   <v>       0.34090008       0.33331840       0.84335215 </v>
   <v>       0.34128403       0.66666673       0.34322832 </v>
   <v>       0.34099005       0.66666631       0.84331467 </v>
   <v>       0.08871853       0.00163254       0.39726222 </v>
   <v>       0.09109471       0.00004264       0.89763018 </v>
   <v>       0.08871820       0.33170200       0.39726145 </v>
   <v>       0.09109404       0.33329032       0.89762911 </v>
   <v>       0.09158920       0.66666595       0.39784213 </v>
   <v>       0.09137837       0.66666633       0.89798922 </v>
   <v>       0.40923191       0.16666899       0.10277960 </v>
   <v>       0.40927689       0.16666667       0.60256461 </v>
   <v>       0.40937978       0.49977178       0.10264432 </v>
   <v>       0.40886728       0.49994282       0.60257562 </v>
   <v>       0.40938144       0.83356560       0.10264533 </v>
   <v>       0.40886767       0.83339050       0.60257572 </v>
   <v>       0.99637353       0.16666639       0.12662984 </v>
   <v>       0.99660423       0.16666651       0.62939586 </v>
   <v>       0.99627822       0.49983465       0.12686013 </v>
   <v>       0.99591755       0.49912327       0.62726924 </v>
   <v>       0.99627778       0.83350007       0.12686079 </v>
   <v>       0.99591767       0.83420834       0.62727075 </v>
   <v>       0.50425097       0.00112003       0.37317569 </v>
   <v>       0.50355160       0.99997403       0.87247647 </v>
   <v>       0.50425057       0.33221343       0.37317512 </v>
   <v>       0.50355205       0.33335858       0.87247683 </v>
   <v>       0.50362185       0.66666695       0.37323297 </v>
   <v>       0.50376121       0.66666721       0.87266289 </v>
   <v>       0.67361189       0.16666638       0.27910361 </v>
   <v>       0.67271931       0.16666609       0.78074095 </v>
   <v>       0.67132416       0.50115008       0.27997828 </v>
   <v>       0.67263939       0.49990975       0.78071603 </v>
   <v>       0.67132482       0.83218556       0.27997914 </v>
   <v>       0.67263928       0.83342297       0.78071641 </v>
   <v>       0.82715308       0.99941228       0.22050564 </v>
   <v>       0.82786357       0.99997225       0.71900727 </v>
   <v>       0.82715345       0.33392127       0.22050434 </v>
   <v>       0.82786357       0.33335917       0.71900523 </v>
   <v>       0.82752746       0.66666882       0.21989512 </v>
   <v>       0.82758275       0.66666667       0.71973023 </v>
   <v>       0.82932597       0.00186511       0.44313038 </v>
   <v>       0.83279901       0.00001018       0.94591550 </v>
   <v>       0.82932702       0.33148096       0.44313097 </v>
   <v>       0.83279849       0.33332167       0.94591370 </v>
   <v>       0.83211432       0.66666804       0.44599155 </v>
   <v>       0.83246041       0.66666528       0.94568912 </v>
   <v>       0.66848880       0.16666663       0.05364313 </v>
   <v>       0.66739706       0.16666624       0.55519708 </v>
   <v>       0.66797947       0.50000567       0.05440067 </v>
   <v>       0.66734570       0.50025549       0.55453877 </v>
   <v>       0.66798043       0.83332828       0.05440172 </v>
   <v>       0.66734520       0.83307774       0.55453886 </v>
   <v>       0.49665166       0.00021024       0.12702419 </v>
   <v>       0.49655895       0.99983832       0.62778804 </v>
   <v>       0.49665086       0.33312383       0.12702334 </v>
   <v>       0.49655916       0.33349513       0.62778809 </v>
   <v>       0.49629806       0.66666789       0.12683605 </v>
   <v>       0.49634590       0.66666649       0.62776190 </v>
   <v>       0.00178781       0.16666574       0.37358510 </v>
   <v>       0.00391739       0.16666606       0.87350436 </v>
   <v>       0.00416516       0.50056783       0.37282724 </v>
   <v>       0.00393427       0.50011432       0.87290111 </v>
   <v>       0.00416431       0.83276656       0.37282779 </v>
   <v>       0.00393423       0.83321884       0.87290133 </v>
   <v>       0.17254150       0.00002513       0.28077372 </v>
   <v>       0.17284898       0.99996997       0.78072399 </v>
   <v>       0.17254141       0.33330811       0.28077337 </v>
   <v>       0.17284885       0.33336340       0.78072339 </v>
   <v>       0.17308418       0.66666681       0.28041301 </v>
   <v>       0.17247536       0.66666615       0.78051852 </v>
   <v>       0.32746182       0.16666658       0.21973896 </v>
   <v>       0.32752122       0.16666695       0.71957743 </v>
   <v>       0.32774797       0.49963590       0.21970498 </v>
   <v>       0.32744146       0.50008228       0.71974948 </v>
   <v>       0.32774797       0.83369808       0.21970507 </v>
   <v>       0.32744190       0.83325057       0.71974985 </v>
   <v>       0.33213975       0.16666687       0.44616653 </v>
   <v>       0.33236427       0.16666675       0.94602653 </v>
   <v>       0.33261569       0.50000117       0.44589166 </v>
   <v>       0.33232218       0.50005398       0.94597180 </v>
   <v>       0.33261539       0.83333214       0.44589183 </v>
   <v>       0.33232250       0.83327982       0.94597250 </v>
   <v>       0.16826358       0.00010266       0.05428150 </v>
   <v>       0.16828798       0.99979640       0.55400994 </v>
   <v>       0.16826324       0.33323040       0.05428060 </v>
   <v>       0.16828796       0.33353656       0.55400946 </v>
   <v>       0.16807826       0.66666730       0.05460738 </v>
   <v>       0.16839726       0.66666648       0.55461397 </v>
   <v>       0.83798376       0.16665921       0.33582435 </v>
  </varray>
 </structure>
 <calculation>
  <scstep>
   <time name="total">  480.08  480.01</time>
   <energy>
    <i name="alphaZ">   5496.83009512 </i>
    <i name="ewald"> -87995.88266495 </i>
    <i name="hartreedc"> -33390.26125660 </i>
    <i name="XCdc">   2884.32662468 </i>
    <i name="pawpsdc"> 120018.86849157 </i>
    <i name="pawaedc">-135106.30935767 </i>
    <i name="eentropy">     -0.01430127 </i>
    <i name="bandstr">  -9048.80705320 </i>
    <i name="atom"> 132341.04863466 </i>
    <i name="e_fr_energy">   -949.63911403 </i>
    <i name="e_wo_entrp">   -949.62481276 </i>
    <i name="e_0_energy">   -949.63196339 </i>
   </energy>
  </scstep>
  <scstep>
   <time name="total">  479.01  478.95</time>
   <energy>
    <i name="e_fr_energy">   -954.82337499 </i>
    <i name="e_wo_entrp">   -954.82337499 </i>
    <i name="e_0_energy">   -954.82337499 </i>
   </energy>
  </scstep>
  <scstep>
   <time name="total">  479.05  478.97</time>
   <energy>
    <i name="e_fr_energy">   -958.05862164 </i>
    <i name="e_wo_entrp">   -958.05862164 </i>
    <i name="e_0_energy">   -958.05862164 </i>
   </energy>
  </scstep>
  <scstep>
   <time name="total">  479.60  479.53</time>
   <energy>
    <i name="e_fr_energy">   -958.70950282 </i>
    <i name="e_wo_entrp">   -958.70950282 </i>
    <i name="e_0_energy">   -958.70950282 </i>
   </energy>
  </scstep>
  <scstep>
   <time name="total">  479.07  479.00</time>
   <energy>
    <i name="e_fr_energy">   -959.13331219 </i>
    <i name="e_wo_entrp">   -959.13331219 </i>
    <i name="e_0_energy">   -959.13331219 </i>
   </energy>
  </scstep>
  <scstep>
   <time name="total">  479.77  479.69</time>
   <energy>
    <i name="e_fr_energy">   -959.26276214 </i>
    <i name="e_wo_entrp">   -959.26276214 </i>
    <i name="e_0_energy">   -959.26276214 </i>
   </energy>
  </scstep>
  <scstep>
   <time name="total">  478.49  478.43</time>
   <energy>
    <i name="e_fr_energy">   -959.30974184 </i>
    <i name="e_wo_entrp">   -959.30974184 </i>
    <i name="e_0_energy">   -959.30974184 </i>
   </energy>
  </scstep>
  <scstep>
   <time name="total">  478.99  478.91</time>
   <energy>
    <i name="e_fr_energy">   -959.32396594 </i>
    <i name="e_wo_entrp">   -959.32396594 </i>
    <i name="e_0_energy">   -959.32396594 </i>
   </energy>
  </scstep>
  <scstep>
   <time name="total">  478.45  478.37</time>
   <energy>
    <i name="e_fr_energy">   -959.32847642 </i>
    <i name="e_wo_entrp">   -959.32847642 </i>
    <i name="e_0_energy">   -959.32847642 </i>
   </energy>
  </scstep>
  <scstep>
   <time name="total">  479.45  479.39</time>
   <energy>
    <i name="e_fr_energy">   -959.33110266 </i>
    <i name="e_wo_entrp">   -959.33110266 </i>
    <i name="e_0_energy">   -959.33110266 </i>
   </energy>
  </scstep>
  <scstep>
   <time name="total">  478.86  478.79</time>
   <energy>
    <i name="e_fr_energy">   -959.33211358 </i>
    <i name="e_wo_entrp">   -959.33211358 </i>
    <i name="e_0_energy">   -959.33211358 </i>
   </energy>
  </scstep>
  <scstep>
   <time name="total">  479.66  479.59</time>
   <energy>
    <i name="e_fr_energy">   -959.33269881 </i>
    <i name="e_wo_entrp">   -959.33269881 </i>
    <i name="e_0_energy">   -959.33269881 </i>
   </energy>
  </scstep>
  <scstep>
   <time name="total">  478.69  478.60</time>
   <energy>
    <i name="e_fr_energy">   -959.33291788 </i>
    <i name="e_wo_entrp">   -959.33291788 </i>
    <i name="e_0_energy">   -959.33291788 </i>
   </energy>
  </scstep>
  <scstep>
   <time name="total">  479.15  479.07</time>
   <energy>
    <i name="e_fr_energy">   -959.33302012 </i>
    <i name="e_wo_entrp">   -959.33302012 </i>
    <i name="e_0_energy">   -959.33302012 </i>
   </energy>
  </scstep>
  <scstep>
   <time name="total">  478.83  478.74</time>
   <energy>
    <i name="e_fr_energy">   -959.33307950 </i>
    <i name="e_wo_entrp">   -959.33307950 </i>
    <i name="e_0_energy">   -959.33307950 </i>
   </energy>
  </scstep>
  <scstep>
   <time name="total">  479.01  478.93</time>
   <energy>
    <i name="e_fr_energy">   -959.33311579 </i>
    <i name="e_wo_entrp">   -959.33311579 </i>
    <i name="e_0_energy">   -959.33311579 </i>
   </energy>
  </scstep>
  <scstep>
   <time name="total">  478.98  478.90</time>
   <energy>
    <i name="e_fr_energy">   -959.33313578 </i>
    <i name="e_wo_entrp">   -959.33313578 </i>
    <i name="e_0_energy">   -959.33313578 </i>
   </energy>
  </scstep>
  <scstep>
   <time name="total">  479.10  479.02</time>
   <energy>
    <i name="e_fr_energy">   -959.33314700 </i>
    <i name="e_wo_entrp">   -959.33314700 </i>
    <i name="e_0_energy">   -959.33314700 </i>
   </energy>
  </scstep>
  <scstep>
   <time name="total">  715.68  715.57</time>
   <energy>
    <i name="alphaZ">   5496.83009512 </i>
    <i name="ewald"> -87995.88266495 </i>
    <i name="hartreedc"> -33534.32218254 </i>
    <i name="XCdc">   2891.42161923 </i>
    <i name="pawpsdc"> 120588.92688023 </i>
    <i name="pawaedc">-135850.80004088 </i>
    <i name="eentropy">     -0.00000000 </i>
    <i name="bandstr">  -8771.31564371 </i>
    <i name="atom"> 132341.04863466 </i>
    <i name="e_fr_energy">   -959.33315281 </i>
    <i name="e_wo_entrp">   -959.33315281 </i>
    <i name="e_0_energy">   -959.33315281 </i>
   </energy>
  </scstep>
  <structure>
   <crystal>
    <varray name="basis" >
     <v>       0.00000000      12.28047371       0.00000000 </v>
     <v>       9.14270115       0.00000000       0.00000000 </v>
     <v>       0.00000000      -2.76826164     -11.30069748 </v>
    </varray>
    <i name="volume">   1268.80503319 </i>
    <varray name="rec_basis" >
     <v>       0.00000000       0.08143008      -0.01994742 </v>
     <v>       0.10937687      -0.00000000       0.00000000 </v>
     <v>       0.00000000       0.00000000      -0.08849011 </v>
    </varray>
   </crystal>
   <varray name="positions" >
    <v>       0.66036804       0.00065943       0.15796592 </v>
    <v>       0.65956516       0.99997233       0.65687657 </v>
    <v>       0.66036813       0.33267485       0.15796297 </v>
    <v>       0.65956586       0.33336070       0.65687682 </v>
    <v>       0.65965831       0.66666663       0.15771750 </v>
    <v>       0.65912556       0.66666586       0.65682726 </v>
    <v>       0.84135874       0.16666061       0.84301537 </v>
    <v>       0.84102362       0.49775978       0.34435988 </v>
    <v>       0.84133892       0.49963043       0.84328622 </v>
    <v>       0.84102365       0.83557092       0.34436236 </v>
    <v>       0.84133868       0.83370033       0.84328778 </v>
    <v>       0.59485035       0.16666723       0.39735175 </v>
    <v>       0.59127380       0.16666614       0.89783734 </v>
    <v>       0.59114547       0.49954045       0.39756148 </v>
    <v>       0.59137840       0.49989557       0.89815973 </v>
    <v>       0.59114551       0.83379290       0.39756183 </v>
    <v>       0.59137888       0.83343814       0.89816033 </v>
    <v>       0.90810583       0.00038315       0.10374649 </v>
    <v>       0.90725566       0.00148074       0.59814893 </v>
    <v>       0.90810526       0.33295192       0.10374577 </v>
    <v>       0.90725414       0.33185177       0.59814522 </v>
    <v>       0.90856618       0.66666640       0.10284009 </v>
    <v>       0.90917302       0.66666471       0.60224932 </v>
    <v>       0.15864972       0.16666692       0.15718394 </v>
    <v>       0.15850452       0.16666700       0.65574855 </v>
    <v>       0.15880900       0.49957807       0.15700499 </v>
    <v>       0.15835800       0.49960812       0.65630422 </v>
    <v>       0.15880843       0.83375546       0.15700618 </v>
    <v>       0.15836055       0.83372403       0.65630598 </v>
    <v>       0.34136814       0.00034453       0.34371215 </v>
    <v>       0.34090004       0.00001538       0.84335226 </v>
    <v>       0.34136822       0.33298897       0.34371150 </v>
    <v>       0.34090008       0.33331840       0.84335215 </v>
    <v>       0.34128403       0.66666673       0.34322832 </v>
    <v>       0.34099005       0.66666631       0.84331467 </v>
    <v>       0.08871853       0.00163254       0.39726222 </v>
    <v>       0.09109471       0.00004264       0.89763018 </v>
    <v>       0.08871820       0.33170200       0.39726145 </v>
    <v>       0.09109404       0.33329032       0.89762911 </v>
    <v>       0.09158920       0.66666595       0.39784213 </v>
    <v>       0.09137837       0.66666633       0.89798922 </v>
    <v>       0.40923191       0.16666899       0.10277960 </v>
    <v>       0.40927689       0.16666667       0.60256461 </v>
    <v>       0.40937978       0.49977178       0.10264432 </v>
    <v>       0.40886728       0.49994282       0.60257562 </v>
    <v>       0.40938144       0.83356560       0.10264533 </v>
    <v>       0.40886767       0.83339050       0.60257572 </v>
    <v>       0.99637353       0.16666639       0.12662984 </v>
    <v>       0.99660423       0.16666651       0.62939586 </v>
    <v>       0.99627822       0.49983465       0.12686013 </v>
    <v>       0.99591755       0.49912327       0.62726924 </v>
    <v>       0.99627778       0.83350007       0.12686079 </v>
    <v>       0.99591767       0.83420834       0.62727075 </v>
    <v>       0.50425097       0.00112003       0.37317569 </v>
    <v>       0.50355160       0.99997403       0.87247647 </v>
    <v>       0.50425057       0.33221343       0.37317512 </v>
    <v>       0.50355205       0.33335858       0.87247683 </v>
    <v>       0.50362185       0.66666695       0.37323297 </v>
    <v>       0.50376121       0.66666721       0.87266289 </v>
    <v>       0.67361189       0.16666638       0.27910361 </v>
    <v>       0.67271931       0.16666609       0.78074095 </v>
    <v>       0.67132416       0.50115008       0.27997828 </v>
    <v>       0.67263939       0.49990975       0.78071603 </v>
    <v>       0.67132482       0.83218556       0.27997914 </v>
    <v>       0.67263928       0.83342297       0.78071641 </v>
    <v>       0.82715308       0.99941228       0.22050564 </v>
    <v>       0.82786357       0.99997225       0.71900727 </v>
    <v>       0.82715345       0.33392127       0.22050434 </v>
    <v>       0.82786357       0.33335917       0.71900523 </v>
    <v>       0.82752746       0.66666882       0.21989512 </v>
    <v>       0.82758275       0.66666667       0.71973023 </v>
    <v>       0.82932597       0.00186511       0.44313038 </v>
    <v>       0.83279901       0.00001018       0.94591550 </v>
    <v>       0.82932702       0.33148096       0.44313097 </v>
    <v>       0.83279849       0.33332167       0.94591370 </v>
    <v>       0.83211432       0.66666804       0.44599155 </v>
    <v>       0.83246041       0.66666528       0.94568912 </v>
    <v>       0.66848880       0.16666663       0.05364313 </v>
    <v>       0.66739706       0.16666624       0.55519708 </v>
    <v>       0.66797947       0.50000567       0.05440067 </v>
    <v>       0.66734570       0.50025549       0.55453877 </v>
    <v>       0.66798043       0.83332828       0.05440172 </v>
    <v>       0.66734520       0.83307774       0.55453886 </v>
    <v>       0.49665166       0.00021024       0.12702419 </v>
    <v>       0.49655895       0.99983832       0.62778804 </v>
    <v>       0.49665086       0.33312383       0.12702334 </v>
    <v>       0.49655916       0.33349513       0.62778809 </v>
    <v>       0.49629806       0.66666789       0.12683605 </v>
    <v>       0.49634590       0.66666649       0.62776190 </v>
    <v>       0.00178781       0.16666574       0.37358510 </v>
    <v>       0.00391739       0.16666606       0.87350436 </v>
    <v>       0.00416516       0.50056783       0.37282724 </v>
    <v>       0.00393427       0.50011432       0.87290111 </v>
    <v>       0.00416431       0.83276656       0.37282779 </v>
    <v>       0.00393423       0.83321884       0.87290133 </v>
    <v>       0.17254150       0.00002513       0.28077372 </v>
    <v>       0.17284898       0.99996997       0.78072399 </v>
    <v>       0.17254141       0.33330811       0.28077337 </v>
    <v>       0.17284885       0.33336340       0.78072339 </v>
    <v>       0.17308418       0.66666681       0.28041301 </v>
    <v>       0.17247536       0.66666615       0.78051852 </v>
    <v>       0.32746182       0.16666658       0.21973896 </v>
    <v>       0.32752122       0.16666695       0.71957743 </v>
    <v>       0.32774797       0.49963590       0.21970498 </v>
    <v>       0.32744146       0.50008228       0.71974948 </v>
    <v>       0.32774797       0.83369808       0.21970507 </v>
    <v>       0.32744190       0.83325057       0.71974985 </v>
    <v>       0.33213975       0.16666687       0.44616653 </v>
    <v>       0.33236427       0.16666675       0.94602653 </v>
    <v>       0.33261569       0.50000117       0.44589166 </v>
    <v>       0.33232218       0.50005398       0.94597180 </v>
    <v>       0.33261539       0.83333214       0.44589183 </v>
    <v>       0.33232250       0.83327982       0.94597250 </v>
    <v>       0.16826358       0.00010266       0.05428150 </v>
    <v>       0.16828798       0.99979640       0.55400994 </v>
    <v>       0.16826324       0.33323040       0.05428060 </v>
    <v>       0.16828796       0.33353656       0.55400946 </v>
    <v>       0.16807826       0.66666730       0.05460738 </v>
    <v>       0.16839726       0.66666648       0.55461397 </v>
    <v>       0.83798376       0.16665921       0.33582435 </v>
   </varray>
  </structure>
  <varray name="forces" >
   <v>       0.22045307       0.31747368      -0.30280812 </v>
   <v>       0.03277625       0.15504748       0.07303798 </v>
   <v>      -0.22059812       0.31744251      -0.30303281 </v>
   <v>      -0.03282266       0.15512507       0.07300123 </v>
   <v>       0.00011157       0.12807811      -0.08560373 </v>
   <v>       0.00007230       0.11913621       0.04674395 </v>
   <v>       0.00079476      -0.05900081      -0.00328292 </v>
   <v>      -0.42579597      -0.11286540      -0.06069770 </v>
   <v>      -0.03804612      -0.06762734       0.00041356 </v>
   <v>       0.42648342      -0.11287434      -0.06077571 </v>
   <v>       0.03782339      -0.06757817       0.00043555 </v>
   <v>      -0.00013188       0.29652890       0.23367669 </v>
   <v>       0.00003109       0.03110861      -0.08590701 </v>
   <v>      -0.05191197       0.09111982       0.04099008 </v>
   <v>      -0.00370833       0.00549976      -0.04237246 </v>
   <v>       0.05201342       0.09109811       0.04102359 </v>
   <v>       0.00367958       0.00546561      -0.04253951 </v>
   <v>       0.03739944      -0.18588940      -0.26516192 </v>
   <v>       0.03356963      -0.07368656       0.39257436 </v>
   <v>      -0.03766915      -0.18571903      -0.26477556 </v>
   <v>      -0.03359422      -0.07363406       0.39183607 </v>
   <v>       0.00020336      -0.01073022      -0.10296566 </v>
   <v>       0.00028828       0.01573422       0.09632946 </v>
   <v>      -0.00007040      -0.03260829      -0.05315645 </v>
   <v>      -0.00008953      -0.04898007       0.12346844 </v>
   <v>      -0.03718486       0.00552934      -0.03424073 </v>
   <v>      -0.04703499       0.00202584       0.08336394 </v>
   <v>       0.03724882       0.00562069      -0.03422802 </v>
   <v>       0.04716062       0.00164354       0.08355990 </v>
   <v>       0.02471633      -0.06579110       0.00118616 </v>
   <v>       0.01421138      -0.06958512      -0.00975308 </v>
   <v>      -0.02477190      -0.06584729       0.00112329 </v>
   <v>      -0.01428425      -0.06955198      -0.00965604 </v>
   <v>       0.00006370      -0.05522418      -0.01134739 </v>
   <v>       0.00009777      -0.06403914      -0.00821106 </v>
   <v>       0.30905345      -0.29437931       0.08143674 </v>
   <v>       0.01902010      -0.05603085       0.01300834 </v>
   <v>      -0.30951109      -0.29444491       0.08152316 </v>
   <v>      -0.01910379      -0.05608865       0.01301986 </v>
   <v>       0.00036829      -0.16926956       0.05790747 </v>
   <v>       0.00008520      -0.05841708       0.01317935 </v>
   <v>      -0.00040317       0.10337033      -0.07169236 </v>
   <v>       0.00005095       0.04143175       0.01829219 </v>
   <v>      -0.02608758       0.07711382      -0.03848134 </v>
   <v>      -0.00798644       0.04838324      -0.00351528 </v>
   <v>       0.02577525       0.07674894      -0.03834648 </v>
   <v>       0.00793515       0.04835950      -0.00348068 </v>
   <v>       0.00023524      -0.07363821       0.16313634 </v>
   <v>       0.00009788      -0.06992334       0.06065560 </v>
   <v>       0.05566808      -0.08291413       0.13146374 </v>
   <v>       0.07688508      -0.07051870       0.05449786 </v>
   <v>      -0.05590360      -0.08292214       0.13153644 </v>
   <v>      -0.07687110      -0.07055395       0.05459798 </v>
   <v>      -0.07833386       0.08430893      -0.13455506 </v>
   <v>      -0.01178547       0.13764584      -0.09985607 </v>
   <v>       0.07840612       0.08442087      -0.13453984 </v>
   <v>       0.01189786       0.13757151      -0.09982964 </v>
   <v>      -0.00006543       0.10746048      -0.10833614 </v>
   <v>      -0.00009535       0.13108409      -0.09568534 </v>
   <v>       0.00001927      -1.02642266       0.15304675 </v>
   <v>      -0.00006226      -0.06800622      -0.12174381 </v>
   <v>       0.08779429      -0.14122281      -0.08210849 </v>
   <v>       0.01632650      -0.06087383      -0.12357398 </v>
   <v>      -0.08796545      -0.14133997      -0.08216028 </v>
   <v>      -0.01628388      -0.06079525      -0.12357926 </v>
   <v>      -0.57098682       0.17199462       0.74628873 </v>
   <v>      -0.01194336      -0.02522132       0.02162067 </v>
   <v>       0.57058052       0.17178991       0.74603133 </v>
   <v>       0.01195536      -0.02526016       0.02149903 </v>
   <v>      -0.00028196       0.04386782       0.16960149 </v>
   <v>      -0.00006007       0.02567467       0.08780855 </v>
   <v>      -0.86828703       0.33655820      -0.82128167 </v>
   <v>      -0.01335978       0.40694405      -0.00186711 </v>
   <v>       0.86592921       0.33647821      -0.82012489 </v>
   <v>       0.01309662       0.40708784      -0.00200073 </v>
   <v>      -0.00018757       0.39420285      -0.09438308 </v>
   <v>       0.00008069       0.40280276      -0.05290273 </v>
   <v>      -0.00000021      -0.45009750       0.26694625 </v>
   <v>       0.00006002      -0.46147958      -0.00676138 </v>
   <v>       0.04461587      -0.44030367       0.17768358 </v>
   <v>       0.03420929      -0.45768624       0.03459184 </v>
   <v>      -0.04459908      -0.44040568       0.17783395 </v>
   <v>      -0.03420534      -0.45759104       0.03447175 </v>
   <v>      -0.05278431      -0.28383915       0.17629936 </v>
   <v>      -0.00659610      -0.22694592       0.11403001 </v>
   <v>       0.05344133      -0.28369472       0.17623093 </v>
   <v>       0.00657190      -0.22694354       0.11404261 </v>
   <v>      -0.00008659      -0.25084721       0.13883787 </v>
   <v>       0.00001529      -0.22390726       0.11527619 </v>
   <v>       0.00022066       1.38465878      -0.41537141 </v>
   <v>      -0.00001512       0.22213795      -0.11654822 </v>
   <v>       0.09918079       0.28106445      -0.14719196 </v>
   <v>       0.01478231       0.21512310      -0.12660561 </v>
   <v>      -0.09939424       0.28134429      -0.14727349 </v>
   <v>      -0.01479382       0.21509210      -0.12664763 </v>
   <v>      -0.05024330       0.07937927      -0.05322849 </v>
   <v>      -0.01714031      -0.00666276      -0.15068446 </v>
   <v>       0.05029107       0.07938378      -0.05319802 </v>
   <v>       0.01712288      -0.00671653      -0.15072790 </v>
   <v>      -0.00001802       0.00769907      -0.12529266 </v>
   <v>       0.00002974      -0.01445263      -0.14451144 </v>
   <v>       0.00007256       0.04485247       0.13039379 </v>
   <v>      -0.00002279       0.04577076       0.09485383 </v>
   <v>       0.02432829       0.04517403       0.12547768 </v>
   <v>       0.01014423       0.04763638       0.10535807 </v>
   <v>      -0.02436600       0.04520290       0.12541314 </v>
   <v>      -0.01012148       0.04763370       0.10538909 </v>
   <v>       0.00000520       0.42461608      -0.10049425 </v>
   <v>       0.00004935       0.39170983      -0.04291254 </v>
   <v>       0.01770210       0.39908537      -0.09759356 </v>
   <v>       0.00698887       0.38936847      -0.04999340 </v>
   <v>      -0.01771220       0.39912085      -0.09765871 </v>
   <v>      -0.00701749       0.38939649      -0.04991469 </v>
   <v>      -0.02156464      -0.38197062       0.10303421 </v>
   <v>      -0.04879641      -0.36631529      -0.04842754 </v>
   <v>       0.02163423      -0.38193982       0.10298139 </v>
   <v>       0.04882356      -0.36637253      -0.04829185 </v>
   <v>      -0.00007891      -0.36968146       0.10081961 </v>
   <v>      -0.00003033      -0.37263537       0.03278414 </v>
   <v>       0.00211728      -0.13446374       0.17822420 </v>
  </varray>
  <varray name="stress" >
   <v>     -39.18601063       0.00189343       0.00157706 </v>
   <v>       0.00189369     -35.08064502       1.29752770 </v>
   <v>       0.00157762       1.29752803     -33.53897065 </v>
  </varray>
  <energy>
   <i name="e_fr_energy">   -959.33315281 </i>
   <i name="e_wo_entrp">   -959.33315281 </i>
   <i name="e_0_energy">   -959.33315281 </i>
  </energy>
  <time name="totalsc"> 9950.60 9951.44</time>
  <eigenvalues>
   <array>
    <dimension dim="1">band</dimension>
    <dimension dim="2">kpoint</dimension>
    <dimension dim="3">spin</dimension>
    <field>eigene</field>
    <field>occ</field>
    <set>
     <set comment="spin 1">
      <set comment="kpoint 1">
       <r>  -18.7432    1.0000 </r>
       <r>  -18.4683    1.0000 </r>
       <r>  -18.4104    1.0000 </r>
       <r>  -18.2253    1.0000 </r>
       <r>  -18.1647    1.0000 </r>
       <r>  -18.0586    1.0000 </r>
       <r>  -18.0562    1.0000 </r>
       <r>  -17.9537    1.0000 </r>
       <r>  -17.8850    1.0000 </r>
       <r>  -17.8630    1.0000 </r>
       <r>  -17.8592    1.0000 </r>
       <r>  -17.8226    1.0000 </r>
       <r>  -17.8135    1.0000 </r>
       <r>  -17.7688    1.0000 </r>
       <r>  -17.7657    1.0000 </r>
       <r>  -17.7170    1.0000 </r>
       <r>  -17.6558    1.0000 </r>
       <r>  -17.6557    1.0000 </r>
       <r>  -17.6209    1.0000 </r>
       <r>  -17.5976    1.0000 </r>
       <r>  -17.5755    1.0000 </r>
       <r>  -17.5583    1.0000 </r>
       <r>  -17.5406    1.0000 </r>
       <r>  -17.5242    1.0000 </r>
       <r>  -17.4746    1.0000 </r>
       <r>  -17.4688    1.0000 </r>
       <r>  -17.4633    1.0000 </r>
       <r>  -17.4622    1.0000 </r>
       <r>  -17.4260    1.0000 </r>
       <r>  -17.4055    1.0000 </r>
       <r>  -17.4053    1.0000 </r>
       <r>  -17.3702    1.0000 </r>
       <r>  -17.3677    1.0000 </r>
       <r>  -17.3431    1.0000 </r>
       <r>  -17.3160    1.0000 </r>
       <r>  -17.3137    1.0000 </r>
       <r>  -17.3090    1.0000 </r>
       <r>  -17.3012    1.0000 </r>
       <r>  -17.2752    1.0000 </r>
       <r>  -17.2598    1.0000 </r>
       <r>  -17.2376    1.0000 </r>
       <r>  -17.2135    1.0000 </r>
       <r>  -17.2038    1.0000 </r>
       <r>  -17.1856    1.0000 </r>
       <r>  -17.1700    1.0000 </r>
       <r>  -17.1465    1.0000 </r>
       <r>  -17.1451    1.0000 </r>
       <r>  -17.0845    1.0000 </r>
       <r>  -17.0797    1.0000 </r>
       <r>  -17.0735    1.0000 </r>
       <r>  -17.0654    1.0000 </r>
       <r>  -17.0574    1.0000 </r>
       <r>  -17.0399    1.0000 </r>
       <r>  -17.0299    1.0000 </r>
       <r>  -17.0175    1.0000 </r>
       <r>  -17.0145    1.0000 </r>
       <r>  -17.0129    1.0000 </r>
       <r>  -16.9701    1.0000 </r>
       <r>  -16.9655    1.0000 </r>
       <r>  -16.9476    1.0000 </r>
       <r>  -16.9341    1.0000 </r>
       <r>  -16.9126    1.0000 </r>
       <r>  -16.9104    1.0000 </r>
       <r>  -16.9078    1.0000 </r>
       <r>  -16.8704    1.0000 </r>
       <r>  -16.8573    1.0000 </r>
       <r>  -16.7787    1.0000 </r>
       <r>  -16.7650    1.0000 </r>
       <r>  -16.6440    1.0000 </r>
       <r>  -16.6135    1.0000 </r>
       <r>  -16.1179    1.0000 </r>
       <r>  -16.0773    1.0000 </r>
       <r>  -13.1827    1.0000 </r>
       <r>  -13.1780    1.0000 </r>
       <r>  -13.1628    1.0000 </r>
       <r>  -13.1625    1.0000 </r>
       <r>  -13.1402    1.0000 </r>
       <r>  -13.1339    1.0000 </r>
       <r>  -13.1305    1.0000 </r>
       <r>  -13.1064    1.0000 </r>
       <r>  -13.1048    1.0000 </r>
       <r>  -13.0939    1.0000 </r>
       <r>  -13.0898    1.0000 </r>
       <r>  -13.0866    1.0000 </r>
       <r>  -13.0854    1.0000 </r>
       <r>  -13.0811    1.0000 </r>
       <r>  -13.0772    1.0000 </r>
       <r>  -13.0595    1.0000 </r>
       <r>  -13.0562    1.0000 </r>
       <r>  -13.0548    1.0000 </r>
       <r>  -13.0514    1.0000 </r>
       <r>  -13.0485    1.0000 </r>
       <r>  -13.0476    1.0000 </r>
       <r>  -13.0422    1.0000 </r>
       <r>  -13.0416    1.0000 </r>
       <r>  -13.0364    1.0000 </r>
       <r>  -13.0343    1.0000 </r>
       <r>  -13.0311    1.0000 </r>
       <r>  -13.0308    1.0000 </r>
       <r>  -13.0223    1.0000 </r>
       <r>  -13.0219    1.0000 </r>
       <r>  -13.0147    1.0000 </r>
       <r>  -13.0123    1.0000 </r>
       <r>  -13.0118    1.0000 </r>
       <r>  -13.0036    1.0000 </r>
       <r>  -13.0025    1.0000 </r>
       <r>  -12.9971    1.0000 </r>
       <r>  -12.9929    1.0000 </r>
       <r>  -12.9877    1.0000 </r>
       <r>  -12.9850    1.0000 </r>
       <r>  -12.9828    1.0000 </r>
       <r>  -12.9776    1.0000 </r>
       <r>  -12.9766    1.0000 </r>
       <r>  -12.9761    1.0000 </r>
       <r>  -12.9749    1.0000 </r>
       <r>  -12.9699    1.0000 </r>
       <r>  -12.9588    1.0000 </r>
       <r>  -12.9559    1.0000 </r>
       <r>  -12.9531    1.0000 </r>
       <r>  -12.9530    1.0000 </r>
       <r>  -12.9471    1.0000 </r>
       <r>  -12.9456    1.0000 </r>
       <r>  -12.9446    1.0000 </r>
       <r>  -12.9340    1.0000 </r>
       <r>  -12.9329    1.0000 </r>
       <r>  -12.9325    1.0000 </r>
       <r>  -12.9264    1.0000 </r>
       <r>  -12.9259    1.0000 </r>
       <r>  -12.9240    1.0000 </r>
       <r>  -12.9217    1.0000 </r>
       <r>  -12.9185    1.0000 </r>
       <r>  -12.9152    1.0000 </r>
       <r>  -12.9133    1.0000 </r>
       <r>  -12.9099    1.0000 </r>
       <r>  -12.9067    1.0000 </r>
       <r>  -12.9020    1.0000 </r>
       <r>  -12.9018    1.0000 </r>
       <r>  -12.8979    1.0000 </r>
       <r>  -12.8955    1.0000 </r>
       <r>  -12.8930    1.0000 </r>
       <r>  -12.8872    1.0000 </r>
       <r>  -12.8863    1.0000 </r>
       <r>  -12.8842    1.0000 </r>
       <r>  -12.8836    1.0000 </r>
       <r>  -12.8792    1.0000 </r>
       <r>  -12.8732    1.0000 </r>
       <r>  -12.8730    1.0000 </r>
       <r>  -12.8687    1.0000 </r>
       <r>  -12.8666    1.0000 </r>
       <r>  -12.8660    1.0000 </r>
       <r>  -12.8624    1.0000 </r>
       <r>  -12.8577    1.0000 </r>
       <r>  -12.8535    1.0000 </r>
       <r>  -12.8497    1.0000 </r>
       <r>  -12.8476    1.0000 </r>
       <r>  -12.8391    1.0000 </r>
       <r>  -12.8379    1.0000 </r>
       <r>  -12.8378    1.0000 </r>
       <r>  -12.8348    1.0000 </r>
       <r>  -12.8338    1.0000 </r>
       <r>  -12.8317    1.0000 </r>
       <r>  -12.8278    1.0000 </r>
       <r>  -12.8251    1.0000 </r>
       <r>  -12.8232    1.0000 </r>
       <r>  -12.8142    1.0000 </r>
       <r>  -12.8132    1.0000 </r>
       <r>  -12.8116    1.0000 </r>
       <r>  -12.8101    1.0000 </r>
       <r>  -12.8092    1.0000 </r>
       <r>  -12.8053    1.0000 </r>
       <r>  -12.7988    1.0000 </r>
       <r>  -12.7979    1.0000 </r>
       <r>  -12.7918    1.0000 </r>
       <r>  -12.7902    1.0000 </r>
       <r>  -12.7890    1.0000 </r>
       <r>  -12.7860    1.0000 </r>
       <r>  -12.7827    1.0000 </r>
       <r>  -12.7793    1.0000 </r>
       <r>  -12.7766    1.0000 </r>
       <r>  -12.7765    1.0000 </r>
       <r>  -12.7723    1.0000 </r>
       <r>  -12.7713    1.0000 </r>
       <r>  -12.7688    1.0000 </r>
       <r>  -12.7634    1.0000 </r>
       <r>  -12.7585    1.0000 </r>
       <r>  -12.7573    1.0000 </r>
       <r>  -12.7570    1.0000 </r>
       <r>  -12.7521    1.0000 </r>
       <r>  -12.7488    1.0000 </r>
       <r>  -12.7479    1.0000 </r>
       <r>  -12.7455    1.0000 </r>
       <r>  -12.7446    1.0000 </r>
       <r>  -12.7423    1.0000 </r>
       <r>  -12.7360    1.0000 </r>
       <r>  -12.7316    1.0000 </r>
       <r>  -12.7307    1.0000 </r>
       <r>  -12.7277    1.0000 </r>
       <r>  -12.7254    1.0000 </r>
       <r>  -12.7251    1.0000 </r>
       <r>  -12.7232    1.0000 </r>
       <r>  -12.7217    1.0000 </r>
       <r>  -12.7191    1.0000 </r>
       <r>  -12.7166    1.0000 </r>
       <r>  -12.7152    1.0000 </r>
       <r>  -12.7105    1.0000 </r>
       <r>  -12.7086    1.0000 </r>
       <r>  -12.7076    1.0000 </r>
       <r>  -12.7056    1.0000 </r>
       <r>  -12.7047    1.0000 </r>
       <r>  -12.7039    1.0000 </r>
       <r>  -12.6989    1.0000 </r>
       <r>  -12.6931    1.0000 </r>
       <r>  -12.6915    1.0000 </r>
       <r>  -12.6909    1.0000 </r>
       <r>  -12.6868    1.0000 </r>
       <r>  -12.6866    1.0000 </r>
       <r>  -12.6810    1.0000 </r>
       <r>  -12.6707    1.0000 </r>
       <r>  -12.6706    1.0000 </r>
       <r>  -12.6649    1.0000 </r>
       <r>  -12.6639    1.0000 </r>
       <r>  -12.6596    1.0000 </r>
       <r>  -12.6555    1.0000 </r>
       <r>  -12.6511    1.0000 </r>
       <r>  -12.6491    1.0000 </r>
       <r>  -12.6489    1.0000 </r>
       <r>  -12.6430    1.0000 </r>
       <r>  -12.6417    1.0000 </r>
       <r>  -12.6369    1.0000 </r>
       <r>  -12.6336    1.0000 </r>
       <r>  -12.6256    1.0000 </r>
       <r>  -12.6144    1.0000 </r>
       <r>  -12.6132    1.0000 </r>
       <r>  -12.6042    1.0000 </r>
       <r>  -12.6035    1.0000 </r>
       <r>  -12.6030    1.0000 </r>
       <r>  -12.6008    1.0000 </r>
       <r>  -12.5850    1.0000 </r>
       <r>  -12.5763    1.0000 </r>
       <r>  -12.5713    1.0000 </r>
       <r>  -12.5692    1.0000 </r>
       <r>  -12.5639    1.0000 </r>
       <r>  -12.5561    1.0000 </r>
       <r>  -12.5552    1.0000 </r>
       <r>  -12.5479    1.0000 </r>
       <r>  -12.5410    1.0000 </r>
       <r>  -12.5410    1.0000 </r>
       <r>  -12.5185    1.0000 </r>
       <r>  -12.5108    1.0000 </r>
       <r>  -12.5042    1.0000 </r>
       <r>  -12.4993    1.0000 </r>
       <r>  -12.4992    1.0000 </r>
       <r>  -12.4817    1.0000 </r>
       <r>  -12.4800    1.0000 </r>
       <r>  -12.4730    1.0000 </r>
       <r>  -12.4655    1.0000 </r>
       <r>  -12.4631    1.0000 </r>
       <r>  -12.4542    1.0000 </r>
       <r>  -12.4431    1.0000 </r>
       <r>  -12.4296    1.0000 </r>
       <r>  -12.4244    1.0000 </r>
       <r>  -12.4185    1.0000 </r>
       <r>  -12.4160    1.0000 </r>
       <r>  -12.3949    1.0000 </r>
       <r>  -12.3682    1.0000 </r>
       <r>  -12.3630    1.0000 </r>
       <r>  -12.3464    1.0000 </r>
       <r>  -12.3343    1.0000 </r>
       <r>  -12.3171    1.0000 </r>
       <r>  -12.3167    1.0000 </r>
       <r>  -12.3143    1.0000 </r>
       <r>  -12.3060    1.0000 </r>
       <r>  -12.2962    1.0000 </r>
       <r>  -12.2909    1.0000 </r>
       <r>  -12.2884    1.0000 </r>
       <r>  -12.2583    1.0000 </r>
       <r>  -12.2392    1.0000 </r>
       <r>  -12.2377    1.0000 </r>
       <r>  -12.2226    1.0000 </r>
       <r>  -12.2221    1.0000 </r>
       <r>  -12.2031    1.0000 </r>
       <r>  -12.1790    1.0000 </r>
       <r>  -12.1777    1.0000 </r>
       <r>  -12.1290    1.0000 </r>
       <r>  -12.1024    1.0000 </r>
       <r>  -12.0558    1.0000 </r>
       <r>  -12.0552    1.0000 </r>
       <r>  -12.0138    1.0000 </r>
       <r>  -12.0056    1.0000 </r>
       <r>  -11.9734    1.0000 </r>
       <r>  -11.9672    1.0000 </r>
       <r>  -11.9613    1.0000 </r>
       <r>  -11.9482    1.0000 </r>
       <r>  -11.9410    1.0000 </r>
       <r>  -11.9187    1.0000 </r>
       <r>  -11.9148    1.0000 </r>
       <r>  -11.8977    1.0000 </r>
       <r>  -11.8767    1.0000 </r>
       <r>  -11.8644    1.0000 </r>
       <r>  -11.8609    1.0000 </r>
       <r>  -11.8191    1.0000 </r>
       <r>  -11.8034    1.0000 </r>
       <r>  -11.8009    1.0000 </r>
       <r>  -11.7659    1.0000 </r>
       <r>  -11.6984    1.0000 </r>
       <r>  -11.6339    1.0000 </r>
       <r>  -11.5953    1.0000 </r>
       <r>   -5.2492    1.0000 </r>
       <r>   -5.1389    1.0000 </r>
       <r>   -4.9057    1.0000 </r>
       <r>   -4.8986    1.0000 </r>
       <r>   -4.5905    1.0000 </r>
       <r>   -4.5801    1.0000 </r>
       <r>   -4.4936    1.0000 </r>
       <r>   -4.4851    1.0000 </r>
       <r>   -4.4540    1.0000 </r>
       <r>   -4.4491    1.0000 </r>
       <r>   -4.3654    1.0000 </r>
       <r>   -4.2810    1.0000 </r>
       <r>   -4.2706    1.0000 </r>
       <r>   -4.2589    1.0000 </r>
       <r>   -4.2468    1.0000 </r>
       <r>   -4.2349    1.0000 </r>
       <r>   -4.1884    1.0000 </r>
       <r>   -4.1719    1.0000 </r>
       <r>   -4.0534    1.0000 </r>
       <r>   -4.0274    1.0000 </r>
       <r>   -3.8996    1.0000 </r>
       <r>   -3.8677    1.0000 </r>
       <r>   -3.8248    1.0000 </r>
       <r>   -3.8239    1.0000 </r>
       <r>   -3.7670    1.0000 </r>
       <r>   -3.7142    1.0000 </r>
       <r>   -3.6687    1.0000 </r>
       <r>   -3.6009    1.0000 </r>
       <r>   -3.5898    1.0000 </r>
       <r>   -3.5621    1.0000 </r>
       <r>   -3.5558    1.0000 </r>
       <r>   -3.5158    1.0000 </r>
       <r>   -3.5021    1.0000 </r>
       <r>   -3.3376    1.0000 </r>
       <r>   -3.2620    1.0000 </r>
       <r>   -3.2520    1.0000 </r>
       <r>   -3.2432    1.0000 </r>
       <r>   -3.1857    1.0000 </r>
       <r>   -3.1646    1.0000 </r>
       <r>   -3.1513    1.0000 </r>
       <r>   -3.1324    1.0000 </r>
       <r>   -2.9501    1.0000 </r>
       <r>   -2.9390    1.0000 </r>
       <r>   -2.7984    1.0000 </r>
       <r>   -2.7425    1.0000 </r>
       <r>   -2.6457    1.0000 </r>
       <r>   -2.5664    1.0000 </r>
       <r>   -2.5589    1.0000 </r>
       <r>   -2.5331    1.0000 </r>
       <r>   -2.4970    1.0000 </r>
       <r>   -2.4580    1.0000 </r>
       <r>   -2.4193    1.0000 </r>
       <r>   -2.4080    1.0000 </r>
       <r>   -2.3448    1.0000 </r>
       <r>   -2.3340    1.0000 </r>
       <r>   -2.2994    1.0000 </r>
       <r>   -2.2906    1.0000 </r>
       <r>   -2.2516    1.0000 </r>
       <r>   -2.2437    1.0000 </r>
       <r>   -2.1001    1.0000 </r>
       <r>   -2.0345    1.0000 </r>
       <r>   -2.0014    1.0000 </r>
       <r>   -1.9761    1.0000 </r>
       <r>   -1.9126    1.0000 </r>
       <r>   -1.8643    1.0000 </r>
       <r>   -1.8629    1.0000 </r>
       <r>   -1.7928    1.0000 </r>
       <r>   -1.7723    1.0000 </r>
       <r>   -1.7199    1.0000 </r>
       <r>   -1.7092    1.0000 </r>
       <r>   -1.6802    1.0000 </r>
       <r>   -1.6690    1.0000 </r>
       <r>   -1.6464    1.0000 </r>
       <r>   -1.5824    1.0000 </r>
       <r>   -1.5722    1.0000 </r>
       <r>   -1.5233    1.0000 </r>
       <r>   -1.4750    1.0000 </r>
       <r>   -1.3854    1.0000 </r>
       <r>   -1.3676    1.0000 </r>
       <r>   -1.3328    1.0000 </r>
       <r>   -1.2566    1.0000 </r>
       <r>   -1.2436    1.0000 </r>
       <r>   -1.2258    1.0000 </r>
       <r>   -1.1708    1.0000 </r>
       <r>   -1.1343    1.0000 </r>
       <r>   -1.1169    1.0000 </r>
       <r>   -1.0474    1.0000 </r>
       <r>   -1.0417    1.0000 </r>
       <r>   -0.9965    1.0000 </r>
       <r>   -0.9758    1.0000 </r>
       <r>   -0.9655    1.0000 </r>
       <r>   -0.9067    1.0000 </r>
       <r>   -0.8198    1.0000 </r>
       <r>   -0.8160    1.0000 </r>
       <r>   -0.6983    1.0000 </r>
       <r>   -0.6762    1.0000 </r>
       <r>   -0.6714    1.0000 </r>
       <r>   -0.6510    1.0000 </r>
       <r>   -0.6503    1.0000 </r>
       <r>   -0.6144    1.0000 </r>
       <r>   -0.6017    1.0000 </r>
       <r>   -0.5866    1.0000 </r>
       <r>   -0.5669    1.0000 </r>
       <r>   -0.5605    1.0000 </r>
       <r>   -0.4898    1.0000 </r>
       <r>   -0.4247    1.0000 </r>
       <r>   -0.4239    1.0000 </r>
       <r>   -0.3436    1.0000 </r>
       <r>   -0.3357    1.0000 </r>
       <r>   -0.3194    1.0000 </r>
       <r>   -0.3089    1.0000 </r>
       <r>   -0.2926    1.0000 </r>
       <r>   -0.2860    1.0000 </r>
       <r>   -0.2620    1.0000 </r>
       <r>   -0.2558    1.0000 </r>
       <r>   -0.2492    1.0000 </r>
       <r>   -0.2175    1.0000 </r>
       <r>   -0.2011    1.0000 </r>
       <r>   -0.1659    1.0000 </r>
       <r>   -0.1370    1.0000 </r>
       <r>   -0.1229    1.0000 </r>
       <r>   -0.0967    1.0000 </r>
       <r>   -0.0695    1.0000 </r>
       <r>   -0.0522    1.0000 </r>
       <r>   -0.0314    1.0000 </r>
       <r>   -0.0130    1.0000 </r>
       <r>    0.0186    1.0000 </r>
       <r>    0.0295    1.0000 </r>
       <r>    0.0413    1.0000 </r>
       <r>    0.1026    1.0000 </r>
       <r>    0.1081    1.0000 </r>
       <r>    0.1143    1.0000 </r>
       <r>    0.1457    1.0000 </r>
       <r>    0.2478    1.0000 </r>
       <r>    0.2775    1.0000 </r>
       <r>    0.3230    1.0000 </r>
       <r>    0.3499    1.0000 </r>
       <r>    0.3942    1.0000 </r>
       <r>    0.3951    1.0000 </r>
       <r>    0.4891    1.0000 </r>
       <r>    0.4913    1.0000 </r>
       <r>    0.5404    1.0000 </r>
       <r>    0.5616    1.0000 </r>
       <r>    0.5650    1.0000 </r>
       <r>    0.5749    1.0000 </r>
       <r>    0.5964    1.0000 </r>
       <r>    0.6206    1.0000 </r>
       <r>    0.6546    1.0000 </r>
       <r>    0.6873    1.0000 </r>
       <r>    0.6895    1.0000 </r>
       <r>    0.7257    1.0000 </r>
       <r>    0.7405    1.0000 </r>
       <r>    0.7445    1.0000 </r>
       <r>    0.7548    1.0000 </r>
       <r>    0.7884    1.0000 </r>
       <r>    0.7898    1.0000 </r>
       <r>    0.7988    1.0000 </r>
       <r>    0.8171    1.0000 </r>
       <r>    0.8232    1.0000 </r>
       <r>    0.8475    1.0000 </r>
       <r>    0.8584    1.0000 </r>
       <r>    0.8606    1.0000 </r>
       <r>    0.8949    1.0000 </r>
       <r>    0.9439    1.0000 </r>
       <r>    0.9657    1.0000 </r>
       <r>    0.9975    1.0000 </r>
       <r>    1.0185    1.0000 </r>
       <r>    1.0384    1.0000 </r>
       <r>    1.0771    1.0000 </r>
       <r>    1.0886    1.0000 </r>
       <r>    1.1250    1.0000 </r>
       <r>    1.1354    1.0000 </r>
       <r>    1.1647    1.0000 </r>
       <r>    1.1924    1.0000 </r>
       <r>    1.2201    1.0000 </r>
       <r>    1.2387    1.0000 </r>
       <r>    1.2486    1.0000 </r>
       <r>    1.2653    1.0000 </r>
       <r>    1.2731    1.0000 </r>
       <r>    1.2949    1.0000 </r>
       <r>    1.3026    1.0000 </r>
       <r>    1.3149    1.0000 </r>
       <r>    1.3212    1.0000 </r>
       <r>    1.3308    1.0000 </r>
       <r>    1.3433    1.0000 </r>
       <r>    1.3833    1.0000 </r>
       <r>    1.3959    1.0000 </r>
       <r>    1.4088    1.0000 </r>
       <r>    1.4313    1.0000 </r>
       <r>    1.4691    1.0000 </r>
       <r>    1.4842    1.0000 </r>
       <r>    1.4846    1.0000 </r>
       <r>    1.5012    1.0000 </r>
       <r>    1.5181    1.0000 </r>
       <r>    1.5253    1.0000 </r>
       <r>    1.5346    1.0000 </r>
       <r>    1.5387    1.0000 </r>
       <r>    1.5464    1.0000 </r>
       <r>    1.5844    1.0000 </r>
       <r>    1.5937    1.0000 </r>
       <r>    1.6433    1.0000 </r>
       <r>    1.6707    1.0000 </r>
       <r>    1.6781    1.0000 </r>
       <r>    1.7068    1.0000 </r>
       <r>    1.7157    1.0000 </r>
       <r>    1.7581    1.0000 </r>
       <r>    1.7900    1.0000 </r>
       <r>    1.8285    1.0000 </r>
       <r>    1.8343    1.0000 </r>
       <r>    1.8456    1.0000 </r>
       <r>    1.9159    1.0000 </r>
       <r>    1.9256    1.0000 </r>
       <r>    1.9787    1.0000 </r>
       <r>    2.0462    1.0000 </r>
       <r>    2.0748    1.0000 </r>
       <r>    2.3476    1.0000 </r>
       <r>    4.8448    1.0000 </r>
       <r>    4.9581    1.0000 </r>
       <r>    5.0957    1.0000 </r>
       <r>    6.7204    0.0000 </r>
       <r>    8.9402    0.0000 </r>
       <r>    9.1182    0.0000 </r>
       <r>    9.2178    0.0000 </r>
       <r>    9.2967    0.0000 </r>
       <r>    9.6812    0.0000 </r>
       <r>    9.7720    0.0000 </r>
       <r>   10.1535    0.0000 </r>
       <r>   10.1917    0.0000 </r>
       <r>   10.1926    0.0000 </r>
       <r>   10.2464    0.0000 </r>
       <r>   10.3684    0.0000 </r>
       <r>   10.3878    0.0000 </r>
       <r>   10.5296    0.0000 </r>
       <r>   10.5442    0.0000 </r>
       <r>   10.6667    0.0000 </r>
       <r>   10.6989    0.0000 </r>
       <r>   10.7260    0.0000 </r>
       <r>   10.7290    0.0000 </r>
       <r>   10.7919    0.0000 </r>
       <r>   10.8054    0.0000 </r>
       <r>   10.8766    0.0000 </r>
       <r>   10.8803    0.0000 </r>
       <r>   10.9481    0.0000 </r>
       <r>   11.0949    0.0000 </r>
       <r>   11.1206    0.0000 </r>
       <r>   11.1272    0.0000 </r>
       <r>   11.1868    0.0000 </r>
       <r>   11.2636    0.0000 </r>
       <r>   11.3404    0.0000 </r>
       <r>   11.3998    0.0000 </r>
       <r>   11.4382    0.0000 </r>
       <r>   11.5049    0.0000 </r>
       <r>   11.5562    0.0000 </r>
       <r>   11.7062    0.0000 </r>
       <r>   11.7574    0.0000 </r>
       <r>   11.8108    0.0000 </r>
       <r>   11.8987    0.0000 </r>
       <r>   12.0042    0.0000 </r>
       <r>   12.0108    0.0000 </r>
       <r>   12.0418    0.0000 </r>
       <r>   12.0676    0.0000 </r>
       <r>   12.1145    0.0000 </r>
       <r>   12.1833    0.0000 </r>
       <r>   12.2428    0.0000 </r>
       <r>   12.3230    0.0000 </r>
       <r>   12.3495    0.0000 </r>
       <r>   12.3503    0.0000 </r>
       <r>   12.4179    0.0000 </r>
       <r>   12.4662    0.0000 </r>
       <r>   12.5497    0.0000 </r>
       <r>   12.7882    0.0000 </r>
       <r>   12.9940    0.0000 </r>
       <r>   13.0835    0.0000 </r>
       <r>   13.0999    0.0000 </r>
       <r>   13.1544    0.0000 </r>
       <r>   13.2417    0.0000 </r>
       <r>   13.2452    0.0000 </r>
       <r>   13.3388    0.0000 </r>
       <r>   13.3704    0.0000 </r>
       <r>   13.3910    0.0000 </r>
       <r>   13.4838    0.0000 </r>
       <r>   13.4982    0.0000 </r>
       <r>   13.6037    0.0000 </r>
       <r>   13.6612    0.0000 </r>
       <r>   13.6734    0.0000 </r>
       <r>   13.7037    0.0000 </r>
       <r>   13.8565    0.0000 </r>
       <r>   13.8578    0.0000 </r>
       <r>   13.8632    0.0000 </r>
       <r>   13.8928    0.0000 </r>
       <r>   13.9298    0.0000 </r>
       <r>   13.9681    0.0000 </r>
       <r>   14.0018    0.0000 </r>
       <r>   14.0506    0.0000 </r>
       <r>   14.1042    0.0000 </r>
       <r>   14.1197    0.0000 </r>
       <r>   14.1674    0.0000 </r>
       <r>   14.1764    0.0000 </r>
       <r>   14.2124    0.0000 </r>
       <r>   14.2824    0.0000 </r>
       <r>   14.3154    0.0000 </r>
       <r>   14.3566    0.0000 </r>
       <r>   14.3656    0.0000 </r>
       <r>   14.5819    0.0000 </r>
       <r>   14.5914    0.0000 </r>
       <r>   14.6522    0.0000 </r>
       <r>   14.6746    0.0000 </r>
       <r>   14.7000    0.0000 </r>
       <r>   14.7045    0.0000 </r>
       <r>   14.7407    0.0000 </r>
       <r>   14.7927    0.0000 </r>
       <r>   14.8621    0.0000 </r>
       <r>   14.8755    0.0000 </r>
       <r>   15.0404    0.0000 </r>
       <r>   15.0533    0.0000 </r>
       <r>   15.1158    0.0000 </r>
       <r>   15.1810    0.0000 </r>
       <r>   15.2280    0.0000 </r>
       <r>   15.5044    0.0000 </r>
       <r>   15.5599    0.0000 </r>
       <r>   15.6188    0.0000 </r>
       <r>   15.6767    0.0000 </r>
       <r>   15.7891    0.0000 </r>
       <r>   15.9005    0.0000 </r>
      </set>
      <set comment="kpoint 2">
       <r>  -18.6770    1.0000 </r>
       <r>  -18.5772    1.0000 </r>
       <r>  -18.4508    1.0000 </r>
       <r>  -18.2529    1.0000 </r>
       <r>  -18.0198    1.0000 </r>
       <r>  -18.0134    1.0000 </r>
       <r>  -17.9534    1.0000 </r>
       <r>  -17.9465    1.0000 </r>
       <r>  -17.9402    1.0000 </r>
       <r>  -17.9223    1.0000 </r>
       <r>  -17.8679    1.0000 </r>
       <r>  -17.8616    1.0000 </r>
       <r>  -17.8472    1.0000 </r>
       <r>  -17.7853    1.0000 </r>
       <r>  -17.7148    1.0000 </r>
       <r>  -17.6895    1.0000 </r>
       <r>  -17.6685    1.0000 </r>
       <r>  -17.6519    1.0000 </r>
       <r>  -17.6219    1.0000 </r>
       <r>  -17.6214    1.0000 </r>
       <r>  -17.5997    1.0000 </r>
       <r>  -17.5724    1.0000 </r>
       <r>  -17.5645    1.0000 </r>
       <r>  -17.5198    1.0000 </r>
       <r>  -17.5184    1.0000 </r>
       <r>  -17.4852    1.0000 </r>
       <r>  -17.4807    1.0000 </r>
       <r>  -17.4143    1.0000 </r>
       <r>  -17.4141    1.0000 </r>
       <r>  -17.3855    1.0000 </r>
       <r>  -17.3714    1.0000 </r>
       <r>  -17.3580    1.0000 </r>
       <r>  -17.3573    1.0000 </r>
       <r>  -17.3461    1.0000 </r>
       <r>  -17.3291    1.0000 </r>
       <r>  -17.3146    1.0000 </r>
       <r>  -17.3027    1.0000 </r>
       <r>  -17.3001    1.0000 </r>
       <r>  -17.2820    1.0000 </r>
       <r>  -17.2729    1.0000 </r>
       <r>  -17.2307    1.0000 </r>
       <r>  -17.2151    1.0000 </r>
       <r>  -17.1943    1.0000 </r>
       <r>  -17.1757    1.0000 </r>
       <r>  -17.1624    1.0000 </r>
       <r>  -17.1475    1.0000 </r>
       <r>  -17.1448    1.0000 </r>
       <r>  -17.1052    1.0000 </r>
       <r>  -17.0811    1.0000 </r>
       <r>  -17.0709    1.0000 </r>
       <r>  -17.0637    1.0000 </r>
       <r>  -17.0628    1.0000 </r>
       <r>  -17.0386    1.0000 </r>
       <r>  -17.0333    1.0000 </r>
       <r>  -17.0215    1.0000 </r>
       <r>  -17.0153    1.0000 </r>
       <r>  -17.0096    1.0000 </r>
       <r>  -16.9697    1.0000 </r>
       <r>  -16.9646    1.0000 </r>
       <r>  -16.9482    1.0000 </r>
       <r>  -16.9340    1.0000 </r>
       <r>  -16.9123    1.0000 </r>
       <r>  -16.9082    1.0000 </r>
       <r>  -16.9074    1.0000 </r>
       <r>  -16.8690    1.0000 </r>
       <r>  -16.8587    1.0000 </r>
       <r>  -16.7786    1.0000 </r>
       <r>  -16.7653    1.0000 </r>
       <r>  -16.6455    1.0000 </r>
       <r>  -16.6126    1.0000 </r>
       <r>  -16.1179    1.0000 </r>
       <r>  -16.0773    1.0000 </r>
       <r>  -13.1827    1.0000 </r>
       <r>  -13.1786    1.0000 </r>
       <r>  -13.1623    1.0000 </r>
       <r>  -13.1473    1.0000 </r>
       <r>  -13.1408    1.0000 </r>
       <r>  -13.1403    1.0000 </r>
       <r>  -13.1340    1.0000 </r>
       <r>  -13.1074    1.0000 </r>
       <r>  -13.1054    1.0000 </r>
       <r>  -13.0900    1.0000 </r>
       <r>  -13.0882    1.0000 </r>
       <r>  -13.0873    1.0000 </r>
       <r>  -13.0860    1.0000 </r>
       <r>  -13.0811    1.0000 </r>
       <r>  -13.0777    1.0000 </r>
       <r>  -13.0631    1.0000 </r>
       <r>  -13.0594    1.0000 </r>
       <r>  -13.0558    1.0000 </r>
       <r>  -13.0532    1.0000 </r>
       <r>  -13.0510    1.0000 </r>
       <r>  -13.0447    1.0000 </r>
       <r>  -13.0387    1.0000 </r>
       <r>  -13.0349    1.0000 </r>
       <r>  -13.0337    1.0000 </r>
       <r>  -13.0317    1.0000 </r>
       <r>  -13.0301    1.0000 </r>
       <r>  -13.0288    1.0000 </r>
       <r>  -13.0245    1.0000 </r>
       <r>  -13.0245    1.0000 </r>
       <r>  -13.0155    1.0000 </r>
       <r>  -13.0122    1.0000 </r>
       <r>  -13.0108    1.0000 </r>
       <r>  -13.0056    1.0000 </r>
       <r>  -13.0008    1.0000 </r>
       <r>  -12.9952    1.0000 </r>
       <r>  -12.9923    1.0000 </r>
       <r>  -12.9913    1.0000 </r>
       <r>  -12.9832    1.0000 </r>
       <r>  -12.9804    1.0000 </r>
       <r>  -12.9781    1.0000 </r>
       <r>  -12.9758    1.0000 </r>
       <r>  -12.9727    1.0000 </r>
       <r>  -12.9672    1.0000 </r>
       <r>  -12.9653    1.0000 </r>
       <r>  -12.9591    1.0000 </r>
       <r>  -12.9539    1.0000 </r>
       <r>  -12.9536    1.0000 </r>
       <r>  -12.9524    1.0000 </r>
       <r>  -12.9477    1.0000 </r>
       <r>  -12.9472    1.0000 </r>
       <r>  -12.9401    1.0000 </r>
       <r>  -12.9385    1.0000 </r>
       <r>  -12.9340    1.0000 </r>
       <r>  -12.9303    1.0000 </r>
       <r>  -12.9285    1.0000 </r>
       <r>  -12.9259    1.0000 </r>
       <r>  -12.9247    1.0000 </r>
       <r>  -12.9198    1.0000 </r>
       <r>  -12.9176    1.0000 </r>
       <r>  -12.9156    1.0000 </r>
       <r>  -12.9128    1.0000 </r>
       <r>  -12.9079    1.0000 </r>
       <r>  -12.9072    1.0000 </r>
       <r>  -12.9005    1.0000 </r>
       <r>  -12.8985    1.0000 </r>
       <r>  -12.8969    1.0000 </r>
       <r>  -12.8958    1.0000 </r>
       <r>  -12.8914    1.0000 </r>
       <r>  -12.8881    1.0000 </r>
       <r>  -12.8862    1.0000 </r>
       <r>  -12.8846    1.0000 </r>
       <r>  -12.8803    1.0000 </r>
       <r>  -12.8782    1.0000 </r>
       <r>  -12.8735    1.0000 </r>
       <r>  -12.8711    1.0000 </r>
       <r>  -12.8696    1.0000 </r>
       <r>  -12.8691    1.0000 </r>
       <r>  -12.8632    1.0000 </r>
       <r>  -12.8602    1.0000 </r>
       <r>  -12.8564    1.0000 </r>
       <r>  -12.8520    1.0000 </r>
       <r>  -12.8499    1.0000 </r>
       <r>  -12.8466    1.0000 </r>
       <r>  -12.8433    1.0000 </r>
       <r>  -12.8407    1.0000 </r>
       <r>  -12.8376    1.0000 </r>
       <r>  -12.8352    1.0000 </r>
       <r>  -12.8342    1.0000 </r>
       <r>  -12.8336    1.0000 </r>
       <r>  -12.8265    1.0000 </r>
       <r>  -12.8238    1.0000 </r>
       <r>  -12.8232    1.0000 </r>
       <r>  -12.8147    1.0000 </r>
       <r>  -12.8146    1.0000 </r>
       <r>  -12.8123    1.0000 </r>
       <r>  -12.8117    1.0000 </r>
       <r>  -12.8097    1.0000 </r>
       <r>  -12.8069    1.0000 </r>
       <r>  -12.7982    1.0000 </r>
       <r>  -12.7945    1.0000 </r>
       <r>  -12.7933    1.0000 </r>
       <r>  -12.7905    1.0000 </r>
       <r>  -12.7897    1.0000 </r>
       <r>  -12.7863    1.0000 </r>
       <r>  -12.7830    1.0000 </r>
       <r>  -12.7817    1.0000 </r>
       <r>  -12.7785    1.0000 </r>
       <r>  -12.7777    1.0000 </r>
       <r>  -12.7734    1.0000 </r>
       <r>  -12.7730    1.0000 </r>
       <r>  -12.7646    1.0000 </r>
       <r>  -12.7561    1.0000 </r>
       <r>  -12.7543    1.0000 </r>
       <r>  -12.7511    1.0000 </r>
       <r>  -12.7503    1.0000 </r>
       <r>  -12.7481    1.0000 </r>
       <r>  -12.7478    1.0000 </r>
       <r>  -12.7454    1.0000 </r>
       <r>  -12.7416    1.0000 </r>
       <r>  -12.7401    1.0000 </r>
       <r>  -12.7384    1.0000 </r>
       <r>  -12.7352    1.0000 </r>
       <r>  -12.7348    1.0000 </r>
       <r>  -12.7331    1.0000 </r>
       <r>  -12.7314    1.0000 </r>
       <r>  -12.7287    1.0000 </r>
       <r>  -12.7246    1.0000 </r>
       <r>  -12.7241    1.0000 </r>
       <r>  -12.7216    1.0000 </r>
       <r>  -12.7170    1.0000 </r>
       <r>  -12.7159    1.0000 </r>
       <r>  -12.7152    1.0000 </r>
       <r>  -12.7139    1.0000 </r>
       <r>  -12.7113    1.0000 </r>
       <r>  -12.7111    1.0000 </r>
       <r>  -12.7097    1.0000 </r>
       <r>  -12.7058    1.0000 </r>
       <r>  -12.7041    1.0000 </r>
       <r>  -12.7036    1.0000 </r>
       <r>  -12.6986    1.0000 </r>
       <r>  -12.6900    1.0000 </r>
       <r>  -12.6897    1.0000 </r>
       <r>  -12.6876    1.0000 </r>
       <r>  -12.6829    1.0000 </r>
       <r>  -12.6811    1.0000 </r>
       <r>  -12.6787    1.0000 </r>
       <r>  -12.6748    1.0000 </r>
       <r>  -12.6669    1.0000 </r>
       <r>  -12.6615    1.0000 </r>
       <r>  -12.6581    1.0000 </r>
       <r>  -12.6571    1.0000 </r>
       <r>  -12.6556    1.0000 </r>
       <r>  -12.6473    1.0000 </r>
       <r>  -12.6463    1.0000 </r>
       <r>  -12.6394    1.0000 </r>
       <r>  -12.6380    1.0000 </r>
       <r>  -12.6352    1.0000 </r>
       <r>  -12.6287    1.0000 </r>
       <r>  -12.6283    1.0000 </r>
       <r>  -12.6166    1.0000 </r>
       <r>  -12.6090    1.0000 </r>
       <r>  -12.6080    1.0000 </r>
       <r>  -12.6077    1.0000 </r>
       <r>  -12.6046    1.0000 </r>
       <r>  -12.5939    1.0000 </r>
       <r>  -12.5889    1.0000 </r>
       <r>  -12.5821    1.0000 </r>
       <r>  -12.5738    1.0000 </r>
       <r>  -12.5720    1.0000 </r>
       <r>  -12.5643    1.0000 </r>
       <r>  -12.5594    1.0000 </r>
       <r>  -12.5553    1.0000 </r>
       <r>  -12.5500    1.0000 </r>
       <r>  -12.5483    1.0000 </r>
       <r>  -12.5472    1.0000 </r>
       <r>  -12.5297    1.0000 </r>
       <r>  -12.5291    1.0000 </r>
       <r>  -12.5253    1.0000 </r>
       <r>  -12.5055    1.0000 </r>
       <r>  -12.5020    1.0000 </r>
       <r>  -12.4991    1.0000 </r>
       <r>  -12.4941    1.0000 </r>
       <r>  -12.4882    1.0000 </r>
       <r>  -12.4797    1.0000 </r>
       <r>  -12.4681    1.0000 </r>
       <r>  -12.4532    1.0000 </r>
       <r>  -12.4493    1.0000 </r>
       <r>  -12.4371    1.0000 </r>
       <r>  -12.4352    1.0000 </r>
       <r>  -12.4295    1.0000 </r>
       <r>  -12.4221    1.0000 </r>
       <r>  -12.4216    1.0000 </r>
       <r>  -12.4149    1.0000 </r>
       <r>  -12.4132    1.0000 </r>
       <r>  -12.3764    1.0000 </r>
       <r>  -12.3449    1.0000 </r>
       <r>  -12.3372    1.0000 </r>
       <r>  -12.3278    1.0000 </r>
       <r>  -12.3045    1.0000 </r>
       <r>  -12.2955    1.0000 </r>
       <r>  -12.2667    1.0000 </r>
       <r>  -12.2599    1.0000 </r>
       <r>  -12.2542    1.0000 </r>
       <r>  -12.2408    1.0000 </r>
       <r>  -12.2279    1.0000 </r>
       <r>  -12.2089    1.0000 </r>
       <r>  -12.1873    1.0000 </r>
       <r>  -12.1627    1.0000 </r>
       <r>  -12.1608    1.0000 </r>
       <r>  -12.1472    1.0000 </r>
       <r>  -12.1187    1.0000 </r>
       <r>  -12.0858    1.0000 </r>
       <r>  -12.0828    1.0000 </r>
       <r>  -12.0726    1.0000 </r>
       <r>  -12.0693    1.0000 </r>
       <r>  -12.0140    1.0000 </r>
       <r>  -11.9942    1.0000 </r>
       <r>  -11.9797    1.0000 </r>
       <r>  -11.9768    1.0000 </r>
       <r>  -11.9641    1.0000 </r>
       <r>  -11.9372    1.0000 </r>
       <r>  -11.9173    1.0000 </r>
       <r>  -11.9156    1.0000 </r>
       <r>  -11.8872    1.0000 </r>
       <r>  -11.8742    1.0000 </r>
       <r>  -11.8699    1.0000 </r>
       <r>  -11.8561    1.0000 </r>
       <r>  -11.8478    1.0000 </r>
       <r>  -11.8404    1.0000 </r>
       <r>  -11.8199    1.0000 </r>
       <r>  -11.8173    1.0000 </r>
       <r>  -11.7977    1.0000 </r>
       <r>  -11.7110    1.0000 </r>
       <r>  -11.6954    1.0000 </r>
       <r>  -11.6289    1.0000 </r>
       <r>   -5.2405    1.0000 </r>
       <r>   -5.1282    1.0000 </r>
       <r>   -4.8067    1.0000 </r>
       <r>   -4.8065    1.0000 </r>
       <r>   -4.6837    1.0000 </r>
       <r>   -4.6807    1.0000 </r>
       <r>   -4.4234    1.0000 </r>
       <r>   -4.4146    1.0000 </r>
       <r>   -4.3455    1.0000 </r>
       <r>   -4.3356    1.0000 </r>
       <r>   -4.3338    1.0000 </r>
       <r>   -4.3051    1.0000 </r>
       <r>   -4.2751    1.0000 </r>
       <r>   -4.2540    1.0000 </r>
       <r>   -4.2144    1.0000 </r>
       <r>   -4.2057    1.0000 </r>
       <r>   -4.1995    1.0000 </r>
       <r>   -4.1657    1.0000 </r>
       <r>   -4.1505    1.0000 </r>
       <r>   -4.1396    1.0000 </r>
       <r>   -4.1107    1.0000 </r>
       <r>   -4.0975    1.0000 </r>
       <r>   -4.0546    1.0000 </r>
       <r>   -4.0450    1.0000 </r>
       <r>   -3.9624    1.0000 </r>
       <r>   -3.7558    1.0000 </r>
       <r>   -3.6775    1.0000 </r>
       <r>   -3.5334    1.0000 </r>
       <r>   -3.4689    1.0000 </r>
       <r>   -3.4679    1.0000 </r>
       <r>   -3.4197    1.0000 </r>
       <r>   -3.3249    1.0000 </r>
       <r>   -3.2393    1.0000 </r>
       <r>   -3.2370    1.0000 </r>
       <r>   -3.2282    1.0000 </r>
       <r>   -3.1969    1.0000 </r>
       <r>   -3.1886    1.0000 </r>
       <r>   -3.1569    1.0000 </r>
       <r>   -3.1456    1.0000 </r>
       <r>   -3.1317    1.0000 </r>
       <r>   -3.0709    1.0000 </r>
       <r>   -3.0349    1.0000 </r>
       <r>   -2.9399    1.0000 </r>
       <r>   -2.8359    1.0000 </r>
       <r>   -2.7339    1.0000 </r>
       <r>   -2.7326    1.0000 </r>
       <r>   -2.6348    1.0000 </r>
       <r>   -2.6111    1.0000 </r>
       <r>   -2.5976    1.0000 </r>
       <r>   -2.5675    1.0000 </r>
       <r>   -2.5493    1.0000 </r>
       <r>   -2.5315    1.0000 </r>
       <r>   -2.5009    1.0000 </r>
       <r>   -2.2968    1.0000 </r>
       <r>   -2.2851    1.0000 </r>
       <r>   -2.2294    1.0000 </r>
       <r>   -2.1931    1.0000 </r>
       <r>   -2.1882    1.0000 </r>
       <r>   -2.1499    1.0000 </r>
       <r>   -2.1147    1.0000 </r>
       <r>   -2.0201    1.0000 </r>
       <r>   -2.0065    1.0000 </r>
       <r>   -1.9290    1.0000 </r>
       <r>   -1.8596    1.0000 </r>
       <r>   -1.8396    1.0000 </r>
       <r>   -1.8146    1.0000 </r>
       <r>   -1.7859    1.0000 </r>
       <r>   -1.7236    1.0000 </r>
       <r>   -1.7084    1.0000 </r>
       <r>   -1.6606    1.0000 </r>
       <r>   -1.6399    1.0000 </r>
       <r>   -1.6183    1.0000 </r>
       <r>   -1.4785    1.0000 </r>
       <r>   -1.4755    1.0000 </r>
       <r>   -1.4399    1.0000 </r>
       <r>   -1.4339    1.0000 </r>
       <r>   -1.4213    1.0000 </r>
       <r>   -1.3846    1.0000 </r>
       <r>   -1.3701    1.0000 </r>
       <r>   -1.3486    1.0000 </r>
       <r>   -1.3201    1.0000 </r>
       <r>   -1.2813    1.0000 </r>
       <r>   -1.1826    1.0000 </r>
       <r>   -1.1689    1.0000 </r>
       <r>   -1.1220    1.0000 </r>
       <r>   -1.1023    1.0000 </r>
       <r>   -1.0804    1.0000 </r>
       <r>   -1.0661    1.0000 </r>
       <r>   -1.0469    1.0000 </r>
       <r>   -1.0084    1.0000 </r>
       <r>   -0.9698    1.0000 </r>
       <r>   -0.9488    1.0000 </r>
       <r>   -0.9241    1.0000 </r>
       <r>   -0.8694    1.0000 </r>
       <r>   -0.8606    1.0000 </r>
       <r>   -0.8054    1.0000 </r>
       <r>   -0.8008    1.0000 </r>
       <r>   -0.7830    1.0000 </r>
       <r>   -0.7431    1.0000 </r>
       <r>   -0.7393    1.0000 </r>
       <r>   -0.7049    1.0000 </r>
       <r>   -0.6918    1.0000 </r>
       <r>   -0.6660    1.0000 </r>
       <r>   -0.6490    1.0000 </r>
       <r>   -0.6307    1.0000 </r>
       <r>   -0.6042    1.0000 </r>
       <r>   -0.5060    1.0000 </r>
       <r>   -0.4828    1.0000 </r>
       <r>   -0.4446    1.0000 </r>
       <r>   -0.4182    1.0000 </r>
       <r>   -0.2662    1.0000 </r>
       <r>   -0.2604    1.0000 </r>
       <r>   -0.2488    1.0000 </r>
       <r>   -0.2472    1.0000 </r>
       <r>   -0.2399    1.0000 </r>
       <r>   -0.2112    1.0000 </r>
       <r>   -0.1779    1.0000 </r>
       <r>   -0.1624    1.0000 </r>
       <r>   -0.1157    1.0000 </r>
       <r>   -0.1126    1.0000 </r>
       <r>   -0.0680    1.0000 </r>
       <r>   -0.0413    1.0000 </r>
       <r>   -0.0359    1.0000 </r>
       <r>    0.0025    1.0000 </r>
       <r>    0.0267    1.0000 </r>
       <r>    0.0339    1.0000 </r>
       <r>    0.0443    1.0000 </r>
       <r>    0.0897    1.0000 </r>
       <r>    0.0966    1.0000 </r>
       <r>    0.0994    1.0000 </r>
       <r>    0.1312    1.0000 </r>
       <r>    0.1326    1.0000 </r>
       <r>    0.1918    1.0000 </r>
       <r>    0.2194    1.0000 </r>
       <r>    0.2505    1.0000 </r>
       <r>    0.2578    1.0000 </r>
       <r>    0.3636    1.0000 </r>
       <r>    0.4008    1.0000 </r>
       <r>    0.4663    1.0000 </r>
       <r>    0.5351    1.0000 </r>
       <r>    0.5388    1.0000 </r>
       <r>    0.5481    1.0000 </r>
       <r>    0.5877    1.0000 </r>
       <r>    0.6099    1.0000 </r>
       <r>    0.6255    1.0000 </r>
       <r>    0.6527    1.0000 </r>
       <r>    0.6702    1.0000 </r>
       <r>    0.6891    1.0000 </r>
       <r>    0.6997    1.0000 </r>
       <r>    0.7093    1.0000 </r>
       <r>    0.7191    1.0000 </r>
       <r>    0.7557    1.0000 </r>
       <r>    0.7838    1.0000 </r>
       <r>    0.8002    1.0000 </r>
       <r>    0.8204    1.0000 </r>
       <r>    0.8342    1.0000 </r>
       <r>    0.8725    1.0000 </r>
       <r>    0.9337    1.0000 </r>
       <r>    0.9374    1.0000 </r>
       <r>    0.9560    1.0000 </r>
       <r>    0.9657    1.0000 </r>
       <r>    0.9658    1.0000 </r>
       <r>    1.0082    1.0000 </r>
       <r>    1.0150    1.0000 </r>
       <r>    1.0209    1.0000 </r>
       <r>    1.0394    1.0000 </r>
       <r>    1.0612    1.0000 </r>
       <r>    1.1149    1.0000 </r>
       <r>    1.1174    1.0000 </r>
       <r>    1.1427    1.0000 </r>
       <r>    1.1502    1.0000 </r>
       <r>    1.1613    1.0000 </r>
       <r>    1.1672    1.0000 </r>
       <r>    1.1848    1.0000 </r>
       <r>    1.2017    1.0000 </r>
       <r>    1.2059    1.0000 </r>
       <r>    1.2336    1.0000 </r>
       <r>    1.2647    1.0000 </r>
       <r>    1.2676    1.0000 </r>
       <r>    1.2686    1.0000 </r>
       <r>    1.2976    1.0000 </r>
       <r>    1.3039    1.0000 </r>
       <r>    1.3257    1.0000 </r>
       <r>    1.3327    1.0000 </r>
       <r>    1.3508    1.0000 </r>
       <r>    1.3694    1.0000 </r>
       <r>    1.3720    1.0000 </r>
       <r>    1.3747    1.0000 </r>
       <r>    1.3768    1.0000 </r>
       <r>    1.3991    1.0000 </r>
       <r>    1.4106    1.0000 </r>
       <r>    1.4121    1.0000 </r>
       <r>    1.4236    1.0000 </r>
       <r>    1.4332    1.0000 </r>
       <r>    1.4401    1.0000 </r>
       <r>    1.4693    1.0000 </r>
       <r>    1.5115    1.0000 </r>
       <r>    1.5364    1.0000 </r>
       <r>    1.5393    1.0000 </r>
       <r>    1.5709    1.0000 </r>
       <r>    1.5771    1.0000 </r>
       <r>    1.5807    1.0000 </r>
       <r>    1.6039    1.0000 </r>
       <r>    1.6377    1.0000 </r>
       <r>    1.6587    1.0000 </r>
       <r>    1.7606    1.0000 </r>
       <r>    1.8214    1.0000 </r>
       <r>    1.8297    1.0000 </r>
       <r>    1.8457    1.0000 </r>
       <r>    1.8700    1.0000 </r>
       <r>    1.9067    1.0000 </r>
       <r>    1.9111    1.0000 </r>
       <r>    1.9528    1.0000 </r>
       <r>    2.0252    1.0000 </r>
       <r>    2.0406    1.0000 </r>
       <r>    2.3341    1.0000 </r>
       <r>    4.8446    1.0000 </r>
       <r>    4.9596    1.0000 </r>
       <r>    5.0953    1.0000 </r>
       <r>    7.4587    0.0000 </r>
       <r>    7.6074    0.0000 </r>
       <r>    9.2184    0.0000 </r>
       <r>    9.2525    0.0000 </r>
       <r>    9.7178    0.0000 </r>
       <r>    9.7299    0.0000 </r>
       <r>    9.9277    0.0000 </r>
       <r>   10.0371    0.0000 </r>
       <r>   10.1900    0.0000 </r>
       <r>   10.1914    0.0000 </r>
       <r>   10.2896    0.0000 </r>
       <r>   10.3146    0.0000 </r>
       <r>   10.5388    0.0000 </r>
       <r>   10.5501    0.0000 </r>
       <r>   10.5852    0.0000 </r>
       <r>   10.6230    0.0000 </r>
       <r>   10.6347    0.0000 </r>
       <r>   10.6537    0.0000 </r>
       <r>   10.7398    0.0000 </r>
       <r>   10.7747    0.0000 </r>
       <r>   10.8127    0.0000 </r>
       <r>   10.8509    0.0000 </r>
       <r>   10.8728    0.0000 </r>
       <r>   10.9720    0.0000 </r>
       <r>   11.1486    0.0000 </r>
       <r>   11.1782    0.0000 </r>
       <r>   11.1924    0.0000 </r>
       <r>   11.2107    0.0000 </r>
       <r>   11.2538    0.0000 </r>
       <r>   11.2729    0.0000 </r>
       <r>   11.3137    0.0000 </r>
       <r>   11.3696    0.0000 </r>
       <r>   11.3737    0.0000 </r>
       <r>   11.4677    0.0000 </r>
       <r>   11.4869    0.0000 </r>
       <r>   11.7544    0.0000 </r>
       <r>   11.8200    0.0000 </r>
       <r>   11.9710    0.0000 </r>
       <r>   12.0527    0.0000 </r>
       <r>   12.1402    0.0000 </r>
       <r>   12.2431    0.0000 </r>
       <r>   12.2759    0.0000 </r>
       <r>   12.3400    0.0000 </r>
       <r>   12.3896    0.0000 </r>
       <r>   12.4085    0.0000 </r>
       <r>   12.4471    0.0000 </r>
       <r>   12.4580    0.0000 </r>
       <r>   12.4925    0.0000 </r>
       <r>   12.5232    0.0000 </r>
       <r>   12.5444    0.0000 </r>
       <r>   12.5779    0.0000 </r>
       <r>   12.6929    0.0000 </r>
       <r>   12.7721    0.0000 </r>
       <r>   12.8027    0.0000 </r>
       <r>   12.8646    0.0000 </r>
       <r>   13.0170    0.0000 </r>
       <r>   13.1093    0.0000 </r>
       <r>   13.2644    0.0000 </r>
       <r>   13.3272    0.0000 </r>
       <r>   13.3496    0.0000 </r>
       <r>   13.4054    0.0000 </r>
       <r>   13.4772    0.0000 </r>
       <r>   13.4859    0.0000 </r>
       <r>   13.5558    0.0000 </r>
       <r>   13.6117    0.0000 </r>
       <r>   13.6483    0.0000 </r>
       <r>   13.6529    0.0000 </r>
       <r>   13.7017    0.0000 </r>
       <r>   13.7830    0.0000 </r>
       <r>   13.8138    0.0000 </r>
       <r>   13.8299    0.0000 </r>
       <r>   13.8856    0.0000 </r>
       <r>   13.9146    0.0000 </r>
       <r>   13.9457    0.0000 </r>
       <r>   14.0095    0.0000 </r>
       <r>   14.0228    0.0000 </r>
       <r>   14.0512    0.0000 </r>
       <r>   14.0926    0.0000 </r>
       <r>   14.1161    0.0000 </r>
       <r>   14.2075    0.0000 </r>
       <r>   14.2202    0.0000 </r>
       <r>   14.2576    0.0000 </r>
       <r>   14.3065    0.0000 </r>
       <r>   14.3613    0.0000 </r>
       <r>   14.4254    0.0000 </r>
       <r>   14.4501    0.0000 </r>
       <r>   14.5911    0.0000 </r>
       <r>   14.7714    0.0000 </r>
       <r>   14.7992    0.0000 </r>
       <r>   14.8509    0.0000 </r>
       <r>   14.8766    0.0000 </r>
       <r>   14.8858    0.0000 </r>
       <r>   14.9574    0.0000 </r>
       <r>   15.0405    0.0000 </r>
       <r>   15.0723    0.0000 </r>
       <r>   15.0916    0.0000 </r>
       <r>   15.1282    0.0000 </r>
       <r>   15.5375    0.0000 </r>
       <r>   15.5538    0.0000 </r>
       <r>   15.6195    0.0000 </r>
       <r>   15.6532    0.0000 </r>
       <r>   15.6831    0.0000 </r>
       <r>   15.6905    0.0000 </r>
       <r>   15.7670    0.0000 </r>
       <r>   15.8004    0.0000 </r>
      </set>
      <set comment="kpoint 3">
       <r>  -18.5629    1.0000 </r>
       <r>  -18.5212    1.0000 </r>
       <r>  -18.3117    1.0000 </r>
       <r>  -18.2654    1.0000 </r>
       <r>  -18.2488    1.0000 </r>
       <r>  -18.2133    1.0000 </r>
       <r>  -18.1072    1.0000 </r>
       <r>  -18.0572    1.0000 </r>
       <r>  -18.0489    1.0000 </r>
       <r>  -17.9317    1.0000 </r>
       <r>  -17.8606    1.0000 </r>
       <r>  -17.7952    1.0000 </r>
       <r>  -17.7830    1.0000 </r>
       <r>  -17.7020    1.0000 </r>
       <r>  -17.6890    1.0000 </r>
       <r>  -17.6501    1.0000 </r>
       <r>  -17.6326    1.0000 </r>
       <r>  -17.6117    1.0000 </r>
       <r>  -17.5603    1.0000 </r>
       <r>  -17.5470    1.0000 </r>
       <r>  -17.5330    1.0000 </r>
       <r>  -17.5269    1.0000 </r>
       <r>  -17.5244    1.0000 </r>
       <r>  -17.5030    1.0000 </r>
       <r>  -17.5018    1.0000 </r>
       <r>  -17.4894    1.0000 </r>
       <r>  -17.4734    1.0000 </r>
       <r>  -17.4318    1.0000 </r>
       <r>  -17.4179    1.0000 </r>
       <r>  -17.4117    1.0000 </r>
       <r>  -17.3987    1.0000 </r>
       <r>  -17.3893    1.0000 </r>
       <r>  -17.3571    1.0000 </r>
       <r>  -17.3564    1.0000 </r>
       <r>  -17.3538    1.0000 </r>
       <r>  -17.3353    1.0000 </r>
       <r>  -17.3070    1.0000 </r>
       <r>  -17.2977    1.0000 </r>
       <r>  -17.2848    1.0000 </r>
       <r>  -17.2527    1.0000 </r>
       <r>  -17.2464    1.0000 </r>
       <r>  -17.2431    1.0000 </r>
       <r>  -17.2108    1.0000 </r>
       <r>  -17.2078    1.0000 </r>
       <r>  -17.1951    1.0000 </r>
       <r>  -17.1124    1.0000 </r>
       <r>  -17.1069    1.0000 </r>
       <r>  -17.0962    1.0000 </r>
       <r>  -17.0920    1.0000 </r>
       <r>  -17.0691    1.0000 </r>
       <r>  -17.0514    1.0000 </r>
       <r>  -17.0502    1.0000 </r>
       <r>  -17.0430    1.0000 </r>
       <r>  -17.0411    1.0000 </r>
       <r>  -17.0190    1.0000 </r>
       <r>  -16.9879    1.0000 </r>
       <r>  -16.9838    1.0000 </r>
       <r>  -16.9695    1.0000 </r>
       <r>  -16.9653    1.0000 </r>
       <r>  -16.9404    1.0000 </r>
       <r>  -16.9282    1.0000 </r>
       <r>  -16.9242    1.0000 </r>
       <r>  -16.9191    1.0000 </r>
       <r>  -16.8935    1.0000 </r>
       <r>  -16.8857    1.0000 </r>
       <r>  -16.8587    1.0000 </r>
       <r>  -16.8209    1.0000 </r>
       <r>  -16.7279    1.0000 </r>
       <r>  -16.6450    1.0000 </r>
       <r>  -16.6238    1.0000 </r>
       <r>  -16.1281    1.0000 </r>
       <r>  -16.0663    1.0000 </r>
       <r>  -13.1777    1.0000 </r>
       <r>  -13.1731    1.0000 </r>
       <r>  -13.1592    1.0000 </r>
       <r>  -13.1555    1.0000 </r>
       <r>  -13.1305    1.0000 </r>
       <r>  -13.1300    1.0000 </r>
       <r>  -13.1206    1.0000 </r>
       <r>  -13.1140    1.0000 </r>
       <r>  -13.1125    1.0000 </r>
       <r>  -13.1070    1.0000 </r>
       <r>  -13.1038    1.0000 </r>
       <r>  -13.0921    1.0000 </r>
       <r>  -13.0887    1.0000 </r>
       <r>  -13.0797    1.0000 </r>
       <r>  -13.0761    1.0000 </r>
       <r>  -13.0734    1.0000 </r>
       <r>  -13.0721    1.0000 </r>
       <r>  -13.0686    1.0000 </r>
       <r>  -13.0616    1.0000 </r>
       <r>  -13.0594    1.0000 </r>
       <r>  -13.0549    1.0000 </r>
       <r>  -13.0525    1.0000 </r>
       <r>  -13.0425    1.0000 </r>
       <r>  -13.0401    1.0000 </r>
       <r>  -13.0329    1.0000 </r>
       <r>  -13.0294    1.0000 </r>
       <r>  -13.0230    1.0000 </r>
       <r>  -13.0195    1.0000 </r>
       <r>  -13.0128    1.0000 </r>
       <r>  -13.0116    1.0000 </r>
       <r>  -13.0064    1.0000 </r>
       <r>  -13.0044    1.0000 </r>
       <r>  -13.0011    1.0000 </r>
       <r>  -12.9954    1.0000 </r>
       <r>  -12.9942    1.0000 </r>
       <r>  -12.9900    1.0000 </r>
       <r>  -12.9886    1.0000 </r>
       <r>  -12.9789    1.0000 </r>
       <r>  -12.9744    1.0000 </r>
       <r>  -12.9735    1.0000 </r>
       <r>  -12.9731    1.0000 </r>
       <r>  -12.9716    1.0000 </r>
       <r>  -12.9658    1.0000 </r>
       <r>  -12.9602    1.0000 </r>
       <r>  -12.9580    1.0000 </r>
       <r>  -12.9573    1.0000 </r>
       <r>  -12.9500    1.0000 </r>
       <r>  -12.9495    1.0000 </r>
       <r>  -12.9481    1.0000 </r>
       <r>  -12.9472    1.0000 </r>
       <r>  -12.9425    1.0000 </r>
       <r>  -12.9394    1.0000 </r>
       <r>  -12.9344    1.0000 </r>
       <r>  -12.9342    1.0000 </r>
       <r>  -12.9299    1.0000 </r>
       <r>  -12.9289    1.0000 </r>
       <r>  -12.9276    1.0000 </r>
       <r>  -12.9230    1.0000 </r>
       <r>  -12.9199    1.0000 </r>
       <r>  -12.9175    1.0000 </r>
       <r>  -12.9166    1.0000 </r>
       <r>  -12.9140    1.0000 </r>
       <r>  -12.9079    1.0000 </r>
       <r>  -12.9049    1.0000 </r>
       <r>  -12.9035    1.0000 </r>
       <r>  -12.9006    1.0000 </r>
       <r>  -12.8987    1.0000 </r>
       <r>  -12.8915    1.0000 </r>
       <r>  -12.8898    1.0000 </r>
       <r>  -12.8896    1.0000 </r>
       <r>  -12.8865    1.0000 </r>
       <r>  -12.8831    1.0000 </r>
       <r>  -12.8812    1.0000 </r>
       <r>  -12.8790    1.0000 </r>
       <r>  -12.8707    1.0000 </r>
       <r>  -12.8664    1.0000 </r>
       <r>  -12.8636    1.0000 </r>
       <r>  -12.8631    1.0000 </r>
       <r>  -12.8590    1.0000 </r>
       <r>  -12.8576    1.0000 </r>
       <r>  -12.8560    1.0000 </r>
       <r>  -12.8554    1.0000 </r>
       <r>  -12.8547    1.0000 </r>
       <r>  -12.8505    1.0000 </r>
       <r>  -12.8499    1.0000 </r>
       <r>  -12.8479    1.0000 </r>
       <r>  -12.8452    1.0000 </r>
       <r>  -12.8413    1.0000 </r>
       <r>  -12.8408    1.0000 </r>
       <r>  -12.8377    1.0000 </r>
       <r>  -12.8371    1.0000 </r>
       <r>  -12.8355    1.0000 </r>
       <r>  -12.8341    1.0000 </r>
       <r>  -12.8304    1.0000 </r>
       <r>  -12.8217    1.0000 </r>
       <r>  -12.8183    1.0000 </r>
       <r>  -12.8169    1.0000 </r>
       <r>  -12.8141    1.0000 </r>
       <r>  -12.8130    1.0000 </r>
       <r>  -12.8112    1.0000 </r>
       <r>  -12.8006    1.0000 </r>
       <r>  -12.7994    1.0000 </r>
       <r>  -12.7960    1.0000 </r>
       <r>  -12.7948    1.0000 </r>
       <r>  -12.7870    1.0000 </r>
       <r>  -12.7838    1.0000 </r>
       <r>  -12.7833    1.0000 </r>
       <r>  -12.7797    1.0000 </r>
       <r>  -12.7772    1.0000 </r>
       <r>  -12.7751    1.0000 </r>
       <r>  -12.7657    1.0000 </r>
       <r>  -12.7621    1.0000 </r>
       <r>  -12.7595    1.0000 </r>
       <r>  -12.7584    1.0000 </r>
       <r>  -12.7569    1.0000 </r>
       <r>  -12.7543    1.0000 </r>
       <r>  -12.7507    1.0000 </r>
       <r>  -12.7455    1.0000 </r>
       <r>  -12.7453    1.0000 </r>
       <r>  -12.7421    1.0000 </r>
       <r>  -12.7372    1.0000 </r>
       <r>  -12.7369    1.0000 </r>
       <r>  -12.7357    1.0000 </r>
       <r>  -12.7298    1.0000 </r>
       <r>  -12.7277    1.0000 </r>
       <r>  -12.7253    1.0000 </r>
       <r>  -12.7218    1.0000 </r>
       <r>  -12.7215    1.0000 </r>
       <r>  -12.7202    1.0000 </r>
       <r>  -12.7186    1.0000 </r>
       <r>  -12.7145    1.0000 </r>
       <r>  -12.7072    1.0000 </r>
       <r>  -12.7059    1.0000 </r>
       <r>  -12.7033    1.0000 </r>
       <r>  -12.7027    1.0000 </r>
       <r>  -12.7001    1.0000 </r>
       <r>  -12.6971    1.0000 </r>
       <r>  -12.6952    1.0000 </r>
       <r>  -12.6856    1.0000 </r>
       <r>  -12.6831    1.0000 </r>
       <r>  -12.6827    1.0000 </r>
       <r>  -12.6813    1.0000 </r>
       <r>  -12.6811    1.0000 </r>
       <r>  -12.6732    1.0000 </r>
       <r>  -12.6700    1.0000 </r>
       <r>  -12.6667    1.0000 </r>
       <r>  -12.6642    1.0000 </r>
       <r>  -12.6639    1.0000 </r>
       <r>  -12.6584    1.0000 </r>
       <r>  -12.6531    1.0000 </r>
       <r>  -12.6495    1.0000 </r>
       <r>  -12.6469    1.0000 </r>
       <r>  -12.6467    1.0000 </r>
       <r>  -12.6436    1.0000 </r>
       <r>  -12.6387    1.0000 </r>
       <r>  -12.6387    1.0000 </r>
       <r>  -12.6330    1.0000 </r>
       <r>  -12.6269    1.0000 </r>
       <r>  -12.6238    1.0000 </r>
       <r>  -12.6204    1.0000 </r>
       <r>  -12.6113    1.0000 </r>
       <r>  -12.6081    1.0000 </r>
       <r>  -12.6020    1.0000 </r>
       <r>  -12.6005    1.0000 </r>
       <r>  -12.5878    1.0000 </r>
       <r>  -12.5716    1.0000 </r>
       <r>  -12.5619    1.0000 </r>
       <r>  -12.5604    1.0000 </r>
       <r>  -12.5577    1.0000 </r>
       <r>  -12.5568    1.0000 </r>
       <r>  -12.5483    1.0000 </r>
       <r>  -12.5441    1.0000 </r>
       <r>  -12.5381    1.0000 </r>
       <r>  -12.5311    1.0000 </r>
       <r>  -12.5281    1.0000 </r>
       <r>  -12.5122    1.0000 </r>
       <r>  -12.5039    1.0000 </r>
       <r>  -12.4966    1.0000 </r>
       <r>  -12.4936    1.0000 </r>
       <r>  -12.4823    1.0000 </r>
       <r>  -12.4681    1.0000 </r>
       <r>  -12.4546    1.0000 </r>
       <r>  -12.4542    1.0000 </r>
       <r>  -12.4504    1.0000 </r>
       <r>  -12.4377    1.0000 </r>
       <r>  -12.4268    1.0000 </r>
       <r>  -12.4226    1.0000 </r>
       <r>  -12.4179    1.0000 </r>
       <r>  -12.4017    1.0000 </r>
       <r>  -12.3950    1.0000 </r>
       <r>  -12.3854    1.0000 </r>
       <r>  -12.3797    1.0000 </r>
       <r>  -12.3761    1.0000 </r>
       <r>  -12.3643    1.0000 </r>
       <r>  -12.3641    1.0000 </r>
       <r>  -12.3449    1.0000 </r>
       <r>  -12.3416    1.0000 </r>
       <r>  -12.3272    1.0000 </r>
       <r>  -12.3195    1.0000 </r>
       <r>  -12.3132    1.0000 </r>
       <r>  -12.3118    1.0000 </r>
       <r>  -12.2967    1.0000 </r>
       <r>  -12.2881    1.0000 </r>
       <r>  -12.2788    1.0000 </r>
       <r>  -12.2681    1.0000 </r>
       <r>  -12.2413    1.0000 </r>
       <r>  -12.2392    1.0000 </r>
       <r>  -12.2315    1.0000 </r>
       <r>  -12.2029    1.0000 </r>
       <r>  -12.1876    1.0000 </r>
       <r>  -12.1865    1.0000 </r>
       <r>  -12.1604    1.0000 </r>
       <r>  -12.1240    1.0000 </r>
       <r>  -12.1063    1.0000 </r>
       <r>  -12.0940    1.0000 </r>
       <r>  -12.0714    1.0000 </r>
       <r>  -12.0436    1.0000 </r>
       <r>  -12.0368    1.0000 </r>
       <r>  -11.9795    1.0000 </r>
       <r>  -11.9685    1.0000 </r>
       <r>  -11.9583    1.0000 </r>
       <r>  -11.9535    1.0000 </r>
       <r>  -11.9177    1.0000 </r>
       <r>  -11.8790    1.0000 </r>
       <r>  -11.8725    1.0000 </r>
       <r>  -11.8701    1.0000 </r>
       <r>  -11.8333    1.0000 </r>
       <r>  -11.8316    1.0000 </r>
       <r>  -11.8261    1.0000 </r>
       <r>  -11.7690    1.0000 </r>
       <r>  -11.7483    1.0000 </r>
       <r>  -11.7080    1.0000 </r>
       <r>  -11.6507    1.0000 </r>
       <r>  -11.6336    1.0000 </r>
       <r>  -11.6302    1.0000 </r>
       <r>   -5.0894    1.0000 </r>
       <r>   -5.0526    1.0000 </r>
       <r>   -4.9889    1.0000 </r>
       <r>   -4.9164    1.0000 </r>
       <r>   -4.9070    1.0000 </r>
       <r>   -4.8876    1.0000 </r>
       <r>   -4.7943    1.0000 </r>
       <r>   -4.7413    1.0000 </r>
       <r>   -4.5862    1.0000 </r>
       <r>   -4.5537    1.0000 </r>
       <r>   -4.4987    1.0000 </r>
       <r>   -4.4737    1.0000 </r>
       <r>   -4.3052    1.0000 </r>
       <r>   -4.2626    1.0000 </r>
       <r>   -4.2589    1.0000 </r>
       <r>   -4.2010    1.0000 </r>
       <r>   -4.1959    1.0000 </r>
       <r>   -4.1381    1.0000 </r>
       <r>   -4.0520    1.0000 </r>
       <r>   -4.0216    1.0000 </r>
       <r>   -4.0099    1.0000 </r>
       <r>   -3.9889    1.0000 </r>
       <r>   -3.9421    1.0000 </r>
       <r>   -3.9184    1.0000 </r>
       <r>   -3.8772    1.0000 </r>
       <r>   -3.8280    1.0000 </r>
       <r>   -3.6311    1.0000 </r>
       <r>   -3.6078    1.0000 </r>
       <r>   -3.5613    1.0000 </r>
       <r>   -3.5571    1.0000 </r>
       <r>   -3.5479    1.0000 </r>
       <r>   -3.5306    1.0000 </r>
       <r>   -3.4850    1.0000 </r>
       <r>   -3.3159    1.0000 </r>
       <r>   -3.3136    1.0000 </r>
       <r>   -3.1292    1.0000 </r>
       <r>   -3.0196    1.0000 </r>
       <r>   -3.0149    1.0000 </r>
       <r>   -2.9846    1.0000 </r>
       <r>   -2.9155    1.0000 </r>
       <r>   -2.9054    1.0000 </r>
       <r>   -2.8526    1.0000 </r>
       <r>   -2.8440    1.0000 </r>
       <r>   -2.7961    1.0000 </r>
       <r>   -2.7346    1.0000 </r>
       <r>   -2.6524    1.0000 </r>
       <r>   -2.5962    1.0000 </r>
       <r>   -2.5272    1.0000 </r>
       <r>   -2.4647    1.0000 </r>
       <r>   -2.3324    1.0000 </r>
       <r>   -2.2560    1.0000 </r>
       <r>   -2.2225    1.0000 </r>
       <r>   -2.2196    1.0000 </r>
       <r>   -2.0706    1.0000 </r>
       <r>   -2.0558    1.0000 </r>
       <r>   -2.0239    1.0000 </r>
       <r>   -1.9798    1.0000 </r>
       <r>   -1.9228    1.0000 </r>
       <r>   -1.9148    1.0000 </r>
       <r>   -1.8783    1.0000 </r>
       <r>   -1.8620    1.0000 </r>
       <r>   -1.8436    1.0000 </r>
       <r>   -1.8118    1.0000 </r>
       <r>   -1.8094    1.0000 </r>
       <r>   -1.8067    1.0000 </r>
       <r>   -1.7802    1.0000 </r>
       <r>   -1.7551    1.0000 </r>
       <r>   -1.6967    1.0000 </r>
       <r>   -1.6939    1.0000 </r>
       <r>   -1.6587    1.0000 </r>
       <r>   -1.6107    1.0000 </r>
       <r>   -1.5995    1.0000 </r>
       <r>   -1.5422    1.0000 </r>
       <r>   -1.4671    1.0000 </r>
       <r>   -1.4604    1.0000 </r>
       <r>   -1.4568    1.0000 </r>
       <r>   -1.4403    1.0000 </r>
       <r>   -1.4313    1.0000 </r>
       <r>   -1.4135    1.0000 </r>
       <r>   -1.3781    1.0000 </r>
       <r>   -1.3531    1.0000 </r>
       <r>   -1.3529    1.0000 </r>
       <r>   -1.2920    1.0000 </r>
       <r>   -1.1958    1.0000 </r>
       <r>   -1.1115    1.0000 </r>
       <r>   -1.0777    1.0000 </r>
       <r>   -1.0087    1.0000 </r>
       <r>   -1.0067    1.0000 </r>
       <r>   -0.9840    1.0000 </r>
       <r>   -0.9820    1.0000 </r>
       <r>   -0.9608    1.0000 </r>
       <r>   -0.9035    1.0000 </r>
       <r>   -0.8986    1.0000 </r>
       <r>   -0.8559    1.0000 </r>
       <r>   -0.8396    1.0000 </r>
       <r>   -0.7955    1.0000 </r>
       <r>   -0.7655    1.0000 </r>
       <r>   -0.7632    1.0000 </r>
       <r>   -0.7557    1.0000 </r>
       <r>   -0.7182    1.0000 </r>
       <r>   -0.6850    1.0000 </r>
       <r>   -0.6833    1.0000 </r>
       <r>   -0.6476    1.0000 </r>
       <r>   -0.6200    1.0000 </r>
       <r>   -0.5362    1.0000 </r>
       <r>   -0.5328    1.0000 </r>
       <r>   -0.5185    1.0000 </r>
       <r>   -0.4884    1.0000 </r>
       <r>   -0.4184    1.0000 </r>
       <r>   -0.4178    1.0000 </r>
       <r>   -0.3470    1.0000 </r>
       <r>   -0.3207    1.0000 </r>
       <r>   -0.3179    1.0000 </r>
       <r>   -0.3034    1.0000 </r>
       <r>   -0.2786    1.0000 </r>
       <r>   -0.2753    1.0000 </r>
       <r>   -0.2521    1.0000 </r>
       <r>   -0.2512    1.0000 </r>
       <r>   -0.1498    1.0000 </r>
       <r>   -0.1223    1.0000 </r>
       <r>   -0.1120    1.0000 </r>
       <r>   -0.0950    1.0000 </r>
       <r>   -0.0775    1.0000 </r>
       <r>   -0.0743    1.0000 </r>
       <r>   -0.0439    1.0000 </r>
       <r>    0.0162    1.0000 </r>
       <r>    0.0239    1.0000 </r>
       <r>    0.0892    1.0000 </r>
       <r>    0.0997    1.0000 </r>
       <r>    0.1022    1.0000 </r>
       <r>    0.1047    1.0000 </r>
       <r>    0.1292    1.0000 </r>
       <r>    0.2348    1.0000 </r>
       <r>    0.2632    1.0000 </r>
       <r>    0.2665    1.0000 </r>
       <r>    0.2986    1.0000 </r>
       <r>    0.3422    1.0000 </r>
       <r>    0.3533    1.0000 </r>
       <r>    0.3838    1.0000 </r>
       <r>    0.3879    1.0000 </r>
       <r>    0.4138    1.0000 </r>
       <r>    0.4217    1.0000 </r>
       <r>    0.4316    1.0000 </r>
       <r>    0.4762    1.0000 </r>
       <r>    0.4854    1.0000 </r>
       <r>    0.5191    1.0000 </r>
       <r>    0.5250    1.0000 </r>
       <r>    0.5409    1.0000 </r>
       <r>    0.5553    1.0000 </r>
       <r>    0.6173    1.0000 </r>
       <r>    0.6186    1.0000 </r>
       <r>    0.6674    1.0000 </r>
       <r>    0.7169    1.0000 </r>
       <r>    0.7264    1.0000 </r>
       <r>    0.7307    1.0000 </r>
       <r>    0.7995    1.0000 </r>
       <r>    0.8230    1.0000 </r>
       <r>    0.8240    1.0000 </r>
       <r>    0.8745    1.0000 </r>
       <r>    0.9049    1.0000 </r>
       <r>    0.9254    1.0000 </r>
       <r>    0.9303    1.0000 </r>
       <r>    0.9633    1.0000 </r>
       <r>    0.9874    1.0000 </r>
       <r>    0.9941    1.0000 </r>
       <r>    1.0350    1.0000 </r>
       <r>    1.0567    1.0000 </r>
       <r>    1.0608    1.0000 </r>
       <r>    1.0812    1.0000 </r>
       <r>    1.0844    1.0000 </r>
       <r>    1.1026    1.0000 </r>
       <r>    1.1058    1.0000 </r>
       <r>    1.1130    1.0000 </r>
       <r>    1.1175    1.0000 </r>
       <r>    1.1731    1.0000 </r>
       <r>    1.1734    1.0000 </r>
       <r>    1.2020    1.0000 </r>
       <r>    1.2154    1.0000 </r>
       <r>    1.2204    1.0000 </r>
       <r>    1.2338    1.0000 </r>
       <r>    1.2508    1.0000 </r>
       <r>    1.2914    1.0000 </r>
       <r>    1.3027    1.0000 </r>
       <r>    1.3167    1.0000 </r>
       <r>    1.3361    1.0000 </r>
       <r>    1.3424    1.0000 </r>
       <r>    1.3578    1.0000 </r>
       <r>    1.3693    1.0000 </r>
       <r>    1.3705    1.0000 </r>
       <r>    1.3994    1.0000 </r>
       <r>    1.4177    1.0000 </r>
       <r>    1.4244    1.0000 </r>
       <r>    1.4329    1.0000 </r>
       <r>    1.4375    1.0000 </r>
       <r>    1.4793    1.0000 </r>
       <r>    1.4852    1.0000 </r>
       <r>    1.5192    1.0000 </r>
       <r>    1.5336    1.0000 </r>
       <r>    1.5385    1.0000 </r>
       <r>    1.5496    1.0000 </r>
       <r>    1.5706    1.0000 </r>
       <r>    1.6062    1.0000 </r>
       <r>    1.6639    1.0000 </r>
       <r>    1.6648    1.0000 </r>
       <r>    1.6918    1.0000 </r>
       <r>    1.7031    1.0000 </r>
       <r>    1.7245    1.0000 </r>
       <r>    1.8232    1.0000 </r>
       <r>    1.8392    1.0000 </r>
       <r>    1.8415    1.0000 </r>
       <r>    1.8453    1.0000 </r>
       <r>    1.8889    1.0000 </r>
       <r>    2.0079    1.0000 </r>
       <r>    2.0880    1.0000 </r>
       <r>    2.0947    1.0000 </r>
       <r>    2.3727    1.0000 </r>
       <r>    4.8655    1.0000 </r>
       <r>    4.9471    1.0000 </r>
       <r>    5.1040    1.0000 </r>
       <r>    7.9558    0.0000 </r>
       <r>    8.0301    0.0000 </r>
       <r>    9.4261    0.0000 </r>
       <r>    9.4876    0.0000 </r>
       <r>    9.6207    0.0000 </r>
       <r>    9.6243    0.0000 </r>
       <r>    9.7539    0.0000 </r>
       <r>    9.8610    0.0000 </r>
       <r>    9.8619    0.0000 </r>
       <r>    9.9732    0.0000 </r>
       <r>   10.1995    0.0000 </r>
       <r>   10.2869    0.0000 </r>
       <r>   10.3244    0.0000 </r>
       <r>   10.3790    0.0000 </r>
       <r>   10.4436    0.0000 </r>
       <r>   10.5149    0.0000 </r>
       <r>   10.6560    0.0000 </r>
       <r>   10.6872    0.0000 </r>
       <r>   11.1145    0.0000 </r>
       <r>   11.2445    0.0000 </r>
       <r>   11.2645    0.0000 </r>
       <r>   11.2692    0.0000 </r>
       <r>   11.2979    0.0000 </r>
       <r>   11.3873    0.0000 </r>
       <r>   11.4290    0.0000 </r>
       <r>   11.4653    0.0000 </r>
       <r>   11.4989    0.0000 </r>
       <r>   11.5053    0.0000 </r>
       <r>   11.5143    0.0000 </r>
       <r>   11.5266    0.0000 </r>
       <r>   11.5515    0.0000 </r>
       <r>   11.6287    0.0000 </r>
       <r>   11.6555    0.0000 </r>
       <r>   11.7200    0.0000 </r>
       <r>   11.7358    0.0000 </r>
       <r>   11.8197    0.0000 </r>
       <r>   11.8437    0.0000 </r>
       <r>   11.8708    0.0000 </r>
       <r>   11.9449    0.0000 </r>
       <r>   12.1034    0.0000 </r>
       <r>   12.1491    0.0000 </r>
       <r>   12.1766    0.0000 </r>
       <r>   12.1829    0.0000 </r>
       <r>   12.3669    0.0000 </r>
       <r>   12.4138    0.0000 </r>
       <r>   12.4354    0.0000 </r>
       <r>   12.4895    0.0000 </r>
       <r>   12.5352    0.0000 </r>
       <r>   12.5413    0.0000 </r>
       <r>   12.5726    0.0000 </r>
       <r>   12.7608    0.0000 </r>
       <r>   12.7788    0.0000 </r>
       <r>   12.7913    0.0000 </r>
       <r>   12.8527    0.0000 </r>
       <r>   12.9185    0.0000 </r>
       <r>   12.9686    0.0000 </r>
       <r>   12.9920    0.0000 </r>
       <r>   13.0282    0.0000 </r>
       <r>   13.0610    0.0000 </r>
       <r>   13.0663    0.0000 </r>
       <r>   13.1071    0.0000 </r>
       <r>   13.1187    0.0000 </r>
       <r>   13.1338    0.0000 </r>
       <r>   13.1988    0.0000 </r>
       <r>   13.2048    0.0000 </r>
       <r>   13.2315    0.0000 </r>
       <r>   13.2764    0.0000 </r>
       <r>   13.3221    0.0000 </r>
       <r>   13.3840    0.0000 </r>
       <r>   13.4102    0.0000 </r>
       <r>   13.4277    0.0000 </r>
       <r>   13.6379    0.0000 </r>
       <r>   13.7284    0.0000 </r>
       <r>   13.9545    0.0000 </r>
       <r>   14.0718    0.0000 </r>
       <r>   14.1208    0.0000 </r>
       <r>   14.2244    0.0000 </r>
       <r>   14.2365    0.0000 </r>
       <r>   14.2454    0.0000 </r>
       <r>   14.3405    0.0000 </r>
       <r>   14.3787    0.0000 </r>
       <r>   14.7050    0.0000 </r>
       <r>   14.7072    0.0000 </r>
       <r>   14.7825    0.0000 </r>
       <r>   14.7913    0.0000 </r>
       <r>   14.8745    0.0000 </r>
       <r>   14.9046    0.0000 </r>
       <r>   14.9293    0.0000 </r>
       <r>   14.9887    0.0000 </r>
       <r>   15.0102    0.0000 </r>
       <r>   15.0495    0.0000 </r>
       <r>   15.1195    0.0000 </r>
       <r>   15.1591    0.0000 </r>
       <r>   15.2206    0.0000 </r>
       <r>   15.2730    0.0000 </r>
       <r>   15.3196    0.0000 </r>
       <r>   15.3909    0.0000 </r>
       <r>   15.3952    0.0000 </r>
       <r>   15.4188    0.0000 </r>
       <r>   15.5057    0.0000 </r>
       <r>   15.5955    0.0000 </r>
       <r>   15.6052    0.0000 </r>
       <r>   15.6532    0.0000 </r>
       <r>   15.7081    0.0000 </r>
       <r>   15.7687    0.0000 </r>
      </set>
      <set comment="kpoint 4">
       <r>  -18.4962    1.0000 </r>
       <r>  -18.4662    1.0000 </r>
       <r>  -18.4145    1.0000 </r>
       <r>  -18.3604    1.0000 </r>
       <r>  -18.2902    1.0000 </r>
       <r>  -18.2541    1.0000 </r>
       <r>  -18.1508    1.0000 </r>
       <r>  -17.9980    1.0000 </r>
       <r>  -17.8536    1.0000 </r>
       <r>  -17.8241    1.0000 </r>
       <r>  -17.8216    1.0000 </r>
       <r>  -17.7873    1.0000 </r>
       <r>  -17.7748    1.0000 </r>
       <r>  -17.7266    1.0000 </r>
       <r>  -17.7206    1.0000 </r>
       <r>  -17.6880    1.0000 </r>
       <r>  -17.6396    1.0000 </r>
       <r>  -17.5993    1.0000 </r>
       <r>  -17.5935    1.0000 </r>
       <r>  -17.5921    1.0000 </r>
       <r>  -17.5638    1.0000 </r>
       <r>  -17.5485    1.0000 </r>
       <r>  -17.5348    1.0000 </r>
       <r>  -17.5216    1.0000 </r>
       <r>  -17.5078    1.0000 </r>
       <r>  -17.5035    1.0000 </r>
       <r>  -17.4959    1.0000 </r>
       <r>  -17.4840    1.0000 </r>
       <r>  -17.4400    1.0000 </r>
       <r>  -17.4265    1.0000 </r>
       <r>  -17.3919    1.0000 </r>
       <r>  -17.3758    1.0000 </r>
       <r>  -17.3564    1.0000 </r>
       <r>  -17.3206    1.0000 </r>
       <r>  -17.3056    1.0000 </r>
       <r>  -17.3009    1.0000 </r>
       <r>  -17.2986    1.0000 </r>
       <r>  -17.2941    1.0000 </r>
       <r>  -17.2677    1.0000 </r>
       <r>  -17.2643    1.0000 </r>
       <r>  -17.2522    1.0000 </r>
       <r>  -17.2257    1.0000 </r>
       <r>  -17.2165    1.0000 </r>
       <r>  -17.1813    1.0000 </r>
       <r>  -17.1585    1.0000 </r>
       <r>  -17.1372    1.0000 </r>
       <r>  -17.1301    1.0000 </r>
       <r>  -17.1001    1.0000 </r>
       <r>  -17.0964    1.0000 </r>
       <r>  -17.0692    1.0000 </r>
       <r>  -17.0552    1.0000 </r>
       <r>  -17.0535    1.0000 </r>
       <r>  -17.0500    1.0000 </r>
       <r>  -17.0363    1.0000 </r>
       <r>  -17.0193    1.0000 </r>
       <r>  -16.9865    1.0000 </r>
       <r>  -16.9856    1.0000 </r>
       <r>  -16.9684    1.0000 </r>
       <r>  -16.9628    1.0000 </r>
       <r>  -16.9396    1.0000 </r>
       <r>  -16.9280    1.0000 </r>
       <r>  -16.9214    1.0000 </r>
       <r>  -16.9201    1.0000 </r>
       <r>  -16.8932    1.0000 </r>
       <r>  -16.8849    1.0000 </r>
       <r>  -16.8605    1.0000 </r>
       <r>  -16.8212    1.0000 </r>
       <r>  -16.7281    1.0000 </r>
       <r>  -16.6462    1.0000 </r>
       <r>  -16.6231    1.0000 </r>
       <r>  -16.1282    1.0000 </r>
       <r>  -16.0663    1.0000 </r>
       <r>  -13.1770    1.0000 </r>
       <r>  -13.1732    1.0000 </r>
       <r>  -13.1542    1.0000 </r>
       <r>  -13.1541    1.0000 </r>
       <r>  -13.1370    1.0000 </r>
       <r>  -13.1313    1.0000 </r>
       <r>  -13.1225    1.0000 </r>
       <r>  -13.1149    1.0000 </r>
       <r>  -13.1093    1.0000 </r>
       <r>  -13.1058    1.0000 </r>
       <r>  -13.1052    1.0000 </r>
       <r>  -13.0921    1.0000 </r>
       <r>  -13.0894    1.0000 </r>
       <r>  -13.0836    1.0000 </r>
       <r>  -13.0755    1.0000 </r>
       <r>  -13.0740    1.0000 </r>
       <r>  -13.0719    1.0000 </r>
       <r>  -13.0709    1.0000 </r>
       <r>  -13.0669    1.0000 </r>
       <r>  -13.0615    1.0000 </r>
       <r>  -13.0545    1.0000 </r>
       <r>  -13.0499    1.0000 </r>
       <r>  -13.0385    1.0000 </r>
       <r>  -13.0344    1.0000 </r>
       <r>  -13.0315    1.0000 </r>
       <r>  -13.0261    1.0000 </r>
       <r>  -13.0243    1.0000 </r>
       <r>  -13.0172    1.0000 </r>
       <r>  -13.0143    1.0000 </r>
       <r>  -13.0068    1.0000 </r>
       <r>  -13.0053    1.0000 </r>
       <r>  -13.0049    1.0000 </r>
       <r>  -13.0005    1.0000 </r>
       <r>  -12.9959    1.0000 </r>
       <r>  -12.9949    1.0000 </r>
       <r>  -12.9887    1.0000 </r>
       <r>  -12.9884    1.0000 </r>
       <r>  -12.9774    1.0000 </r>
       <r>  -12.9764    1.0000 </r>
       <r>  -12.9731    1.0000 </r>
       <r>  -12.9694    1.0000 </r>
       <r>  -12.9671    1.0000 </r>
       <r>  -12.9636    1.0000 </r>
       <r>  -12.9636    1.0000 </r>
       <r>  -12.9575    1.0000 </r>
       <r>  -12.9544    1.0000 </r>
       <r>  -12.9518    1.0000 </r>
       <r>  -12.9506    1.0000 </r>
       <r>  -12.9489    1.0000 </r>
       <r>  -12.9406    1.0000 </r>
       <r>  -12.9394    1.0000 </r>
       <r>  -12.9379    1.0000 </r>
       <r>  -12.9330    1.0000 </r>
       <r>  -12.9316    1.0000 </r>
       <r>  -12.9297    1.0000 </r>
       <r>  -12.9269    1.0000 </r>
       <r>  -12.9223    1.0000 </r>
       <r>  -12.9204    1.0000 </r>
       <r>  -12.9195    1.0000 </r>
       <r>  -12.9170    1.0000 </r>
       <r>  -12.9109    1.0000 </r>
       <r>  -12.9096    1.0000 </r>
       <r>  -12.9063    1.0000 </r>
       <r>  -12.9046    1.0000 </r>
       <r>  -12.9036    1.0000 </r>
       <r>  -12.8973    1.0000 </r>
       <r>  -12.8933    1.0000 </r>
       <r>  -12.8926    1.0000 </r>
       <r>  -12.8907    1.0000 </r>
       <r>  -12.8891    1.0000 </r>
       <r>  -12.8838    1.0000 </r>
       <r>  -12.8810    1.0000 </r>
       <r>  -12.8774    1.0000 </r>
       <r>  -12.8727    1.0000 </r>
       <r>  -12.8715    1.0000 </r>
       <r>  -12.8701    1.0000 </r>
       <r>  -12.8645    1.0000 </r>
       <r>  -12.8619    1.0000 </r>
       <r>  -12.8577    1.0000 </r>
       <r>  -12.8571    1.0000 </r>
       <r>  -12.8552    1.0000 </r>
       <r>  -12.8552    1.0000 </r>
       <r>  -12.8520    1.0000 </r>
       <r>  -12.8511    1.0000 </r>
       <r>  -12.8510    1.0000 </r>
       <r>  -12.8443    1.0000 </r>
       <r>  -12.8434    1.0000 </r>
       <r>  -12.8417    1.0000 </r>
       <r>  -12.8404    1.0000 </r>
       <r>  -12.8398    1.0000 </r>
       <r>  -12.8382    1.0000 </r>
       <r>  -12.8347    1.0000 </r>
       <r>  -12.8271    1.0000 </r>
       <r>  -12.8267    1.0000 </r>
       <r>  -12.8254    1.0000 </r>
       <r>  -12.8216    1.0000 </r>
       <r>  -12.8185    1.0000 </r>
       <r>  -12.8120    1.0000 </r>
       <r>  -12.8081    1.0000 </r>
       <r>  -12.8076    1.0000 </r>
       <r>  -12.8034    1.0000 </r>
       <r>  -12.8024    1.0000 </r>
       <r>  -12.7955    1.0000 </r>
       <r>  -12.7945    1.0000 </r>
       <r>  -12.7880    1.0000 </r>
       <r>  -12.7868    1.0000 </r>
       <r>  -12.7841    1.0000 </r>
       <r>  -12.7818    1.0000 </r>
       <r>  -12.7762    1.0000 </r>
       <r>  -12.7659    1.0000 </r>
       <r>  -12.7657    1.0000 </r>
       <r>  -12.7623    1.0000 </r>
       <r>  -12.7613    1.0000 </r>
       <r>  -12.7574    1.0000 </r>
       <r>  -12.7542    1.0000 </r>
       <r>  -12.7529    1.0000 </r>
       <r>  -12.7493    1.0000 </r>
       <r>  -12.7489    1.0000 </r>
       <r>  -12.7425    1.0000 </r>
       <r>  -12.7372    1.0000 </r>
       <r>  -12.7347    1.0000 </r>
       <r>  -12.7347    1.0000 </r>
       <r>  -12.7338    1.0000 </r>
       <r>  -12.7329    1.0000 </r>
       <r>  -12.7302    1.0000 </r>
       <r>  -12.7253    1.0000 </r>
       <r>  -12.7245    1.0000 </r>
       <r>  -12.7214    1.0000 </r>
       <r>  -12.7205    1.0000 </r>
       <r>  -12.7171    1.0000 </r>
       <r>  -12.7164    1.0000 </r>
       <r>  -12.7114    1.0000 </r>
       <r>  -12.7085    1.0000 </r>
       <r>  -12.7049    1.0000 </r>
       <r>  -12.7032    1.0000 </r>
       <r>  -12.7008    1.0000 </r>
       <r>  -12.6968    1.0000 </r>
       <r>  -12.6959    1.0000 </r>
       <r>  -12.6879    1.0000 </r>
       <r>  -12.6867    1.0000 </r>
       <r>  -12.6824    1.0000 </r>
       <r>  -12.6822    1.0000 </r>
       <r>  -12.6816    1.0000 </r>
       <r>  -12.6754    1.0000 </r>
       <r>  -12.6719    1.0000 </r>
       <r>  -12.6716    1.0000 </r>
       <r>  -12.6647    1.0000 </r>
       <r>  -12.6609    1.0000 </r>
       <r>  -12.6584    1.0000 </r>
       <r>  -12.6543    1.0000 </r>
       <r>  -12.6519    1.0000 </r>
       <r>  -12.6508    1.0000 </r>
       <r>  -12.6485    1.0000 </r>
       <r>  -12.6430    1.0000 </r>
       <r>  -12.6397    1.0000 </r>
       <r>  -12.6384    1.0000 </r>
       <r>  -12.6323    1.0000 </r>
       <r>  -12.6307    1.0000 </r>
       <r>  -12.6295    1.0000 </r>
       <r>  -12.6247    1.0000 </r>
       <r>  -12.6196    1.0000 </r>
       <r>  -12.6162    1.0000 </r>
       <r>  -12.6124    1.0000 </r>
       <r>  -12.6085    1.0000 </r>
       <r>  -12.5989    1.0000 </r>
       <r>  -12.5855    1.0000 </r>
       <r>  -12.5812    1.0000 </r>
       <r>  -12.5707    1.0000 </r>
       <r>  -12.5687    1.0000 </r>
       <r>  -12.5619    1.0000 </r>
       <r>  -12.5592    1.0000 </r>
       <r>  -12.5508    1.0000 </r>
       <r>  -12.5467    1.0000 </r>
       <r>  -12.5402    1.0000 </r>
       <r>  -12.5368    1.0000 </r>
       <r>  -12.5316    1.0000 </r>
       <r>  -12.5278    1.0000 </r>
       <r>  -12.5271    1.0000 </r>
       <r>  -12.5178    1.0000 </r>
       <r>  -12.5079    1.0000 </r>
       <r>  -12.4772    1.0000 </r>
       <r>  -12.4601    1.0000 </r>
       <r>  -12.4482    1.0000 </r>
       <r>  -12.4465    1.0000 </r>
       <r>  -12.4429    1.0000 </r>
       <r>  -12.4315    1.0000 </r>
       <r>  -12.4280    1.0000 </r>
       <r>  -12.4206    1.0000 </r>
       <r>  -12.4083    1.0000 </r>
       <r>  -12.3948    1.0000 </r>
       <r>  -12.3936    1.0000 </r>
       <r>  -12.3825    1.0000 </r>
       <r>  -12.3727    1.0000 </r>
       <r>  -12.3702    1.0000 </r>
       <r>  -12.3502    1.0000 </r>
       <r>  -12.3399    1.0000 </r>
       <r>  -12.3357    1.0000 </r>
       <r>  -12.3211    1.0000 </r>
       <r>  -12.3121    1.0000 </r>
       <r>  -12.3094    1.0000 </r>
       <r>  -12.2989    1.0000 </r>
       <r>  -12.2888    1.0000 </r>
       <r>  -12.2784    1.0000 </r>
       <r>  -12.2733    1.0000 </r>
       <r>  -12.2606    1.0000 </r>
       <r>  -12.2331    1.0000 </r>
       <r>  -12.2191    1.0000 </r>
       <r>  -12.2158    1.0000 </r>
       <r>  -12.1967    1.0000 </r>
       <r>  -12.1641    1.0000 </r>
       <r>  -12.1231    1.0000 </r>
       <r>  -12.1016    1.0000 </r>
       <r>  -12.0940    1.0000 </r>
       <r>  -12.0774    1.0000 </r>
       <r>  -12.0697    1.0000 </r>
       <r>  -12.0556    1.0000 </r>
       <r>  -12.0447    1.0000 </r>
       <r>  -12.0353    1.0000 </r>
       <r>  -11.9753    1.0000 </r>
       <r>  -11.9645    1.0000 </r>
       <r>  -11.9273    1.0000 </r>
       <r>  -11.9068    1.0000 </r>
       <r>  -11.9046    1.0000 </r>
       <r>  -11.8979    1.0000 </r>
       <r>  -11.8727    1.0000 </r>
       <r>  -11.8678    1.0000 </r>
       <r>  -11.8627    1.0000 </r>
       <r>  -11.8407    1.0000 </r>
       <r>  -11.8341    1.0000 </r>
       <r>  -11.7827    1.0000 </r>
       <r>  -11.7688    1.0000 </r>
       <r>  -11.7586    1.0000 </r>
       <r>  -11.6931    1.0000 </r>
       <r>  -11.6503    1.0000 </r>
       <r>  -11.6384    1.0000 </r>
       <r>   -5.0802    1.0000 </r>
       <r>   -5.0634    1.0000 </r>
       <r>   -5.0479    1.0000 </r>
       <r>   -5.0420    1.0000 </r>
       <r>   -4.9887    1.0000 </r>
       <r>   -4.8908    1.0000 </r>
       <r>   -4.7433    1.0000 </r>
       <r>   -4.6394    1.0000 </r>
       <r>   -4.5313    1.0000 </r>
       <r>   -4.5068    1.0000 </r>
       <r>   -4.3392    1.0000 </r>
       <r>   -4.3075    1.0000 </r>
       <r>   -4.2735    1.0000 </r>
       <r>   -4.2326    1.0000 </r>
       <r>   -4.2037    1.0000 </r>
       <r>   -4.1957    1.0000 </r>
       <r>   -4.1507    1.0000 </r>
       <r>   -4.1160    1.0000 </r>
       <r>   -4.0987    1.0000 </r>
       <r>   -4.0453    1.0000 </r>
       <r>   -4.0413    1.0000 </r>
       <r>   -3.9985    1.0000 </r>
       <r>   -3.9613    1.0000 </r>
       <r>   -3.8983    1.0000 </r>
       <r>   -3.8827    1.0000 </r>
       <r>   -3.8641    1.0000 </r>
       <r>   -3.7880    1.0000 </r>
       <r>   -3.7385    1.0000 </r>
       <r>   -3.7011    1.0000 </r>
       <r>   -3.6823    1.0000 </r>
       <r>   -3.6600    1.0000 </r>
       <r>   -3.4197    1.0000 </r>
       <r>   -3.3810    1.0000 </r>
       <r>   -3.3546    1.0000 </r>
       <r>   -3.2886    1.0000 </r>
       <r>   -3.1420    1.0000 </r>
       <r>   -3.0391    1.0000 </r>
       <r>   -3.0195    1.0000 </r>
       <r>   -3.0102    1.0000 </r>
       <r>   -2.9771    1.0000 </r>
       <r>   -2.9011    1.0000 </r>
       <r>   -2.8683    1.0000 </r>
       <r>   -2.8124    1.0000 </r>
       <r>   -2.7261    1.0000 </r>
       <r>   -2.6739    1.0000 </r>
       <r>   -2.6553    1.0000 </r>
       <r>   -2.6215    1.0000 </r>
       <r>   -2.6095    1.0000 </r>
       <r>   -2.5780    1.0000 </r>
       <r>   -2.3092    1.0000 </r>
       <r>   -2.2690    1.0000 </r>
       <r>   -2.2352    1.0000 </r>
       <r>   -2.2005    1.0000 </r>
       <r>   -2.1604    1.0000 </r>
       <r>   -2.1549    1.0000 </r>
       <r>   -2.0571    1.0000 </r>
       <r>   -1.9003    1.0000 </r>
       <r>   -1.8573    1.0000 </r>
       <r>   -1.8552    1.0000 </r>
       <r>   -1.8511    1.0000 </r>
       <r>   -1.8356    1.0000 </r>
       <r>   -1.8255    1.0000 </r>
       <r>   -1.7934    1.0000 </r>
       <r>   -1.7848    1.0000 </r>
       <r>   -1.7619    1.0000 </r>
       <r>   -1.7281    1.0000 </r>
       <r>   -1.6805    1.0000 </r>
       <r>   -1.6736    1.0000 </r>
       <r>   -1.6445    1.0000 </r>
       <r>   -1.6440    1.0000 </r>
       <r>   -1.6377    1.0000 </r>
       <r>   -1.5752    1.0000 </r>
       <r>   -1.5099    1.0000 </r>
       <r>   -1.4830    1.0000 </r>
       <r>   -1.4336    1.0000 </r>
       <r>   -1.4283    1.0000 </r>
       <r>   -1.3891    1.0000 </r>
       <r>   -1.3470    1.0000 </r>
       <r>   -1.3423    1.0000 </r>
       <r>   -1.3304    1.0000 </r>
       <r>   -1.3266    1.0000 </r>
       <r>   -1.2421    1.0000 </r>
       <r>   -1.2249    1.0000 </r>
       <r>   -1.1619    1.0000 </r>
       <r>   -1.1518    1.0000 </r>
       <r>   -1.1268    1.0000 </r>
       <r>   -1.0388    1.0000 </r>
       <r>   -1.0308    1.0000 </r>
       <r>   -1.0129    1.0000 </r>
       <r>   -0.9698    1.0000 </r>
       <r>   -0.9668    1.0000 </r>
       <r>   -0.9069    1.0000 </r>
       <r>   -0.8974    1.0000 </r>
       <r>   -0.8722    1.0000 </r>
       <r>   -0.8294    1.0000 </r>
       <r>   -0.8156    1.0000 </r>
       <r>   -0.7910    1.0000 </r>
       <r>   -0.6920    1.0000 </r>
       <r>   -0.6773    1.0000 </r>
       <r>   -0.6595    1.0000 </r>
       <r>   -0.6562    1.0000 </r>
       <r>   -0.6244    1.0000 </r>
       <r>   -0.6044    1.0000 </r>
       <r>   -0.6000    1.0000 </r>
       <r>   -0.5939    1.0000 </r>
       <r>   -0.5736    1.0000 </r>
       <r>   -0.5594    1.0000 </r>
       <r>   -0.5245    1.0000 </r>
       <r>   -0.5146    1.0000 </r>
       <r>   -0.4863    1.0000 </r>
       <r>   -0.4731    1.0000 </r>
       <r>   -0.4489    1.0000 </r>
       <r>   -0.4180    1.0000 </r>
       <r>   -0.3974    1.0000 </r>
       <r>   -0.3663    1.0000 </r>
       <r>   -0.3656    1.0000 </r>
       <r>   -0.3141    1.0000 </r>
       <r>   -0.2667    1.0000 </r>
       <r>   -0.2026    1.0000 </r>
       <r>   -0.1437    1.0000 </r>
       <r>   -0.1234    1.0000 </r>
       <r>   -0.0978    1.0000 </r>
       <r>   -0.0786    1.0000 </r>
       <r>   -0.0760    1.0000 </r>
       <r>   -0.0628    1.0000 </r>
       <r>   -0.0427    1.0000 </r>
       <r>   -0.0350    1.0000 </r>
       <r>    0.0670    1.0000 </r>
       <r>    0.0885    1.0000 </r>
       <r>    0.1059    1.0000 </r>
       <r>    0.1516    1.0000 </r>
       <r>    0.2204    1.0000 </r>
       <r>    0.2988    1.0000 </r>
       <r>    0.3303    1.0000 </r>
       <r>    0.3328    1.0000 </r>
       <r>    0.3399    1.0000 </r>
       <r>    0.3500    1.0000 </r>
       <r>    0.3700    1.0000 </r>
       <r>    0.3785    1.0000 </r>
       <r>    0.4148    1.0000 </r>
       <r>    0.4187    1.0000 </r>
       <r>    0.4367    1.0000 </r>
       <r>    0.4637    1.0000 </r>
       <r>    0.4674    1.0000 </r>
       <r>    0.5207    1.0000 </r>
       <r>    0.6396    1.0000 </r>
       <r>    0.6552    1.0000 </r>
       <r>    0.6561    1.0000 </r>
       <r>    0.6879    1.0000 </r>
       <r>    0.6901    1.0000 </r>
       <r>    0.7088    1.0000 </r>
       <r>    0.7114    1.0000 </r>
       <r>    0.7319    1.0000 </r>
       <r>    0.7368    1.0000 </r>
       <r>    0.7459    1.0000 </r>
       <r>    0.7635    1.0000 </r>
       <r>    0.7829    1.0000 </r>
       <r>    0.7906    1.0000 </r>
       <r>    0.8196    1.0000 </r>
       <r>    0.8266    1.0000 </r>
       <r>    0.8551    1.0000 </r>
       <r>    0.8941    1.0000 </r>
       <r>    0.9016    1.0000 </r>
       <r>    0.9165    1.0000 </r>
       <r>    0.9399    1.0000 </r>
       <r>    0.9528    1.0000 </r>
       <r>    1.0132    1.0000 </r>
       <r>    1.0735    1.0000 </r>
       <r>    1.0777    1.0000 </r>
       <r>    1.0878    1.0000 </r>
       <r>    1.0966    1.0000 </r>
       <r>    1.1025    1.0000 </r>
       <r>    1.1062    1.0000 </r>
       <r>    1.1071    1.0000 </r>
       <r>    1.1325    1.0000 </r>
       <r>    1.1674    1.0000 </r>
       <r>    1.1754    1.0000 </r>
       <r>    1.1829    1.0000 </r>
       <r>    1.2077    1.0000 </r>
       <r>    1.2170    1.0000 </r>
       <r>    1.2347    1.0000 </r>
       <r>    1.2492    1.0000 </r>
       <r>    1.2521    1.0000 </r>
       <r>    1.2559    1.0000 </r>
       <r>    1.2711    1.0000 </r>
       <r>    1.3024    1.0000 </r>
       <r>    1.3095    1.0000 </r>
       <r>    1.3255    1.0000 </r>
       <r>    1.3266    1.0000 </r>
       <r>    1.3309    1.0000 </r>
       <r>    1.3717    1.0000 </r>
       <r>    1.3951    1.0000 </r>
       <r>    1.4024    1.0000 </r>
       <r>    1.4365    1.0000 </r>
       <r>    1.4651    1.0000 </r>
       <r>    1.4754    1.0000 </r>
       <r>    1.5103    1.0000 </r>
       <r>    1.5439    1.0000 </r>
       <r>    1.5899    1.0000 </r>
       <r>    1.6144    1.0000 </r>
       <r>    1.6251    1.0000 </r>
       <r>    1.6777    1.0000 </r>
       <r>    1.6972    1.0000 </r>
       <r>    1.7260    1.0000 </r>
       <r>    1.7831    1.0000 </r>
       <r>    1.8140    1.0000 </r>
       <r>    1.8149    1.0000 </r>
       <r>    1.8571    1.0000 </r>
       <r>    1.8613    1.0000 </r>
       <r>    1.8932    1.0000 </r>
       <r>    1.8970    1.0000 </r>
       <r>    1.9311    1.0000 </r>
       <r>    1.9646    1.0000 </r>
       <r>    2.0559    1.0000 </r>
       <r>    2.0714    1.0000 </r>
       <r>    2.3709    1.0000 </r>
       <r>    4.8655    1.0000 </r>
       <r>    4.9445    1.0000 </r>
       <r>    5.1031    1.0000 </r>
       <r>    8.3735    0.0000 </r>
       <r>    8.4023    0.0000 </r>
       <r>    8.4717    0.0000 </r>
       <r>    8.5968    0.0000 </r>
       <r>    9.7696    0.0000 </r>
       <r>    9.8589    0.0000 </r>
       <r>    9.8882    0.0000 </r>
       <r>    9.9130    0.0000 </r>
       <r>   10.0566    0.0000 </r>
       <r>   10.1810    0.0000 </r>
       <r>   10.2847    0.0000 </r>
       <r>   10.3494    0.0000 </r>
       <r>   10.3515    0.0000 </r>
       <r>   10.4005    0.0000 </r>
       <r>   10.4050    0.0000 </r>
       <r>   10.4604    0.0000 </r>
       <r>   10.4866    0.0000 </r>
       <r>   10.5615    0.0000 </r>
       <r>   11.0754    0.0000 </r>
       <r>   11.1643    0.0000 </r>
       <r>   11.2767    0.0000 </r>
       <r>   11.3270    0.0000 </r>
       <r>   11.4373    0.0000 </r>
       <r>   11.4910    0.0000 </r>
       <r>   11.4936    0.0000 </r>
       <r>   11.5131    0.0000 </r>
       <r>   11.5381    0.0000 </r>
       <r>   11.5391    0.0000 </r>
       <r>   11.5623    0.0000 </r>
       <r>   11.5722    0.0000 </r>
       <r>   11.5908    0.0000 </r>
       <r>   11.6874    0.0000 </r>
       <r>   11.7312    0.0000 </r>
       <r>   11.7592    0.0000 </r>
       <r>   11.8214    0.0000 </r>
       <r>   11.8397    0.0000 </r>
       <r>   11.8818    0.0000 </r>
       <r>   11.9622    0.0000 </r>
       <r>   12.0089    0.0000 </r>
       <r>   12.0696    0.0000 </r>
       <r>   12.1069    0.0000 </r>
       <r>   12.1345    0.0000 </r>
       <r>   12.1848    0.0000 </r>
       <r>   12.2479    0.0000 </r>
       <r>   12.2828    0.0000 </r>
       <r>   12.5077    0.0000 </r>
       <r>   12.5385    0.0000 </r>
       <r>   12.5980    0.0000 </r>
       <r>   12.6178    0.0000 </r>
       <r>   12.7181    0.0000 </r>
       <r>   12.7457    0.0000 </r>
       <r>   12.8592    0.0000 </r>
       <r>   12.8643    0.0000 </r>
       <r>   12.9047    0.0000 </r>
       <r>   12.9171    0.0000 </r>
       <r>   12.9534    0.0000 </r>
       <r>   12.9699    0.0000 </r>
       <r>   12.9832    0.0000 </r>
       <r>   12.9837    0.0000 </r>
       <r>   13.0147    0.0000 </r>
       <r>   13.0428    0.0000 </r>
       <r>   13.0565    0.0000 </r>
       <r>   13.0877    0.0000 </r>
       <r>   13.1033    0.0000 </r>
       <r>   13.1112    0.0000 </r>
       <r>   13.1549    0.0000 </r>
       <r>   13.1942    0.0000 </r>
       <r>   13.3045    0.0000 </r>
       <r>   13.3490    0.0000 </r>
       <r>   13.3939    0.0000 </r>
       <r>   13.4991    0.0000 </r>
       <r>   13.6369    0.0000 </r>
       <r>   13.6953    0.0000 </r>
       <r>   13.7444    0.0000 </r>
       <r>   13.8722    0.0000 </r>
       <r>   13.9696    0.0000 </r>
       <r>   14.0498    0.0000 </r>
       <r>   14.0778    0.0000 </r>
       <r>   14.1378    0.0000 </r>
       <r>   14.3099    0.0000 </r>
       <r>   14.3918    0.0000 </r>
       <r>   14.6458    0.0000 </r>
       <r>   14.7751    0.0000 </r>
       <r>   14.8499    0.0000 </r>
       <r>   14.8830    0.0000 </r>
       <r>   14.8987    0.0000 </r>
       <r>   14.9275    0.0000 </r>
       <r>   14.9895    0.0000 </r>
       <r>   15.0158    0.0000 </r>
       <r>   15.1083    0.0000 </r>
       <r>   15.1188    0.0000 </r>
       <r>   15.1448    0.0000 </r>
       <r>   15.1733    0.0000 </r>
       <r>   15.2178    0.0000 </r>
       <r>   15.2267    0.0000 </r>
       <r>   15.2592    0.0000 </r>
       <r>   15.3671    0.0000 </r>
       <r>   15.3748    0.0000 </r>
       <r>   15.4226    0.0000 </r>
       <r>   15.4578    0.0000 </r>
       <r>   15.6077    0.0000 </r>
       <r>   15.7262    0.0000 </r>
       <r>   15.7782    0.0000 </r>
       <r>   15.8204    0.0000 </r>
       <r>   15.8622    0.0000 </r>
      </set>
      <set comment="kpoint 5">
       <r>  -18.6781    1.0000 </r>
       <r>  -18.5830    1.0000 </r>
       <r>  -18.4133    1.0000 </r>
       <r>  -18.2388    1.0000 </r>
       <r>  -18.0824    1.0000 </r>
       <r>  -18.0265    1.0000 </r>
       <r>  -18.0239    1.0000 </r>
       <r>  -17.9956    1.0000 </r>
       <r>  -17.9342    1.0000 </r>
       <r>  -17.9252    1.0000 </r>
       <r>  -17.8277    1.0000 </r>
       <r>  -17.8196    1.0000 </r>
       <r>  -17.7907    1.0000 </r>
       <r>  -17.7450    1.0000 </r>
       <r>  -17.7413    1.0000 </r>
       <r>  -17.7228    1.0000 </r>
       <r>  -17.6589    1.0000 </r>
       <r>  -17.6470    1.0000 </r>
       <r>  -17.6465    1.0000 </r>
       <r>  -17.6149    1.0000 </r>
       <r>  -17.5846    1.0000 </r>
       <r>  -17.5748    1.0000 </r>
       <r>  -17.5246    1.0000 </r>
       <r>  -17.5095    1.0000 </r>
       <r>  -17.5043    1.0000 </r>
       <r>  -17.4789    1.0000 </r>
       <r>  -17.4611    1.0000 </r>
       <r>  -17.4290    1.0000 </r>
       <r>  -17.4084    1.0000 </r>
       <r>  -17.4040    1.0000 </r>
       <r>  -17.3895    1.0000 </r>
       <r>  -17.3706    1.0000 </r>
       <r>  -17.3645    1.0000 </r>
       <r>  -17.3353    1.0000 </r>
       <r>  -17.3312    1.0000 </r>
       <r>  -17.3082    1.0000 </r>
       <r>  -17.3017    1.0000 </r>
       <r>  -17.2901    1.0000 </r>
       <r>  -17.2748    1.0000 </r>
       <r>  -17.2744    1.0000 </r>
       <r>  -17.2366    1.0000 </r>
       <r>  -17.2185    1.0000 </r>
       <r>  -17.2047    1.0000 </r>
       <r>  -17.1786    1.0000 </r>
       <r>  -17.1484    1.0000 </r>
       <r>  -17.1307    1.0000 </r>
       <r>  -17.1218    1.0000 </r>
       <r>  -17.1156    1.0000 </r>
       <r>  -17.1043    1.0000 </r>
       <r>  -17.1014    1.0000 </r>
       <r>  -17.0844    1.0000 </r>
       <r>  -17.0482    1.0000 </r>
       <r>  -17.0290    1.0000 </r>
       <r>  -17.0275    1.0000 </r>
       <r>  -17.0199    1.0000 </r>
       <r>  -17.0079    1.0000 </r>
       <r>  -17.0044    1.0000 </r>
       <r>  -16.9977    1.0000 </r>
       <r>  -16.9862    1.0000 </r>
       <r>  -16.9363    1.0000 </r>
       <r>  -16.9339    1.0000 </r>
       <r>  -16.9253    1.0000 </r>
       <r>  -16.9045    1.0000 </r>
       <r>  -16.9016    1.0000 </r>
       <r>  -16.8733    1.0000 </r>
       <r>  -16.8476    1.0000 </r>
       <r>  -16.7760    1.0000 </r>
       <r>  -16.7633    1.0000 </r>
       <r>  -16.6437    1.0000 </r>
       <r>  -16.6112    1.0000 </r>
       <r>  -16.1173    1.0000 </r>
       <r>  -16.0775    1.0000 </r>
       <r>  -13.1826    1.0000 </r>
       <r>  -13.1766    1.0000 </r>
       <r>  -13.1626    1.0000 </r>
       <r>  -13.1533    1.0000 </r>
       <r>  -13.1409    1.0000 </r>
       <r>  -13.1391    1.0000 </r>
       <r>  -13.1339    1.0000 </r>
       <r>  -13.1065    1.0000 </r>
       <r>  -13.1056    1.0000 </r>
       <r>  -13.0877    1.0000 </r>
       <r>  -13.0874    1.0000 </r>
       <r>  -13.0820    1.0000 </r>
       <r>  -13.0799    1.0000 </r>
       <r>  -13.0735    1.0000 </r>
       <r>  -13.0692    1.0000 </r>
       <r>  -13.0599    1.0000 </r>
       <r>  -13.0548    1.0000 </r>
       <r>  -13.0540    1.0000 </r>
       <r>  -13.0494    1.0000 </r>
       <r>  -13.0447    1.0000 </r>
       <r>  -13.0414    1.0000 </r>
       <r>  -13.0387    1.0000 </r>
       <r>  -13.0356    1.0000 </r>
       <r>  -13.0314    1.0000 </r>
       <r>  -13.0313    1.0000 </r>
       <r>  -13.0285    1.0000 </r>
       <r>  -13.0279    1.0000 </r>
       <r>  -13.0229    1.0000 </r>
       <r>  -13.0222    1.0000 </r>
       <r>  -13.0196    1.0000 </r>
       <r>  -13.0191    1.0000 </r>
       <r>  -13.0121    1.0000 </r>
       <r>  -13.0074    1.0000 </r>
       <r>  -13.0063    1.0000 </r>
       <r>  -12.9957    1.0000 </r>
       <r>  -12.9947    1.0000 </r>
       <r>  -12.9920    1.0000 </r>
       <r>  -12.9907    1.0000 </r>
       <r>  -12.9870    1.0000 </r>
       <r>  -12.9789    1.0000 </r>
       <r>  -12.9779    1.0000 </r>
       <r>  -12.9720    1.0000 </r>
       <r>  -12.9703    1.0000 </r>
       <r>  -12.9647    1.0000 </r>
       <r>  -12.9581    1.0000 </r>
       <r>  -12.9551    1.0000 </r>
       <r>  -12.9526    1.0000 </r>
       <r>  -12.9522    1.0000 </r>
       <r>  -12.9494    1.0000 </r>
       <r>  -12.9479    1.0000 </r>
       <r>  -12.9434    1.0000 </r>
       <r>  -12.9412    1.0000 </r>
       <r>  -12.9363    1.0000 </r>
       <r>  -12.9322    1.0000 </r>
       <r>  -12.9312    1.0000 </r>
       <r>  -12.9273    1.0000 </r>
       <r>  -12.9247    1.0000 </r>
       <r>  -12.9201    1.0000 </r>
       <r>  -12.9189    1.0000 </r>
       <r>  -12.9182    1.0000 </r>
       <r>  -12.9121    1.0000 </r>
       <r>  -12.9107    1.0000 </r>
       <r>  -12.9090    1.0000 </r>
       <r>  -12.9025    1.0000 </r>
       <r>  -12.9022    1.0000 </r>
       <r>  -12.8990    1.0000 </r>
       <r>  -12.8969    1.0000 </r>
       <r>  -12.8950    1.0000 </r>
       <r>  -12.8943    1.0000 </r>
       <r>  -12.8898    1.0000 </r>
       <r>  -12.8890    1.0000 </r>
       <r>  -12.8812    1.0000 </r>
       <r>  -12.8810    1.0000 </r>
       <r>  -12.8788    1.0000 </r>
       <r>  -12.8777    1.0000 </r>
       <r>  -12.8692    1.0000 </r>
       <r>  -12.8647    1.0000 </r>
       <r>  -12.8632    1.0000 </r>
       <r>  -12.8611    1.0000 </r>
       <r>  -12.8607    1.0000 </r>
       <r>  -12.8539    1.0000 </r>
       <r>  -12.8521    1.0000 </r>
       <r>  -12.8476    1.0000 </r>
       <r>  -12.8444    1.0000 </r>
       <r>  -12.8432    1.0000 </r>
       <r>  -12.8373    1.0000 </r>
       <r>  -12.8368    1.0000 </r>
       <r>  -12.8325    1.0000 </r>
       <r>  -12.8317    1.0000 </r>
       <r>  -12.8296    1.0000 </r>
       <r>  -12.8283    1.0000 </r>
       <r>  -12.8199    1.0000 </r>
       <r>  -12.8168    1.0000 </r>
       <r>  -12.8157    1.0000 </r>
       <r>  -12.8139    1.0000 </r>
       <r>  -12.8110    1.0000 </r>
       <r>  -12.8081    1.0000 </r>
       <r>  -12.8069    1.0000 </r>
       <r>  -12.8028    1.0000 </r>
       <r>  -12.8020    1.0000 </r>
       <r>  -12.7939    1.0000 </r>
       <r>  -12.7918    1.0000 </r>
       <r>  -12.7884    1.0000 </r>
       <r>  -12.7861    1.0000 </r>
       <r>  -12.7843    1.0000 </r>
       <r>  -12.7815    1.0000 </r>
       <r>  -12.7805    1.0000 </r>
       <r>  -12.7765    1.0000 </r>
       <r>  -12.7754    1.0000 </r>
       <r>  -12.7744    1.0000 </r>
       <r>  -12.7721    1.0000 </r>
       <r>  -12.7692    1.0000 </r>
       <r>  -12.7634    1.0000 </r>
       <r>  -12.7561    1.0000 </r>
       <r>  -12.7556    1.0000 </r>
       <r>  -12.7551    1.0000 </r>
       <r>  -12.7467    1.0000 </r>
       <r>  -12.7461    1.0000 </r>
       <r>  -12.7442    1.0000 </r>
       <r>  -12.7423    1.0000 </r>
       <r>  -12.7380    1.0000 </r>
       <r>  -12.7372    1.0000 </r>
       <r>  -12.7341    1.0000 </r>
       <r>  -12.7334    1.0000 </r>
       <r>  -12.7297    1.0000 </r>
       <r>  -12.7260    1.0000 </r>
       <r>  -12.7246    1.0000 </r>
       <r>  -12.7235    1.0000 </r>
       <r>  -12.7176    1.0000 </r>
       <r>  -12.7175    1.0000 </r>
       <r>  -12.7173    1.0000 </r>
       <r>  -12.7150    1.0000 </r>
       <r>  -12.7127    1.0000 </r>
       <r>  -12.7111    1.0000 </r>
       <r>  -12.7094    1.0000 </r>
       <r>  -12.7069    1.0000 </r>
       <r>  -12.7061    1.0000 </r>
       <r>  -12.7052    1.0000 </r>
       <r>  -12.7037    1.0000 </r>
       <r>  -12.6971    1.0000 </r>
       <r>  -12.6929    1.0000 </r>
       <r>  -12.6910    1.0000 </r>
       <r>  -12.6882    1.0000 </r>
       <r>  -12.6877    1.0000 </r>
       <r>  -12.6831    1.0000 </r>
       <r>  -12.6782    1.0000 </r>
       <r>  -12.6769    1.0000 </r>
       <r>  -12.6758    1.0000 </r>
       <r>  -12.6705    1.0000 </r>
       <r>  -12.6697    1.0000 </r>
       <r>  -12.6622    1.0000 </r>
       <r>  -12.6554    1.0000 </r>
       <r>  -12.6509    1.0000 </r>
       <r>  -12.6493    1.0000 </r>
       <r>  -12.6478    1.0000 </r>
       <r>  -12.6385    1.0000 </r>
       <r>  -12.6374    1.0000 </r>
       <r>  -12.6353    1.0000 </r>
       <r>  -12.6292    1.0000 </r>
       <r>  -12.6210    1.0000 </r>
       <r>  -12.6156    1.0000 </r>
       <r>  -12.6108    1.0000 </r>
       <r>  -12.6044    1.0000 </r>
       <r>  -12.6036    1.0000 </r>
       <r>  -12.5992    1.0000 </r>
       <r>  -12.5945    1.0000 </r>
       <r>  -12.5760    1.0000 </r>
       <r>  -12.5759    1.0000 </r>
       <r>  -12.5725    1.0000 </r>
       <r>  -12.5608    1.0000 </r>
       <r>  -12.5607    1.0000 </r>
       <r>  -12.5511    1.0000 </r>
       <r>  -12.5486    1.0000 </r>
       <r>  -12.5424    1.0000 </r>
       <r>  -12.5106    1.0000 </r>
       <r>  -12.5090    1.0000 </r>
       <r>  -12.5065    1.0000 </r>
       <r>  -12.5010    1.0000 </r>
       <r>  -12.5009    1.0000 </r>
       <r>  -12.4949    1.0000 </r>
       <r>  -12.4905    1.0000 </r>
       <r>  -12.4637    1.0000 </r>
       <r>  -12.4580    1.0000 </r>
       <r>  -12.4506    1.0000 </r>
       <r>  -12.4481    1.0000 </r>
       <r>  -12.4286    1.0000 </r>
       <r>  -12.4178    1.0000 </r>
       <r>  -12.4161    1.0000 </r>
       <r>  -12.4116    1.0000 </r>
       <r>  -12.3878    1.0000 </r>
       <r>  -12.3838    1.0000 </r>
       <r>  -12.3662    1.0000 </r>
       <r>  -12.3639    1.0000 </r>
       <r>  -12.3471    1.0000 </r>
       <r>  -12.3460    1.0000 </r>
       <r>  -12.3369    1.0000 </r>
       <r>  -12.3332    1.0000 </r>
       <r>  -12.3249    1.0000 </r>
       <r>  -12.3018    1.0000 </r>
       <r>  -12.2960    1.0000 </r>
       <r>  -12.2942    1.0000 </r>
       <r>  -12.2932    1.0000 </r>
       <r>  -12.2543    1.0000 </r>
       <r>  -12.2511    1.0000 </r>
       <r>  -12.2430    1.0000 </r>
       <r>  -12.2312    1.0000 </r>
       <r>  -12.2266    1.0000 </r>
       <r>  -12.1785    1.0000 </r>
       <r>  -12.1747    1.0000 </r>
       <r>  -12.1669    1.0000 </r>
       <r>  -12.1616    1.0000 </r>
       <r>  -12.1413    1.0000 </r>
       <r>  -12.1323    1.0000 </r>
       <r>  -12.1260    1.0000 </r>
       <r>  -12.1058    1.0000 </r>
       <r>  -12.0500    1.0000 </r>
       <r>  -12.0258    1.0000 </r>
       <r>  -12.0235    1.0000 </r>
       <r>  -12.0017    1.0000 </r>
       <r>  -11.9982    1.0000 </r>
       <r>  -11.9666    1.0000 </r>
       <r>  -11.9322    1.0000 </r>
       <r>  -11.9321    1.0000 </r>
       <r>  -11.8988    1.0000 </r>
       <r>  -11.8868    1.0000 </r>
       <r>  -11.8675    1.0000 </r>
       <r>  -11.8416    1.0000 </r>
       <r>  -11.8375    1.0000 </r>
       <r>  -11.8137    1.0000 </r>
       <r>  -11.8126    1.0000 </r>
       <r>  -11.8033    1.0000 </r>
       <r>  -11.7174    1.0000 </r>
       <r>  -11.7015    1.0000 </r>
       <r>  -11.6389    1.0000 </r>
       <r>  -11.6039    1.0000 </r>
       <r>   -4.9576    1.0000 </r>
       <r>   -4.8816    1.0000 </r>
       <r>   -4.7614    1.0000 </r>
       <r>   -4.7153    1.0000 </r>
       <r>   -4.7103    1.0000 </r>
       <r>   -4.6496    1.0000 </r>
       <r>   -4.6194    1.0000 </r>
       <r>   -4.5797    1.0000 </r>
       <r>   -4.4700    1.0000 </r>
       <r>   -4.4652    1.0000 </r>
       <r>   -4.3753    1.0000 </r>
       <r>   -4.3597    1.0000 </r>
       <r>   -4.2449    1.0000 </r>
       <r>   -4.2391    1.0000 </r>
       <r>   -4.2273    1.0000 </r>
       <r>   -4.2253    1.0000 </r>
       <r>   -4.1551    1.0000 </r>
       <r>   -4.1295    1.0000 </r>
       <r>   -4.1257    1.0000 </r>
       <r>   -4.0747    1.0000 </r>
       <r>   -4.0445    1.0000 </r>
       <r>   -3.9803    1.0000 </r>
       <r>   -3.8829    1.0000 </r>
       <r>   -3.8819    1.0000 </r>
       <r>   -3.8095    1.0000 </r>
       <r>   -3.8047    1.0000 </r>
       <r>   -3.7982    1.0000 </r>
       <r>   -3.7913    1.0000 </r>
       <r>   -3.7550    1.0000 </r>
       <r>   -3.7284    1.0000 </r>
       <r>   -3.6367    1.0000 </r>
       <r>   -3.5582    1.0000 </r>
       <r>   -3.4447    1.0000 </r>
       <r>   -3.4339    1.0000 </r>
       <r>   -3.4082    1.0000 </r>
       <r>   -3.2415    1.0000 </r>
       <r>   -3.1990    1.0000 </r>
       <r>   -3.0917    1.0000 </r>
       <r>   -3.0380    1.0000 </r>
       <r>   -3.0376    1.0000 </r>
       <r>   -2.9193    1.0000 </r>
       <r>   -2.8886    1.0000 </r>
       <r>   -2.8578    1.0000 </r>
       <r>   -2.7208    1.0000 </r>
       <r>   -2.7191    1.0000 </r>
       <r>   -2.6577    1.0000 </r>
       <r>   -2.5975    1.0000 </r>
       <r>   -2.5783    1.0000 </r>
       <r>   -2.5480    1.0000 </r>
       <r>   -2.5461    1.0000 </r>
       <r>   -2.4436    1.0000 </r>
       <r>   -2.3299    1.0000 </r>
       <r>   -2.2896    1.0000 </r>
       <r>   -2.2738    1.0000 </r>
       <r>   -2.2528    1.0000 </r>
       <r>   -2.2520    1.0000 </r>
       <r>   -2.2429    1.0000 </r>
       <r>   -2.2316    1.0000 </r>
       <r>   -2.2174    1.0000 </r>
       <r>   -2.2028    1.0000 </r>
       <r>   -2.1790    1.0000 </r>
       <r>   -2.0979    1.0000 </r>
       <r>   -2.0143    1.0000 </r>
       <r>   -1.9803    1.0000 </r>
       <r>   -1.9802    1.0000 </r>
       <r>   -1.9578    1.0000 </r>
       <r>   -1.9109    1.0000 </r>
       <r>   -1.7975    1.0000 </r>
       <r>   -1.7304    1.0000 </r>
       <r>   -1.6706    1.0000 </r>
       <r>   -1.6703    1.0000 </r>
       <r>   -1.6103    1.0000 </r>
       <r>   -1.5274    1.0000 </r>
       <r>   -1.5129    1.0000 </r>
       <r>   -1.4352    1.0000 </r>
       <r>   -1.3935    1.0000 </r>
       <r>   -1.3888    1.0000 </r>
       <r>   -1.3563    1.0000 </r>
       <r>   -1.3507    1.0000 </r>
       <r>   -1.3279    1.0000 </r>
       <r>   -1.2666    1.0000 </r>
       <r>   -1.2280    1.0000 </r>
       <r>   -1.2107    1.0000 </r>
       <r>   -1.1891    1.0000 </r>
       <r>   -1.1473    1.0000 </r>
       <r>   -1.0949    1.0000 </r>
       <r>   -1.0793    1.0000 </r>
       <r>   -1.0553    1.0000 </r>
       <r>   -1.0305    1.0000 </r>
       <r>   -0.9647    1.0000 </r>
       <r>   -0.9430    1.0000 </r>
       <r>   -0.9205    1.0000 </r>
       <r>   -0.8974    1.0000 </r>
       <r>   -0.8828    1.0000 </r>
       <r>   -0.8082    1.0000 </r>
       <r>   -0.8004    1.0000 </r>
       <r>   -0.7034    1.0000 </r>
       <r>   -0.7020    1.0000 </r>
       <r>   -0.6307    1.0000 </r>
       <r>   -0.6209    1.0000 </r>
       <r>   -0.5946    1.0000 </r>
       <r>   -0.5819    1.0000 </r>
       <r>   -0.5455    1.0000 </r>
       <r>   -0.5087    1.0000 </r>
       <r>   -0.4616    1.0000 </r>
       <r>   -0.4403    1.0000 </r>
       <r>   -0.3816    1.0000 </r>
       <r>   -0.3706    1.0000 </r>
       <r>   -0.3176    1.0000 </r>
       <r>   -0.2873    1.0000 </r>
       <r>   -0.2394    1.0000 </r>
       <r>   -0.2199    1.0000 </r>
       <r>   -0.2132    1.0000 </r>
       <r>   -0.2032    1.0000 </r>
       <r>   -0.1674    1.0000 </r>
       <r>   -0.1389    1.0000 </r>
       <r>   -0.1107    1.0000 </r>
       <r>   -0.1007    1.0000 </r>
       <r>   -0.0985    1.0000 </r>
       <r>   -0.0808    1.0000 </r>
       <r>   -0.0513    1.0000 </r>
       <r>   -0.0327    1.0000 </r>
       <r>   -0.0314    1.0000 </r>
       <r>    0.0322    1.0000 </r>
       <r>    0.0380    1.0000 </r>
       <r>    0.0535    1.0000 </r>
       <r>    0.0624    1.0000 </r>
       <r>    0.1000    1.0000 </r>
       <r>    0.1136    1.0000 </r>
       <r>    0.1257    1.0000 </r>
       <r>    0.1425    1.0000 </r>
       <r>    0.1874    1.0000 </r>
       <r>    0.2085    1.0000 </r>
       <r>    0.2389    1.0000 </r>
       <r>    0.2489    1.0000 </r>
       <r>    0.2712    1.0000 </r>
       <r>    0.2861    1.0000 </r>
       <r>    0.3335    1.0000 </r>
       <r>    0.4092    1.0000 </r>
       <r>    0.4284    1.0000 </r>
       <r>    0.4573    1.0000 </r>
       <r>    0.4905    1.0000 </r>
       <r>    0.4912    1.0000 </r>
       <r>    0.5485    1.0000 </r>
       <r>    0.5491    1.0000 </r>
       <r>    0.5911    1.0000 </r>
       <r>    0.5949    1.0000 </r>
       <r>    0.6079    1.0000 </r>
       <r>    0.6144    1.0000 </r>
       <r>    0.6489    1.0000 </r>
       <r>    0.6571    1.0000 </r>
       <r>    0.6819    1.0000 </r>
       <r>    0.6923    1.0000 </r>
       <r>    0.8118    1.0000 </r>
       <r>    0.8183    1.0000 </r>
       <r>    0.8330    1.0000 </r>
       <r>    0.8555    1.0000 </r>
       <r>    0.8652    1.0000 </r>
       <r>    0.8809    1.0000 </r>
       <r>    0.9013    1.0000 </r>
       <r>    0.9056    1.0000 </r>
       <r>    0.9458    1.0000 </r>
       <r>    0.9493    1.0000 </r>
       <r>    0.9656    1.0000 </r>
       <r>    0.9862    1.0000 </r>
       <r>    1.0001    1.0000 </r>
       <r>    1.0415    1.0000 </r>
       <r>    1.0526    1.0000 </r>
       <r>    1.0861    1.0000 </r>
       <r>    1.0976    1.0000 </r>
       <r>    1.1016    1.0000 </r>
       <r>    1.1204    1.0000 </r>
       <r>    1.1238    1.0000 </r>
       <r>    1.1409    1.0000 </r>
       <r>    1.1761    1.0000 </r>
       <r>    1.1849    1.0000 </r>
       <r>    1.2190    1.0000 </r>
       <r>    1.2227    1.0000 </r>
       <r>    1.2708    1.0000 </r>
       <r>    1.3317    1.0000 </r>
       <r>    1.3460    1.0000 </r>
       <r>    1.3509    1.0000 </r>
       <r>    1.3646    1.0000 </r>
       <r>    1.3731    1.0000 </r>
       <r>    1.3892    1.0000 </r>
       <r>    1.3950    1.0000 </r>
       <r>    1.4089    1.0000 </r>
       <r>    1.4102    1.0000 </r>
       <r>    1.4186    1.0000 </r>
       <r>    1.4365    1.0000 </r>
       <r>    1.4377    1.0000 </r>
       <r>    1.4427    1.0000 </r>
       <r>    1.4763    1.0000 </r>
       <r>    1.4865    1.0000 </r>
       <r>    1.4892    1.0000 </r>
       <r>    1.5131    1.0000 </r>
       <r>    1.5140    1.0000 </r>
       <r>    1.5379    1.0000 </r>
       <r>    1.5713    1.0000 </r>
       <r>    1.5718    1.0000 </r>
       <r>    1.5896    1.0000 </r>
       <r>    1.6081    1.0000 </r>
       <r>    1.6082    1.0000 </r>
       <r>    1.6442    1.0000 </r>
       <r>    1.6476    1.0000 </r>
       <r>    1.6941    1.0000 </r>
       <r>    1.7466    1.0000 </r>
       <r>    1.7785    1.0000 </r>
       <r>    1.7801    1.0000 </r>
       <r>    1.7875    1.0000 </r>
       <r>    1.8381    1.0000 </r>
       <r>    1.8696    1.0000 </r>
       <r>    1.8743    1.0000 </r>
       <r>    1.9402    1.0000 </r>
       <r>    2.0355    1.0000 </r>
       <r>    2.2973    1.0000 </r>
       <r>    4.8528    1.0000 </r>
       <r>    4.9597    1.0000 </r>
       <r>    5.0948    1.0000 </r>
       <r>    7.5464    0.0000 </r>
       <r>    7.6844    0.0000 </r>
       <r>    9.0663    0.0000 </r>
       <r>    9.1229    0.0000 </r>
       <r>    9.7694    0.0000 </r>
       <r>    9.7901    0.0000 </r>
       <r>   10.3429    0.0000 </r>
       <r>   10.3863    0.0000 </r>
       <r>   10.3978    0.0000 </r>
       <r>   10.4738    0.0000 </r>
       <r>   10.5362    0.0000 </r>
       <r>   10.5524    0.0000 </r>
       <r>   10.5569    0.0000 </r>
       <r>   10.6216    0.0000 </r>
       <r>   10.6279    0.0000 </r>
       <r>   10.7434    0.0000 </r>
       <r>   10.7548    0.0000 </r>
       <r>   10.7599    0.0000 </r>
       <r>   10.7892    0.0000 </r>
       <r>   10.8017    0.0000 </r>
       <r>   10.8053    0.0000 </r>
       <r>   10.8428    0.0000 </r>
       <r>   10.8584    0.0000 </r>
       <r>   10.9010    0.0000 </r>
       <r>   10.9908    0.0000 </r>
       <r>   11.0261    0.0000 </r>
       <r>   11.0422    0.0000 </r>
       <r>   11.0604    0.0000 </r>
       <r>   11.0721    0.0000 </r>
       <r>   11.2325    0.0000 </r>
       <r>   11.2510    0.0000 </r>
       <r>   11.2965    0.0000 </r>
       <r>   11.3762    0.0000 </r>
       <r>   11.3782    0.0000 </r>
       <r>   11.3886    0.0000 </r>
       <r>   11.6398    0.0000 </r>
       <r>   11.7792    0.0000 </r>
       <r>   11.8083    0.0000 </r>
       <r>   11.8667    0.0000 </r>
       <r>   11.9900    0.0000 </r>
       <r>   12.0788    0.0000 </r>
       <r>   12.1759    0.0000 </r>
       <r>   12.2043    0.0000 </r>
       <r>   12.2081    0.0000 </r>
       <r>   12.2412    0.0000 </r>
       <r>   12.2502    0.0000 </r>
       <r>   12.2916    0.0000 </r>
       <r>   12.3733    0.0000 </r>
       <r>   12.3739    0.0000 </r>
       <r>   12.3961    0.0000 </r>
       <r>   12.5182    0.0000 </r>
       <r>   12.5359    0.0000 </r>
       <r>   12.5461    0.0000 </r>
       <r>   13.0368    0.0000 </r>
       <r>   13.0529    0.0000 </r>
       <r>   13.1190    0.0000 </r>
       <r>   13.2200    0.0000 </r>
       <r>   13.2953    0.0000 </r>
       <r>   13.3241    0.0000 </r>
       <r>   13.3280    0.0000 </r>
       <r>   13.3535    0.0000 </r>
       <r>   13.5147    0.0000 </r>
       <r>   13.6351    0.0000 </r>
       <r>   13.6355    0.0000 </r>
       <r>   13.6870    0.0000 </r>
       <r>   13.8279    0.0000 </r>
       <r>   13.8572    0.0000 </r>
       <r>   13.8940    0.0000 </r>
       <r>   13.9100    0.0000 </r>
       <r>   13.9391    0.0000 </r>
       <r>   13.9488    0.0000 </r>
       <r>   13.9605    0.0000 </r>
       <r>   13.9752    0.0000 </r>
       <r>   13.9920    0.0000 </r>
       <r>   14.0331    0.0000 </r>
       <r>   14.1045    0.0000 </r>
       <r>   14.1592    0.0000 </r>
       <r>   14.2291    0.0000 </r>
       <r>   14.2669    0.0000 </r>
       <r>   14.2752    0.0000 </r>
       <r>   14.2754    0.0000 </r>
       <r>   14.4119    0.0000 </r>
       <r>   14.4752    0.0000 </r>
       <r>   14.4879    0.0000 </r>
       <r>   14.5214    0.0000 </r>
       <r>   14.5273    0.0000 </r>
       <r>   14.5594    0.0000 </r>
       <r>   14.5725    0.0000 </r>
       <r>   14.6230    0.0000 </r>
       <r>   14.6349    0.0000 </r>
       <r>   14.6610    0.0000 </r>
       <r>   14.6955    0.0000 </r>
       <r>   14.8095    0.0000 </r>
       <r>   15.0849    0.0000 </r>
       <r>   15.1402    0.0000 </r>
       <r>   15.1454    0.0000 </r>
       <r>   15.1565    0.0000 </r>
       <r>   15.1663    0.0000 </r>
       <r>   15.2162    0.0000 </r>
       <r>   15.2394    0.0000 </r>
       <r>   15.2728    0.0000 </r>
       <r>   15.5483    0.0000 </r>
       <r>   15.5898    0.0000 </r>
       <r>   15.6250    0.0000 </r>
       <r>   15.7223    0.0000 </r>
      </set>
      <set comment="kpoint 6">
       <r>  -18.6141    1.0000 </r>
       <r>  -18.6007    1.0000 </r>
       <r>  -18.4883    1.0000 </r>
       <r>  -18.3075    1.0000 </r>
       <r>  -17.9875    1.0000 </r>
       <r>  -17.9856    1.0000 </r>
       <r>  -17.9832    1.0000 </r>
       <r>  -17.9604    1.0000 </r>
       <r>  -17.9487    1.0000 </r>
       <r>  -17.9291    1.0000 </r>
       <r>  -17.8879    1.0000 </r>
       <r>  -17.8713    1.0000 </r>
       <r>  -17.7537    1.0000 </r>
       <r>  -17.7537    1.0000 </r>
       <r>  -17.7243    1.0000 </r>
       <r>  -17.7182    1.0000 </r>
       <r>  -17.6829    1.0000 </r>
       <r>  -17.6336    1.0000 </r>
       <r>  -17.6210    1.0000 </r>
       <r>  -17.6168    1.0000 </r>
       <r>  -17.6104    1.0000 </r>
       <r>  -17.5624    1.0000 </r>
       <r>  -17.5473    1.0000 </r>
       <r>  -17.5084    1.0000 </r>
       <r>  -17.4892    1.0000 </r>
       <r>  -17.4882    1.0000 </r>
       <r>  -17.4572    1.0000 </r>
       <r>  -17.4474    1.0000 </r>
       <r>  -17.4023    1.0000 </r>
       <r>  -17.3913    1.0000 </r>
       <r>  -17.3834    1.0000 </r>
       <r>  -17.3774    1.0000 </r>
       <r>  -17.3683    1.0000 </r>
       <r>  -17.3588    1.0000 </r>
       <r>  -17.3459    1.0000 </r>
       <r>  -17.2989    1.0000 </r>
       <r>  -17.2975    1.0000 </r>
       <r>  -17.2911    1.0000 </r>
       <r>  -17.2882    1.0000 </r>
       <r>  -17.2740    1.0000 </r>
       <r>  -17.2369    1.0000 </r>
       <r>  -17.2102    1.0000 </r>
       <r>  -17.1965    1.0000 </r>
       <r>  -17.1750    1.0000 </r>
       <r>  -17.1516    1.0000 </r>
       <r>  -17.1239    1.0000 </r>
       <r>  -17.1217    1.0000 </r>
       <r>  -17.1194    1.0000 </r>
       <r>  -17.1061    1.0000 </r>
       <r>  -17.1016    1.0000 </r>
       <r>  -17.0810    1.0000 </r>
       <r>  -17.0464    1.0000 </r>
       <r>  -17.0318    1.0000 </r>
       <r>  -17.0270    1.0000 </r>
       <r>  -17.0204    1.0000 </r>
       <r>  -17.0084    1.0000 </r>
       <r>  -17.0077    1.0000 </r>
       <r>  -16.9971    1.0000 </r>
       <r>  -16.9881    1.0000 </r>
       <r>  -16.9344    1.0000 </r>
       <r>  -16.9343    1.0000 </r>
       <r>  -16.9232    1.0000 </r>
       <r>  -16.9040    1.0000 </r>
       <r>  -16.8984    1.0000 </r>
       <r>  -16.8734    1.0000 </r>
       <r>  -16.8491    1.0000 </r>
       <r>  -16.7759    1.0000 </r>
       <r>  -16.7642    1.0000 </r>
       <r>  -16.6432    1.0000 </r>
       <r>  -16.6106    1.0000 </r>
       <r>  -16.1173    1.0000 </r>
       <r>  -16.0775    1.0000 </r>
       <r>  -13.1826    1.0000 </r>
       <r>  -13.1771    1.0000 </r>
       <r>  -13.1624    1.0000 </r>
       <r>  -13.1569    1.0000 </r>
       <r>  -13.1410    1.0000 </r>
       <r>  -13.1341    1.0000 </r>
       <r>  -13.1259    1.0000 </r>
       <r>  -13.1075    1.0000 </r>
       <r>  -13.1062    1.0000 </r>
       <r>  -13.0890    1.0000 </r>
       <r>  -13.0880    1.0000 </r>
       <r>  -13.0808    1.0000 </r>
       <r>  -13.0780    1.0000 </r>
       <r>  -13.0704    1.0000 </r>
       <r>  -13.0670    1.0000 </r>
       <r>  -13.0628    1.0000 </r>
       <r>  -13.0538    1.0000 </r>
       <r>  -13.0537    1.0000 </r>
       <r>  -13.0490    1.0000 </r>
       <r>  -13.0467    1.0000 </r>
       <r>  -13.0400    1.0000 </r>
       <r>  -13.0382    1.0000 </r>
       <r>  -13.0369    1.0000 </r>
       <r>  -13.0341    1.0000 </r>
       <r>  -13.0335    1.0000 </r>
       <r>  -13.0267    1.0000 </r>
       <r>  -13.0248    1.0000 </r>
       <r>  -13.0228    1.0000 </r>
       <r>  -13.0224    1.0000 </r>
       <r>  -13.0223    1.0000 </r>
       <r>  -13.0164    1.0000 </r>
       <r>  -13.0138    1.0000 </r>
       <r>  -13.0083    1.0000 </r>
       <r>  -13.0040    1.0000 </r>
       <r>  -12.9989    1.0000 </r>
       <r>  -12.9945    1.0000 </r>
       <r>  -12.9929    1.0000 </r>
       <r>  -12.9925    1.0000 </r>
       <r>  -12.9822    1.0000 </r>
       <r>  -12.9771    1.0000 </r>
       <r>  -12.9722    1.0000 </r>
       <r>  -12.9720    1.0000 </r>
       <r>  -12.9686    1.0000 </r>
       <r>  -12.9625    1.0000 </r>
       <r>  -12.9599    1.0000 </r>
       <r>  -12.9538    1.0000 </r>
       <r>  -12.9521    1.0000 </r>
       <r>  -12.9492    1.0000 </r>
       <r>  -12.9475    1.0000 </r>
       <r>  -12.9454    1.0000 </r>
       <r>  -12.9441    1.0000 </r>
       <r>  -12.9372    1.0000 </r>
       <r>  -12.9366    1.0000 </r>
       <r>  -12.9312    1.0000 </r>
       <r>  -12.9299    1.0000 </r>
       <r>  -12.9245    1.0000 </r>
       <r>  -12.9221    1.0000 </r>
       <r>  -12.9211    1.0000 </r>
       <r>  -12.9201    1.0000 </r>
       <r>  -12.9188    1.0000 </r>
       <r>  -12.9136    1.0000 </r>
       <r>  -12.9116    1.0000 </r>
       <r>  -12.9048    1.0000 </r>
       <r>  -12.9021    1.0000 </r>
       <r>  -12.9004    1.0000 </r>
       <r>  -12.8976    1.0000 </r>
       <r>  -12.8961    1.0000 </r>
       <r>  -12.8940    1.0000 </r>
       <r>  -12.8896    1.0000 </r>
       <r>  -12.8869    1.0000 </r>
       <r>  -12.8847    1.0000 </r>
       <r>  -12.8823    1.0000 </r>
       <r>  -12.8802    1.0000 </r>
       <r>  -12.8769    1.0000 </r>
       <r>  -12.8750    1.0000 </r>
       <r>  -12.8723    1.0000 </r>
       <r>  -12.8695    1.0000 </r>
       <r>  -12.8677    1.0000 </r>
       <r>  -12.8640    1.0000 </r>
       <r>  -12.8633    1.0000 </r>
       <r>  -12.8567    1.0000 </r>
       <r>  -12.8538    1.0000 </r>
       <r>  -12.8460    1.0000 </r>
       <r>  -12.8417    1.0000 </r>
       <r>  -12.8414    1.0000 </r>
       <r>  -12.8382    1.0000 </r>
       <r>  -12.8350    1.0000 </r>
       <r>  -12.8325    1.0000 </r>
       <r>  -12.8313    1.0000 </r>
       <r>  -12.8289    1.0000 </r>
       <r>  -12.8254    1.0000 </r>
       <r>  -12.8185    1.0000 </r>
       <r>  -12.8178    1.0000 </r>
       <r>  -12.8150    1.0000 </r>
       <r>  -12.8136    1.0000 </r>
       <r>  -12.8123    1.0000 </r>
       <r>  -12.8087    1.0000 </r>
       <r>  -12.8073    1.0000 </r>
       <r>  -12.8048    1.0000 </r>
       <r>  -12.8031    1.0000 </r>
       <r>  -12.7938    1.0000 </r>
       <r>  -12.7922    1.0000 </r>
       <r>  -12.7894    1.0000 </r>
       <r>  -12.7890    1.0000 </r>
       <r>  -12.7833    1.0000 </r>
       <r>  -12.7826    1.0000 </r>
       <r>  -12.7794    1.0000 </r>
       <r>  -12.7784    1.0000 </r>
       <r>  -12.7751    1.0000 </r>
       <r>  -12.7739    1.0000 </r>
       <r>  -12.7653    1.0000 </r>
       <r>  -12.7643    1.0000 </r>
       <r>  -12.7628    1.0000 </r>
       <r>  -12.7595    1.0000 </r>
       <r>  -12.7521    1.0000 </r>
       <r>  -12.7500    1.0000 </r>
       <r>  -12.7494    1.0000 </r>
       <r>  -12.7464    1.0000 </r>
       <r>  -12.7435    1.0000 </r>
       <r>  -12.7411    1.0000 </r>
       <r>  -12.7388    1.0000 </r>
       <r>  -12.7367    1.0000 </r>
       <r>  -12.7366    1.0000 </r>
       <r>  -12.7334    1.0000 </r>
       <r>  -12.7314    1.0000 </r>
       <r>  -12.7254    1.0000 </r>
       <r>  -12.7251    1.0000 </r>
       <r>  -12.7232    1.0000 </r>
       <r>  -12.7224    1.0000 </r>
       <r>  -12.7181    1.0000 </r>
       <r>  -12.7145    1.0000 </r>
       <r>  -12.7131    1.0000 </r>
       <r>  -12.7128    1.0000 </r>
       <r>  -12.7105    1.0000 </r>
       <r>  -12.7095    1.0000 </r>
       <r>  -12.7079    1.0000 </r>
       <r>  -12.7054    1.0000 </r>
       <r>  -12.7042    1.0000 </r>
       <r>  -12.7036    1.0000 </r>
       <r>  -12.6995    1.0000 </r>
       <r>  -12.6961    1.0000 </r>
       <r>  -12.6953    1.0000 </r>
       <r>  -12.6937    1.0000 </r>
       <r>  -12.6898    1.0000 </r>
       <r>  -12.6866    1.0000 </r>
       <r>  -12.6805    1.0000 </r>
       <r>  -12.6761    1.0000 </r>
       <r>  -12.6741    1.0000 </r>
       <r>  -12.6725    1.0000 </r>
       <r>  -12.6702    1.0000 </r>
       <r>  -12.6607    1.0000 </r>
       <r>  -12.6586    1.0000 </r>
       <r>  -12.6560    1.0000 </r>
       <r>  -12.6490    1.0000 </r>
       <r>  -12.6485    1.0000 </r>
       <r>  -12.6409    1.0000 </r>
       <r>  -12.6387    1.0000 </r>
       <r>  -12.6373    1.0000 </r>
       <r>  -12.6300    1.0000 </r>
       <r>  -12.6177    1.0000 </r>
       <r>  -12.6115    1.0000 </r>
       <r>  -12.6099    1.0000 </r>
       <r>  -12.6021    1.0000 </r>
       <r>  -12.6009    1.0000 </r>
       <r>  -12.5967    1.0000 </r>
       <r>  -12.5952    1.0000 </r>
       <r>  -12.5883    1.0000 </r>
       <r>  -12.5760    1.0000 </r>
       <r>  -12.5753    1.0000 </r>
       <r>  -12.5700    1.0000 </r>
       <r>  -12.5599    1.0000 </r>
       <r>  -12.5542    1.0000 </r>
       <r>  -12.5522    1.0000 </r>
       <r>  -12.5481    1.0000 </r>
       <r>  -12.5394    1.0000 </r>
       <r>  -12.5282    1.0000 </r>
       <r>  -12.5165    1.0000 </r>
       <r>  -12.5112    1.0000 </r>
       <r>  -12.4998    1.0000 </r>
       <r>  -12.4938    1.0000 </r>
       <r>  -12.4863    1.0000 </r>
       <r>  -12.4803    1.0000 </r>
       <r>  -12.4702    1.0000 </r>
       <r>  -12.4628    1.0000 </r>
       <r>  -12.4543    1.0000 </r>
       <r>  -12.4415    1.0000 </r>
       <r>  -12.4370    1.0000 </r>
       <r>  -12.4164    1.0000 </r>
       <r>  -12.4135    1.0000 </r>
       <r>  -12.4012    1.0000 </r>
       <r>  -12.3893    1.0000 </r>
       <r>  -12.3790    1.0000 </r>
       <r>  -12.3599    1.0000 </r>
       <r>  -12.3577    1.0000 </r>
       <r>  -12.3411    1.0000 </r>
       <r>  -12.3364    1.0000 </r>
       <r>  -12.3351    1.0000 </r>
       <r>  -12.3202    1.0000 </r>
       <r>  -12.3196    1.0000 </r>
       <r>  -12.3042    1.0000 </r>
       <r>  -12.3013    1.0000 </r>
       <r>  -12.2958    1.0000 </r>
       <r>  -12.2721    1.0000 </r>
       <r>  -12.2659    1.0000 </r>
       <r>  -12.2583    1.0000 </r>
       <r>  -12.2310    1.0000 </r>
       <r>  -12.2269    1.0000 </r>
       <r>  -12.1911    1.0000 </r>
       <r>  -12.1812    1.0000 </r>
       <r>  -12.1086    1.0000 </r>
       <r>  -12.0976    1.0000 </r>
       <r>  -12.0721    1.0000 </r>
       <r>  -12.0659    1.0000 </r>
       <r>  -12.0434    1.0000 </r>
       <r>  -12.0275    1.0000 </r>
       <r>  -12.0142    1.0000 </r>
       <r>  -12.0100    1.0000 </r>
       <r>  -11.9937    1.0000 </r>
       <r>  -11.9809    1.0000 </r>
       <r>  -11.9770    1.0000 </r>
       <r>  -11.9523    1.0000 </r>
       <r>  -11.9438    1.0000 </r>
       <r>  -11.9328    1.0000 </r>
       <r>  -11.9285    1.0000 </r>
       <r>  -11.9264    1.0000 </r>
       <r>  -11.8931    1.0000 </r>
       <r>  -11.8515    1.0000 </r>
       <r>  -11.8506    1.0000 </r>
       <r>  -11.8196    1.0000 </r>
       <r>  -11.8150    1.0000 </r>
       <r>  -11.8120    1.0000 </r>
       <r>  -11.7785    1.0000 </r>
       <r>  -11.7099    1.0000 </r>
       <r>  -11.6742    1.0000 </r>
       <r>  -11.6279    1.0000 </r>
       <r>   -5.0455    1.0000 </r>
       <r>   -4.9783    1.0000 </r>
       <r>   -4.6085    1.0000 </r>
       <r>   -4.5982    1.0000 </r>
       <r>   -4.5963    1.0000 </r>
       <r>   -4.5631    1.0000 </r>
       <r>   -4.5584    1.0000 </r>
       <r>   -4.5249    1.0000 </r>
       <r>   -4.4706    1.0000 </r>
       <r>   -4.4665    1.0000 </r>
       <r>   -4.3800    1.0000 </r>
       <r>   -4.3739    1.0000 </r>
       <r>   -4.3181    1.0000 </r>
       <r>   -4.3180    1.0000 </r>
       <r>   -4.2894    1.0000 </r>
       <r>   -4.2772    1.0000 </r>
       <r>   -4.1449    1.0000 </r>
       <r>   -4.1289    1.0000 </r>
       <r>   -4.0780    1.0000 </r>
       <r>   -4.0474    1.0000 </r>
       <r>   -4.0422    1.0000 </r>
       <r>   -4.0288    1.0000 </r>
       <r>   -4.0049    1.0000 </r>
       <r>   -3.9768    1.0000 </r>
       <r>   -3.9590    1.0000 </r>
       <r>   -3.8415    1.0000 </r>
       <r>   -3.8352    1.0000 </r>
       <r>   -3.8154    1.0000 </r>
       <r>   -3.8013    1.0000 </r>
       <r>   -3.7789    1.0000 </r>
       <r>   -3.6138    1.0000 </r>
       <r>   -3.4927    1.0000 </r>
       <r>   -3.3081    1.0000 </r>
       <r>   -3.2990    1.0000 </r>
       <r>   -3.1665    1.0000 </r>
       <r>   -3.1537    1.0000 </r>
       <r>   -3.1270    1.0000 </r>
       <r>   -3.1169    1.0000 </r>
       <r>   -3.1048    1.0000 </r>
       <r>   -3.0880    1.0000 </r>
       <r>   -3.0710    1.0000 </r>
       <r>   -3.0563    1.0000 </r>
       <r>   -2.9775    1.0000 </r>
       <r>   -2.7966    1.0000 </r>
       <r>   -2.7914    1.0000 </r>
       <r>   -2.7842    1.0000 </r>
       <r>   -2.6539    1.0000 </r>
       <r>   -2.6234    1.0000 </r>
       <r>   -2.5232    1.0000 </r>
       <r>   -2.5156    1.0000 </r>
       <r>   -2.3768    1.0000 </r>
       <r>   -2.3241    1.0000 </r>
       <r>   -2.3205    1.0000 </r>
       <r>   -2.3043    1.0000 </r>
       <r>   -2.2701    1.0000 </r>
       <r>   -2.2018    1.0000 </r>
       <r>   -2.1212    1.0000 </r>
       <r>   -2.0849    1.0000 </r>
       <r>   -2.0805    1.0000 </r>
       <r>   -2.0659    1.0000 </r>
       <r>   -2.0515    1.0000 </r>
       <r>   -1.9265    1.0000 </r>
       <r>   -1.8309    1.0000 </r>
       <r>   -1.7965    1.0000 </r>
       <r>   -1.7927    1.0000 </r>
       <r>   -1.7903    1.0000 </r>
       <r>   -1.7768    1.0000 </r>
       <r>   -1.7537    1.0000 </r>
       <r>   -1.7390    1.0000 </r>
       <r>   -1.7097    1.0000 </r>
       <r>   -1.6966    1.0000 </r>
       <r>   -1.6691    1.0000 </r>
       <r>   -1.6262    1.0000 </r>
       <r>   -1.5598    1.0000 </r>
       <r>   -1.5589    1.0000 </r>
       <r>   -1.5173    1.0000 </r>
       <r>   -1.5114    1.0000 </r>
       <r>   -1.4510    1.0000 </r>
       <r>   -1.4096    1.0000 </r>
       <r>   -1.3807    1.0000 </r>
       <r>   -1.3594    1.0000 </r>
       <r>   -1.3034    1.0000 </r>
       <r>   -1.2964    1.0000 </r>
       <r>   -1.2628    1.0000 </r>
       <r>   -1.2482    1.0000 </r>
       <r>   -1.2434    1.0000 </r>
       <r>   -1.1660    1.0000 </r>
       <r>   -1.0895    1.0000 </r>
       <r>   -1.0164    1.0000 </r>
       <r>   -0.9543    1.0000 </r>
       <r>   -0.9463    1.0000 </r>
       <r>   -0.9383    1.0000 </r>
       <r>   -0.9291    1.0000 </r>
       <r>   -0.9149    1.0000 </r>
       <r>   -0.8766    1.0000 </r>
       <r>   -0.8635    1.0000 </r>
       <r>   -0.8521    1.0000 </r>
       <r>   -0.7606    1.0000 </r>
       <r>   -0.7254    1.0000 </r>
       <r>   -0.6185    1.0000 </r>
       <r>   -0.5410    1.0000 </r>
       <r>   -0.5388    1.0000 </r>
       <r>   -0.4554    1.0000 </r>
       <r>   -0.4080    1.0000 </r>
       <r>   -0.3907    1.0000 </r>
       <r>   -0.3828    1.0000 </r>
       <r>   -0.3143    1.0000 </r>
       <r>   -0.2957    1.0000 </r>
       <r>   -0.2699    1.0000 </r>
       <r>   -0.2639    1.0000 </r>
       <r>   -0.2330    1.0000 </r>
       <r>   -0.2249    1.0000 </r>
       <r>   -0.2054    1.0000 </r>
       <r>   -0.1667    1.0000 </r>
       <r>   -0.1605    1.0000 </r>
       <r>   -0.1360    1.0000 </r>
       <r>   -0.1173    1.0000 </r>
       <r>   -0.1158    1.0000 </r>
       <r>   -0.0939    1.0000 </r>
       <r>   -0.0818    1.0000 </r>
       <r>   -0.0416    1.0000 </r>
       <r>   -0.0232    1.0000 </r>
       <r>    0.0366    1.0000 </r>
       <r>    0.0546    1.0000 </r>
       <r>    0.0848    1.0000 </r>
       <r>    0.0860    1.0000 </r>
       <r>    0.0902    1.0000 </r>
       <r>    0.1313    1.0000 </r>
       <r>    0.1411    1.0000 </r>
       <r>    0.1787    1.0000 </r>
       <r>    0.2061    1.0000 </r>
       <r>    0.2090    1.0000 </r>
       <r>    0.2484    1.0000 </r>
       <r>    0.2641    1.0000 </r>
       <r>    0.2905    1.0000 </r>
       <r>    0.3140    1.0000 </r>
       <r>    0.3346    1.0000 </r>
       <r>    0.3661    1.0000 </r>
       <r>    0.3744    1.0000 </r>
       <r>    0.4638    1.0000 </r>
       <r>    0.4743    1.0000 </r>
       <r>    0.4874    1.0000 </r>
       <r>    0.5107    1.0000 </r>
       <r>    0.5302    1.0000 </r>
       <r>    0.5348    1.0000 </r>
       <r>    0.5714    1.0000 </r>
       <r>    0.5751    1.0000 </r>
       <r>    0.5961    1.0000 </r>
       <r>    0.6101    1.0000 </r>
       <r>    0.6521    1.0000 </r>
       <r>    0.6568    1.0000 </r>
       <r>    0.6939    1.0000 </r>
       <r>    0.7053    1.0000 </r>
       <r>    0.7276    1.0000 </r>
       <r>    0.7688    1.0000 </r>
       <r>    0.7812    1.0000 </r>
       <r>    0.7839    1.0000 </r>
       <r>    0.7849    1.0000 </r>
       <r>    0.8090    1.0000 </r>
       <r>    0.8281    1.0000 </r>
       <r>    0.9397    1.0000 </r>
       <r>    0.9496    1.0000 </r>
       <r>    0.9573    1.0000 </r>
       <r>    0.9702    1.0000 </r>
       <r>    0.9933    1.0000 </r>
       <r>    1.0141    1.0000 </r>
       <r>    1.0294    1.0000 </r>
       <r>    1.0382    1.0000 </r>
       <r>    1.0711    1.0000 </r>
       <r>    1.0792    1.0000 </r>
       <r>    1.0959    1.0000 </r>
       <r>    1.1246    1.0000 </r>
       <r>    1.1303    1.0000 </r>
       <r>    1.1751    1.0000 </r>
       <r>    1.1938    1.0000 </r>
       <r>    1.2289    1.0000 </r>
       <r>    1.2373    1.0000 </r>
       <r>    1.2586    1.0000 </r>
       <r>    1.2698    1.0000 </r>
       <r>    1.2732    1.0000 </r>
       <r>    1.3027    1.0000 </r>
       <r>    1.3185    1.0000 </r>
       <r>    1.3330    1.0000 </r>
       <r>    1.3333    1.0000 </r>
       <r>    1.3424    1.0000 </r>
       <r>    1.3481    1.0000 </r>
       <r>    1.3646    1.0000 </r>
       <r>    1.3699    1.0000 </r>
       <r>    1.3822    1.0000 </r>
       <r>    1.4027    1.0000 </r>
       <r>    1.4061    1.0000 </r>
       <r>    1.4062    1.0000 </r>
       <r>    1.4296    1.0000 </r>
       <r>    1.4943    1.0000 </r>
       <r>    1.5058    1.0000 </r>
       <r>    1.5324    1.0000 </r>
       <r>    1.5358    1.0000 </r>
       <r>    1.5423    1.0000 </r>
       <r>    1.5591    1.0000 </r>
       <r>    1.5804    1.0000 </r>
       <r>    1.5949    1.0000 </r>
       <r>    1.6258    1.0000 </r>
       <r>    1.6480    1.0000 </r>
       <r>    1.6648    1.0000 </r>
       <r>    1.6690    1.0000 </r>
       <r>    1.6997    1.0000 </r>
       <r>    1.7372    1.0000 </r>
       <r>    1.7776    1.0000 </r>
       <r>    1.7796    1.0000 </r>
       <r>    1.8558    1.0000 </r>
       <r>    1.8580    1.0000 </r>
       <r>    1.9022    1.0000 </r>
       <r>    1.9261    1.0000 </r>
       <r>    1.9928    1.0000 </r>
       <r>    2.0268    1.0000 </r>
       <r>    2.3170    1.0000 </r>
       <r>    4.8533    1.0000 </r>
       <r>    4.9608    1.0000 </r>
       <r>    5.0916    1.0000 </r>
       <r>    7.8639    0.0000 </r>
       <r>    7.9385    0.0000 </r>
       <r>    8.4451    0.0000 </r>
       <r>    8.5285    0.0000 </r>
       <r>   10.1752    0.0000 </r>
       <r>   10.1850    0.0000 </r>
       <r>   10.2452    0.0000 </r>
       <r>   10.3219    0.0000 </r>
       <r>   10.4180    0.0000 </r>
       <r>   10.5235    0.0000 </r>
       <r>   10.5271    0.0000 </r>
       <r>   10.5473    0.0000 </r>
       <r>   10.5527    0.0000 </r>
       <r>   10.5917    0.0000 </r>
       <r>   10.6177    0.0000 </r>
       <r>   10.6273    0.0000 </r>
       <r>   10.6469    0.0000 </r>
       <r>   10.6706    0.0000 </r>
       <r>   10.6727    0.0000 </r>
       <r>   10.7202    0.0000 </r>
       <r>   10.7724    0.0000 </r>
       <r>   10.8182    0.0000 </r>
       <r>   10.8848    0.0000 </r>
       <r>   10.9373    0.0000 </r>
       <r>   11.0154    0.0000 </r>
       <r>   11.0543    0.0000 </r>
       <r>   11.0900    0.0000 </r>
       <r>   11.1306    0.0000 </r>
       <r>   11.1614    0.0000 </r>
       <r>   11.1885    0.0000 </r>
       <r>   11.3035    0.0000 </r>
       <r>   11.4667    0.0000 </r>
       <r>   11.4891    0.0000 </r>
       <r>   11.5884    0.0000 </r>
       <r>   11.6201    0.0000 </r>
       <r>   11.6265    0.0000 </r>
       <r>   11.6730    0.0000 </r>
       <r>   11.7473    0.0000 </r>
       <r>   11.7905    0.0000 </r>
       <r>   11.9472    0.0000 </r>
       <r>   12.0146    0.0000 </r>
       <r>   12.0756    0.0000 </r>
       <r>   12.0789    0.0000 </r>
       <r>   12.1436    0.0000 </r>
       <r>   12.4309    0.0000 </r>
       <r>   12.4843    0.0000 </r>
       <r>   12.5178    0.0000 </r>
       <r>   12.5342    0.0000 </r>
       <r>   12.5379    0.0000 </r>
       <r>   12.5772    0.0000 </r>
       <r>   12.6327    0.0000 </r>
       <r>   12.6485    0.0000 </r>
       <r>   12.7140    0.0000 </r>
       <r>   12.8173    0.0000 </r>
       <r>   12.9116    0.0000 </r>
       <r>   13.0796    0.0000 </r>
       <r>   13.1006    0.0000 </r>
       <r>   13.2167    0.0000 </r>
       <r>   13.2507    0.0000 </r>
       <r>   13.3035    0.0000 </r>
       <r>   13.3371    0.0000 </r>
       <r>   13.4571    0.0000 </r>
       <r>   13.5037    0.0000 </r>
       <r>   13.5212    0.0000 </r>
       <r>   13.5238    0.0000 </r>
       <r>   13.6356    0.0000 </r>
       <r>   13.6603    0.0000 </r>
       <r>   13.6875    0.0000 </r>
       <r>   13.7027    0.0000 </r>
       <r>   13.8141    0.0000 </r>
       <r>   13.8171    0.0000 </r>
       <r>   13.8674    0.0000 </r>
       <r>   13.8815    0.0000 </r>
       <r>   13.9278    0.0000 </r>
       <r>   13.9531    0.0000 </r>
       <r>   14.0232    0.0000 </r>
       <r>   14.2282    0.0000 </r>
       <r>   14.2495    0.0000 </r>
       <r>   14.3075    0.0000 </r>
       <r>   14.3395    0.0000 </r>
       <r>   14.3524    0.0000 </r>
       <r>   14.3638    0.0000 </r>
       <r>   14.3973    0.0000 </r>
       <r>   14.4458    0.0000 </r>
       <r>   14.4504    0.0000 </r>
       <r>   14.4573    0.0000 </r>
       <r>   14.4766    0.0000 </r>
       <r>   14.5703    0.0000 </r>
       <r>   14.7785    0.0000 </r>
       <r>   14.8557    0.0000 </r>
       <r>   14.8589    0.0000 </r>
       <r>   14.8892    0.0000 </r>
       <r>   14.9060    0.0000 </r>
       <r>   15.0351    0.0000 </r>
       <r>   15.1242    0.0000 </r>
       <r>   15.1291    0.0000 </r>
       <r>   15.1483    0.0000 </r>
       <r>   15.4347    0.0000 </r>
       <r>   15.4515    0.0000 </r>
       <r>   15.5128    0.0000 </r>
       <r>   15.5267    0.0000 </r>
       <r>   15.6654    0.0000 </r>
       <r>   15.6925    0.0000 </r>
       <r>   15.7056    0.0000 </r>
       <r>   15.7381    0.0000 </r>
      </set>
      <set comment="kpoint 7">
       <r>  -18.4976    1.0000 </r>
       <r>  -18.4721    1.0000 </r>
       <r>  -18.4231    1.0000 </r>
       <r>  -18.3583    1.0000 </r>
       <r>  -18.2517    1.0000 </r>
       <r>  -18.2165    1.0000 </r>
       <r>  -18.1268    1.0000 </r>
       <r>  -18.0242    1.0000 </r>
       <r>  -17.9725    1.0000 </r>
       <r>  -17.9049    1.0000 </r>
       <r>  -17.9036    1.0000 </r>
       <r>  -17.7943    1.0000 </r>
       <r>  -17.7087    1.0000 </r>
       <r>  -17.6762    1.0000 </r>
       <r>  -17.6752    1.0000 </r>
       <r>  -17.6606    1.0000 </r>
       <r>  -17.6302    1.0000 </r>
       <r>  -17.5999    1.0000 </r>
       <r>  -17.5942    1.0000 </r>
       <r>  -17.5859    1.0000 </r>
       <r>  -17.5507    1.0000 </r>
       <r>  -17.5485    1.0000 </r>
       <r>  -17.5222    1.0000 </r>
       <r>  -17.5068    1.0000 </r>
       <r>  -17.4974    1.0000 </r>
       <r>  -17.4885    1.0000 </r>
       <r>  -17.4855    1.0000 </r>
       <r>  -17.4447    1.0000 </r>
       <r>  -17.4390    1.0000 </r>
       <r>  -17.4160    1.0000 </r>
       <r>  -17.3916    1.0000 </r>
       <r>  -17.3733    1.0000 </r>
       <r>  -17.3682    1.0000 </r>
       <r>  -17.3608    1.0000 </r>
       <r>  -17.3346    1.0000 </r>
       <r>  -17.3141    1.0000 </r>
       <r>  -17.2891    1.0000 </r>
       <r>  -17.2835    1.0000 </r>
       <r>  -17.2662    1.0000 </r>
       <r>  -17.2583    1.0000 </r>
       <r>  -17.2453    1.0000 </r>
       <r>  -17.2229    1.0000 </r>
       <r>  -17.2064    1.0000 </r>
       <r>  -17.1694    1.0000 </r>
       <r>  -17.1588    1.0000 </r>
       <r>  -17.1532    1.0000 </r>
       <r>  -17.1373    1.0000 </r>
       <r>  -17.1106    1.0000 </r>
       <r>  -17.1010    1.0000 </r>
       <r>  -17.0880    1.0000 </r>
       <r>  -17.0733    1.0000 </r>
       <r>  -17.0668    1.0000 </r>
       <r>  -17.0481    1.0000 </r>
       <r>  -17.0299    1.0000 </r>
       <r>  -17.0140    1.0000 </r>
       <r>  -16.9942    1.0000 </r>
       <r>  -16.9689    1.0000 </r>
       <r>  -16.9646    1.0000 </r>
       <r>  -16.9622    1.0000 </r>
       <r>  -16.9550    1.0000 </r>
       <r>  -16.9407    1.0000 </r>
       <r>  -16.9180    1.0000 </r>
       <r>  -16.9176    1.0000 </r>
       <r>  -16.8963    1.0000 </r>
       <r>  -16.8763    1.0000 </r>
       <r>  -16.8619    1.0000 </r>
       <r>  -16.8172    1.0000 </r>
       <r>  -16.7242    1.0000 </r>
       <r>  -16.6443    1.0000 </r>
       <r>  -16.6222    1.0000 </r>
       <r>  -16.1278    1.0000 </r>
       <r>  -16.0662    1.0000 </r>
       <r>  -13.1770    1.0000 </r>
       <r>  -13.1729    1.0000 </r>
       <r>  -13.1589    1.0000 </r>
       <r>  -13.1554    1.0000 </r>
       <r>  -13.1347    1.0000 </r>
       <r>  -13.1346    1.0000 </r>
       <r>  -13.1210    1.0000 </r>
       <r>  -13.1174    1.0000 </r>
       <r>  -13.1081    1.0000 </r>
       <r>  -13.1030    1.0000 </r>
       <r>  -13.0963    1.0000 </r>
       <r>  -13.0886    1.0000 </r>
       <r>  -13.0862    1.0000 </r>
       <r>  -13.0814    1.0000 </r>
       <r>  -13.0767    1.0000 </r>
       <r>  -13.0716    1.0000 </r>
       <r>  -13.0695    1.0000 </r>
       <r>  -13.0690    1.0000 </r>
       <r>  -13.0631    1.0000 </r>
       <r>  -13.0617    1.0000 </r>
       <r>  -13.0569    1.0000 </r>
       <r>  -13.0433    1.0000 </r>
       <r>  -13.0429    1.0000 </r>
       <r>  -13.0342    1.0000 </r>
       <r>  -13.0277    1.0000 </r>
       <r>  -13.0268    1.0000 </r>
       <r>  -13.0206    1.0000 </r>
       <r>  -13.0187    1.0000 </r>
       <r>  -13.0154    1.0000 </r>
       <r>  -13.0118    1.0000 </r>
       <r>  -13.0108    1.0000 </r>
       <r>  -13.0084    1.0000 </r>
       <r>  -13.0070    1.0000 </r>
       <r>  -12.9988    1.0000 </r>
       <r>  -12.9980    1.0000 </r>
       <r>  -12.9906    1.0000 </r>
       <r>  -12.9853    1.0000 </r>
       <r>  -12.9811    1.0000 </r>
       <r>  -12.9746    1.0000 </r>
       <r>  -12.9738    1.0000 </r>
       <r>  -12.9716    1.0000 </r>
       <r>  -12.9685    1.0000 </r>
       <r>  -12.9669    1.0000 </r>
       <r>  -12.9624    1.0000 </r>
       <r>  -12.9615    1.0000 </r>
       <r>  -12.9526    1.0000 </r>
       <r>  -12.9509    1.0000 </r>
       <r>  -12.9494    1.0000 </r>
       <r>  -12.9492    1.0000 </r>
       <r>  -12.9449    1.0000 </r>
       <r>  -12.9435    1.0000 </r>
       <r>  -12.9392    1.0000 </r>
       <r>  -12.9376    1.0000 </r>
       <r>  -12.9346    1.0000 </r>
       <r>  -12.9329    1.0000 </r>
       <r>  -12.9304    1.0000 </r>
       <r>  -12.9297    1.0000 </r>
       <r>  -12.9270    1.0000 </r>
       <r>  -12.9264    1.0000 </r>
       <r>  -12.9213    1.0000 </r>
       <r>  -12.9188    1.0000 </r>
       <r>  -12.9136    1.0000 </r>
       <r>  -12.9056    1.0000 </r>
       <r>  -12.9041    1.0000 </r>
       <r>  -12.8990    1.0000 </r>
       <r>  -12.8981    1.0000 </r>
       <r>  -12.8944    1.0000 </r>
       <r>  -12.8917    1.0000 </r>
       <r>  -12.8851    1.0000 </r>
       <r>  -12.8842    1.0000 </r>
       <r>  -12.8817    1.0000 </r>
       <r>  -12.8807    1.0000 </r>
       <r>  -12.8777    1.0000 </r>
       <r>  -12.8777    1.0000 </r>
       <r>  -12.8717    1.0000 </r>
       <r>  -12.8683    1.0000 </r>
       <r>  -12.8663    1.0000 </r>
       <r>  -12.8630    1.0000 </r>
       <r>  -12.8593    1.0000 </r>
       <r>  -12.8565    1.0000 </r>
       <r>  -12.8561    1.0000 </r>
       <r>  -12.8553    1.0000 </r>
       <r>  -12.8529    1.0000 </r>
       <r>  -12.8512    1.0000 </r>
       <r>  -12.8502    1.0000 </r>
       <r>  -12.8474    1.0000 </r>
       <r>  -12.8446    1.0000 </r>
       <r>  -12.8421    1.0000 </r>
       <r>  -12.8404    1.0000 </r>
       <r>  -12.8391    1.0000 </r>
       <r>  -12.8379    1.0000 </r>
       <r>  -12.8362    1.0000 </r>
       <r>  -12.8359    1.0000 </r>
       <r>  -12.8308    1.0000 </r>
       <r>  -12.8260    1.0000 </r>
       <r>  -12.8254    1.0000 </r>
       <r>  -12.8211    1.0000 </r>
       <r>  -12.8148    1.0000 </r>
       <r>  -12.8129    1.0000 </r>
       <r>  -12.8110    1.0000 </r>
       <r>  -12.8042    1.0000 </r>
       <r>  -12.8012    1.0000 </r>
       <r>  -12.7955    1.0000 </r>
       <r>  -12.7905    1.0000 </r>
       <r>  -12.7849    1.0000 </r>
       <r>  -12.7835    1.0000 </r>
       <r>  -12.7828    1.0000 </r>
       <r>  -12.7782    1.0000 </r>
       <r>  -12.7761    1.0000 </r>
       <r>  -12.7720    1.0000 </r>
       <r>  -12.7696    1.0000 </r>
       <r>  -12.7628    1.0000 </r>
       <r>  -12.7606    1.0000 </r>
       <r>  -12.7584    1.0000 </r>
       <r>  -12.7546    1.0000 </r>
       <r>  -12.7521    1.0000 </r>
       <r>  -12.7481    1.0000 </r>
       <r>  -12.7462    1.0000 </r>
       <r>  -12.7415    1.0000 </r>
       <r>  -12.7399    1.0000 </r>
       <r>  -12.7368    1.0000 </r>
       <r>  -12.7349    1.0000 </r>
       <r>  -12.7328    1.0000 </r>
       <r>  -12.7291    1.0000 </r>
       <r>  -12.7287    1.0000 </r>
       <r>  -12.7257    1.0000 </r>
       <r>  -12.7233    1.0000 </r>
       <r>  -12.7195    1.0000 </r>
       <r>  -12.7137    1.0000 </r>
       <r>  -12.7131    1.0000 </r>
       <r>  -12.7099    1.0000 </r>
       <r>  -12.7075    1.0000 </r>
       <r>  -12.7062    1.0000 </r>
       <r>  -12.7027    1.0000 </r>
       <r>  -12.7021    1.0000 </r>
       <r>  -12.6982    1.0000 </r>
       <r>  -12.6913    1.0000 </r>
       <r>  -12.6888    1.0000 </r>
       <r>  -12.6857    1.0000 </r>
       <r>  -12.6846    1.0000 </r>
       <r>  -12.6807    1.0000 </r>
       <r>  -12.6773    1.0000 </r>
       <r>  -12.6727    1.0000 </r>
       <r>  -12.6720    1.0000 </r>
       <r>  -12.6720    1.0000 </r>
       <r>  -12.6673    1.0000 </r>
       <r>  -12.6647    1.0000 </r>
       <r>  -12.6565    1.0000 </r>
       <r>  -12.6556    1.0000 </r>
       <r>  -12.6531    1.0000 </r>
       <r>  -12.6487    1.0000 </r>
       <r>  -12.6475    1.0000 </r>
       <r>  -12.6458    1.0000 </r>
       <r>  -12.6454    1.0000 </r>
       <r>  -12.6419    1.0000 </r>
       <r>  -12.6402    1.0000 </r>
       <r>  -12.6366    1.0000 </r>
       <r>  -12.6285    1.0000 </r>
       <r>  -12.6239    1.0000 </r>
       <r>  -12.6212    1.0000 </r>
       <r>  -12.6158    1.0000 </r>
       <r>  -12.6042    1.0000 </r>
       <r>  -12.6000    1.0000 </r>
       <r>  -12.5966    1.0000 </r>
       <r>  -12.5942    1.0000 </r>
       <r>  -12.5905    1.0000 </r>
       <r>  -12.5841    1.0000 </r>
       <r>  -12.5733    1.0000 </r>
       <r>  -12.5675    1.0000 </r>
       <r>  -12.5638    1.0000 </r>
       <r>  -12.5538    1.0000 </r>
       <r>  -12.5526    1.0000 </r>
       <r>  -12.5412    1.0000 </r>
       <r>  -12.5409    1.0000 </r>
       <r>  -12.5317    1.0000 </r>
       <r>  -12.5270    1.0000 </r>
       <r>  -12.5249    1.0000 </r>
       <r>  -12.5133    1.0000 </r>
       <r>  -12.4922    1.0000 </r>
       <r>  -12.4799    1.0000 </r>
       <r>  -12.4715    1.0000 </r>
       <r>  -12.4686    1.0000 </r>
       <r>  -12.4542    1.0000 </r>
       <r>  -12.4526    1.0000 </r>
       <r>  -12.4422    1.0000 </r>
       <r>  -12.4293    1.0000 </r>
       <r>  -12.4241    1.0000 </r>
       <r>  -12.4101    1.0000 </r>
       <r>  -12.4019    1.0000 </r>
       <r>  -12.3976    1.0000 </r>
       <r>  -12.3938    1.0000 </r>
       <r>  -12.3870    1.0000 </r>
       <r>  -12.3791    1.0000 </r>
       <r>  -12.3644    1.0000 </r>
       <r>  -12.3598    1.0000 </r>
       <r>  -12.3508    1.0000 </r>
       <r>  -12.3427    1.0000 </r>
       <r>  -12.3392    1.0000 </r>
       <r>  -12.3292    1.0000 </r>
       <r>  -12.3240    1.0000 </r>
       <r>  -12.3080    1.0000 </r>
       <r>  -12.2951    1.0000 </r>
       <r>  -12.2823    1.0000 </r>
       <r>  -12.2789    1.0000 </r>
       <r>  -12.2733    1.0000 </r>
       <r>  -12.2346    1.0000 </r>
       <r>  -12.2212    1.0000 </r>
       <r>  -12.2199    1.0000 </r>
       <r>  -12.1851    1.0000 </r>
       <r>  -12.1385    1.0000 </r>
       <r>  -12.1350    1.0000 </r>
       <r>  -12.1074    1.0000 </r>
       <r>  -12.0936    1.0000 </r>
       <r>  -12.0841    1.0000 </r>
       <r>  -12.0638    1.0000 </r>
       <r>  -12.0438    1.0000 </r>
       <r>  -12.0411    1.0000 </r>
       <r>  -12.0230    1.0000 </r>
       <r>  -12.0075    1.0000 </r>
       <r>  -11.9849    1.0000 </r>
       <r>  -11.9690    1.0000 </r>
       <r>  -11.9371    1.0000 </r>
       <r>  -11.9127    1.0000 </r>
       <r>  -11.9098    1.0000 </r>
       <r>  -11.8785    1.0000 </r>
       <r>  -11.8718    1.0000 </r>
       <r>  -11.8510    1.0000 </r>
       <r>  -11.8478    1.0000 </r>
       <r>  -11.8256    1.0000 </r>
       <r>  -11.7814    1.0000 </r>
       <r>  -11.7402    1.0000 </r>
       <r>  -11.7089    1.0000 </r>
       <r>  -11.6909    1.0000 </r>
       <r>  -11.6550    1.0000 </r>
       <r>  -11.6347    1.0000 </r>
       <r>   -4.8257    1.0000 </r>
       <r>   -4.8073    1.0000 </r>
       <r>   -4.8007    1.0000 </r>
       <r>   -4.7963    1.0000 </r>
       <r>   -4.7714    1.0000 </r>
       <r>   -4.7581    1.0000 </r>
       <r>   -4.7552    1.0000 </r>
       <r>   -4.6952    1.0000 </r>
       <r>   -4.6019    1.0000 </r>
       <r>   -4.5691    1.0000 </r>
       <r>   -4.5661    1.0000 </r>
       <r>   -4.5140    1.0000 </r>
       <r>   -4.4987    1.0000 </r>
       <r>   -4.4526    1.0000 </r>
       <r>   -4.4474    1.0000 </r>
       <r>   -4.3548    1.0000 </r>
       <r>   -4.3310    1.0000 </r>
       <r>   -4.3114    1.0000 </r>
       <r>   -4.2061    1.0000 </r>
       <r>   -4.1552    1.0000 </r>
       <r>   -4.0399    1.0000 </r>
       <r>   -4.0090    1.0000 </r>
       <r>   -3.9451    1.0000 </r>
       <r>   -3.8776    1.0000 </r>
       <r>   -3.8071    1.0000 </r>
       <r>   -3.7529    1.0000 </r>
       <r>   -3.7226    1.0000 </r>
       <r>   -3.7136    1.0000 </r>
       <r>   -3.7106    1.0000 </r>
       <r>   -3.6381    1.0000 </r>
       <r>   -3.6350    1.0000 </r>
       <r>   -3.5035    1.0000 </r>
       <r>   -3.4756    1.0000 </r>
       <r>   -3.4032    1.0000 </r>
       <r>   -3.3906    1.0000 </r>
       <r>   -3.1501    1.0000 </r>
       <r>   -2.9823    1.0000 </r>
       <r>   -2.9758    1.0000 </r>
       <r>   -2.9532    1.0000 </r>
       <r>   -2.9511    1.0000 </r>
       <r>   -2.8857    1.0000 </r>
       <r>   -2.8766    1.0000 </r>
       <r>   -2.7727    1.0000 </r>
       <r>   -2.5146    1.0000 </r>
       <r>   -2.5124    1.0000 </r>
       <r>   -2.4687    1.0000 </r>
       <r>   -2.4664    1.0000 </r>
       <r>   -2.4319    1.0000 </r>
       <r>   -2.3878    1.0000 </r>
       <r>   -2.3861    1.0000 </r>
       <r>   -2.3265    1.0000 </r>
       <r>   -2.2906    1.0000 </r>
       <r>   -2.2559    1.0000 </r>
       <r>   -2.2519    1.0000 </r>
       <r>   -2.2143    1.0000 </r>
       <r>   -2.0892    1.0000 </r>
       <r>   -1.9816    1.0000 </r>
       <r>   -1.9461    1.0000 </r>
       <r>   -1.8784    1.0000 </r>
       <r>   -1.8723    1.0000 </r>
       <r>   -1.8706    1.0000 </r>
       <r>   -1.8462    1.0000 </r>
       <r>   -1.8430    1.0000 </r>
       <r>   -1.8212    1.0000 </r>
       <r>   -1.8132    1.0000 </r>
       <r>   -1.7996    1.0000 </r>
       <r>   -1.7930    1.0000 </r>
       <r>   -1.7461    1.0000 </r>
       <r>   -1.7240    1.0000 </r>
       <r>   -1.6687    1.0000 </r>
       <r>   -1.6524    1.0000 </r>
       <r>   -1.6490    1.0000 </r>
       <r>   -1.5306    1.0000 </r>
       <r>   -1.5125    1.0000 </r>
       <r>   -1.4978    1.0000 </r>
       <r>   -1.4359    1.0000 </r>
       <r>   -1.3572    1.0000 </r>
       <r>   -1.3352    1.0000 </r>
       <r>   -1.3257    1.0000 </r>
       <r>   -1.3102    1.0000 </r>
       <r>   -1.3069    1.0000 </r>
       <r>   -1.2736    1.0000 </r>
       <r>   -1.2199    1.0000 </r>
       <r>   -1.1764    1.0000 </r>
       <r>   -1.1730    1.0000 </r>
       <r>   -1.1378    1.0000 </r>
       <r>   -1.0774    1.0000 </r>
       <r>   -1.0416    1.0000 </r>
       <r>   -0.9691    1.0000 </r>
       <r>   -0.9457    1.0000 </r>
       <r>   -0.9442    1.0000 </r>
       <r>   -0.9263    1.0000 </r>
       <r>   -0.9253    1.0000 </r>
       <r>   -0.8695    1.0000 </r>
       <r>   -0.8597    1.0000 </r>
       <r>   -0.7779    1.0000 </r>
       <r>   -0.6726    1.0000 </r>
       <r>   -0.6672    1.0000 </r>
       <r>   -0.6586    1.0000 </r>
       <r>   -0.6484    1.0000 </r>
       <r>   -0.6381    1.0000 </r>
       <r>   -0.6292    1.0000 </r>
       <r>   -0.6270    1.0000 </r>
       <r>   -0.6235    1.0000 </r>
       <r>   -0.5962    1.0000 </r>
       <r>   -0.5711    1.0000 </r>
       <r>   -0.5672    1.0000 </r>
       <r>   -0.5440    1.0000 </r>
       <r>   -0.4891    1.0000 </r>
       <r>   -0.4667    1.0000 </r>
       <r>   -0.4501    1.0000 </r>
       <r>   -0.4100    1.0000 </r>
       <r>   -0.3938    1.0000 </r>
       <r>   -0.3704    1.0000 </r>
       <r>   -0.3120    1.0000 </r>
       <r>   -0.1747    1.0000 </r>
       <r>   -0.0901    1.0000 </r>
       <r>   -0.0442    1.0000 </r>
       <r>   -0.0253    1.0000 </r>
       <r>    0.0113    1.0000 </r>
       <r>    0.0358    1.0000 </r>
       <r>    0.0415    1.0000 </r>
       <r>    0.0734    1.0000 </r>
       <r>    0.1075    1.0000 </r>
       <r>    0.1266    1.0000 </r>
       <r>    0.1471    1.0000 </r>
       <r>    0.1746    1.0000 </r>
       <r>    0.1844    1.0000 </r>
       <r>    0.2134    1.0000 </r>
       <r>    0.2182    1.0000 </r>
       <r>    0.2484    1.0000 </r>
       <r>    0.2548    1.0000 </r>
       <r>    0.2816    1.0000 </r>
       <r>    0.2839    1.0000 </r>
       <r>    0.2971    1.0000 </r>
       <r>    0.3357    1.0000 </r>
       <r>    0.3382    1.0000 </r>
       <r>    0.3660    1.0000 </r>
       <r>    0.3889    1.0000 </r>
       <r>    0.3991    1.0000 </r>
       <r>    0.4188    1.0000 </r>
       <r>    0.4489    1.0000 </r>
       <r>    0.4501    1.0000 </r>
       <r>    0.4852    1.0000 </r>
       <r>    0.5000    1.0000 </r>
       <r>    0.5313    1.0000 </r>
       <r>    0.5313    1.0000 </r>
       <r>    0.5549    1.0000 </r>
       <r>    0.5655    1.0000 </r>
       <r>    0.5845    1.0000 </r>
       <r>    0.5937    1.0000 </r>
       <r>    0.6163    1.0000 </r>
       <r>    0.6195    1.0000 </r>
       <r>    0.6615    1.0000 </r>
       <r>    0.6817    1.0000 </r>
       <r>    0.7088    1.0000 </r>
       <r>    0.7244    1.0000 </r>
       <r>    0.7249    1.0000 </r>
       <r>    0.7383    1.0000 </r>
       <r>    0.7518    1.0000 </r>
       <r>    0.7887    1.0000 </r>
       <r>    0.7987    1.0000 </r>
       <r>    0.8204    1.0000 </r>
       <r>    0.8611    1.0000 </r>
       <r>    0.8714    1.0000 </r>
       <r>    0.9349    1.0000 </r>
       <r>    0.9405    1.0000 </r>
       <r>    1.0091    1.0000 </r>
       <r>    1.0421    1.0000 </r>
       <r>    1.0531    1.0000 </r>
       <r>    1.0831    1.0000 </r>
       <r>    1.0931    1.0000 </r>
       <r>    1.1019    1.0000 </r>
       <r>    1.1109    1.0000 </r>
       <r>    1.1198    1.0000 </r>
       <r>    1.1250    1.0000 </r>
       <r>    1.1371    1.0000 </r>
       <r>    1.1651    1.0000 </r>
       <r>    1.1835    1.0000 </r>
       <r>    1.2212    1.0000 </r>
       <r>    1.2357    1.0000 </r>
       <r>    1.2416    1.0000 </r>
       <r>    1.2835    1.0000 </r>
       <r>    1.3055    1.0000 </r>
       <r>    1.3057    1.0000 </r>
       <r>    1.3500    1.0000 </r>
       <r>    1.3794    1.0000 </r>
       <r>    1.3981    1.0000 </r>
       <r>    1.4152    1.0000 </r>
       <r>    1.4209    1.0000 </r>
       <r>    1.4400    1.0000 </r>
       <r>    1.4468    1.0000 </r>
       <r>    1.4623    1.0000 </r>
       <r>    1.4694    1.0000 </r>
       <r>    1.5217    1.0000 </r>
       <r>    1.5219    1.0000 </r>
       <r>    1.5459    1.0000 </r>
       <r>    1.5716    1.0000 </r>
       <r>    1.5746    1.0000 </r>
       <r>    1.5961    1.0000 </r>
       <r>    1.6090    1.0000 </r>
       <r>    1.6122    1.0000 </r>
       <r>    1.6400    1.0000 </r>
       <r>    1.6476    1.0000 </r>
       <r>    1.6583    1.0000 </r>
       <r>    1.6883    1.0000 </r>
       <r>    1.6922    1.0000 </r>
       <r>    1.7291    1.0000 </r>
       <r>    1.7789    1.0000 </r>
       <r>    1.8053    1.0000 </r>
       <r>    1.8147    1.0000 </r>
       <r>    1.8663    1.0000 </r>
       <r>    1.9521    1.0000 </r>
       <r>    2.0206    1.0000 </r>
       <r>    2.0914    1.0000 </r>
       <r>    2.3493    1.0000 </r>
       <r>    4.8745    1.0000 </r>
       <r>    4.9478    1.0000 </r>
       <r>    5.1024    1.0000 </r>
       <r>    8.5406    0.0000 </r>
       <r>    8.5981    0.0000 </r>
       <r>    8.6475    0.0000 </r>
       <r>    8.7558    0.0000 </r>
       <r>    9.6497    0.0000 </r>
       <r>    9.7055    0.0000 </r>
       <r>    9.7226    0.0000 </r>
       <r>    9.8142    0.0000 </r>
       <r>   10.2221    0.0000 </r>
       <r>   10.2992    0.0000 </r>
       <r>   10.3198    0.0000 </r>
       <r>   10.3361    0.0000 </r>
       <r>   10.5255    0.0000 </r>
       <r>   10.5588    0.0000 </r>
       <r>   10.5951    0.0000 </r>
       <r>   10.6471    0.0000 </r>
       <r>   10.7213    0.0000 </r>
       <r>   10.7749    0.0000 </r>
       <r>   10.7923    0.0000 </r>
       <r>   10.8462    0.0000 </r>
       <r>   11.0897    0.0000 </r>
       <r>   11.1954    0.0000 </r>
       <r>   11.2375    0.0000 </r>
       <r>   11.3084    0.0000 </r>
       <r>   11.4202    0.0000 </r>
       <r>   11.5488    0.0000 </r>
       <r>   11.5660    0.0000 </r>
       <r>   11.6076    0.0000 </r>
       <r>   11.6373    0.0000 </r>
       <r>   11.6407    0.0000 </r>
       <r>   11.6580    0.0000 </r>
       <r>   11.7272    0.0000 </r>
       <r>   11.7478    0.0000 </r>
       <r>   11.7837    0.0000 </r>
       <r>   11.8422    0.0000 </r>
       <r>   11.8440    0.0000 </r>
       <r>   11.8939    0.0000 </r>
       <r>   11.9066    0.0000 </r>
       <r>   11.9661    0.0000 </r>
       <r>   12.0067    0.0000 </r>
       <r>   12.0523    0.0000 </r>
       <r>   12.2103    0.0000 </r>
       <r>   12.2507    0.0000 </r>
       <r>   12.2836    0.0000 </r>
       <r>   12.3297    0.0000 </r>
       <r>   12.3325    0.0000 </r>
       <r>   12.3847    0.0000 </r>
       <r>   12.4082    0.0000 </r>
       <r>   12.4102    0.0000 </r>
       <r>   12.4270    0.0000 </r>
       <r>   12.4713    0.0000 </r>
       <r>   12.5628    0.0000 </r>
       <r>   12.5680    0.0000 </r>
       <r>   12.5850    0.0000 </r>
       <r>   12.6381    0.0000 </r>
       <r>   12.6881    0.0000 </r>
       <r>   12.7457    0.0000 </r>
       <r>   12.9755    0.0000 </r>
       <r>   12.9805    0.0000 </r>
       <r>   13.1082    0.0000 </r>
       <r>   13.1146    0.0000 </r>
       <r>   13.2586    0.0000 </r>
       <r>   13.2995    0.0000 </r>
       <r>   13.3212    0.0000 </r>
       <r>   13.3441    0.0000 </r>
       <r>   13.4638    0.0000 </r>
       <r>   13.4769    0.0000 </r>
       <r>   13.5276    0.0000 </r>
       <r>   13.5498    0.0000 </r>
       <r>   13.5640    0.0000 </r>
       <r>   13.5961    0.0000 </r>
       <r>   13.6256    0.0000 </r>
       <r>   13.7176    0.0000 </r>
       <r>   14.1878    0.0000 </r>
       <r>   14.3096    0.0000 </r>
       <r>   14.3456    0.0000 </r>
       <r>   14.3688    0.0000 </r>
       <r>   14.4416    0.0000 </r>
       <r>   14.4638    0.0000 </r>
       <r>   14.4812    0.0000 </r>
       <r>   14.5372    0.0000 </r>
       <r>   14.5454    0.0000 </r>
       <r>   14.5719    0.0000 </r>
       <r>   14.5738    0.0000 </r>
       <r>   14.5980    0.0000 </r>
       <r>   14.6007    0.0000 </r>
       <r>   14.6240    0.0000 </r>
       <r>   14.6534    0.0000 </r>
       <r>   14.7535    0.0000 </r>
       <r>   14.8104    0.0000 </r>
       <r>   14.8462    0.0000 </r>
       <r>   14.9033    0.0000 </r>
       <r>   15.1356    0.0000 </r>
       <r>   15.1746    0.0000 </r>
       <r>   15.2344    0.0000 </r>
       <r>   15.2699    0.0000 </r>
       <r>   15.2873    0.0000 </r>
       <r>   15.3815    0.0000 </r>
       <r>   15.3966    0.0000 </r>
       <r>   15.5290    0.0000 </r>
       <r>   15.6189    0.0000 </r>
       <r>   15.6592    0.0000 </r>
       <r>   15.6750    0.0000 </r>
       <r>   15.7222    0.0000 </r>
       <r>   15.8063    0.0000 </r>
      </set>
      <set comment="kpoint 8">
       <r>  -18.4389    1.0000 </r>
       <r>  -18.4275    1.0000 </r>
       <r>  -18.4145    1.0000 </r>
       <r>  -18.3892    1.0000 </r>
       <r>  -18.3292    1.0000 </r>
       <r>  -18.2815    1.0000 </r>
       <r>  -18.2040    1.0000 </r>
       <r>  -18.0488    1.0000 </r>
       <r>  -17.8808    1.0000 </r>
       <r>  -17.8403    1.0000 </r>
       <r>  -17.8343    1.0000 </r>
       <r>  -17.7562    1.0000 </r>
       <r>  -17.6774    1.0000 </r>
       <r>  -17.6747    1.0000 </r>
       <r>  -17.6512    1.0000 </r>
       <r>  -17.6472    1.0000 </r>
       <r>  -17.6284    1.0000 </r>
       <r>  -17.6238    1.0000 </r>
       <r>  -17.6082    1.0000 </r>
       <r>  -17.5934    1.0000 </r>
       <r>  -17.5746    1.0000 </r>
       <r>  -17.5539    1.0000 </r>
       <r>  -17.5441    1.0000 </r>
       <r>  -17.5211    1.0000 </r>
       <r>  -17.5108    1.0000 </r>
       <r>  -17.4977    1.0000 </r>
       <r>  -17.4890    1.0000 </r>
       <r>  -17.4872    1.0000 </r>
       <r>  -17.4797    1.0000 </r>
       <r>  -17.4139    1.0000 </r>
       <r>  -17.4084    1.0000 </r>
       <r>  -17.3836    1.0000 </r>
       <r>  -17.3631    1.0000 </r>
       <r>  -17.3294    1.0000 </r>
       <r>  -17.3117    1.0000 </r>
       <r>  -17.3071    1.0000 </r>
       <r>  -17.3023    1.0000 </r>
       <r>  -17.2896    1.0000 </r>
       <r>  -17.2676    1.0000 </r>
       <r>  -17.2511    1.0000 </r>
       <r>  -17.2440    1.0000 </r>
       <r>  -17.2272    1.0000 </r>
       <r>  -17.2068    1.0000 </r>
       <r>  -17.1717    1.0000 </r>
       <r>  -17.1457    1.0000 </r>
       <r>  -17.1442    1.0000 </r>
       <r>  -17.1302    1.0000 </r>
       <r>  -17.1120    1.0000 </r>
       <r>  -17.1114    1.0000 </r>
       <r>  -17.0879    1.0000 </r>
       <r>  -17.0746    1.0000 </r>
       <r>  -17.0628    1.0000 </r>
       <r>  -17.0472    1.0000 </r>
       <r>  -17.0301    1.0000 </r>
       <r>  -17.0221    1.0000 </r>
       <r>  -16.9924    1.0000 </r>
       <r>  -16.9713    1.0000 </r>
       <r>  -16.9701    1.0000 </r>
       <r>  -16.9593    1.0000 </r>
       <r>  -16.9453    1.0000 </r>
       <r>  -16.9439    1.0000 </r>
       <r>  -16.9163    1.0000 </r>
       <r>  -16.9133    1.0000 </r>
       <r>  -16.8982    1.0000 </r>
       <r>  -16.8763    1.0000 </r>
       <r>  -16.8634    1.0000 </r>
       <r>  -16.8176    1.0000 </r>
       <r>  -16.7242    1.0000 </r>
       <r>  -16.6439    1.0000 </r>
       <r>  -16.6216    1.0000 </r>
       <r>  -16.1279    1.0000 </r>
       <r>  -16.0664    1.0000 </r>
       <r>  -13.1764    1.0000 </r>
       <r>  -13.1731    1.0000 </r>
       <r>  -13.1538    1.0000 </r>
       <r>  -13.1537    1.0000 </r>
       <r>  -13.1399    1.0000 </r>
       <r>  -13.1348    1.0000 </r>
       <r>  -13.1235    1.0000 </r>
       <r>  -13.1204    1.0000 </r>
       <r>  -13.1075    1.0000 </r>
       <r>  -13.1014    1.0000 </r>
       <r>  -13.0967    1.0000 </r>
       <r>  -13.0904    1.0000 </r>
       <r>  -13.0875    1.0000 </r>
       <r>  -13.0823    1.0000 </r>
       <r>  -13.0748    1.0000 </r>
       <r>  -13.0718    1.0000 </r>
       <r>  -13.0705    1.0000 </r>
       <r>  -13.0645    1.0000 </r>
       <r>  -13.0632    1.0000 </r>
       <r>  -13.0623    1.0000 </r>
       <r>  -13.0554    1.0000 </r>
       <r>  -13.0511    1.0000 </r>
       <r>  -13.0395    1.0000 </r>
       <r>  -13.0320    1.0000 </r>
       <r>  -13.0310    1.0000 </r>
       <r>  -13.0215    1.0000 </r>
       <r>  -13.0208    1.0000 </r>
       <r>  -13.0181    1.0000 </r>
       <r>  -13.0143    1.0000 </r>
       <r>  -13.0125    1.0000 </r>
       <r>  -13.0115    1.0000 </r>
       <r>  -13.0064    1.0000 </r>
       <r>  -13.0055    1.0000 </r>
       <r>  -12.9999    1.0000 </r>
       <r>  -12.9997    1.0000 </r>
       <r>  -12.9902    1.0000 </r>
       <r>  -12.9832    1.0000 </r>
       <r>  -12.9810    1.0000 </r>
       <r>  -12.9742    1.0000 </r>
       <r>  -12.9712    1.0000 </r>
       <r>  -12.9707    1.0000 </r>
       <r>  -12.9679    1.0000 </r>
       <r>  -12.9649    1.0000 </r>
       <r>  -12.9617    1.0000 </r>
       <r>  -12.9592    1.0000 </r>
       <r>  -12.9523    1.0000 </r>
       <r>  -12.9519    1.0000 </r>
       <r>  -12.9494    1.0000 </r>
       <r>  -12.9461    1.0000 </r>
       <r>  -12.9446    1.0000 </r>
       <r>  -12.9427    1.0000 </r>
       <r>  -12.9372    1.0000 </r>
       <r>  -12.9359    1.0000 </r>
       <r>  -12.9309    1.0000 </r>
       <r>  -12.9297    1.0000 </r>
       <r>  -12.9267    1.0000 </r>
       <r>  -12.9262    1.0000 </r>
       <r>  -12.9235    1.0000 </r>
       <r>  -12.9178    1.0000 </r>
       <r>  -12.9147    1.0000 </r>
       <r>  -12.9099    1.0000 </r>
       <r>  -12.9092    1.0000 </r>
       <r>  -12.9059    1.0000 </r>
       <r>  -12.9027    1.0000 </r>
       <r>  -12.9009    1.0000 </r>
       <r>  -12.8952    1.0000 </r>
       <r>  -12.8911    1.0000 </r>
       <r>  -12.8907    1.0000 </r>
       <r>  -12.8899    1.0000 </r>
       <r>  -12.8869    1.0000 </r>
       <r>  -12.8814    1.0000 </r>
       <r>  -12.8813    1.0000 </r>
       <r>  -12.8758    1.0000 </r>
       <r>  -12.8744    1.0000 </r>
       <r>  -12.8718    1.0000 </r>
       <r>  -12.8675    1.0000 </r>
       <r>  -12.8666    1.0000 </r>
       <r>  -12.8661    1.0000 </r>
       <r>  -12.8582    1.0000 </r>
       <r>  -12.8579    1.0000 </r>
       <r>  -12.8566    1.0000 </r>
       <r>  -12.8533    1.0000 </r>
       <r>  -12.8530    1.0000 </r>
       <r>  -12.8521    1.0000 </r>
       <r>  -12.8484    1.0000 </r>
       <r>  -12.8479    1.0000 </r>
       <r>  -12.8450    1.0000 </r>
       <r>  -12.8440    1.0000 </r>
       <r>  -12.8395    1.0000 </r>
       <r>  -12.8382    1.0000 </r>
       <r>  -12.8356    1.0000 </r>
       <r>  -12.8322    1.0000 </r>
       <r>  -12.8313    1.0000 </r>
       <r>  -12.8282    1.0000 </r>
       <r>  -12.8251    1.0000 </r>
       <r>  -12.8247    1.0000 </r>
       <r>  -12.8176    1.0000 </r>
       <r>  -12.8103    1.0000 </r>
       <r>  -12.8082    1.0000 </r>
       <r>  -12.8078    1.0000 </r>
       <r>  -12.8003    1.0000 </r>
       <r>  -12.7967    1.0000 </r>
       <r>  -12.7945    1.0000 </r>
       <r>  -12.7939    1.0000 </r>
       <r>  -12.7911    1.0000 </r>
       <r>  -12.7883    1.0000 </r>
       <r>  -12.7820    1.0000 </r>
       <r>  -12.7815    1.0000 </r>
       <r>  -12.7747    1.0000 </r>
       <r>  -12.7684    1.0000 </r>
       <r>  -12.7674    1.0000 </r>
       <r>  -12.7631    1.0000 </r>
       <r>  -12.7629    1.0000 </r>
       <r>  -12.7576    1.0000 </r>
       <r>  -12.7567    1.0000 </r>
       <r>  -12.7550    1.0000 </r>
       <r>  -12.7445    1.0000 </r>
       <r>  -12.7435    1.0000 </r>
       <r>  -12.7394    1.0000 </r>
       <r>  -12.7388    1.0000 </r>
       <r>  -12.7378    1.0000 </r>
       <r>  -12.7357    1.0000 </r>
       <r>  -12.7302    1.0000 </r>
       <r>  -12.7297    1.0000 </r>
       <r>  -12.7287    1.0000 </r>
       <r>  -12.7259    1.0000 </r>
       <r>  -12.7249    1.0000 </r>
       <r>  -12.7192    1.0000 </r>
       <r>  -12.7171    1.0000 </r>
       <r>  -12.7108    1.0000 </r>
       <r>  -12.7098    1.0000 </r>
       <r>  -12.7093    1.0000 </r>
       <r>  -12.7052    1.0000 </r>
       <r>  -12.7010    1.0000 </r>
       <r>  -12.7003    1.0000 </r>
       <r>  -12.6993    1.0000 </r>
       <r>  -12.6976    1.0000 </r>
       <r>  -12.6935    1.0000 </r>
       <r>  -12.6903    1.0000 </r>
       <r>  -12.6861    1.0000 </r>
       <r>  -12.6851    1.0000 </r>
       <r>  -12.6824    1.0000 </r>
       <r>  -12.6749    1.0000 </r>
       <r>  -12.6712    1.0000 </r>
       <r>  -12.6690    1.0000 </r>
       <r>  -12.6678    1.0000 </r>
       <r>  -12.6605    1.0000 </r>
       <r>  -12.6584    1.0000 </r>
       <r>  -12.6583    1.0000 </r>
       <r>  -12.6534    1.0000 </r>
       <r>  -12.6495    1.0000 </r>
       <r>  -12.6482    1.0000 </r>
       <r>  -12.6482    1.0000 </r>
       <r>  -12.6449    1.0000 </r>
       <r>  -12.6443    1.0000 </r>
       <r>  -12.6387    1.0000 </r>
       <r>  -12.6354    1.0000 </r>
       <r>  -12.6344    1.0000 </r>
       <r>  -12.6270    1.0000 </r>
       <r>  -12.6243    1.0000 </r>
       <r>  -12.6225    1.0000 </r>
       <r>  -12.6209    1.0000 </r>
       <r>  -12.6085    1.0000 </r>
       <r>  -12.6077    1.0000 </r>
       <r>  -12.6033    1.0000 </r>
       <r>  -12.5894    1.0000 </r>
       <r>  -12.5880    1.0000 </r>
       <r>  -12.5852    1.0000 </r>
       <r>  -12.5717    1.0000 </r>
       <r>  -12.5687    1.0000 </r>
       <r>  -12.5657    1.0000 </r>
       <r>  -12.5548    1.0000 </r>
       <r>  -12.5523    1.0000 </r>
       <r>  -12.5504    1.0000 </r>
       <r>  -12.5394    1.0000 </r>
       <r>  -12.5305    1.0000 </r>
       <r>  -12.5292    1.0000 </r>
       <r>  -12.5269    1.0000 </r>
       <r>  -12.5222    1.0000 </r>
       <r>  -12.5128    1.0000 </r>
       <r>  -12.5016    1.0000 </r>
       <r>  -12.4959    1.0000 </r>
       <r>  -12.4869    1.0000 </r>
       <r>  -12.4751    1.0000 </r>
       <r>  -12.4504    1.0000 </r>
       <r>  -12.4483    1.0000 </r>
       <r>  -12.4474    1.0000 </r>
       <r>  -12.4240    1.0000 </r>
       <r>  -12.4210    1.0000 </r>
       <r>  -12.4184    1.0000 </r>
       <r>  -12.4013    1.0000 </r>
       <r>  -12.3976    1.0000 </r>
       <r>  -12.3754    1.0000 </r>
       <r>  -12.3679    1.0000 </r>
       <r>  -12.3454    1.0000 </r>
       <r>  -12.3363    1.0000 </r>
       <r>  -12.3291    1.0000 </r>
       <r>  -12.3150    1.0000 </r>
       <r>  -12.3103    1.0000 </r>
       <r>  -12.2961    1.0000 </r>
       <r>  -12.2782    1.0000 </r>
       <r>  -12.2727    1.0000 </r>
       <r>  -12.2438    1.0000 </r>
       <r>  -12.2350    1.0000 </r>
       <r>  -12.2263    1.0000 </r>
       <r>  -12.2147    1.0000 </r>
       <r>  -12.2105    1.0000 </r>
       <r>  -12.2078    1.0000 </r>
       <r>  -12.1761    1.0000 </r>
       <r>  -12.1366    1.0000 </r>
       <r>  -12.1335    1.0000 </r>
       <r>  -12.0978    1.0000 </r>
       <r>  -12.0815    1.0000 </r>
       <r>  -12.0511    1.0000 </r>
       <r>  -12.0475    1.0000 </r>
       <r>  -12.0204    1.0000 </r>
       <r>  -12.0131    1.0000 </r>
       <r>  -11.9889    1.0000 </r>
       <r>  -11.9848    1.0000 </r>
       <r>  -11.9706    1.0000 </r>
       <r>  -11.9435    1.0000 </r>
       <r>  -11.9278    1.0000 </r>
       <r>  -11.9130    1.0000 </r>
       <r>  -11.8974    1.0000 </r>
       <r>  -11.8831    1.0000 </r>
       <r>  -11.8537    1.0000 </r>
       <r>  -11.8499    1.0000 </r>
       <r>  -11.8437    1.0000 </r>
       <r>  -11.8278    1.0000 </r>
       <r>  -11.8231    1.0000 </r>
       <r>  -11.7956    1.0000 </r>
       <r>  -11.7795    1.0000 </r>
       <r>  -11.6915    1.0000 </r>
       <r>  -11.6879    1.0000 </r>
       <r>  -11.6655    1.0000 </r>
       <r>   -4.9120    1.0000 </r>
       <r>   -4.9115    1.0000 </r>
       <r>   -4.8717    1.0000 </r>
       <r>   -4.8385    1.0000 </r>
       <r>   -4.8235    1.0000 </r>
       <r>   -4.8125    1.0000 </r>
       <r>   -4.7910    1.0000 </r>
       <r>   -4.7338    1.0000 </r>
       <r>   -4.5295    1.0000 </r>
       <r>   -4.5162    1.0000 </r>
       <r>   -4.4830    1.0000 </r>
       <r>   -4.4736    1.0000 </r>
       <r>   -4.4535    1.0000 </r>
       <r>   -4.4398    1.0000 </r>
       <r>   -4.3008    1.0000 </r>
       <r>   -4.2947    1.0000 </r>
       <r>   -4.2170    1.0000 </r>
       <r>   -4.1580    1.0000 </r>
       <r>   -4.1037    1.0000 </r>
       <r>   -4.0910    1.0000 </r>
       <r>   -3.8921    1.0000 </r>
       <r>   -3.8617    1.0000 </r>
       <r>   -3.8481    1.0000 </r>
       <r>   -3.8312    1.0000 </r>
       <r>   -3.8099    1.0000 </r>
       <r>   -3.8099    1.0000 </r>
       <r>   -3.8008    1.0000 </r>
       <r>   -3.7664    1.0000 </r>
       <r>   -3.7448    1.0000 </r>
       <r>   -3.6699    1.0000 </r>
       <r>   -3.6513    1.0000 </r>
       <r>   -3.5237    1.0000 </r>
       <r>   -3.5213    1.0000 </r>
       <r>   -3.5039    1.0000 </r>
       <r>   -3.4710    1.0000 </r>
       <r>   -3.3334    1.0000 </r>
       <r>   -3.2737    1.0000 </r>
       <r>   -3.2146    1.0000 </r>
       <r>   -3.2143    1.0000 </r>
       <r>   -3.0168    1.0000 </r>
       <r>   -2.9953    1.0000 </r>
       <r>   -2.8939    1.0000 </r>
       <r>   -2.8213    1.0000 </r>
       <r>   -2.6279    1.0000 </r>
       <r>   -2.6223    1.0000 </r>
       <r>   -2.5321    1.0000 </r>
       <r>   -2.4246    1.0000 </r>
       <r>   -2.4097    1.0000 </r>
       <r>   -2.3787    1.0000 </r>
       <r>   -2.3450    1.0000 </r>
       <r>   -2.2933    1.0000 </r>
       <r>   -2.2356    1.0000 </r>
       <r>   -2.0509    1.0000 </r>
       <r>   -2.0369    1.0000 </r>
       <r>   -1.9787    1.0000 </r>
       <r>   -1.9690    1.0000 </r>
       <r>   -1.9317    1.0000 </r>
       <r>   -1.8957    1.0000 </r>
       <r>   -1.8942    1.0000 </r>
       <r>   -1.8751    1.0000 </r>
       <r>   -1.8745    1.0000 </r>
       <r>   -1.8666    1.0000 </r>
       <r>   -1.8515    1.0000 </r>
       <r>   -1.7899    1.0000 </r>
       <r>   -1.7145    1.0000 </r>
       <r>   -1.6912    1.0000 </r>
       <r>   -1.6876    1.0000 </r>
       <r>   -1.6542    1.0000 </r>
       <r>   -1.6524    1.0000 </r>
       <r>   -1.6129    1.0000 </r>
       <r>   -1.5740    1.0000 </r>
       <r>   -1.5706    1.0000 </r>
       <r>   -1.5476    1.0000 </r>
       <r>   -1.5334    1.0000 </r>
       <r>   -1.4639    1.0000 </r>
       <r>   -1.4434    1.0000 </r>
       <r>   -1.4380    1.0000 </r>
       <r>   -1.4343    1.0000 </r>
       <r>   -1.3374    1.0000 </r>
       <r>   -1.3140    1.0000 </r>
       <r>   -1.2985    1.0000 </r>
       <r>   -1.2763    1.0000 </r>
       <r>   -1.2600    1.0000 </r>
       <r>   -1.1478    1.0000 </r>
       <r>   -1.0878    1.0000 </r>
       <r>   -1.0873    1.0000 </r>
       <r>   -1.0289    1.0000 </r>
       <r>   -0.9383    1.0000 </r>
       <r>   -0.8959    1.0000 </r>
       <r>   -0.8851    1.0000 </r>
       <r>   -0.8794    1.0000 </r>
       <r>   -0.8534    1.0000 </r>
       <r>   -0.8435    1.0000 </r>
       <r>   -0.8260    1.0000 </r>
       <r>   -0.8154    1.0000 </r>
       <r>   -0.8086    1.0000 </r>
       <r>   -0.7910    1.0000 </r>
       <r>   -0.7514    1.0000 </r>
       <r>   -0.7328    1.0000 </r>
       <r>   -0.7174    1.0000 </r>
       <r>   -0.7060    1.0000 </r>
       <r>   -0.6720    1.0000 </r>
       <r>   -0.6662    1.0000 </r>
       <r>   -0.6420    1.0000 </r>
       <r>   -0.6230    1.0000 </r>
       <r>   -0.5771    1.0000 </r>
       <r>   -0.5286    1.0000 </r>
       <r>   -0.4992    1.0000 </r>
       <r>   -0.4944    1.0000 </r>
       <r>   -0.4574    1.0000 </r>
       <r>   -0.4420    1.0000 </r>
       <r>   -0.4143    1.0000 </r>
       <r>   -0.3640    1.0000 </r>
       <r>   -0.2851    1.0000 </r>
       <r>   -0.2744    1.0000 </r>
       <r>   -0.2659    1.0000 </r>
       <r>   -0.2639    1.0000 </r>
       <r>   -0.2046    1.0000 </r>
       <r>   -0.1959    1.0000 </r>
       <r>   -0.1308    1.0000 </r>
       <r>   -0.0998    1.0000 </r>
       <r>   -0.0983    1.0000 </r>
       <r>   -0.0594    1.0000 </r>
       <r>   -0.0394    1.0000 </r>
       <r>   -0.0056    1.0000 </r>
       <r>    0.0259    1.0000 </r>
       <r>    0.0609    1.0000 </r>
       <r>    0.0634    1.0000 </r>
       <r>    0.0966    1.0000 </r>
       <r>    0.1162    1.0000 </r>
       <r>    0.1239    1.0000 </r>
       <r>    0.1537    1.0000 </r>
       <r>    0.1962    1.0000 </r>
       <r>    0.2248    1.0000 </r>
       <r>    0.3116    1.0000 </r>
       <r>    0.3524    1.0000 </r>
       <r>    0.3681    1.0000 </r>
       <r>    0.4354    1.0000 </r>
       <r>    0.4392    1.0000 </r>
       <r>    0.4454    1.0000 </r>
       <r>    0.4538    1.0000 </r>
       <r>    0.4662    1.0000 </r>
       <r>    0.5024    1.0000 </r>
       <r>    0.5200    1.0000 </r>
       <r>    0.5359    1.0000 </r>
       <r>    0.5492    1.0000 </r>
       <r>    0.5647    1.0000 </r>
       <r>    0.5775    1.0000 </r>
       <r>    0.5920    1.0000 </r>
       <r>    0.6195    1.0000 </r>
       <r>    0.6346    1.0000 </r>
       <r>    0.6933    1.0000 </r>
       <r>    0.7195    1.0000 </r>
       <r>    0.7228    1.0000 </r>
       <r>    0.7448    1.0000 </r>
       <r>    0.7750    1.0000 </r>
       <r>    0.8124    1.0000 </r>
       <r>    0.8181    1.0000 </r>
       <r>    0.8227    1.0000 </r>
       <r>    0.8805    1.0000 </r>
       <r>    0.8871    1.0000 </r>
       <r>    0.9036    1.0000 </r>
       <r>    0.9623    1.0000 </r>
       <r>    0.9767    1.0000 </r>
       <r>    1.0056    1.0000 </r>
       <r>    1.0138    1.0000 </r>
       <r>    1.0232    1.0000 </r>
       <r>    1.0361    1.0000 </r>
       <r>    1.0510    1.0000 </r>
       <r>    1.0568    1.0000 </r>
       <r>    1.0744    1.0000 </r>
       <r>    1.1053    1.0000 </r>
       <r>    1.1077    1.0000 </r>
       <r>    1.1231    1.0000 </r>
       <r>    1.1289    1.0000 </r>
       <r>    1.1354    1.0000 </r>
       <r>    1.1543    1.0000 </r>
       <r>    1.1549    1.0000 </r>
       <r>    1.1753    1.0000 </r>
       <r>    1.1838    1.0000 </r>
       <r>    1.2225    1.0000 </r>
       <r>    1.2424    1.0000 </r>
       <r>    1.2581    1.0000 </r>
       <r>    1.2595    1.0000 </r>
       <r>    1.3059    1.0000 </r>
       <r>    1.3371    1.0000 </r>
       <r>    1.3393    1.0000 </r>
       <r>    1.3549    1.0000 </r>
       <r>    1.3597    1.0000 </r>
       <r>    1.3721    1.0000 </r>
       <r>    1.4089    1.0000 </r>
       <r>    1.4432    1.0000 </r>
       <r>    1.4544    1.0000 </r>
       <r>    1.4614    1.0000 </r>
       <r>    1.4741    1.0000 </r>
       <r>    1.4898    1.0000 </r>
       <r>    1.5007    1.0000 </r>
       <r>    1.5262    1.0000 </r>
       <r>    1.5326    1.0000 </r>
       <r>    1.5455    1.0000 </r>
       <r>    1.5574    1.0000 </r>
       <r>    1.5854    1.0000 </r>
       <r>    1.6019    1.0000 </r>
       <r>    1.6026    1.0000 </r>
       <r>    1.6693    1.0000 </r>
       <r>    1.7119    1.0000 </r>
       <r>    1.7371    1.0000 </r>
       <r>    1.7494    1.0000 </r>
       <r>    1.8338    1.0000 </r>
       <r>    1.8386    1.0000 </r>
       <r>    1.8577    1.0000 </r>
       <r>    1.9080    1.0000 </r>
       <r>    1.9272    1.0000 </r>
       <r>    1.9681    1.0000 </r>
       <r>    2.0702    1.0000 </r>
       <r>    2.3482    1.0000 </r>
       <r>    4.8745    1.0000 </r>
       <r>    4.9475    1.0000 </r>
       <r>    5.1011    1.0000 </r>
       <r>    8.7655    0.0000 </r>
       <r>    8.8189    0.0000 </r>
       <r>    8.8279    0.0000 </r>
       <r>    8.8871    0.0000 </r>
       <r>    9.1768    0.0000 </r>
       <r>    9.2346    0.0000 </r>
       <r>    9.2525    0.0000 </r>
       <r>    9.4049    0.0000 </r>
       <r>   10.4623    0.0000 </r>
       <r>   10.4914    0.0000 </r>
       <r>   10.5179    0.0000 </r>
       <r>   10.5249    0.0000 </r>
       <r>   10.5489    0.0000 </r>
       <r>   10.6376    0.0000 </r>
       <r>   10.6839    0.0000 </r>
       <r>   10.7319    0.0000 </r>
       <r>   10.7342    0.0000 </r>
       <r>   10.7856    0.0000 </r>
       <r>   10.8386    0.0000 </r>
       <r>   10.8487    0.0000 </r>
       <r>   11.0326    0.0000 </r>
       <r>   11.0771    0.0000 </r>
       <r>   11.0818    0.0000 </r>
       <r>   11.2579    0.0000 </r>
       <r>   11.4060    0.0000 </r>
       <r>   11.6409    0.0000 </r>
       <r>   11.6517    0.0000 </r>
       <r>   11.6637    0.0000 </r>
       <r>   11.7131    0.0000 </r>
       <r>   11.7482    0.0000 </r>
       <r>   11.8032    0.0000 </r>
       <r>   11.8121    0.0000 </r>
       <r>   11.8200    0.0000 </r>
       <r>   11.8515    0.0000 </r>
       <r>   11.8678    0.0000 </r>
       <r>   11.9143    0.0000 </r>
       <r>   11.9456    0.0000 </r>
       <r>   12.0539    0.0000 </r>
       <r>   12.1170    0.0000 </r>
       <r>   12.1717    0.0000 </r>
       <r>   12.1941    0.0000 </r>
       <r>   12.2039    0.0000 </r>
       <r>   12.2115    0.0000 </r>
       <r>   12.2591    0.0000 </r>
       <r>   12.3214    0.0000 </r>
       <r>   12.3222    0.0000 </r>
       <r>   12.3318    0.0000 </r>
       <r>   12.3721    0.0000 </r>
       <r>   12.3877    0.0000 </r>
       <r>   12.3961    0.0000 </r>
       <r>   12.4144    0.0000 </r>
       <r>   12.4287    0.0000 </r>
       <r>   12.4536    0.0000 </r>
       <r>   12.4816    0.0000 </r>
       <r>   12.5141    0.0000 </r>
       <r>   12.5921    0.0000 </r>
       <r>   12.7685    0.0000 </r>
       <r>   13.0020    0.0000 </r>
       <r>   13.1690    0.0000 </r>
       <r>   13.1892    0.0000 </r>
       <r>   13.2045    0.0000 </r>
       <r>   13.2165    0.0000 </r>
       <r>   13.2226    0.0000 </r>
       <r>   13.2747    0.0000 </r>
       <r>   13.2828    0.0000 </r>
       <r>   13.3168    0.0000 </r>
       <r>   13.3607    0.0000 </r>
       <r>   13.3825    0.0000 </r>
       <r>   13.4336    0.0000 </r>
       <r>   13.6817    0.0000 </r>
       <r>   13.7196    0.0000 </r>
       <r>   13.7555    0.0000 </r>
       <r>   13.7691    0.0000 </r>
       <r>   13.9585    0.0000 </r>
       <r>   13.9720    0.0000 </r>
       <r>   13.9939    0.0000 </r>
       <r>   14.1166    0.0000 </r>
       <r>   14.1876    0.0000 </r>
       <r>   14.3499    0.0000 </r>
       <r>   14.3731    0.0000 </r>
       <r>   14.3976    0.0000 </r>
       <r>   14.4166    0.0000 </r>
       <r>   14.4199    0.0000 </r>
       <r>   14.4657    0.0000 </r>
       <r>   14.4869    0.0000 </r>
       <r>   14.6775    0.0000 </r>
       <r>   14.6987    0.0000 </r>
       <r>   14.7102    0.0000 </r>
       <r>   14.7912    0.0000 </r>
       <r>   15.0100    0.0000 </r>
       <r>   15.0405    0.0000 </r>
       <r>   15.0575    0.0000 </r>
       <r>   15.1836    0.0000 </r>
       <r>   15.2097    0.0000 </r>
       <r>   15.2913    0.0000 </r>
       <r>   15.3003    0.0000 </r>
       <r>   15.3337    0.0000 </r>
       <r>   15.5106    0.0000 </r>
       <r>   15.5476    0.0000 </r>
       <r>   15.5524    0.0000 </r>
       <r>   15.6203    0.0000 </r>
       <r>   15.6232    0.0000 </r>
       <r>   15.6276    0.0000 </r>
       <r>   15.7202    0.0000 </r>
       <r>   15.8663    0.0000 </r>
      </set>
     </set>
    </set>
   </array>
  </eigenvalues>
  <separator name="orbital magnetization" >
   <v name="MAGDIPOLOUT">      0.00000000      0.00000000      0.00000000</v>
  </separator>
  <dos>
   <i name="efermi">      5.34284971 </i>
   <total>
    <array>
     <dimension dim="1">gridpoints</dimension>
     <dimension dim="2">spin</dimension>
     <field>energy</field>
     <field>total</field>
     <field>integrated</field>
     <set>
      <set comment="spin 1">
       <r>   -20.4754     0.0000     0.0000 </r>
       <r>   -20.3483     0.0000     0.0000 </r>
       <r>   -20.2213     0.0000     0.0000 </r>
       <r>   -20.0943     0.0000     0.0000 </r>
       <r>   -19.9672     0.0000     0.0000 </r>
       <r>   -19.8402     0.0000     0.0000 </r>
       <r>   -19.7132     0.0000     0.0000 </r>
       <r>   -19.5862     0.0000     0.0000 </r>
       <r>   -19.4591     0.0000     0.0000 </r>
       <r>   -19.3321     0.0000     0.0000 </r>
       <r>   -19.2051     0.0000     0.0000 </r>
       <r>   -19.0781     0.0000     0.0000 </r>
       <r>   -18.9510     0.0000     0.0000 </r>
       <r>   -18.8240     0.0219     0.0028 </r>
       <r>   -18.6970     2.9330     0.3754 </r>
       <r>   -18.5699     9.8108     1.6216 </r>
       <r>   -18.4429    19.9239     4.1525 </r>
       <r>   -18.3159    22.2089     6.9736 </r>
       <r>   -18.1889    24.2966    10.0599 </r>
       <r>   -18.0618    16.0834    12.1029 </r>
       <r>   -17.9348    39.4551    17.1148 </r>
       <r>   -17.8078    49.1417    23.3571 </r>
       <r>   -17.6808    58.0377    30.7294 </r>
       <r>   -17.5537    96.8860    43.0366 </r>
       <r>   -17.4267   112.0072    57.2645 </r>
       <r>   -17.2997   126.1097    73.2838 </r>
       <r>   -17.1727   116.0566    88.0261 </r>
       <r>   -17.0456   130.6234   104.6188 </r>
       <r>   -16.9186   146.7580   123.2610 </r>
       <r>   -16.7916    78.9595   133.2910 </r>
       <r>   -16.6645    26.9404   136.7131 </r>
       <r>   -16.5375    25.6538   139.9718 </r>
       <r>   -16.4105     0.2218   140.0000 </r>
       <r>   -16.2835     0.0001   140.0000 </r>
       <r>   -16.1564     2.8706   140.3647 </r>
       <r>   -16.0294    26.6927   143.7553 </r>
       <r>   -15.9024     1.9260   144.0000 </r>
       <r>   -15.7754     0.0000   144.0000 </r>
       <r>   -15.6483     0.0000   144.0000 </r>
       <r>   -15.5213     0.0000   144.0000 </r>
       <r>   -15.3943     0.0000   144.0000 </r>
       <r>   -15.2673     0.0000   144.0000 </r>
       <r>   -15.1402     0.0000   144.0000 </r>
       <r>   -15.0132     0.0000   144.0000 </r>
       <r>   -14.8862     0.0000   144.0000 </r>
       <r>   -14.7591     0.0000   144.0000 </r>
       <r>   -14.6321     0.0000   144.0000 </r>
       <r>   -14.5051     0.0000   144.0000 </r>
       <r>   -14.3781     0.0000   144.0000 </r>
       <r>   -14.2510     0.0000   144.0000 </r>
       <r>   -14.1240     0.0000   144.0000 </r>
       <r>   -13.9970     0.0000   144.0000 </r>
       <r>   -13.8700     0.0000   144.0000 </r>
       <r>   -13.7429     0.0000   144.0000 </r>
       <r>   -13.6159     0.0000   144.0000 </r>
       <r>   -13.4889     0.0000   144.0000 </r>
       <r>   -13.3618     0.0000   144.0000 </r>
       <r>   -13.2348     2.2649   144.2877 </r>
       <r>   -13.1078   146.7399   162.9276 </r>
       <r>   -12.9808   465.6440   222.0769 </r>
       <r>   -12.8537   668.4884   306.9928 </r>
       <r>   -12.7267   695.6486   395.3589 </r>
       <r>   -12.5997   585.6918   469.7574 </r>
       <r>   -12.4727   299.1976   507.7636 </r>
       <r>   -12.3456   212.1332   534.7102 </r>
       <r>   -12.2186   171.9251   556.5493 </r>
       <r>   -12.0916   102.5223   569.5723 </r>
       <r>   -11.9646   109.5332   583.4860 </r>
       <r>   -11.8375   123.5654   599.1821 </r>
       <r>   -11.7105    72.5336   608.3958 </r>
       <r>   -11.5835    41.3663   613.6505 </r>
       <r>   -11.4564     2.7517   614.0000 </r>
       <r>   -11.3294     0.0001   614.0000 </r>
       <r>   -11.2024     0.0000   614.0000 </r>
       <r>   -11.0754     0.0000   614.0000 </r>
       <r>   -10.9483     0.0000   614.0000 </r>
       <r>   -10.8213     0.0000   614.0000 </r>
       <r>   -10.6943     0.0000   614.0000 </r>
       <r>   -10.5673     0.0000   614.0000 </r>
       <r>   -10.4402     0.0000   614.0000 </r>
       <r>   -10.3132     0.0000   614.0000 </r>
       <r>   -10.1862     0.0000   614.0000 </r>
       <r>   -10.0592     0.0000   614.0000 </r>
       <r>    -9.9321     0.0000   614.0000 </r>
       <r>    -9.8051     0.0000   614.0000 </r>
       <r>    -9.6781     0.0000   614.0000 </r>
       <r>    -9.5510     0.0000   614.0000 </r>
       <r>    -9.4240     0.0000   614.0000 </r>
       <r>    -9.2970     0.0000   614.0000 </r>
       <r>    -9.1700     0.0000   614.0000 </r>
       <r>    -9.0429     0.0000   614.0000 </r>
       <r>    -8.9159     0.0000   614.0000 </r>
       <r>    -8.7889     0.0000   614.0000 </r>
       <r>    -8.6619     0.0000   614.0000 </r>
       <r>    -8.5348     0.0000   614.0000 </r>
       <r>    -8.4078     0.0000   614.0000 </r>
       <r>    -8.2808     0.0000   614.0000 </r>
       <r>    -8.1537     0.0000   614.0000 </r>
       <r>    -8.0267     0.0000   614.0000 </r>
       <r>    -7.8997     0.0000   614.0000 </r>
       <r>    -7.7727     0.0000   614.0000 </r>
       <r>    -7.6456     0.0000   614.0000 </r>
       <r>    -7.5186     0.0000   614.0000 </r>
       <r>    -7.3916     0.0000   614.0000 </r>
       <r>    -7.2646     0.0000   614.0000 </r>
       <r>    -7.1375     0.0000   614.0000 </r>
       <r>    -7.0105     0.0000   614.0000 </r>
       <r>    -6.8835     0.0000   614.0000 </r>
       <r>    -6.7565     0.0000   614.0000 </r>
       <r>    -6.6294     0.0000   614.0000 </r>
       <r>    -6.5024     0.0000   614.0000 </r>
       <r>    -6.3754     0.0000   614.0000 </r>
       <r>    -6.2483     0.0000   614.0000 </r>
       <r>    -6.1213     0.0000   614.0000 </r>
       <r>    -5.9943     0.0000   614.0000 </r>
       <r>    -5.8673     0.0000   614.0000 </r>
       <r>    -5.7402     0.0000   614.0000 </r>
       <r>    -5.6132     0.0000   614.0000 </r>
       <r>    -5.4862     0.0000   614.0000 </r>
       <r>    -5.3592     0.0026   614.0003 </r>
       <r>    -5.2321     2.5246   614.3210 </r>
       <r>    -5.1051     6.2671   615.1171 </r>
       <r>    -4.9781    16.9470   617.2698 </r>
       <r>    -4.8511    24.3509   620.3631 </r>
       <r>    -4.7240    33.5664   624.6269 </r>
       <r>    -4.5970    24.7750   627.7740 </r>
       <r>    -4.4700    45.0226   633.4931 </r>
       <r>    -4.3429    37.8965   638.3069 </r>
       <r>    -4.2159    57.1176   645.5624 </r>
       <r>    -4.0889    52.9274   652.2856 </r>
       <r>    -3.9619    46.6589   658.2125 </r>
       <r>    -3.8348    40.4640   663.3526 </r>
       <r>    -3.7078    49.6283   669.6567 </r>
       <r>    -3.5808    33.1888   673.8726 </r>
       <r>    -3.4538    37.0164   678.5746 </r>
       <r>    -3.3267    24.7393   681.7172 </r>
       <r>    -3.1997    31.9267   685.7727 </r>
       <r>    -3.0727    39.2048   690.7528 </r>
       <r>    -2.9457    38.0911   695.5914 </r>
       <r>    -2.8186    33.1921   699.8077 </r>
       <r>    -2.6916    27.4326   703.2923 </r>
       <r>    -2.5646    38.7863   708.2192 </r>
       <r>    -2.4375    38.1930   713.0708 </r>
       <r>    -2.3105    36.0272   717.6472 </r>
       <r>    -2.1835    58.2545   725.0471 </r>
       <r>    -2.0565    31.9571   729.1065 </r>
       <r>    -1.9294    42.1558   734.4614 </r>
       <r>    -1.8024    71.8815   743.5923 </r>
       <r>    -1.6754    69.9333   752.4757 </r>
       <r>    -1.5484    57.1393   759.7339 </r>
       <r>    -1.4213    57.3638   767.0207 </r>
       <r>    -1.2943    69.5177   775.8513 </r>
       <r>    -1.1673    49.7912   782.1761 </r>
       <r>    -1.0402    51.1709   788.6762 </r>
       <r>    -0.9132    66.7957   797.1610 </r>
       <r>    -0.7862    68.2358   805.8288 </r>
       <r>    -0.6592    65.6446   814.1674 </r>
       <r>    -0.5321    79.3871   824.2517 </r>
       <r>    -0.4051    61.4336   832.0554 </r>
       <r>    -0.2781    62.2851   839.9673 </r>
       <r>    -0.1511    72.2949   849.1507 </r>
       <r>    -0.0240    84.7335   859.9141 </r>
       <r>     0.1030    81.0069   870.2042 </r>
       <r>     0.2300    70.0703   879.1050 </r>
       <r>     0.3570    68.9216   887.8598 </r>
       <r>     0.4841    77.2936   897.6782 </r>
       <r>     0.6111    90.6626   909.1948 </r>
       <r>     0.7381    93.8483   921.1160 </r>
       <r>     0.8652    94.6550   933.1398 </r>
       <r>     0.9922    82.5946   943.6315 </r>
       <r>     1.1192   111.2282   957.7605 </r>
       <r>     1.2462   114.7245   972.3335 </r>
       <r>     1.3733   125.9180   988.3285 </r>
       <r>     1.5003   124.8158  1004.1835 </r>
       <r>     1.6273   107.5696  1017.8477 </r>
       <r>     1.7543    70.3209  1026.7803 </r>
       <r>     1.8814    67.5962  1035.3669 </r>
       <r>     2.0084    42.9608  1040.8240 </r>
       <r>     2.1354    24.1003  1043.8854 </r>
       <r>     2.2624     1.4333  1044.0675 </r>
       <r>     2.3895    13.1120  1045.7331 </r>
       <r>     2.5165     2.1014  1046.0000 </r>
       <r>     2.6435     0.0001  1046.0000 </r>
       <r>     2.7706     0.0000  1046.0000 </r>
       <r>     2.8976     0.0000  1046.0000 </r>
       <r>     3.0246     0.0000  1046.0000 </r>
       <r>     3.1516     0.0000  1046.0000 </r>
       <r>     3.2787     0.0000  1046.0000 </r>
       <r>     3.4057     0.0000  1046.0000 </r>
       <r>     3.5327     0.0000  1046.0000 </r>
       <r>     3.6597     0.0000  1046.0000 </r>
       <r>     3.7868     0.0000  1046.0000 </r>
       <r>     3.9138     0.0000  1046.0000 </r>
       <r>     4.0408     0.0000  1046.0000 </r>
       <r>     4.1679     0.0000  1046.0000 </r>
       <r>     4.2949     0.0000  1046.0000 </r>
       <r>     4.4219     0.0000  1046.0000 </r>
       <r>     4.5489     0.0000  1046.0000 </r>
       <r>     4.6760     0.0000  1046.0000 </r>
       <r>     4.8030     1.0135  1046.1287 </r>
       <r>     4.9300    18.3736  1048.4627 </r>
       <r>     5.0570    13.9972  1050.2407 </r>
       <r>     5.1841    13.7215  1051.9837 </r>
       <r>     5.3111     0.1283  1052.0000 </r>
       <r>     5.4381     0.0000  1052.0000 </r>
       <r>     5.5651     0.0000  1052.0000 </r>
       <r>     5.6922     0.0000  1052.0000 </r>
       <r>     5.8192     0.0000  1052.0000 </r>
       <r>     5.9462     0.0000  1052.0000 </r>
       <r>     6.0733     0.0000  1052.0000 </r>
       <r>     6.2003     0.0000  1052.0000 </r>
       <r>     6.3273     0.0000  1052.0000 </r>
       <r>     6.4543     0.0000  1052.0000 </r>
       <r>     6.5814     0.0001  1052.0000 </r>
       <r>     6.7084     0.7215  1052.0917 </r>
       <r>     6.8354     1.2454  1052.2499 </r>
       <r>     6.9624     0.0011  1052.2500 </r>
       <r>     7.0895     0.0000  1052.2500 </r>
       <r>     7.2165     0.0000  1052.2500 </r>
       <r>     7.3435     0.0011  1052.2501 </r>
       <r>     7.4705     1.2737  1052.4119 </r>
       <r>     7.5976     3.2972  1052.8308 </r>
       <r>     7.7246     3.0476  1053.2179 </r>
       <r>     7.8516     0.9866  1053.3432 </r>
       <r>     7.9787     4.5517  1053.9214 </r>
       <r>     8.1057     2.5548  1054.2459 </r>
       <r>     8.2327     0.0320  1054.2500 </r>
       <r>     8.3597     0.9268  1054.3677 </r>
       <r>     8.4868     6.3965  1055.1803 </r>
       <r>     8.6138     7.4362  1056.1249 </r>
       <r>     8.7408     4.1223  1056.6485 </r>
       <r>     8.8678     6.8962  1057.5245 </r>
       <r>     8.9949     3.6640  1057.9899 </r>
       <r>     9.1219     4.0940  1058.5100 </r>
       <r>     9.2489    10.2741  1059.8151 </r>
       <r>     9.3760     5.9273  1060.5680 </r>
       <r>     9.5030     4.6821  1061.1627 </r>
       <r>     9.6300     3.7584  1061.6402 </r>
       <r>     9.7570    15.0715  1063.5546 </r>
       <r>     9.8841    15.2808  1065.4957 </r>
       <r>    10.0111     8.2514  1066.5439 </r>
       <r>    10.1381     5.5334  1067.2468 </r>
       <r>    10.2651    22.5414  1070.1101 </r>
       <r>    10.3922    29.8634  1073.9036 </r>
       <r>    10.5192    29.9312  1077.7056 </r>
       <r>    10.6462    46.8971  1083.6628 </r>
       <r>    10.7732    42.0885  1089.0092 </r>
       <r>    10.9003    37.7338  1093.8024 </r>
       <r>    11.0273    16.4004  1095.8857 </r>
       <r>    11.1543    31.1570  1099.8435 </r>
       <r>    11.2814    33.8867  1104.1480 </r>
       <r>    11.4084    30.5130  1108.0240 </r>
       <r>    11.5354    36.5128  1112.6621 </r>
       <r>    11.6624    37.3221  1117.4030 </r>
       <r>    11.7895    37.8975  1122.2170 </r>
       <r>    11.9165    39.4391  1127.2268 </r>
       <r>    12.0435    29.4463  1130.9673 </r>
       <r>    12.1705    34.6594  1135.3699 </r>
       <r>    12.2976    39.5897  1140.3989 </r>
       <r>    12.4246    46.8709  1146.3528 </r>
       <r>    12.5516    49.4303  1152.6317 </r>
       <r>    12.6786    29.7054  1156.4051 </r>
       <r>    12.8057    21.9317  1159.1910 </r>
       <r>    12.9327    19.7984  1161.7060 </r>
       <r>    13.0597    34.7816  1166.1242 </r>
       <r>    13.1868    40.3480  1171.2494 </r>
       <r>    13.3138    42.4939  1176.6473 </r>
       <r>    13.4408    39.8194  1181.7054 </r>
       <r>    13.5678    29.9714  1185.5126 </r>
       <r>    13.6949    35.8476  1190.0662 </r>
       <r>    13.8219    27.4873  1193.5578 </r>
       <r>    13.9489    38.1868  1198.4086 </r>
       <r>    14.0759    36.6497  1203.0641 </r>
       <r>    14.2030    29.4194  1206.8011 </r>
       <r>    14.3300    37.2539  1211.5334 </r>
       <r>    14.4570    43.7204  1217.0870 </r>
       <r>    14.5841    33.6366  1221.3598 </r>
       <r>    14.7111    34.6687  1225.7636 </r>
       <r>    14.8381    32.9351  1229.9473 </r>
       <r>    14.9651    33.7503  1234.2345 </r>
       <r>    15.0922    29.8150  1238.0218 </r>
       <r>    15.2192    43.5523  1243.5541 </r>
       <r>    15.3462    27.3173  1247.0241 </r>
       <r>    15.4732    21.3525  1249.7365 </r>
       <r>    15.6003    30.9174  1253.6638 </r>
       <r>    15.7273    39.5424  1258.6867 </r>
       <r>    15.8543    21.1469  1261.3730 </r>
       <r>    15.9813     4.9125  1261.9970 </r>
       <r>    16.1084     0.0237  1262.0000 </r>
       <r>    16.2354     0.0000  1262.0000 </r>
       <r>    16.3624     0.0000  1262.0000 </r>
       <r>    16.4895     0.0000  1262.0000 </r>
       <r>    16.6165     0.0000  1262.0000 </r>
       <r>    16.7435     0.0000  1262.0000 </r>
       <r>    16.8705     0.0000  1262.0000 </r>
       <r>    16.9976     0.0000  1262.0000 </r>
       <r>    17.1246     0.0000  1262.0000 </r>
       <r>    17.2516     0.0000  1262.0000 </r>
       <r>    17.3786     0.0000  1262.0000 </r>
       <r>    17.5057     0.0000  1262.0000 </r>
       <r>    17.6327     0.0000  1262.0000 </r>
      </set>
     </set>
    </array>
   </total>
  </dos>
 </calculation>
 <structure name="finalpos" >
  <crystal>
   <varray name="basis" >
    <v>       0.00000000      12.28047371       0.00000000 </v>
    <v>       9.14270115       0.00000000       0.00000000 </v>
    <v>       0.00000000      -2.76826164     -11.30069748 </v>
   </varray>
   <i name="volume">   1268.80503319 </i>
   <varray name="rec_basis" >
    <v>       0.00000000       0.08143008      -0.01994742 </v>
    <v>       0.10937687      -0.00000000       0.00000000 </v>
    <v>       0.00000000       0.00000000      -0.08849011 </v>
   </varray>
  </crystal>
  <varray name="positions" >
   <v>       0.66036804       0.00065943       0.15796592 </v>
   <v>       0.65956516       0.99997233       0.65687657 </v>
   <v>       0.66036813       0.33267485       0.15796297 </v>
   <v>       0.65956586       0.33336070       0.65687682 </v>
   <v>       0.65965831       0.66666663       0.15771750 </v>
   <v>       0.65912556       0.66666586       0.65682726 </v>
   <v>       0.84135874       0.16666061       0.84301537 </v>
   <v>       0.84102362       0.49775978       0.34435988 </v>
   <v>       0.84133892       0.49963043       0.84328622 </v>
   <v>       0.84102365       0.83557092       0.34436236 </v>
   <v>       0.84133868       0.83370033       0.84328778 </v>
   <v>       0.59485035       0.16666723       0.39735175 </v>
   <v>       0.59127380       0.16666614       0.89783734 </v>
   <v>       0.59114547       0.49954045       0.39756148 </v>
   <v>       0.59137840       0.49989557       0.89815973 </v>
   <v>       0.59114551       0.83379290       0.39756183 </v>
   <v>       0.59137888       0.83343814       0.89816033 </v>
   <v>       0.90810583       0.00038315       0.10374649 </v>
   <v>       0.90725566       0.00148074       0.59814893 </v>
   <v>       0.90810526       0.33295192       0.10374577 </v>
   <v>       0.90725414       0.33185177       0.59814522 </v>
   <v>       0.90856618       0.66666640       0.10284009 </v>
   <v>       0.90917302       0.66666471       0.60224932 </v>
   <v>       0.15864972       0.16666692       0.15718394 </v>
   <v>       0.15850452       0.16666700       0.65574855 </v>
   <v>       0.15880900       0.49957807       0.15700499 </v>
   <v>       0.15835800       0.49960812       0.65630422 </v>
   <v>       0.15880843       0.83375546       0.15700618 </v>
   <v>       0.15836055       0.83372403       0.65630598 </v>
   <v>       0.34136814       0.00034453       0.34371215 </v>
   <v>       0.34090004       0.00001538       0.84335226 </v>
   <v>       0.34136822       0.33298897       0.34371150 </v>
   <v>       0.34090008       0.33331840       0.84335215 </v>
   <v>       0.34128403       0.66666673       0.34322832 </v>
   <v>       0.34099005       0.66666631       0.84331467 </v>
   <v>       0.08871853       0.00163254       0.39726222 </v>
   <v>       0.09109471       0.00004264       0.89763018 </v>
   <v>       0.08871820       0.33170200       0.39726145 </v>
   <v>       0.09109404       0.33329032       0.89762911 </v>
   <v>       0.09158920       0.66666595       0.39784213 </v>
   <v>       0.09137837       0.66666633       0.89798922 </v>
   <v>       0.40923191       0.16666899       0.10277960 </v>
   <v>       0.40927689       0.16666667       0.60256461 </v>
   <v>       0.40937978       0.49977178       0.10264432 </v>
   <v>       0.40886728       0.49994282       0.60257562 </v>
   <v>       0.40938144       0.83356560       0.10264533 </v>
   <v>       0.40886767       0.83339050       0.60257572 </v>
   <v>       0.99637353       0.16666639       0.12662984 </v>
   <v>       0.99660423       0.16666651       0.62939586 </v>
   <v>       0.99627822       0.49983465       0.12686013 </v>
   <v>       0.99591755       0.49912327       0.62726924 </v>
   <v>       0.99627778       0.83350007       0.12686079 </v>
   <v>       0.99591767       0.83420834       0.62727075 </v>
   <v>       0.50425097       0.00112003       0.37317569 </v>
   <v>       0.50355160       0.99997403       0.87247647 </v>
   <v>       0.50425057       0.33221343       0.37317512 </v>
   <v>       0.50355205       0.33335858       0.87247683 </v>
   <v>       0.50362185       0.66666695       0.37323297 </v>
   <v>       0.50376121       0.66666721       0.87266289 </v>
   <v>       0.67361189       0.16666638       0.27910361 </v>
   <v>       0.67271931       0.16666609       0.78074095 </v>
   <v>       0.67132416       0.50115008       0.27997828 </v>
   <v>       0.67263939       0.49990975       0.78071603 </v>
   <v>       0.67132482       0.83218556       0.27997914 </v>
   <v>       0.67263928       0.83342297       0.78071641 </v>
   <v>       0.82715308       0.99941228       0.22050564 </v>
   <v>       0.82786357       0.99997225       0.71900727 </v>
   <v>       0.82715345       0.33392127       0.22050434 </v>
   <v>       0.82786357       0.33335917       0.71900523 </v>
   <v>       0.82752746       0.66666882       0.21989512 </v>
   <v>       0.82758275       0.66666667       0.71973023 </v>
   <v>       0.82932597       0.00186511       0.44313038 </v>
   <v>       0.83279901       0.00001018       0.94591550 </v>
   <v>       0.82932702       0.33148096       0.44313097 </v>
   <v>       0.83279849       0.33332167       0.94591370 </v>
   <v>       0.83211432       0.66666804       0.44599155 </v>
   <v>       0.83246041       0.66666528       0.94568912 </v>
   <v>       0.66848880       0.16666663       0.05364313 </v>
   <v>       0.66739706       0.16666624       0.55519708 </v>
   <v>       0.66797947       0.50000567       0.05440067 </v>
   <v>       0.66734570       0.50025549       0.55453877 </v>
   <v>       0.66798043       0.83332828       0.05440172 </v>
   <v>       0.66734520       0.83307774       0.55453886 </v>
   <v>       0.49665166       0.00021024       0.12702419 </v>
   <v>       0.49655895       0.99983832       0.62778804 </v>
   <v>       0.49665086       0.33312383       0.12702334 </v>
   <v>       0.49655916       0.33349513       0.62778809 </v>
   <v>       0.49629806       0.66666789       0.12683605 </v>
   <v>       0.49634590       0.66666649       0.62776190 </v>
   <v>       0.00178781       0.16666574       0.37358510 </v>
   <v>       0.00391739       0.16666606       0.87350436 </v>
   <v>       0.00416516       0.50056783       0.37282724 </v>
   <v>       0.00393427       0.50011432       0.87290111 </v>
   <v>       0.00416431       0.83276656       0.37282779 </v>
   <v>       0.00393423       0.83321884       0.87290133 </v>
   <v>       0.17254150       0.00002513       0.28077372 </v>
   <v>       0.17284898       0.99996997       0.78072399 </v>
   <v>       0.17254141       0.33330811       0.28077337 </v>
   <v>       0.17284885       0.33336340       0.78072339 </v>
   <v>       0.17308418       0.66666681       0.28041301 </v>
   <v>       0.17247536       0.66666615       0.78051852 </v>
   <v>       0.32746182       0.16666658       0.21973896 </v>
   <v>       0.32752122       0.16666695       0.71957743 </v>
   <v>       0.32774797       0.49963590       0.21970498 </v>
   <v>       0.32744146       0.50008228       0.71974948 </v>
   <v>       0.32774797       0.83369808       0.21970507 </v>
   <v>       0.32744190       0.83325057       0.71974985 </v>
   <v>       0.33213975       0.16666687       0.44616653 </v>
   <v>       0.33236427       0.16666675       0.94602653 </v>
   <v>       0.33261569       0.50000117       0.44589166 </v>
   <v>       0.33232218       0.50005398       0.94597180 </v>
   <v>       0.33261539       0.83333214       0.44589183 </v>
   <v>       0.33232250       0.83327982       0.94597250 </v>
   <v>       0.16826358       0.00010266       0.05428150 </v>
   <v>       0.16828798       0.99979640       0.55400994 </v>
   <v>       0.16826324       0.33323040       0.05428060 </v>
   <v>       0.16828796       0.33353656       0.55400946 </v>
   <v>       0.16807826       0.66666730       0.05460738 </v>
   <v>       0.16839726       0.66666648       0.55461397 </v>
   <v>       0.83798376       0.16665921       0.33582435 </v>
  </varray>
 </structure>
</modeling>
