Ga8 O12                                 
    1.000000000000000     
     0.0000000000000000   12.2804737091000007    0.0000000000000000
     9.1427011490000005    0.0000000000000000    0.0000000000000000
     0.0000000000000000   -2.7682616411000001  -11.3006974810000003
   Ga   O    N    Fe
    47    71     1     1
Direct
  0.6579490706173267 -0.0006148445291540  0.1563572088985717
  0.6568315342986725 -0.0020844509332717  0.6576737701336531
  0.6588862311551766  0.3342754153742419  0.1556226291971357
  0.6581414355713452  0.3352274226964202  0.6580301372452901
  0.6592546918247219  0.6669378736738881  0.1572153422482092
  0.6587881200023685  0.6668735956854930  0.6558246841966245
  0.8415837158088249  0.1663875929395053  0.3427364471357562
  0.8406886957796343  0.1665831381708116  0.8428096885060820
  0.8409575898681767  0.5002299660519760  0.3431865601373276
  0.8409906379974724  0.5002964304254555  0.8435040277566501
  0.8409131597112274  0.8335788974091815  0.3434465878454340
  0.8408126063891812  0.8332891321950850  0.8433582784199530
  0.5904318095019137  0.1668864296986875  0.8974791145440575
  0.5915342536268494  0.4976894940612273  0.3973618474181222
  0.5907659846459115  0.5004962358023294  0.8977376409981269
  0.5910232884774900  0.8392268600709692  0.3974911034523426
  0.5908216845906973  0.8332633000091926  0.8980615064516304
  0.9088014238338479 -0.0001434732816874  0.1022715119386612
  0.9088421547082854  0.0000473003232297  0.6021827042748839
  0.9090763479470385  0.3332356015872558  0.1021808055550848
  0.9086489127816119  0.3332254884038618  0.6017594126456008
  0.9092170416269342  0.6666201308111248  0.1024509642984360
  0.9085860620502207  0.6666845323807347  0.6024771555037668
  0.1588247605840901  0.1656501414684184  0.1561459504421716
  0.1591732509688094  0.1665835338305533  0.6565093996399853
  0.1597752223466721  0.4995953913121643  0.1575218354275433
  0.1586151125814045  0.5000112351699018  0.6566992660834950
  0.1596028560816019  0.8334287485644557  0.1578262233894722
  0.1586155831972567  0.8331712487992073  0.6567274848271728
  0.3440478848251105  0.0019960786357681  0.3436037934320184
  0.3407576364416658  0.0004365379988789  0.8435687007954240
  0.3419356700224089  0.3291046154254890  0.3442535537014769
  0.3406353070556234  0.3329909613888269  0.8434211741346325
  0.3433426138522885  0.6661430242680848  0.3431147005711327
  0.3404662347774863  0.6666937971364781  0.8429906539587221
  0.0920885338761912 -0.0000700045658037  0.3974625029309435
  0.0907428849452985 -0.0001982271679313  0.8974368673959746
  0.0919006543874112  0.3331196792977928  0.3976018496436192
  0.0909477416134210  0.3332588007002099  0.8977332250131441
  0.0907881730610619  0.6665925820096927  0.3972990770848304
  0.0910958140648593  0.6667075239106128  0.8982231919705491
  0.4098581211283943  0.1665198742986625  0.1036657968734670
  0.4083421885881345  0.1660045675766361  0.6011798040480806
  0.4085494061448255  0.5006225868908607  0.1017359734618377
  0.4085378928070916  0.5001094765833773  0.6026793765607950
  0.4084982019927858  0.8328320897573778  0.1015727231738646
  0.4083742461875091  0.8325636744751181  0.6026156945519154
  0.9963130058616362  0.1665101928311681  0.1272926496867197
  0.9962362589287208  0.1667932337666021  0.6269343026500153
  0.9965878749454036  0.4997889542334135  0.1275967546941364
  0.9958306908011711  0.4998181291265360  0.6268159622925972
  0.9963950944623312  0.8333590251989490  0.1272499641585285
  0.9959844791561341  0.8333549551544323  0.6272171736967326
  0.5085205194388515  0.0115871120464964  0.3751216489775830
  0.5034924953792242 -0.0001110455083865  0.8731412238844699
  0.5034026566838807  0.3338255678721633  0.8726346138698008
  0.5061982410865700  0.6682643197727079  0.3730478342159076
  0.5032291832299096  0.6668766263982044  0.8728807678962051
  0.6692642283588046  0.1641858018562828  0.2783006012251242
  0.6719411631280744  0.1670362330693561  0.7801891174109720
  0.6735744981524446  0.5011094371449862  0.2795720237652679
  0.6725091080264219  0.5002436446474213  0.7808306855240175
  0.6727915076380803  0.8336637436323452  0.2803504393962452
  0.6723893961147823  0.8329980711603866  0.7808715954674019
  0.8272392680687246  0.0011069810695763  0.2196105175359813
  0.8261349149079880  0.0011946835394106  0.7183882171674689
  0.8272779123666504  0.3321513816726239  0.2195018433687367
  0.8265138847010096  0.3324627632514506  0.7184829097308236
  0.8280779275700848  0.6670649967994600  0.2197357306118740
  0.8273067856368737  0.6669176676929943  0.7197693888595137
  0.8313252152927523  0.0008567108348664  0.4456409234565965
  0.8320714255546888  0.0000871176315819  0.9454777522368665
  0.8300565003976617  0.3323435238553086  0.4452359540223723
  0.8322904494001215  0.3332997002904357  0.9454624783525249
  0.8323576025375499  0.6667343582840809  0.4458367407491932
  0.8322354690932129  0.6667011310280201  0.9459058068068836
  0.6677011326540879  0.1669572969663053  0.0539141704232656
  0.6605066488692392  0.1652279443762354  0.5536192184100711
  0.6684513968112188  0.5005723482003392  0.0538657649200001
  0.6686131638970021  0.5005678695158072  0.5549058169929663
  0.6684486548102782  0.8332462085233759  0.0542896976307573
  0.6675807693672856  0.8337344971703917  0.5544192456470634
  0.4958475703943416 -0.0010122578536582  0.1261166825619754
  0.4951247558106306 -0.0007749369604137  0.6292057106450086
  0.4963880359992693  0.3343150991433065  0.1275282252131137
  0.4956701917193990  0.3331979439188966  0.6268225793061335
  0.4964679014335823  0.6667000382838794  0.1263161111478210
  0.4963319374469895  0.6663470240965630  0.6282211623768206
  0.0041652106723407  0.1666219044890447  0.3731269328757113
  0.0033657843824103  0.1666265058560917  0.8724768031329251
  0.0035518531917757  0.4993842349621750  0.3728680553926179
  0.0034865070654143  0.5000156677520075  0.8725324795024127
  0.0036213898980127  0.8336421379288937  0.3728725737799048
  0.0032599053976512  0.8331529128584310  0.8721853188712531
  0.1729480530315328 -0.0013323239707759  0.2802055807563571
  0.1723688004674173  0.0003033013851680  0.7804763412977895
  0.1733435165305070  0.3333508643181666  0.2805487991438793
  0.1722301761385318  0.3332206487968855  0.7804380595571110
  0.1736457817764026  0.6663825898967639  0.2812039050745878
  0.1717802291259685  0.6664888019965277  0.7802455324354678
  0.3255913907275780  0.1641784836135252  0.2179144239877977
  0.3275136035717199  0.1668675562191664  0.7196473997176193
  0.3286447543226974  0.4998106345617648  0.2199016963304852
  0.3270312361136903  0.5000802760801071  0.7195658466515036
  0.3291666467722111  0.8337708732301214  0.2203182366689088
  0.3268266736295559  0.8329157515244970  0.7195536196489133
  0.3260295619242879  0.1640499260803024  0.4466955204103934
  0.3328582525106656  0.1669281936924171  0.9465390358220294
  0.3344431031499115  0.4991981339247692  0.4454149757509349
  0.3314991432135959  0.5000687404843429  0.9453894390802257
  0.3354589534952649  0.8339108838068139  0.4449947280389505
  0.3312479148469437  0.8331405837050013  0.9452593057790523
  0.1673374450937725 -0.0009856526621896  0.0538033513959345
  0.1674486316989514 -0.0006530520720436  0.5545062689724831
  0.1676280840125257  0.3332702869423103  0.0543032589539703
  0.1678152952031094  0.3337365600558952  0.5544320903316374
  0.1681379481824005  0.6666462918639945  0.0548752660713177
  0.1679369644946633  0.6665635901201671  0.5539335894464303
  0.5073735775176352  0.3186903427658997  0.3734149328473946
  0.5985012513614414  0.1785702492684631  0.3992286773747776
 
  0.00000000E+00  0.00000000E+00  0.00000000E+00
  0.00000000E+00  0.00000000E+00  0.00000000E+00
  0.00000000E+00  0.00000000E+00  0.00000000E+00
  0.00000000E+00  0.00000000E+00  0.00000000E+00
  0.00000000E+00  0.00000000E+00  0.00000000E+00
  0.00000000E+00  0.00000000E+00  0.00000000E+00
  0.00000000E+00  0.00000000E+00  0.00000000E+00
  0.00000000E+00  0.00000000E+00  0.00000000E+00
  0.00000000E+00  0.00000000E+00  0.00000000E+00
  0.00000000E+00  0.00000000E+00  0.00000000E+00
  0.00000000E+00  0.00000000E+00  0.00000000E+00
  0.00000000E+00  0.00000000E+00  0.00000000E+00
  0.00000000E+00  0.00000000E+00  0.00000000E+00
  0.00000000E+00  0.00000000E+00  0.00000000E+00
  0.00000000E+00  0.00000000E+00  0.00000000E+00
  0.00000000E+00  0.00000000E+00  0.00000000E+00
  0.00000000E+00  0.00000000E+00  0.00000000E+00
  0.00000000E+00  0.00000000E+00  0.00000000E+00
  0.00000000E+00  0.00000000E+00  0.00000000E+00
  0.00000000E+00  0.00000000E+00  0.00000000E+00
  0.00000000E+00  0.00000000E+00  0.00000000E+00
  0.00000000E+00  0.00000000E+00  0.00000000E+00
  0.00000000E+00  0.00000000E+00  0.00000000E+00
  0.00000000E+00  0.00000000E+00  0.00000000E+00
  0.00000000E+00  0.00000000E+00  0.00000000E+00
  0.00000000E+00  0.00000000E+00  0.00000000E+00
  0.00000000E+00  0.00000000E+00  0.00000000E+00
  0.00000000E+00  0.00000000E+00  0.00000000E+00
  0.00000000E+00  0.00000000E+00  0.00000000E+00
  0.00000000E+00  0.00000000E+00  0.00000000E+00
  0.00000000E+00  0.00000000E+00  0.00000000E+00
  0.00000000E+00  0.00000000E+00  0.00000000E+00
  0.00000000E+00  0.00000000E+00  0.00000000E+00
  0.00000000E+00  0.00000000E+00  0.00000000E+00
  0.00000000E+00  0.00000000E+00  0.00000000E+00
  0.00000000E+00  0.00000000E+00  0.00000000E+00
  0.00000000E+00  0.00000000E+00  0.00000000E+00
  0.00000000E+00  0.00000000E+00  0.00000000E+00
  0.00000000E+00  0.00000000E+00  0.00000000E+00
  0.00000000E+00  0.00000000E+00  0.00000000E+00
  0.00000000E+00  0.00000000E+00  0.00000000E+00
  0.00000000E+00  0.00000000E+00  0.00000000E+00
  0.00000000E+00  0.00000000E+00  0.00000000E+00
  0.00000000E+00  0.00000000E+00  0.00000000E+00
  0.00000000E+00  0.00000000E+00  0.00000000E+00
  0.00000000E+00  0.00000000E+00  0.00000000E+00
  0.00000000E+00  0.00000000E+00  0.00000000E+00
  0.00000000E+00  0.00000000E+00  0.00000000E+00
  0.00000000E+00  0.00000000E+00  0.00000000E+00
  0.00000000E+00  0.00000000E+00  0.00000000E+00
  0.00000000E+00  0.00000000E+00  0.00000000E+00
  0.00000000E+00  0.00000000E+00  0.00000000E+00
  0.00000000E+00  0.00000000E+00  0.00000000E+00
  0.00000000E+00  0.00000000E+00  0.00000000E+00
  0.00000000E+00  0.00000000E+00  0.00000000E+00
  0.00000000E+00  0.00000000E+00  0.00000000E+00
  0.00000000E+00  0.00000000E+00  0.00000000E+00
  0.00000000E+00  0.00000000E+00  0.00000000E+00
  0.00000000E+00  0.00000000E+00  0.00000000E+00
  0.00000000E+00  0.00000000E+00  0.00000000E+00
  0.00000000E+00  0.00000000E+00  0.00000000E+00
  0.00000000E+00  0.00000000E+00  0.00000000E+00
  0.00000000E+00  0.00000000E+00  0.00000000E+00
  0.00000000E+00  0.00000000E+00  0.00000000E+00
  0.00000000E+00  0.00000000E+00  0.00000000E+00
  0.00000000E+00  0.00000000E+00  0.00000000E+00
  0.00000000E+00  0.00000000E+00  0.00000000E+00
  0.00000000E+00  0.00000000E+00  0.00000000E+00
  0.00000000E+00  0.00000000E+00  0.00000000E+00
  0.00000000E+00  0.00000000E+00  0.00000000E+00
  0.00000000E+00  0.00000000E+00  0.00000000E+00
  0.00000000E+00  0.00000000E+00  0.00000000E+00
  0.00000000E+00  0.00000000E+00  0.00000000E+00
  0.00000000E+00  0.00000000E+00  0.00000000E+00
  0.00000000E+00  0.00000000E+00  0.00000000E+00
  0.00000000E+00  0.00000000E+00  0.00000000E+00
  0.00000000E+00  0.00000000E+00  0.00000000E+00
  0.00000000E+00  0.00000000E+00  0.00000000E+00
  0.00000000E+00  0.00000000E+00  0.00000000E+00
  0.00000000E+00  0.00000000E+00  0.00000000E+00
  0.00000000E+00  0.00000000E+00  0.00000000E+00
  0.00000000E+00  0.00000000E+00  0.00000000E+00
  0.00000000E+00  0.00000000E+00  0.00000000E+00
  0.00000000E+00  0.00000000E+00  0.00000000E+00
  0.00000000E+00  0.00000000E+00  0.00000000E+00
  0.00000000E+00  0.00000000E+00  0.00000000E+00
  0.00000000E+00  0.00000000E+00  0.00000000E+00
  0.00000000E+00  0.00000000E+00  0.00000000E+00
  0.00000000E+00  0.00000000E+00  0.00000000E+00
  0.00000000E+00  0.00000000E+00  0.00000000E+00
  0.00000000E+00  0.00000000E+00  0.00000000E+00
  0.00000000E+00  0.00000000E+00  0.00000000E+00
  0.00000000E+00  0.00000000E+00  0.00000000E+00
  0.00000000E+00  0.00000000E+00  0.00000000E+00
  0.00000000E+00  0.00000000E+00  0.00000000E+00
  0.00000000E+00  0.00000000E+00  0.00000000E+00
  0.00000000E+00  0.00000000E+00  0.00000000E+00
  0.00000000E+00  0.00000000E+00  0.00000000E+00
  0.00000000E+00  0.00000000E+00  0.00000000E+00
  0.00000000E+00  0.00000000E+00  0.00000000E+00
  0.00000000E+00  0.00000000E+00  0.00000000E+00
  0.00000000E+00  0.00000000E+00  0.00000000E+00
  0.00000000E+00  0.00000000E+00  0.00000000E+00
  0.00000000E+00  0.00000000E+00  0.00000000E+00
  0.00000000E+00  0.00000000E+00  0.00000000E+00
  0.00000000E+00  0.00000000E+00  0.00000000E+00
  0.00000000E+00  0.00000000E+00  0.00000000E+00
  0.00000000E+00  0.00000000E+00  0.00000000E+00
  0.00000000E+00  0.00000000E+00  0.00000000E+00
  0.00000000E+00  0.00000000E+00  0.00000000E+00
  0.00000000E+00  0.00000000E+00  0.00000000E+00
  0.00000000E+00  0.00000000E+00  0.00000000E+00
  0.00000000E+00  0.00000000E+00  0.00000000E+00
  0.00000000E+00  0.00000000E+00  0.00000000E+00
  0.00000000E+00  0.00000000E+00  0.00000000E+00
  0.00000000E+00  0.00000000E+00  0.00000000E+00
  0.00000000E+00  0.00000000E+00  0.00000000E+00
  0.00000000E+00  0.00000000E+00  0.00000000E+00
  0.00000000E+00  0.00000000E+00  0.00000000E+00
  0.00000000E+00  0.00000000E+00  0.00000000E+00
