 running    4 mpi-ranks, on    1 nodes
 distrk:  each k-point on    1 cores,    4 groups
 distr:  one band on    1 cores,    1 groups
 OpenACC runtime initialized ...    4 GPUs detected
 vasp.6.4.2 20Jul23 (build Nov 12 2023 22:16:35) complex                         
 POSCAR found type information on POSCAR GaO N Fe
 POSCAR found :  4 types and     120 ions
 scaLAPACK will be used selectively (only on CPU)
 LDA part: xc-table for Pade appr. of Perdew
 POSCAR, INCAR and KPOINTS ok, starting setup
 FFT: planning ... GRIDC
 FFT: planning ... GRID_SOFT
 FFT: planning ... GRID
 WAVECAR not read
 entering main loop
       N       E                     dE             d eps       ncg     rms          rms(c)
DAV:   1     0.217766728539E+05    0.21777E+05   -0.32055E+05 10080   0.281E+03
DAV:   2     0.484247275084E+04   -0.16934E+05   -0.15958E+05 10080   0.815E+02
DAV:   3    -0.145654427240E+03   -0.49881E+04   -0.46828E+04 12768   0.321E+02
DAV:   4    -0.792507824150E+03   -0.64685E+03   -0.63013E+03 12440   0.122E+02
DAV:   5    -0.839173410327E+03   -0.46666E+02   -0.46180E+02 14568   0.357E+01    0.756E+01
RMM:   6    -0.848838840827E+03   -0.96654E+01   -0.84177E+02 13849   0.340E+01    0.225E+02
RMM:   7    -0.808768514289E+03    0.40070E+02   -0.85715E+01 15352   0.117E+01    0.142E+02
RMM:   8    -0.726097143636E+03    0.82671E+02   -0.49302E+01 13168   0.673E+00    0.420E+01
RMM:   9    -0.720777918599E+03    0.53192E+01   -0.71164E+00 12854   0.345E+00    0.232E+01
RMM:  10    -0.717946805419E+03    0.28311E+01   -0.53132E+00 13055   0.268E+00    0.185E+01
RMM:  11    -0.718301870468E+03   -0.35507E+00   -0.31573E+00 13370   0.199E+00    0.160E+01
RMM:  12    -0.717704744165E+03    0.59713E+00   -0.88040E-01 13816   0.142E+00    0.101E+01
RMM:  13    -0.717286782039E+03    0.41796E+00   -0.45831E-01 14757   0.100E+00    0.521E+00
RMM:  14    -0.717128965204E+03    0.15782E+00   -0.21098E-01 13733   0.575E-01    0.334E+00
RMM:  15    -0.717090729230E+03    0.38236E-01   -0.45894E-02 14938   0.263E-01    0.287E+00
RMM:  16    -0.717031357019E+03    0.59372E-01   -0.52618E-02 13146   0.204E-01    0.216E+00
RMM:  17    -0.716979465502E+03    0.51892E-01   -0.79553E-02 13208   0.262E-01    0.784E-01
RMM:  18    -0.716974446369E+03    0.50191E-02   -0.26892E-02 15031   0.181E-01    0.315E-01
RMM:  19    -0.716972482151E+03    0.19642E-02   -0.20271E-02 13786   0.127E-01    0.149E-01
RMM:  20    -0.716972878963E+03   -0.39681E-03   -0.68244E-03 13400   0.810E-02    0.134E-01
RMM:  21    -0.716973068522E+03   -0.18956E-03   -0.27441E-03 12719   0.478E-02    0.528E-02
RMM:  22    -0.716973136325E+03   -0.67803E-04   -0.96753E-04 10189   0.265E-02    0.483E-02
RMM:  23    -0.716973101186E+03    0.35139E-04   -0.33863E-04  9845   0.168E-02    0.150E-02
RMM:  24    -0.716973104408E+03   -0.32225E-05   -0.14927E-04  9752   0.127E-02    0.158E-02
RMM:  25    -0.716973106471E+03   -0.20625E-05   -0.69550E-05  7914   0.847E-03
   1 F= -.71697311E+03 E0= -.71697311E+03  d E =-.716973E+03
 curvature:   0.00 expect dE= 0.000E+00 dE for cont linesearch  0.000E+00
 trial: gam= 0.00000 g(F)=  0.132E+01 g(S)=  0.000E+00 ort = 0.000E+00 (trialstep = 0.100E+01)
 search vector abs. value=  0.132E+01
 bond charge predicted
       N       E                     dE             d eps       ncg     rms          rms(c)
DAV:   1    -0.716468241681E+03    0.50486E+00   -0.26800E+02 10656   0.178E+01    0.846E+00
RMM:   2    -0.717992697965E+03   -0.15245E+01   -0.10041E+01 11460   0.553E+00    0.134E+01
RMM:   3    -0.717260105053E+03    0.73259E+00   -0.34427E+00 15099   0.256E+00    0.563E+00
RMM:   4    -0.717253783560E+03    0.63215E-02   -0.52810E-01 14534   0.994E-01    0.533E+00
RMM:   5    -0.717156782441E+03    0.97001E-01   -0.28805E-01 12723   0.749E-01    0.166E+00
RMM:   6    -0.717158149330E+03   -0.13669E-02   -0.11389E-01 14252   0.343E-01    0.733E-01
RMM:   7    -0.717159176874E+03   -0.10275E-02   -0.23339E-02 15191   0.168E-01    0.389E-01
RMM:   8    -0.717158711129E+03    0.46574E-03   -0.92166E-03 13024   0.835E-02    0.201E-01
RMM:   9    -0.717158618047E+03    0.93082E-04   -0.40296E-03 12231   0.557E-02    0.859E-02
RMM:  10    -0.717158721318E+03   -0.10327E-03   -0.12871E-03 11351   0.332E-02    0.355E-02
RMM:  11    -0.717158785062E+03   -0.63744E-04   -0.71001E-04 10044   0.192E-02    0.205E-02
RMM:  12    -0.717158805329E+03   -0.20267E-04   -0.20732E-04  8623   0.127E-02    0.122E-02
RMM:  13    -0.717158816259E+03   -0.10930E-04   -0.11925E-04  7883   0.790E-03    0.373E-03
RMM:  14    -0.717158819900E+03   -0.36412E-05   -0.43668E-05  6977   0.590E-03
   2 F= -.71715882E+03 E0= -.71715882E+03  d E =-.185713E+00
 trial-energy change:   -0.185713  1 .order    0.078041   -1.323987    1.480069
 step:   0.6068(harm=  0.4722)  dis= 0.10214  next Energy=  -717.433754 (dE=-0.461E+00)
 bond charge predicted
       N       E                     dE             d eps       ncg     rms          rms(c)
DAV:   1    -0.717370663697E+03   -0.21185E+00   -0.42292E+01 11064   0.720E+00    0.401E+00
RMM:   2    -0.718052238770E+03   -0.68158E+00   -0.22399E+00 11008   0.281E+00    0.961E+00
RMM:   3    -0.717449418508E+03    0.60282E+00   -0.54345E-01 14424   0.110E+00    0.257E+00
RMM:   4    -0.717434939106E+03    0.14479E-01   -0.92194E-02 14483   0.389E-01    0.241E+00
RMM:   5    -0.717428966078E+03    0.59730E-02   -0.40172E-02 12614   0.253E-01    0.108E+00
RMM:   6    -0.717426872609E+03    0.20935E-02   -0.25189E-02 13316   0.154E-01    0.552E-01
RMM:   7    -0.717425158569E+03    0.17140E-02   -0.31120E-03 13805   0.728E-02    0.179E-01
RMM:   8    -0.717424947200E+03    0.21137E-03   -0.10849E-03 10793   0.317E-02    0.129E-01
RMM:   9    -0.717424860820E+03    0.86380E-04   -0.78119E-04 11031   0.271E-02    0.334E-02
RMM:  10    -0.717424862825E+03   -0.20052E-05   -0.16128E-04  9224   0.149E-02    0.204E-02
RMM:  11    -0.717424867248E+03   -0.44235E-05   -0.72515E-05  7730   0.791E-03
   3 F= -.71742487E+03 E0= -.71742487E+03  d E =-.451761E+00
 curvature:  -0.22 expect dE=-0.380E-01 dE for cont linesearch -0.387E-04
 trial: gam= 0.11844 g(F)=  0.172E+00 g(S)=  0.000E+00 ort = 0.152E-01 (trialstep = 0.921E+00)
 search vector abs. value=  0.194E+00
 bond charge predicted
       N       E                     dE             d eps       ncg     rms          rms(c)
DAV:   1    -0.717400198305E+03    0.24665E-01   -0.36913E+01 10848   0.813E+00    0.166E+00
RMM:   2    -0.717500824413E+03   -0.10063E+00   -0.11682E+00 12910   0.219E+00    0.141E+00
RMM:   3    -0.717522409151E+03   -0.21585E-01   -0.28275E-01 14751   0.897E-01    0.857E-01
RMM:   4    -0.717526926705E+03   -0.45176E-02   -0.39312E-02 14612   0.321E-01    0.847E-01
RMM:   5    -0.717524436181E+03    0.24905E-02   -0.15732E-02 13702   0.184E-01    0.630E-01
RMM:   6    -0.717522652519E+03    0.17837E-02   -0.74195E-03 12814   0.983E-02    0.125E-01
RMM:   7    -0.717522680590E+03   -0.28070E-04   -0.16263E-03 13549   0.510E-02    0.763E-02
RMM:   8    -0.717522679134E+03    0.14555E-05   -0.52823E-04 10505   0.235E-02    0.421E-02
RMM:   9    -0.717522667642E+03    0.11492E-04   -0.30486E-04 10678   0.181E-02    0.168E-02
RMM:  10    -0.717522674244E+03   -0.66019E-05   -0.85603E-05  8331   0.105E-02
   4 F= -.71752267E+03 E0= -.71752267E+03  d E =-.978070E-01
 trial-energy change:   -0.097807  1 .order   -0.096773   -0.160178   -0.033367
 step:   1.1498(harm=  1.1638)  dis= 0.04787  next Energy=  -717.526827 (dE=-0.102E+00)
 bond charge predicted
       N       E                     dE             d eps       ncg     rms          rms(c)
DAV:   1    -0.717520074858E+03    0.25928E-02   -0.22713E+00 11576   0.202E+00    0.406E-01
RMM:   2    -0.717525978888E+03   -0.59040E-02   -0.68859E-02 12698   0.538E-01    0.370E-01
RMM:   3    -0.717527413216E+03   -0.14343E-02   -0.17925E-02 14684   0.226E-01    0.251E-01
RMM:   4    -0.717527821136E+03   -0.40792E-03   -0.28732E-03 13885   0.865E-02    0.272E-01
RMM:   5    -0.717527392074E+03    0.42906E-03   -0.90103E-04 12234   0.457E-02    0.125E-01
RMM:   6    -0.717527359680E+03    0.32395E-04   -0.52544E-04 11021   0.259E-02    0.327E-02
RMM:   7    -0.717527366068E+03   -0.63879E-05   -0.10163E-04  9496   0.140E-02    0.184E-02
RMM:   8    -0.717527363404E+03    0.26639E-05   -0.28458E-05  6776   0.805E-03
   5 F= -.71752736E+03 E0= -.71752736E+03  d E =-.102496E+00
 curvature:  -0.65 expect dE=-0.628E-01 dE for cont linesearch -0.115E-04
 trial: gam= 0.59572 g(F)=  0.969E-01 g(S)=  0.000E+00 ort = 0.186E-02 (trialstep = 0.967E+00)
 search vector abs. value=  0.168E+00
 bond charge predicted
       N       E                     dE             d eps       ncg     rms          rms(c)
DAV:   1    -0.717446648626E+03    0.80717E-01   -0.37587E+01 10548   0.836E+00    0.123E+00
RMM:   2    -0.717564903962E+03   -0.11826E+00   -0.12255E+00 12981   0.217E+00    0.117E+00
RMM:   3    -0.717588719033E+03   -0.23815E-01   -0.27491E-01 14505   0.921E-01    0.987E-01
RMM:   4    -0.717583012817E+03    0.57062E-02   -0.39534E-02 14450   0.336E-01    0.453E-01
RMM:   5    -0.717581419837E+03    0.15930E-02   -0.10222E-02 14672   0.145E-01    0.251E-01
RMM:   6    -0.717581065909E+03    0.35393E-03   -0.56117E-03 12492   0.890E-02    0.753E-02
RMM:   7    -0.717581123613E+03   -0.57704E-04   -0.12649E-03 13676   0.473E-02    0.534E-02
RMM:   8    -0.717581126705E+03   -0.30910E-05   -0.46674E-04 10354   0.229E-02    0.244E-02
RMM:   9    -0.717581142842E+03   -0.16138E-04   -0.22998E-04  9717   0.153E-02    0.144E-02
RMM:  10    -0.717581147640E+03   -0.47974E-05   -0.85177E-05  8218   0.106E-02
   6 F= -.71758115E+03 E0= -.71758115E+03  d E =-.537842E-01
 trial-energy change:   -0.053784  1 .order   -0.052958   -0.094795   -0.011120
 step:   1.0876(harm=  1.0956)  dis= 0.02548  next Energy=  -717.581842 (dE=-0.545E-01)
 bond charge predicted
       N       E                     dE             d eps       ncg     rms          rms(c)
DAV:   1    -0.717579926236E+03    0.12166E-02   -0.58462E-01 11640   0.104E+00    0.152E-01
RMM:   2    -0.717581726877E+03   -0.18006E-02   -0.18562E-02 12944   0.266E-01    0.149E-01
RMM:   3    -0.717582075831E+03   -0.34895E-03   -0.42266E-03 14443   0.114E-01    0.122E-01
RMM:   4    -0.717581983868E+03    0.91963E-04   -0.57028E-04 12461   0.413E-02    0.550E-02
RMM:   5    -0.717581963586E+03    0.20282E-04   -0.17823E-04 10640   0.218E-02    0.314E-02
RMM:   6    -0.717581960164E+03    0.34216E-05   -0.11043E-04  9506   0.138E-02    0.116E-02
RMM:   7    -0.717581960085E+03    0.79875E-07   -0.23995E-05  6702   0.806E-03
   7 F= -.71758196E+03 E0= -.71758196E+03  d E =-.545967E-01
 curvature:  -0.94 expect dE=-0.450E-01 dE for cont linesearch -0.482E-05
 trial: gam= 0.51178 g(F)=  0.481E-01 g(S)=  0.000E+00 ort = 0.930E-03 (trialstep = 0.991E+00)
 search vector abs. value=  0.930E-01
 bond charge predicted
       N       E                     dE             d eps       ncg     rms          rms(c)
DAV:   1    -0.717531137693E+03    0.50822E-01   -0.21525E+01 10416   0.628E+00    0.123E+00
RMM:   2    -0.717595227057E+03   -0.64089E-01   -0.64621E-01 12535   0.164E+00    0.128E+00
RMM:   3    -0.717607955481E+03   -0.12728E-01   -0.17589E-01 14584   0.723E-01    0.828E-01
RMM:   4    -0.717606034052E+03    0.19214E-02   -0.26177E-02 14278   0.273E-01    0.550E-01
RMM:   5    -0.717604765477E+03    0.12686E-02   -0.76744E-03 14334   0.129E-01    0.214E-01
RMM:   6    -0.717604780953E+03   -0.15475E-04   -0.33892E-03 12803   0.678E-02    0.642E-02
RMM:   7    -0.717604836026E+03   -0.55073E-04   -0.83853E-04 12296   0.354E-02    0.446E-02
RMM:   8    -0.717604843751E+03   -0.77250E-05   -0.33369E-04  9800   0.196E-02    0.235E-02
RMM:   9    -0.717604851985E+03   -0.82340E-05   -0.17830E-04  9379   0.133E-02    0.792E-03
RMM:  10    -0.717604856883E+03   -0.48989E-05   -0.65486E-05  7713   0.915E-03
   8 F= -.71760486E+03 E0= -.71760486E+03  d E =-.228968E-01
 trial-energy change:   -0.022897  1 .order   -0.022754   -0.048121    0.002612
 step:   0.9409(harm=  0.9401)  dis= 0.02321  next Energy=  -717.604923 (dE=-0.230E-01)
 bond charge predicted
       N       E                     dE             d eps       ncg     rms          rms(c)
DAV:   1    -0.717604701898E+03    0.15009E-03   -0.54903E-02 11400   0.317E-01    0.598E-02
RMM:   2    -0.717604863116E+03   -0.16122E-03   -0.16484E-03 12526   0.830E-02    0.589E-02
RMM:   3    -0.717604901095E+03   -0.37978E-04   -0.44065E-04 12699   0.364E-02    0.426E-02
RMM:   4    -0.717604896690E+03    0.44044E-05   -0.69461E-05  8031   0.166E-02
   9 F= -.71760490E+03 E0= -.71760490E+03  d E =-.229366E-01
 curvature:  -0.90 expect dE=-0.237E-01 dE for cont linesearch -0.314E-04
 trial: gam= 0.51954 g(F)=  0.263E-01 g(S)=  0.000E+00 ort = 0.180E-02 (trialstep = 0.981E+00)
 search vector abs. value=  0.533E-01
 bond charge predicted
       N       E                     dE             d eps       ncg     rms          rms(c)
DAV:   1    -0.717573631173E+03    0.31270E-01   -0.12028E+01 10608   0.493E+00    0.874E-01
RMM:   2    -0.717618291291E+03   -0.44660E-01   -0.40527E-01 13054   0.132E+00    0.120E+00
RMM:   3    -0.717619920190E+03   -0.16289E-02   -0.10446E-01 14354   0.586E-01    0.542E-01
RMM:   4    -0.717619122161E+03    0.79803E-03   -0.16528E-02 14575   0.216E-01    0.339E-01
RMM:   5    -0.717618569382E+03    0.55278E-03   -0.37894E-03 14666   0.963E-02    0.177E-01
RMM:   6    -0.717618445071E+03    0.12431E-03   -0.21143E-03 12378   0.558E-02    0.384E-02
RMM:   7    -0.717618460805E+03   -0.15734E-04   -0.39263E-04 12659   0.274E-02    0.236E-02
RMM:   8    -0.717618467149E+03   -0.63443E-05   -0.14371E-04  9188   0.142E-02    0.106E-02
RMM:   9    -0.717618471980E+03   -0.48308E-05   -0.65305E-05  8189   0.942E-03
  10 F= -.71761847E+03 E0= -.71761847E+03  d E =-.135753E-01
 trial-energy change:   -0.013575  1 .order   -0.013513   -0.026707   -0.000319
 step:   0.9928(harm=  0.9930)  dis= 0.00878  next Energy=  -717.618474 (dE=-0.136E-01)
 bond charge predicted
       N       E                     dE             d eps       ncg     rms          rms(c)
DAV:   1    -0.717618477364E+03   -0.10215E-04   -0.17929E-03 11248   0.603E-02    0.106E-02
RMM:   2    -0.717618485983E+03   -0.86192E-05   -0.82047E-05  9522   0.182E-02
  11 F= -.71761849E+03 E0= -.71761849E+03  d E =-.135893E-01
 curvature:  -0.97 expect dE=-0.130E-01 dE for cont linesearch -0.361E-06
 trial: gam= 0.51177 g(F)=  0.134E-01 g(S)=  0.000E+00 ort =-0.141E-03 (trialstep = 0.983E+00)
 search vector abs. value=  0.272E-01
 bond charge predicted
       N       E                     dE             d eps       ncg     rms          rms(c)
DAV:   1    -0.717601880178E+03    0.16597E-01   -0.63118E+00 10536   0.361E+00    0.509E-01
RMM:   2    -0.717621861795E+03   -0.19982E-01   -0.20642E-01 12961   0.933E-01    0.476E-01
RMM:   3    -0.717626600589E+03   -0.47388E-02   -0.51197E-02 14841   0.395E-01    0.370E-01
RMM:   4    -0.717626054183E+03    0.54641E-03   -0.66504E-03 14451   0.147E-01    0.218E-01
RMM:   5    -0.717625784466E+03    0.26972E-03   -0.16032E-03 14857   0.611E-02    0.120E-01
RMM:   6    -0.717625671692E+03    0.11277E-03   -0.11679E-03 12291   0.440E-02    0.414E-02
RMM:   7    -0.717625680898E+03   -0.92064E-05   -0.21717E-04 10787   0.222E-02    0.276E-02
RMM:   8    -0.717625675692E+03    0.52057E-05   -0.85273E-05  8382   0.114E-02
  12 F= -.71762568E+03 E0= -.71762568E+03  d E =-.718971E-02
 trial-energy change:   -0.007190  1 .order   -0.006671   -0.013099   -0.000243
 step:   0.9984(harm=  1.0020)  dis= 0.00568  next Energy=  -717.625678 (dE=-0.719E-02)
 bond charge predicted
       N       E                     dE             d eps       ncg     rms          rms(c)
DAV:   1    -0.717625680213E+03    0.68521E-06   -0.16459E-03 11440   0.599E-02    0.992E-03
RMM:   2    -0.717625688845E+03   -0.86326E-05   -0.87222E-05  9478   0.201E-02
  13 F= -.71762569E+03 E0= -.71762569E+03  d E =-.720286E-02
 curvature:  -0.98 expect dE=-0.621E-02 dE for cont linesearch -0.833E-08
 trial: gam= 0.48095 g(F)=  0.631E-02 g(S)=  0.000E+00 ort =-0.152E-04 (trialstep = 0.986E+00)
 search vector abs. value=  0.126E-01
 bond charge predicted
       N       E                     dE             d eps       ncg     rms          rms(c)
DAV:   1    -0.717617917752E+03    0.77625E-02   -0.29741E+00 10440   0.245E+00    0.349E-01
RMM:   2    -0.717627168463E+03   -0.92507E-02   -0.95269E-02 12770   0.631E-01    0.347E-01
RMM:   3    -0.717629427121E+03   -0.22587E-02   -0.24787E-02 14666   0.276E-01    0.249E-01
RMM:   4    -0.717629230738E+03    0.19638E-03   -0.33013E-03 14329   0.101E-01    0.165E-01
RMM:   5    -0.717629068956E+03    0.16178E-03   -0.79858E-04 13322   0.437E-02    0.764E-02
RMM:   6    -0.717629043082E+03    0.25875E-04   -0.43790E-04 10996   0.270E-02    0.283E-02
RMM:   7    -0.717629052114E+03   -0.90325E-05   -0.10655E-04  9262   0.152E-02    0.203E-02
RMM:   8    -0.717629049743E+03    0.23716E-05   -0.37914E-05  7371   0.879E-03
  14 F= -.71762905E+03 E0= -.71762905E+03  d E =-.336090E-02
 trial-energy change:   -0.003361  1 .order   -0.003037   -0.006218    0.000145
 step:   0.9691(harm=  0.9639)  dis= 0.00367  next Energy=  -717.629051 (dE=-0.336E-02)
 bond charge predicted
       N       E                     dE             d eps       ncg     rms          rms(c)
DAV:   1    -0.717629042606E+03    0.95083E-05   -0.80022E-04 10976   0.408E-02    0.873E-03
RMM:   2    -0.717629045073E+03   -0.24673E-05   -0.28665E-05  6890   0.125E-02
  15 F= -.71762905E+03 E0= -.71762905E+03  d E =-.335623E-02
 curvature:  -0.91 expect dE=-0.302E-02 dE for cont linesearch -0.342E-04
 ZBRENT: interpolating
 opt :   0.9834  next Energy=  -717.629050 (dE=-0.336E-02)
 bond charge predicted
       N       E                     dE             d eps       ncg     rms          rms(c)
DAV:   1    -0.717629046973E+03   -0.43667E-05   -0.57677E-04 11072   0.339E-02    0.603E-03
RMM:   2    -0.717629050112E+03   -0.31396E-05   -0.24859E-05  6502   0.102E-02
  16 F= -.71762905E+03 E0= -.71762905E+03  d E =-.336127E-02
 curvature:  -0.01 expect dE=-0.198E-04 dE for cont linesearch -0.954E-08
 trial: gam= 0.56724 g(F)=  0.331E-02 g(S)=  0.000E+00 ort =-0.142E-03 (trialstep = 0.986E+00)
 search vector abs. value=  0.720E-02
 bond charge predicted
       N       E                     dE             d eps       ncg     rms          rms(c)
DAV:   1    -0.717624663570E+03    0.43834E-02   -0.16937E+00 10568   0.186E+00    0.276E-01
RMM:   2    -0.717630573746E+03   -0.59102E-02   -0.54597E-02 12710   0.486E-01    0.417E-01
RMM:   3    -0.717631027369E+03   -0.45362E-03   -0.15296E-02 14343   0.223E-01    0.158E-01
RMM:   4    -0.717630981751E+03    0.45618E-04   -0.20116E-03 14475   0.781E-02    0.114E-01
RMM:   5    -0.717630904728E+03    0.77022E-04   -0.43420E-04 12585   0.338E-02    0.573E-02
RMM:   6    -0.717630879555E+03    0.25174E-04   -0.31815E-04 10736   0.224E-02    0.170E-02
RMM:   7    -0.717630879885E+03   -0.33050E-06   -0.54750E-05  8434   0.116E-02
  17 F= -.71763088E+03 E0= -.71763088E+03  d E =-.182977E-02
 trial-energy change:   -0.001830  1 .order   -0.001660   -0.003186   -0.000134
 step:   1.0179(harm=  1.0290)  dis= 0.00323  next Energy=  -717.630882 (dE=-0.183E-02)
 bond charge predicted
       N       E                     dE             d eps       ncg     rms          rms(c)
DAV:   1    -0.717630876326E+03    0.32287E-05   -0.18755E-03 11236   0.625E-02    0.130E-02
RMM:   2    -0.717630884803E+03   -0.84768E-05   -0.92685E-05  9928   0.184E-02
  18 F= -.71763088E+03 E0= -.71763088E+03  d E =-.183469E-02
 curvature:  -1.07 expect dE=-0.197E-02 dE for cont linesearch -0.138E-04
 trial: gam= 0.59365 g(F)=  0.184E-02 g(S)=  0.000E+00 ort =-0.304E-03 (trialstep = 0.992E+00)
 search vector abs. value=  0.402E-02
 bond charge predicted
       N       E                     dE             d eps       ncg     rms          rms(c)
DAV:   1    -0.717628356340E+03    0.25200E-02   -0.93985E-01 10636   0.140E+00    0.204E-01
RMM:   2    -0.717631239883E+03   -0.28835E-02   -0.29777E-02 12758   0.365E-01    0.175E-01
RMM:   3    -0.717632023300E+03   -0.78342E-03   -0.80913E-03 14785   0.158E-01    0.151E-01
RMM:   4    -0.717631926383E+03    0.96917E-04   -0.10866E-03 14291   0.592E-02    0.834E-02
RMM:   5    -0.717631888359E+03    0.38024E-04   -0.25662E-04 11789   0.253E-02    0.464E-02
RMM:   6    -0.717631871620E+03    0.16739E-04   -0.18209E-04 10561   0.182E-02    0.134E-02
RMM:   7    -0.717631872863E+03   -0.12430E-05   -0.37621E-05  7472   0.984E-03
  19 F= -.71763187E+03 E0= -.71763187E+03  d E =-.988060E-03
 trial-energy change:   -0.000988  1 .order   -0.000829   -0.001645   -0.000013
 step:   0.9973(harm=  1.0003)  dis= 0.00252  next Energy=  -717.631873 (dE=-0.988E-03)
 bond charge predicted
       N       E                     dE             d eps       ncg     rms          rms(c)
DAV:   1    -0.717631871901E+03   -0.28186E-06   -0.45016E-05  8856   0.119E-02    0.502E-03
RMM:   2    -0.717631872608E+03   -0.70611E-06   -0.80784E-06  5892   0.670E-03
  20 F= -.71763187E+03 E0= -.71763187E+03  d E =-.987805E-03
 curvature:  -1.05 expect dE=-0.962E-03 dE for cont linesearch -0.270E-05
 trial: gam= 0.54429 g(F)=  0.920E-03 g(S)=  0.000E+00 ort =-0.102E-03 (trialstep = 0.993E+00)
 search vector abs. value=  0.200E-02
 bond charge predicted
       N       E                     dE             d eps       ncg     rms          rms(c)
DAV:   1    -0.717630641709E+03    0.12302E-02   -0.46950E-01 10736   0.998E-01    0.123E-01
RMM:   2    -0.717632083697E+03   -0.14420E-02   -0.14870E-02 12791   0.256E-01    0.115E-01
RMM:   3    -0.717632474020E+03   -0.39032E-03   -0.40267E-03 14749   0.112E-01    0.986E-02
RMM:   4    -0.717632428343E+03    0.45677E-04   -0.50331E-04 12945   0.407E-02    0.501E-02
RMM:   5    -0.717632411626E+03    0.16717E-04   -0.12593E-04 10682   0.203E-02    0.264E-02
RMM:   6    -0.717632405305E+03    0.63216E-05   -0.87540E-05  9596   0.130E-02
  21 F= -.71763241E+03 E0= -.71763241E+03  d E =-.532697E-03
 trial-energy change:   -0.000533  1 .order   -0.000512   -0.000859   -0.000166
 step:   1.2319(harm=  1.2319)  dis= 0.00184  next Energy=  -717.632405 (dE=-0.532E-03)
 bond charge predicted
       N       E                     dE             d eps       ncg     rms          rms(c)
DAV:   1    -0.717632302443E+03    0.10918E-03   -0.27039E-02 11632   0.240E-01    0.342E-02
RMM:   2    -0.717632390076E+03   -0.87632E-04   -0.91588E-04 12937   0.609E-02    0.281E-02
RMM:   3    -0.717632413754E+03   -0.23678E-04   -0.22943E-04 12204   0.269E-02    0.286E-02
RMM:   4    -0.717632408730E+03    0.50238E-05   -0.36859E-05  7096   0.129E-02
  22 F= -.71763241E+03 E0= -.71763241E+03  d E =-.536123E-03
 curvature:  -1.42 expect dE=-0.112E-02 dE for cont linesearch -0.309E-04
 ZBRENT: interpolating
 opt :   1.0997  next Energy=  -717.632414 (dE=-0.542E-03)
 bond charge predicted
       N       E                     dE             d eps       ncg     rms          rms(c)
DAV:   1    -0.717632377548E+03    0.36206E-04   -0.82268E-03 10718   0.133E-01    0.178E-02
RMM:   2    -0.717632406691E+03   -0.29143E-04   -0.30166E-04 12742   0.354E-02    0.843E-03
RMM:   3    -0.717632412212E+03   -0.55209E-05   -0.69139E-05  9315   0.148E-02
  23 F= -.71763241E+03 E0= -.71763241E+03  d E =-.539605E-03
 curvature:  -0.41 expect dE=-0.275E-03 dE for cont linesearch -0.859E-05
 ZBRENT: bisectioning
 opt :   1.1658  next Energy=  -717.632426 (dE=-0.554E-03)
 bond charge predicted
       N       E                     dE             d eps       ncg     rms          rms(c)
DAV:   1    -0.717632404056E+03    0.26355E-05   -0.20063E-03 11024   0.655E-02    0.118E-02
RMM:   2    -0.717632413234E+03   -0.91783E-05   -0.78829E-05  9122   0.182E-02
  24 F= -.71763241E+03 E0= -.71763241E+03  d E =-.540626E-03
 curvature:  -0.68 expect dE=-0.525E-03 dE for cont linesearch -0.275E-04
 ZBRENT: interpolating
 opt :   1.1274  next Energy=  -717.632415 (dE=-0.542E-03)
 bond charge predicted
       N       E                     dE             d eps       ncg     rms          rms(c)
DAV:   1    -0.717632410195E+03   -0.61391E-05   -0.63775E-04 10202   0.380E-02    0.678E-03
RMM:   2    -0.717632413828E+03   -0.36334E-05   -0.26776E-05  6314   0.123E-02
  25 F= -.71763241E+03 E0= -.71763241E+03  d E =-.541221E-03
 curvature:  -0.07 expect dE=-0.484E-04 dE for cont linesearch -0.146E-05
 ZBRENT: bisectioning
 opt :   1.1466  next Energy=  -717.632418 (dE=-0.545E-03)
 bond charge predicted
       N       E                     dE             d eps       ncg     rms          rms(c)
DAV:   1    -0.717632411758E+03   -0.15637E-05   -0.14616E-04 10552   0.199E-02    0.530E-03
RMM:   2    -0.717632413497E+03   -0.17386E-05   -0.14237E-05  5709   0.958E-03
  26 F= -.71763241E+03 E0= -.71763241E+03  d E =-.540889E-03
 curvature:  -0.19 expect dE=-0.135E-03 dE for cont linesearch -0.237E-05
 ZBRENT: interpolating
 opt :   1.1382  next Energy=  -717.632414 (dE=-0.542E-03)
 bond charge predicted
       N       E                     dE             d eps       ncg     rms          rms(c)
DAV:   1    -0.717632412573E+03   -0.81465E-06   -0.22174E-05  7028   0.996E-03    0.241E-03
RMM:   2    -0.717632413319E+03   -0.74570E-06   -0.54922E-06  5213   0.582E-03
  27 F= -.71763241E+03 E0= -.71763241E+03  d E =-.540711E-03
 curvature:  -0.05 expect dE=-0.363E-04 dE for cont linesearch -0.680E-06
 ZBRENT: interpolating
 opt :   1.1424  next Energy=  -717.632414 (dE=-0.541E-03)
 bond charge predicted
       N       E                     dE             d eps       ncg     rms          rms(c)
DAV:   1    -0.717632413026E+03   -0.45293E-06   -0.37738E-06  5488   0.498E-03    0.200E-03
RMM:   2    -0.717632413126E+03   -0.99630E-07   -0.12278E-06  5005   0.229E-03
  28 F= -.71763241E+03 E0= -.71763241E+03  d E =-.540518E-03
 curvature:  -0.03 expect dE=-0.174E-04 dE for cont linesearch -0.113E-06
 trial: gam= 0.79311 g(F)=  0.672E-03 g(S)=  0.000E+00 ort =-0.934E-04 (trialstep = 0.102E+01)
 search vector abs. value=  0.178E-02
 bond charge predicted
       N       E                     dE             d eps       ncg     rms          rms(c)
DAV:   1    -0.717631104287E+03    0.13087E-02   -0.44215E-01 10740   0.972E-01    0.124E-01
RMM:   2    -0.717632500818E+03   -0.13965E-02   -0.13943E-02 12723   0.249E-01    0.140E-01
RMM:   3    -0.717632802049E+03   -0.30123E-03   -0.38767E-03 14597   0.111E-01    0.873E-02
RMM:   4    -0.717632776351E+03    0.25698E-04   -0.49146E-04 13032   0.398E-02    0.474E-02
RMM:   5    -0.717632762810E+03    0.13541E-04   -0.11707E-04 10296   0.200E-02    0.260E-02
RMM:   6    -0.717632757280E+03    0.55304E-05   -0.81118E-05  9492   0.125E-02
  29 F= -.71763276E+03 E0= -.71763276E+03  d E =-.344154E-03
 trial-energy change:   -0.000344  1 .order   -0.000326   -0.000612   -0.000041
 step:   1.0958(harm=  1.0958)  dis= 0.00167  next Energy=  -717.632741 (dE=-0.328E-03)
 bond charge predicted
       N       E                     dE             d eps       ncg     rms          rms(c)
DAV:   1    -0.717632745898E+03    0.16912E-04   -0.22453E-03 11776   0.700E-02    0.136E-02
RMM:   2    -0.717632755482E+03   -0.95831E-05   -0.98736E-05  9997   0.196E-02
  30 F= -.71763276E+03 E0= -.71763276E+03  d E =-.342356E-03
 curvature:  -1.63 expect dE=-0.707E-03 dE for cont linesearch -0.668E-04
 ZBRENT: interpolating
 opt :   1.0324  next Energy=  -717.632757 (dE=-0.344E-03)
 bond charge predicted
       N       E                     dE             d eps       ncg     rms          rms(c)
DAV:   1    -0.717632751654E+03   -0.57552E-05   -0.16031E-03 10714   0.590E-02    0.106E-02
RMM:   2    -0.717632760232E+03   -0.85779E-05   -0.56605E-05  7991   0.170E-02
  31 F= -.71763276E+03 E0= -.71763276E+03  d E =-.347106E-03
 curvature:  -0.00 expect dE=-0.177E-05 dE for cont linesearch -0.115E-06
 ZBRENT: bisectioning
 opt :   1.0641  next Energy=  -717.632776 (dE=-0.363E-03)
 bond charge predicted
       N       E                     dE             d eps       ncg     rms          rms(c)
DAV:   1    -0.717632754983E+03   -0.33296E-05   -0.38260E-04 10448   0.309E-02    0.717E-03
RMM:   2    -0.717632757870E+03   -0.28863E-05   -0.22067E-05  6301   0.112E-02
  32 F= -.71763276E+03 E0= -.71763276E+03  d E =-.344744E-03
 curvature:  -0.63 expect dE=-0.261E-03 dE for cont linesearch -0.143E-04
 ZBRENT: interpolating
 opt :   1.0487  next Energy=  -717.632759 (dE=-0.346E-03)
 bond charge predicted
       N       E                     dE             d eps       ncg     rms          rms(c)
DAV:   1    -0.717632756442E+03   -0.14583E-05   -0.78852E-05  9046   0.157E-02    0.354E-03
RMM:   2    -0.717632757761E+03   -0.13191E-05   -0.10113E-05  5408   0.822E-03
  33 F= -.71763276E+03 E0= -.71763276E+03  d E =-.344635E-03
 curvature:  -0.07 expect dE=-0.248E-04 dE for cont linesearch -0.556E-06
 ZBRENT: interpolating
 opt :   1.0545  next Energy=  -717.632758 (dE=-0.345E-03)
 bond charge predicted
       N       E                     dE             d eps       ncg     rms          rms(c)
DAV:   1    -0.717632757035E+03   -0.59322E-06   -0.81114E-06  5960   0.731E-03    0.206E-03
RMM:   2    -0.717632757292E+03   -0.25706E-06   -0.27446E-06  5144   0.363E-03
  34 F= -.71763276E+03 E0= -.71763276E+03  d E =-.344166E-03
 curvature:  -0.04 expect dE=-0.156E-04 dE for cont linesearch -0.502E-06
 ZBRENT: interpolating
 opt :   1.0513  next Energy=  -717.632758 (dE=-0.345E-03)
 bond charge predicted
       N       E                     dE             d eps       ncg     rms          rms(c)
DAV:   1    -0.717632757321E+03   -0.28573E-06   -0.12259E-06  5424   0.293E-03    0.170E-03
RMM:   2    -0.717632757339E+03   -0.18561E-07   -0.55663E-07  4506   0.164E-03
  35 F= -.71763276E+03 E0= -.71763276E+03  d E =-.344214E-03
 curvature:  -0.01 expect dE=-0.467E-05 dE for cont linesearch -0.209E-07
 trial: gam= 0.43763 g(F)=  0.349E-03 g(S)=  0.000E+00 ort = 0.527E-04 (trialstep = 0.103E+01)
 search vector abs. value=  0.736E-03
 bond charge predicted
       N       E                     dE             d eps       ncg     rms          rms(c)
DAV:   1    -0.717632274380E+03    0.48294E-03   -0.17723E-01 10936   0.626E-01    0.820E-02
RMM:   2    -0.717632859418E+03   -0.58504E-03   -0.58272E-03 13071   0.164E-01    0.947E-02
RMM:   3    -0.717632971334E+03   -0.11192E-03   -0.14976E-03 14411   0.709E-02    0.571E-02
RMM:   4    -0.717632962154E+03    0.91807E-05   -0.21674E-04 12052   0.270E-02    0.336E-02
RMM:   5    -0.717632955686E+03    0.64675E-05   -0.54290E-05  8348   0.144E-02
  36 F= -.71763296E+03 E0= -.71763296E+03  d E =-.198347E-03
 trial-energy change:   -0.000198  1 .order   -0.000186   -0.000382    0.000010
 step:   1.0017(harm=  1.0017)  dis= 0.00103  next Energy=  -717.632944 (dE=-0.186E-03)
 bond charge predicted
       N       E                     dE             d eps       ncg     rms          rms(c)
DAV:   1    -0.717632947905E+03    0.14248E-04   -0.17118E-04  8458   0.313E-02    0.501E-03
RMM:   2    -0.717632951031E+03   -0.31252E-05   -0.34496E-05  7104   0.131E-02
  37 F= -.71763295E+03 E0= -.71763295E+03  d E =-.193692E-03
 curvature:  -0.99 expect dE=-0.259E-03 dE for cont linesearch -0.338E-04
 ZBRENT: interpolating
 opt :   1.0271  next Energy=  -717.632956 (dE=-0.198E-03)
 bond charge predicted
       N       E                     dE             d eps       ncg     rms          rms(c)
DAV:   1    -0.717632952444E+03   -0.45384E-05   -0.89937E-05 10272   0.174E-02    0.582E-03
RMM:   2    -0.717632953467E+03   -0.10227E-05   -0.10702E-05  5769   0.725E-03
  38 F= -.71763295E+03 E0= -.71763295E+03  d E =-.196127E-03
 curvature:  -0.00 expect dE=-0.517E-07 dE for cont linesearch -0.242E-09
 trial: gam= 0.59624 g(F)=  0.218E-03 g(S)=  0.000E+00 ort =-0.274E-04 (trialstep = 0.103E+01)
 search vector abs. value=  0.447E-03
 bond charge predicted
       N       E                     dE             d eps       ncg     rms          rms(c)
DAV:   1    -0.717632692168E+03    0.26028E-03   -0.10614E-01 10916   0.486E-01    0.665E-02
RMM:   2    -0.717633046337E+03   -0.35417E-03   -0.35007E-03 13022   0.130E-01    0.794E-02
RMM:   3    -0.717633113015E+03   -0.66678E-04   -0.93127E-04 14087   0.567E-02    0.451E-02
RMM:   4    -0.717633109013E+03    0.40021E-05   -0.15042E-04 11469   0.224E-02    0.279E-02
RMM:   5    -0.717633104446E+03    0.45666E-05   -0.35177E-05  7169   0.118E-02
  39 F= -.71763310E+03 E0= -.71763310E+03  d E =-.150980E-03
 trial-energy change:   -0.000151  1 .order   -0.000108   -0.000207   -0.000009
 step:   1.0478(harm=  1.0734)  dis= 0.00097  next Energy=  -717.633105 (dE=-0.151E-03)
 bond charge predicted
       N       E                     dE             d eps       ncg     rms          rms(c)
DAV:   1    -0.717633102329E+03    0.66837E-05   -0.26864E-05  7672   0.176E-02    0.594E-03
RMM:   2    -0.717633103818E+03   -0.14885E-05   -0.18816E-05  5920   0.979E-03
  40 F= -.71763310E+03 E0= -.71763310E+03  d E =-.150351E-03
 curvature:  -0.80 expect dE=-0.109E-03 dE for cont linesearch -0.818E-05
 ZBRENT: interpolating
 opt :   1.0306  next Energy=  -717.633104 (dE=-0.151E-03)
 bond charge predicted
       N       E                     dE             d eps       ncg     rms          rms(c)
DAV:   1    -0.717633103139E+03   -0.80928E-06   -0.14935E-05  8112   0.162E-02    0.271E-03
RMM:   2    -0.717633103962E+03   -0.82355E-06   -0.64112E-06  5576   0.542E-03
  41 F= -.71763310E+03 E0= -.71763310E+03  d E =-.150496E-03
 curvature:  -0.00 expect dE=-0.129E-06 dE for cont linesearch -0.192E-07
 ZBRENT: interpolating
 opt :   1.0408  next Energy=  -717.633104 (dE=-0.151E-03)
 bond charge predicted
       N       E                     dE             d eps       ncg     rms          rms(c)
DAV:   1    -0.717633103885E+03   -0.74584E-06   -0.50661E-06  6208   0.619E-03    0.201E-03
RMM:   2    -0.717633104062E+03   -0.17730E-06   -0.23945E-06  5222   0.343E-03
  42 F= -.71763310E+03 E0= -.71763310E+03  d E =-.150595E-03
 curvature:  -0.01 expect dE=-0.145E-05 dE for cont linesearch -0.124E-07
 trial: gam= 0.74811 g(F)=  0.132E-03 g(S)=  0.000E+00 ort =-0.224E-04 (trialstep = 0.103E+01)
 search vector abs. value=  0.348E-03
 bond charge predicted
       N       E                     dE             d eps       ncg     rms          rms(c)
DAV:   1    -0.717632900472E+03    0.20341E-03   -0.79505E-02 11064   0.428E-01    0.494E-02
RMM:   2    -0.717633154647E+03   -0.25417E-03   -0.25249E-03 13103   0.113E-01    0.584E-02
RMM:   3    -0.717633213915E+03   -0.59268E-04   -0.71879E-04 14168   0.499E-02    0.345E-02
RMM:   4    -0.717633213969E+03   -0.54009E-07   -0.10797E-04 10553   0.193E-02    0.206E-02
RMM:   5    -0.717633211114E+03    0.28541E-05   -0.21742E-05  6265   0.104E-02
  43 F= -.71763321E+03 E0= -.71763321E+03  d E =-.107053E-03
 trial-energy change:   -0.000107  1 .order   -0.000069   -0.000119   -0.000019
 step:   1.2323(harm=  1.2323)  dis= 0.00089  next Energy=  -717.633175 (dE=-0.710E-04)
 bond charge predicted
       N       E                     dE             d eps       ncg     rms          rms(c)
DAV:   1    -0.717633205403E+03    0.85652E-05   -0.29328E-03 11792   0.831E-02    0.118E-02
RMM:   2    -0.717633215813E+03   -0.10409E-04   -0.10862E-04 12311   0.244E-02    0.907E-03
RMM:   3    -0.717633217678E+03   -0.18653E-05   -0.27965E-05  6306   0.105E-02
  44 F= -.71763322E+03 E0= -.71763322E+03  d E =-.113616E-03
 curvature:  -1.86 expect dE=-0.182E-03 dE for cont linesearch -0.311E-05
 ZBRENT: interpolating
 opt :   1.1191  next Energy=  -717.633212 (dE=-0.108E-03)
 bond charge predicted
       N       E                     dE             d eps       ncg     rms          rms(c)
DAV:   1    -0.717633209758E+03    0.60545E-05   -0.89847E-04 10746   0.474E-02    0.100E-02
RMM:   2    -0.717633217049E+03   -0.72911E-05   -0.52300E-05  7714   0.182E-02
  45 F= -.71763322E+03 E0= -.71763322E+03  d E =-.112987E-03
 curvature:  -0.50 expect dE=-0.637E-04 dE for cont linesearch -0.265E-04
 ZBRENT: interpolating
 opt :   1.2152  next Energy=  -717.633218 (dE=-0.114E-03)
 bond charge predicted
       N       E                     dE             d eps       ncg     rms          rms(c)
DAV:   1    -0.717633214498E+03   -0.47404E-05   -0.61593E-04 10784   0.395E-02    0.691E-03
RMM:   2    -0.717633217845E+03   -0.33462E-05   -0.31854E-05  6968   0.135E-02
  46 F= -.71763322E+03 E0= -.71763322E+03  d E =-.113783E-03
 curvature:  -0.00 expect dE=-0.391E-06 dE for cont linesearch -0.277E-07
 ZBRENT: bisectioning
 opt :   1.1672  next Energy=  -717.633222 (dE=-0.118E-03)
 bond charge predicted
       N       E                     dE             d eps       ncg     rms          rms(c)
DAV:   1    -0.717633215677E+03   -0.11786E-05   -0.14459E-04 10980   0.204E-02    0.583E-03
RMM:   2    -0.717633218276E+03   -0.25992E-05   -0.12333E-05  5412   0.864E-03
  47 F= -.71763322E+03 E0= -.71763322E+03  d E =-.114214E-03
 curvature:  -0.58 expect dE=-0.605E-04 dE for cont linesearch -0.130E-04
 ZBRENT: interpolating
 opt :   1.1979  next Energy=  -717.633218 (dE=-0.114E-03)
 bond charge predicted
       N       E                     dE             d eps       ncg     rms          rms(c)
DAV:   1    -0.717633216685E+03   -0.10079E-05   -0.56883E-05  9288   0.153E-02    0.197E-03
RMM:   2    -0.717633217424E+03   -0.73911E-06   -0.78755E-06  5226   0.725E-03
  48 F= -.71763322E+03 E0= -.71763322E+03  d E =-.113362E-03
 curvature:  -0.02 expect dE=-0.189E-05 dE for cont linesearch -0.303E-07
 ZBRENT: interpolating
 opt :   1.1859  next Energy=  -717.633218 (dE=-0.114E-03)
 bond charge predicted
       N       E                     dE             d eps       ncg     rms          rms(c)
DAV:   1    -0.717633216981E+03   -0.29591E-06   -0.53126E-06  5486   0.531E-03    0.237E-03
RMM:   2    -0.717633217156E+03   -0.17539E-06   -0.17203E-06  4831   0.319E-03
  49 F= -.71763322E+03 E0= -.71763322E+03  d E =-.113094E-03
 curvature:  -0.11 expect dE=-0.123E-04 dE for cont linesearch -0.208E-05
 ZBRENT: interpolating
 opt :   1.1952  next Energy=  -717.633217 (dE=-0.113E-03)
 bond charge predicted
       N       E                     dE             d eps       ncg     rms          rms(c)
DAV:   1    -0.717633217353E+03   -0.37233E-06   -0.21974E-06  5320   0.355E-03    0.121E-03
RMM:   2    -0.717633217426E+03   -0.73334E-07   -0.93555E-07  4916   0.248E-03
  50 F= -.71763322E+03 E0= -.71763322E+03  d E =-.113365E-03
 curvature:  -0.00 expect dE=-0.156E-06 dE for cont linesearch -0.376E-10
 trial: gam= 0.74209 g(F)=  0.967E-04 g(S)=  0.000E+00 ort =-0.285E-05 (trialstep = 0.106E+01)
 search vector abs. value=  0.284E-03
 bond charge predicted
       N       E                     dE             d eps       ncg     rms          rms(c)
DAV:   1    -0.717633042448E+03    0.17491E-03   -0.70919E-02 11080   0.402E-01    0.494E-02
RMM:   2    -0.717633267874E+03   -0.22543E-03   -0.22019E-03 12924   0.103E-01    0.613E-02
RMM:   3    -0.717633309399E+03   -0.41525E-04   -0.60590E-04 14048   0.455E-02    0.327E-02
RMM:   4    -0.717633307303E+03    0.20957E-05   -0.89187E-05  9836   0.177E-02
  51 F= -.71763331E+03 E0= -.71763331E+03  d E =-.898768E-04
 trial-energy change:   -0.000090  1 .order   -0.000037   -0.000101    0.000026
 step:   0.9987(harm=  0.8468)  dis= 0.00077  next Energy=  -717.633308 (dE=-0.907E-04)
 bond charge predicted
       N       E                     dE             d eps       ncg     rms          rms(c)
DAV:   1    -0.717633301070E+03    0.83285E-05   -0.27202E-04 12880   0.286E-02    0.112E-02
RMM:   2    -0.717633301367E+03   -0.29682E-06   -0.15920E-05  6063   0.857E-03
  52 F= -.71763330E+03 E0= -.71763330E+03  d E =-.839408E-04
 curvature:  -0.65 expect dE=-0.564E-04 dE for cont linesearch -0.182E-04
 ZBRENT: interpolating
 opt :   1.0499  next Energy=  -717.633307 (dE=-0.900E-04)
 bond charge predicted
       N       E                     dE             d eps       ncg     rms          rms(c)
DAV:   1    -0.717633303435E+03   -0.23651E-05   -0.14219E-04 11664   0.208E-02    0.934E-03
RMM:   2    -0.717633309662E+03   -0.62264E-05   -0.19575E-05  6055   0.979E-03
  53 F= -.71763331E+03 E0= -.71763331E+03  d E =-.922354E-04
 curvature:  -0.01 expect dE=-0.515E-06 dE for cont linesearch -0.703E-12
 trial: gam= 1.02104 g(F)=  0.858E-04 g(S)=  0.000E+00 ort =-0.183E-06 (trialstep = 0.790E+00)
 search vector abs. value=  0.382E-03
 bond charge predicted
       N       E                     dE             d eps       ncg     rms          rms(c)
DAV:   1    -0.717633173247E+03    0.13019E-03   -0.52971E-02 11090   0.345E-01    0.456E-02
RMM:   2    -0.717633330741E+03   -0.15749E-03   -0.15716E-03 12651   0.865E-02    0.425E-02
RMM:   3    -0.717633367661E+03   -0.36920E-04   -0.44299E-04 14149   0.377E-02    0.308E-02
RMM:   4    -0.717633364808E+03    0.28524E-05   -0.64658E-05  8368   0.160E-02
  54 F= -.71763336E+03 E0= -.71763336E+03  d E =-.551464E-04
 trial-energy change:   -0.000055  1 .order   -0.000021   -0.000068    0.000026
 step:   0.5695(harm=  0.5695)  dis= 0.00051  next Energy=  -717.633334 (dE=-0.244E-04)
 bond charge predicted
       N       E                     dE             d eps       ncg     rms          rms(c)
DAV:   1    -0.717633335863E+03    0.31798E-04   -0.40329E-03 11216   0.962E-02    0.173E-02
RMM:   2    -0.717633350000E+03   -0.14137E-04   -0.15636E-04 11867   0.272E-02    0.719E-03
RMM:   3    -0.717633352926E+03   -0.29262E-05   -0.40305E-05  7365   0.125E-02
  55 F= -.71763335E+03 E0= -.71763335E+03  d E =-.432643E-04
 curvature:  -1.27 expect dE=-0.108E-03 dE for cont linesearch -0.597E-04
 ZBRENT: interpolating
 opt :   0.7463  next Energy=  -717.633366 (dE=-0.559E-04)
 bond charge predicted
       N       E                     dE             d eps       ncg     rms          rms(c)
DAV:   1    -0.717633350789E+03   -0.78949E-06   -0.25216E-03 11232   0.757E-02    0.114E-02
RMM:   2    -0.717633360310E+03   -0.95209E-05   -0.97232E-05 10303   0.207E-02
  56 F= -.71763336E+03 E0= -.71763336E+03  d E =-.506484E-04
 curvature:  -0.02 expect dE=-0.958E-06 dE for cont linesearch -0.231E-06
 ZBRENT: bisectioning
 opt :   0.6579  next Energy=  -717.633371 (dE=-0.611E-04)
 bond charge predicted
       N       E                     dE             d eps       ncg     rms          rms(c)
DAV:   1    -0.717633355739E+03   -0.49493E-05   -0.59746E-04 10568   0.380E-02    0.130E-02
RMM:   2    -0.717633366295E+03   -0.10556E-04   -0.36580E-05  6521   0.137E-02    0.321E-02
RMM:   3    -0.717633357267E+03    0.90282E-05   -0.84388E-06  5710   0.648E-03
  57 F= -.71763336E+03 E0= -.71763336E+03  d E =-.476049E-04
 curvature:  -0.70 expect dE=-0.538E-04 dE for cont linesearch -0.207E-04
 ZBRENT: interpolating
 opt :   0.7095  next Energy=  -717.633362 (dE=-0.520E-04)
 bond charge predicted
       N       E                     dE             d eps       ncg     rms          rms(c)
DAV:   1    -0.717633358957E+03    0.73380E-05   -0.19857E-04 10416   0.219E-02    0.414E-03
RMM:   2    -0.717633359923E+03   -0.96655E-06   -0.93954E-06  5501   0.791E-03
  58 F= -.71763336E+03 E0= -.71763336E+03  d E =-.502617E-04
 curvature:  -0.05 expect dE=-0.250E-05 dE for cont linesearch -0.261E-08
 trial: gam= 0.69120 g(F)=  0.532E-04 g(S)=  0.000E+00 ort =-0.461E-05 (trialstep = 0.774E+00)
 search vector abs. value=  0.229E-03
 bond charge predicted
       N       E                     dE             d eps       ncg     rms          rms(c)
DAV:   1    -0.717633289277E+03    0.69680E-04   -0.30722E-02 11122   0.264E-01    0.315E-02
RMM:   2    -0.717633386960E+03   -0.97683E-04   -0.98545E-04 12896   0.679E-02    0.281E-02
RMM:   3    -0.717633410348E+03   -0.23388E-04   -0.26068E-04 12792   0.291E-02    0.240E-02
RMM:   4    -0.717633407819E+03    0.25285E-05   -0.38589E-05  6936   0.143E-02
  59 F= -.71763341E+03 E0= -.71763341E+03  d E =-.478959E-04
 trial-energy change:   -0.000048  1 .order   -0.000016   -0.000039    0.000008
 step:   0.6477(harm=  0.6477)  dis= 0.00037  next Energy=  -717.633376 (dE=-0.162E-04)
 reached required accuracy - stopping structural energy minimisation
Warning: ieee_invalid is signaling
Warning: ieee_divide_by_zero is signaling
Warning: ieee_underflow is signaling
Warning: ieee_inexact is signaling
FORTRAN STOP
Warning: ieee_invalid is signaling
Warning: ieee_divide_by_zero is signaling
Warning: ieee_underflow is signaling
Warning: ieee_inexact is signaling
FORTRAN STOP
Warning: ieee_invalid is signaling
Warning: ieee_divide_by_zero is signaling
Warning: ieee_underflow is signaling
Warning: ieee_inexact is signaling
FORTRAN STOP
Warning: ieee_invalid is signaling
Warning: ieee_divide_by_zero is signaling
Warning: ieee_underflow is signaling
Warning: ieee_inexact is signaling
FORTRAN STOP
