Ga48 O72                                
    1.000000000000000     
     0.0000000000000000   12.2804734172212839    0.0000000000000000
     9.1427020537309431    0.0000000000000000    0.0000000000000000
     0.0000000000000000   -2.7682617730220320  -11.3006977184464645
   Ga   O 
    47    72
Direct
  0.6595056403029500 -0.0001293955772305  0.1573278222588744
  0.6592016606183038  0.0001212595405166  0.6571548337550462
  0.6591556427760076  0.3333333333333357  0.1570911757200464
  0.6597560225857477  0.3333333333333357  0.6568250683925158
  0.6595056403029500  0.6667960622438948  0.1573278222588744
  0.6592016606183038  0.6665454071261477  0.6571548337550462
  0.8436876932828189  0.1677209005763741  0.3444524645815857
  0.8412471216547787  0.1673656746400826  0.8444805627652611
  0.8436876932828189  0.4989457660902902  0.3444524645815857
  0.8412471216547787  0.4993009920265817  0.8444805627652611
  0.8441364917482195  0.8333333333333357  0.3432915073118064
  0.8416850850028406  0.8333333333333357  0.8434886684989540
  0.5902005773398420  0.1679478349609427  0.3969525420032373
  0.5897844655736975  0.1666630076588559  0.8976140959661161
  0.5902005773398420  0.4987188317057218  0.3969525420032373
  0.5897844655736975  0.5000036590078085  0.8976140959661161
  0.5935447513394794  0.8333333333333357  0.3979402868365250
  0.5902278221300572  0.8333333333333357  0.8974449677575725
  0.9086834797026820 -0.0008119465444118  0.1025734964535090
  0.9076071665093075 -0.0004709079863683  0.6015429659943263
  0.9116421163766526  0.3333333333333357  0.1078000982936233
  0.9089686326026070  0.3333333333333357  0.5996886556392980
  0.9086834797026820  0.6674786132110759  0.1025734964535090
  0.9076071665093075  0.6671375746530325  0.6015429659943263
  0.1607552599070873  0.1690217314718702  0.1616398343867759
  0.1575919542067065  0.1688946375294514  0.6500256386058338
  0.1607552599070873  0.4976449351947939  0.1616398343867759
  0.1575919542067065  0.4977720291372129  0.6500256386058338
  0.1592597806129055  0.8333333333333357  0.1584554586457216
  0.1576623172435327  0.8333333333333357  0.6543146963342409
  0.3422244958807579 -0.0003291567910979  0.3431376779776365
  0.3389856481490789  0.0000918700593598  0.8420664054458066
  0.3342321418436491  0.3333333333333357  0.3463977894736823
  0.3386856125096757  0.3333333333333357  0.8426513688796679
  0.3422244958807579  0.6669958234577624  0.3431376779776365
  0.3389856481490789  0.6665747966073046  0.8420664054458066
  0.0886634308015888  0.0087101376263539  0.3958997099377883
  0.0923747053071371  0.0000829949948844  0.8984285128398127
  0.0904035666749515  0.3333333333333357  0.8969444096674249
  0.0886634308015888  0.6579565290403100  0.3958997099377883
  0.0923747053071371  0.6665836716717802  0.8984285128398127
  0.4093347367527487  0.1662829916502001  0.1024182791162159
  0.4096694621496795  0.1667679428631661  0.6030662944354047
  0.4093347367527487  0.5003836750164641  0.1024182791162159
  0.4096694621496795  0.4998987238034984  0.6030662944354047
  0.4088764424681139  0.8333333333333357  0.1018416456777090
  0.4093489381164049  0.8333333333333357  0.6024715050608085
  0.9965937043960795  0.1650434392954556  0.1295551085061553
  0.9950225635066762  0.1660143197223392  0.6263486917352216
  0.9965937043960795  0.5016232273712088  0.1295551085061553
  0.9950225635066762  0.5006523469443251  0.6263486917352216
  0.9963216817795876  0.8333333333333357  0.1268321508595470
  0.9952287415483899  0.8333333333333357  0.6277992123492492
  0.5054625213872096 -0.0008813032574301  0.3731219879915349
  0.5024643803829623 -0.0001767710704343  0.8720966221251102
  0.5013616118083257  0.3333333333333357  0.3727072899169189
  0.5023369768309658  0.3333333333333357  0.8725184281923166
  0.5054625213872096  0.6675479699240948  0.3731219879915349
  0.5024643803829623  0.6668434377370981  0.8720966221251102
  0.6726778495628755  0.1663900641217254  0.2803905867598333
  0.6730769689919084  0.1673639552494039  0.7817868709179375
  0.6726778495628755  0.5002766025449393  0.2803905867598333
  0.6730769689919084  0.4993027114172600  0.7817868709179375
  0.6733519302358965  0.8333333333333357  0.2799381996808463
  0.6728519564470179  0.8333333333333357  0.7812811433236327
  0.8265714881400420 -0.0014030119036684  0.2183483696086989
  0.8271636726823614  0.0001736813880838  0.7198651921755795
  0.8252062816404914  0.3333333333333357  0.2188440462196918
  0.8281557998132083  0.3333333333333357  0.7195731905838891
  0.8265714881400420  0.6680696785703323  0.2183483696086989
  0.8271636726823614  0.6664929852785805  0.7198651921755795
  0.8293871139955865 -0.0012031365593841  0.4457003034827984
  0.8324234530179832 -0.0001086047075474  0.9458870893304012
  0.8260577357962514  0.3333333333333357  0.4459702097876697
  0.8358169178015683  0.3333333333333357  0.9488247297275978
  0.8293871139955865  0.6678698032260482  0.4457003034827984
  0.8324234530179832  0.6667752713742118  0.9458870893304012
  0.6672299831068318  0.1665113170039080  0.0537153084984256
  0.6666946327766631  0.1666191485408976  0.5544803839801641
  0.6672299831068318  0.5001553496627560  0.0537153084984256
  0.6666946327766631  0.5000475181257666  0.5544803839801641
  0.6675497499618336  0.8333333333333357  0.0534940477597607
  0.6683322988210721  0.8333333333333357  0.5553331265151811
  0.4969249280113352 -0.0005860753630623  0.1258535572287784
  0.4971276819387883 -0.0002142617087524  0.6292479696416010
  0.4965572210788513  0.3333333333333357  0.1261765354767267
  0.4972404596844716  0.3333333333333357  0.6291909583248029
  0.4969249280113352  0.6672527420297264  0.1258535572287784
  0.4971276819387883  0.6668809283754168  0.6292479696416010
  0.0009372057796300  0.1710157935785450  0.3709880129489178
  0.0033326479507895  0.1659955703896836  0.8725375713792631
  0.0009372057796300  0.4956508730881191  0.3709880129489178
  0.0033326479507895  0.5006710962769807  0.8725375713792631
  0.0057663688998778  0.8333333333333357  0.3735611313285062
  0.0041980355810118  0.8333333333333357  0.8731275474806487
  0.1737386702715154 -0.0008852393926739  0.2813782647286605
  0.1717549479252294  0.0003806233842217  0.7793885624088699
  0.1754969124070781  0.3333333333333357  0.2729110859127594
  0.1719334956925390  0.3333333333333357  0.7810345050438227
  0.1737386702715154  0.6675519060593378  0.2813782647286605
  0.1717549479252294  0.6662860432824420  0.7793885624088699
  0.3304973942702886  0.1626583287411952  0.2200739631030785
  0.3276855189472948  0.1666313487095631  0.7195300715991458
  0.3304973942702886  0.5040083379254695  0.2200739631030785
  0.3276855189472948  0.5000353179571015  0.7195300715991458
  0.3283989287544307  0.8333333333333357  0.2193127168100437
  0.3267671969300624  0.8333333333333357  0.7186663851287595
  0.3354815438003597  0.1641760819269422  0.4468904956946860
  0.3323267887513222  0.1662694896915766  0.9457068986555746
  0.3354815438003597  0.5024905847397223  0.4468904956946860
  0.3323267887513222  0.5003971769750873  0.9457068986555746
  0.3350835940116049  0.8333333333333357  0.4459160107870458
  0.3311834549166130  0.8333333333333357  0.9452836883033909
  0.1670002826269366  0.0010772398688695  0.0555507465829019
  0.1671417715699346 -0.0004999086003063  0.5529852328190102
  0.1687875357041839  0.3333333333333357  0.0520640502782693
  0.1714849259642000  0.3333333333333357  0.5551813111681657
  0.1670002826269366  0.6655894267977944  0.0555507465829019
  0.1671417715699346  0.6671665752669708  0.5529852328190102
 
  0.00000000E+00  0.00000000E+00  0.00000000E+00
  0.00000000E+00  0.00000000E+00  0.00000000E+00
  0.00000000E+00  0.00000000E+00  0.00000000E+00
  0.00000000E+00  0.00000000E+00  0.00000000E+00
  0.00000000E+00  0.00000000E+00  0.00000000E+00
  0.00000000E+00  0.00000000E+00  0.00000000E+00
  0.00000000E+00  0.00000000E+00  0.00000000E+00
  0.00000000E+00  0.00000000E+00  0.00000000E+00
  0.00000000E+00  0.00000000E+00  0.00000000E+00
  0.00000000E+00  0.00000000E+00  0.00000000E+00
  0.00000000E+00  0.00000000E+00  0.00000000E+00
  0.00000000E+00  0.00000000E+00  0.00000000E+00
  0.00000000E+00  0.00000000E+00  0.00000000E+00
  0.00000000E+00  0.00000000E+00  0.00000000E+00
  0.00000000E+00  0.00000000E+00  0.00000000E+00
  0.00000000E+00  0.00000000E+00  0.00000000E+00
  0.00000000E+00  0.00000000E+00  0.00000000E+00
  0.00000000E+00  0.00000000E+00  0.00000000E+00
  0.00000000E+00  0.00000000E+00  0.00000000E+00
  0.00000000E+00  0.00000000E+00  0.00000000E+00
  0.00000000E+00  0.00000000E+00  0.00000000E+00
  0.00000000E+00  0.00000000E+00  0.00000000E+00
  0.00000000E+00  0.00000000E+00  0.00000000E+00
  0.00000000E+00  0.00000000E+00  0.00000000E+00
  0.00000000E+00  0.00000000E+00  0.00000000E+00
  0.00000000E+00  0.00000000E+00  0.00000000E+00
  0.00000000E+00  0.00000000E+00  0.00000000E+00
  0.00000000E+00  0.00000000E+00  0.00000000E+00
  0.00000000E+00  0.00000000E+00  0.00000000E+00
  0.00000000E+00  0.00000000E+00  0.00000000E+00
  0.00000000E+00  0.00000000E+00  0.00000000E+00
  0.00000000E+00  0.00000000E+00  0.00000000E+00
  0.00000000E+00  0.00000000E+00  0.00000000E+00
  0.00000000E+00  0.00000000E+00  0.00000000E+00
  0.00000000E+00  0.00000000E+00  0.00000000E+00
  0.00000000E+00  0.00000000E+00  0.00000000E+00
  0.00000000E+00  0.00000000E+00  0.00000000E+00
  0.00000000E+00  0.00000000E+00  0.00000000E+00
  0.00000000E+00  0.00000000E+00  0.00000000E+00
  0.00000000E+00  0.00000000E+00  0.00000000E+00
  0.00000000E+00  0.00000000E+00  0.00000000E+00
  0.00000000E+00  0.00000000E+00  0.00000000E+00
  0.00000000E+00  0.00000000E+00  0.00000000E+00
  0.00000000E+00  0.00000000E+00  0.00000000E+00
  0.00000000E+00  0.00000000E+00  0.00000000E+00
  0.00000000E+00  0.00000000E+00  0.00000000E+00
  0.00000000E+00  0.00000000E+00  0.00000000E+00
  0.00000000E+00  0.00000000E+00  0.00000000E+00
  0.00000000E+00  0.00000000E+00  0.00000000E+00
  0.00000000E+00  0.00000000E+00  0.00000000E+00
  0.00000000E+00  0.00000000E+00  0.00000000E+00
  0.00000000E+00  0.00000000E+00  0.00000000E+00
  0.00000000E+00  0.00000000E+00  0.00000000E+00
  0.00000000E+00  0.00000000E+00  0.00000000E+00
  0.00000000E+00  0.00000000E+00  0.00000000E+00
  0.00000000E+00  0.00000000E+00  0.00000000E+00
  0.00000000E+00  0.00000000E+00  0.00000000E+00
  0.00000000E+00  0.00000000E+00  0.00000000E+00
  0.00000000E+00  0.00000000E+00  0.00000000E+00
  0.00000000E+00  0.00000000E+00  0.00000000E+00
  0.00000000E+00  0.00000000E+00  0.00000000E+00
  0.00000000E+00  0.00000000E+00  0.00000000E+00
  0.00000000E+00  0.00000000E+00  0.00000000E+00
  0.00000000E+00  0.00000000E+00  0.00000000E+00
  0.00000000E+00  0.00000000E+00  0.00000000E+00
  0.00000000E+00  0.00000000E+00  0.00000000E+00
  0.00000000E+00  0.00000000E+00  0.00000000E+00
  0.00000000E+00  0.00000000E+00  0.00000000E+00
  0.00000000E+00  0.00000000E+00  0.00000000E+00
  0.00000000E+00  0.00000000E+00  0.00000000E+00
  0.00000000E+00  0.00000000E+00  0.00000000E+00
  0.00000000E+00  0.00000000E+00  0.00000000E+00
  0.00000000E+00  0.00000000E+00  0.00000000E+00
  0.00000000E+00  0.00000000E+00  0.00000000E+00
  0.00000000E+00  0.00000000E+00  0.00000000E+00
  0.00000000E+00  0.00000000E+00  0.00000000E+00
  0.00000000E+00  0.00000000E+00  0.00000000E+00
  0.00000000E+00  0.00000000E+00  0.00000000E+00
  0.00000000E+00  0.00000000E+00  0.00000000E+00
  0.00000000E+00  0.00000000E+00  0.00000000E+00
  0.00000000E+00  0.00000000E+00  0.00000000E+00
  0.00000000E+00  0.00000000E+00  0.00000000E+00
  0.00000000E+00  0.00000000E+00  0.00000000E+00
  0.00000000E+00  0.00000000E+00  0.00000000E+00
  0.00000000E+00  0.00000000E+00  0.00000000E+00
  0.00000000E+00  0.00000000E+00  0.00000000E+00
  0.00000000E+00  0.00000000E+00  0.00000000E+00
  0.00000000E+00  0.00000000E+00  0.00000000E+00
  0.00000000E+00  0.00000000E+00  0.00000000E+00
  0.00000000E+00  0.00000000E+00  0.00000000E+00
  0.00000000E+00  0.00000000E+00  0.00000000E+00
  0.00000000E+00  0.00000000E+00  0.00000000E+00
  0.00000000E+00  0.00000000E+00  0.00000000E+00
  0.00000000E+00  0.00000000E+00  0.00000000E+00
  0.00000000E+00  0.00000000E+00  0.00000000E+00
  0.00000000E+00  0.00000000E+00  0.00000000E+00
  0.00000000E+00  0.00000000E+00  0.00000000E+00
  0.00000000E+00  0.00000000E+00  0.00000000E+00
  0.00000000E+00  0.00000000E+00  0.00000000E+00
  0.00000000E+00  0.00000000E+00  0.00000000E+00
  0.00000000E+00  0.00000000E+00  0.00000000E+00
  0.00000000E+00  0.00000000E+00  0.00000000E+00
  0.00000000E+00  0.00000000E+00  0.00000000E+00
  0.00000000E+00  0.00000000E+00  0.00000000E+00
  0.00000000E+00  0.00000000E+00  0.00000000E+00
  0.00000000E+00  0.00000000E+00  0.00000000E+00
  0.00000000E+00  0.00000000E+00  0.00000000E+00
  0.00000000E+00  0.00000000E+00  0.00000000E+00
  0.00000000E+00  0.00000000E+00  0.00000000E+00
  0.00000000E+00  0.00000000E+00  0.00000000E+00
  0.00000000E+00  0.00000000E+00  0.00000000E+00
  0.00000000E+00  0.00000000E+00  0.00000000E+00
  0.00000000E+00  0.00000000E+00  0.00000000E+00
  0.00000000E+00  0.00000000E+00  0.00000000E+00
  0.00000000E+00  0.00000000E+00  0.00000000E+00
  0.00000000E+00  0.00000000E+00  0.00000000E+00
  0.00000000E+00  0.00000000E+00  0.00000000E+00
  0.00000000E+00  0.00000000E+00  0.00000000E+00
  0.00000000E+00  0.00000000E+00  0.00000000E+00
