Ga48 O72                                
    1.000000000000000     
     0.0000000000000000   12.2804734172212839    0.0000000000000000
     9.1427020537309431    0.0000000000000000    0.0000000000000000
     0.0000000000000000   -2.7682617730220320  -11.3006977184464645
   Ga   O    P 
    47    71     1
Direct
  0.6600530779067381 -0.0000000000000000  0.1553900150064975
  0.6582329660995806 -0.0000000000000000  0.6543152672110202
  0.6630567045134743  0.3336507722928143  0.1561925239629878
  0.6585866311504306  0.3329340324190491  0.6550328335690248
  0.6630567045134743  0.6663492277071855  0.1561925239629878
  0.6585866311504306  0.6670659675809506  0.6550328335690248
  0.8383907093219702  0.1640309282566570  0.3440369073436672
  0.8399437114785306  0.1663271913102074  0.8431290827888259
  0.8456654161157923  0.5000000000000000  0.3431642304484900
  0.8402491088294411  0.5000000000000000  0.8438465820189083
  0.8383907093219702  0.8359690717433435  0.3440369073436672
  0.8399437114785306  0.8336728086897921  0.8431290827888259
  0.5857405174057533  0.1636950594306983  0.3949140299492562
  0.5918869827978418  0.1669025251844184  0.8968454534073685
  0.5944778023590668  0.5000000000000000  0.3968969823955659
  0.5930632154936112  0.5000000000000000  0.8985145000313136
  0.5857405174057533  0.8363049405693024  0.3949140299492562
  0.5918869827978418  0.8330974748155816  0.8968454534073685
  0.9110806785376325 -0.0000000000000000  0.1034049913221182
  0.9085139009189331 -0.0000000000000000  0.6033781220281300
  0.9130359080025412  0.3310073080171477  0.1021049691811081
  0.9083406482384647  0.3339756966614156  0.6039678793200678
  0.9130359080025412  0.6689926919828519  0.1021049691811081
  0.9083406482384647  0.6660243033385849  0.6039678793200678
  0.1665051997487555  0.1585896280561307  0.1552981942257444
  0.1567561169144889  0.1706091672274783  0.6602778659785321
  0.1597082489416110  0.5000000000000000  0.1554832056272263
  0.1581117429774051  0.5000000000000000  0.6557616468405689
  0.1665051997487555  0.8414103719438689  0.1552981942257444
  0.1567561169144889  0.8293908327725219  0.6602778659785321
  0.3223589923787212 -0.0000000000000000  0.3300477910686636
  0.3421478222439839 -0.0000000000000000  0.8393633851989389
  0.3420383872995931  0.3339859655770461  0.3404520142230212
  0.3420539407554562  0.3343025200678930  0.8414621420977357
  0.3420383872995931  0.6660140344229546  0.3404520142230212
  0.3420539407554562  0.6656974799321072  0.8414621420977357
  0.0891181286374972 -0.0000000000000000  0.8923158540450512
  0.0943167062837402  0.3287536465750647  0.3965286756978738
  0.0905855674985369  0.3333653979539057  0.8984236785859978
  0.0943167062837402  0.6712463534249348  0.3965286756978738
  0.0905855674985369  0.6666346020460937  0.8984236785859978
  0.4136678629297709  0.1690038244847030  0.0976899133556675
  0.4077467331558866  0.1663925913335871  0.5969032657878046
  0.4104694096549404  0.5000000000000000  0.1016848427778111
  0.4086480076960619  0.5000000000000000  0.5997114118482508
  0.4136678629297709  0.8309961755152969  0.0976899133556675
  0.4077467331558866  0.8336074086664123  0.5969032657878046
  0.0009736675334481  0.1639420213174380  0.1323806758814328
  0.9951292927698051  0.1672150169876755  0.6300477244170318
  0.9974057823840615  0.5000000000000000  0.1271242879815053
  0.9963497330146027  0.5000000000000000  0.6284052065508448
  0.0009736675334481  0.8360579786825619  0.1323806758814328
  0.9951292927698051  0.8327849830123244  0.6300477244170318
  0.4954657290012394 -0.0000000000000000  0.3692824281062042
  0.5046117847667945 -0.0000000000000000  0.8704707478582732
  0.5047890115771753  0.3356238850496115  0.3726428235231280
  0.5045002384058115  0.3339259397141623  0.8709438901708164
  0.5047890115771753  0.6643761149503881  0.3726428235231280
  0.5045002384058115  0.6660740602858376  0.8709438901708164
  0.6718353610794632  0.1664535217425563  0.2800453200076996
  0.6722491527388643  0.1664686661612698  0.7789973113760045
  0.6777756957214125  0.5000000000000000  0.2806527219958954
  0.6723861096715865  0.5000000000000000  0.7795049377339806
  0.6718353610794632  0.8335464782574438  0.2800453200076996
  0.6722491527388643  0.8335313338387298  0.7789973113760045
  0.8287170803286037 -0.0000000000000000  0.2213220841372650
  0.8264734259550028 -0.0000000000000000  0.7195274572721456
  0.8329803345270389  0.3288753963521314  0.2218026224340470
  0.8264385236464575  0.3331561350998265  0.7197536842775819
  0.8329803345270389  0.6711246036478685  0.2218026224340470
  0.8264385236464575  0.6668438649001733  0.7197536842775819
  0.8304738909436076 -0.0000000000000000  0.4471288773625354
  0.8329548662771982 -0.0000000000000000  0.9468678613095159
  0.8388604153787429  0.3319273518050533  0.4451470002328118
  0.8332186977736704  0.3323904424393919  0.9464893728151650
  0.8388604153787429  0.6680726481949468  0.4451470002328118
  0.8332186977736704  0.6676095575606084  0.9464893728151650
  0.6702186414852889  0.1665626053090741  0.0534864519023130
  0.6666969380856888  0.1664190359362494  0.5514004239526920
  0.6748618145893319  0.5000000000000000  0.0541434787676016
  0.6712614120574790  0.5000000000000000  0.5536908618002474
  0.6702186414852889  0.8334373946909256  0.0534864519023130
  0.6666969380856888  0.8335809640637500  0.5514004239526920
  0.4984636139809904 -0.0000000000000000  0.1234126508155891
  0.4955335783185787 -0.0000000000000000  0.6251085660317237
  0.5013391554462021  0.3361648306428017  0.1236238572523091
  0.4958125709838769  0.3329358052380497  0.6250725899711153
  0.5013391554462021  0.6638351693571978  0.1236238572523091
  0.4958125709838769  0.6670641947619502  0.6250725899711153
  0.0124474055615695  0.1438716482265056  0.3841844018596974
  0.0024262503199455  0.1670147609470400  0.8719578952138158
  0.0080774418043835  0.5000000000000000  0.3728529131523357
  0.0029612725261855  0.5000000000000000  0.8719157470162880
  0.0124474055615695  0.8561283517734946  0.3841844018596974
  0.0024262503199455  0.8329852390529597  0.8719578952138158
  0.1719142498149789 -0.0000000000000000  0.7756314252360391
  0.1725720332490233  0.3315543584371864  0.2791899329994793
  0.1726815839756631  0.3340449578650931  0.7810031200121351
  0.1725720332490233  0.6684456415628132  0.2791899329994793
  0.1726815839756631  0.6659550421349066  0.7810031200121351
  0.3346425290551557  0.1797746751490253  0.2144280998968535
  0.3247855568929018  0.1647917402388470  0.7137995367899819
  0.3277198511862263  0.5000000000000000  0.2176223454264341
  0.3265821319344461  0.5000000000000000  0.7172681047322412
  0.3346425290551557  0.8202253248509743  0.2144280998968535
  0.3247855568929018  0.8352082597611528  0.7137995367899819
  0.3274038084706300  0.1673065599616376  0.4415971290806400
  0.3352007270015362  0.1669385658792667  0.9414633181219169
  0.3303640571440771  0.5000000000000000  0.4437250022025922
  0.3329892918122377  0.5000000000000000  0.9447136982246244
  0.3274038084706300  0.8326934400383622  0.4415971290806400
  0.3352007270015362  0.8330614341207331  0.9414633181219169
  0.1753595469548070 -0.0000000000000000  0.0438078376670771
  0.1465032039968317 -0.0000000000000000  0.5481903735383515
  0.1669460821360110  0.3319423952956153  0.0540110470906215
  0.1648525219640950  0.3319142368570875  0.5542535938417724
  0.1669460821360110  0.6680576047043848  0.0540110470906215
  0.1648525219640950  0.6680857631429128  0.5542535938417724
  0.0991158619176398 -0.0000000000000000  0.4049960520206390
 
  0.00000000E+00  0.00000000E+00  0.00000000E+00
  0.00000000E+00  0.00000000E+00  0.00000000E+00
  0.00000000E+00  0.00000000E+00  0.00000000E+00
  0.00000000E+00  0.00000000E+00  0.00000000E+00
  0.00000000E+00  0.00000000E+00  0.00000000E+00
  0.00000000E+00  0.00000000E+00  0.00000000E+00
  0.00000000E+00  0.00000000E+00  0.00000000E+00
  0.00000000E+00  0.00000000E+00  0.00000000E+00
  0.00000000E+00  0.00000000E+00  0.00000000E+00
  0.00000000E+00  0.00000000E+00  0.00000000E+00
  0.00000000E+00  0.00000000E+00  0.00000000E+00
  0.00000000E+00  0.00000000E+00  0.00000000E+00
  0.00000000E+00  0.00000000E+00  0.00000000E+00
  0.00000000E+00  0.00000000E+00  0.00000000E+00
  0.00000000E+00  0.00000000E+00  0.00000000E+00
  0.00000000E+00  0.00000000E+00  0.00000000E+00
  0.00000000E+00  0.00000000E+00  0.00000000E+00
  0.00000000E+00  0.00000000E+00  0.00000000E+00
  0.00000000E+00  0.00000000E+00  0.00000000E+00
  0.00000000E+00  0.00000000E+00  0.00000000E+00
  0.00000000E+00  0.00000000E+00  0.00000000E+00
  0.00000000E+00  0.00000000E+00  0.00000000E+00
  0.00000000E+00  0.00000000E+00  0.00000000E+00
  0.00000000E+00  0.00000000E+00  0.00000000E+00
  0.00000000E+00  0.00000000E+00  0.00000000E+00
  0.00000000E+00  0.00000000E+00  0.00000000E+00
  0.00000000E+00  0.00000000E+00  0.00000000E+00
  0.00000000E+00  0.00000000E+00  0.00000000E+00
  0.00000000E+00  0.00000000E+00  0.00000000E+00
  0.00000000E+00  0.00000000E+00  0.00000000E+00
  0.00000000E+00  0.00000000E+00  0.00000000E+00
  0.00000000E+00  0.00000000E+00  0.00000000E+00
  0.00000000E+00  0.00000000E+00  0.00000000E+00
  0.00000000E+00  0.00000000E+00  0.00000000E+00
  0.00000000E+00  0.00000000E+00  0.00000000E+00
  0.00000000E+00  0.00000000E+00  0.00000000E+00
  0.00000000E+00  0.00000000E+00  0.00000000E+00
  0.00000000E+00  0.00000000E+00  0.00000000E+00
  0.00000000E+00  0.00000000E+00  0.00000000E+00
  0.00000000E+00  0.00000000E+00  0.00000000E+00
  0.00000000E+00  0.00000000E+00  0.00000000E+00
  0.00000000E+00  0.00000000E+00  0.00000000E+00
  0.00000000E+00  0.00000000E+00  0.00000000E+00
  0.00000000E+00  0.00000000E+00  0.00000000E+00
  0.00000000E+00  0.00000000E+00  0.00000000E+00
  0.00000000E+00  0.00000000E+00  0.00000000E+00
  0.00000000E+00  0.00000000E+00  0.00000000E+00
  0.00000000E+00  0.00000000E+00  0.00000000E+00
  0.00000000E+00  0.00000000E+00  0.00000000E+00
  0.00000000E+00  0.00000000E+00  0.00000000E+00
  0.00000000E+00  0.00000000E+00  0.00000000E+00
  0.00000000E+00  0.00000000E+00  0.00000000E+00
  0.00000000E+00  0.00000000E+00  0.00000000E+00
  0.00000000E+00  0.00000000E+00  0.00000000E+00
  0.00000000E+00  0.00000000E+00  0.00000000E+00
  0.00000000E+00  0.00000000E+00  0.00000000E+00
  0.00000000E+00  0.00000000E+00  0.00000000E+00
  0.00000000E+00  0.00000000E+00  0.00000000E+00
  0.00000000E+00  0.00000000E+00  0.00000000E+00
  0.00000000E+00  0.00000000E+00  0.00000000E+00
  0.00000000E+00  0.00000000E+00  0.00000000E+00
  0.00000000E+00  0.00000000E+00  0.00000000E+00
  0.00000000E+00  0.00000000E+00  0.00000000E+00
  0.00000000E+00  0.00000000E+00  0.00000000E+00
  0.00000000E+00  0.00000000E+00  0.00000000E+00
  0.00000000E+00  0.00000000E+00  0.00000000E+00
  0.00000000E+00  0.00000000E+00  0.00000000E+00
  0.00000000E+00  0.00000000E+00  0.00000000E+00
  0.00000000E+00  0.00000000E+00  0.00000000E+00
  0.00000000E+00  0.00000000E+00  0.00000000E+00
  0.00000000E+00  0.00000000E+00  0.00000000E+00
  0.00000000E+00  0.00000000E+00  0.00000000E+00
  0.00000000E+00  0.00000000E+00  0.00000000E+00
  0.00000000E+00  0.00000000E+00  0.00000000E+00
  0.00000000E+00  0.00000000E+00  0.00000000E+00
  0.00000000E+00  0.00000000E+00  0.00000000E+00
  0.00000000E+00  0.00000000E+00  0.00000000E+00
  0.00000000E+00  0.00000000E+00  0.00000000E+00
  0.00000000E+00  0.00000000E+00  0.00000000E+00
  0.00000000E+00  0.00000000E+00  0.00000000E+00
  0.00000000E+00  0.00000000E+00  0.00000000E+00
  0.00000000E+00  0.00000000E+00  0.00000000E+00
  0.00000000E+00  0.00000000E+00  0.00000000E+00
  0.00000000E+00  0.00000000E+00  0.00000000E+00
  0.00000000E+00  0.00000000E+00  0.00000000E+00
  0.00000000E+00  0.00000000E+00  0.00000000E+00
  0.00000000E+00  0.00000000E+00  0.00000000E+00
  0.00000000E+00  0.00000000E+00  0.00000000E+00
  0.00000000E+00  0.00000000E+00  0.00000000E+00
  0.00000000E+00  0.00000000E+00  0.00000000E+00
  0.00000000E+00  0.00000000E+00  0.00000000E+00
  0.00000000E+00  0.00000000E+00  0.00000000E+00
  0.00000000E+00  0.00000000E+00  0.00000000E+00
  0.00000000E+00  0.00000000E+00  0.00000000E+00
  0.00000000E+00  0.00000000E+00  0.00000000E+00
  0.00000000E+00  0.00000000E+00  0.00000000E+00
  0.00000000E+00  0.00000000E+00  0.00000000E+00
  0.00000000E+00  0.00000000E+00  0.00000000E+00
  0.00000000E+00  0.00000000E+00  0.00000000E+00
  0.00000000E+00  0.00000000E+00  0.00000000E+00
  0.00000000E+00  0.00000000E+00  0.00000000E+00
  0.00000000E+00  0.00000000E+00  0.00000000E+00
  0.00000000E+00  0.00000000E+00  0.00000000E+00
  0.00000000E+00  0.00000000E+00  0.00000000E+00
  0.00000000E+00  0.00000000E+00  0.00000000E+00
  0.00000000E+00  0.00000000E+00  0.00000000E+00
  0.00000000E+00  0.00000000E+00  0.00000000E+00
  0.00000000E+00  0.00000000E+00  0.00000000E+00
  0.00000000E+00  0.00000000E+00  0.00000000E+00
  0.00000000E+00  0.00000000E+00  0.00000000E+00
  0.00000000E+00  0.00000000E+00  0.00000000E+00
  0.00000000E+00  0.00000000E+00  0.00000000E+00
  0.00000000E+00  0.00000000E+00  0.00000000E+00
  0.00000000E+00  0.00000000E+00  0.00000000E+00
  0.00000000E+00  0.00000000E+00  0.00000000E+00
  0.00000000E+00  0.00000000E+00  0.00000000E+00
  0.00000000E+00  0.00000000E+00  0.00000000E+00
  0.00000000E+00  0.00000000E+00  0.00000000E+00
  0.00000000E+00  0.00000000E+00  0.00000000E+00
