       N       E                     dE             d eps       ncg     rms          ort
SDA:   1    -0.938595503360E+03   -0.93860E+03    0.00000E+00  5056   0.264E+02 0.000E+00
CGA:   2    -0.943589164043E+03   -0.49937E+01   -0.50024E+01  5056   0.812E+01 0.393E+00
CGA:   3    -0.945799688730E+03   -0.22105E+01   -0.21816E+01  5056   0.947E+01 0.325E+00
CGA:   4    -0.946855786409E+03   -0.10561E+01   -0.10813E+01  5056   0.138E+01-0.659E-01
CGA:   5    -0.947237964721E+03   -0.38218E+00   -0.37956E+00  5056   0.977E+00 0.257E-01
CGA:   6    -0.947405468638E+03   -0.16750E+00   -0.16799E+00  5056   0.430E+00 0.507E-02
CGA:   7    -0.947467076514E+03   -0.61608E-01   -0.61783E-01  5056   0.163E+00 0.233E-03
CGA:   8    -0.947502224145E+03   -0.35148E-01   -0.35131E-01  5056   0.480E-01 0.687E-03
CGA:   9    -0.947510048762E+03   -0.78246E-02   -0.78305E-02  5056   0.185E-01 0.130E-03
CGA:  10    -0.947513047868E+03   -0.29991E-02   -0.30020E-02  5056   0.981E-02 0.715E-04
CGA:  11    -0.947514782096E+03   -0.17342E-02   -0.17355E-02  5056   0.369E-02 0.647E-04
CGA:  12    -0.947515613718E+03   -0.83162E-03   -0.82913E-03  5056   0.172E-02 0.846E-04
CGA:  13    -0.947515932540E+03   -0.31882E-03   -0.31934E-03  5056   0.940E-03 0.364E-04
CGA:  14    -0.947516094379E+03   -0.16184E-03   -0.16243E-03  5056   0.350E-03 0.232E-04
CGA:  15    -0.947516158547E+03   -0.64168E-04   -0.64400E-04  5056   0.115E-03 0.170E-04
CGA:  16    -0.947516183443E+03   -0.24896E-04   -0.24770E-04  5056   0.545E-04 0.985E-05
CGA:  17    -0.947516195811E+03   -0.12368E-04   -0.12318E-04  5056   0.297E-04 0.335E-05
CGA:  18    -0.947516201554E+03   -0.57431E-05   -0.57641E-05  5056   0.148E-04 0.190E-05
   1 F= -.94751620E+03 E0= -.94751620E+03  d E =-.219273E-14
