Ga8 O12                                 
    1.000000000000000     
     0.0000000000000000   12.2804737091000007    0.0000000000000000
     9.1427011490000005    0.0000000000000000    0.0000000000000000
     0.0000000000000000   -2.7682616411000001  -11.3006974810000003
   Ga   O    N    Fe
    47    71     1     1
Direct
  0.6591143183816683  0.0000000000000000  0.1566439913115545
  0.6579685108738644  0.0000000000000000  0.6559396845371168
  0.6591984492807157  0.3340439284748626  0.1573560611654230
  0.6580610224673720  0.3326208334751755  0.6528029037294090
  0.6591984492807157  0.6659560715251374  0.1573560611654230
  0.6580610224673720  0.6673791665248245  0.6528029037294090
  0.8412986064264132  0.1666543429257459  0.3430728350167911
  0.8405188532693302  0.1668397033394271  0.8427382648277160
  0.8399537502246091  0.5000000000000000  0.3431494063656402
  0.8396298676837048  0.5000000000000000  0.8428320966824927
  0.8412986064264132  0.8333456570742541  0.3430728350167911
  0.8405188532693302  0.8331602966605729  0.8427382648277160
  0.5901665822841338  0.1693085085695785  0.3968242939285531
  0.5913107961908324  0.1669624658253710  0.8973116880555594
  0.5912932186240596  0.5000000000000000  0.8974866426646244
  0.5901665822841338  0.8306914914304215  0.3968242939285531
  0.5913107961908324  0.8330375341746290  0.8973116880555594
  0.9090620941923717  0.0000000000000000  0.1020293997617756
  0.9083332094289034  0.0000000000000000  0.6023407382740089
  0.9093102820859187  0.3332121087566975  0.1022838074528281
  0.9092831177960718  0.3334829790116345  0.6026019803621381
  0.9093102820859187  0.6667878912433025  0.1022838074528281
  0.9092831177960718  0.6665170209883655  0.6026019803621381
  0.1597131246811188  0.1668658772462592  0.1571696837736809
  0.1585830438780889  0.1665789550699088  0.6570581826835067
  0.1595754429458225  0.5000000000000000  0.1569389095246407
  0.1598682235386235  0.5000000000000000  0.6564999682674255
  0.1597131246811188  0.8331341227537408  0.1571696837736809
  0.1585830438780889  0.8334210449300912  0.6570581826835067
  0.3419302464644289  0.0000000000000000  0.3431554023346450
  0.3407108628474518  0.0000000000000000  0.8436157099730153
  0.3425960914223083  0.3346700640722347  0.3446204441083580
  0.3409809574526648  0.3337733741092634  0.8435470124995845
  0.3425960914223083  0.6653299359277653  0.3446204441083580
  0.3409809574526648  0.6662266258907366  0.8435470124995845
  0.0917765131566384  0.0000000000000000  0.3977011161230166
  0.0910470367869820  0.0000000000000000  0.8982249249977485
  0.0912859547695177  0.3335329251063044  0.3974548857488074
  0.0907323556415136  0.3335126776320081  0.8977120860318166
  0.0912859547695177  0.6664670748936956  0.3974548857488074
  0.0907323556415136  0.6664873223679919  0.8977120860318166
  0.4088898176286762  0.1666797841612180  0.1022559600403952
  0.4070907089188651  0.1659565680707402  0.6022396994160673
  0.4096625465916830  0.5000000000000000  0.1035734282309946
  0.4111002152601131  0.5000000000000000  0.6019068955608873
  0.4088898176286762  0.8333202158387820  0.1022559600403952
  0.4070907089188651  0.8340434319292598  0.6022396994160673
  0.9968993129737740  0.1664374551006702  0.1270762026630337
  0.9963261176814484  0.1663626550455817  0.6273929447206186
  0.9968076153972021  0.5000000000000000  0.1271245935102101
  0.9970246686223234  0.5000000000000000  0.6274479082185422
  0.9968993129737740  0.8335625448993298  0.1270762026630337
  0.9963261176814484  0.8336373449544183  0.6273929447206186
  0.5039037287446533  0.0000000000000000  0.3721316715968754
  0.5036136247303276  0.0000000000000000  0.8728321216930865
  0.5038896398765118  0.3367345135414368  0.3726093787528484
  0.5033539118639254  0.3332827084501488  0.8740162787253638
  0.5038896398765118  0.6632654864585632  0.3726093787528484
  0.5033539118639254  0.6667172915498512  0.8740162787253638
  0.6729361391521991  0.1664220161594798  0.2803618012539317
  0.6723661395583846  0.1667061919428932  0.7796775894924863
  0.6723793763150994  0.5000000000000000  0.2783173754382986
  0.6731465297776751  0.5000000000000000  0.7817270713526838
  0.6729361391521991  0.8335779838405202  0.2803618012539317
  0.6723661395583846  0.8332938080571068  0.7796775894924863
  0.8278844962454315  0.0000000000000000  0.2193390426682029
  0.8276230016829089  0.0000000000000000  0.7197968503762127
  0.8285692377859704  0.3326350376679343  0.2197157358434296
  0.8284815102205911  0.3329332522223183  0.7199605321984990
  0.8285692377859704  0.6673649623320657  0.2197157358434296
  0.8284815102205911  0.6670667477776817  0.7199605321984990
  0.8334961162765637  0.0000000000000000  0.4454190580081203
  0.8319380863627970  0.0000000000000000  0.9455796775843552
  0.8337547925793416  0.3329967766676702  0.4457571678014673
  0.8323961316788768  0.3329200842682667  0.9459164496455941
  0.8337547925793416  0.6670032233323298  0.4457571678014673
  0.8323961316788768  0.6670799157317333  0.9459164496455941
  0.6680011913682620  0.1668548525371207  0.0541851265563196
  0.6680154765514033  0.1635606801559106  0.5531793826951272
  0.6687120253514962  0.5000000000000000  0.0538538141901768
  0.6680011913682620  0.8331451474628793  0.0541851265563196
  0.6680154765514033  0.8364393198440894  0.5531793826951272
  0.4963634767953025  0.0000000000000000  0.1266422309382591
  0.4951355637755057  0.0000000000000000  0.6274305048294906
  0.4963259420870259  0.3329049190583646  0.1266930445276486
  0.4946678527110890  0.3308458122263573  0.6306614094619931
  0.4963259420870259  0.6670950809416354  0.1266930445276486
  0.4946678527110890  0.6691541877736427  0.6306614094619931
  0.0042323545404415  0.1664911071762418  0.3725663586234091
  0.0035895023012529  0.1665784587026735  0.8731029439808395
  0.0036005983495286  0.5000000000000000  0.3726174599900460
  0.0031185321621408  0.5000000000000000  0.8730527157524577
  0.0042323545404415  0.8335088928237582  0.3725663586234091
  0.0035895023012529  0.8334215412973265  0.8731029439808395
  0.1729390111169593  0.0000000000000000  0.2803252663967442
  0.1717690275794368  0.0000000000000000  0.7805969978608829
  0.1729544868228956  0.3332603745186660  0.2805168238758569
  0.1723056915394920  0.3336417722399290  0.7805950584127643
  0.1729544868228956  0.6667396254813340  0.2805168238758569
  0.1723056915394920  0.6663582277600710  0.7805950584127643
  0.3278966106015915  0.1667835968987816  0.2196969767679420
  0.3263719150299877  0.1660270101974888  0.7200848144049203
  0.3269846551614393  0.5000000000000000  0.2194937589122219
  0.3277668550465265  0.5000000000000000  0.7194694301405988
  0.3278966106015915  0.8332164031012184  0.2196969767679420
  0.3263719150299877  0.8339729898025112  0.7200848144049203
  0.3312213538282620  0.1663171391198830  0.4454523816159224
  0.3314625148345769  0.1666255149763742  0.9457765831332807
  0.3296771292362735  0.5000000000000000  0.4467402119618384
  0.3320880976588398  0.5000000000000000  0.9464989097027043
  0.3312213538282620  0.8336828608801170  0.4454523816159224
  0.3314625148345769  0.8333744850236258  0.9457765831332807
  0.1685338503723202  0.0000000000000000  0.0545540541045710
  0.1680509473161607  0.0000000000000000  0.5544720500461580
  0.1679515276267054  0.3332817838234448  0.0541824213331594
  0.1675803674438683  0.3328849922361456  0.5543238138517523
  0.1679515276267054  0.6667182161765552  0.0541824213331594
  0.1675803674438683  0.6671150077638544  0.5543238138517523
  0.6577597872704857  0.5000000000000000  0.5489956063843664
  0.5975181719488631  0.5000000000000000  0.4024012853756176
 
  0.00000000E+00  0.00000000E+00  0.00000000E+00
  0.00000000E+00  0.00000000E+00  0.00000000E+00
  0.00000000E+00  0.00000000E+00  0.00000000E+00
  0.00000000E+00  0.00000000E+00  0.00000000E+00
  0.00000000E+00  0.00000000E+00  0.00000000E+00
  0.00000000E+00  0.00000000E+00  0.00000000E+00
  0.00000000E+00  0.00000000E+00  0.00000000E+00
  0.00000000E+00  0.00000000E+00  0.00000000E+00
  0.00000000E+00  0.00000000E+00  0.00000000E+00
  0.00000000E+00  0.00000000E+00  0.00000000E+00
  0.00000000E+00  0.00000000E+00  0.00000000E+00
  0.00000000E+00  0.00000000E+00  0.00000000E+00
  0.00000000E+00  0.00000000E+00  0.00000000E+00
  0.00000000E+00  0.00000000E+00  0.00000000E+00
  0.00000000E+00  0.00000000E+00  0.00000000E+00
  0.00000000E+00  0.00000000E+00  0.00000000E+00
  0.00000000E+00  0.00000000E+00  0.00000000E+00
  0.00000000E+00  0.00000000E+00  0.00000000E+00
  0.00000000E+00  0.00000000E+00  0.00000000E+00
  0.00000000E+00  0.00000000E+00  0.00000000E+00
  0.00000000E+00  0.00000000E+00  0.00000000E+00
  0.00000000E+00  0.00000000E+00  0.00000000E+00
  0.00000000E+00  0.00000000E+00  0.00000000E+00
  0.00000000E+00  0.00000000E+00  0.00000000E+00
  0.00000000E+00  0.00000000E+00  0.00000000E+00
  0.00000000E+00  0.00000000E+00  0.00000000E+00
  0.00000000E+00  0.00000000E+00  0.00000000E+00
  0.00000000E+00  0.00000000E+00  0.00000000E+00
  0.00000000E+00  0.00000000E+00  0.00000000E+00
  0.00000000E+00  0.00000000E+00  0.00000000E+00
  0.00000000E+00  0.00000000E+00  0.00000000E+00
  0.00000000E+00  0.00000000E+00  0.00000000E+00
  0.00000000E+00  0.00000000E+00  0.00000000E+00
  0.00000000E+00  0.00000000E+00  0.00000000E+00
  0.00000000E+00  0.00000000E+00  0.00000000E+00
  0.00000000E+00  0.00000000E+00  0.00000000E+00
  0.00000000E+00  0.00000000E+00  0.00000000E+00
  0.00000000E+00  0.00000000E+00  0.00000000E+00
  0.00000000E+00  0.00000000E+00  0.00000000E+00
  0.00000000E+00  0.00000000E+00  0.00000000E+00
  0.00000000E+00  0.00000000E+00  0.00000000E+00
  0.00000000E+00  0.00000000E+00  0.00000000E+00
  0.00000000E+00  0.00000000E+00  0.00000000E+00
  0.00000000E+00  0.00000000E+00  0.00000000E+00
  0.00000000E+00  0.00000000E+00  0.00000000E+00
  0.00000000E+00  0.00000000E+00  0.00000000E+00
  0.00000000E+00  0.00000000E+00  0.00000000E+00
  0.00000000E+00  0.00000000E+00  0.00000000E+00
  0.00000000E+00  0.00000000E+00  0.00000000E+00
  0.00000000E+00  0.00000000E+00  0.00000000E+00
  0.00000000E+00  0.00000000E+00  0.00000000E+00
  0.00000000E+00  0.00000000E+00  0.00000000E+00
  0.00000000E+00  0.00000000E+00  0.00000000E+00
  0.00000000E+00  0.00000000E+00  0.00000000E+00
  0.00000000E+00  0.00000000E+00  0.00000000E+00
  0.00000000E+00  0.00000000E+00  0.00000000E+00
  0.00000000E+00  0.00000000E+00  0.00000000E+00
  0.00000000E+00  0.00000000E+00  0.00000000E+00
  0.00000000E+00  0.00000000E+00  0.00000000E+00
  0.00000000E+00  0.00000000E+00  0.00000000E+00
  0.00000000E+00  0.00000000E+00  0.00000000E+00
  0.00000000E+00  0.00000000E+00  0.00000000E+00
  0.00000000E+00  0.00000000E+00  0.00000000E+00
  0.00000000E+00  0.00000000E+00  0.00000000E+00
  0.00000000E+00  0.00000000E+00  0.00000000E+00
  0.00000000E+00  0.00000000E+00  0.00000000E+00
  0.00000000E+00  0.00000000E+00  0.00000000E+00
  0.00000000E+00  0.00000000E+00  0.00000000E+00
  0.00000000E+00  0.00000000E+00  0.00000000E+00
  0.00000000E+00  0.00000000E+00  0.00000000E+00
  0.00000000E+00  0.00000000E+00  0.00000000E+00
  0.00000000E+00  0.00000000E+00  0.00000000E+00
  0.00000000E+00  0.00000000E+00  0.00000000E+00
  0.00000000E+00  0.00000000E+00  0.00000000E+00
  0.00000000E+00  0.00000000E+00  0.00000000E+00
  0.00000000E+00  0.00000000E+00  0.00000000E+00
  0.00000000E+00  0.00000000E+00  0.00000000E+00
  0.00000000E+00  0.00000000E+00  0.00000000E+00
  0.00000000E+00  0.00000000E+00  0.00000000E+00
  0.00000000E+00  0.00000000E+00  0.00000000E+00
  0.00000000E+00  0.00000000E+00  0.00000000E+00
  0.00000000E+00  0.00000000E+00  0.00000000E+00
  0.00000000E+00  0.00000000E+00  0.00000000E+00
  0.00000000E+00  0.00000000E+00  0.00000000E+00
  0.00000000E+00  0.00000000E+00  0.00000000E+00
  0.00000000E+00  0.00000000E+00  0.00000000E+00
  0.00000000E+00  0.00000000E+00  0.00000000E+00
  0.00000000E+00  0.00000000E+00  0.00000000E+00
  0.00000000E+00  0.00000000E+00  0.00000000E+00
  0.00000000E+00  0.00000000E+00  0.00000000E+00
  0.00000000E+00  0.00000000E+00  0.00000000E+00
  0.00000000E+00  0.00000000E+00  0.00000000E+00
  0.00000000E+00  0.00000000E+00  0.00000000E+00
  0.00000000E+00  0.00000000E+00  0.00000000E+00
  0.00000000E+00  0.00000000E+00  0.00000000E+00
  0.00000000E+00  0.00000000E+00  0.00000000E+00
  0.00000000E+00  0.00000000E+00  0.00000000E+00
  0.00000000E+00  0.00000000E+00  0.00000000E+00
  0.00000000E+00  0.00000000E+00  0.00000000E+00
  0.00000000E+00  0.00000000E+00  0.00000000E+00
  0.00000000E+00  0.00000000E+00  0.00000000E+00
  0.00000000E+00  0.00000000E+00  0.00000000E+00
  0.00000000E+00  0.00000000E+00  0.00000000E+00
  0.00000000E+00  0.00000000E+00  0.00000000E+00
  0.00000000E+00  0.00000000E+00  0.00000000E+00
  0.00000000E+00  0.00000000E+00  0.00000000E+00
  0.00000000E+00  0.00000000E+00  0.00000000E+00
  0.00000000E+00  0.00000000E+00  0.00000000E+00
  0.00000000E+00  0.00000000E+00  0.00000000E+00
  0.00000000E+00  0.00000000E+00  0.00000000E+00
  0.00000000E+00  0.00000000E+00  0.00000000E+00
  0.00000000E+00  0.00000000E+00  0.00000000E+00
  0.00000000E+00  0.00000000E+00  0.00000000E+00
  0.00000000E+00  0.00000000E+00  0.00000000E+00
  0.00000000E+00  0.00000000E+00  0.00000000E+00
  0.00000000E+00  0.00000000E+00  0.00000000E+00
  0.00000000E+00  0.00000000E+00  0.00000000E+00
  0.00000000E+00  0.00000000E+00  0.00000000E+00
  0.00000000E+00  0.00000000E+00  0.00000000E+00
  0.00000000E+00  0.00000000E+00  0.00000000E+00
