       N       E                     dE             d eps       ncg     rms          rms(c)
DAV:   1     0.219168073962E+05    0.21917E+05   -0.32068E+05 10096   0.281E+03
DAV:   2     0.487919513985E+04   -0.17038E+05   -0.16051E+05 10096   0.818E+02
DAV:   3    -0.130225477578E+03   -0.50094E+04   -0.47074E+04 12704   0.322E+02
DAV:   4    -0.780838677531E+03   -0.65061E+03   -0.63431E+03 12416   0.123E+02
DAV:   5    -0.830526964206E+03   -0.49688E+02   -0.49099E+02 14656   0.369E+01    0.775E+01
RMM:   6    -0.780545750188E+03    0.49981E+02   -0.77614E+02 14799   0.349E+01    0.399E+01
RMM:   7    -0.724333066043E+03    0.56213E+02   -0.27098E+02 13431   0.195E+01    0.267E+01
RMM:   8    -0.712692967381E+03    0.11640E+02   -0.51623E+01 11337   0.136E+01    0.159E+01
RMM:   9    -0.712159681526E+03    0.53329E+00   -0.21397E+01 12926   0.563E+00    0.162E+01
RMM:  10    -0.720979631663E+03   -0.88200E+01   -0.41965E+01 13448   0.854E+00    0.196E+01
RMM:  11    -0.712223876944E+03    0.87558E+01   -0.10413E+01 11909   0.588E+00    0.118E+01
RMM:  12    -0.710155314786E+03    0.20686E+01   -0.41910E+00 14757   0.294E+00    0.373E+00
RMM:  13    -0.710120211575E+03    0.35103E-01   -0.93043E-01 13573   0.950E-01    0.302E+00
RMM:  14    -0.710068739133E+03    0.51472E-01   -0.22550E-01 14858   0.521E-01    0.206E+00
RMM:  15    -0.710036887535E+03    0.31852E-01   -0.23242E-01 13468   0.586E-01    0.140E+00
RMM:  16    -0.710064486117E+03   -0.27599E-01   -0.11402E-01 14111   0.587E-01    0.216E+00
RMM:  17    -0.710039911109E+03    0.24575E-01   -0.23213E-02 13837   0.159E-01    0.106E+00
RMM:  18    -0.710029902456E+03    0.10009E-01   -0.17493E-02 12647   0.150E-01    0.255E-01
RMM:  19    -0.710030288888E+03   -0.38643E-03   -0.91819E-03 13051   0.780E-02    0.107E-01
RMM:  20    -0.710030921385E+03   -0.63250E-03   -0.20172E-03 11840   0.533E-02    0.278E-01
RMM:  21    -0.710030563916E+03    0.35747E-03   -0.15735E-03 10733   0.535E-02    0.101E-01
RMM:  22    -0.710030542190E+03    0.21725E-04   -0.57898E-04 10001   0.255E-02    0.198E-02
RMM:  23    -0.710030581623E+03   -0.39433E-04   -0.46250E-04  9199   0.140E-02    0.135E-02
RMM:  24    -0.710030594640E+03   -0.13016E-04   -0.88151E-05  7721   0.108E-02    0.317E-02
RMM:  25    -0.710030597162E+03   -0.25219E-05   -0.69089E-05  7712   0.105E-02
   1 F= -.71003060E+03 E0= -.71002237E+03  d E =-.710031E+03
       N       E                     dE             d eps       ncg     rms          rms(c)
DAV:   1    -0.709711331734E+03    0.31926E+00   -0.13305E+02 11504   0.144E+01    0.257E+00
RMM:   2    -0.710131144878E+03   -0.41981E+00   -0.45470E+00 13525   0.394E+00    0.210E+00
RMM:   3    -0.710174944173E+03   -0.43799E-01   -0.11284E+00 14211   0.190E+00    0.131E+00
RMM:   4    -0.710182114892E+03   -0.71707E-02   -0.23342E-01 15095   0.737E-01    0.110E+00
RMM:   5    -0.710177179463E+03    0.49354E-02   -0.60416E-02 14562   0.350E-01    0.770E-01
RMM:   6    -0.710170653733E+03    0.65257E-02   -0.41242E-02 13005   0.231E-01    0.156E-01
RMM:   7    -0.710171023329E+03   -0.36960E-03   -0.88898E-03 15405   0.120E-01    0.107E-01
RMM:   8    -0.710171143040E+03   -0.11971E-03   -0.37259E-03 12744   0.609E-02    0.487E-02
RMM:   9    -0.710171267627E+03   -0.12459E-03   -0.15161E-03 10226   0.403E-02    0.398E-02
RMM:  10    -0.710171332610E+03   -0.64983E-04   -0.84101E-04  9828   0.239E-02    0.105E-02
RMM:  11    -0.710171369247E+03   -0.36637E-04   -0.39729E-04  8940   0.143E-02    0.826E-03
RMM:  12    -0.710171385295E+03   -0.16049E-04   -0.17932E-04  8000   0.102E-02    0.389E-03
RMM:  13    -0.710171393873E+03   -0.85775E-05   -0.92858E-05  7376   0.674E-03
   2 F= -.71017139E+03 E0= -.71016582E+03  d E =-.140797E+00
       N       E                     dE             d eps       ncg     rms          rms(c)
DAV:   1    -0.710173943353E+03   -0.25581E-02   -0.13820E+01 11544   0.463E+00    0.786E-01
RMM:   2    -0.710217556282E+03   -0.43613E-01   -0.44345E-01 12875   0.131E+00    0.779E-01
RMM:   3    -0.710225554743E+03   -0.79985E-02   -0.13270E-01 15066   0.571E-01    0.617E-01
RMM:   4    -0.710224160404E+03    0.13943E-02   -0.19970E-02 14260   0.247E-01    0.348E-01
RMM:   5    -0.710223335982E+03    0.82442E-03   -0.69419E-03 14347   0.114E-01    0.209E-01
RMM:   6    -0.710222799613E+03    0.53637E-03   -0.37796E-03 12973   0.776E-02    0.829E-02
RMM:   7    -0.710222826275E+03   -0.26662E-04   -0.11874E-03 12354   0.420E-02    0.281E-02
RMM:   8    -0.710222854828E+03   -0.28554E-04   -0.49579E-04  9766   0.207E-02    0.173E-02
RMM:   9    -0.710222867593E+03   -0.12764E-04   -0.17012E-04  8587   0.142E-02    0.920E-03
RMM:  10    -0.710222874776E+03   -0.71828E-05   -0.90641E-05  7633   0.823E-03
   3 F= -.71022287E+03 E0= -.71021710E+03  d E =-.192278E+00
       N       E                     dE             d eps       ncg     rms          rms(c)
DAV:   1    -0.710204472540E+03    0.18395E-01   -0.26497E+01 11248   0.684E+00    0.888E-01
RMM:   2    -0.710277672582E+03   -0.73200E-01   -0.78930E-01 12950   0.178E+00    0.502E-01
RMM:   3    -0.710296253479E+03   -0.18581E-01   -0.19938E-01 14985   0.756E-01    0.628E-01
RMM:   4    -0.710294911118E+03    0.13424E-02   -0.24721E-02 15036   0.278E-01    0.351E-01
RMM:   5    -0.710294370475E+03    0.54064E-03   -0.70232E-03 14391   0.135E-01    0.277E-01
RMM:   6    -0.710293373323E+03    0.99715E-03   -0.43830E-03 13064   0.906E-02    0.112E-01
RMM:   7    -0.710293419600E+03   -0.46277E-04   -0.27739E-03 12763   0.633E-02    0.671E-02
RMM:   8    -0.710293364056E+03    0.55544E-04   -0.46690E-04 11005   0.337E-02    0.282E-02
RMM:   9    -0.710293378455E+03   -0.14400E-04   -0.31931E-04 10289   0.184E-02    0.171E-02
RMM:  10    -0.710293385052E+03   -0.65962E-05   -0.10027E-04  8146   0.127E-02    0.674E-03
RMM:  11    -0.710293389997E+03   -0.49459E-05   -0.60820E-05  7368   0.721E-03
   4 F= -.71029339E+03 E0= -.71028847E+03  d E =-.705152E-01
       N       E                     dE             d eps       ncg     rms          rms(c)
DAV:   1    -0.710269725637E+03    0.23659E-01   -0.11399E+01 11408   0.449E+00    0.555E-01
RMM:   2    -0.710300484605E+03   -0.30759E-01   -0.32971E-01 12767   0.116E+00    0.299E-01
RMM:   3    -0.710309197322E+03   -0.87127E-02   -0.89315E-02 14986   0.501E-01    0.441E-01
RMM:   4    -0.710308428752E+03    0.76857E-03   -0.11051E-02 14767   0.190E-01    0.216E-01
RMM:   5    -0.710308284309E+03    0.14444E-03   -0.33182E-03 14487   0.866E-02    0.175E-01
RMM:   6    -0.710307878486E+03    0.40582E-03   -0.18605E-03 12794   0.591E-02    0.660E-02
RMM:   7    -0.710307918957E+03   -0.40471E-04   -0.11072E-03 12403   0.400E-02    0.462E-02
RMM:   8    -0.710307895694E+03    0.23263E-04   -0.21194E-04  9687   0.224E-02    0.194E-02
RMM:   9    -0.710307901615E+03   -0.59204E-05   -0.14935E-04  9336   0.122E-02    0.110E-02
RMM:  10    -0.710307904365E+03   -0.27499E-05   -0.46699E-05  7218   0.891E-03
   5 F= -.71030790E+03 E0= -.71030321E+03  d E =-.850296E-01
       N       E                     dE             d eps       ncg     rms          rms(c)
DAV:   1    -0.710249379185E+03    0.58522E-01   -0.28556E+01 10984   0.716E+00    0.889E-01
RMM:   2    -0.710329153647E+03   -0.79774E-01   -0.84641E-01 12704   0.183E+00    0.613E-01
RMM:   3    -0.710352398040E+03   -0.23244E-01   -0.22602E-01 14572   0.861E-01    0.934E-01
RMM:   4    -0.710346943727E+03    0.54543E-02   -0.34653E-02 14633   0.334E-01    0.295E-01
RMM:   5    -0.710346073459E+03    0.87027E-03   -0.10019E-02 14823   0.132E-01    0.168E-01
RMM:   6    -0.710346027275E+03    0.46185E-04   -0.41707E-03 12873   0.921E-02    0.104E-01
RMM:   7    -0.710346014535E+03    0.12740E-04   -0.13310E-03 12498   0.479E-02    0.627E-02
RMM:   8    -0.710346006002E+03    0.85331E-05   -0.62872E-04 10725   0.256E-02    0.214E-02
RMM:   9    -0.710346024521E+03   -0.18519E-04   -0.22668E-04  9225   0.164E-02    0.160E-02
RMM:  10    -0.710346034157E+03   -0.96356E-05   -0.12290E-04  8149   0.117E-02    0.579E-03
RMM:  11    -0.710346039423E+03   -0.52659E-05   -0.58221E-05  7405   0.736E-03
   6 F= -.71034604E+03 E0= -.71034125E+03  d E =-.381351E-01
       N       E                     dE             d eps       ncg     rms          rms(c)
DAV:   1    -0.710344836033E+03    0.11981E-02   -0.62808E-01 11768   0.106E+00    0.130E-01
RMM:   2    -0.710346527793E+03   -0.16918E-02   -0.18042E-02 12555   0.269E-01    0.803E-02
RMM:   3    -0.710347061774E+03   -0.53398E-03   -0.49976E-03 14701   0.124E-01    0.136E-01
RMM:   4    -0.710346941671E+03    0.12010E-03   -0.71369E-04 12327   0.496E-02    0.437E-02
RMM:   5    -0.710346931755E+03    0.99162E-05   -0.25096E-04 10888   0.248E-02    0.287E-02
RMM:   6    -0.710346928055E+03    0.36996E-05   -0.11144E-04  9185   0.164E-02    0.157E-02
RMM:   7    -0.710346928412E+03   -0.35726E-06   -0.40055E-05  7264   0.902E-03
   7 F= -.71034693E+03 E0= -.71034212E+03  d E =-.390240E-01
       N       E                     dE             d eps       ncg     rms          rms(c)
DAV:   1    -0.710300897514E+03    0.46031E-01   -0.17478E+01 10864   0.587E+00    0.701E-01
RMM:   2    -0.710355432636E+03   -0.54535E-01   -0.55929E-01 13110   0.154E+00    0.566E-01
RMM:   3    -0.710368096807E+03   -0.12664E-01   -0.13918E-01 14851   0.677E-01    0.645E-01
RMM:   4    -0.710365693803E+03    0.24030E-02   -0.19545E-02 14536   0.263E-01    0.240E-01
RMM:   5    -0.710365538212E+03    0.15559E-03   -0.52811E-03 15063   0.107E-01    0.211E-01
RMM:   6    -0.710364890582E+03    0.64763E-03   -0.45600E-03 12744   0.920E-02    0.642E-02
RMM:   7    -0.710364886721E+03    0.38613E-05   -0.80728E-04 13311   0.416E-02    0.398E-02
RMM:   8    -0.710364891146E+03   -0.44253E-05   -0.37328E-04  9988   0.219E-02    0.146E-02
RMM:   9    -0.710364901886E+03   -0.10740E-04   -0.13269E-04  8417   0.137E-02    0.956E-03
RMM:  10    -0.710364908904E+03   -0.70183E-05   -0.81968E-05  7771   0.914E-03
   8 F= -.71036491E+03 E0= -.71035992E+03  d E =-.179805E-01
       N       E                     dE             d eps       ncg     rms          rms(c)
DAV:   1    -0.710364867857E+03    0.34030E-04   -0.10361E-02 11528   0.143E-01    0.177E-02
RMM:   2    -0.710364902104E+03   -0.34248E-04   -0.35528E-04 12841   0.381E-02    0.103E-02
RMM:   3    -0.710364908734E+03   -0.66301E-05   -0.78458E-05  9309   0.160E-02
   9 F= -.71036491E+03 E0= -.71035993E+03  d E =-.179803E-01
       N       E                     dE             d eps       ncg     rms          rms(c)
DAV:   1    -0.710348247067E+03    0.16655E-01   -0.63564E+00 10776   0.368E+00    0.406E-01
RMM:   2    -0.710368673870E+03   -0.20427E-01   -0.21414E-01 13294   0.962E-01    0.198E-01
RMM:   3    -0.710374172495E+03   -0.54986E-02   -0.48514E-02 14937   0.406E-01    0.395E-01
RMM:   4    -0.710373281090E+03    0.89140E-03   -0.66875E-03 14774   0.156E-01    0.130E-01
RMM:   5    -0.710373164299E+03    0.11679E-03   -0.17252E-03 14921   0.603E-02    0.920E-02
RMM:   6    -0.710373036406E+03    0.12789E-03   -0.96809E-04 12404   0.480E-02    0.452E-02
RMM:   7    -0.710373050506E+03   -0.14100E-04   -0.35462E-04 11555   0.269E-02    0.310E-02
RMM:   8    -0.710373044427E+03    0.60793E-05   -0.11659E-04  8816   0.140E-02    0.140E-02
RMM:   9    -0.710373046511E+03   -0.20842E-05   -0.60974E-05  7875   0.975E-03
  10 F= -.71037305E+03 E0= -.71036790E+03  d E =-.813778E-02
       N       E                     dE             d eps       ncg     rms          rms(c)
DAV:   1    -0.710372817742E+03    0.22669E-03   -0.12158E-01 11784   0.509E-01    0.541E-02
RMM:   2    -0.710373213787E+03   -0.39604E-03   -0.41627E-03 13420   0.133E-01    0.212E-02
RMM:   3    -0.710373300535E+03   -0.86748E-04   -0.87250E-04 14925   0.525E-02    0.339E-02
RMM:   4    -0.710373299767E+03    0.76821E-06   -0.10972E-04 10877   0.193E-02    0.194E-02
RMM:   5    -0.710373297877E+03    0.18899E-05   -0.29528E-05  6866   0.120E-02
  11 F= -.71037330E+03 E0= -.71036813E+03  d E =-.838914E-02
       N       E                     dE             d eps       ncg     rms          rms(c)
DAV:   1    -0.710361998468E+03    0.11301E-01   -0.40547E+00 10736   0.289E+00    0.334E-01
RMM:   2    -0.710374708968E+03   -0.12711E-01   -0.13421E-01 13069   0.744E-01    0.117E-01
RMM:   3    -0.710377538572E+03   -0.28296E-02   -0.30109E-02 15288   0.303E-01    0.128E-01
RMM:   4    -0.710377665787E+03   -0.12722E-03   -0.32201E-03 15407   0.103E-01    0.101E-01
RMM:   5    -0.710377582527E+03    0.83260E-04   -0.85438E-04 13652   0.507E-02    0.948E-02
RMM:   6    -0.710377520778E+03    0.61749E-04   -0.56575E-04 11807   0.360E-02    0.478E-02
RMM:   7    -0.710377520978E+03   -0.19987E-06   -0.17771E-04  9899   0.187E-02    0.291E-02
RMM:   8    -0.710377510473E+03    0.10505E-04   -0.69513E-05  8440   0.115E-02    0.712E-03
RMM:   9    -0.710377512443E+03   -0.19695E-05   -0.32197E-05  7204   0.764E-03
  12 F= -.71037751E+03 E0= -.71037232E+03  d E =-.421457E-02
       N       E                     dE             d eps       ncg     rms          rms(c)
DAV:   1    -0.710377498251E+03    0.12223E-04   -0.17530E-03 11024   0.611E-02    0.943E-03
RMM:   2    -0.710377505590E+03   -0.73397E-05   -0.77118E-05  9311   0.186E-02
  13 F= -.71037751E+03 E0= -.71037232E+03  d E =-.420771E-02
       N       E                     dE             d eps       ncg     rms          rms(c)
DAV:   1    -0.710377509448E+03   -0.11197E-04   -0.11889E-03 12336   0.526E-02    0.987E-03
RMM:   2    -0.710377517653E+03   -0.82049E-05   -0.42213E-05  7650   0.135E-02
  14 F= -.71037752E+03 E0= -.71037233E+03  d E =-.421978E-02
       N       E                     dE             d eps       ncg     rms          rms(c)
DAV:   1    -0.710369795428E+03    0.77140E-02   -0.27122E+00 10664   0.237E+00    0.271E-01
RMM:   2    -0.710377863205E+03   -0.80678E-02   -0.84245E-02 12821   0.600E-01    0.116E-01
RMM:   3    -0.710380349773E+03   -0.24866E-02   -0.22310E-02 14915   0.267E-01    0.239E-01
RMM:   4    -0.710380057587E+03    0.29219E-03   -0.27202E-03 14371   0.102E-01    0.843E-02
RMM:   5    -0.710379980862E+03    0.76725E-04   -0.70785E-04 13069   0.381E-02    0.414E-02
RMM:   6    -0.710379977315E+03    0.35473E-05   -0.33487E-04 10964   0.266E-02    0.260E-02
RMM:   7    -0.710379975167E+03    0.21479E-05   -0.81002E-05  8418   0.151E-02
  15 F= -.71037998E+03 E0= -.71037483E+03  d E =-.245751E-02
       N       E                     dE             d eps       ncg     rms          rms(c)
DAV:   1    -0.710379928322E+03    0.48993E-04   -0.22252E-02 11600   0.216E-01    0.274E-02
RMM:   2    -0.710380001843E+03   -0.73521E-04   -0.75793E-04 12831   0.559E-02    0.153E-02
RMM:   3    -0.710380023247E+03   -0.21404E-04   -0.20516E-04 12200   0.249E-02    0.243E-02
RMM:   4    -0.710380019566E+03    0.36807E-05   -0.32021E-05  6920   0.133E-02
  16 F= -.71038002E+03 E0= -.71037487E+03  d E =-.250191E-02
       N       E                     dE             d eps       ncg     rms          rms(c)
DAV:   1    -0.710377794542E+03    0.22287E-02   -0.81647E-01 10856   0.134E+00    0.143E-01
RMM:   2    -0.710380431290E+03   -0.26367E-02   -0.27696E-02 13247   0.353E-01    0.537E-02
RMM:   3    -0.710381113640E+03   -0.68235E-03   -0.66152E-03 14896   0.149E-01    0.985E-02
RMM:   4    -0.710381111608E+03    0.20316E-05   -0.85232E-04 14663   0.539E-02    0.487E-02
RMM:   5    -0.710381098081E+03    0.13527E-04   -0.18403E-04 11171   0.216E-02    0.350E-02
RMM:   6    -0.710381082238E+03    0.15842E-04   -0.14797E-04 10109   0.199E-02    0.266E-02
RMM:   7    -0.710381080832E+03    0.14063E-05   -0.63325E-05  8196   0.133E-02
  17 F= -.71038108E+03 E0= -.71037593E+03  d E =-.106127E-02
       N       E                     dE             d eps       ncg     rms          rms(c)
DAV:   1    -0.710380902782E+03    0.17946E-03   -0.42105E-02 11616   0.305E-01    0.386E-02
RMM:   2    -0.710381046837E+03   -0.14406E-03   -0.15239E-03 13451   0.804E-02    0.116E-02
RMM:   3    -0.710381079361E+03   -0.32524E-04   -0.34207E-04 13840   0.328E-02    0.102E-02
RMM:   4    -0.710381081867E+03   -0.25059E-05   -0.39399E-05  7464   0.137E-02
  18 F= -.71038108E+03 E0= -.71037593E+03  d E =-.106230E-02
       N       E                     dE             d eps       ncg     rms          rms(c)
DAV:   1    -0.710381040830E+03    0.38531E-04   -0.11251E-02 10872   0.158E-01    0.211E-02
RMM:   2    -0.710381083073E+03   -0.42243E-04   -0.42164E-04 12992   0.440E-02    0.212E-02
RMM:   3    -0.710381090143E+03   -0.70703E-05   -0.10779E-04 10086   0.220E-02    0.170E-02
RMM:   4    -0.710381089947E+03    0.19573E-06   -0.27062E-05  6884   0.111E-02
  19 F= -.71038109E+03 E0= -.71037594E+03  d E =-.107038E-02
       N       E                     dE             d eps       ncg     rms          rms(c)
DAV:   1    -0.710378984387E+03    0.21058E-02   -0.72868E-01 11168   0.128E+00    0.133E-01
RMM:   2    -0.710381153225E+03   -0.21688E-02   -0.22863E-02 12949   0.328E-01    0.479E-02
RMM:   3    -0.710381733406E+03   -0.58018E-03   -0.59542E-03 15049   0.138E-01    0.522E-02
RMM:   4    -0.710381772545E+03   -0.39139E-04   -0.68320E-04 15038   0.463E-02    0.425E-02
RMM:   5    -0.710381766085E+03    0.64602E-05   -0.13694E-04 10768   0.197E-02    0.356E-02
RMM:   6    -0.710381748192E+03    0.17893E-04   -0.10822E-04  9904   0.170E-02    0.238E-02
RMM:   7    -0.710381747352E+03    0.83941E-06   -0.48795E-05  7770   0.120E-02
  20 F= -.71038175E+03 E0= -.71037664E+03  d E =-.657405E-03
       N       E                     dE             d eps       ncg     rms          rms(c)
DAV:   1    -0.710381679114E+03    0.69078E-04   -0.15576E-02 12096   0.188E-01    0.243E-02
RMM:   2    -0.710381731414E+03   -0.52300E-04   -0.55611E-04 13252   0.497E-02    0.114E-02
RMM:   3    -0.710381746271E+03   -0.14857E-04   -0.13967E-04 10963   0.236E-02    0.217E-02
RMM:   4    -0.710381743964E+03    0.23071E-05   -0.27906E-05  6606   0.130E-02
  21 F= -.71038174E+03 E0= -.71037664E+03  d E =-.654017E-03
       N       E                     dE             d eps       ncg     rms          rms(c)
DAV:   1    -0.710381723625E+03    0.22646E-04   -0.54805E-03 11088   0.111E-01    0.141E-02
RMM:   2    -0.710381742152E+03   -0.18527E-04   -0.19317E-04 12423   0.291E-02    0.491E-03
RMM:   3    -0.710381746339E+03   -0.41864E-05   -0.42718E-05  7668   0.126E-02
  22 F= -.71038175E+03 E0= -.71037664E+03  d E =-.656391E-03
       N       E                     dE             d eps       ncg     rms          rms(c)
DAV:   1    -0.710381740321E+03    0.18313E-05   -0.13384E-03 11584   0.568E-02    0.787E-03
RMM:   2    -0.710381745345E+03   -0.50240E-05   -0.52309E-05  8142   0.158E-02
  23 F= -.71038175E+03 E0= -.71037664E+03  d E =-.655398E-03
       N       E                     dE             d eps       ncg     rms          rms(c)
DAV:   1    -0.710381745494E+03   -0.51727E-05   -0.42233E-04 11720   0.351E-02    0.678E-03
RMM:   2    -0.710381749458E+03   -0.39643E-05   -0.15481E-05  5979   0.901E-03
  24 F= -.71038175E+03 E0= -.71037665E+03  d E =-.659511E-03
       N       E                     dE             d eps       ncg     rms          rms(c)
DAV:   1    -0.710381745733E+03   -0.23967E-06   -0.11300E-04 12512   0.280E-02    0.202E-03
RMM:   2    -0.710381746435E+03   -0.70167E-06   -0.70837E-06  5488   0.557E-03
  25 F= -.71038175E+03 E0= -.71037664E+03  d E =-.656488E-03
       N       E                     dE             d eps       ncg     rms          rms(c)
DAV:   1    -0.710380687865E+03    0.10579E-02   -0.38416E-01 11024   0.920E-01    0.955E-02
RMM:   2    -0.710381856289E+03   -0.11684E-02   -0.12316E-02 12951   0.234E-01    0.323E-02
RMM:   3    -0.710382140680E+03   -0.28439E-03   -0.29899E-03 15250   0.965E-02    0.438E-02
RMM:   4    -0.710382160648E+03   -0.19968E-04   -0.34905E-04 13115   0.352E-02    0.336E-02
RMM:   5    -0.710382153361E+03    0.72866E-05   -0.91575E-05  9765   0.179E-02
  26 F= -.71038215E+03 E0= -.71037707E+03  d E =-.406926E-03
       N       E                     dE             d eps       ncg     rms          rms(c)
DAV:   1    -0.710382145209E+03    0.15438E-04   -0.52211E-05  9464   0.316E-02    0.112E-02
RMM:   2    -0.710382147934E+03   -0.27247E-05   -0.25805E-05  6691   0.104E-02
  27 F= -.71038215E+03 E0= -.71037707E+03  d E =-.401499E-03
       N       E                     dE             d eps       ncg     rms          rms(c)
DAV:   1    -0.710381835752E+03    0.30946E-03   -0.12780E-01 11048   0.542E-01    0.558E-02
RMM:   2    -0.710382264769E+03   -0.42902E-03   -0.45181E-03 13485   0.144E-01    0.187E-02
RMM:   3    -0.710382356708E+03   -0.91940E-04   -0.98921E-04 14971   0.560E-02    0.203E-02
RMM:   4    -0.710382364928E+03   -0.82191E-05   -0.12468E-04 11125   0.208E-02    0.188E-02
RMM:   5    -0.710382360555E+03    0.43721E-05   -0.30986E-05  6920   0.130E-02
  28 F= -.71038236E+03 E0= -.71037727E+03  d E =-.212621E-03
       N       E                     dE             d eps       ncg     rms          rms(c)
DAV:   1    -0.710382358447E+03    0.64809E-05   -0.23302E-03 13208   0.814E-02    0.120E-02
RMM:   2    -0.710382366952E+03   -0.85054E-05   -0.95024E-05 11782   0.234E-02
  29 F= -.71038237E+03 E0= -.71037728E+03  d E =-.219018E-03
       N       E                     dE             d eps       ncg     rms          rms(c)
DAV:   1    -0.710382361552E+03   -0.31050E-05   -0.10573E-03 12248   0.572E-02    0.100E-02
RMM:   2    -0.710382370644E+03   -0.90922E-05   -0.43052E-05  7274   0.149E-02
  30 F= -.71038237E+03 E0= -.71037728E+03  d E =-.222710E-03
       N       E                     dE             d eps       ncg     rms          rms(c)
DAV:   1    -0.710382364879E+03   -0.33272E-05   -0.39748E-04 12304   0.446E-02    0.426E-03
RMM:   2    -0.710382366815E+03   -0.19363E-05   -0.21201E-05  6085   0.877E-03
  31 F= -.71038237E+03 E0= -.71037728E+03  d E =-.218881E-03
       N       E                     dE             d eps       ncg     rms          rms(c)
DAV:   1    -0.710382130281E+03    0.23460E-03   -0.10810E-01 11208   0.502E-01    0.467E-02
RMM:   2    -0.710382460399E+03   -0.33012E-03   -0.34253E-03 13249   0.130E-01    0.242E-02
RMM:   3    -0.710382561195E+03   -0.10080E-03   -0.90478E-04 13839   0.596E-02    0.500E-02
RMM:   4    -0.710382551822E+03    0.93733E-05   -0.14746E-04 11129   0.238E-02    0.165E-02
RMM:   5    -0.710382551168E+03    0.65377E-06   -0.30109E-05  6712   0.114E-02
  32 F= -.71038255E+03 E0= -.71037747E+03  d E =-.184353E-03
       N       E                     dE             d eps       ncg     rms          rms(c)
DAV:   1    -0.710382554003E+03   -0.21813E-05   -0.39231E-03 12032   0.970E-02    0.124E-02
RMM:   2    -0.710382568885E+03   -0.14881E-04   -0.14170E-04 12323   0.294E-02    0.183E-02
RMM:   3    -0.710382569317E+03   -0.43218E-06   -0.41565E-05  7423   0.143E-02
  33 F= -.71038257E+03 E0= -.71037749E+03  d E =-.202502E-03
       N       E                     dE             d eps       ncg     rms          rms(c)
DAV:   1    -0.710382572405E+03   -0.35200E-05   -0.83999E-04 12104   0.497E-02    0.578E-03
RMM:   2    -0.710382577680E+03   -0.52749E-05   -0.61428E-05  9626   0.205E-02
  34 F= -.71038258E+03 E0= -.71037750E+03  d E =-.210865E-03
       N       E                     dE             d eps       ncg     rms          rms(c)
DAV:   1    -0.710382525771E+03    0.46634E-04   -0.36328E-02 10896   0.290E-01    0.291E-02
RMM:   2    -0.710382654330E+03   -0.12856E-03   -0.13148E-03 13371   0.816E-02    0.297E-02
RMM:   3    -0.710382684559E+03   -0.30228E-04   -0.35775E-04 12643   0.390E-02    0.270E-02
RMM:   4    -0.710382683507E+03    0.10517E-05   -0.71768E-05  8767   0.172E-02
  35 F= -.71038268E+03 E0= -.71037760E+03  d E =-.105828E-03
       N       E                     dE             d eps       ncg     rms          rms(c)
DAV:   1    -0.710382687980E+03   -0.34210E-05   -0.59218E-04 12408   0.386E-02    0.783E-03
RMM:   2    -0.710382689305E+03   -0.13250E-05   -0.26292E-05  6954   0.123E-02
  36 F= -.71038269E+03 E0= -.71037761E+03  d E =-.111625E-03
       N       E                     dE             d eps       ncg     rms          rms(c)
DAV:   1    -0.710382688783E+03   -0.80342E-06   -0.21608E-03 11528   0.720E-02    0.750E-03
RMM:   2    -0.710382697354E+03   -0.85704E-05   -0.93586E-05 11382   0.215E-02
  37 F= -.71038270E+03 E0= -.71037761E+03  d E =-.119674E-03
       N       E                     dE             d eps       ncg     rms          rms(c)
DAV:   1    -0.710382693849E+03   -0.50660E-05   -0.35462E-04 10200   0.296E-02    0.682E-03
RMM:   2    -0.710382696403E+03   -0.25539E-05   -0.17283E-05  5839   0.109E-02
  38 F= -.71038270E+03 E0= -.71037761E+03  d E =-.118724E-03
       N       E                     dE             d eps       ncg     rms          rms(c)
DAV:   1    -0.710382696948E+03   -0.30989E-05   -0.19270E-04 12432   0.273E-02    0.324E-03
RMM:   2    -0.710382698227E+03   -0.12788E-05   -0.97004E-06  5580   0.717E-03
  39 F= -.71038270E+03 E0= -.71037761E+03  d E =-.120548E-03
       N       E                     dE             d eps       ncg     rms          rms(c)
DAV:   1    -0.710382680188E+03    0.16760E-04   -0.21406E-02 11296   0.224E-01    0.208E-02
RMM:   2    -0.710382746186E+03   -0.65998E-04   -0.68467E-04 13012   0.599E-02    0.114E-02
RMM:   3    -0.710382766431E+03   -0.20245E-04   -0.18994E-04 11286   0.281E-02    0.219E-02
RMM:   4    -0.710382765186E+03    0.12445E-05   -0.38702E-05  7096   0.151E-02
  40 F= -.71038277E+03 E0= -.71037768E+03  d E =-.669592E-04
       N       E                     dE             d eps       ncg     rms          rms(c)
DAV:   1    -0.710382768317E+03   -0.18862E-05   -0.83686E-03 11760   0.139E-01    0.122E-02
RMM:   2    -0.710382792616E+03   -0.24298E-04   -0.26424E-04 12854   0.370E-02    0.679E-03
RMM:   3    -0.710382797770E+03   -0.51549E-05   -0.67482E-05  9344   0.156E-02
  41 F= -.71038280E+03 E0= -.71037771E+03  d E =-.995434E-04
       N       E                     dE             d eps       ncg     rms          rms(c)
DAV:   1    -0.710382715697E+03    0.76919E-04   -0.32880E-02 11312   0.277E-01    0.249E-02
RMM:   2    -0.710382818157E+03   -0.10246E-03   -0.10667E-03 13078   0.749E-02    0.112E-02
RMM:   3    -0.710382847451E+03   -0.29295E-04   -0.30094E-04 12952   0.319E-02    0.136E-02
RMM:   4    -0.710382849466E+03   -0.20144E-05   -0.45529E-05  7994   0.162E-02
  42 F= -.71038285E+03 E0= -.71037776E+03  d E =-.151239E-03
       N       E                     dE             d eps       ncg     rms          rms(c)
DAV:   1    -0.710382814105E+03    0.33346E-04   -0.32807E-02 11416   0.275E-01    0.266E-02
RMM:   2    -0.710382918007E+03   -0.10390E-03   -0.10757E-03 13041   0.738E-02    0.262E-02
RMM:   3    -0.710382943636E+03   -0.25629E-04   -0.30181E-04 12227   0.355E-02    0.250E-02
RMM:   4    -0.710382942781E+03    0.85446E-06   -0.61651E-05  8515   0.166E-02
  43 F= -.71038294E+03 E0= -.71037785E+03  d E =-.933154E-04
