Ga8 O12                                 
    1.000000000000000     
     0.0000000000000000   12.2804737091000007    0.0000000000000000
     9.1427011490000005    0.0000000000000000    0.0000000000000000
     0.0000000000000000   -2.7682616411000001  -11.3006974810000003
   Ga   O    N    Fe
    47    71     1     1
Direct
  0.6579490706173274  0.9993851554708471  0.1563572088985694
  0.6568315342986750  0.9979155490667253  0.6576737701336555
  0.6588862311551793  0.3342754153742433  0.1556226291971328
  0.6581414355713449  0.3352274226964198  0.6580301372452908
  0.6592546918247209  0.6669378736738878  0.1572153422482074
  0.6587881200023702  0.6668735956854945  0.6558246841966238
  0.8415837158088237  0.1663875929395076  0.3427364471357564
  0.8406886957796331  0.1665831381708145  0.8428096885060796
  0.8409575898681751  0.5002299660519753  0.3431865601373261
  0.8409906379974714  0.5002964304254576  0.8435040277566515
  0.8409131597112278  0.8335788974091827  0.3434465878454347
  0.8408126063891785  0.8332891321950839  0.8433582784199558
  0.5904318095019150  0.1668864296986854  0.8974791145440548
  0.5915342536268469  0.4976894940612269  0.3973618474181251
  0.5907659846459126  0.5004962358023306  0.8977376409981304
  0.5910232884774871  0.8392268600709727  0.3974911034523458
  0.5908216845907006  0.8332633000091931  0.8980615064516329
  0.9088014238338502  0.9998565267183110  0.1022715119386604
  0.9088421547082888  0.0000473003232315  0.6021827042748811
  0.9090763479470354  0.3332356015872548  0.1021808055550864
  0.9086489127816151  0.3332254884038619  0.6017594126455990
  0.9092170416269312  0.6666201308111255  0.1024509642984341
  0.9085860620502189  0.6666845323807351  0.6024771555037702
  0.1588247605840891  0.1656501414684186  0.1561459504421734
  0.1591732509688129  0.1665835338305541  0.6565093996399867
  0.1597752223466742  0.4995953913121625  0.1575218354275449
  0.1586151125814013  0.5000112351699002  0.6566992660834927
  0.1596028560816052  0.8334287485644580  0.1578262233894705
  0.1586155831972533  0.8331712487992107  0.6567274848271722
  0.3440478848251090  0.0019960786357700  0.3436037934320169
  0.3407576364416656  0.0004365379988798  0.8435687007954229
  0.3419356700224085  0.3291046154254857  0.3442535537014777
  0.3406353070556207  0.3329909613888304  0.8434211741346331
  0.3433426138522861  0.6661430242680879  0.3431147005711352
  0.3404662347774874  0.6666937971364746  0.8429906539587222
  0.0920885338761934  0.9999299954341936  0.3974625029309422
  0.0907428849452998  0.9998017728320718  0.8974368673959745
  0.0919006543874090  0.3331196792977948  0.3976018496436211
  0.0909477416134195  0.3332588007002073  0.8977332250131411
  0.0907881730610640  0.6665925820096916  0.3972990770848313
  0.0910958140648574  0.6667075239106097  0.8982231919705512
  0.4098581211283943  0.1665198742986647  0.1036657968734644
  0.4083421885881364  0.1660045675766355  0.6011798040480798
  0.4085494061448287  0.5006225868908629  0.1017359734618353
  0.4085378928070895  0.5001094765833756  0.6026793765607934
  0.4084982019927850  0.8328320897573747  0.1015727231738666
  0.4083742461875062  0.8325636744751179  0.6026156945519148
  0.9963130058616372  0.1665101928311685  0.1272926496867228
  0.9962362589287181  0.1667932337666045  0.6269343026500138
  0.9965878749454049  0.4997889542334164  0.1275967546941388
  0.9958306908011707  0.4998181291265382  0.6268159622925964
  0.9963950944623292  0.8333590251989520  0.1272499641585298
  0.9959844791561352  0.8333549551544337  0.6272171736967351
  0.5085205194388536  0.0115871120464988  0.3751216489775828
  0.5034924953792270  0.9998889544916167  0.8731412238844669
  0.5034026566838818  0.3338255678721609  0.8726346138697991
  0.5061982410865724  0.6682643197727103  0.3730478342159103
  0.5032291832299123  0.6668766263982064  0.8728807678962056
  0.6692642283588057  0.1641858018562843  0.2783006012251263
  0.6719411631280749  0.1670362330693536  0.7801891174109699
  0.6735744981524476  0.5011094371449829  0.2795720237652688
  0.6725091080264249  0.5002436446474192  0.7808306855240161
  0.6727915076380810  0.8336637436323429  0.2803504393962442
  0.6723893961147809  0.8329980711603895  0.7808715954674028
  0.8272392680687233  0.0011069810695759  0.2196105175359833
  0.8261349149079891  0.0011946835394099  0.7183882171674725
  0.8272779123666538  0.3321513816726238  0.2195018433687395
  0.8265138847010078  0.3324627632514492  0.7184829097308238
  0.8280779275700851  0.6670649967994606  0.2197357306118732
  0.8273067856368712  0.6669176676929922  0.7197693888595111
  0.8313252152927504  0.0008567108348672  0.4456409234565939
  0.8320714255546875  0.0000871176315798  0.9454777522368687
  0.8300565003976601  0.3323435238553074  0.4452359540223725
  0.8322904494001193  0.3332997002904392  0.9454624783525247
  0.8323576025375488  0.6667343582840815  0.4458367407491934
  0.8322354690932130  0.6667011310280202  0.9459058068068842
  0.6677011326540878  0.1669572969663022  0.0539141704232691
  0.6605066488692373  0.1652279443762339  0.5536192184100699
  0.6684513968112213  0.5005723482003361  0.0538657649199976
  0.6686131638969997  0.5005678695158053  0.5549058169929637
  0.6684486548102768  0.8332462085233772  0.0542896976307574
  0.6675807693672837  0.8337344971703899  0.5544192456470611
  0.4958475703943392  0.9989877421463405  0.1261166825619782
  0.4951247558106289  0.9992250630395887  0.6292057106450102
  0.4963880359992672  0.3343150991433035  0.1275282252131120
  0.4956701917193982  0.3331979439188970  0.6268225793061362
  0.4964679014335829  0.6667000382838779  0.1263161111478226
  0.4963319374469890  0.6663470240965665  0.6282211623768177
  0.0041652106723404  0.1666219044890482  0.3731269328757136
  0.0033657843824102  0.1666265058560938  0.8724768031329262
  0.0035518531917731  0.4993842349621715  0.3728680553926154
  0.0034865070654178  0.5000156677520096  0.8725324795024108
  0.0036213898980151  0.8336421379288907  0.3728725737799081
  0.0032599053976483  0.8331529128584307  0.8721853188712529
  0.1729480530315328  0.9986676760292212  0.2802055807563590
  0.1723688004674173  0.0003033013851663  0.7804763412977920
  0.1733435165305082  0.3333508643181631  0.2805487991438795
  0.1722301761385339  0.3332206487968890  0.7804380595571132
  0.1736457817764006  0.6663825898967630  0.2812039050745909
  0.1717802291259716  0.6664888019965289  0.7802455324354653
  0.3255913907275811  0.1641784836135258  0.2179144239877999
  0.3275136035717168  0.1668675562191666  0.7196473997176227
  0.3286447543226956  0.4998106345617614  0.2199016963304885
  0.3270312361136902  0.5000802760801051  0.7195658466515056
  0.3291666467722081  0.8337708732301223  0.2203182366689092
  0.3268266736295544  0.8329157515244958  0.7195536196489130
  0.3260295619242868  0.1640499260803026  0.4466955204103940
  0.3328582525106683  0.1669281936924136  0.9465390358220276
  0.3344431031499084  0.4991981339247715  0.4454149757509356
  0.3314991432135983  0.5000687404843447  0.9453894390802233
  0.3354589534952623  0.8339108838068157  0.4449947280389495
  0.3312479148469407  0.8331405837050028  0.9452593057790537
  0.1673374450937715  0.9990143473378126  0.0538033513959348
  0.1674486316989530  0.9993469479279540  0.5545062689724816
  0.1676280840125273  0.3332702869423088  0.0543032589539720
  0.1678152952031127  0.3337365600558968  0.5544320903316375
  0.1681379481823981  0.6666462918639979  0.0548752660713205
  0.1679369644946647  0.6665635901201696  0.5539335894464301
  0.5073735775176331  0.3186903427658976  0.3734149328473961
  0.5985012513614407  0.1785702492684607  0.3992286773747793
 
  0.00000000E+00  0.00000000E+00  0.00000000E+00
  0.00000000E+00  0.00000000E+00  0.00000000E+00
  0.00000000E+00  0.00000000E+00  0.00000000E+00
  0.00000000E+00  0.00000000E+00  0.00000000E+00
  0.00000000E+00  0.00000000E+00  0.00000000E+00
  0.00000000E+00  0.00000000E+00  0.00000000E+00
  0.00000000E+00  0.00000000E+00  0.00000000E+00
  0.00000000E+00  0.00000000E+00  0.00000000E+00
  0.00000000E+00  0.00000000E+00  0.00000000E+00
  0.00000000E+00  0.00000000E+00  0.00000000E+00
  0.00000000E+00  0.00000000E+00  0.00000000E+00
  0.00000000E+00  0.00000000E+00  0.00000000E+00
  0.00000000E+00  0.00000000E+00  0.00000000E+00
  0.00000000E+00  0.00000000E+00  0.00000000E+00
  0.00000000E+00  0.00000000E+00  0.00000000E+00
  0.00000000E+00  0.00000000E+00  0.00000000E+00
  0.00000000E+00  0.00000000E+00  0.00000000E+00
  0.00000000E+00  0.00000000E+00  0.00000000E+00
  0.00000000E+00  0.00000000E+00  0.00000000E+00
  0.00000000E+00  0.00000000E+00  0.00000000E+00
  0.00000000E+00  0.00000000E+00  0.00000000E+00
  0.00000000E+00  0.00000000E+00  0.00000000E+00
  0.00000000E+00  0.00000000E+00  0.00000000E+00
  0.00000000E+00  0.00000000E+00  0.00000000E+00
  0.00000000E+00  0.00000000E+00  0.00000000E+00
  0.00000000E+00  0.00000000E+00  0.00000000E+00
  0.00000000E+00  0.00000000E+00  0.00000000E+00
  0.00000000E+00  0.00000000E+00  0.00000000E+00
  0.00000000E+00  0.00000000E+00  0.00000000E+00
  0.00000000E+00  0.00000000E+00  0.00000000E+00
  0.00000000E+00  0.00000000E+00  0.00000000E+00
  0.00000000E+00  0.00000000E+00  0.00000000E+00
  0.00000000E+00  0.00000000E+00  0.00000000E+00
  0.00000000E+00  0.00000000E+00  0.00000000E+00
  0.00000000E+00  0.00000000E+00  0.00000000E+00
  0.00000000E+00  0.00000000E+00  0.00000000E+00
  0.00000000E+00  0.00000000E+00  0.00000000E+00
  0.00000000E+00  0.00000000E+00  0.00000000E+00
  0.00000000E+00  0.00000000E+00  0.00000000E+00
  0.00000000E+00  0.00000000E+00  0.00000000E+00
  0.00000000E+00  0.00000000E+00  0.00000000E+00
  0.00000000E+00  0.00000000E+00  0.00000000E+00
  0.00000000E+00  0.00000000E+00  0.00000000E+00
  0.00000000E+00  0.00000000E+00  0.00000000E+00
  0.00000000E+00  0.00000000E+00  0.00000000E+00
  0.00000000E+00  0.00000000E+00  0.00000000E+00
  0.00000000E+00  0.00000000E+00  0.00000000E+00
  0.00000000E+00  0.00000000E+00  0.00000000E+00
  0.00000000E+00  0.00000000E+00  0.00000000E+00
  0.00000000E+00  0.00000000E+00  0.00000000E+00
  0.00000000E+00  0.00000000E+00  0.00000000E+00
  0.00000000E+00  0.00000000E+00  0.00000000E+00
  0.00000000E+00  0.00000000E+00  0.00000000E+00
  0.00000000E+00  0.00000000E+00  0.00000000E+00
  0.00000000E+00  0.00000000E+00  0.00000000E+00
  0.00000000E+00  0.00000000E+00  0.00000000E+00
  0.00000000E+00  0.00000000E+00  0.00000000E+00
  0.00000000E+00  0.00000000E+00  0.00000000E+00
  0.00000000E+00  0.00000000E+00  0.00000000E+00
  0.00000000E+00  0.00000000E+00  0.00000000E+00
  0.00000000E+00  0.00000000E+00  0.00000000E+00
  0.00000000E+00  0.00000000E+00  0.00000000E+00
  0.00000000E+00  0.00000000E+00  0.00000000E+00
  0.00000000E+00  0.00000000E+00  0.00000000E+00
  0.00000000E+00  0.00000000E+00  0.00000000E+00
  0.00000000E+00  0.00000000E+00  0.00000000E+00
  0.00000000E+00  0.00000000E+00  0.00000000E+00
  0.00000000E+00  0.00000000E+00  0.00000000E+00
  0.00000000E+00  0.00000000E+00  0.00000000E+00
  0.00000000E+00  0.00000000E+00  0.00000000E+00
  0.00000000E+00  0.00000000E+00  0.00000000E+00
  0.00000000E+00  0.00000000E+00  0.00000000E+00
  0.00000000E+00  0.00000000E+00  0.00000000E+00
  0.00000000E+00  0.00000000E+00  0.00000000E+00
  0.00000000E+00  0.00000000E+00  0.00000000E+00
  0.00000000E+00  0.00000000E+00  0.00000000E+00
  0.00000000E+00  0.00000000E+00  0.00000000E+00
  0.00000000E+00  0.00000000E+00  0.00000000E+00
  0.00000000E+00  0.00000000E+00  0.00000000E+00
  0.00000000E+00  0.00000000E+00  0.00000000E+00
  0.00000000E+00  0.00000000E+00  0.00000000E+00
  0.00000000E+00  0.00000000E+00  0.00000000E+00
  0.00000000E+00  0.00000000E+00  0.00000000E+00
  0.00000000E+00  0.00000000E+00  0.00000000E+00
  0.00000000E+00  0.00000000E+00  0.00000000E+00
  0.00000000E+00  0.00000000E+00  0.00000000E+00
  0.00000000E+00  0.00000000E+00  0.00000000E+00
  0.00000000E+00  0.00000000E+00  0.00000000E+00
  0.00000000E+00  0.00000000E+00  0.00000000E+00
  0.00000000E+00  0.00000000E+00  0.00000000E+00
  0.00000000E+00  0.00000000E+00  0.00000000E+00
  0.00000000E+00  0.00000000E+00  0.00000000E+00
  0.00000000E+00  0.00000000E+00  0.00000000E+00
  0.00000000E+00  0.00000000E+00  0.00000000E+00
  0.00000000E+00  0.00000000E+00  0.00000000E+00
  0.00000000E+00  0.00000000E+00  0.00000000E+00
  0.00000000E+00  0.00000000E+00  0.00000000E+00
  0.00000000E+00  0.00000000E+00  0.00000000E+00
  0.00000000E+00  0.00000000E+00  0.00000000E+00
  0.00000000E+00  0.00000000E+00  0.00000000E+00
  0.00000000E+00  0.00000000E+00  0.00000000E+00
  0.00000000E+00  0.00000000E+00  0.00000000E+00
  0.00000000E+00  0.00000000E+00  0.00000000E+00
  0.00000000E+00  0.00000000E+00  0.00000000E+00
  0.00000000E+00  0.00000000E+00  0.00000000E+00
  0.00000000E+00  0.00000000E+00  0.00000000E+00
  0.00000000E+00  0.00000000E+00  0.00000000E+00
  0.00000000E+00  0.00000000E+00  0.00000000E+00
  0.00000000E+00  0.00000000E+00  0.00000000E+00
  0.00000000E+00  0.00000000E+00  0.00000000E+00
  0.00000000E+00  0.00000000E+00  0.00000000E+00
  0.00000000E+00  0.00000000E+00  0.00000000E+00
  0.00000000E+00  0.00000000E+00  0.00000000E+00
  0.00000000E+00  0.00000000E+00  0.00000000E+00
  0.00000000E+00  0.00000000E+00  0.00000000E+00
  0.00000000E+00  0.00000000E+00  0.00000000E+00
  0.00000000E+00  0.00000000E+00  0.00000000E+00
  0.00000000E+00  0.00000000E+00  0.00000000E+00
  0.00000000E+00  0.00000000E+00  0.00000000E+00
  0.00000000E+00  0.00000000E+00  0.00000000E+00
