Ga48 O72                                
    1.000000000000000     
     0.0000000000000000   12.2804734172212839    0.0000000000000000
     9.1427020537309431    0.0000000000000000    0.0000000000000000
     0.0000000000000000   -2.7682617730220320  -11.3006977184464645
   Ga   O    P 
    48    71     1
Direct
  0.6589159916029601  0.0000000000000000  0.1559714153965501
  0.6594187939819065  0.0000000000000000  0.6560213379878235
  0.6587403050569733  0.3339269151464705  0.1562886505907883
  0.6581543322174710  0.3333763279925464  0.6561708450014549
  0.6587403050569733  0.6660730848535295  0.1562886505907883
  0.6581543322174710  0.6666236720074536  0.6561708450014549
  0.8367562550381251  0.1679904913032715  0.3427087894571699
  0.8399972849064596  0.1672295347880208  0.8421759546457537
  0.8400912637120967  0.5000000000000000  0.3427053281733379
  0.8403163118639512  0.5000000000000000  0.8430310191437016
  0.8367562550381251  0.8320095086967285  0.3427087894571699
  0.8399972849064596  0.8327704652119792  0.8421759546457537
  0.5898455552574760  0.1671590493729482  0.3977928610458861
  0.5920911073787636  0.1665560877035261  0.8980113597553583
  0.5907569781629434  0.5000000000000000  0.3978933760345384
  0.5947671575529299  0.5000000000000000  0.8990711357107344
  0.5898455552574760  0.8328409506270518  0.3977928610458861
  0.5920911073787636  0.8334439122964739  0.8980113597553583
  0.9060756061221866  0.0000000000000000  0.0995675757958523
  0.9095240620838894  0.0000000000000000  0.6016491505214461
  0.9077652034099088  0.3329261960879535  0.1026479206078648
  0.9076753806449389  0.3335962154319461  0.6017972854181508
  0.9077652034099088  0.6670738039120465  0.1026479206078648
  0.9076753806449389  0.6664037845680539  0.6017972854181508
  0.1587495919656874  0.1663323985995646  0.1525042799318186
  0.1609805159189932  0.1779396858695605  0.6631916317797888
  0.1572667976128059  0.5000000000000000  0.1589598913515928
  0.1587960463044453  0.5000000000000000  0.6589083963964697
  0.1587495919656874  0.8336676014004354  0.1525042799318186
  0.1609805159189932  0.8220603141304395  0.6631916317797888
  0.3412167938220421  0.0000000000000000  0.3398332587182082
  0.3423968652955622  0.0000000000000000  0.8475653524668374
  0.3399493105155216  0.3345492670501145  0.3433718125050049
  0.3451390494926940  0.3345458444878560  0.8476106639693910
  0.3399493105155216  0.6654507329498855  0.3433718125050049
  0.3451390494926940  0.6654541555121440  0.8476106639693910
  0.0758291600957293  0.0000000000000000  0.3722985385968585
  0.0896034294439261  0.0000000000000000  0.8955587729945336
  0.0899438422769876  0.3330512100582510  0.3991053919187877
  0.0894763746366394  0.3334748283550226  0.8987584128625059
  0.0899438422769876  0.6669487899417561  0.3991053919187877
  0.0894763746366394  0.6665251716449774  0.8987584128625059
  0.4104288316238538  0.1668573282448520  0.1042549653683835
  0.4091624383725190  0.1659279705217571  0.6062516257683086
  0.4092333291659784  0.5000000000000000  0.1047170343394370
  0.4078787358851841  0.5000000000000000  0.6038310971049938
  0.4104288316238538  0.8331426717551480  0.1042549653683835
  0.4091624383725190  0.8340720294782429  0.6062516257683086
  0.9952202355530346  0.1658402113102397  0.1238077301254705
  0.9966011533476404  0.1673230033508659  0.6259110036593256
  0.9951369076432144  0.5000000000000000  0.1274448783896673
  0.9952991089912828  0.5000000000000000  0.6288973026261715
  0.9952202355530346  0.8341597886897603  0.1238077301254705
  0.9966011533476404  0.8326769966491341  0.6259110036593256
  0.5034122666548697  0.0000000000000000  0.3723332496704259
  0.5049806749199490  0.0000000000000000  0.8759190852806356
  0.5026585895369990  0.3337767670005150  0.3727097895725393
  0.5071492546377243  0.3347145587884057  0.8767235705069183
  0.5026585895369990  0.6662232329994850  0.3727097895725393
  0.5071492546377243  0.6652854412115943  0.8767235705069183
  0.6709734245299757  0.1666472128528298  0.2802740055054329
  0.6721208559849146  0.1668127995673814  0.7797514584615044
  0.6715971323057417  0.5000000000000000  0.2806492840860244
  0.6728807356584454  0.5000000000000000  0.7797766266890918
  0.6709734245299757  0.8333527871471702  0.2802740055054329
  0.6721208559849146  0.8331872004326186  0.7797514584615044
  0.8263863195528529  0.0000000000000000  0.2184577464281645
  0.8275185091994857  0.0000000000000000  0.7184164816843008
  0.8254833096584591  0.3343675898214684  0.2187563752915267
  0.8268362429592244  0.3331243617039377  0.7193076375820482
  0.8254833096584591  0.6656324101785316  0.2187563752915267
  0.8268362429592244  0.6668756382960623  0.7193076375820482
  0.8320238074660651  0.0000000000000000  0.4452982021433769
  0.8299532020240434  0.0000000000000000  0.9434383156609556
  0.8301358004950217  0.3341258609158828  0.4457768833581355
  0.8315695841254325  0.3333310583066407  0.9455222367666138
  0.8301358004950217  0.6658741390841172  0.4457768833581355
  0.8315695841254325  0.6666689416933593  0.9455222367666138
  0.6685924505366287  0.1667517114756762  0.0547060620504922
  0.6676466439853357  0.1668754876077543  0.5537921232602230
  0.6701099292319697  0.5000000000000000  0.0553830177296106
  0.6676165500488480  0.5000000000000000  0.5542462923186662
  0.6685924505366287  0.8332482885243238  0.0547060620504922
  0.6676466439853357  0.8331245123922457  0.5537921232602230
  0.4971113261244255  0.0000000000000000  0.1288922694827903
  0.4975938812657006  0.0000000000000000  0.6290031424046987
  0.4968536402589265  0.3339750082003619  0.1287703756546321
  0.4958887076124370  0.3335717406657608  0.6269933631271698
  0.4968536402589265  0.6660249917996381  0.1287703756546321
  0.4958887076124370  0.6664282593342392  0.6269933631271698
  0.9964444506376964  0.1718678003360239  0.3634592458126278
  0.0025458910408105  0.1669192586457768  0.8708281288300483
  0.0023275508972276  0.5000000000000000  0.3726106855270217
  0.0026556467111547  0.5000000000000000  0.8731293717908173
  0.9964444506376964  0.8281321996639761  0.3634592458126278
  0.0025458910408105  0.8330807413542232  0.8708281288300483
  0.1706897316349156  0.0000000000000000  0.2681157757765362
  0.1746289773860141  0.0000000000000000  0.7828116692950644
  0.1718489220083228  0.3319697629331060  0.2814621586001635
  0.1728625554082299  0.3352350081581790  0.7831647386931309
  0.1718489220083228  0.6680302370668940  0.2814621586001635
  0.1728625554082299  0.6647649918418210  0.7831647386931309
  0.3276546153302604  0.1676704270656728  0.2198730571295968
  0.3357702612151812  0.1736831098633971  0.7303157612862279
  0.3261368189528753  0.5000000000000000  0.2200867657655294
  0.3286450081321775  0.5000000000000000  0.7227751512302021
  0.3276546153302604  0.8323295729343272  0.2198730571295968
  0.3357702612151812  0.8263168901366029  0.7303157612862279
  0.3357416580516386  0.1657188731313539  0.4460210113109468
  0.3323468139014878  0.1676907739832316  0.9491849754482473
  0.3323571148385369  0.5000000000000000  0.4465043943304750
  0.3326950306208474  0.5000000000000000  0.9483045598283084
  0.3357416580516386  0.8342811268686461  0.4460210113109468
  0.3323468139014878  0.8323092260167684  0.9491849754482473
  0.1689442257616989  0.0000000000000000  0.0498049037737331
  0.1671089247845714  0.3348426150818042  0.0546364902294130
  0.1680410862011925  0.3405932925699133  0.5548284387890092
  0.1671089247845714  0.6651573849181958  0.0546364902294130
  0.1680410862011925  0.6594067074300867  0.5548284387890092
  0.2013113202407055  0.0000000000000000  0.5416800039991259
 
  0.00000000E+00  0.00000000E+00  0.00000000E+00
  0.00000000E+00  0.00000000E+00  0.00000000E+00
  0.00000000E+00  0.00000000E+00  0.00000000E+00
  0.00000000E+00  0.00000000E+00  0.00000000E+00
  0.00000000E+00  0.00000000E+00  0.00000000E+00
  0.00000000E+00  0.00000000E+00  0.00000000E+00
  0.00000000E+00  0.00000000E+00  0.00000000E+00
  0.00000000E+00  0.00000000E+00  0.00000000E+00
  0.00000000E+00  0.00000000E+00  0.00000000E+00
  0.00000000E+00  0.00000000E+00  0.00000000E+00
  0.00000000E+00  0.00000000E+00  0.00000000E+00
  0.00000000E+00  0.00000000E+00  0.00000000E+00
  0.00000000E+00  0.00000000E+00  0.00000000E+00
  0.00000000E+00  0.00000000E+00  0.00000000E+00
  0.00000000E+00  0.00000000E+00  0.00000000E+00
  0.00000000E+00  0.00000000E+00  0.00000000E+00
  0.00000000E+00  0.00000000E+00  0.00000000E+00
  0.00000000E+00  0.00000000E+00  0.00000000E+00
  0.00000000E+00  0.00000000E+00  0.00000000E+00
  0.00000000E+00  0.00000000E+00  0.00000000E+00
  0.00000000E+00  0.00000000E+00  0.00000000E+00
  0.00000000E+00  0.00000000E+00  0.00000000E+00
  0.00000000E+00  0.00000000E+00  0.00000000E+00
  0.00000000E+00  0.00000000E+00  0.00000000E+00
  0.00000000E+00  0.00000000E+00  0.00000000E+00
  0.00000000E+00  0.00000000E+00  0.00000000E+00
  0.00000000E+00  0.00000000E+00  0.00000000E+00
  0.00000000E+00  0.00000000E+00  0.00000000E+00
  0.00000000E+00  0.00000000E+00  0.00000000E+00
  0.00000000E+00  0.00000000E+00  0.00000000E+00
  0.00000000E+00  0.00000000E+00  0.00000000E+00
  0.00000000E+00  0.00000000E+00  0.00000000E+00
  0.00000000E+00  0.00000000E+00  0.00000000E+00
  0.00000000E+00  0.00000000E+00  0.00000000E+00
  0.00000000E+00  0.00000000E+00  0.00000000E+00
  0.00000000E+00  0.00000000E+00  0.00000000E+00
  0.00000000E+00  0.00000000E+00  0.00000000E+00
  0.00000000E+00  0.00000000E+00  0.00000000E+00
  0.00000000E+00  0.00000000E+00  0.00000000E+00
  0.00000000E+00  0.00000000E+00  0.00000000E+00
  0.00000000E+00  0.00000000E+00  0.00000000E+00
  0.00000000E+00  0.00000000E+00  0.00000000E+00
  0.00000000E+00  0.00000000E+00  0.00000000E+00
  0.00000000E+00  0.00000000E+00  0.00000000E+00
  0.00000000E+00  0.00000000E+00  0.00000000E+00
  0.00000000E+00  0.00000000E+00  0.00000000E+00
  0.00000000E+00  0.00000000E+00  0.00000000E+00
  0.00000000E+00  0.00000000E+00  0.00000000E+00
  0.00000000E+00  0.00000000E+00  0.00000000E+00
  0.00000000E+00  0.00000000E+00  0.00000000E+00
  0.00000000E+00  0.00000000E+00  0.00000000E+00
  0.00000000E+00  0.00000000E+00  0.00000000E+00
  0.00000000E+00  0.00000000E+00  0.00000000E+00
  0.00000000E+00  0.00000000E+00  0.00000000E+00
  0.00000000E+00  0.00000000E+00  0.00000000E+00
  0.00000000E+00  0.00000000E+00  0.00000000E+00
  0.00000000E+00  0.00000000E+00  0.00000000E+00
  0.00000000E+00  0.00000000E+00  0.00000000E+00
  0.00000000E+00  0.00000000E+00  0.00000000E+00
  0.00000000E+00  0.00000000E+00  0.00000000E+00
  0.00000000E+00  0.00000000E+00  0.00000000E+00
  0.00000000E+00  0.00000000E+00  0.00000000E+00
  0.00000000E+00  0.00000000E+00  0.00000000E+00
  0.00000000E+00  0.00000000E+00  0.00000000E+00
  0.00000000E+00  0.00000000E+00  0.00000000E+00
  0.00000000E+00  0.00000000E+00  0.00000000E+00
  0.00000000E+00  0.00000000E+00  0.00000000E+00
  0.00000000E+00  0.00000000E+00  0.00000000E+00
  0.00000000E+00  0.00000000E+00  0.00000000E+00
  0.00000000E+00  0.00000000E+00  0.00000000E+00
  0.00000000E+00  0.00000000E+00  0.00000000E+00
  0.00000000E+00  0.00000000E+00  0.00000000E+00
  0.00000000E+00  0.00000000E+00  0.00000000E+00
  0.00000000E+00  0.00000000E+00  0.00000000E+00
  0.00000000E+00  0.00000000E+00  0.00000000E+00
  0.00000000E+00  0.00000000E+00  0.00000000E+00
  0.00000000E+00  0.00000000E+00  0.00000000E+00
  0.00000000E+00  0.00000000E+00  0.00000000E+00
  0.00000000E+00  0.00000000E+00  0.00000000E+00
  0.00000000E+00  0.00000000E+00  0.00000000E+00
  0.00000000E+00  0.00000000E+00  0.00000000E+00
  0.00000000E+00  0.00000000E+00  0.00000000E+00
  0.00000000E+00  0.00000000E+00  0.00000000E+00
  0.00000000E+00  0.00000000E+00  0.00000000E+00
  0.00000000E+00  0.00000000E+00  0.00000000E+00
  0.00000000E+00  0.00000000E+00  0.00000000E+00
  0.00000000E+00  0.00000000E+00  0.00000000E+00
  0.00000000E+00  0.00000000E+00  0.00000000E+00
  0.00000000E+00  0.00000000E+00  0.00000000E+00
  0.00000000E+00  0.00000000E+00  0.00000000E+00
  0.00000000E+00  0.00000000E+00  0.00000000E+00
  0.00000000E+00  0.00000000E+00  0.00000000E+00
  0.00000000E+00  0.00000000E+00  0.00000000E+00
  0.00000000E+00  0.00000000E+00  0.00000000E+00
  0.00000000E+00  0.00000000E+00  0.00000000E+00
  0.00000000E+00  0.00000000E+00  0.00000000E+00
  0.00000000E+00  0.00000000E+00  0.00000000E+00
  0.00000000E+00  0.00000000E+00  0.00000000E+00
  0.00000000E+00  0.00000000E+00  0.00000000E+00
  0.00000000E+00  0.00000000E+00  0.00000000E+00
  0.00000000E+00  0.00000000E+00  0.00000000E+00
  0.00000000E+00  0.00000000E+00  0.00000000E+00
  0.00000000E+00  0.00000000E+00  0.00000000E+00
  0.00000000E+00  0.00000000E+00  0.00000000E+00
  0.00000000E+00  0.00000000E+00  0.00000000E+00
  0.00000000E+00  0.00000000E+00  0.00000000E+00
  0.00000000E+00  0.00000000E+00  0.00000000E+00
  0.00000000E+00  0.00000000E+00  0.00000000E+00
  0.00000000E+00  0.00000000E+00  0.00000000E+00
  0.00000000E+00  0.00000000E+00  0.00000000E+00
  0.00000000E+00  0.00000000E+00  0.00000000E+00
  0.00000000E+00  0.00000000E+00  0.00000000E+00
  0.00000000E+00  0.00000000E+00  0.00000000E+00
  0.00000000E+00  0.00000000E+00  0.00000000E+00
  0.00000000E+00  0.00000000E+00  0.00000000E+00
  0.00000000E+00  0.00000000E+00  0.00000000E+00
  0.00000000E+00  0.00000000E+00  0.00000000E+00
  0.00000000E+00  0.00000000E+00  0.00000000E+00
  0.00000000E+00  0.00000000E+00  0.00000000E+00
  0.00000000E+00  0.00000000E+00  0.00000000E+00
