<?xml version="1.0" encoding="ISO-8859-1"?>
<modeling>
 <generator>
  <i name="program" type="string">vasp </i>
  <i name="version" type="string">6.4.2  </i>
  <i name="subversion" type="string">20Jul23 (build Nov 12 2023 22:16:35) complex                          parallel </i>
  <i name="platform" type="string">LinuxNV </i>
  <i name="date" type="string">2025 05 31 </i>
  <i name="time" type="string">20:17:08 </i>
 </generator>
 <incar>
  <i type="int" name="ISTART">     1</i>
  <i type="string" name="PREC">Normal</i>
  <i type="string" name="ALGO">All</i>
  <i type="int" name="ISPIN">     1</i>
  <i type="int" name="ICHARG">     1</i>
  <i type="int" name="NELM">   500</i>
  <i type="int" name="IBRION">    -1</i>
  <i name="EDIFF">      0.00001000</i>
  <i name="EDIFFG">     -0.00500000</i>
  <i type="int" name="NSW">     0</i>
  <i type="int" name="ISIF">     2</i>
  <i type="int" name="ISYM">     0</i>
  <i name="ENCUT">    450.00000000</i>
  <i type="string" name="LREAL">Auto</i>
  <i type="logical" name="LPLANE"> T  </i>
  <i name="TIME">      0.40000000</i>
  <i type="int" name="ISMEAR">     0</i>
  <i name="SIGMA">      0.05000000</i>
  <i type="logical" name="LWAVE"> T  </i>
  <i type="logical" name="LCHARG"> T  </i>
  <i type="int" name="ICORELEVEL">     1</i>
  <i name="HFSCREEN">      0.20000000</i>
  <i type="logical" name="LHFCALC"> T  </i>
  <i type="int" name="LMAXFOCK">     4</i>
  <i name="AEXX">      0.32000000</i>
  <i type="string" name="PRECFOCK">Fast</i>
 </incar>
 <primitive_cell>
  <structure name="primitive_cell" >
   <crystal>
    <varray name="basis" >
     <v>       2.86303550       0.00000000       0.00000000 </v>
     <v>      -0.00000000       2.86303550       0.00000000 </v>
     <v>       0.00000000       0.00000000       2.86303550 </v>
    </varray>
    <i name="volume">     23.46822259 </i>
    <varray name="rec_basis" >
     <v>       0.34927964       0.00000000      -0.00000000 </v>
     <v>       0.00000000       0.34927964       0.00000000 </v>
     <v>      -0.00000000      -0.00000000       0.34927964 </v>
    </varray>
   </crystal>
   <varray name="positions" >
    <v>       0.00000000       0.00000000       0.00000000 </v>
    <v>       0.50000000       0.50000000       0.50000000 </v>
   </varray>
  </structure>
  <varray name="primitive_index" >
   <v type="int" >        1 </v>
   <v type="int" >        2 </v>
  </varray>
 </primitive_cell>
 <kpoints>
  <generation param="Gamma">
   <v type="int" name="divisions">       2        2        2 </v>
   <v name="usershift">      0.00000000       0.00000000       0.00000000 </v>
   <v name="genvec1">      0.50000000       0.00000000       0.00000000 </v>
   <v name="genvec2">      0.00000000       0.50000000       0.00000000 </v>
   <v name="genvec3">     -0.00000000       0.00000000       0.50000000 </v>
   <v name="shift">      0.00000000       0.00000000       0.00000000 </v>
  </generation>
  <varray name="kpointlist" >
   <v>       0.00000000       0.00000000       0.00000000 </v>
   <v>       0.50000000       0.00000000       0.00000000 </v>
   <v>       0.00000000       0.50000000       0.00000000 </v>
   <v>       0.00000000       0.00000000       0.50000000 </v>
   <v>       0.50000000       0.50000000       0.00000000 </v>
   <v>       0.00000000       0.50000000       0.50000000 </v>
   <v>       0.50000000       0.00000000       0.50000000 </v>
   <v>       0.50000000       0.50000000       0.50000000 </v>
  </varray>
  <varray name="weights" >
   <v>       0.12500000 </v>
   <v>       0.12500000 </v>
   <v>       0.12500000 </v>
   <v>       0.12500000 </v>
   <v>       0.12500000 </v>
   <v>       0.12500000 </v>
   <v>       0.12500000 </v>
   <v>       0.12500000 </v>
  </varray>
 </kpoints>
 <parameters>
  <separator name="general" >
   <i type="string" name="SYSTEM">unknown system</i>
   <i type="logical" name="LCOMPAT"> F  </i>
  </separator>
  <separator name="electronic" >
   <i type="string" name="PREC">normal</i>
   <i name="ENMAX">    450.00000000</i>
   <i name="ENAUG">    511.36800000</i>
   <i name="EDIFF">      0.00001000</i>
   <i type="int" name="IALGO">    58</i>
   <i type="int" name="IWAVPR">    10</i>
   <i type="int" name="NBANDS">    12</i>
   <i type="int" name="NBANDSLOW">    -1</i>
   <i type="int" name="NBANDSHIGH">    -1</i>
   <i name="NELECT">     16.00000000</i>
   <i type="int" name="TURBO">     0</i>
   <i type="int" name="IRESTART">     0</i>
   <i type="int" name="NREBOOT">     0</i>
   <i type="int" name="NMIN">     0</i>
   <i name="EREF">      0.00000000</i>
   <separator name="electronic smearing" >
    <i type="int" name="ISMEAR">     0</i>
    <i name="SIGMA">      0.05000000</i>
    <i name="KSPACING">      0.50000000</i>
    <i type="logical" name="KGAMMA"> T  </i>
    <i type="logical" name="KBLOWUP"> T  </i>
   </separator>
   <separator name="electronic projectors" >
    <i type="logical" name="LREAL"> T  </i>
    <v name="ROPT">     -0.00050000</v>
    <i type="int" name="LMAXPAW">  -100</i>
    <i type="int" name="LMAXMIX">     2</i>
    <i type="logical" name="NLSPLINE"> F  </i>
   </separator>
   <separator name="electronic startup" >
    <i type="int" name="ISTART">     1</i>
    <i type="int" name="ICHARG">     1</i>
    <i type="int" name="INIWAV">     1</i>
   </separator>
   <separator name="electronic spin" >
    <i type="int" name="ISPIN">     1</i>
    <i type="logical" name="LNONCOLLINEAR"> F  </i>
    <v name="MAGMOM">      1.00000000      1.00000000</v>
    <i name="NUPDOWN">     -1.00000000</i>
    <i type="logical" name="LSORBIT"> F  </i>
    <v name="SAXIS">      0.00000000      0.00000000      1.00000000</v>
    <i type="logical" name="LSPIRAL"> F  </i>
    <v name="QSPIRAL">      0.00000000      0.00000000      0.00000000</v>
    <i type="logical" name="LZEROZ"> F  </i>
   </separator>
   <separator name="electronic exchange-correlation" >
    <i type="logical" name="LASPH"> F  </i>
    <i type="logical" name="LMETAGGA"> F  </i>
   </separator>
   <separator name="electronic convergence" >
    <i type="int" name="NELM">   500</i>
    <i type="int" name="NELMDL">     0</i>
    <i type="int" name="NELMIN">     2</i>
    <i name="ENINI">    450.00000000</i>
    <separator name="electronic convergence detail" >
     <i type="logical" name="LDIAG"> T  </i>
     <i type="logical" name="LSUBROT"> F  </i>
     <i name="WEIMIN">      0.00000000</i>
     <i name="EBREAK">      0.00000021</i>
     <i name="DEPER">      0.30000000</i>
     <i type="int" name="NRMM">     4</i>
     <i name="TIME">      0.40000000</i>
    </separator>
   </separator>
   <separator name="electronic mixer" >
    <i name="AMIX">      0.40000000</i>
    <i name="BMIX">      1.00000000</i>
    <i name="AMIN">      0.10000000</i>
    <i name="AMIX_MAG">      1.60000000</i>
    <i name="BMIX_MAG">      1.00000000</i>
    <separator name="electronic mixer details" >
     <i type="int" name="IMIX">     4</i>
     <i type="logical" name="MIXFIRST"> F  </i>
     <i type="int" name="MAXMIX">   -45</i>
     <i name="WC">    100.00000000</i>
     <i type="int" name="INIMIX">     1</i>
     <i type="int" name="MIXPRE">     1</i>
     <i type="int" name="MREMOVE">     5</i>
    </separator>
   </separator>
   <separator name="electronic dipolcorrection" >
    <i type="logical" name="LDIPOL"> F  </i>
    <i type="logical" name="LMONO"> F  </i>
    <i type="int" name="IDIPOL">     0</i>
    <i name="EPSILON">      1.00000000</i>
    <v name="DIPOL">   -100.00000000   -100.00000000   -100.00000000</v>
    <i name="EFIELD">      0.00000000</i>
   </separator>
  </separator>
  <separator name="grids" >
   <i type="int" name="NGX">    16</i>
   <i type="int" name="NGY">    16</i>
   <i type="int" name="NGZ">    16</i>
   <i type="int" name="NGXF">    32</i>
   <i type="int" name="NGYF">    32</i>
   <i type="int" name="NGZF">    32</i>
   <i type="logical" name="ADDGRID"> F  </i>
  </separator>
  <separator name="ionic" >
   <i type="int" name="NSW">     0</i>
   <i type="int" name="IBRION">    -1</i>
   <i type="int" name="MDALGO">     0</i>
   <i type="int" name="ISIF">     2</i>
   <i name="PSTRESS">      0.00000000</i>
   <i name="EDIFFG">     -0.00500000</i>
   <i type="int" name="NFREE">     0</i>
   <i name="POTIM">      0.50000000</i>
   <i name="SMASS">     -3.00000000</i>
   <i name="SCALEE">      1.00000000</i>
  </separator>
  <separator name="ionic md" >
   <i name="TEBEG">      0.00010000</i>
   <i name="TEEND">      0.00010000</i>
   <i type="int" name="NBLOCK">     1</i>
   <i type="int" name="KBLOCK">     1</i>
   <i type="int" name="NPACO">   256</i>
   <i name="APACO">     10.00000000</i>
  </separator>
  <separator name="symmetry" >
   <i type="int" name="ISYM">     0</i>
   <i name="SYMPREC">      0.00001000</i>
  </separator>
  <separator name="dos" >
   <i type="int" name="LORBIT">     0</i>
   <v name="RWIGS">     -1.00000000</v>
   <i type="int" name="NEDOS">   301</i>
   <i name="EMIN">     10.00000000</i>
   <i name="EMAX">    -10.00000000</i>
   <i name="EFERMI">      0.00000000</i>
  </separator>
  <separator name="writing" >
   <i type="int" name="NWRITE">     2</i>
   <i type="logical" name="LWAVE"> T  </i>
   <i type="logical" name="LDOWNSAMPLE"> F  </i>
   <i type="logical" name="LCHARG"> T  </i>
   <i type="logical" name="LPARD"> F  </i>
   <i type="logical" name="LVTOT"> F  </i>
   <i type="logical" name="LVHAR"> F  </i>
   <i type="logical" name="LELF"> F  </i>
   <i type="logical" name="LOPTICS"> F  </i>
   <v name="STM">      0.00000000      0.00000000      0.00000000      0.00000000      0.00000000      0.00000000      0.00000000</v>
  </separator>
  <separator name="performance" >
   <i type="int" name="NPAR">     1</i>
   <i type="int" name="NSIM">     4</i>
   <i type="int" name="NBLK">    -1</i>
   <i type="logical" name="LPLANE"> T  </i>
   <i type="logical" name="LSCALAPACK"> T  </i>
   <i type="logical" name="LSCAAWARE"> F  </i>
   <i type="logical" name="LSCALU"> F  </i>
   <i type="logical" name="LASYNC"> F  </i>
   <i type="logical" name="LORBITALREAL"> F  </i>
  </separator>
  <separator name="miscellaneous" >
   <i type="int" name="IDIOT">     3</i>
   <i type="int" name="PHON_NSTRUCT">    -1</i>
   <i type="logical" name="LMUSIC"> F  </i>
   <v name="POMASS">     55.84700000</v>
   <v name="DARWINR">      0.00000000</v>
   <v name="DARWINV">      1.00000000</v>
   <i type="logical" name="LCORR"> T  </i>
  </separator>
  <i type="logical" name="GGA_COMPAT"> T  </i>
  <i type="logical" name="LBERRY"> F  </i>
  <i type="int" name="ICORELEVEL">     1</i>
  <i type="int" name="CLNT">     1</i>
  <i type="int" name="CLN">     1</i>
  <i type="int" name="CLL">     0</i>
  <i name="CLZ">      0.00000000</i>
  <i type="logical" name="LDAU"> F  </i>
  <i type="int" name="I_CONSTRAINED_M">     0</i>
  <separator name="electronic exchange-correlation" >
   <i type="string" name="GGA">--</i>
   <i type="int" name="VOSKOWN">     0</i>
   <i type="logical" name="LHFCALC"> T  </i>
   <i type="string" name="PRECFOCK">fast</i>
   <i type="logical" name="LSYMGRAD"> F  </i>
   <i type="logical" name="LHFONE"> F  </i>
   <i type="logical" name="LRHFCALC"> F  </i>
   <i type="logical" name="LTHOMAS"> F  </i>
   <i type="logical" name="LMODELHF"> F  </i>
   <i type="logical" name="LFOCKACE"> T  </i>
   <i name="ENCUT4O">     -1.00000000</i>
   <i type="int" name="EXXOEP">     0</i>
   <i type="int" name="FOURORBIT">     0</i>
   <i name="AEXX">      0.32000000</i>
   <i name="HFALPHA">     -1.00000000</i>
   <i name="MCALPHA">      0.00000000</i>
   <i name="ALDAX">      0.68000000</i>
   <i name="AGGAX">      0.68000000</i>
   <i name="ALDAC">      1.00000000</i>
   <i name="AGGAC">      1.00000000</i>
   <i type="int" name="NKREDX">     1</i>
   <i type="int" name="NKREDY">     1</i>
   <i type="int" name="NKREDZ">     1</i>
   <i type="logical" name="SHIFTRED"> F  </i>
   <i type="logical" name="ODDONLY"> F  </i>
   <i type="logical" name="EVENONLY"> F  </i>
   <i type="int" name="LMAXFOCK">     4</i>
   <i type="int" name="NMAXFOCKAE">     1</i>
   <i type="logical" name="LFOCKAEDFT"> F  </i>
   <i name="HFSCREEN">      0.20000000</i>
   <i name="HFSCREENC">      0.20000000</i>
   <i type="int" name="NBANDSGWLOW">     1</i>
  </separator>
  <separator name="vdW DFT" >
   <i type="logical" name="LUSE_VDW"> F  </i>
   <i type="int" name="IVDW_NL">     1</i>
   <i type="logical" name="LSPIN_VDW"> F  </i>
   <i name="Zab_VDW">     -0.84910000</i>
   <i name="PARAM1">      0.12340000</i>
   <i name="PARAM2">      1.00000000</i>
   <i name="PARAM3">      0.00000000</i>
  </separator>
  <separator name="model GW" >
   <i type="int" name="MODEL_GW">     0</i>
   <i name="MODEL_EPS0">      7.04046678</i>
   <i name="MODEL_ALPHA">      1.00000000</i>
  </separator>
  <separator name="linear response parameters" >
   <i type="logical" name="LEPSILON"> F  </i>
   <i type="logical" name="LRPA"> F  </i>
   <i type="logical" name="LNABLA"> F  </i>
   <i type="logical" name="LVEL"> F  </i>
   <i name="CSHIFT">      0.10000000</i>
   <i name="OMEGAMAX">     -1.00000000</i>
   <i name="DEG_THRESHOLD">      0.00200000</i>
   <i name="RTIME">     -0.10000000</i>
   <i name="WPLASMAI">      0.00000000</i>
   <v name="DFIELD">      0.00000000      0.00000000      0.00000000</v>
   <v name="WPLASMA">      0.00000000      0.00000000      0.00000000      0.00000000      0.00000000      0.00000000      0.00000000      0.00000000      0.00000000</v>
  </separator>
  <separator name="orbital magnetization" >
   <i type="logical" name="NUCIND"> F  </i>
   <v name="MAGPOS">      0.00000000      0.00000000      0.00000000</v>
   <i type="logical" name="LNICSALL"> T  </i>
   <i type="logical" name="ORBITALMAG"> F  </i>
   <i type="logical" name="LMAGBLOCH"> F  </i>
   <i type="logical" name="LCHIMAG"> F  </i>
   <i type="logical" name="LGAUGE"> T  </i>
   <i type="int" name="MAGATOM">     0</i>
   <v name="MAGDIPOL">      0.00000000      0.00000000      0.00000000</v>
   <v name="AVECCONST">      0.00000000      0.00000000      0.00000000</v>
  </separator>
  <separator name="response functions" >
   <i type="logical" name="LALL_IN_ONE"> F  </i>
   <i type="int" name="IALL_IN_ONE">    -1</i>
   <i type="int" name="NBANDS_WAVE">    -1</i>
   <i type="logical" name="LFINITE_TEMPERATURE"> F  </i>
   <i type="logical" name="LADDER"> F  </i>
   <i type="logical" name="LRPAFORCE"> F  </i>
   <i type="logical" name="LFXC"> F  </i>
   <i type="logical" name="LHARTREE"> T  </i>
   <i type="int" name="IBSE">     0</i>
   <v type="int" name="KPOINT">    -1     0     0     0</v>
   <i type="logical" name="LTCTC"> F  </i>
   <i type="logical" name="LTCTE"> F  </i>
   <i type="logical" name="LTETE"> F  </i>
   <i type="logical" name="LTRIPLET"> F  </i>
   <i type="logical" name="LFXCEPS"> F  </i>
   <i type="logical" name="LFXHEG"> F  </i>
   <i type="int" name="NATURALO">     2</i>
   <i type="logical" name="LHOLEGF"> F  </i>
   <i type="logical" name="L2ORDER"> F  </i>
   <i type="logical" name="LDMP1"> F  </i>
   <i type="logical" name="LMP2LT"> F  </i>
   <i type="logical" name="LSMP2LT"> F  </i>
   <i type="logical" name="LGWLF"> F  </i>
   <i name="ENCUTGW">     -1.60000002</i>
   <i name="ENCUTGWSOFT">     -1.60000002</i>
   <i name="ENCUTLF">     -1.00000000</i>
   <i type="logical" name="LESF_SPLINES"> F  </i>
   <i type="int" name="LMAXMP2">    -1</i>
   <i name="SCISSOR">      0.00000000</i>
   <i type="int" name="NOMEGA">     0</i>
   <i type="int" name="NOMEGAR">     0</i>
   <i type="int" name="NBANDSGW">    -1</i>
   <i type="int" name="NBANDSO">    -1</i>
   <i type="int" name="NBANDSV">    -1</i>
   <i type="int" name="NELMGW">     1</i>
   <i type="int" name="NELMHF">     1</i>
   <i type="int" name="DIM">     3</i>
   <i type="int" name="IESPILON">     4</i>
   <i type="int" name="ANTIRES">     0</i>
   <i name="OMEGAMAX">    -30.00000000</i>
   <i name="OMEGAMIN">    -30.00000000</i>
   <i name="OMEGATL">   -200.00000000</i>
   <i type="int" name="OMEGAGRID">     0</i>
   <i name="CSHIFT">     -0.10000000</i>
   <i type="logical" name="LSELFENERGY"> F  </i>
   <i type="logical" name="LSPECTRAL"> F  </i>
   <i type="logical" name="LSPECTRALGW"> F  </i>
   <i type="logical" name="LSINGLES"> F  </i>
   <i type="logical" name="LFERMIGW"> F  </i>
   <i type="logical" name="ODDONLYGW"> F  </i>
   <i type="logical" name="EVENONLYGW"> F  </i>
   <i type="int" name="NKREDLFX">     1</i>
   <i type="int" name="NKREDLFY">     1</i>
   <i type="int" name="NKREDLFZ">     1</i>
   <i type="int" name="MAXMEM">  2800</i>
   <i type="int" name="TELESCOPE">     0</i>
   <i type="int" name="NTAUPAR">    -1</i>
   <i type="int" name="NOMEGAPAR">    -1</i>
   <i name="DAMP_NEWTON">      0.80000001</i>
   <i name="LAMBDA">      1.00000000</i>
  </separator>
  <separator name="External order field" >
   <i name="OFIELD_KAPPA">      0.00000000</i>
   <v name="OFIELD_K">      0.00000000      0.00000000      0.00000000</v>
   <i name="OFIELD_Q6_NEAR">      0.00000000</i>
   <i name="OFIELD_Q6_FAR">      0.00000000</i>
   <i name="OFIELD_A">      0.00000000</i>
  </separator>
  <separator name="optional k-points parameters" >
   <i type="int" name="KPOINTS_OPT_MODE">     1</i>
   <i type="logical" name="LKPOINTS_OPT"> F  </i>
  </separator>
 </parameters>
 <atominfo>
  <atoms>       2 </atoms>
  <types>       1 </types>
  <array name="atoms" >
   <dimension dim="1">ion</dimension>
   <field type="string">element</field>
   <field type="int">atomtype</field>
   <set>
    <rc><c>Fe</c><c>   1</c></rc>
    <rc><c>Fe</c><c>   1</c></rc>
   </set>
  </array>
  <array name="atomtypes" >
   <dimension dim="1">type</dimension>
   <field type="int">atomspertype</field>
   <field type="string">element</field>
   <field>mass</field>
   <field>valence</field>
   <field type="string">pseudopotential</field>
   <set>
    <rc><c>   2</c><c>Fe</c><c>     55.84700000</c><c>      8.00000000</c><c>  PAW_PBE Fe 06Sep2000                  </c></rc>
   </set>
  </array>
 </atominfo>
 <structure name="initialpos" >
  <crystal>
   <varray name="basis" >
    <v>       2.86303550       0.00000000       0.00000000 </v>
    <v>      -0.00000000       2.86303550       0.00000000 </v>
    <v>       0.00000000       0.00000000       2.86303550 </v>
   </varray>
   <i name="volume">     23.46822259 </i>
   <varray name="rec_basis" >
    <v>       0.34927964       0.00000000      -0.00000000 </v>
    <v>       0.00000000       0.34927964       0.00000000 </v>
    <v>      -0.00000000      -0.00000000       0.34927964 </v>
   </varray>
  </crystal>
  <varray name="positions" >
   <v>       0.00000000       0.00000000       0.00000000 </v>
   <v>       0.50000000       0.50000000       0.50000000 </v>
  </varray>
 </structure>
 <calculation>
  <scstep>
   <time name="total">    0.78    0.79</time>
   <energy>
    <i name="alphaZ">    117.79976220 </i>
    <i name="ewald">  -1171.43779597 </i>
    <i name="hartreedc">   -201.78116206 </i>
    <i name="XCdc">      2.58329264 </i>
    <i name="pawpsdc">   1389.69162947 </i>
    <i name="pawaedc">  -1407.88816755 </i>
    <i name="eentropy">     -0.01969406 </i>
    <i name="bandstr">     43.19631228 </i>
    <i name="atom">   1172.74276648 </i>
    <i name="e_fr_energy">    -18.12014222 </i>
    <i name="e_wo_entrp">    -18.10044816 </i>
    <i name="e_0_energy">    -18.11029519 </i>
   </energy>
  </scstep>
  <scstep>
   <time name="total">    0.63    0.63</time>
   <energy>
    <i name="e_fr_energy">    -18.23959552 </i>
    <i name="e_wo_entrp">    -18.22032272 </i>
    <i name="e_0_energy">    -18.22995912 </i>
   </energy>
  </scstep>
  <scstep>
   <time name="total">    0.57    0.57</time>
   <energy>
    <i name="e_fr_energy">    -18.32161830 </i>
    <i name="e_wo_entrp">    -18.30236750 </i>
    <i name="e_0_energy">    -18.31199290 </i>
   </energy>
  </scstep>
  <scstep>
   <time name="total">    0.58    0.58</time>
   <energy>
    <i name="e_fr_energy">    -18.34456663 </i>
    <i name="e_wo_entrp">    -18.32547699 </i>
    <i name="e_0_energy">    -18.33502181 </i>
   </energy>
  </scstep>
  <scstep>
   <time name="total">    1.00    1.00</time>
   <energy>
    <i name="e_fr_energy">    -18.36056220 </i>
    <i name="e_wo_entrp">    -18.34201613 </i>
    <i name="e_0_energy">    -18.35128917 </i>
   </energy>
  </scstep>
  <scstep>
   <time name="total">    0.57    0.57</time>
   <energy>
    <i name="e_fr_energy">    -18.36688310 </i>
    <i name="e_wo_entrp">    -18.35137063 </i>
    <i name="e_0_energy">    -18.35912686 </i>
   </energy>
  </scstep>
  <scstep>
   <time name="total">    0.56    0.56</time>
   <energy>
    <i name="e_fr_energy">    -18.38608525 </i>
    <i name="e_wo_entrp">    -18.37625522 </i>
    <i name="e_0_energy">    -18.38117024 </i>
   </energy>
  </scstep>
  <scstep>
   <time name="total">    0.57    0.57</time>
   <energy>
    <i name="e_fr_energy">    -18.42165184 </i>
    <i name="e_wo_entrp">    -18.41999238 </i>
    <i name="e_0_energy">    -18.42082211 </i>
   </energy>
  </scstep>
  <scstep>
   <time name="total">    0.57    0.57</time>
   <energy>
    <i name="e_fr_energy">    -18.49164098 </i>
    <i name="e_wo_entrp">    -18.49150243 </i>
    <i name="e_0_energy">    -18.49157171 </i>
   </energy>
  </scstep>
  <scstep>
   <time name="total">    0.57    0.57</time>
   <energy>
    <i name="e_fr_energy">    -18.50223247 </i>
    <i name="e_wo_entrp">    -18.50223238 </i>
    <i name="e_0_energy">    -18.50223242 </i>
   </energy>
  </scstep>
  <scstep>
   <time name="total">    0.56    0.57</time>
   <energy>
    <i name="e_fr_energy">    -18.50815965 </i>
    <i name="e_wo_entrp">    -18.50815965 </i>
    <i name="e_0_energy">    -18.50815965 </i>
   </energy>
  </scstep>
  <scstep>
   <time name="total">    0.56    0.56</time>
   <energy>
    <i name="e_fr_energy">    -18.51026765 </i>
    <i name="e_wo_entrp">    -18.51026765 </i>
    <i name="e_0_energy">    -18.51026765 </i>
   </energy>
  </scstep>
  <scstep>
   <time name="total">    0.57    0.58</time>
   <energy>
    <i name="e_fr_energy">    -18.51123445 </i>
    <i name="e_wo_entrp">    -18.51123445 </i>
    <i name="e_0_energy">    -18.51123445 </i>
   </energy>
  </scstep>
  <scstep>
   <time name="total">    0.55    0.55</time>
   <energy>
    <i name="e_fr_energy">    -18.51165126 </i>
    <i name="e_wo_entrp">    -18.51165126 </i>
    <i name="e_0_energy">    -18.51165126 </i>
   </energy>
  </scstep>
  <scstep>
   <time name="total">    0.57    0.57</time>
   <energy>
    <i name="e_fr_energy">    -18.51266949 </i>
    <i name="e_wo_entrp">    -18.51266949 </i>
    <i name="e_0_energy">    -18.51266949 </i>
   </energy>
  </scstep>
  <scstep>
   <time name="total">    0.57    0.58</time>
   <energy>
    <i name="e_fr_energy">    -18.51369650 </i>
    <i name="e_wo_entrp">    -18.51369650 </i>
    <i name="e_0_energy">    -18.51369650 </i>
   </energy>
  </scstep>
  <scstep>
   <time name="total">    0.56    0.56</time>
   <energy>
    <i name="e_fr_energy">    -18.51428425 </i>
    <i name="e_wo_entrp">    -18.51428425 </i>
    <i name="e_0_energy">    -18.51428425 </i>
   </energy>
  </scstep>
  <scstep>
   <time name="total">    0.57    0.57</time>
   <energy>
    <i name="e_fr_energy">    -18.51515722 </i>
    <i name="e_wo_entrp">    -18.51515722 </i>
    <i name="e_0_energy">    -18.51515722 </i>
   </energy>
  </scstep>
  <scstep>
   <time name="total">    0.57    0.57</time>
   <energy>
    <i name="e_fr_energy">    -18.51573735 </i>
    <i name="e_wo_entrp">    -18.51573735 </i>
    <i name="e_0_energy">    -18.51573735 </i>
   </energy>
  </scstep>
  <scstep>
   <time name="total">    0.56    0.56</time>
   <energy>
    <i name="e_fr_energy">    -18.51646355 </i>
    <i name="e_wo_entrp">    -18.51646355 </i>
    <i name="e_0_energy">    -18.51646355 </i>
   </energy>
  </scstep>
  <scstep>
   <time name="total">    0.57    0.57</time>
   <energy>
    <i name="e_fr_energy">    -18.51737314 </i>
    <i name="e_wo_entrp">    -18.51737314 </i>
    <i name="e_0_energy">    -18.51737314 </i>
   </energy>
  </scstep>
  <scstep>
   <time name="total">    0.56    0.56</time>
   <energy>
    <i name="e_fr_energy">    -18.51826417 </i>
    <i name="e_wo_entrp">    -18.51826417 </i>
    <i name="e_0_energy">    -18.51826417 </i>
   </energy>
  </scstep>
  <scstep>
   <time name="total">    0.79    1.07</time>
   <energy>
    <i name="e_fr_energy">    -18.51899596 </i>
    <i name="e_wo_entrp">    -18.51899596 </i>
    <i name="e_0_energy">    -18.51899596 </i>
   </energy>
  </scstep>
  <scstep>
   <time name="total">    1.40    1.42</time>
   <energy>
    <i name="e_fr_energy">    -18.52051012 </i>
    <i name="e_wo_entrp">    -18.52051012 </i>
    <i name="e_0_energy">    -18.52051012 </i>
   </energy>
  </scstep>
  <scstep>
   <time name="total">    0.55    0.55</time>
   <energy>
    <i name="e_fr_energy">    -18.53023575 </i>
    <i name="e_wo_entrp">    -18.53023575 </i>
    <i name="e_0_energy">    -18.53023575 </i>
   </energy>
  </scstep>
  <scstep>
   <time name="total">    0.57    0.57</time>
   <energy>
    <i name="e_fr_energy">    -18.54207128 </i>
    <i name="e_wo_entrp">    -18.54207128 </i>
    <i name="e_0_energy">    -18.54207128 </i>
   </energy>
  </scstep>
  <scstep>
   <time name="total">    0.56    0.56</time>
   <energy>
    <i name="e_fr_energy">    -18.55575970 </i>
    <i name="e_wo_entrp">    -18.55575970 </i>
    <i name="e_0_energy">    -18.55575970 </i>
   </energy>
  </scstep>
  <scstep>
   <time name="total">    0.56    0.56</time>
   <energy>
    <i name="e_fr_energy">    -18.56772402 </i>
    <i name="e_wo_entrp">    -18.56772402 </i>
    <i name="e_0_energy">    -18.56772402 </i>
   </energy>
  </scstep>
  <scstep>
   <time name="total">    0.56    0.57</time>
   <energy>
    <i name="e_fr_energy">    -18.58153175 </i>
    <i name="e_wo_entrp">    -18.58153175 </i>
    <i name="e_0_energy">    -18.58153175 </i>
   </energy>
  </scstep>
  <scstep>
   <time name="total">    0.57    0.57</time>
   <energy>
    <i name="e_fr_energy">    -18.60248451 </i>
    <i name="e_wo_entrp">    -18.60248451 </i>
    <i name="e_0_energy">    -18.60248451 </i>
   </energy>
  </scstep>
  <scstep>
   <time name="total">    0.56    0.56</time>
   <energy>
    <i name="e_fr_energy">    -18.62493914 </i>
    <i name="e_wo_entrp">    -18.62493914 </i>
    <i name="e_0_energy">    -18.62493914 </i>
   </energy>
  </scstep>
  <scstep>
   <time name="total">    0.57    0.58</time>
   <energy>
    <i name="e_fr_energy">    -18.63798740 </i>
    <i name="e_wo_entrp">    -18.63798740 </i>
    <i name="e_0_energy">    -18.63798740 </i>
   </energy>
  </scstep>
  <scstep>
   <time name="total">    0.56    0.56</time>
   <energy>
    <i name="e_fr_energy">    -18.64589785 </i>
    <i name="e_wo_entrp">    -18.64589785 </i>
    <i name="e_0_energy">    -18.64589785 </i>
   </energy>
  </scstep>
  <scstep>
   <time name="total">    0.56    0.58</time>
   <energy>
    <i name="e_fr_energy">    -18.65173002 </i>
    <i name="e_wo_entrp">    -18.65172642 </i>
    <i name="e_0_energy">    -18.65172822 </i>
   </energy>
  </scstep>
  <scstep>
   <time name="total">    0.56    0.56</time>
   <energy>
    <i name="e_fr_energy">    -18.65653925 </i>
    <i name="e_wo_entrp">    -18.65112556 </i>
    <i name="e_0_energy">    -18.65383240 </i>
   </energy>
  </scstep>
  <scstep>
   <time name="total">    0.56    0.56</time>
   <energy>
    <i name="e_fr_energy">    -18.59134115 </i>
    <i name="e_wo_entrp">    -18.59129977 </i>
    <i name="e_0_energy">    -18.59132046 </i>
   </energy>
  </scstep>
  <scstep>
   <time name="total">    0.57    0.57</time>
   <energy>
    <i name="e_fr_energy">    -18.76730145 </i>
    <i name="e_wo_entrp">    -18.76730145 </i>
    <i name="e_0_energy">    -18.76730145 </i>
   </energy>
  </scstep>
  <scstep>
   <time name="total">    0.57    0.57</time>
   <energy>
    <i name="e_fr_energy">    -18.89330996 </i>
    <i name="e_wo_entrp">    -18.89330996 </i>
    <i name="e_0_energy">    -18.89330996 </i>
   </energy>
  </scstep>
  <scstep>
   <time name="total">    0.55    0.55</time>
   <energy>
    <i name="e_fr_energy">    -18.97138389 </i>
    <i name="e_wo_entrp">    -18.97138389 </i>
    <i name="e_0_energy">    -18.97138389 </i>
   </energy>
  </scstep>
  <scstep>
   <time name="total">    0.57    0.57</time>
   <energy>
    <i name="e_fr_energy">    -19.01298921 </i>
    <i name="e_wo_entrp">    -19.01298921 </i>
    <i name="e_0_energy">    -19.01298921 </i>
   </energy>
  </scstep>
  <scstep>
   <time name="total">    0.56    0.56</time>
   <energy>
    <i name="e_fr_energy">    -19.04186850 </i>
    <i name="e_wo_entrp">    -19.03061764 </i>
    <i name="e_0_energy">    -19.03624307 </i>
   </energy>
  </scstep>
  <scstep>
   <time name="total">    0.56    0.56</time>
   <energy>
    <i name="e_fr_energy">    -18.96207560 </i>
    <i name="e_wo_entrp">    -18.96193937 </i>
    <i name="e_0_energy">    -18.96200749 </i>
   </energy>
  </scstep>
  <scstep>
   <time name="total">    0.57    0.57</time>
   <energy>
    <i name="e_fr_energy">    -19.04951085 </i>
    <i name="e_wo_entrp">    -19.04950969 </i>
    <i name="e_0_energy">    -19.04951027 </i>
   </energy>
  </scstep>
  <scstep>
   <time name="total">    0.56    0.56</time>
   <energy>
    <i name="e_fr_energy">    -19.05999820 </i>
    <i name="e_wo_entrp">    -19.05999820 </i>
    <i name="e_0_energy">    -19.05999820 </i>
   </energy>
  </scstep>
  <scstep>
   <time name="total">    0.57    0.57</time>
   <energy>
    <i name="e_fr_energy">    -19.06744932 </i>
    <i name="e_wo_entrp">    -19.06744932 </i>
    <i name="e_0_energy">    -19.06744932 </i>
   </energy>
  </scstep>
  <scstep>
   <time name="total">    0.56    0.57</time>
   <energy>
    <i name="e_fr_energy">    -19.08220361 </i>
    <i name="e_wo_entrp">    -19.08220361 </i>
    <i name="e_0_energy">    -19.08220361 </i>
   </energy>
  </scstep>
  <scstep>
   <time name="total">    0.56    0.56</time>
   <energy>
    <i name="e_fr_energy">    -19.10315713 </i>
    <i name="e_wo_entrp">    -19.10315713 </i>
    <i name="e_0_energy">    -19.10315713 </i>
   </energy>
  </scstep>
  <scstep>
   <time name="total">    0.57    0.57</time>
   <energy>
    <i name="e_fr_energy">    -19.19162827 </i>
    <i name="e_wo_entrp">    -19.19162827 </i>
    <i name="e_0_energy">    -19.19162827 </i>
   </energy>
  </scstep>
  <scstep>
   <time name="total">    0.57    0.59</time>
   <energy>
    <i name="e_fr_energy">    -19.23877221 </i>
    <i name="e_wo_entrp">    -19.23877221 </i>
    <i name="e_0_energy">    -19.23877221 </i>
   </energy>
  </scstep>
  <scstep>
   <time name="total">    0.56    0.56</time>
   <energy>
    <i name="e_fr_energy">    -19.28049722 </i>
    <i name="e_wo_entrp">    -19.28049722 </i>
    <i name="e_0_energy">    -19.28049722 </i>
   </energy>
  </scstep>
  <scstep>
   <time name="total">    0.56    0.58</time>
   <energy>
    <i name="e_fr_energy">    -19.30808814 </i>
    <i name="e_wo_entrp">    -19.30808814 </i>
    <i name="e_0_energy">    -19.30808814 </i>
   </energy>
  </scstep>
  <scstep>
   <time name="total">    0.56    0.56</time>
   <energy>
    <i name="e_fr_energy">    -19.33175706 </i>
    <i name="e_wo_entrp">    -19.33175706 </i>
    <i name="e_0_energy">    -19.33175706 </i>
   </energy>
  </scstep>
  <scstep>
   <time name="total">    0.57    0.57</time>
   <energy>
    <i name="e_fr_energy">    -19.35332151 </i>
    <i name="e_wo_entrp">    -19.35332151 </i>
    <i name="e_0_energy">    -19.35332151 </i>
   </energy>
  </scstep>
  <scstep>
   <time name="total">    0.55    0.56</time>
   <energy>
    <i name="e_fr_energy">    -19.38800620 </i>
    <i name="e_wo_entrp">    -19.38800620 </i>
    <i name="e_0_energy">    -19.38800620 </i>
   </energy>
  </scstep>
  <scstep>
   <time name="total">    0.56    0.56</time>
   <energy>
    <i name="e_fr_energy">    -19.42024191 </i>
    <i name="e_wo_entrp">    -19.42024191 </i>
    <i name="e_0_energy">    -19.42024191 </i>
   </energy>
  </scstep>
  <scstep>
   <time name="total">    0.56    0.56</time>
   <energy>
    <i name="e_fr_energy">    -19.42919202 </i>
    <i name="e_wo_entrp">    -19.42919202 </i>
    <i name="e_0_energy">    -19.42919202 </i>
   </energy>
  </scstep>
  <scstep>
   <time name="total">    0.56    0.56</time>
   <energy>
    <i name="e_fr_energy">    -19.43836375 </i>
    <i name="e_wo_entrp">    -19.43836375 </i>
    <i name="e_0_energy">    -19.43836375 </i>
   </energy>
  </scstep>
  <scstep>
   <time name="total">    0.57    0.58</time>
   <energy>
    <i name="e_fr_energy">    -19.44528965 </i>
    <i name="e_wo_entrp">    -19.44528965 </i>
    <i name="e_0_energy">    -19.44528965 </i>
   </energy>
  </scstep>
  <scstep>
   <time name="total">    0.56    0.56</time>
   <energy>
    <i name="e_fr_energy">    -19.45585414 </i>
    <i name="e_wo_entrp">    -19.45585414 </i>
    <i name="e_0_energy">    -19.45585414 </i>
   </energy>
  </scstep>
  <scstep>
   <time name="total">    0.55    0.55</time>
   <energy>
    <i name="e_fr_energy">    -19.46799270 </i>
    <i name="e_wo_entrp">    -19.46799270 </i>
    <i name="e_0_energy">    -19.46799270 </i>
   </energy>
  </scstep>
  <scstep>
   <time name="total">    0.56    0.56</time>
   <energy>
    <i name="e_fr_energy">    -19.47618761 </i>
    <i name="e_wo_entrp">    -19.47618761 </i>
    <i name="e_0_energy">    -19.47618761 </i>
   </energy>
  </scstep>
  <scstep>
   <time name="total">    0.56    0.56</time>
   <energy>
    <i name="e_fr_energy">    -19.48387100 </i>
    <i name="e_wo_entrp">    -19.48387100 </i>
    <i name="e_0_energy">    -19.48387100 </i>
   </energy>
  </scstep>
  <scstep>
   <time name="total">    0.56    0.56</time>
   <energy>
    <i name="e_fr_energy">    -19.49421177 </i>
    <i name="e_wo_entrp">    -19.49421177 </i>
    <i name="e_0_energy">    -19.49421177 </i>
   </energy>
  </scstep>
  <scstep>
   <time name="total">    0.57    0.57</time>
   <energy>
    <i name="e_fr_energy">    -19.50305448 </i>
    <i name="e_wo_entrp">    -19.50305448 </i>
    <i name="e_0_energy">    -19.50305448 </i>
   </energy>
  </scstep>
  <scstep>
   <time name="total">    0.55    0.57</time>
   <energy>
    <i name="e_fr_energy">    -19.50998486 </i>
    <i name="e_wo_entrp">    -19.50998486 </i>
    <i name="e_0_energy">    -19.50998486 </i>
   </energy>
  </scstep>
  <scstep>
   <time name="total">    0.56    0.56</time>
   <energy>
    <i name="e_fr_energy">    -19.51472429 </i>
    <i name="e_wo_entrp">    -19.51472429 </i>
    <i name="e_0_energy">    -19.51472429 </i>
   </energy>
  </scstep>
  <scstep>
   <time name="total">    0.56    0.56</time>
   <energy>
    <i name="e_fr_energy">    -19.51827806 </i>
    <i name="e_wo_entrp">    -19.51827806 </i>
    <i name="e_0_energy">    -19.51827806 </i>
   </energy>
  </scstep>
  <scstep>
   <time name="total">    0.57    0.57</time>
   <energy>
    <i name="e_fr_energy">    -19.52165666 </i>
    <i name="e_wo_entrp">    -19.52165666 </i>
    <i name="e_0_energy">    -19.52165666 </i>
   </energy>
  </scstep>
  <scstep>
   <time name="total">    0.56    0.56</time>
   <energy>
    <i name="e_fr_energy">    -19.52434348 </i>
    <i name="e_wo_entrp">    -19.52434348 </i>
    <i name="e_0_energy">    -19.52434348 </i>
   </energy>
  </scstep>
  <scstep>
   <time name="total">    0.56    0.56</time>
   <energy>
    <i name="e_fr_energy">    -19.52635199 </i>
    <i name="e_wo_entrp">    -19.52635199 </i>
    <i name="e_0_energy">    -19.52635199 </i>
   </energy>
  </scstep>
  <scstep>
   <time name="total">    0.57    0.57</time>
   <energy>
    <i name="e_fr_energy">    -19.52804301 </i>
    <i name="e_wo_entrp">    -19.52804301 </i>
    <i name="e_0_energy">    -19.52804301 </i>
   </energy>
  </scstep>
  <scstep>
   <time name="total">    0.56    0.57</time>
   <energy>
    <i name="e_fr_energy">    -19.53000988 </i>
    <i name="e_wo_entrp">    -19.53000988 </i>
    <i name="e_0_energy">    -19.53000988 </i>
   </energy>
  </scstep>
  <scstep>
   <time name="total">    0.56    0.56</time>
   <energy>
    <i name="e_fr_energy">    -19.53154010 </i>
    <i name="e_wo_entrp">    -19.53154010 </i>
    <i name="e_0_energy">    -19.53154010 </i>
   </energy>
  </scstep>
  <scstep>
   <time name="total">    0.56    0.56</time>
   <energy>
    <i name="e_fr_energy">    -19.53278564 </i>
    <i name="e_wo_entrp">    -19.53278564 </i>
    <i name="e_0_energy">    -19.53278564 </i>
   </energy>
  </scstep>
  <scstep>
   <time name="total">    0.57    0.58</time>
   <energy>
    <i name="e_fr_energy">    -19.53380135 </i>
    <i name="e_wo_entrp">    -19.53380135 </i>
    <i name="e_0_energy">    -19.53380135 </i>
   </energy>
  </scstep>
  <scstep>
   <time name="total">    0.57    0.57</time>
   <energy>
    <i name="e_fr_energy">    -19.53477486 </i>
    <i name="e_wo_entrp">    -19.53477486 </i>
    <i name="e_0_energy">    -19.53477486 </i>
   </energy>
  </scstep>
  <scstep>
   <time name="total">    0.56    0.57</time>
   <energy>
    <i name="e_fr_energy">    -19.53562115 </i>
    <i name="e_wo_entrp">    -19.53562115 </i>
    <i name="e_0_energy">    -19.53562115 </i>
   </energy>
  </scstep>
  <scstep>
   <time name="total">    0.56    0.56</time>
   <energy>
    <i name="e_fr_energy">    -19.53626155 </i>
    <i name="e_wo_entrp">    -19.53626155 </i>
    <i name="e_0_energy">    -19.53626155 </i>
   </energy>
  </scstep>
  <scstep>
   <time name="total">    0.56    0.57</time>
   <energy>
    <i name="e_fr_energy">    -19.53666663 </i>
    <i name="e_wo_entrp">    -19.53666663 </i>
    <i name="e_0_energy">    -19.53666663 </i>
   </energy>
  </scstep>
  <scstep>
   <time name="total">    0.56    0.56</time>
   <energy>
    <i name="e_fr_energy">    -19.53693499 </i>
    <i name="e_wo_entrp">    -19.53693499 </i>
    <i name="e_0_energy">    -19.53693499 </i>
   </energy>
  </scstep>
  <scstep>
   <time name="total">    0.56    0.56</time>
   <energy>
    <i name="e_fr_energy">    -19.53728347 </i>
    <i name="e_wo_entrp">    -19.53728347 </i>
    <i name="e_0_energy">    -19.53728347 </i>
   </energy>
  </scstep>
  <scstep>
   <time name="total">    0.56    0.56</time>
   <energy>
    <i name="e_fr_energy">    -19.53759297 </i>
    <i name="e_wo_entrp">    -19.53759297 </i>
    <i name="e_0_energy">    -19.53759297 </i>
   </energy>
  </scstep>
  <scstep>
   <time name="total">    0.56    0.56</time>
   <energy>
    <i name="e_fr_energy">    -19.53787827 </i>
    <i name="e_wo_entrp">    -19.53787827 </i>
    <i name="e_0_energy">    -19.53787827 </i>
   </energy>
  </scstep>
  <scstep>
   <time name="total">    0.57    0.58</time>
   <energy>
    <i name="e_fr_energy">    -19.53808608 </i>
    <i name="e_wo_entrp">    -19.53808608 </i>
    <i name="e_0_energy">    -19.53808608 </i>
   </energy>
  </scstep>
  <scstep>
   <time name="total">    0.57    0.57</time>
   <energy>
    <i name="e_fr_energy">    -19.53828574 </i>
    <i name="e_wo_entrp">    -19.53828574 </i>
    <i name="e_0_energy">    -19.53828574 </i>
   </energy>
  </scstep>
  <scstep>
   <time name="total">    0.56    0.57</time>
   <energy>
    <i name="e_fr_energy">    -19.53847310 </i>
    <i name="e_wo_entrp">    -19.53847310 </i>
    <i name="e_0_energy">    -19.53847310 </i>
   </energy>
  </scstep>
  <scstep>
   <time name="total">    0.57    0.59</time>
   <energy>
    <i name="e_fr_energy">    -19.53863716 </i>
    <i name="e_wo_entrp">    -19.53863716 </i>
    <i name="e_0_energy">    -19.53863716 </i>
   </energy>
  </scstep>
  <scstep>
   <time name="total">    0.57    0.57</time>
   <energy>
    <i name="e_fr_energy">    -19.53874414 </i>
    <i name="e_wo_entrp">    -19.53874414 </i>
    <i name="e_0_energy">    -19.53874414 </i>
   </energy>
  </scstep>
  <scstep>
   <time name="total">    0.56    0.58</time>
   <energy>
    <i name="e_fr_energy">    -19.53881883 </i>
    <i name="e_wo_entrp">    -19.53881883 </i>
    <i name="e_0_energy">    -19.53881883 </i>
   </energy>
  </scstep>
  <scstep>
   <time name="total">    0.57    0.57</time>
   <energy>
    <i name="e_fr_energy">    -19.53888786 </i>
    <i name="e_wo_entrp">    -19.53888786 </i>
    <i name="e_0_energy">    -19.53888786 </i>
   </energy>
  </scstep>
  <scstep>
   <time name="total">    0.56    0.56</time>
   <energy>
    <i name="e_fr_energy">    -19.53896165 </i>
    <i name="e_wo_entrp">    -19.53896165 </i>
    <i name="e_0_energy">    -19.53896165 </i>
   </energy>
  </scstep>
  <scstep>
   <time name="total">    0.56    0.56</time>
   <energy>
    <i name="e_fr_energy">    -19.53902072 </i>
    <i name="e_wo_entrp">    -19.53902072 </i>
    <i name="e_0_energy">    -19.53902072 </i>
   </energy>
  </scstep>
  <scstep>
   <time name="total">    0.57    0.57</time>
   <energy>
    <i name="e_fr_energy">    -19.53906776 </i>
    <i name="e_wo_entrp">    -19.53906776 </i>
    <i name="e_0_energy">    -19.53906776 </i>
   </energy>
  </scstep>
  <scstep>
   <time name="total">    0.56    0.58</time>
   <energy>
    <i name="e_fr_energy">    -19.53910752 </i>
    <i name="e_wo_entrp">    -19.53910752 </i>
    <i name="e_0_energy">    -19.53910752 </i>
   </energy>
  </scstep>
  <scstep>
   <time name="total">    0.56    0.56</time>
   <energy>
    <i name="e_fr_energy">    -19.53914816 </i>
    <i name="e_wo_entrp">    -19.53914816 </i>
    <i name="e_0_energy">    -19.53914816 </i>
   </energy>
  </scstep>
  <scstep>
   <time name="total">    0.55    0.55</time>
   <energy>
    <i name="e_fr_energy">    -19.53918229 </i>
    <i name="e_wo_entrp">    -19.53918229 </i>
    <i name="e_0_energy">    -19.53918229 </i>
   </energy>
  </scstep>
  <scstep>
   <time name="total">    0.55    0.55</time>
   <energy>
    <i name="e_fr_energy">    -19.53920597 </i>
    <i name="e_wo_entrp">    -19.53920597 </i>
    <i name="e_0_energy">    -19.53920597 </i>
   </energy>
  </scstep>
  <scstep>
   <time name="total">    0.56    0.56</time>
   <energy>
    <i name="e_fr_energy">    -19.53923357 </i>
    <i name="e_wo_entrp">    -19.53923357 </i>
    <i name="e_0_energy">    -19.53923357 </i>
   </energy>
  </scstep>
  <scstep>
   <time name="total">    0.56    0.57</time>
   <energy>
    <i name="e_fr_energy">    -19.53926325 </i>
    <i name="e_wo_entrp">    -19.53926325 </i>
    <i name="e_0_energy">    -19.53926325 </i>
   </energy>
  </scstep>
  <scstep>
   <time name="total">    0.56    0.56</time>
   <energy>
    <i name="e_fr_energy">    -19.53929150 </i>
    <i name="e_wo_entrp">    -19.53929150 </i>
    <i name="e_0_energy">    -19.53929150 </i>
   </energy>
  </scstep>
  <scstep>
   <time name="total">    0.56    0.58</time>
   <energy>
    <i name="e_fr_energy">    -19.53931335 </i>
    <i name="e_wo_entrp">    -19.53931335 </i>
    <i name="e_0_energy">    -19.53931335 </i>
   </energy>
  </scstep>
  <scstep>
   <time name="total">    0.57    0.57</time>
   <energy>
    <i name="e_fr_energy">    -19.53933295 </i>
    <i name="e_wo_entrp">    -19.53933295 </i>
    <i name="e_0_energy">    -19.53933295 </i>
   </energy>
  </scstep>
  <scstep>
   <time name="total">    0.56    0.56</time>
   <energy>
    <i name="e_fr_energy">    -19.53935266 </i>
    <i name="e_wo_entrp">    -19.53935266 </i>
    <i name="e_0_energy">    -19.53935266 </i>
   </energy>
  </scstep>
  <scstep>
   <time name="total">    0.56    0.56</time>
   <energy>
    <i name="e_fr_energy">    -19.53936869 </i>
    <i name="e_wo_entrp">    -19.53936869 </i>
    <i name="e_0_energy">    -19.53936869 </i>
   </energy>
  </scstep>
  <scstep>
   <time name="total">    0.57    0.57</time>
   <energy>
    <i name="e_fr_energy">    -19.53937904 </i>
    <i name="e_wo_entrp">    -19.53937904 </i>
    <i name="e_0_energy">    -19.53937904 </i>
   </energy>
  </scstep>
  <scstep>
   <time name="total">    0.79    0.79</time>
   <energy>
    <i name="alphaZ">    117.79976220 </i>
    <i name="ewald">  -1171.43779597 </i>
    <i name="hartreedc">   -199.32208081 </i>
    <i name="XCdc">      2.59653444 </i>
    <i name="pawpsdc">   1520.15687918 </i>
    <i name="pawaedc">  -1538.55612463 </i>
    <i name="eentropy">     -0.00000000 </i>
    <i name="bandstr">     35.90883508 </i>
    <i name="atom">   1172.74276648 </i>
    <i name="e_fr_energy">    -19.53938699 </i>
    <i name="e_wo_entrp">    -19.53938699 </i>
    <i name="e_0_energy">    -19.53938699 </i>
   </energy>
  </scstep>
  <structure>
   <crystal>
    <varray name="basis" >
     <v>       2.86303550       0.00000000       0.00000000 </v>
     <v>      -0.00000000       2.86303550       0.00000000 </v>
     <v>       0.00000000       0.00000000       2.86303550 </v>
    </varray>
    <i name="volume">     23.46822259 </i>
    <varray name="rec_basis" >
     <v>       0.34927964       0.00000000      -0.00000000 </v>
     <v>       0.00000000       0.34927964       0.00000000 </v>
     <v>      -0.00000000      -0.00000000       0.34927964 </v>
    </varray>
   </crystal>
   <varray name="positions" >
    <v>       0.00000000       0.00000000       0.00000000 </v>
    <v>       0.50000000       0.50000000       0.50000000 </v>
   </varray>
  </structure>
  <varray name="forces" >
   <v>      -0.00000532       0.00000925       0.00000044 </v>
   <v>       0.00000532      -0.00000925      -0.00000044 </v>
  </varray>
  <varray name="stress" >
   <v>    -160.71540841       0.44091733    -164.00361556 </v>
   <v>       0.44091749    -167.60079005       1.68965951 </v>
   <v>    -164.00361478       1.68966058      -4.14928710 </v>
  </varray>
  <energy>
   <i name="e_fr_energy">    -19.53938699 </i>
   <i name="e_wo_entrp">    -19.53938699 </i>
   <i name="e_0_energy">    -19.53938699 </i>
  </energy>
  <time name="totalsc">   62.41   63.02</time>
  <eigenvalues>
   <array>
    <dimension dim="1">band</dimension>
    <dimension dim="2">kpoint</dimension>
    <dimension dim="3">spin</dimension>
    <field>eigene</field>
    <field>occ</field>
    <set>
     <set comment="spin 1">
      <set comment="kpoint 1">
       <r>   -4.2456    1.0000 </r>
       <r>    0.6348    1.0000 </r>
       <r>    1.0615    1.0000 </r>
       <r>    2.3605    1.0000 </r>
       <r>    2.3770    1.0000 </r>
       <r>    2.5577    1.0000 </r>
       <r>    4.2192    1.0000 </r>
       <r>    4.6927    1.0000 </r>
       <r>    6.3592    0.0000 </r>
       <r>    7.6710    0.0000 </r>
       <r>    7.7013    0.0000 </r>
       <r>   16.2940    0.0000 </r>
      </set>
      <set comment="kpoint 2">
       <r>    0.2927    1.0000 </r>
       <r>    0.2936    1.0000 </r>
       <r>    2.4768    1.0000 </r>
       <r>    2.4772    1.0000 </r>
       <r>    2.7796    1.0000 </r>
       <r>    2.7821    1.0000 </r>
       <r>    3.3576    1.0000 </r>
       <r>    3.3589    1.0000 </r>
       <r>    4.4312    1.0000 </r>
       <r>    4.4319    1.0000 </r>
       <r>    8.4911    0.0000 </r>
       <r>    8.4948    0.0000 </r>
      </set>
      <set comment="kpoint 3">
       <r>    0.3727    1.0000 </r>
       <r>    0.3731    1.0000 </r>
       <r>    2.1012    1.0000 </r>
       <r>    2.1024    1.0000 </r>
       <r>    2.5567    1.0000 </r>
       <r>    2.5568    1.0000 </r>
       <r>    4.1023    1.0000 </r>
       <r>    4.1025    1.0000 </r>
       <r>    4.1414    1.0000 </r>
       <r>    4.1416    1.0000 </r>
       <r>    8.6585    0.0000 </r>
       <r>    8.6592    0.0000 </r>
      </set>
      <set comment="kpoint 4">
       <r>    0.2376    1.0000 </r>
       <r>    0.2376    1.0000 </r>
       <r>    2.4649    1.0000 </r>
       <r>    2.4651    1.0000 </r>
       <r>    2.7274    1.0000 </r>
       <r>    2.7321    1.0000 </r>
       <r>    3.3590    1.0000 </r>
       <r>    3.3591    1.0000 </r>
       <r>    4.4382    1.0000 </r>
       <r>    4.4403    1.0000 </r>
       <r>    8.5339    0.0000 </r>
       <r>    8.5349    0.0000 </r>
      </set>
      <set comment="kpoint 5">
       <r>   -0.5361    1.0000 </r>
       <r>   -0.2070    1.0000 </r>
       <r>    0.8775    1.0000 </r>
       <r>    1.3445    1.0000 </r>
       <r>    4.7013    1.0000 </r>
       <r>    4.7048    1.0000 </r>
       <r>    6.3135    0.0000 </r>
       <r>    6.3521    0.0000 </r>
       <r>    7.1117    0.0000 </r>
       <r>    7.2175    0.0000 </r>
       <r>    7.8886    0.0000 </r>
       <r>    8.0036    0.0000 </r>
      </set>
      <set comment="kpoint 6">
       <r>   -0.5464    1.0000 </r>
       <r>   -0.1970    1.0000 </r>
       <r>    0.9017    1.0000 </r>
       <r>    1.3482    1.0000 </r>
       <r>    4.6755    1.0000 </r>
       <r>    4.6923    1.0000 </r>
       <r>    5.1631    1.0000 </r>
       <r>    6.3876    0.0000 </r>
       <r>    7.1024    0.0000 </r>
       <r>    7.2262    0.0000 </r>
       <r>    7.9379    0.0000 </r>
       <r>    8.0290    0.0000 </r>
      </set>
      <set comment="kpoint 7">
       <r>   -0.2703    1.0000 </r>
       <r>   -0.0609    1.0000 </r>
       <r>    0.8098    1.0000 </r>
       <r>    1.1046    1.0000 </r>
       <r>    4.5529    1.0000 </r>
       <r>    4.6206    1.0000 </r>
       <r>    5.2014    1.0000 </r>
       <r>    6.4054    0.0000 </r>
       <r>    6.9205    0.0000 </r>
       <r>    7.3659    0.0000 </r>
       <r>    7.7059    0.0000 </r>
       <r>    8.1577    0.0000 </r>
      </set>
      <set comment="kpoint 8">
       <r>    0.9941    1.0000 </r>
       <r>    0.9943    1.0000 </r>
       <r>    1.0105    1.0000 </r>
       <r>    1.0105    1.0000 </r>
       <r>    1.6568    1.0000 </r>
       <r>    1.6569    1.0000 </r>
       <r>    7.6370    0.0000 </r>
       <r>    7.6396    0.0000 </r>
       <r>    8.0057    0.0000 </r>
       <r>    8.0068    0.0000 </r>
       <r>   15.0717    0.0000 </r>
       <r>   15.0842    0.0000 </r>
      </set>
     </set>
    </set>
   </array>
  </eigenvalues>
  <separator name="orbital magnetization" >
   <v name="MAGDIPOLOUT">      0.00000000      0.00000000      0.00000000</v>
  </separator>
  <dos>
   <i name="efermi">      5.42642837 </i>
   <total>
    <array>
     <dimension dim="1">gridpoints</dimension>
     <dimension dim="2">spin</dimension>
     <field>energy</field>
     <field>total</field>
     <field>integrated</field>
     <set>
      <set comment="spin 1">
       <r>    -5.2726     0.0000     0.0000 </r>
       <r>    -5.1973     0.0000     0.0000 </r>
       <r>    -5.1220     0.0000     0.0000 </r>
       <r>    -5.0466     0.0000     0.0000 </r>
       <r>    -4.9713     0.0000     0.0000 </r>
       <r>    -4.8960     0.0000     0.0000 </r>
       <r>    -4.8207     0.0000     0.0000 </r>
       <r>    -4.7454     0.0000     0.0000 </r>
       <r>    -4.6701     0.0000     0.0000 </r>
       <r>    -4.5948     0.0000     0.0000 </r>
       <r>    -4.5195     0.0000     0.0000 </r>
       <r>    -4.4442     0.0000     0.0000 </r>
       <r>    -4.3688     0.0008     0.0001 </r>
       <r>    -4.2935     0.2900     0.0219 </r>
       <r>    -4.2182     2.3007     0.1952 </r>
       <r>    -4.1429     0.7218     0.2495 </r>
       <r>    -4.0676     0.0061     0.2500 </r>
       <r>    -3.9923     0.0000     0.2500 </r>
       <r>    -3.9170     0.0000     0.2500 </r>
       <r>    -3.8417     0.0000     0.2500 </r>
       <r>    -3.7663     0.0000     0.2500 </r>
       <r>    -3.6910     0.0000     0.2500 </r>
       <r>    -3.6157     0.0000     0.2500 </r>
       <r>    -3.5404     0.0000     0.2500 </r>
       <r>    -3.4651     0.0000     0.2500 </r>
       <r>    -3.3898     0.0000     0.2500 </r>
       <r>    -3.3145     0.0000     0.2500 </r>
       <r>    -3.2392     0.0000     0.2500 </r>
       <r>    -3.1638     0.0000     0.2500 </r>
       <r>    -3.0885     0.0000     0.2500 </r>
       <r>    -3.0132     0.0000     0.2500 </r>
       <r>    -2.9379     0.0000     0.2500 </r>
       <r>    -2.8626     0.0000     0.2500 </r>
       <r>    -2.7873     0.0000     0.2500 </r>
       <r>    -2.7120     0.0000     0.2500 </r>
       <r>    -2.6367     0.0000     0.2500 </r>
       <r>    -2.5614     0.0000     0.2500 </r>
       <r>    -2.4860     0.0000     0.2500 </r>
       <r>    -2.4107     0.0000     0.2500 </r>
       <r>    -2.3354     0.0000     0.2500 </r>
       <r>    -2.2601     0.0000     0.2500 </r>
       <r>    -2.1848     0.0000     0.2500 </r>
       <r>    -2.1095     0.0000     0.2500 </r>
       <r>    -2.0342     0.0000     0.2500 </r>
       <r>    -1.9589     0.0000     0.2500 </r>
       <r>    -1.8835     0.0000     0.2500 </r>
       <r>    -1.8082     0.0000     0.2500 </r>
       <r>    -1.7329     0.0000     0.2500 </r>
       <r>    -1.6576     0.0000     0.2500 </r>
       <r>    -1.5823     0.0000     0.2500 </r>
       <r>    -1.5070     0.0000     0.2500 </r>
       <r>    -1.4317     0.0000     0.2500 </r>
       <r>    -1.3564     0.0000     0.2500 </r>
       <r>    -1.2810     0.0000     0.2500 </r>
       <r>    -1.2057     0.0000     0.2500 </r>
       <r>    -1.1304     0.0000     0.2500 </r>
       <r>    -1.0551     0.0000     0.2500 </r>
       <r>    -0.9798     0.0000     0.2500 </r>
       <r>    -0.9045     0.0000     0.2500 </r>
       <r>    -0.8292     0.0000     0.2500 </r>
       <r>    -0.7539     0.0000     0.2500 </r>
       <r>    -0.6786     0.0004     0.2500 </r>
       <r>    -0.6032     0.2742     0.2707 </r>
       <r>    -0.5279     4.0103     0.5727 </r>
       <r>    -0.4526     2.3107     0.7467 </r>
       <r>    -0.3773     0.0475     0.7503 </r>
       <r>    -0.3020     0.6264     0.7975 </r>
       <r>    -0.2267     3.9533     1.0952 </r>
       <r>    -0.1514     4.8726     1.4622 </r>
       <r>    -0.0761     1.6093     1.5834 </r>
       <r>    -0.0007     2.0648     1.7389 </r>
       <r>     0.0746     0.1474     1.7500 </r>
       <r>     0.1499     0.0440     1.7533 </r>
       <r>     0.2252     2.5486     1.9452 </r>
       <r>     0.3005     7.7963     2.5324 </r>
       <r>     0.3758     6.3634     3.0116 </r>
       <r>     0.4511     3.0758     3.2433 </r>
       <r>     0.5264     0.0929     3.2503 </r>
       <r>     0.6018     0.5779     3.2938 </r>
       <r>     0.6771     2.3539     3.4711 </r>
       <r>     0.7524     0.5562     3.5130 </r>
       <r>     0.8277     2.4525     3.6977 </r>
       <r>     0.9030     4.9678     4.0718 </r>
       <r>     0.9783     5.7095     4.5018 </r>
       <r>     1.0536    10.5004     5.2926 </r>
       <r>     1.1289     5.1600     5.6812 </r>
       <r>     1.2042     0.9054     5.7494 </r>
       <r>     1.2796     0.2044     5.7648 </r>
       <r>     1.3549     3.7540     6.0475 </r>
       <r>     1.4302     2.6292     6.2455 </r>
       <r>     1.5055     0.0594     6.2500 </r>
       <r>     1.5808     0.1045     6.2579 </r>
       <r>     1.6561     3.1606     6.4959 </r>
       <r>     1.7314     3.2580     6.7413 </r>
       <r>     1.8067     0.1157     6.7500 </r>
       <r>     1.8821     0.0001     6.7500 </r>
       <r>     1.9574     0.0001     6.7500 </r>
       <r>     2.0327     0.1674     6.7626 </r>
       <r>     2.1080     3.6105     7.0345 </r>
       <r>     2.1833     2.7905     7.2447 </r>
       <r>     2.2586     0.0783     7.2506 </r>
       <r>     2.3339     1.1135     7.3344 </r>
       <r>     2.4092     5.2028     7.7263 </r>
       <r>     2.4846     9.1054     8.4120 </r>
       <r>     2.5599     9.6920     9.1420 </r>
       <r>     2.6352     4.6441     9.4917 </r>
       <r>     2.7105     2.2130     9.6584 </r>
       <r>     2.7858     7.8465    10.2493 </r>
       <r>     2.8611     3.2505    10.4941 </r>
       <r>     2.9364     0.0780    10.5000 </r>
       <r>     3.0117     0.0000    10.5000 </r>
       <r>     3.0870     0.0000    10.5000 </r>
       <r>     3.1624     0.0000    10.5000 </r>
       <r>     3.2377     0.0041    10.5003 </r>
       <r>     3.3130     1.3000    10.5982 </r>
       <r>     3.3883     9.3050    11.2990 </r>
       <r>     3.4636     2.6490    11.4985 </r>
       <r>     3.5389     0.0199    11.5000 </r>
       <r>     3.6142     0.0000    11.5000 </r>
       <r>     3.6895     0.0000    11.5000 </r>
       <r>     3.7649     0.0000    11.5000 </r>
       <r>     3.8402     0.0000    11.5000 </r>
       <r>     3.9155     0.0000    11.5000 </r>
       <r>     3.9908     0.0054    11.5004 </r>
       <r>     4.0661     1.1154    11.5844 </r>
       <r>     4.1414     7.9817    12.1855 </r>
       <r>     4.2167     5.6284    12.6094 </r>
       <r>     4.2920     1.8018    12.7451 </r>
       <r>     4.3674     0.4354    12.7779 </r>
       <r>     4.4427     7.3470    13.3312 </r>
       <r>     4.5180     5.9680    13.7807 </r>
       <r>     4.5933     3.2777    14.0275 </r>
       <r>     4.6686     6.8199    14.5411 </r>
       <r>     4.7439    11.3347    15.3948 </r>
       <r>     4.8192     1.3925    15.4997 </r>
       <r>     4.8945     0.0046    15.5000 </r>
       <r>     4.9698     0.0000    15.5000 </r>
       <r>     5.0452     0.0014    15.5001 </r>
       <r>     5.1205     0.4137    15.5313 </r>
       <r>     5.1958     3.7663    15.8149 </r>
       <r>     5.2711     2.3732    15.9936 </r>
       <r>     5.3464     0.0843    16.0000 </r>
       <r>     5.4217     0.0001    16.0000 </r>
       <r>     5.4970     0.0000    16.0000 </r>
       <r>     5.5723     0.0000    16.0000 </r>
       <r>     5.6477     0.0000    16.0000 </r>
       <r>     5.7230     0.0000    16.0000 </r>
       <r>     5.7983     0.0000    16.0000 </r>
       <r>     5.8736     0.0000    16.0000 </r>
       <r>     5.9489     0.0000    16.0000 </r>
       <r>     6.0242     0.0000    16.0000 </r>
       <r>     6.0995     0.0000    16.0000 </r>
       <r>     6.1748     0.0001    16.0000 </r>
       <r>     6.2502     0.1316    16.0099 </r>
       <r>     6.3255     3.4518    16.2699 </r>
       <r>     6.4008     9.3049    16.9707 </r>
       <r>     6.4761     3.6109    17.2426 </r>
       <r>     6.5514     0.0982    17.2500 </r>
       <r>     6.6267     0.0001    17.2500 </r>
       <r>     6.7020     0.0000    17.2500 </r>
       <r>     6.7773     0.0001    17.2500 </r>
       <r>     6.8526     0.0913    17.2569 </r>
       <r>     6.9280     1.8469    17.3960 </r>
       <r>     7.0033     1.3613    17.4985 </r>
       <r>     7.0786     1.4297    17.6062 </r>
       <r>     7.1539     4.7894    17.9669 </r>
       <r>     7.2292     4.3018    18.2909 </r>
       <r>     7.3045     2.8466    18.5052 </r>
       <r>     7.3798     2.0981    18.6632 </r>
       <r>     7.4551     1.1326    18.7485 </r>
       <r>     7.5305     0.0270    18.7506 </r>
       <r>     7.6058     1.3073    18.8490 </r>
       <r>     7.6811     8.3479    19.4777 </r>
       <r>     7.7564     6.4538    19.9638 </r>
       <r>     7.8317     0.6628    20.0137 </r>
       <r>     7.9070     2.7990    20.2245 </r>
       <r>     7.9823     6.1710    20.6892 </r>
       <r>     8.0576     9.3836    21.3959 </r>
       <r>     8.1330     2.1775    21.5599 </r>
       <r>     8.2083     2.2701    21.7309 </r>
       <r>     8.2836     0.2530    21.7500 </r>
       <r>     8.3589     0.0011    21.7500 </r>
       <r>     8.4342     0.3368    21.7754 </r>
       <r>     8.5095     5.7746    22.2103 </r>
       <r>     8.5848     6.7441    22.7182 </r>
       <r>     8.6601     3.8373    23.0072 </r>
       <r>     8.7354     3.1234    23.2424 </r>
       <r>     8.8108     0.1004    23.2500 </r>
       <r>     8.8861     0.0001    23.2500 </r>
       <r>     8.9614     0.0000    23.2500 </r>
       <r>     9.0367     0.0000    23.2500 </r>
       <r>     9.1120     0.0000    23.2500 </r>
       <r>     9.1873     0.0000    23.2500 </r>
       <r>     9.2626     0.0000    23.2500 </r>
       <r>     9.3379     0.0000    23.2500 </r>
       <r>     9.4133     0.0000    23.2500 </r>
       <r>     9.4886     0.0000    23.2500 </r>
       <r>     9.5639     0.0000    23.2500 </r>
       <r>     9.6392     0.0000    23.2500 </r>
       <r>     9.7145     0.0000    23.2500 </r>
       <r>     9.7898     0.0000    23.2500 </r>
       <r>     9.8651     0.0000    23.2500 </r>
       <r>     9.9404     0.0000    23.2500 </r>
       <r>    10.0158     0.0000    23.2500 </r>
       <r>    10.0911     0.0000    23.2500 </r>
       <r>    10.1664     0.0000    23.2500 </r>
       <r>    10.2417     0.0000    23.2500 </r>
       <r>    10.3170     0.0000    23.2500 </r>
       <r>    10.3923     0.0000    23.2500 </r>
       <r>    10.4676     0.0000    23.2500 </r>
       <r>    10.5429     0.0000    23.2500 </r>
       <r>    10.6182     0.0000    23.2500 </r>
       <r>    10.6936     0.0000    23.2500 </r>
       <r>    10.7689     0.0000    23.2500 </r>
       <r>    10.8442     0.0000    23.2500 </r>
       <r>    10.9195     0.0000    23.2500 </r>
       <r>    10.9948     0.0000    23.2500 </r>
       <r>    11.0701     0.0000    23.2500 </r>
       <r>    11.1454     0.0000    23.2500 </r>
       <r>    11.2207     0.0000    23.2500 </r>
       <r>    11.2961     0.0000    23.2500 </r>
       <r>    11.3714     0.0000    23.2500 </r>
       <r>    11.4467     0.0000    23.2500 </r>
       <r>    11.5220     0.0000    23.2500 </r>
       <r>    11.5973     0.0000    23.2500 </r>
       <r>    11.6726     0.0000    23.2500 </r>
       <r>    11.7479     0.0000    23.2500 </r>
       <r>    11.8232     0.0000    23.2500 </r>
       <r>    11.8986     0.0000    23.2500 </r>
       <r>    11.9739     0.0000    23.2500 </r>
       <r>    12.0492     0.0000    23.2500 </r>
       <r>    12.1245     0.0000    23.2500 </r>
       <r>    12.1998     0.0000    23.2500 </r>
       <r>    12.2751     0.0000    23.2500 </r>
       <r>    12.3504     0.0000    23.2500 </r>
       <r>    12.4257     0.0000    23.2500 </r>
       <r>    12.5010     0.0000    23.2500 </r>
       <r>    12.5764     0.0000    23.2500 </r>
       <r>    12.6517     0.0000    23.2500 </r>
       <r>    12.7270     0.0000    23.2500 </r>
       <r>    12.8023     0.0000    23.2500 </r>
       <r>    12.8776     0.0000    23.2500 </r>
       <r>    12.9529     0.0000    23.2500 </r>
       <r>    13.0282     0.0000    23.2500 </r>
       <r>    13.1035     0.0000    23.2500 </r>
       <r>    13.1789     0.0000    23.2500 </r>
       <r>    13.2542     0.0000    23.2500 </r>
       <r>    13.3295     0.0000    23.2500 </r>
       <r>    13.4048     0.0000    23.2500 </r>
       <r>    13.4801     0.0000    23.2500 </r>
       <r>    13.5554     0.0000    23.2500 </r>
       <r>    13.6307     0.0000    23.2500 </r>
       <r>    13.7060     0.0000    23.2500 </r>
       <r>    13.7814     0.0000    23.2500 </r>
       <r>    13.8567     0.0000    23.2500 </r>
       <r>    13.9320     0.0000    23.2500 </r>
       <r>    14.0073     0.0000    23.2500 </r>
       <r>    14.0826     0.0000    23.2500 </r>
       <r>    14.1579     0.0000    23.2500 </r>
       <r>    14.2332     0.0000    23.2500 </r>
       <r>    14.3085     0.0000    23.2500 </r>
       <r>    14.3838     0.0000    23.2500 </r>
       <r>    14.4592     0.0000    23.2500 </r>
       <r>    14.5345     0.0000    23.2500 </r>
       <r>    14.6098     0.0000    23.2500 </r>
       <r>    14.6851     0.0000    23.2500 </r>
       <r>    14.7604     0.0000    23.2500 </r>
       <r>    14.8357     0.0000    23.2500 </r>
       <r>    14.9110     0.0000    23.2500 </r>
       <r>    14.9863     0.0355    23.2527 </r>
       <r>    15.0617     2.1210    23.4124 </r>
       <r>    15.1370     4.1497    23.7249 </r>
       <r>    15.2123     0.3323    23.7500 </r>
       <r>    15.2876     0.0006    23.7500 </r>
       <r>    15.3629     0.0000    23.7500 </r>
       <r>    15.4382     0.0000    23.7500 </r>
       <r>    15.5135     0.0000    23.7500 </r>
       <r>    15.5888     0.0000    23.7500 </r>
       <r>    15.6642     0.0000    23.7500 </r>
       <r>    15.7395     0.0000    23.7500 </r>
       <r>    15.8148     0.0000    23.7500 </r>
       <r>    15.8901     0.0000    23.7500 </r>
       <r>    15.9654     0.0000    23.7500 </r>
       <r>    16.0407     0.0000    23.7500 </r>
       <r>    16.1160     0.0000    23.7500 </r>
       <r>    16.1913     0.0061    23.7505 </r>
       <r>    16.2666     0.7218    23.8048 </r>
       <r>    16.3420     2.3007    23.9781 </r>
       <r>    16.4173     0.2900    23.9999 </r>
       <r>    16.4926     0.0008    24.0000 </r>
       <r>    16.5679     0.0000    24.0000 </r>
       <r>    16.6432     0.0000    24.0000 </r>
       <r>    16.7185     0.0000    24.0000 </r>
       <r>    16.7938     0.0000    24.0000 </r>
       <r>    16.8691     0.0000    24.0000 </r>
       <r>    16.9445     0.0000    24.0000 </r>
       <r>    17.0198     0.0000    24.0000 </r>
       <r>    17.0951     0.0000    24.0000 </r>
       <r>    17.1704     0.0000    24.0000 </r>
       <r>    17.2457     0.0000    24.0000 </r>
       <r>    17.3210     0.0000    24.0000 </r>
      </set>
     </set>
    </array>
   </total>
  </dos>
 </calculation>
 <structure name="finalpos" >
  <crystal>
   <varray name="basis" >
    <v>       2.86303550       0.00000000       0.00000000 </v>
    <v>      -0.00000000       2.86303550       0.00000000 </v>
    <v>       0.00000000       0.00000000       2.86303550 </v>
   </varray>
   <i name="volume">     23.46822259 </i>
   <varray name="rec_basis" >
    <v>       0.34927964       0.00000000      -0.00000000 </v>
    <v>       0.00000000       0.34927964       0.00000000 </v>
    <v>      -0.00000000      -0.00000000       0.34927964 </v>
   </varray>
  </crystal>
  <varray name="positions" >
   <v>       0.00000000       0.00000000       0.00000000 </v>
   <v>       0.50000000       0.50000000       0.50000000 </v>
  </varray>
 </structure>
</modeling>
