Ga8 O12                                 
    1.000000000000000     
     0.0000000000000000   12.2804737091000007    0.0000000000000000
     9.1427011490000005    0.0000000000000000    0.0000000000000000
     0.0000000000000000   -2.7682616411000001  -11.3006974810000003
   Ga   O    Cu   N 
    47    71     1     1
Direct
  0.6597620006352045  0.0000000000000000  0.1572172188864513
  0.6594239517174856  0.0000000000000000  0.6568051183217989
  0.6595077967417922  0.3331176000101053  0.1571718578959747
  0.6587827634947487  0.3334343446553305  0.6568639123388778
  0.6595077967417922  0.6668823999899018  0.1571718578959747
  0.6587827634947487  0.6665656553446695  0.6568639123388778
  0.8431052221402737  0.1658130978653531  0.3442931343830011
  0.8404742452480747  0.1665795618251806  0.8440489296440177
  0.8420695147683830  0.5000000000000000  0.3430554393995706
  0.8405722270433671  0.5000000000000000  0.8433985045865882
  0.8431052221402737  0.8341869021346469  0.3442931343830011
  0.8404742452480747  0.8334204381748194  0.8440489296440177
  0.5918786640984379  0.1665806056585950  0.3975082859383789
  0.5909419847093460  0.1663997402857476  0.8979488479236224
  0.5913595722716636  0.5000000000000000  0.3975468337506385
  0.5910949573854438  0.5000000000000000  0.8979285383669549
  0.5918786640984379  0.8334193943414050  0.3975082859383789
  0.5909419847093460  0.8336002597142524  0.8979488479236224
  0.9100507010449306  0.0000000000000000  0.1039171363771416
  0.9079989679766811  0.0000000000000000  0.6021594243880770
  0.9089152863768106  0.3337554740744153  0.1023303457092624
  0.9068394785525697  0.3344159950265677  0.6017608299457677
  0.9089152863768106  0.6662445259255847  0.1023303457092624
  0.9068394785525697  0.6655840049734394  0.6017608299457677
  0.1589258080616673  0.1667773101058501  0.1564581902231481
  0.1570355170057525  0.1716078359579996  0.6569771302583902
  0.1595339997335756  0.5000000000000000  0.1572105255194458
  0.1583554088437040  0.5000000000000000  0.6561732363074739
  0.1589258080616673  0.8332226898941499  0.1564581902231481
  0.1570355170057525  0.8283921640420004  0.6569771302583902
  0.3411829744229422  0.0000000000000000  0.3419149548446043
  0.3403263311107168  0.0000000000000000  0.8425607922869816
  0.3413158875066173  0.3332562679232325  0.3432259646738771
  0.3412693176357848  0.3337796235556212  0.8436196411280932
  0.3413158875066173  0.6667437320767675  0.3432259646738771
  0.3412693176357848  0.6662203764443788  0.8436196411280932
  0.0899137681366042  0.0000000000000000  0.8974568956481903
  0.0917767242769116  0.3328217303340537  0.3975593265472881
  0.0907462378267354  0.3333840410002011  0.8981229904190968
  0.0917767242769116  0.6671782696659463  0.3975593265472881
  0.0907462378267354  0.6666159589997989  0.8981229904190968
  0.4093617584911868  0.1666161160052795  0.1019741115520461
  0.4099041520520004  0.1667499419448006  0.6018712800926025
  0.4094003153612675  0.5000000000000000  0.1026204801261770
  0.4083185306986152  0.5000000000000000  0.6024553055450923
  0.4093617584911868  0.8333838839947205  0.1019741115520461
  0.4099041520520004  0.8332500580551994  0.6018712800926025
  0.9963412650561807  0.1674885754480755  0.1262555984136498
  0.9942010390825757  0.1678243725910633  0.6290761770306190
  0.9967276748278024  0.5000000000000000  0.1268167827102999
  0.9955170836841631  0.5000000000000000  0.6276012137640166
  0.9963412650561807  0.8325114245519245  0.1262555984136498
  0.9942010390825757  0.8321756274089367  0.6290761770306190
  0.5041310638385994  0.0000000000000000  0.3728612792199755
  0.5032074960511395  0.0000000000000000  0.8723860974920044
  0.5039885023887223  0.3330728538379759  0.3729938413851741
  0.5035490814253478  0.3332199799935651  0.8724346502077580
  0.5039885023887223  0.6669271461620241  0.3729938413851741
  0.5035490814253478  0.6667800200064349  0.8724346502077580
  0.6733398468498635  0.1666180042270398  0.2805110788120260
  0.6722927271106300  0.1665396140641704  0.7807072273903231
  0.6727413132172799  0.5000000000000000  0.2802967715281994
  0.6719529617032691  0.5000000000000000  0.7804307456943249
  0.6733398468498635  0.8333819957729602  0.2805110788120260
  0.6722927271106300  0.8334603859358296  0.7807072273903231
  0.8279182563230023  0.0000000000000000  0.2200107109947709
  0.8272583699674172  0.0000000000000000  0.7201747907524307
  0.8279147553981687  0.3333788679407022  0.2196267144298218
  0.8267186161566968  0.3336902465719973  0.7199092978493269
  0.8279147553981687  0.6666211320592978  0.2196267144298218
  0.8267186161566968  0.6663097534280027  0.7199092978493269
  0.8308989337629029  0.0000000000000000  0.4461223556415845
  0.8327925985142315  0.0000000000000000  0.9468057439153910
  0.8309197824587002  0.3336819738302950  0.4453196474083541
  0.8317029869801047  0.3336684143914539  0.9458538636721485
  0.8309197824587002  0.6663180261697050  0.4453196474083541
  0.8317029869801047  0.6663315856085461  0.9458538636721485
  0.6679958494712110  0.1666057532238909  0.0543199185248966
  0.6679125721786292  0.1668573704524974  0.5544751781692696
  0.6679517498305998  0.5000000000000000  0.0543842716884200
  0.6679445809210804  0.5000000000000000  0.5543074903825982
  0.6679958494712110  0.8333942467761091  0.0543199185248966
  0.6679125721786292  0.8331426295475026  0.5544751781692696
  0.4967043941956462  0.0000000000000000  0.1269894185825180
  0.4969460323587853  0.0000000000000000  0.6273125101618717
  0.4966914828033495  0.3332569612840430  0.1270579862555721
  0.4962369140244007  0.3336733288795486  0.6273422879247121
  0.4966914828033495  0.6667430387159570  0.1270579862555721
  0.4962369140244007  0.6663266711204514  0.6273422879247121
  0.0045338296453536  0.1685432343599800  0.3725219558154365
  0.0030646603745339  0.1670749905949407  0.8726736435852089
  0.0042165031202970  0.5000000000000000  0.3727326141954279
  0.0034847146517123  0.5000000000000000  0.8726381676590762
  0.0045338296453536  0.8314567656400200  0.3725219558154365
  0.0030646603745339  0.8329250094050593  0.8726736435852089
  0.1704950265297924  0.0000000000000000  0.2739385120145172
  0.1724186673725185  0.0000000000000000  0.7818788554451785
  0.1735302067338225  0.3337052686120714  0.2803378827862701
  0.1724706444472517  0.3335609361876664  0.7807258027199069
  0.1735302067338225  0.6662947313879286  0.2803378827862701
  0.1724706444472517  0.6664390638123336  0.7807258027199069
  0.3282155902867530  0.1667409518816569  0.2194015826280804
  0.3265806412906898  0.1648559338872957  0.7176257815074649
  0.3282319713121424  0.5000000000000000  0.2196989235837066
  0.3276895276189578  0.5000000000000000  0.7203714352215158
  0.3282155902867530  0.8332590481183431  0.2194015826280804
  0.3265806412906898  0.8351440661127043  0.7176257815074649
  0.3320466730637932  0.1655422579836028  0.4455292814358742
  0.3327800371443459  0.1669948085893438  0.9451210466679285
  0.3327250803276272  0.5000000000000000  0.4457294291070895
  0.3321581109000533  0.5000000000000000  0.9460732473414453
  0.3320466730637932  0.8344577420163972  0.4455292814358742
  0.3327800371443459  0.8330051914106562  0.9451210466679285
  0.1686064799380631  0.0000000000000000  0.0528825132830875
  0.1683952253008840  0.3334138347115001  0.0542162028669182
  0.1684716704988958  0.3360587095373333  0.5544227866604956
  0.1683952253008840  0.6665861652884999  0.0542162028669182
  0.1684716704988958  0.6639412904626667  0.5544227866604956
  0.1016915064522763  0.0000000000000000  0.4010717526047145
  0.1548757926508699  0.0000000000000000  0.5536755370192949
 
  0.00000000E+00  0.00000000E+00  0.00000000E+00
  0.00000000E+00  0.00000000E+00  0.00000000E+00
  0.00000000E+00  0.00000000E+00  0.00000000E+00
  0.00000000E+00  0.00000000E+00  0.00000000E+00
  0.00000000E+00  0.00000000E+00  0.00000000E+00
  0.00000000E+00  0.00000000E+00  0.00000000E+00
  0.00000000E+00  0.00000000E+00  0.00000000E+00
  0.00000000E+00  0.00000000E+00  0.00000000E+00
  0.00000000E+00  0.00000000E+00  0.00000000E+00
  0.00000000E+00  0.00000000E+00  0.00000000E+00
  0.00000000E+00  0.00000000E+00  0.00000000E+00
  0.00000000E+00  0.00000000E+00  0.00000000E+00
  0.00000000E+00  0.00000000E+00  0.00000000E+00
  0.00000000E+00  0.00000000E+00  0.00000000E+00
  0.00000000E+00  0.00000000E+00  0.00000000E+00
  0.00000000E+00  0.00000000E+00  0.00000000E+00
  0.00000000E+00  0.00000000E+00  0.00000000E+00
  0.00000000E+00  0.00000000E+00  0.00000000E+00
  0.00000000E+00  0.00000000E+00  0.00000000E+00
  0.00000000E+00  0.00000000E+00  0.00000000E+00
  0.00000000E+00  0.00000000E+00  0.00000000E+00
  0.00000000E+00  0.00000000E+00  0.00000000E+00
  0.00000000E+00  0.00000000E+00  0.00000000E+00
  0.00000000E+00  0.00000000E+00  0.00000000E+00
  0.00000000E+00  0.00000000E+00  0.00000000E+00
  0.00000000E+00  0.00000000E+00  0.00000000E+00
  0.00000000E+00  0.00000000E+00  0.00000000E+00
  0.00000000E+00  0.00000000E+00  0.00000000E+00
  0.00000000E+00  0.00000000E+00  0.00000000E+00
  0.00000000E+00  0.00000000E+00  0.00000000E+00
  0.00000000E+00  0.00000000E+00  0.00000000E+00
  0.00000000E+00  0.00000000E+00  0.00000000E+00
  0.00000000E+00  0.00000000E+00  0.00000000E+00
  0.00000000E+00  0.00000000E+00  0.00000000E+00
  0.00000000E+00  0.00000000E+00  0.00000000E+00
  0.00000000E+00  0.00000000E+00  0.00000000E+00
  0.00000000E+00  0.00000000E+00  0.00000000E+00
  0.00000000E+00  0.00000000E+00  0.00000000E+00
  0.00000000E+00  0.00000000E+00  0.00000000E+00
  0.00000000E+00  0.00000000E+00  0.00000000E+00
  0.00000000E+00  0.00000000E+00  0.00000000E+00
  0.00000000E+00  0.00000000E+00  0.00000000E+00
  0.00000000E+00  0.00000000E+00  0.00000000E+00
  0.00000000E+00  0.00000000E+00  0.00000000E+00
  0.00000000E+00  0.00000000E+00  0.00000000E+00
  0.00000000E+00  0.00000000E+00  0.00000000E+00
  0.00000000E+00  0.00000000E+00  0.00000000E+00
  0.00000000E+00  0.00000000E+00  0.00000000E+00
  0.00000000E+00  0.00000000E+00  0.00000000E+00
  0.00000000E+00  0.00000000E+00  0.00000000E+00
  0.00000000E+00  0.00000000E+00  0.00000000E+00
  0.00000000E+00  0.00000000E+00  0.00000000E+00
  0.00000000E+00  0.00000000E+00  0.00000000E+00
  0.00000000E+00  0.00000000E+00  0.00000000E+00
  0.00000000E+00  0.00000000E+00  0.00000000E+00
  0.00000000E+00  0.00000000E+00  0.00000000E+00
  0.00000000E+00  0.00000000E+00  0.00000000E+00
  0.00000000E+00  0.00000000E+00  0.00000000E+00
  0.00000000E+00  0.00000000E+00  0.00000000E+00
  0.00000000E+00  0.00000000E+00  0.00000000E+00
  0.00000000E+00  0.00000000E+00  0.00000000E+00
  0.00000000E+00  0.00000000E+00  0.00000000E+00
  0.00000000E+00  0.00000000E+00  0.00000000E+00
  0.00000000E+00  0.00000000E+00  0.00000000E+00
  0.00000000E+00  0.00000000E+00  0.00000000E+00
  0.00000000E+00  0.00000000E+00  0.00000000E+00
  0.00000000E+00  0.00000000E+00  0.00000000E+00
  0.00000000E+00  0.00000000E+00  0.00000000E+00
  0.00000000E+00  0.00000000E+00  0.00000000E+00
  0.00000000E+00  0.00000000E+00  0.00000000E+00
  0.00000000E+00  0.00000000E+00  0.00000000E+00
  0.00000000E+00  0.00000000E+00  0.00000000E+00
  0.00000000E+00  0.00000000E+00  0.00000000E+00
  0.00000000E+00  0.00000000E+00  0.00000000E+00
  0.00000000E+00  0.00000000E+00  0.00000000E+00
  0.00000000E+00  0.00000000E+00  0.00000000E+00
  0.00000000E+00  0.00000000E+00  0.00000000E+00
  0.00000000E+00  0.00000000E+00  0.00000000E+00
  0.00000000E+00  0.00000000E+00  0.00000000E+00
  0.00000000E+00  0.00000000E+00  0.00000000E+00
  0.00000000E+00  0.00000000E+00  0.00000000E+00
  0.00000000E+00  0.00000000E+00  0.00000000E+00
  0.00000000E+00  0.00000000E+00  0.00000000E+00
  0.00000000E+00  0.00000000E+00  0.00000000E+00
  0.00000000E+00  0.00000000E+00  0.00000000E+00
  0.00000000E+00  0.00000000E+00  0.00000000E+00
  0.00000000E+00  0.00000000E+00  0.00000000E+00
  0.00000000E+00  0.00000000E+00  0.00000000E+00
  0.00000000E+00  0.00000000E+00  0.00000000E+00
  0.00000000E+00  0.00000000E+00  0.00000000E+00
  0.00000000E+00  0.00000000E+00  0.00000000E+00
  0.00000000E+00  0.00000000E+00  0.00000000E+00
  0.00000000E+00  0.00000000E+00  0.00000000E+00
  0.00000000E+00  0.00000000E+00  0.00000000E+00
  0.00000000E+00  0.00000000E+00  0.00000000E+00
  0.00000000E+00  0.00000000E+00  0.00000000E+00
  0.00000000E+00  0.00000000E+00  0.00000000E+00
  0.00000000E+00  0.00000000E+00  0.00000000E+00
  0.00000000E+00  0.00000000E+00  0.00000000E+00
  0.00000000E+00  0.00000000E+00  0.00000000E+00
  0.00000000E+00  0.00000000E+00  0.00000000E+00
  0.00000000E+00  0.00000000E+00  0.00000000E+00
  0.00000000E+00  0.00000000E+00  0.00000000E+00
  0.00000000E+00  0.00000000E+00  0.00000000E+00
  0.00000000E+00  0.00000000E+00  0.00000000E+00
  0.00000000E+00  0.00000000E+00  0.00000000E+00
  0.00000000E+00  0.00000000E+00  0.00000000E+00
  0.00000000E+00  0.00000000E+00  0.00000000E+00
  0.00000000E+00  0.00000000E+00  0.00000000E+00
  0.00000000E+00  0.00000000E+00  0.00000000E+00
  0.00000000E+00  0.00000000E+00  0.00000000E+00
  0.00000000E+00  0.00000000E+00  0.00000000E+00
  0.00000000E+00  0.00000000E+00  0.00000000E+00
  0.00000000E+00  0.00000000E+00  0.00000000E+00
  0.00000000E+00  0.00000000E+00  0.00000000E+00
  0.00000000E+00  0.00000000E+00  0.00000000E+00
  0.00000000E+00  0.00000000E+00  0.00000000E+00
  0.00000000E+00  0.00000000E+00  0.00000000E+00
  0.00000000E+00  0.00000000E+00  0.00000000E+00
  0.00000000E+00  0.00000000E+00  0.00000000E+00
