 running    4 mpi-ranks, on    1 nodes
 distrk:  each k-point on    1 cores,    4 groups
 distr:  one band on    1 cores,    1 groups
 OpenACC runtime initialized ...    4 GPUs detected
 vasp.6.4.2 20Jul23 (build Nov 12 2023 22:16:35) complex                         
 POSCAR found type information on POSCAR GaO CuN 
 POSCAR found :  4 types and     120 ions
 scaLAPACK will be used selectively (only on CPU)
 LDA part: xc-table for Pade appr. of Perdew
 POSCAR, INCAR and KPOINTS ok, starting setup
 FFT: planning ... GRIDC
 FFT: planning ... GRID_SOFT
 FFT: planning ... GRID
 WAVECAR not read
 initial charge from wavefunction
 entering main loop
       N       E                     dE             d eps       ncg     rms          ort
DAV:   1    -0.184179839835E+05   -0.18418E+05   -0.54761E+05  5048   0.744E+03
DAV:   2    -0.624018424970E+05   -0.43984E+05   -0.42701E+05  5048   0.120E+03
DAV:   3    -0.669237377456E+05   -0.45219E+04   -0.40383E+04  5048   0.349E+02
DAV:   4    -0.674348113944E+05   -0.51107E+03   -0.43853E+03  5048   0.102E+02
DAV:   5    -0.373831688562E+05    0.30052E+05   -0.71943E+02  5048   0.534E+01
 gam= 0.000 g(H,U,f)=  0.665E+05 0.146E+05 0.163E+02 ort(H,U,f) = 0.000E+00 0.000E+00 0.000E+00
SDA:   6     0.172882957198E+05    0.54671E+05   -0.71943E+02  5048   0.811E+05 0.000E+00
 gam= 0.000 trial= 0.400  step= 0.294 mean= 0.400
 gam= 0.348 g(H,U,f)=  0.129E+05 0.976E+04 0.549E+04 ort(H,U,f) = 0.679E+04-0.959E+04-0.634E+04
CGA:   7     0.399710092739E+04   -0.13291E+05   -0.11907E+05  5048   0.282E+05-0.914E+04
 gam= 0.348 trial= 0.395  step= 0.204 mean= 0.395
 gam= 0.286 g(H,U,f)=  0.517E+04 0.263E+04 0.240E+03 ort(H,U,f) = 0.131E+04-0.224E+04-0.325E+03
CGA:   8     0.137295454102E+04   -0.26241E+04   -0.25481E+04  5048   0.804E+04-0.126E+04
 gam= 0.286 trial= 0.385  step= 0.199 mean= 0.385
 gam= 0.853 g(H,U,f)=  0.267E+04 0.354E+04 0.650E+03 ort(H,U,f) = 0.771E+03-0.432E+01-0.184E+03
CGA:   9     0.517512491238E+03   -0.85544E+03   -0.76290E+03  5048   0.686E+04 0.583E+03
 gam= 0.853 trial= 0.376  step= 0.148 mean= 0.376
 gam= 1.310 g(H,U,f)=  0.312E+04 0.534E+04 0.534E+03 ort(H,U,f) =-0.620E+02-0.129E+04-0.452E+03
CGA:  10     0.372060771456E+03   -0.14545E+03   -0.54609E+03  5048   0.899E+04-0.180E+04
 gam= 1.310 trial= 0.364  step= 0.156 mean= 0.364
 gam= 0.410 g(H,U,f)=  0.262E+04 0.100E+04 0.582E+02 ort(H,U,f) =-0.121E+04 0.679E+03 0.825E+02
CGA:  11    -0.484002026597E+02   -0.42046E+03   -0.51711E+03  5048   0.369E+04-0.447E+03
 gam= 0.410 trial= 0.354  step= 0.262 mean= 0.354
 gam= 0.376 g(H,U,f)=  0.126E+04 0.130E+03 0.862E-01 ort(H,U,f) = 0.244E+02 0.236E+03 0.340E+00
CGA:  12    -0.461538798691E+03   -0.41314E+03   -0.45916E+03  5048   0.139E+04 0.261E+03
 gam= 0.376 trial= 0.349  step= 0.342 mean= 0.349
 gam= 0.337 g(H,U,f)=  0.429E+03 0.369E+02 0.622E+00 ort(H,U,f) =-0.314E+01 0.725E+02 0.215E+01
CGA:  13    -0.714896747416E+03   -0.25336E+03   -0.25388E+03  5048   0.466E+03 0.715E+02
 gam= 0.337 trial= 0.349  step= 0.481 mean= 0.349
 gam= 0.550 g(H,U,f)=  0.238E+03 0.145E+02 0.357E+01 ort(H,U,f) = 0.781E+01 0.164E+02 0.766E+01
CGA:  14    -0.835608742830E+03   -0.12071E+03   -0.11804E+03  5048   0.256E+03 0.318E+02
 gam= 0.550 trial= 0.356  step= 0.444 mean= 0.356
 gam= 0.431 g(H,U,f)=  0.101E+03 0.951E+01 0.836E-03 ort(H,U,f) = 0.360E+01 0.800E+01 0.183E-01
CGA:  15    -0.897376427837E+03   -0.61768E+02   -0.60880E+02  5048   0.111E+03 0.116E+02
 gam= 0.431 trial= 0.360  step= 0.462 mean= 0.360
 gam= 0.460 g(H,U,f)=  0.467E+02 0.410E+01 0.398E-01 ort(H,U,f) =-0.810E+01 0.729E+01 0.149E+00
CGA:  16    -0.924066110542E+03   -0.26690E+02   -0.26703E+02  5048   0.509E+02-0.657E+00
 gam= 0.460 trial= 0.365  step= 0.565 mean= 0.365
 gam= 0.523 g(H,U,f)=  0.247E+02 0.194E+01 0.954E-04 ort(H,U,f) =-0.112E+02 0.254E+01 0.455E-03
CGA:  17    -0.937088234716E+03   -0.13022E+02   -0.14291E+02  5048   0.266E+02-0.867E+01
 gam= 0.523 trial= 0.375  step= 0.533 mean= 0.375
 gam= 0.578 g(H,U,f)=  0.139E+02 0.154E+01 0.491E-02 ort(H,U,f) =-0.404E+01 0.107E+01-0.164E-02
CGA:  18    -0.942622843835E+03   -0.55346E+01   -0.58899E+01  5048   0.154E+02-0.297E+01
 gam= 0.578 trial= 0.383  step= 0.482 mean= 0.383
 gam= 0.550 g(H,U,f)=  0.782E+01 0.626E+00 0.324E-01 ort(H,U,f) =-0.105E+01 0.571E+00 0.425E-01
CGA:  19    -0.945897216486E+03   -0.32744E+01   -0.32986E+01  5048   0.848E+01-0.433E+00
 gam= 0.550 trial= 0.388  step= 0.487 mean= 0.388
 gam= 0.568 g(H,U,f)=  0.410E+01 0.700E+00 0.160E-01 ort(H,U,f) =-0.279E+00-0.419E-01 0.319E-01
CGA:  20    -0.947884506806E+03   -0.19873E+01   -0.20067E+01  5048   0.481E+01-0.289E+00
 gam= 0.568 trial= 0.393  step= 0.459 mean= 0.393
 gam= 0.589 g(H,U,f)=  0.252E+01 0.309E+00 0.951E-03 ort(H,U,f) =-0.388E+00 0.268E+00 0.303E-02
CGA:  21    -0.948946136224E+03   -0.10616E+01   -0.10667E+01  5048   0.283E+01-0.117E+00
 gam= 0.589 trial= 0.396  step= 0.391 mean= 0.396
 gam= 0.777 g(H,U,f)=  0.154E+01 0.657E+00 0.161E-02 ort(H,U,f) = 0.139E+00-0.410E+00 0.161E-01
CGA:  22    -0.949488549771E+03   -0.54241E+00   -0.54107E+00  5048   0.220E+01-0.255E+00
 gam= 0.777 trial= 0.396  step= 0.305 mean= 0.396
 gam= 0.829 g(H,U,f)=  0.965E+00 0.855E+00 0.358E-02 ort(H,U,f) = 0.167E-01 0.680E-02-0.168E-01
CGA:  23    -0.949796530711E+03   -0.30798E+00   -0.30576E+00  5048   0.182E+01 0.679E-02
 gam= 0.829 trial= 0.392  step= 0.242 mean= 0.392
 gam= 0.533 g(H,U,f)=  0.704E+00 0.269E+00 0.787E-03 ort(H,U,f) =-0.258E+00 0.272E+00 0.266E-02
CGA:  24    -0.950018837036E+03   -0.22231E+00   -0.22157E+00  5048   0.973E+00 0.168E-01
 gam= 0.533 trial= 0.384  step= 0.277 mean= 0.384
 gam= 0.731 g(H,U,f)=  0.515E+00 0.194E+00 0.237E-02 ort(H,U,f) =-0.213E-01 0.414E-01-0.118E-01
CGA:  25    -0.950153221399E+03   -0.13438E+00   -0.13587E+00  5048   0.712E+00 0.833E-02
 gam= 0.731 trial= 0.379  step= 0.335 mean= 0.379
 gam= 0.849 g(H,U,f)=  0.435E+00 0.163E+00 0.638E-02 ort(H,U,f) =-0.266E-01 0.435E-01-0.117E-01
CGA:  26    -0.950273241732E+03   -0.12002E+00   -0.12022E+00  5048   0.604E+00 0.525E-02
 gam= 0.849 trial= 0.377  step= 0.292 mean= 0.377
 gam= 0.613 g(H,U,f)=  0.288E+00 0.775E-01 0.508E-02 ort(H,U,f) =-0.662E-01 0.711E-01-0.288E-02
CGA:  27    -0.950361916199E+03   -0.88674E-01   -0.88789E-01  5048   0.370E+00 0.206E-02
 gam= 0.613 trial= 0.372  step= 0.283 mean= 0.372
 gam= 0.783 g(H,U,f)=  0.236E+00 0.507E-01 0.290E-02 ort(H,U,f) =-0.425E-01 0.408E-01 0.277E-02
CGA:  28    -0.950414563582E+03   -0.52647E-01   -0.52629E-01  5048   0.290E+00 0.107E-02
 gam= 0.783 trial= 0.368  step= 0.317 mean= 0.368
 gam= 0.863 g(H,U,f)=  0.197E+00 0.512E-01 0.169E-02 ort(H,U,f) =-0.291E-01 0.262E-01 0.420E-02
CGA:  29    -0.950460682266E+03   -0.46119E-01   -0.46141E-01  5048   0.250E+00 0.124E-02
 gam= 0.863 trial= 0.365  step= 0.250 mean= 0.365
 gam= 0.577 g(H,U,f)=  0.115E+00 0.282E-01 0.114E-02 ort(H,U,f) =-0.298E-01 0.260E-01 0.446E-02
CGA:  30    -0.950491996391E+03   -0.31314E-01   -0.31424E-01  5048   0.144E+00 0.668E-03
 gam= 0.577 trial= 0.360  step= 0.285 mean= 0.360
 gam= 0.698 g(H,U,f)=  0.827E-01 0.173E-01 0.680E-03 ort(H,U,f) =-0.107E-01 0.889E-02 0.234E-02
CGA:  31    -0.950512559724E+03   -0.20563E-01   -0.20640E-01  5048   0.101E+00 0.539E-03
 gam= 0.698 trial= 0.356  step= 0.315 mean= 0.356
 gam= 0.669 g(H,U,f)=  0.486E-01 0.185E-01 0.315E-03 ort(H,U,f) =-0.186E-02 0.143E-02 0.644E-03
CGA:  32    -0.950528481540E+03   -0.15922E-01   -0.15938E-01  5048   0.674E-01 0.210E-03
 gam= 0.669 trial= 0.354  step= 0.339 mean= 0.354
 gam= 0.681 g(H,U,f)=  0.341E-01 0.116E-01 0.136E-03 ort(H,U,f) =-0.732E-02 0.745E-02-0.186E-03
CGA:  33    -0.950539932348E+03   -0.11451E-01   -0.11451E-01  5048   0.459E-01-0.531E-04
 gam= 0.681 trial= 0.353  step= 0.319 mean= 0.353
 gam= 0.617 g(H,U,f)=  0.238E-01 0.444E-02 0.104E-03 ort(H,U,f) =-0.174E-02 0.193E-02-0.284E-03
CGA:  34    -0.950547247891E+03   -0.73155E-02   -0.73129E-02  5048   0.283E-01-0.994E-04
 gam= 0.617 trial= 0.351  step= 0.359 mean= 0.351
 gam= 0.869 g(H,U,f)=  0.160E-01 0.846E-02 0.118E-03 ort(H,U,f) = 0.208E-03-0.147E-03-0.125E-03
CGA:  35    -0.950552320750E+03   -0.50729E-02   -0.50732E-02  5048   0.246E-01-0.649E-04
 gam= 0.869 trial= 0.352  step= 0.345 mean= 0.352
 gam= 0.645 g(H,U,f)=  0.126E-01 0.316E-02 0.117E-03 ort(H,U,f) =-0.361E-02 0.357E-02 0.416E-05
CGA:  36    -0.950556553866E+03   -0.42331E-02   -0.42329E-02  5048   0.159E-01-0.358E-04
 gam= 0.645 trial= 0.351  step= 0.298 mean= 0.351
 gam= 0.000 g(H,U,f)=  0.893E-02 0.144E-02 0.946E-04 ort(H,U,f) = 0.353E-03-0.477E-03 0.108E-03
SDA:  37    -0.950558913472E+03   -0.23596E-02   -0.23583E-02  5048   0.105E-01-0.155E-04
 gam= 0.000 trial= 0.349  step= 0.642 mean= 0.349
 gam= 0.503 g(H,U,f)=  0.363E-02 0.159E-02 0.520E-04 ort(H,U,f) = 0.614E-04-0.120E-03 0.706E-04
CGA:  38    -0.950562277783E+03   -0.33643E-02   -0.33627E-02  5048   0.527E-02 0.117E-04
 gam= 0.503 trial= 0.363  step= 0.452 mean= 0.363
 gam= 0.465 g(H,U,f)=  0.182E-02 0.600E-03 0.267E-04 ort(H,U,f) =-0.283E-03 0.234E-03 0.629E-04
CGA:  39    -0.950563471575E+03   -0.11938E-02   -0.11932E-02  5048   0.245E-02 0.146E-04
 gam= 0.465 trial= 0.368  step= 0.621 mean= 0.368
 gam= 0.283 g(H,U,f)=  0.584E-03 0.103E-03 0.636E-05 ort(H,U,f) =-0.284E-03 0.276E-03 0.270E-04
CGA:  40    -0.950564236421E+03   -0.76485E-03   -0.76245E-03  5048   0.693E-03 0.191E-04
 gam= 0.283 trial= 0.381  step= 0.734 mean= 0.381
 gam= 0.347 g(H,U,f)=  0.201E-03 0.382E-04 0.814E-06 ort(H,U,f) =-0.562E-04 0.779E-04 0.487E-05
CGA:  41    -0.950564497430E+03   -0.26101E-03   -0.25631E-03  5048   0.240E-03 0.266E-04
 gam= 0.347 trial= 0.398  step= 0.737 mean= 0.398
 gam= 0.522 g(H,U,f)=  0.103E-03 0.222E-04 0.745E-08 ort(H,U,f) =-0.270E-04 0.333E-04 0.129E-06
CGA:  42    -0.950564590506E+03   -0.93076E-04   -0.91982E-04  5048   0.125E-03 0.646E-05
 gam= 0.522 trial= 0.415  step= 0.614 mean= 0.415
 gam= 0.592 g(H,U,f)=  0.541E-04 0.200E-04 0.117E-06 ort(H,U,f) =-0.226E-04 0.221E-04-0.474E-06
CGA:  43    -0.950564629917E+03   -0.39411E-04   -0.39510E-04  5048   0.742E-04-0.996E-06
 gam= 0.592 trial= 0.425  step= 0.719 mean= 0.425
 gam= 0.723 g(H,U,f)=  0.377E-04 0.157E-04 0.239E-06 ort(H,U,f) =-0.186E-04 0.194E-04-0.283E-06
CGA:  44    -0.950564656437E+03   -0.26520E-04   -0.26449E-04  5048   0.536E-04 0.494E-06
 gam= 0.723 trial= 0.440  step= 0.744 mean= 0.440
 gam= 0.816 g(H,U,f)=  0.314E-04 0.122E-04 0.214E-06 ort(H,U,f) =-0.162E-04 0.191E-04 0.196E-07
CGA:  45    -0.950564676956E+03   -0.20518E-04   -0.20078E-04  5048   0.438E-04 0.290E-05
 gam= 0.816 trial= 0.455  step= 0.756 mean= 0.455
 gam= 0.872 g(H,U,f)=  0.306E-04 0.742E-05 0.100E-06 ort(H,U,f) =-0.178E-04 0.198E-04 0.156E-06
CGA:  46    -0.950564694731E+03   -0.17775E-04   -0.17445E-04  5048   0.382E-04 0.220E-05
 gam= 0.872 trial= 0.470  step= 0.878 mean= 0.470
 gam= 0.931 g(H,U,f)=  0.307E-04 0.480E-05 0.426E-08 ort(H,U,f) =-0.153E-04 0.160E-04 0.322E-07
CGA:  47    -0.950564712455E+03   -0.17723E-04   -0.17589E-04  5048   0.355E-04 0.665E-06
 gam= 0.931 trial= 0.490  step= 0.734 mean= 0.490
 gam= 0.725 g(H,U,f)=  0.233E-04 0.243E-05 0.326E-07 ort(H,U,f) =-0.120E-04 0.112E-04-0.127E-06
CGA:  48    -0.950564725617E+03   -0.13162E-04   -0.13277E-04  5048   0.258E-04-0.944E-06
 gam= 0.725 trial= 0.503  step= 0.691 mean= 0.503
 gam= 0.647 g(H,U,f)=  0.145E-04 0.214E-05 0.768E-07 ort(H,U,f) =-0.620E-05 0.578E-05-0.979E-07
CGA:  49    -0.950564734242E+03   -0.86252E-05   -0.86746E-05  5048   0.167E-04-0.521E-06
 gam= 0.647 trial= 0.512  step= 0.679 mean= 0.512
 final diagonalization
   1 F= -.95056473E+03 E0= -.95055951E+03  d E =-.104463E-01
 writing wavefunctions
Warning: ieee_invalid is signaling
Warning: ieee_divide_by_zero is signaling
Warning: ieee_underflow is signaling
Warning: ieee_inexact is signaling
FORTRAN STOP
Warning: ieee_invalid is signaling
Warning: ieee_divide_by_zero is signaling
Warning: ieee_underflow is signaling
Warning: ieee_inexact is signaling
FORTRAN STOP
Warning: ieee_invalid is signaling
Warning: ieee_divide_by_zero is signaling
Warning: ieee_underflow is signaling
Warning: ieee_inexact is signaling
FORTRAN STOP
Warning: ieee_invalid is signaling
Warning: ieee_divide_by_zero is signaling
Warning: ieee_underflow is signaling
Warning: ieee_inexact is signaling
FORTRAN STOP
