       N       E                     dE             d eps       ncg     rms          ort
DAV:   1    -0.184179839835E+05   -0.18418E+05   -0.54761E+05  5048   0.744E+03
DAV:   2    -0.624018424970E+05   -0.43984E+05   -0.42701E+05  5048   0.120E+03
DAV:   3    -0.669237377456E+05   -0.45219E+04   -0.40383E+04  5048   0.349E+02
DAV:   4    -0.674348113944E+05   -0.51107E+03   -0.43853E+03  5048   0.102E+02
DAV:   5    -0.373831688562E+05    0.30052E+05   -0.71943E+02  5048   0.534E+01
SDA:   6     0.172882957198E+05    0.54671E+05   -0.71943E+02  5048   0.811E+05 0.000E+00
CGA:   7     0.399710092739E+04   -0.13291E+05   -0.11907E+05  5048   0.282E+05-0.914E+04
CGA:   8     0.137295454102E+04   -0.26241E+04   -0.25481E+04  5048   0.804E+04-0.126E+04
CGA:   9     0.517512491238E+03   -0.85544E+03   -0.76290E+03  5048   0.686E+04 0.583E+03
CGA:  10     0.372060771456E+03   -0.14545E+03   -0.54609E+03  5048   0.899E+04-0.180E+04
CGA:  11    -0.484002026597E+02   -0.42046E+03   -0.51711E+03  5048   0.369E+04-0.447E+03
CGA:  12    -0.461538798691E+03   -0.41314E+03   -0.45916E+03  5048   0.139E+04 0.261E+03
CGA:  13    -0.714896747416E+03   -0.25336E+03   -0.25388E+03  5048   0.466E+03 0.715E+02
CGA:  14    -0.835608742830E+03   -0.12071E+03   -0.11804E+03  5048   0.256E+03 0.318E+02
CGA:  15    -0.897376427837E+03   -0.61768E+02   -0.60880E+02  5048   0.111E+03 0.116E+02
CGA:  16    -0.924066110542E+03   -0.26690E+02   -0.26703E+02  5048   0.509E+02-0.657E+00
CGA:  17    -0.937088234716E+03   -0.13022E+02   -0.14291E+02  5048   0.266E+02-0.867E+01
CGA:  18    -0.942622843835E+03   -0.55346E+01   -0.58899E+01  5048   0.154E+02-0.297E+01
CGA:  19    -0.945897216486E+03   -0.32744E+01   -0.32986E+01  5048   0.848E+01-0.433E+00
CGA:  20    -0.947884506806E+03   -0.19873E+01   -0.20067E+01  5048   0.481E+01-0.289E+00
CGA:  21    -0.948946136224E+03   -0.10616E+01   -0.10667E+01  5048   0.283E+01-0.117E+00
CGA:  22    -0.949488549771E+03   -0.54241E+00   -0.54107E+00  5048   0.220E+01-0.255E+00
CGA:  23    -0.949796530711E+03   -0.30798E+00   -0.30576E+00  5048   0.182E+01 0.679E-02
CGA:  24    -0.950018837036E+03   -0.22231E+00   -0.22157E+00  5048   0.973E+00 0.168E-01
CGA:  25    -0.950153221399E+03   -0.13438E+00   -0.13587E+00  5048   0.712E+00 0.833E-02
CGA:  26    -0.950273241732E+03   -0.12002E+00   -0.12022E+00  5048   0.604E+00 0.525E-02
CGA:  27    -0.950361916199E+03   -0.88674E-01   -0.88789E-01  5048   0.370E+00 0.206E-02
CGA:  28    -0.950414563582E+03   -0.52647E-01   -0.52629E-01  5048   0.290E+00 0.107E-02
CGA:  29    -0.950460682266E+03   -0.46119E-01   -0.46141E-01  5048   0.250E+00 0.124E-02
CGA:  30    -0.950491996391E+03   -0.31314E-01   -0.31424E-01  5048   0.144E+00 0.668E-03
CGA:  31    -0.950512559724E+03   -0.20563E-01   -0.20640E-01  5048   0.101E+00 0.539E-03
CGA:  32    -0.950528481540E+03   -0.15922E-01   -0.15938E-01  5048   0.674E-01 0.210E-03
CGA:  33    -0.950539932348E+03   -0.11451E-01   -0.11451E-01  5048   0.459E-01-0.531E-04
CGA:  34    -0.950547247891E+03   -0.73155E-02   -0.73129E-02  5048   0.283E-01-0.994E-04
CGA:  35    -0.950552320750E+03   -0.50729E-02   -0.50732E-02  5048   0.246E-01-0.649E-04
CGA:  36    -0.950556553866E+03   -0.42331E-02   -0.42329E-02  5048   0.159E-01-0.358E-04
SDA:  37    -0.950558913472E+03   -0.23596E-02   -0.23583E-02  5048   0.105E-01-0.155E-04
CGA:  38    -0.950562277783E+03   -0.33643E-02   -0.33627E-02  5048   0.527E-02 0.117E-04
CGA:  39    -0.950563471575E+03   -0.11938E-02   -0.11932E-02  5048   0.245E-02 0.146E-04
CGA:  40    -0.950564236421E+03   -0.76485E-03   -0.76245E-03  5048   0.693E-03 0.191E-04
CGA:  41    -0.950564497430E+03   -0.26101E-03   -0.25631E-03  5048   0.240E-03 0.266E-04
CGA:  42    -0.950564590506E+03   -0.93076E-04   -0.91982E-04  5048   0.125E-03 0.646E-05
CGA:  43    -0.950564629917E+03   -0.39411E-04   -0.39510E-04  5048   0.742E-04-0.996E-06
CGA:  44    -0.950564656437E+03   -0.26520E-04   -0.26449E-04  5048   0.536E-04 0.494E-06
CGA:  45    -0.950564676956E+03   -0.20518E-04   -0.20078E-04  5048   0.438E-04 0.290E-05
CGA:  46    -0.950564694731E+03   -0.17775E-04   -0.17445E-04  5048   0.382E-04 0.220E-05
CGA:  47    -0.950564712455E+03   -0.17723E-04   -0.17589E-04  5048   0.355E-04 0.665E-06
CGA:  48    -0.950564725617E+03   -0.13162E-04   -0.13277E-04  5048   0.258E-04-0.944E-06
CGA:  49    -0.950564734242E+03   -0.86252E-05   -0.86746E-05  5048   0.167E-04-0.521E-06
   1 F= -.95056473E+03 E0= -.95055951E+03  d E =-.104463E-01
