Ga8 O12                                 
    1.000000000000000     
     0.0000000000000000   12.2804737091000007    0.0000000000000000
     9.1427011490000005    0.0000000000000000    0.0000000000000000
     0.0000000000000000   -2.7682616411000001  -11.3006974810000003
   Ga   O    Cu   N 
    47    71     1     1
Direct
  0.6597620006352043 -0.0000000000000000  0.1572172188864546
  0.6594239517174866 -0.0000000000000000  0.6568051183218011
  0.6595077967417932  0.3331176000101019  0.1571718578959715
  0.6587827634947495  0.3334343446553299  0.6568639123388781
  0.6595077967417932  0.6668823999898983  0.1571718578959715
  0.6587827634947495  0.6665656553446700  0.6568639123388781
  0.8431052221402731  0.1658130978653501  0.3442931343830011
  0.8404742452480731  0.1665795618251810  0.8440489296440193
  0.8420695147683815  0.5000000000000000  0.3430554393995708
  0.8405722270433670  0.5000000000000000  0.8433985045865895
  0.8431052221402731  0.8341869021346502  0.3442931343830011
  0.8404742452480731  0.8334204381748190  0.8440489296440193
  0.5918786640984375  0.1665806056585933  0.3975082859383798
  0.5909419847093486  0.1663997402857504  0.8979488479236253
  0.5913595722716662  0.5000000000000000  0.3975468337506402
  0.5910949573854414  0.5000000000000000  0.8979285383669521
  0.5918786640984375  0.8334193943414065  0.3975082859383798
  0.5909419847093486  0.8336002597142499  0.8979488479236253
  0.9100507010449304 -0.0000000000000000  0.1039171363771391
  0.9079989679766843 -0.0000000000000000  0.6021594243880742
  0.9089152863768082  0.3337554740744147  0.1023303457092609
  0.9068394785525713  0.3344159950265644  0.6017608299457660
  0.9089152863768082  0.6662445259255856  0.1023303457092609
  0.9068394785525713  0.6655840049734359  0.6017608299457660
  0.1589258080616646  0.1667773101058483  0.1564581902231508
  0.1570355170057490  0.1716078359580025  0.6569771302583909
  0.1595339997335723  0.5000000000000000  0.1572105255194466
  0.1583554088437071  0.5000000000000000  0.6561732363074770
  0.1589258080616646  0.8332226898941517  0.1564581902231508
  0.1570355170057490  0.8283921640419972  0.6569771302583909
  0.3411829744229443 -0.0000000000000000  0.3419149548446038
  0.3403263311107174 -0.0000000000000000  0.8425607922869816
  0.3413158875066172  0.3332562679232348  0.3432259646738780
  0.3412693176357864  0.3337796235556245  0.8436196411280931
  0.3413158875066172  0.6667437320767653  0.3432259646738780
  0.3412693176357864  0.6662203764443754  0.8436196411280931
  0.0899137681366015 -0.0000000000000000  0.8974568956481884
  0.0917767242769087  0.3328217303340539  0.3975593265472860
  0.0907462378267351  0.3333840410002035  0.8981229904190939
  0.0917767242769087  0.6671782696659458  0.3975593265472860
  0.0907462378267351  0.6666159589997962  0.8981229904190939
  0.4093617584911856  0.1666161160052776  0.1019741115520426
  0.4099041520519989  0.1667499419447999  0.6018712800925997
  0.4094003153612705  0.5000000000000000  0.1026204801261745
  0.4083185306986119  0.5000000000000000  0.6024553055450930
  0.4093617584911856  0.8333838839947224  0.1019741115520426
  0.4099041520519989  0.8332500580552005  0.6018712800925997
  0.9963412650561817  0.1674885754480781  0.1262555984136516
  0.9942010390825783  0.1678243725910626  0.6290761770306160
  0.9967276748278036  0.5000000000000000  0.1268167827102967
  0.9955170836841615  0.5000000000000000  0.6276012137640148
  0.9963412650561817  0.8325114245519222  0.1262555984136516
  0.9942010390825783  0.8321756274089372  0.6290761770306160
  0.5041310638386023 -0.0000000000000000  0.3728612792199725
  0.5032074960511396 -0.0000000000000000  0.8723860974920072
  0.5039885023887197  0.3330728538379737  0.3729938413851744
  0.5035490814253468  0.3332199799935655  0.8724346502077558
  0.5039885023887197  0.6669271461620264  0.3729938413851744
  0.5035490814253468  0.6667800200064344  0.8724346502077558
  0.6733398468498635  0.1666180042270393  0.2805110788120236
  0.6722927271106273  0.1665396140641723  0.7807072273903238
  0.6727413132172777  0.5000000000000000  0.2802967715281999
  0.6719529617032682  0.5000000000000000  0.7804307456943277
  0.6733398468498635  0.8333819957729608  0.2805110788120236
  0.6722927271106273  0.8334603859358275  0.7807072273903238
  0.8279182563230025 -0.0000000000000000  0.2200107109947675
  0.8272583699674148 -0.0000000000000000  0.7201747907524336
  0.8279147553981708  0.3333788679407003  0.2196267144298241
  0.8267186161566992  0.3336902465719968  0.7199092978493293
  0.8279147553981708  0.6666211320592998  0.2196267144298241
  0.8267186161566992  0.6663097534280034  0.7199092978493293
  0.8308989337629005 -0.0000000000000000  0.4461223556415865
  0.8327925985142295 -0.0000000000000000  0.9468057439153874
  0.8309197824587026  0.3336819738302950  0.4453196474083528
  0.8317029869801068  0.3336684143914520  0.9458538636721474
  0.8309197824587026  0.6663180261697048  0.4453196474083528
  0.8317029869801068  0.6663315856085478  0.9458538636721474
  0.6679958494712120  0.1666057532238892  0.0543199185248983
  0.6679125721786269  0.1668573704525006  0.5544751781692676
  0.6679517498305974  0.5000000000000000  0.0543842716884212
  0.6679445809210786  0.5000000000000000  0.5543074903825950
  0.6679958494712120  0.8333942467761113  0.0543199185248983
  0.6679125721786269  0.8331426295474995  0.5544751781692676
  0.4967043941956443 -0.0000000000000000  0.1269894185825215
  0.4969460323587839 -0.0000000000000000  0.6273125101618684
  0.4966914828033515  0.3332569612840417  0.1270579862555728
  0.4962369140243985  0.3336733288795504  0.6273422879247124
  0.4966914828033515  0.6667430387159583  0.1270579862555728
  0.4962369140243985  0.6663266711204494  0.6273422879247124
  0.0045338296453556  0.1685432343599806  0.3725219558154381
  0.0030646603745342  0.1670749905949412  0.8726736435852117
  0.0042165031202945  0.5000000000000000  0.3727326141954254
  0.0034847146517122  0.5000000000000000  0.8726381676590774
  0.0045338296453556  0.8314567656400196  0.3725219558154381
  0.0030646603745342  0.8329250094050590  0.8726736435852117
  0.1704950265297916 -0.0000000000000000  0.2739385120145157
  0.1724186673725167 -0.0000000000000000  0.7818788554451811
  0.1735302067338203  0.3337052686120735  0.2803378827862695
  0.1724706444472533  0.3335609361876691  0.7807258027199098
  0.1735302067338203  0.6662947313879265  0.2803378827862695
  0.1724706444472533  0.6664390638123310  0.7807258027199098
  0.3282155902867537  0.1667409518816590  0.2194015826280808
  0.3265806412906875  0.1648559338872963  0.7176257815074647
  0.3282319713121438  0.5000000000000000  0.2196989235837083
  0.3276895276189557  0.5000000000000000  0.7203714352215143
  0.3282155902867537  0.8332590481183410  0.2194015826280808
  0.3265806412906875  0.8351440661127040  0.7176257815074647
  0.3320466730637918  0.1655422579836043  0.4455292814358712
  0.3327800371443437  0.1669948085893457  0.9451210466679314
  0.3327250803276245  0.5000000000000000  0.4457294291070887
  0.3321581109000543  0.5000000000000000  0.9460732473414428
  0.3320466730637918  0.8344577420163957  0.4455292814358712
  0.3327800371443437  0.8330051914106548  0.9451210466679314
  0.1686064799380598 -0.0000000000000000  0.0528825132830873
  0.1683952253008873  0.3334138347114998  0.0542162028669173
  0.1684716704988931  0.3360587095373339  0.5544227866604990
  0.1683952253008873  0.6665861652884998  0.0542162028669173
  0.1684716704988931  0.6639412904626656  0.5544227866604990
  0.1016915064522739 -0.0000000000000000  0.4010717526047127
  0.1548757926508733 -0.0000000000000000  0.5536755370192972
 
  0.00000000E+00  0.00000000E+00  0.00000000E+00
  0.00000000E+00  0.00000000E+00  0.00000000E+00
  0.00000000E+00  0.00000000E+00  0.00000000E+00
  0.00000000E+00  0.00000000E+00  0.00000000E+00
  0.00000000E+00  0.00000000E+00  0.00000000E+00
  0.00000000E+00  0.00000000E+00  0.00000000E+00
  0.00000000E+00  0.00000000E+00  0.00000000E+00
  0.00000000E+00  0.00000000E+00  0.00000000E+00
  0.00000000E+00  0.00000000E+00  0.00000000E+00
  0.00000000E+00  0.00000000E+00  0.00000000E+00
  0.00000000E+00  0.00000000E+00  0.00000000E+00
  0.00000000E+00  0.00000000E+00  0.00000000E+00
  0.00000000E+00  0.00000000E+00  0.00000000E+00
  0.00000000E+00  0.00000000E+00  0.00000000E+00
  0.00000000E+00  0.00000000E+00  0.00000000E+00
  0.00000000E+00  0.00000000E+00  0.00000000E+00
  0.00000000E+00  0.00000000E+00  0.00000000E+00
  0.00000000E+00  0.00000000E+00  0.00000000E+00
  0.00000000E+00  0.00000000E+00  0.00000000E+00
  0.00000000E+00  0.00000000E+00  0.00000000E+00
  0.00000000E+00  0.00000000E+00  0.00000000E+00
  0.00000000E+00  0.00000000E+00  0.00000000E+00
  0.00000000E+00  0.00000000E+00  0.00000000E+00
  0.00000000E+00  0.00000000E+00  0.00000000E+00
  0.00000000E+00  0.00000000E+00  0.00000000E+00
  0.00000000E+00  0.00000000E+00  0.00000000E+00
  0.00000000E+00  0.00000000E+00  0.00000000E+00
  0.00000000E+00  0.00000000E+00  0.00000000E+00
  0.00000000E+00  0.00000000E+00  0.00000000E+00
  0.00000000E+00  0.00000000E+00  0.00000000E+00
  0.00000000E+00  0.00000000E+00  0.00000000E+00
  0.00000000E+00  0.00000000E+00  0.00000000E+00
  0.00000000E+00  0.00000000E+00  0.00000000E+00
  0.00000000E+00  0.00000000E+00  0.00000000E+00
  0.00000000E+00  0.00000000E+00  0.00000000E+00
  0.00000000E+00  0.00000000E+00  0.00000000E+00
  0.00000000E+00  0.00000000E+00  0.00000000E+00
  0.00000000E+00  0.00000000E+00  0.00000000E+00
  0.00000000E+00  0.00000000E+00  0.00000000E+00
  0.00000000E+00  0.00000000E+00  0.00000000E+00
  0.00000000E+00  0.00000000E+00  0.00000000E+00
  0.00000000E+00  0.00000000E+00  0.00000000E+00
  0.00000000E+00  0.00000000E+00  0.00000000E+00
  0.00000000E+00  0.00000000E+00  0.00000000E+00
  0.00000000E+00  0.00000000E+00  0.00000000E+00
  0.00000000E+00  0.00000000E+00  0.00000000E+00
  0.00000000E+00  0.00000000E+00  0.00000000E+00
  0.00000000E+00  0.00000000E+00  0.00000000E+00
  0.00000000E+00  0.00000000E+00  0.00000000E+00
  0.00000000E+00  0.00000000E+00  0.00000000E+00
  0.00000000E+00  0.00000000E+00  0.00000000E+00
  0.00000000E+00  0.00000000E+00  0.00000000E+00
  0.00000000E+00  0.00000000E+00  0.00000000E+00
  0.00000000E+00  0.00000000E+00  0.00000000E+00
  0.00000000E+00  0.00000000E+00  0.00000000E+00
  0.00000000E+00  0.00000000E+00  0.00000000E+00
  0.00000000E+00  0.00000000E+00  0.00000000E+00
  0.00000000E+00  0.00000000E+00  0.00000000E+00
  0.00000000E+00  0.00000000E+00  0.00000000E+00
  0.00000000E+00  0.00000000E+00  0.00000000E+00
  0.00000000E+00  0.00000000E+00  0.00000000E+00
  0.00000000E+00  0.00000000E+00  0.00000000E+00
  0.00000000E+00  0.00000000E+00  0.00000000E+00
  0.00000000E+00  0.00000000E+00  0.00000000E+00
  0.00000000E+00  0.00000000E+00  0.00000000E+00
  0.00000000E+00  0.00000000E+00  0.00000000E+00
  0.00000000E+00  0.00000000E+00  0.00000000E+00
  0.00000000E+00  0.00000000E+00  0.00000000E+00
  0.00000000E+00  0.00000000E+00  0.00000000E+00
  0.00000000E+00  0.00000000E+00  0.00000000E+00
  0.00000000E+00  0.00000000E+00  0.00000000E+00
  0.00000000E+00  0.00000000E+00  0.00000000E+00
  0.00000000E+00  0.00000000E+00  0.00000000E+00
  0.00000000E+00  0.00000000E+00  0.00000000E+00
  0.00000000E+00  0.00000000E+00  0.00000000E+00
  0.00000000E+00  0.00000000E+00  0.00000000E+00
  0.00000000E+00  0.00000000E+00  0.00000000E+00
  0.00000000E+00  0.00000000E+00  0.00000000E+00
  0.00000000E+00  0.00000000E+00  0.00000000E+00
  0.00000000E+00  0.00000000E+00  0.00000000E+00
  0.00000000E+00  0.00000000E+00  0.00000000E+00
  0.00000000E+00  0.00000000E+00  0.00000000E+00
  0.00000000E+00  0.00000000E+00  0.00000000E+00
  0.00000000E+00  0.00000000E+00  0.00000000E+00
  0.00000000E+00  0.00000000E+00  0.00000000E+00
  0.00000000E+00  0.00000000E+00  0.00000000E+00
  0.00000000E+00  0.00000000E+00  0.00000000E+00
  0.00000000E+00  0.00000000E+00  0.00000000E+00
  0.00000000E+00  0.00000000E+00  0.00000000E+00
  0.00000000E+00  0.00000000E+00  0.00000000E+00
  0.00000000E+00  0.00000000E+00  0.00000000E+00
  0.00000000E+00  0.00000000E+00  0.00000000E+00
  0.00000000E+00  0.00000000E+00  0.00000000E+00
  0.00000000E+00  0.00000000E+00  0.00000000E+00
  0.00000000E+00  0.00000000E+00  0.00000000E+00
  0.00000000E+00  0.00000000E+00  0.00000000E+00
  0.00000000E+00  0.00000000E+00  0.00000000E+00
  0.00000000E+00  0.00000000E+00  0.00000000E+00
  0.00000000E+00  0.00000000E+00  0.00000000E+00
  0.00000000E+00  0.00000000E+00  0.00000000E+00
  0.00000000E+00  0.00000000E+00  0.00000000E+00
  0.00000000E+00  0.00000000E+00  0.00000000E+00
  0.00000000E+00  0.00000000E+00  0.00000000E+00
  0.00000000E+00  0.00000000E+00  0.00000000E+00
  0.00000000E+00  0.00000000E+00  0.00000000E+00
  0.00000000E+00  0.00000000E+00  0.00000000E+00
  0.00000000E+00  0.00000000E+00  0.00000000E+00
  0.00000000E+00  0.00000000E+00  0.00000000E+00
  0.00000000E+00  0.00000000E+00  0.00000000E+00
  0.00000000E+00  0.00000000E+00  0.00000000E+00
  0.00000000E+00  0.00000000E+00  0.00000000E+00
  0.00000000E+00  0.00000000E+00  0.00000000E+00
  0.00000000E+00  0.00000000E+00  0.00000000E+00
  0.00000000E+00  0.00000000E+00  0.00000000E+00
  0.00000000E+00  0.00000000E+00  0.00000000E+00
  0.00000000E+00  0.00000000E+00  0.00000000E+00
  0.00000000E+00  0.00000000E+00  0.00000000E+00
  0.00000000E+00  0.00000000E+00  0.00000000E+00
  0.00000000E+00  0.00000000E+00  0.00000000E+00
  0.00000000E+00  0.00000000E+00  0.00000000E+00
