       N       E                     dE             d eps       ncg     rms          rms(c)
DAV:   1     0.864972638107E+02    0.86497E+02   -0.11839E+04   272   0.223E+03
DAV:   2     0.165311386399E+01   -0.84844E+02   -0.83064E+02   256   0.274E+02
DAV:   3    -0.576994769432E+00   -0.22301E+01   -0.22258E+01   320   0.556E+01
DAV:   4    -0.582738798642E+00   -0.57440E-02   -0.57439E-02   312   0.276E+00
DAV:   5    -0.582748335368E+00   -0.95367E-05   -0.95367E-05   320   0.927E-02    0.482E+00
RMM:   6    -0.292870703421E+00    0.28988E+00   -0.16870E+00   256   0.179E+01    0.390E+00
RMM:   7    -0.268944309941E+00    0.23926E-01   -0.91723E-02   256   0.489E+00    0.200E+00
RMM:   8    -0.261060561150E+00    0.78837E-02   -0.44326E-03   256   0.813E-01    0.754E-02
RMM:   9    -0.261020944798E+00    0.39616E-04   -0.29372E-04   256   0.217E-01    0.401E-02
RMM:  10    -0.261037193702E+00   -0.16249E-04   -0.38712E-05   197   0.861E-02    0.201E-02
RMM:  11    -0.261032028169E+00    0.51655E-05   -0.20377E-06   140   0.181E-02
   1 F= -.26103203E+00 E0= -.25440692E+00  d E =-.261032E+00
