Ga48 O72                                
    1.000000000000000     
     0.0000000000000000   12.2804734172212839    0.0000000000000000
     9.1427020537309431    0.0000000000000000    0.0000000000000000
     0.0000000000000000   -2.7682617730220320  -11.3006977184464645
   Ga   O    P 
    47    71     1
Direct
  0.6576360818090450  0.0000000000000000  0.1560051576889947
  0.6602168630485892  0.0000000000000000  0.6572601498931547
  0.6593323887352653  0.3333408082809086  0.1581645231596553
  0.6603146275428102  0.3337981004058364  0.6569201907452680
  0.6593323887352653  0.6666591917190914  0.1581645231596553
  0.6603146275428102  0.6662018995941636  0.6569201907452680
  0.8394056648475399  0.1636190159739783  0.3424667258828862
  0.8401847438414194  0.1667475932386751  0.8444997903005458
  0.8441998040014980  0.5000000000000000  0.3436277682085560
  0.8408906908720866  0.5000000000000000  0.8436412738064760
  0.8394056648475399  0.8363809840260217  0.3424667258828862
  0.8401847438414194  0.8332524067613249  0.8444997903005458
  0.5913768163752593  0.1671287417709451  0.3989990922315769
  0.5919856626624664  0.1672468795521738  0.8986096568981736
  0.5904371832274649  0.5000000000000000  0.3979445156564267
  0.5925691385372218  0.5000000000000000  0.8989319465467105
  0.5913768163752593  0.8328712582290549  0.3989990922315769
  0.5919856626624664  0.8327531204478262  0.8986096568981736
  0.9095216432015292  0.0000000000000000  0.1032853874160864
  0.9072440492974820  0.0000000000000000  0.6034470007253034
  0.9081352462004233  0.3340347096556542  0.1013083713750405
  0.9107720415336331  0.3330000305888134  0.6047449931819813
  0.9081352462004233  0.6659652903443458  0.1013083713750405
  0.9107720415336331  0.6669999694111866  0.6047449931819813
  0.1574891425289167  0.1707927485777105  0.1554741479801294
  0.1595840851848322  0.1614348364366975  0.6608860256367137
  0.1588324132639656  0.5000000000000000  0.1563531643081575
  0.1599546944085972  0.5000000000000000  0.6571192157595078
  0.1574891425289167  0.8292072514222895  0.1554741479801294
  0.1595840851848322  0.8385651635633025  0.6608860256367137
  0.3429143858740389  0.0000000000000000  0.3466712397274634
  0.3430398665937773  0.0000000000000000  0.8477959110525859
  0.3400335467688080  0.3332411366062331  0.3454588649534784
  0.3413913742024306  0.3333138362566856  0.8452518427673752
  0.3400335467688080  0.6667588633937669  0.3454588649534784
  0.3413913742024306  0.6666861637433144  0.8452518427673752
  0.0893987334473749  0.0000000000000000  0.9027440846571295
  0.0927265086645619  0.3292532953213154  0.3992281269394269
  0.0914487466519418  0.3335601958172276  0.8972060802915465
  0.0927265086645619  0.6707467046786846  0.3992281269394269
  0.0914487466519418  0.6664398041827724  0.8972060802915465
  0.4082993049553352  0.1670187975397752  0.1054758142540919
  0.4110243338834323  0.1669556309684666  0.6045415455561809
  0.4080810265866148  0.5000000000000000  0.1036102806304484
  0.4091225968547647  0.5000000000000000  0.6034112585606124
  0.4082993049553352  0.8329812024602248  0.1054758142540919
  0.4110243338834323  0.8330443690315334  0.6045415455561809
  0.9962352203895435  0.1677192983686879  0.1288237519682411
  0.9967114723567008  0.1645236060337893  0.6272318616829224
  0.9966836118776996  0.5000000000000000  0.1266771941800755
  0.9980201988043618  0.5000000000000000  0.6288852356816079
  0.9962352203895435  0.8322807016313121  0.1288237519682411
  0.9967114723567008  0.8354763939662107  0.6272318616829224
  0.5040760478493596  0.0000000000000000  0.3743463915360508
  0.5048076940585631  0.0000000000000000  0.8748640320717911
  0.5022551662024455  0.3331111055261502  0.3737876538611360
  0.5038799558683493  0.3338160608497418  0.8736402113462063
  0.5022551662024455  0.6668888944738498  0.3737876538611360
  0.5038799558683493  0.6661839391502582  0.8736402113462063
  0.6726832906634783  0.1672845256322830  0.2815809838597048
  0.6726062001926394  0.1670257721175119  0.7806556826123199
  0.6757608002495417  0.5000000000000000  0.2835540162504202
  0.6727985900927820  0.5000000000000000  0.7802687858781283
  0.6726832906634783  0.8327154743677170  0.2815809838597048
  0.6726062001926394  0.8329742278824881  0.7806556826123199
  0.8276668414113786  0.0000000000000000  0.2207260571790357
  0.8274143941973051  0.0000000000000000  0.7212492382056439
  0.8305457666577354  0.3307706220231168  0.2218627509847195
  0.8282753643381042  0.3333730823678707  0.7203851546270812
  0.8305457666577354  0.6692293779768832  0.2218627509847195
  0.8282753643381042  0.6666269176321293  0.7203851546270812
  0.8320966807739794  0.0000000000000000  0.4460285530981096
  0.8318940579468403  0.0000000000000000  0.9472336202484115
  0.8430730285275132  0.3300888228650578  0.4453713840902083
  0.8300724234410524  0.3337796104632815  0.9458519553873828
  0.8430730285275132  0.6699111771349422  0.4453713840902083
  0.8300724234410524  0.6662203895367185  0.9458519553873828
  0.6685939743850966  0.1670916165038037  0.0556031379796451
  0.6704658857035639  0.1671757108722502  0.5546421021961976
  0.6694075735511831  0.5000000000000000  0.0563971198603497
  0.6710779186126388  0.5000000000000000  0.5534937621898663
  0.6685939743850966  0.8329083834961963  0.0556031379796451
  0.6704658857035639  0.8328242891277498  0.5546421021961976
  0.4958840820311252  0.0000000000000000  0.1300160211768500
  0.4982756042073078  0.0000000000000000  0.6269326281549823
  0.4964337984909832  0.3335769571142535  0.1303088149749314
  0.4976045360966523  0.3340473163063677  0.6268384604734436
  0.4964337984909832  0.6664230428857465  0.1303088149749314
  0.4976045360966523  0.6659526836936323  0.6268384604734436
  0.0166315837908044  0.1409798583022663  0.3732852377693305
  0.0029044236274416  0.1673266599853633  0.8748946494717629
  0.0072160929761012  0.5000000000000000  0.3725478559238198
  0.0035186480264713  0.5000000000000000  0.8735234248261676
  0.0166315837908044  0.8590201416977266  0.3732852377693305
  0.0029044236274416  0.8326733400146367  0.8748946494717629
  0.1610791514502452  0.0000000000000000  0.2882515895507893
  0.1747358027294226  0.0000000000000000  0.7897558081079126
  0.1713107227017261  0.3316921456508339  0.2805121875225893
  0.1732514338713855  0.3318915309272015  0.7806081699309786
  0.1713107227017261  0.6683078543491661  0.2805121875225893
  0.1732514338713855  0.6681084690727985  0.7806081699309786
  0.3242417238657538  0.1631481698495847  0.2222015970445668
  0.3286598077600473  0.1636994345896099  0.7206381321829554
  0.3261604183230915  0.5000000000000000  0.2211283811609732
  0.3269709470521391  0.5000000000000000  0.7198306276494293
  0.3242417238657538  0.8368518301504153  0.2222015970445668
  0.3286598077600473  0.8363005654103901  0.7206381321829554
  0.3309660850621583  0.1653837473888444  0.4482848160794290
  0.3329635864561524  0.1675007966349895  0.9484683596653056
  0.3294596883097540  0.5000000000000000  0.4472242551057661
  0.3317488747712147  0.5000000000000000  0.9467707783453676
  0.3309660850621583  0.8346162526111556  0.4482848160794290
  0.3329635864561524  0.8324992033650105  0.9484683596653056
  0.1662280210390108  0.0000000000000000  0.0600768327882477
  0.1691661613286257  0.3341237812854629  0.0539000447191640
  0.1666341236416571  0.3293690428921678  0.5553414683206199
  0.1691661613286257  0.6658762187145371  0.0539000447191640
  0.1666341236416571  0.6706309571078322  0.5553414683206199
  0.1031447486369927  0.0000000000000000  0.4030677143827575
 
  0.00000000E+00  0.00000000E+00  0.00000000E+00
  0.00000000E+00  0.00000000E+00  0.00000000E+00
  0.00000000E+00  0.00000000E+00  0.00000000E+00
  0.00000000E+00  0.00000000E+00  0.00000000E+00
  0.00000000E+00  0.00000000E+00  0.00000000E+00
  0.00000000E+00  0.00000000E+00  0.00000000E+00
  0.00000000E+00  0.00000000E+00  0.00000000E+00
  0.00000000E+00  0.00000000E+00  0.00000000E+00
  0.00000000E+00  0.00000000E+00  0.00000000E+00
  0.00000000E+00  0.00000000E+00  0.00000000E+00
  0.00000000E+00  0.00000000E+00  0.00000000E+00
  0.00000000E+00  0.00000000E+00  0.00000000E+00
  0.00000000E+00  0.00000000E+00  0.00000000E+00
  0.00000000E+00  0.00000000E+00  0.00000000E+00
  0.00000000E+00  0.00000000E+00  0.00000000E+00
  0.00000000E+00  0.00000000E+00  0.00000000E+00
  0.00000000E+00  0.00000000E+00  0.00000000E+00
  0.00000000E+00  0.00000000E+00  0.00000000E+00
  0.00000000E+00  0.00000000E+00  0.00000000E+00
  0.00000000E+00  0.00000000E+00  0.00000000E+00
  0.00000000E+00  0.00000000E+00  0.00000000E+00
  0.00000000E+00  0.00000000E+00  0.00000000E+00
  0.00000000E+00  0.00000000E+00  0.00000000E+00
  0.00000000E+00  0.00000000E+00  0.00000000E+00
  0.00000000E+00  0.00000000E+00  0.00000000E+00
  0.00000000E+00  0.00000000E+00  0.00000000E+00
  0.00000000E+00  0.00000000E+00  0.00000000E+00
  0.00000000E+00  0.00000000E+00  0.00000000E+00
  0.00000000E+00  0.00000000E+00  0.00000000E+00
  0.00000000E+00  0.00000000E+00  0.00000000E+00
  0.00000000E+00  0.00000000E+00  0.00000000E+00
  0.00000000E+00  0.00000000E+00  0.00000000E+00
  0.00000000E+00  0.00000000E+00  0.00000000E+00
  0.00000000E+00  0.00000000E+00  0.00000000E+00
  0.00000000E+00  0.00000000E+00  0.00000000E+00
  0.00000000E+00  0.00000000E+00  0.00000000E+00
  0.00000000E+00  0.00000000E+00  0.00000000E+00
  0.00000000E+00  0.00000000E+00  0.00000000E+00
  0.00000000E+00  0.00000000E+00  0.00000000E+00
  0.00000000E+00  0.00000000E+00  0.00000000E+00
  0.00000000E+00  0.00000000E+00  0.00000000E+00
  0.00000000E+00  0.00000000E+00  0.00000000E+00
  0.00000000E+00  0.00000000E+00  0.00000000E+00
  0.00000000E+00  0.00000000E+00  0.00000000E+00
  0.00000000E+00  0.00000000E+00  0.00000000E+00
  0.00000000E+00  0.00000000E+00  0.00000000E+00
  0.00000000E+00  0.00000000E+00  0.00000000E+00
  0.00000000E+00  0.00000000E+00  0.00000000E+00
  0.00000000E+00  0.00000000E+00  0.00000000E+00
  0.00000000E+00  0.00000000E+00  0.00000000E+00
  0.00000000E+00  0.00000000E+00  0.00000000E+00
  0.00000000E+00  0.00000000E+00  0.00000000E+00
  0.00000000E+00  0.00000000E+00  0.00000000E+00
  0.00000000E+00  0.00000000E+00  0.00000000E+00
  0.00000000E+00  0.00000000E+00  0.00000000E+00
  0.00000000E+00  0.00000000E+00  0.00000000E+00
  0.00000000E+00  0.00000000E+00  0.00000000E+00
  0.00000000E+00  0.00000000E+00  0.00000000E+00
  0.00000000E+00  0.00000000E+00  0.00000000E+00
  0.00000000E+00  0.00000000E+00  0.00000000E+00
  0.00000000E+00  0.00000000E+00  0.00000000E+00
  0.00000000E+00  0.00000000E+00  0.00000000E+00
  0.00000000E+00  0.00000000E+00  0.00000000E+00
  0.00000000E+00  0.00000000E+00  0.00000000E+00
  0.00000000E+00  0.00000000E+00  0.00000000E+00
  0.00000000E+00  0.00000000E+00  0.00000000E+00
  0.00000000E+00  0.00000000E+00  0.00000000E+00
  0.00000000E+00  0.00000000E+00  0.00000000E+00
  0.00000000E+00  0.00000000E+00  0.00000000E+00
  0.00000000E+00  0.00000000E+00  0.00000000E+00
  0.00000000E+00  0.00000000E+00  0.00000000E+00
  0.00000000E+00  0.00000000E+00  0.00000000E+00
  0.00000000E+00  0.00000000E+00  0.00000000E+00
  0.00000000E+00  0.00000000E+00  0.00000000E+00
  0.00000000E+00  0.00000000E+00  0.00000000E+00
  0.00000000E+00  0.00000000E+00  0.00000000E+00
  0.00000000E+00  0.00000000E+00  0.00000000E+00
  0.00000000E+00  0.00000000E+00  0.00000000E+00
  0.00000000E+00  0.00000000E+00  0.00000000E+00
  0.00000000E+00  0.00000000E+00  0.00000000E+00
  0.00000000E+00  0.00000000E+00  0.00000000E+00
  0.00000000E+00  0.00000000E+00  0.00000000E+00
  0.00000000E+00  0.00000000E+00  0.00000000E+00
  0.00000000E+00  0.00000000E+00  0.00000000E+00
  0.00000000E+00  0.00000000E+00  0.00000000E+00
  0.00000000E+00  0.00000000E+00  0.00000000E+00
  0.00000000E+00  0.00000000E+00  0.00000000E+00
  0.00000000E+00  0.00000000E+00  0.00000000E+00
  0.00000000E+00  0.00000000E+00  0.00000000E+00
  0.00000000E+00  0.00000000E+00  0.00000000E+00
  0.00000000E+00  0.00000000E+00  0.00000000E+00
  0.00000000E+00  0.00000000E+00  0.00000000E+00
  0.00000000E+00  0.00000000E+00  0.00000000E+00
  0.00000000E+00  0.00000000E+00  0.00000000E+00
  0.00000000E+00  0.00000000E+00  0.00000000E+00
  0.00000000E+00  0.00000000E+00  0.00000000E+00
  0.00000000E+00  0.00000000E+00  0.00000000E+00
  0.00000000E+00  0.00000000E+00  0.00000000E+00
  0.00000000E+00  0.00000000E+00  0.00000000E+00
  0.00000000E+00  0.00000000E+00  0.00000000E+00
  0.00000000E+00  0.00000000E+00  0.00000000E+00
  0.00000000E+00  0.00000000E+00  0.00000000E+00
  0.00000000E+00  0.00000000E+00  0.00000000E+00
  0.00000000E+00  0.00000000E+00  0.00000000E+00
  0.00000000E+00  0.00000000E+00  0.00000000E+00
  0.00000000E+00  0.00000000E+00  0.00000000E+00
  0.00000000E+00  0.00000000E+00  0.00000000E+00
  0.00000000E+00  0.00000000E+00  0.00000000E+00
  0.00000000E+00  0.00000000E+00  0.00000000E+00
  0.00000000E+00  0.00000000E+00  0.00000000E+00
  0.00000000E+00  0.00000000E+00  0.00000000E+00
  0.00000000E+00  0.00000000E+00  0.00000000E+00
  0.00000000E+00  0.00000000E+00  0.00000000E+00
  0.00000000E+00  0.00000000E+00  0.00000000E+00
  0.00000000E+00  0.00000000E+00  0.00000000E+00
  0.00000000E+00  0.00000000E+00  0.00000000E+00
  0.00000000E+00  0.00000000E+00  0.00000000E+00
  0.00000000E+00  0.00000000E+00  0.00000000E+00
  0.00000000E+00  0.00000000E+00  0.00000000E+00
