Ga48 O72                                
    1.000000000000000     
     0.0000000000000000   12.2804734172212839    0.0000000000000000
     9.1427020537309431    0.0000000000000000    0.0000000000000000
     0.0000000000000000   -2.7682617730220320  -11.3006977184464645
   Ga   O    P 
    47    71     1
Direct
  0.6576360818090448  0.0000000000000000  0.1560051576889936
  0.6602168630485908  0.0000000000000000  0.6572601498931542
  0.6593323887352642  0.3333408082809108  0.1581645231596544
  0.6603146275428108  0.3337981004058334  0.6569201907452697
  0.6593323887352642  0.6666591917190893  0.1581645231596544
  0.6603146275428108  0.6662018995941668  0.6569201907452697
  0.8394056648475410  0.1636190159739797  0.3424667258828897
  0.8401847438414194  0.1667475932386775  0.8444997903005441
  0.8441998040015005  0.5000000000000000  0.3436277682085586
  0.8408906908720847  0.5000000000000000  0.8436412738064734
  0.8394056648475410  0.8363809840260205  0.3424667258828897
  0.8401847438414194  0.8332524067613227  0.8444997903005441
  0.5913768163752592  0.1671287417709445  0.3989990922315789
  0.5919856626624661  0.1672468795521750  0.8986096568981702
  0.5904371832274620  0.5000000000000000  0.3979445156564242
  0.5925691385372184  0.5000000000000000  0.8989319465467076
  0.5913768163752592  0.8328712582290556  0.3989990922315789
  0.5919856626624661  0.8327531204478251  0.8986096568981702
  0.9095216432015313  0.0000000000000000  0.1032853874160880
  0.9072440492974820  0.0000000000000000  0.6034470007253057
  0.9081352462004203  0.3340347096556543  0.1013083713750375
  0.9107720415336310  0.3330000305888112  0.6047449931819794
  0.9081352462004203  0.6659652903443454  0.1013083713750375
  0.9107720415336310  0.6669999694111891  0.6047449931819794
  0.1574891425289168  0.1707927485777084  0.1554741479801284
  0.1595840851848290  0.1614348364366961  0.6608860256367131
  0.1588324132639642  0.5000000000000000  0.1563531643081545
  0.1599546944085942  0.5000000000000000  0.6571192157595096
  0.1574891425289168  0.8292072514222919  0.1554741479801284
  0.1595840851848290  0.8385651635633039  0.6608860256367131
  0.3429143858740368  0.0000000000000000  0.3466712397274659
  0.3430398665937802  0.0000000000000000  0.8477959110525891
  0.3400335467688060  0.3332411366062318  0.3454588649534808
  0.3413913742024283  0.3333138362566874  0.8452518427673736
  0.3400335467688060  0.6667588633937683  0.3454588649534808
  0.3413913742024283  0.6666861637433128  0.8452518427673736
  0.0893987334473754  0.0000000000000000  0.9027440846571323
  0.0927265086645654  0.3292532953213163  0.3992281269394267
  0.0914487466519435  0.3335601958172303  0.8972060802915497
  0.0927265086645654  0.6707467046786831  0.3992281269394267
  0.0914487466519435  0.6664398041827699  0.8972060802915497
  0.4082993049553339  0.1670187975397781  0.1054758142540894
  0.4110243338834294  0.1669556309684671  0.6045415455561783
  0.4080810265866167  0.5000000000000000  0.1036102806304502
  0.4091225968547645  0.5000000000000000  0.6034112585606144
  0.4082993049553339  0.8329812024602223  0.1054758142540894
  0.4110243338834294  0.8330443690315330  0.6045415455561783
  0.9962352203895427  0.1677192983686908  0.1288237519682388
  0.9967114723567040  0.1645236060337911  0.6272318616829242
  0.9966836118776987  0.5000000000000000  0.1266771941800746
  0.9980201988043634  0.5000000000000000  0.6288852356816045
  0.9962352203895427  0.8322807016313090  0.1288237519682388
  0.9967114723567040  0.8354763939662087  0.6272318616829242
  0.5040760478493611  0.0000000000000000  0.3743463915360480
  0.5048076940585633  0.0000000000000000  0.8748640320717876
  0.5022551662024467  0.3331111055261503  0.3737876538611349
  0.5038799558683498  0.3338160608497401  0.8736402113462083
  0.5022551662024467  0.6668888944738495  0.3737876538611349
  0.5038799558683498  0.6661839391502600  0.8736402113462083
  0.6726832906634800  0.1672845256322824  0.2815809838597039
  0.6726062001926391  0.1670257721175144  0.7806556826123198
  0.6757608002495427  0.5000000000000000  0.2835540162504197
  0.6727985900927788  0.5000000000000000  0.7802687858781303
  0.6726832906634800  0.8327154743677178  0.2815809838597039
  0.6726062001926391  0.8329742278824854  0.7806556826123198
  0.8276668414113753  0.0000000000000000  0.2207260571790360
  0.8274143941973034  0.0000000000000000  0.7212492382056424
  0.8305457666577352  0.3307706220231188  0.2218627509847217
  0.8282753643381012  0.3333730823678711  0.7203851546270810
  0.8305457666577352  0.6692293779768809  0.2218627509847217
  0.8282753643381012  0.6666269176321290  0.7203851546270810
  0.8320966807739768  0.0000000000000000  0.4460285530981110
  0.8318940579468437  0.0000000000000000  0.9472336202484083
  0.8430730285275125  0.3300888228650564  0.4453713840902086
  0.8300724234410553  0.3337796104632803  0.9458519553873806
  0.8430730285275125  0.6699111771349443  0.4453713840902086
  0.8300724234410553  0.6662203895367198  0.9458519553873806
  0.6685939743850968  0.1670916165038034  0.0556031379796419
  0.6704658857035655  0.1671757108722481  0.5546421021961999
  0.6694075735511834  0.5000000000000000  0.0563971198603501
  0.6710779186126418  0.5000000000000000  0.5534937621898629
  0.6685939743850968  0.8329083834961967  0.0556031379796419
  0.6704658857035655  0.8328242891277520  0.5546421021961999
  0.4958840820311284  0.0000000000000000  0.1300160211768531
  0.4982756042073092  0.0000000000000000  0.6269326281549824
  0.4964337984909836  0.3335769571142536  0.1303088149749314
  0.4976045360966491  0.3340473163063666  0.6268384604734458
  0.4964337984909836  0.6664230428857466  0.1303088149749314
  0.4976045360966491  0.6659526836936330  0.6268384604734458
  0.0166315837908025  0.1409798583022698  0.3732852377693285
  0.0029044236274392  0.1673266599853639  0.8748946494717633
  0.0072160929761031  0.5000000000000000  0.3725478559238166
  0.0035186480264699  0.5000000000000000  0.8735234248261651
  0.0166315837908025  0.8590201416977298  0.3732852377693285
  0.0029044236274392  0.8326733400146367  0.8748946494717633
  0.1610791514502478  0.0000000000000000  0.2882515895507881
  0.1747358027294222  0.0000000000000000  0.7897558081079116
  0.1713107227017274  0.3316921456508330  0.2805121875225920
  0.1732514338713854  0.3318915309272002  0.7806081699309815
  0.1713107227017274  0.6683078543491671  0.2805121875225920
  0.1732514338713854  0.6681084690727997  0.7806081699309815
  0.3242417238657549  0.1631481698495838  0.2222015970445652
  0.3286598077600464  0.1636994345896114  0.7206381321829547
  0.3261604183230944  0.5000000000000000  0.2211283811609759
  0.3269709470521373  0.5000000000000000  0.7198306276494296
  0.3242417238657549  0.8368518301504160  0.2222015970445652
  0.3286598077600464  0.8363005654103889  0.7206381321829547
  0.3309660850621601  0.1653837473888427  0.4482848160794312
  0.3329635864561543  0.1675007966349878  0.9484683596653083
  0.3294596883097545  0.5000000000000000  0.4472242551057642
  0.3317488747712133  0.5000000000000000  0.9467707783453696
  0.3309660850621601  0.8346162526111575  0.4482848160794312
  0.3329635864561543  0.8324992033650122  0.9484683596653083
  0.1662280210390116  0.0000000000000000  0.0600768327882497
  0.1691661613286269  0.3341237812854635  0.0539000447191666
  0.1666341236416551  0.3293690428921676  0.5553414683206207
  0.1691661613286269  0.6658762187145371  0.0539000447191666
  0.1666341236416551  0.6706309571078334  0.5553414683206207
  0.1031447486369898  0.0000000000000000  0.4030677143827567
 
  0.00000000E+00  0.00000000E+00  0.00000000E+00
  0.00000000E+00  0.00000000E+00  0.00000000E+00
  0.00000000E+00  0.00000000E+00  0.00000000E+00
  0.00000000E+00  0.00000000E+00  0.00000000E+00
  0.00000000E+00  0.00000000E+00  0.00000000E+00
  0.00000000E+00  0.00000000E+00  0.00000000E+00
  0.00000000E+00  0.00000000E+00  0.00000000E+00
  0.00000000E+00  0.00000000E+00  0.00000000E+00
  0.00000000E+00  0.00000000E+00  0.00000000E+00
  0.00000000E+00  0.00000000E+00  0.00000000E+00
  0.00000000E+00  0.00000000E+00  0.00000000E+00
  0.00000000E+00  0.00000000E+00  0.00000000E+00
  0.00000000E+00  0.00000000E+00  0.00000000E+00
  0.00000000E+00  0.00000000E+00  0.00000000E+00
  0.00000000E+00  0.00000000E+00  0.00000000E+00
  0.00000000E+00  0.00000000E+00  0.00000000E+00
  0.00000000E+00  0.00000000E+00  0.00000000E+00
  0.00000000E+00  0.00000000E+00  0.00000000E+00
  0.00000000E+00  0.00000000E+00  0.00000000E+00
  0.00000000E+00  0.00000000E+00  0.00000000E+00
  0.00000000E+00  0.00000000E+00  0.00000000E+00
  0.00000000E+00  0.00000000E+00  0.00000000E+00
  0.00000000E+00  0.00000000E+00  0.00000000E+00
  0.00000000E+00  0.00000000E+00  0.00000000E+00
  0.00000000E+00  0.00000000E+00  0.00000000E+00
  0.00000000E+00  0.00000000E+00  0.00000000E+00
  0.00000000E+00  0.00000000E+00  0.00000000E+00
  0.00000000E+00  0.00000000E+00  0.00000000E+00
  0.00000000E+00  0.00000000E+00  0.00000000E+00
  0.00000000E+00  0.00000000E+00  0.00000000E+00
  0.00000000E+00  0.00000000E+00  0.00000000E+00
  0.00000000E+00  0.00000000E+00  0.00000000E+00
  0.00000000E+00  0.00000000E+00  0.00000000E+00
  0.00000000E+00  0.00000000E+00  0.00000000E+00
  0.00000000E+00  0.00000000E+00  0.00000000E+00
  0.00000000E+00  0.00000000E+00  0.00000000E+00
  0.00000000E+00  0.00000000E+00  0.00000000E+00
  0.00000000E+00  0.00000000E+00  0.00000000E+00
  0.00000000E+00  0.00000000E+00  0.00000000E+00
  0.00000000E+00  0.00000000E+00  0.00000000E+00
  0.00000000E+00  0.00000000E+00  0.00000000E+00
  0.00000000E+00  0.00000000E+00  0.00000000E+00
  0.00000000E+00  0.00000000E+00  0.00000000E+00
  0.00000000E+00  0.00000000E+00  0.00000000E+00
  0.00000000E+00  0.00000000E+00  0.00000000E+00
  0.00000000E+00  0.00000000E+00  0.00000000E+00
  0.00000000E+00  0.00000000E+00  0.00000000E+00
  0.00000000E+00  0.00000000E+00  0.00000000E+00
  0.00000000E+00  0.00000000E+00  0.00000000E+00
  0.00000000E+00  0.00000000E+00  0.00000000E+00
  0.00000000E+00  0.00000000E+00  0.00000000E+00
  0.00000000E+00  0.00000000E+00  0.00000000E+00
  0.00000000E+00  0.00000000E+00  0.00000000E+00
  0.00000000E+00  0.00000000E+00  0.00000000E+00
  0.00000000E+00  0.00000000E+00  0.00000000E+00
  0.00000000E+00  0.00000000E+00  0.00000000E+00
  0.00000000E+00  0.00000000E+00  0.00000000E+00
  0.00000000E+00  0.00000000E+00  0.00000000E+00
  0.00000000E+00  0.00000000E+00  0.00000000E+00
  0.00000000E+00  0.00000000E+00  0.00000000E+00
  0.00000000E+00  0.00000000E+00  0.00000000E+00
  0.00000000E+00  0.00000000E+00  0.00000000E+00
  0.00000000E+00  0.00000000E+00  0.00000000E+00
  0.00000000E+00  0.00000000E+00  0.00000000E+00
  0.00000000E+00  0.00000000E+00  0.00000000E+00
  0.00000000E+00  0.00000000E+00  0.00000000E+00
  0.00000000E+00  0.00000000E+00  0.00000000E+00
  0.00000000E+00  0.00000000E+00  0.00000000E+00
  0.00000000E+00  0.00000000E+00  0.00000000E+00
  0.00000000E+00  0.00000000E+00  0.00000000E+00
  0.00000000E+00  0.00000000E+00  0.00000000E+00
  0.00000000E+00  0.00000000E+00  0.00000000E+00
  0.00000000E+00  0.00000000E+00  0.00000000E+00
  0.00000000E+00  0.00000000E+00  0.00000000E+00
  0.00000000E+00  0.00000000E+00  0.00000000E+00
  0.00000000E+00  0.00000000E+00  0.00000000E+00
  0.00000000E+00  0.00000000E+00  0.00000000E+00
  0.00000000E+00  0.00000000E+00  0.00000000E+00
  0.00000000E+00  0.00000000E+00  0.00000000E+00
  0.00000000E+00  0.00000000E+00  0.00000000E+00
  0.00000000E+00  0.00000000E+00  0.00000000E+00
  0.00000000E+00  0.00000000E+00  0.00000000E+00
  0.00000000E+00  0.00000000E+00  0.00000000E+00
  0.00000000E+00  0.00000000E+00  0.00000000E+00
  0.00000000E+00  0.00000000E+00  0.00000000E+00
  0.00000000E+00  0.00000000E+00  0.00000000E+00
  0.00000000E+00  0.00000000E+00  0.00000000E+00
  0.00000000E+00  0.00000000E+00  0.00000000E+00
  0.00000000E+00  0.00000000E+00  0.00000000E+00
  0.00000000E+00  0.00000000E+00  0.00000000E+00
  0.00000000E+00  0.00000000E+00  0.00000000E+00
  0.00000000E+00  0.00000000E+00  0.00000000E+00
  0.00000000E+00  0.00000000E+00  0.00000000E+00
  0.00000000E+00  0.00000000E+00  0.00000000E+00
  0.00000000E+00  0.00000000E+00  0.00000000E+00
  0.00000000E+00  0.00000000E+00  0.00000000E+00
  0.00000000E+00  0.00000000E+00  0.00000000E+00
  0.00000000E+00  0.00000000E+00  0.00000000E+00
  0.00000000E+00  0.00000000E+00  0.00000000E+00
  0.00000000E+00  0.00000000E+00  0.00000000E+00
  0.00000000E+00  0.00000000E+00  0.00000000E+00
  0.00000000E+00  0.00000000E+00  0.00000000E+00
  0.00000000E+00  0.00000000E+00  0.00000000E+00
  0.00000000E+00  0.00000000E+00  0.00000000E+00
  0.00000000E+00  0.00000000E+00  0.00000000E+00
  0.00000000E+00  0.00000000E+00  0.00000000E+00
  0.00000000E+00  0.00000000E+00  0.00000000E+00
  0.00000000E+00  0.00000000E+00  0.00000000E+00
  0.00000000E+00  0.00000000E+00  0.00000000E+00
  0.00000000E+00  0.00000000E+00  0.00000000E+00
  0.00000000E+00  0.00000000E+00  0.00000000E+00
  0.00000000E+00  0.00000000E+00  0.00000000E+00
  0.00000000E+00  0.00000000E+00  0.00000000E+00
  0.00000000E+00  0.00000000E+00  0.00000000E+00
  0.00000000E+00  0.00000000E+00  0.00000000E+00
  0.00000000E+00  0.00000000E+00  0.00000000E+00
  0.00000000E+00  0.00000000E+00  0.00000000E+00
  0.00000000E+00  0.00000000E+00  0.00000000E+00
  0.00000000E+00  0.00000000E+00  0.00000000E+00
