       N       E                     dE             d eps       ncg     rms          rms(c)
DAV:   1     0.122694016791E+05    0.12269E+05   -0.58579E+05 10584   0.706E+03
DAV:   2    -0.311007758877E+05   -0.43370E+05   -0.42024E+05 13440   0.119E+03
DAV:   3    -0.354999136537E+05   -0.43991E+04   -0.39586E+04 14400   0.346E+02
DAV:   4    -0.359387726069E+05   -0.43886E+03   -0.38485E+03 16896   0.983E+01
DAV:   5    -0.359819434770E+05   -0.43171E+02   -0.39661E+02 19584   0.285E+01    0.709E+02
DAV:   6    -0.106940120508E+05    0.25288E+05   -0.16471E+04 14008   0.241E+02    0.416E+02
DAV:   7    -0.263727881172E+04    0.80567E+04   -0.12324E+04 15280   0.226E+02    0.188E+02
DAV:   8    -0.926056923294E+03    0.17112E+04   -0.57961E+03 15988   0.200E+02    0.123E+02
DAV:   9    -0.779148641434E+03    0.14691E+03   -0.82622E+02 12384   0.118E+02    0.720E+01
DAV:  10    -0.747261791617E+03    0.31887E+02   -0.11074E+03 15248   0.589E+01    0.415E+01
DAV:  11    -0.721525935912E+03    0.25736E+02   -0.13229E+02 14728   0.374E+01    0.278E+01
DAV:  12    -0.714079864367E+03    0.74461E+01   -0.52848E+01 15224   0.305E+01    0.170E+01
DAV:  13    -0.715079519399E+03   -0.99966E+00   -0.56667E+01 14056   0.289E+01    0.180E+01
DAV:  14    -0.711328116254E+03    0.37514E+01   -0.17764E+01 14368   0.166E+01    0.762E+00
DAV:  15    -0.711821571658E+03   -0.49346E+00   -0.11625E+01 14216   0.125E+01    0.961E+00
DAV:  16    -0.710842357949E+03    0.97921E+00   -0.47475E+00 14456   0.894E+00    0.339E+00
DAV:  17    -0.710875472081E+03   -0.33114E-01   -0.23883E+00 14560   0.365E+00    0.430E+00
DAV:  18    -0.710799087198E+03    0.76385E-01   -0.21333E-01 13384   0.179E+00    0.312E+00
DAV:  19    -0.710774793849E+03    0.24293E-01   -0.28478E-01 15240   0.131E+00    0.134E+00
DAV:  20    -0.710782012030E+03   -0.72182E-02   -0.16267E-01 14512   0.141E+00    0.214E+00
DAV:  21    -0.710780785723E+03    0.12263E-02   -0.25613E-01 13608   0.669E-01    0.172E+00
DAV:  22    -0.710772741529E+03    0.80442E-02   -0.85217E-02 14592   0.721E-01    0.608E-01
DAV:  23    -0.710773481814E+03   -0.74028E-03   -0.32287E-02 13816   0.313E-01    0.983E-01
DAV:  24    -0.710771224874E+03    0.22569E-02   -0.99576E-03 14056   0.240E-01    0.936E-02
DAV:  25    -0.710770990864E+03    0.23401E-03   -0.10410E-03 15752   0.169E-01    0.103E-01
DAV:  26    -0.710771014076E+03   -0.23212E-04   -0.33999E-04 14512   0.123E-01    0.147E-01
DAV:  27    -0.710771019990E+03   -0.59143E-05   -0.60019E-04 13168   0.642E-02    0.653E-02
DAV:  28    -0.710771028721E+03   -0.87303E-05   -0.70923E-05  8432   0.576E-02
   1 F= -.71077103E+03 E0= -.71075383E+03  d E =-.344043E-01
