Ga8 O12                                 
    1.000000000000000     
     0.0000000000000000   12.2804737091000007    0.0000000000000000
     9.1427011490000005    0.0000000000000000    0.0000000000000000
     0.0000000000000000   -2.7682616411000001  -11.3006974810000003
   Ga   O    Cu   N 
    47    71     1     1
Direct
  0.6597913197281993  0.0001296587134230  0.1577766819085377
  0.6591655076852432  0.0001724272871449  0.6564544184859531
  0.6598549387794355  0.3333314783758227  0.1590783019567892
  0.6593624065471042  0.3333356023953779  0.6553981528333453
  0.6597933919374244  0.6665343475408170  0.1577773112380609
  0.6591636561077719  0.6664988240849997  0.6564522161026515
  0.8413578600388957  0.1670854699119474  0.3451064490709516
  0.8408441994122189  0.1669436054006202  0.8433318612458018
  0.8413566526253523  0.4995798679989673  0.3451061393311018
  0.8408426900502337  0.4997242283435290  0.8433307233004123
  0.8419428625044734  0.8333330246711809  0.3442903915984939
  0.8404906297766854  0.8333329239391067  0.8439095382862430
  0.5849013620197477  0.1663881037858321  0.3968185945203421
  0.5920049973049309  0.1665800198486736  0.8981964975559654
  0.5848998923502472  0.5002899097954595  0.3968208797643073
  0.5920052291099405  0.5000858746458426  0.8981965955544280
  0.5927076614160087  0.8333392306486709  0.3984109264348630
  0.5920720871602633  0.8333327645463057  0.8985797300783158
  0.9089427085006966  0.0007843116254436  0.1028721581524677
  0.9097670884508722 -0.0000436903313189  0.6032848279928518
  0.9085867349684403  0.3333325604152670  0.1029424331469768
  0.9103570179475332  0.3333338234938863  0.6034328042656415
  0.9089409422288092  0.6658799803329625  0.1028714317979955
  0.9097670631348924  0.6667115804966502  0.6032850834571275
  0.1593949683717387  0.1653567956837783  0.1557292590228304
  0.1599791046921420  0.1664713734230190  0.6572985612145086
  0.1593951078660805  0.5013007161594903  0.1557363696698305
  0.1599794414038128  0.5001968916986679  0.6573028634551079
  0.1577203860518087  0.8333237722247481  0.1559303523337534
  0.1599278568386993  0.8333332101697977  0.6565953025737791
  0.3400916774550592 -0.0009345368451320  0.3417901487119077
  0.3420776735303601 -0.0002293412551101  0.8434232916753477
  0.3418290988554726  0.3333324575817263  0.8430565093592260
  0.3400930805618360  0.6676085673170555  0.3417987681116219
  0.3420781625387297  0.6668940810170967  0.8434297520652292
  0.0913148898928692  0.0002700289065368  0.3975453897595853
  0.0902169018430311 -0.0001579450449451  0.8962094184231341
  0.0941367879046667  0.3333329612010301  0.3991081941096413
  0.0913655832519597  0.3333325347873111  0.8979014419997781
  0.0913134783534441  0.6663951192482561  0.3975483188855640
  0.0902182257741430  0.6668190097911549  0.8962143693347099
  0.4093026589707660  0.1653756868161813  0.1024355837800990
  0.4085453948703666  0.1659170514930267  0.6010297430265735
  0.4093047248262836  0.5012804053846577  0.1024419980294004
  0.4085444033628118  0.5007587323612068  0.6010326747625927
  0.4094197796324113  0.8333302815205755  0.1028671435548368
  0.4088147699189211  0.8333368612828028  0.6011309184545020
  0.9968684594752494  0.1674663315538237  0.1280943119847540
  0.9974141747807770  0.1665080623864132  0.6283441857075943
  0.9968667636979852  0.4991962664453238  0.1280951792309975
  0.9974141940029163  0.5001598082036460  0.6283443658403226
  0.9950743252796855  0.8333308013853868  0.1267756805550856
  0.9972772386283821  0.8333337582262252  0.6281330796029672
  0.5026078589468034 -0.0037310908369810  0.3726684264158632
  0.5046977528442321 -0.0000826831214039  0.8732525135861913
  0.5045162982896744  0.3333326598007209  0.8724553779142877
  0.5026104198498923  0.6704073171603274  0.3726823539695701
  0.5046976536596884  0.6667487445103075  0.8732528340946131
  0.6719521757981478  0.1669830703288040  0.2825884970583888
  0.6724536810974233  0.1672664245447579  0.7800866134792149
  0.6719473796377231  0.4996822207367896  0.2825927685496969
  0.6724532191551175  0.4994024133859162  0.7800862626622920
  0.6740646178611003  0.8333332366685808  0.2812938769577583
  0.6730180428542657  0.8333343021518415  0.7808396820848258
  0.8278375547453786  0.0013692281959978  0.2204562768499918
  0.8274786286520097  0.0006952663143282  0.7197055039673975
  0.8275782453552377  0.3333333105375247  0.2206304492826570
  0.8273934180985955  0.3333341006456642  0.7192770403598112
  0.8278365869177668  0.6652961982200848  0.2204557919720725
  0.8274772213699326  0.6659730790873679  0.7197046351904680
  0.8336151658854960 -0.0000262941125765  0.4466754665508966
  0.8320029568879291  0.0007031245898425  0.9461684980723492
  0.8335283679666508  0.3333330241571859  0.4471652764159290
  0.8319193496825829  0.3333340122109302  0.9461618597321210
  0.8336156434841133  0.6666921895578767  0.4466755201973153
  0.8320019225514294  0.6659625429849819  0.9461679068187966
  0.6674927321000436  0.1673978013100073  0.0553638351493458
  0.6666672845191255  0.1663872270466366  0.5528660220873903
  0.6674917746874485  0.4992654345969257  0.0553642253887913
  0.6666685887649710  0.5002834481844431  0.5528665616713447
  0.6692596717674375  0.8333321020449003  0.0551529710151195
  0.6693248635004210  0.8333369619864405  0.5549105692811929
  0.4975188807946039 -0.0005421669507859  0.1276777979131974
  0.4967430616357919 -0.0003441034868814  0.6275496437015373
  0.4962461861867233  0.3333293905475203  0.1308241334089440
  0.4957341287243746  0.3333377021650875  0.6226084904261920
  0.4975193739540207  0.6672034797035882  0.1276817225868148
  0.4967422190345227  0.6670192300074924  0.6275491455586484
  0.0048471184442209  0.1679291209840374  0.3731583507787088
  0.0034333134990264  0.1670862488898741  0.8726273438868084
  0.0048468647128331  0.4987360892388161  0.3731582488518035
  0.0034312651860938  0.4995780964861374  0.8726262768316784
  0.0039649392489783  0.8333331196137826  0.3732207742911404
  0.0026256477288429  0.8333323278602504  0.8713685928837062
  0.1708297237778472 -0.0010324764416231  0.2791846489880936
  0.1733970108422478  0.0000043017622325  0.7806806218305210
  0.1773756527179244  0.3333334567613635  0.2823876748749709
  0.1734620576913019  0.3333344343823353  0.7813252911094155
  0.1708355591298016  0.6676981057375404  0.2791969098840932
  0.1734006613773983  0.6666612692744069  0.7806841109165142
  0.3250428600963493  0.1582034511449698  0.2156024569124400
  0.3285536118197673  0.1666792177771985  0.7196966261042195
  0.3250480110694503  0.5084605280737376  0.2156156097314256
  0.3285533986343057  0.4999897513551694  0.7196992762247814
  0.3261994497403610  0.8333319383144194  0.2181610498153123
  0.3281637108279041  0.8333335559028420  0.7194738545632212
  0.3290414039855991  0.1615873699231210  0.4456962163044264
  0.3338165948115829  0.1668560005300661  0.9456606935124541
  0.3290386026879084  0.5050897976002434  0.4457015031793022
  0.3338214113896900  0.4998064210445314  0.9456670807748317
  0.3300146853460243  0.8333394655859503  0.4452995672608948
  0.3333536234594656  0.8333334827233373  0.9459458008893483
  0.1659238864277755 -0.0009761311229512  0.0526633826379632
  0.1681038845077115  0.0001699304654001  0.5543157687268803
  0.1678124688525281  0.3333322022893190  0.0545887432846538
  0.1693371909810237  0.3333352284961913  0.5557795103040415
  0.1659314516787626  0.6676219311476682  0.0526676593393237
  0.1681033678227811  0.6664968352178099  0.5543193758485746
  0.3396628171610930  0.3333374346976061  0.3402520692163751
  0.4924166146648933  0.3333389183196083  0.3630490365561451
 
  0.00000000E+00  0.00000000E+00  0.00000000E+00
  0.00000000E+00  0.00000000E+00  0.00000000E+00
  0.00000000E+00  0.00000000E+00  0.00000000E+00
  0.00000000E+00  0.00000000E+00  0.00000000E+00
  0.00000000E+00  0.00000000E+00  0.00000000E+00
  0.00000000E+00  0.00000000E+00  0.00000000E+00
  0.00000000E+00  0.00000000E+00  0.00000000E+00
  0.00000000E+00  0.00000000E+00  0.00000000E+00
  0.00000000E+00  0.00000000E+00  0.00000000E+00
  0.00000000E+00  0.00000000E+00  0.00000000E+00
  0.00000000E+00  0.00000000E+00  0.00000000E+00
  0.00000000E+00  0.00000000E+00  0.00000000E+00
  0.00000000E+00  0.00000000E+00  0.00000000E+00
  0.00000000E+00  0.00000000E+00  0.00000000E+00
  0.00000000E+00  0.00000000E+00  0.00000000E+00
  0.00000000E+00  0.00000000E+00  0.00000000E+00
  0.00000000E+00  0.00000000E+00  0.00000000E+00
  0.00000000E+00  0.00000000E+00  0.00000000E+00
  0.00000000E+00  0.00000000E+00  0.00000000E+00
  0.00000000E+00  0.00000000E+00  0.00000000E+00
  0.00000000E+00  0.00000000E+00  0.00000000E+00
  0.00000000E+00  0.00000000E+00  0.00000000E+00
  0.00000000E+00  0.00000000E+00  0.00000000E+00
  0.00000000E+00  0.00000000E+00  0.00000000E+00
  0.00000000E+00  0.00000000E+00  0.00000000E+00
  0.00000000E+00  0.00000000E+00  0.00000000E+00
  0.00000000E+00  0.00000000E+00  0.00000000E+00
  0.00000000E+00  0.00000000E+00  0.00000000E+00
  0.00000000E+00  0.00000000E+00  0.00000000E+00
  0.00000000E+00  0.00000000E+00  0.00000000E+00
  0.00000000E+00  0.00000000E+00  0.00000000E+00
  0.00000000E+00  0.00000000E+00  0.00000000E+00
  0.00000000E+00  0.00000000E+00  0.00000000E+00
  0.00000000E+00  0.00000000E+00  0.00000000E+00
  0.00000000E+00  0.00000000E+00  0.00000000E+00
  0.00000000E+00  0.00000000E+00  0.00000000E+00
  0.00000000E+00  0.00000000E+00  0.00000000E+00
  0.00000000E+00  0.00000000E+00  0.00000000E+00
  0.00000000E+00  0.00000000E+00  0.00000000E+00
  0.00000000E+00  0.00000000E+00  0.00000000E+00
  0.00000000E+00  0.00000000E+00  0.00000000E+00
  0.00000000E+00  0.00000000E+00  0.00000000E+00
  0.00000000E+00  0.00000000E+00  0.00000000E+00
  0.00000000E+00  0.00000000E+00  0.00000000E+00
  0.00000000E+00  0.00000000E+00  0.00000000E+00
  0.00000000E+00  0.00000000E+00  0.00000000E+00
  0.00000000E+00  0.00000000E+00  0.00000000E+00
  0.00000000E+00  0.00000000E+00  0.00000000E+00
  0.00000000E+00  0.00000000E+00  0.00000000E+00
  0.00000000E+00  0.00000000E+00  0.00000000E+00
  0.00000000E+00  0.00000000E+00  0.00000000E+00
  0.00000000E+00  0.00000000E+00  0.00000000E+00
  0.00000000E+00  0.00000000E+00  0.00000000E+00
  0.00000000E+00  0.00000000E+00  0.00000000E+00
  0.00000000E+00  0.00000000E+00  0.00000000E+00
  0.00000000E+00  0.00000000E+00  0.00000000E+00
  0.00000000E+00  0.00000000E+00  0.00000000E+00
  0.00000000E+00  0.00000000E+00  0.00000000E+00
  0.00000000E+00  0.00000000E+00  0.00000000E+00
  0.00000000E+00  0.00000000E+00  0.00000000E+00
  0.00000000E+00  0.00000000E+00  0.00000000E+00
  0.00000000E+00  0.00000000E+00  0.00000000E+00
  0.00000000E+00  0.00000000E+00  0.00000000E+00
  0.00000000E+00  0.00000000E+00  0.00000000E+00
  0.00000000E+00  0.00000000E+00  0.00000000E+00
  0.00000000E+00  0.00000000E+00  0.00000000E+00
  0.00000000E+00  0.00000000E+00  0.00000000E+00
  0.00000000E+00  0.00000000E+00  0.00000000E+00
  0.00000000E+00  0.00000000E+00  0.00000000E+00
  0.00000000E+00  0.00000000E+00  0.00000000E+00
  0.00000000E+00  0.00000000E+00  0.00000000E+00
  0.00000000E+00  0.00000000E+00  0.00000000E+00
  0.00000000E+00  0.00000000E+00  0.00000000E+00
  0.00000000E+00  0.00000000E+00  0.00000000E+00
  0.00000000E+00  0.00000000E+00  0.00000000E+00
  0.00000000E+00  0.00000000E+00  0.00000000E+00
  0.00000000E+00  0.00000000E+00  0.00000000E+00
  0.00000000E+00  0.00000000E+00  0.00000000E+00
  0.00000000E+00  0.00000000E+00  0.00000000E+00
  0.00000000E+00  0.00000000E+00  0.00000000E+00
  0.00000000E+00  0.00000000E+00  0.00000000E+00
  0.00000000E+00  0.00000000E+00  0.00000000E+00
  0.00000000E+00  0.00000000E+00  0.00000000E+00
  0.00000000E+00  0.00000000E+00  0.00000000E+00
  0.00000000E+00  0.00000000E+00  0.00000000E+00
  0.00000000E+00  0.00000000E+00  0.00000000E+00
  0.00000000E+00  0.00000000E+00  0.00000000E+00
  0.00000000E+00  0.00000000E+00  0.00000000E+00
  0.00000000E+00  0.00000000E+00  0.00000000E+00
  0.00000000E+00  0.00000000E+00  0.00000000E+00
  0.00000000E+00  0.00000000E+00  0.00000000E+00
  0.00000000E+00  0.00000000E+00  0.00000000E+00
  0.00000000E+00  0.00000000E+00  0.00000000E+00
  0.00000000E+00  0.00000000E+00  0.00000000E+00
  0.00000000E+00  0.00000000E+00  0.00000000E+00
  0.00000000E+00  0.00000000E+00  0.00000000E+00
  0.00000000E+00  0.00000000E+00  0.00000000E+00
  0.00000000E+00  0.00000000E+00  0.00000000E+00
  0.00000000E+00  0.00000000E+00  0.00000000E+00
  0.00000000E+00  0.00000000E+00  0.00000000E+00
  0.00000000E+00  0.00000000E+00  0.00000000E+00
  0.00000000E+00  0.00000000E+00  0.00000000E+00
  0.00000000E+00  0.00000000E+00  0.00000000E+00
  0.00000000E+00  0.00000000E+00  0.00000000E+00
  0.00000000E+00  0.00000000E+00  0.00000000E+00
  0.00000000E+00  0.00000000E+00  0.00000000E+00
  0.00000000E+00  0.00000000E+00  0.00000000E+00
  0.00000000E+00  0.00000000E+00  0.00000000E+00
  0.00000000E+00  0.00000000E+00  0.00000000E+00
  0.00000000E+00  0.00000000E+00  0.00000000E+00
  0.00000000E+00  0.00000000E+00  0.00000000E+00
  0.00000000E+00  0.00000000E+00  0.00000000E+00
  0.00000000E+00  0.00000000E+00  0.00000000E+00
  0.00000000E+00  0.00000000E+00  0.00000000E+00
  0.00000000E+00  0.00000000E+00  0.00000000E+00
  0.00000000E+00  0.00000000E+00  0.00000000E+00
  0.00000000E+00  0.00000000E+00  0.00000000E+00
  0.00000000E+00  0.00000000E+00  0.00000000E+00
  0.00000000E+00  0.00000000E+00  0.00000000E+00
  0.00000000E+00  0.00000000E+00  0.00000000E+00
