Ga48 O72                                
    1.000000000000000     
     0.0000000000000000   12.2804734172212839    0.0000000000000000
     9.1427020537309431    0.0000000000000000    0.0000000000000000
     0.0000000000000000   -2.7682617730220320  -11.3006977184464645
   Ga   O    P 
    47    71     1
Direct
  0.6720513981968637  0.9971991585287938  0.1520927696054599
  0.6434825390389136  0.0035645638765729  0.6536277897804226
  0.6667119254798379  0.3279503953283935  0.1574224063158240
  0.6489511947385296  0.3316973561335885  0.6528248830339223
  0.6639972678404433  0.6652484717392255  0.1614984772946144
  0.6413512721335266  0.6707577886199303  0.6534983175397429
  0.8437918130064546  0.1566796468523179  0.3433611186168122
  0.8320809646304497  0.1675416474387674  0.8400457704425435
  0.8416074965460183  0.4970105523689909  0.3448986209309339
  0.8285113342504431  0.5003347279035992  0.8350534909185967
  0.8403219977506993  0.8250699383717475  0.3469164192747556
  0.8273899026675124  0.8337952975377050  0.8381592314986577
  0.5876262713417262  0.1362720556226904  0.3952500407268928
  0.5844214084262305  0.1613783900735513  0.8993612381020029
  0.5851538301019517  0.5005814249159357  0.3927923622427656
  0.5924050619509345  0.4987908943246779  0.9037230466433215
  0.5876186032583561  0.8689275470623983  0.3968382650208611
  0.5875573015136268  0.8315277014421198  0.9029524682906711
  0.9167968013927137  0.9638386645537835  0.0997083512887613
  0.9093705416554911  0.9966284787103135  0.6040448777762251
  0.9123355486642382  0.3327103618474396  0.1006145266531604
  0.9050458337138920  0.3562344501655161  0.5987305578718676
  0.9013744520707263  0.6977642744288417  0.0924582423900375
  0.8978948683103951  0.6251150456882186  0.6013336578978254
  0.1566459774100792  0.1869310045880752  0.1529003556134469
  0.1464368644472316  0.5085443958430886  0.1691231026350977
  0.1866687345146474  0.4589806031446386  0.6524545640950166
  0.1650587587411323  0.8485220379742557  0.1510452441031305
  0.1518487325315263  0.8238596465184713  0.6664572131706947
  0.3458867833022623  0.0085080398606365  0.3463090579447581
  0.3336481889566656  0.9998079628560035  0.8497278196712870
  0.3410728573347015  0.3412909220462268  0.3338161393042256
  0.3404364428399731  0.3262052004301523  0.8582161080055215
  0.3501188671549755  0.6683319344961518  0.3352127685272208
  0.3383853627871858  0.6683975278531733  0.8579571256050684
  0.0876926899929487  0.9729498405406005  0.3662187304335518
  0.0816892992812157  0.0066918993124077  0.8926032341953132
  0.0927314887427926  0.2995651005927442  0.4431970895536921
  0.0827779913883830  0.3423644467245595  0.8847461362128186
  0.0925359084057646  0.6481637610477904  0.4145460900938573
  0.0795268127305704  0.6722472359856582  0.8955783223662550
  0.4222986226164522  0.1554397132185343  0.1170022389472933
  0.3736963922357077  0.1790431947490561  0.6024152224017953
  0.4175159404350168  0.4968453550812981  0.1108779001373676
  0.4021720568629306  0.4953118195567399  0.6051354593018985
  0.4245441894684987  0.8472814782872575  0.1177739101626898
  0.3815978603938461  0.8506463232164450  0.5985190963982419
  0.9908833723235659  0.1570468370688616  0.1147603484986774
  0.9760646303100700  0.1734776324373470  0.6196051534723921
  0.9824023074578108  0.5147667455387008  0.1245108113833027
  0.0364732899476863  0.4899832944951825  0.6293116362150997
  0.0421646086789664  0.8715072848141219  0.2155842839435778
  0.9850427100843149  0.8153517047394416  0.6374267333523989
  0.4416680933495201  0.0105007599124889  0.2465280458584260
  0.5022764269608189  0.9937547371707041  0.8633161599786590
  0.5144591165610848  0.3212545036098220  0.3590325721503689
  0.5055395819685558  0.3338725067953945  0.8902476674306854
  0.5171123042817030  0.6822860586776400  0.3583441299553769
  0.5048806913049475  0.6636539244399629  0.8881060545041208
  0.6757275155249900  0.1593766688643683  0.2738673272478920
  0.6638322995161019  0.1634965552416716  0.7806737969903850
  0.6735137026813831  0.4952585118065898  0.2786044722051599
  0.6591370918762891  0.5010557025105271  0.7760682948904432
  0.6714327135534575  0.8362675744889003  0.2742281947495968
  0.6597358127698030  0.8362236288510090  0.7789738303696510
  0.8318582394178762  0.9898091190085481  0.2193239228240671
  0.8180308422453351  0.9971531365978237  0.7159796580212401
  0.8305180706479405  0.3288545814162589  0.2168587565325311
  0.8144054078572651  0.3299070471779117  0.7236147455728101
  0.8275920890604382  0.6636983842688622  0.2222741392310184
  0.8115553502971551  0.6736085990578857  0.7191754385179081
  0.8263090930984163  0.9912924002753130  0.4466462452973516
  0.8256511382300786  0.0037834159784822  0.9403100656989096
  0.8266786811487421  0.3229718337707226  0.4358258464682336
  0.8290850132803698  0.3365748472143437  0.9451197680526988
  0.8149840605848553  0.6650554168708496  0.4419270249354597
  0.8144891983398850  0.6591422575380932  0.9357810495267600
  0.6814942577135454  0.1677248483143075  0.0488463094809788
  0.6659873050190654  0.1696094796680399  0.5557770344065673
  0.6748653141961114  0.4988915811927512  0.0577702527435520
  0.6506637406384641  0.5028802410948714  0.5526721653353235
  0.6801937857348435  0.8245037856670052  0.0517890557269354
  0.6584728322594344  0.8334531840819608  0.5575824563690048
  0.5175796057390372  0.9995814203452227  0.0818283315883690
  0.4833135328869176  0.0101340542595949  0.6199613807812554
  0.5063196245974453  0.3293227625881840  0.1241559973888755
  0.4942206385543386  0.3294198384282936  0.6364160649914439
  0.5031144623405197  0.6687295632051189  0.1254634505877164
  0.4791288020736602  0.6769686770507519  0.6287649347158677
  0.9967672175536748  0.1386276104452264  0.3516438544582954
  0.9950835141776082  0.1733569186661583  0.8649290460503138
  0.9974915287654014  0.4941140260471002  0.3699771044530351
  0.9904490816714713  0.5072240217537285  0.8591099960182191
  0.9996091585834748  0.8121705012150997  0.4086575997233481
  0.9913655193780357  0.8395455449376925  0.8787616564415472
  0.1984574706188837  0.0326152410116620  0.2724329585452239
  0.1707551603154158  0.9809691327592489  0.7928106960337331
  0.1685441681090722  0.3422083253604740  0.2816620224685380
  0.1821567237118202  0.3352643000707758  0.7925209045649950
  0.1805769053470243  0.6541135037290431  0.3027802636446779
  0.1731189131662063  0.6751848958143398  0.7953623669750627
  0.3158336089178917  0.2300613384733836  0.1894846530594094
  0.3505480268468162  0.1657901002952897  0.7537248063446427
  0.3244934424667747  0.5107604917337483  0.2134182910875211
  0.3410975183746459  0.5098416642107253  0.7468972439953063
  0.3154263620546160  0.7986124669603782  0.2003034225599549
  0.3350172478994224  0.8264816726865973  0.7426863496923559
  0.3682184862505551  0.1752339043153981  0.4363251498229914
  0.3323005695800347  0.1597030532079557  0.9630094735383139
  0.3776762289801283  0.5066683192249926  0.4376617162304797
  0.3300626977809884  0.4989090614491047  0.9607767199230324
  0.3725639310493989  0.8373814631831635  0.4321981977806502
  0.3365027290768197  0.8352942361532811  0.9630651296255479
  0.1604962759436006  0.0112301706143541  0.0480224757365093
  0.1372346914083309  0.3534319336271139  0.0461256233836309
  0.2795179971379085  0.3568001037469202  0.5697534192342033
  0.1393224200748264  0.6741970558588051  0.0565519225678344
  0.1921032379871050  0.6532674274017367  0.5627513297581999
  0.2066770604047150  0.9995214643868380  0.5471369692544243
 
  0.00000000E+00  0.00000000E+00  0.00000000E+00
  0.00000000E+00  0.00000000E+00  0.00000000E+00
  0.00000000E+00  0.00000000E+00  0.00000000E+00
  0.00000000E+00  0.00000000E+00  0.00000000E+00
  0.00000000E+00  0.00000000E+00  0.00000000E+00
  0.00000000E+00  0.00000000E+00  0.00000000E+00
  0.00000000E+00  0.00000000E+00  0.00000000E+00
  0.00000000E+00  0.00000000E+00  0.00000000E+00
  0.00000000E+00  0.00000000E+00  0.00000000E+00
  0.00000000E+00  0.00000000E+00  0.00000000E+00
  0.00000000E+00  0.00000000E+00  0.00000000E+00
  0.00000000E+00  0.00000000E+00  0.00000000E+00
  0.00000000E+00  0.00000000E+00  0.00000000E+00
  0.00000000E+00  0.00000000E+00  0.00000000E+00
  0.00000000E+00  0.00000000E+00  0.00000000E+00
  0.00000000E+00  0.00000000E+00  0.00000000E+00
  0.00000000E+00  0.00000000E+00  0.00000000E+00
  0.00000000E+00  0.00000000E+00  0.00000000E+00
  0.00000000E+00  0.00000000E+00  0.00000000E+00
  0.00000000E+00  0.00000000E+00  0.00000000E+00
  0.00000000E+00  0.00000000E+00  0.00000000E+00
  0.00000000E+00  0.00000000E+00  0.00000000E+00
  0.00000000E+00  0.00000000E+00  0.00000000E+00
  0.00000000E+00  0.00000000E+00  0.00000000E+00
  0.00000000E+00  0.00000000E+00  0.00000000E+00
  0.00000000E+00  0.00000000E+00  0.00000000E+00
  0.00000000E+00  0.00000000E+00  0.00000000E+00
  0.00000000E+00  0.00000000E+00  0.00000000E+00
  0.00000000E+00  0.00000000E+00  0.00000000E+00
  0.00000000E+00  0.00000000E+00  0.00000000E+00
  0.00000000E+00  0.00000000E+00  0.00000000E+00
  0.00000000E+00  0.00000000E+00  0.00000000E+00
  0.00000000E+00  0.00000000E+00  0.00000000E+00
  0.00000000E+00  0.00000000E+00  0.00000000E+00
  0.00000000E+00  0.00000000E+00  0.00000000E+00
  0.00000000E+00  0.00000000E+00  0.00000000E+00
  0.00000000E+00  0.00000000E+00  0.00000000E+00
  0.00000000E+00  0.00000000E+00  0.00000000E+00
  0.00000000E+00  0.00000000E+00  0.00000000E+00
  0.00000000E+00  0.00000000E+00  0.00000000E+00
  0.00000000E+00  0.00000000E+00  0.00000000E+00
  0.00000000E+00  0.00000000E+00  0.00000000E+00
  0.00000000E+00  0.00000000E+00  0.00000000E+00
  0.00000000E+00  0.00000000E+00  0.00000000E+00
  0.00000000E+00  0.00000000E+00  0.00000000E+00
  0.00000000E+00  0.00000000E+00  0.00000000E+00
  0.00000000E+00  0.00000000E+00  0.00000000E+00
  0.00000000E+00  0.00000000E+00  0.00000000E+00
  0.00000000E+00  0.00000000E+00  0.00000000E+00
  0.00000000E+00  0.00000000E+00  0.00000000E+00
  0.00000000E+00  0.00000000E+00  0.00000000E+00
  0.00000000E+00  0.00000000E+00  0.00000000E+00
  0.00000000E+00  0.00000000E+00  0.00000000E+00
  0.00000000E+00  0.00000000E+00  0.00000000E+00
  0.00000000E+00  0.00000000E+00  0.00000000E+00
  0.00000000E+00  0.00000000E+00  0.00000000E+00
  0.00000000E+00  0.00000000E+00  0.00000000E+00
  0.00000000E+00  0.00000000E+00  0.00000000E+00
  0.00000000E+00  0.00000000E+00  0.00000000E+00
  0.00000000E+00  0.00000000E+00  0.00000000E+00
  0.00000000E+00  0.00000000E+00  0.00000000E+00
  0.00000000E+00  0.00000000E+00  0.00000000E+00
  0.00000000E+00  0.00000000E+00  0.00000000E+00
  0.00000000E+00  0.00000000E+00  0.00000000E+00
  0.00000000E+00  0.00000000E+00  0.00000000E+00
  0.00000000E+00  0.00000000E+00  0.00000000E+00
  0.00000000E+00  0.00000000E+00  0.00000000E+00
  0.00000000E+00  0.00000000E+00  0.00000000E+00
  0.00000000E+00  0.00000000E+00  0.00000000E+00
  0.00000000E+00  0.00000000E+00  0.00000000E+00
  0.00000000E+00  0.00000000E+00  0.00000000E+00
  0.00000000E+00  0.00000000E+00  0.00000000E+00
  0.00000000E+00  0.00000000E+00  0.00000000E+00
  0.00000000E+00  0.00000000E+00  0.00000000E+00
  0.00000000E+00  0.00000000E+00  0.00000000E+00
  0.00000000E+00  0.00000000E+00  0.00000000E+00
  0.00000000E+00  0.00000000E+00  0.00000000E+00
  0.00000000E+00  0.00000000E+00  0.00000000E+00
  0.00000000E+00  0.00000000E+00  0.00000000E+00
  0.00000000E+00  0.00000000E+00  0.00000000E+00
  0.00000000E+00  0.00000000E+00  0.00000000E+00
  0.00000000E+00  0.00000000E+00  0.00000000E+00
  0.00000000E+00  0.00000000E+00  0.00000000E+00
  0.00000000E+00  0.00000000E+00  0.00000000E+00
  0.00000000E+00  0.00000000E+00  0.00000000E+00
  0.00000000E+00  0.00000000E+00  0.00000000E+00
  0.00000000E+00  0.00000000E+00  0.00000000E+00
  0.00000000E+00  0.00000000E+00  0.00000000E+00
  0.00000000E+00  0.00000000E+00  0.00000000E+00
  0.00000000E+00  0.00000000E+00  0.00000000E+00
  0.00000000E+00  0.00000000E+00  0.00000000E+00
  0.00000000E+00  0.00000000E+00  0.00000000E+00
  0.00000000E+00  0.00000000E+00  0.00000000E+00
  0.00000000E+00  0.00000000E+00  0.00000000E+00
  0.00000000E+00  0.00000000E+00  0.00000000E+00
  0.00000000E+00  0.00000000E+00  0.00000000E+00
  0.00000000E+00  0.00000000E+00  0.00000000E+00
  0.00000000E+00  0.00000000E+00  0.00000000E+00
  0.00000000E+00  0.00000000E+00  0.00000000E+00
  0.00000000E+00  0.00000000E+00  0.00000000E+00
  0.00000000E+00  0.00000000E+00  0.00000000E+00
  0.00000000E+00  0.00000000E+00  0.00000000E+00
  0.00000000E+00  0.00000000E+00  0.00000000E+00
  0.00000000E+00  0.00000000E+00  0.00000000E+00
  0.00000000E+00  0.00000000E+00  0.00000000E+00
  0.00000000E+00  0.00000000E+00  0.00000000E+00
  0.00000000E+00  0.00000000E+00  0.00000000E+00
  0.00000000E+00  0.00000000E+00  0.00000000E+00
  0.00000000E+00  0.00000000E+00  0.00000000E+00
  0.00000000E+00  0.00000000E+00  0.00000000E+00
  0.00000000E+00  0.00000000E+00  0.00000000E+00
  0.00000000E+00  0.00000000E+00  0.00000000E+00
  0.00000000E+00  0.00000000E+00  0.00000000E+00
  0.00000000E+00  0.00000000E+00  0.00000000E+00
  0.00000000E+00  0.00000000E+00  0.00000000E+00
  0.00000000E+00  0.00000000E+00  0.00000000E+00
  0.00000000E+00  0.00000000E+00  0.00000000E+00
  0.00000000E+00  0.00000000E+00  0.00000000E+00
  0.00000000E+00  0.00000000E+00  0.00000000E+00
