Ga48 O72                                
    1.000000000000000     
     0.0000000000000000   12.2804734172212839    0.0000000000000000
     9.1427020537309431    0.0000000000000000    0.0000000000000000
     0.0000000000000000   -2.7682617730220320  -11.3006977184464645
   Ga   O    P 
    47    71     1
Direct
  0.6720513981968614 -0.0028008414712083  0.1520927696054610
  0.6434825390389164  0.0035645638765710  0.6536277897804196
  0.6667119254798358  0.3279503953283942  0.1574224063158217
  0.6489511947385279  0.3316973561335865  0.6528248830339248
  0.6639972678404440  0.6652484717392272  0.1614984772946169
  0.6413512721335299  0.6707577886199303  0.6534983175397449
  0.8437918130064542  0.1566796468523196  0.3433611186168135
  0.8320809646304476  0.1675416474387686  0.8400457704425439
  0.8416074965460176  0.4970105523689902  0.3448986209309322
  0.8285113342504409  0.5003347279035988  0.8350534909185957
  0.8403219977506977  0.8250699383717509  0.3469164192747589
  0.8273899026675094  0.8337952975377062  0.8381592314986559
  0.5876262713417273  0.1362720556226898  0.3952500407268905
  0.5844214084262322  0.1613783900735479  0.8993612381020039
  0.5851538301019503  0.5005814249159379  0.3927923622427672
  0.5924050619509339  0.4987908943246786  0.9037230466433195
  0.5876186032583545  0.8689275470624005  0.3968382650208579
  0.5875573015136274  0.8315277014421190  0.9029524682906690
  0.9167968013927126 -0.0361613354462174  0.0997083512887639
  0.9093705416554910 -0.0033715212896876  0.6040448777762263
  0.9123355486642389  0.3327103618474398  0.1006145266531577
  0.9050458337138892  0.3562344501655194  0.5987305578718697
  0.9013744520707261  0.6977642744288405  0.0924582423900383
  0.8978948683103959  0.6251150456882184  0.6013336578978277
  0.1566459774100816  0.1869310045880722  0.1529003556134464
  0.1464368644472282  0.5085443958430881  0.1691231026350947
  0.1866687345146485  0.4589806031446367  0.6524545640950147
  0.1650587587411293  0.8485220379742535  0.1510452441031299
  0.1518487325315241  0.8238596465184725  0.6664572131706947
  0.3458867833022646  0.0085080398606390  0.3463090579447605
  0.3336481889566660 -0.0001920371439950  0.8497278196712882
  0.3410728573347009  0.3412909220462266  0.3338161393042257
  0.3404364428399759  0.3262052004301527  0.8582161080055239
  0.3501188671549780  0.6683319344961534  0.3352127685272183
  0.3383853627871840  0.6683975278531737  0.8579571256050669
  0.0876926899929503 -0.0270501594594008  0.3662187304335530
  0.0816892992812152  0.0066918993124060  0.8926032341953104
  0.0927314887427936  0.2995651005927434  0.4431970895536901
  0.0827779913883855  0.3423644467245614  0.8847461362128197
  0.0925359084057640  0.6481637610477914  0.4145460900938601
  0.0795268127305718  0.6722472359856601  0.8955783223662522
  0.4222986226164507  0.1554397132185374  0.1170022389472930
  0.3736963922357079  0.1790431947490538  0.6024152224017946
  0.4175159404350163  0.4968453550812951  0.1108779001373709
  0.4021720568629298  0.4953118195567395  0.6051354593018975
  0.4245441894685000  0.8472814782872576  0.1177739101626919
  0.3815978603938491  0.8506463232164424  0.5985190963982386
  0.9908833723235645  0.1570468370688609  0.1147603484986804
  0.9760646303100666  0.1734776324373451  0.6196051534723931
  0.9824023074578111  0.5147667455387043  0.1245108113833054
  0.0364732899476840  0.4899832944951835  0.6293116362150963
  0.0421646086789635  0.8715072848141227  0.2155842839435810
  0.9850427100843138  0.8153517047394402  0.6374267333523965
  0.4416680933495196  0.0105007599124897  0.2465280458584236
  0.5022764269608213 -0.0062452628292969  0.8633161599786616
  0.5144591165610839  0.3212545036098222  0.3590325721503678
  0.5055395819685523  0.3338725067953972  0.8902476674306838
  0.5171123042817011  0.6822860586776409  0.3583441299553780
  0.5048806913049492  0.6636539244399634  0.8881060545041238
  0.6757275155249931  0.1593766688643702  0.2738673272478917
  0.6638322995160999  0.1634965552416722  0.7806737969903842
  0.6735137026813862  0.4952585118065900  0.2786044722051624
  0.6591370918762889  0.5010557025105290  0.7760682948904433
  0.6714327135534542  0.8362675744888994  0.2742281947495957
  0.6597358127698038  0.8362236288510094  0.7789738303696536
  0.8318582394178744 -0.0101908809914506  0.2193239228240673
  0.8180308422453354 -0.0028468634021741  0.7159796580212406
  0.8305180706479411  0.3288545814162576  0.2168587565325311
  0.8144054078572637  0.3299070471779096  0.7236147455728085
  0.8275920890604355  0.6636983842688605  0.2222741392310204
  0.8115553502971520  0.6736085990578844  0.7191754385179093
  0.8263090930984162 -0.0087075997246898  0.4466462452973484
  0.8256511382300821  0.0037834159784831  0.9403100656989068
  0.8266786811487427  0.3229718337707254  0.4358258464682305
  0.8290850132803694  0.3365748472143407  0.9451197680526976
  0.8149840605848587  0.6650554168708515  0.4419270249354622
  0.8144891983398823  0.6591422575380909  0.9357810495267566
  0.6814942577135470  0.1677248483143043  0.0488463094809776
  0.6659873050190653  0.1696094796680426  0.5557770344065657
  0.6748653141961117  0.4988915811927487  0.0577702527435539
  0.6506637406384616  0.5028802410948685  0.5526721653353263
  0.6801937857348404  0.8245037856670084  0.0517890557269343
  0.6584728322594326  0.8334531840819586  0.5575824563690058
  0.5175796057390363 -0.0004185796547765  0.0818283315883693
  0.4833135328869199  0.0101340542595933  0.6199613807812584
  0.5063196245974430  0.3293227625881820  0.1241559973888728
  0.4942206385543374  0.3294198384282962  0.6364160649914469
  0.5031144623405227  0.6687295632051184  0.1254634505877157
  0.4791288020736637  0.6769686770507493  0.6287649347158693
 -0.0032327824463258  0.1386276104452255  0.3516438544582943
 -0.0049164858223888  0.1733569186661597  0.8649290460503104
 -0.0025084712346018  0.4941140260470982  0.3699771044530331
 -0.0095509183285275  0.5072240217537305  0.8591099960182157
 -0.0003908414165286  0.8121705012151004  0.4086575997233498
 -0.0086344806219658  0.8395455449376892  0.8787616564415501
  0.1984574706188842  0.0326152410116650  0.2724329585452205
  0.1707551603154126 -0.0190308672407509  0.7928106960337316
  0.1685441681090714  0.3422083253604752  0.2816620224685388
  0.1821567237118175  0.3352643000707772  0.7925209045649917
  0.1805769053470243  0.6541135037290410  0.3027802636446814
  0.1731189131662028  0.6751848958143384  0.7953623669750611
  0.3158336089178924  0.2300613384733834  0.1894846530594062
  0.3505480268468132  0.1657901002952932  0.7537248063446447
  0.3244934424667740  0.5107604917337476  0.2134182910875223
  0.3410975183746432  0.5098416642107277  0.7468972439953091
  0.3154263620546146  0.7986124669603760  0.2003034225599572
  0.3350172478994229  0.8264816726865946  0.7426863496923548
  0.3682184862505572  0.1752339043153953  0.4363251498229897
  0.3323005695800378  0.1597030532079534  0.9630094735383122
  0.3776762289801274  0.5066683192249904  0.4376617162304789
  0.3300626977809865  0.4989090614491080  0.9607767199230339
  0.3725639310493959  0.8373814631831631  0.4321981977806520
  0.3365027290768212  0.8352942361532835  0.9630651296255486
  0.1604962759436001  0.0112301706143512  0.0480224757365077
  0.1372346914083281  0.3534319336271122  0.0461256233836314
  0.2795179971379062  0.3568001037469229  0.5697534192342036
  0.1393224200748253  0.6741970558588033  0.0565519225678352
  0.1921032379871078  0.6532674274017349  0.5627513297581994
  0.2066770604047155 -0.0004785356131627  0.5471369692544227
 
  0.00000000E+00  0.00000000E+00  0.00000000E+00
  0.00000000E+00  0.00000000E+00  0.00000000E+00
  0.00000000E+00  0.00000000E+00  0.00000000E+00
  0.00000000E+00  0.00000000E+00  0.00000000E+00
  0.00000000E+00  0.00000000E+00  0.00000000E+00
  0.00000000E+00  0.00000000E+00  0.00000000E+00
  0.00000000E+00  0.00000000E+00  0.00000000E+00
  0.00000000E+00  0.00000000E+00  0.00000000E+00
  0.00000000E+00  0.00000000E+00  0.00000000E+00
  0.00000000E+00  0.00000000E+00  0.00000000E+00
  0.00000000E+00  0.00000000E+00  0.00000000E+00
  0.00000000E+00  0.00000000E+00  0.00000000E+00
  0.00000000E+00  0.00000000E+00  0.00000000E+00
  0.00000000E+00  0.00000000E+00  0.00000000E+00
  0.00000000E+00  0.00000000E+00  0.00000000E+00
  0.00000000E+00  0.00000000E+00  0.00000000E+00
  0.00000000E+00  0.00000000E+00  0.00000000E+00
  0.00000000E+00  0.00000000E+00  0.00000000E+00
  0.00000000E+00  0.00000000E+00  0.00000000E+00
  0.00000000E+00  0.00000000E+00  0.00000000E+00
  0.00000000E+00  0.00000000E+00  0.00000000E+00
  0.00000000E+00  0.00000000E+00  0.00000000E+00
  0.00000000E+00  0.00000000E+00  0.00000000E+00
  0.00000000E+00  0.00000000E+00  0.00000000E+00
  0.00000000E+00  0.00000000E+00  0.00000000E+00
  0.00000000E+00  0.00000000E+00  0.00000000E+00
  0.00000000E+00  0.00000000E+00  0.00000000E+00
  0.00000000E+00  0.00000000E+00  0.00000000E+00
  0.00000000E+00  0.00000000E+00  0.00000000E+00
  0.00000000E+00  0.00000000E+00  0.00000000E+00
  0.00000000E+00  0.00000000E+00  0.00000000E+00
  0.00000000E+00  0.00000000E+00  0.00000000E+00
  0.00000000E+00  0.00000000E+00  0.00000000E+00
  0.00000000E+00  0.00000000E+00  0.00000000E+00
  0.00000000E+00  0.00000000E+00  0.00000000E+00
  0.00000000E+00  0.00000000E+00  0.00000000E+00
  0.00000000E+00  0.00000000E+00  0.00000000E+00
  0.00000000E+00  0.00000000E+00  0.00000000E+00
  0.00000000E+00  0.00000000E+00  0.00000000E+00
  0.00000000E+00  0.00000000E+00  0.00000000E+00
  0.00000000E+00  0.00000000E+00  0.00000000E+00
  0.00000000E+00  0.00000000E+00  0.00000000E+00
  0.00000000E+00  0.00000000E+00  0.00000000E+00
  0.00000000E+00  0.00000000E+00  0.00000000E+00
  0.00000000E+00  0.00000000E+00  0.00000000E+00
  0.00000000E+00  0.00000000E+00  0.00000000E+00
  0.00000000E+00  0.00000000E+00  0.00000000E+00
  0.00000000E+00  0.00000000E+00  0.00000000E+00
  0.00000000E+00  0.00000000E+00  0.00000000E+00
  0.00000000E+00  0.00000000E+00  0.00000000E+00
  0.00000000E+00  0.00000000E+00  0.00000000E+00
  0.00000000E+00  0.00000000E+00  0.00000000E+00
  0.00000000E+00  0.00000000E+00  0.00000000E+00
  0.00000000E+00  0.00000000E+00  0.00000000E+00
  0.00000000E+00  0.00000000E+00  0.00000000E+00
  0.00000000E+00  0.00000000E+00  0.00000000E+00
  0.00000000E+00  0.00000000E+00  0.00000000E+00
  0.00000000E+00  0.00000000E+00  0.00000000E+00
  0.00000000E+00  0.00000000E+00  0.00000000E+00
  0.00000000E+00  0.00000000E+00  0.00000000E+00
  0.00000000E+00  0.00000000E+00  0.00000000E+00
  0.00000000E+00  0.00000000E+00  0.00000000E+00
  0.00000000E+00  0.00000000E+00  0.00000000E+00
  0.00000000E+00  0.00000000E+00  0.00000000E+00
  0.00000000E+00  0.00000000E+00  0.00000000E+00
  0.00000000E+00  0.00000000E+00  0.00000000E+00
  0.00000000E+00  0.00000000E+00  0.00000000E+00
  0.00000000E+00  0.00000000E+00  0.00000000E+00
  0.00000000E+00  0.00000000E+00  0.00000000E+00
  0.00000000E+00  0.00000000E+00  0.00000000E+00
  0.00000000E+00  0.00000000E+00  0.00000000E+00
  0.00000000E+00  0.00000000E+00  0.00000000E+00
  0.00000000E+00  0.00000000E+00  0.00000000E+00
  0.00000000E+00  0.00000000E+00  0.00000000E+00
  0.00000000E+00  0.00000000E+00  0.00000000E+00
  0.00000000E+00  0.00000000E+00  0.00000000E+00
  0.00000000E+00  0.00000000E+00  0.00000000E+00
  0.00000000E+00  0.00000000E+00  0.00000000E+00
  0.00000000E+00  0.00000000E+00  0.00000000E+00
  0.00000000E+00  0.00000000E+00  0.00000000E+00
  0.00000000E+00  0.00000000E+00  0.00000000E+00
  0.00000000E+00  0.00000000E+00  0.00000000E+00
  0.00000000E+00  0.00000000E+00  0.00000000E+00
  0.00000000E+00  0.00000000E+00  0.00000000E+00
  0.00000000E+00  0.00000000E+00  0.00000000E+00
  0.00000000E+00  0.00000000E+00  0.00000000E+00
  0.00000000E+00  0.00000000E+00  0.00000000E+00
  0.00000000E+00  0.00000000E+00  0.00000000E+00
  0.00000000E+00  0.00000000E+00  0.00000000E+00
  0.00000000E+00  0.00000000E+00  0.00000000E+00
  0.00000000E+00  0.00000000E+00  0.00000000E+00
  0.00000000E+00  0.00000000E+00  0.00000000E+00
  0.00000000E+00  0.00000000E+00  0.00000000E+00
  0.00000000E+00  0.00000000E+00  0.00000000E+00
  0.00000000E+00  0.00000000E+00  0.00000000E+00
  0.00000000E+00  0.00000000E+00  0.00000000E+00
  0.00000000E+00  0.00000000E+00  0.00000000E+00
  0.00000000E+00  0.00000000E+00  0.00000000E+00
  0.00000000E+00  0.00000000E+00  0.00000000E+00
  0.00000000E+00  0.00000000E+00  0.00000000E+00
  0.00000000E+00  0.00000000E+00  0.00000000E+00
  0.00000000E+00  0.00000000E+00  0.00000000E+00
  0.00000000E+00  0.00000000E+00  0.00000000E+00
  0.00000000E+00  0.00000000E+00  0.00000000E+00
  0.00000000E+00  0.00000000E+00  0.00000000E+00
  0.00000000E+00  0.00000000E+00  0.00000000E+00
  0.00000000E+00  0.00000000E+00  0.00000000E+00
  0.00000000E+00  0.00000000E+00  0.00000000E+00
  0.00000000E+00  0.00000000E+00  0.00000000E+00
  0.00000000E+00  0.00000000E+00  0.00000000E+00
  0.00000000E+00  0.00000000E+00  0.00000000E+00
  0.00000000E+00  0.00000000E+00  0.00000000E+00
  0.00000000E+00  0.00000000E+00  0.00000000E+00
  0.00000000E+00  0.00000000E+00  0.00000000E+00
  0.00000000E+00  0.00000000E+00  0.00000000E+00
  0.00000000E+00  0.00000000E+00  0.00000000E+00
  0.00000000E+00  0.00000000E+00  0.00000000E+00
  0.00000000E+00  0.00000000E+00  0.00000000E+00
  0.00000000E+00  0.00000000E+00  0.00000000E+00
