       N       E                     dE             d eps       ncg     rms          ort
SDA:   1    -0.717144724180E+03   -0.71714E+03    0.00000E+00   633   0.499E+03 0.000E+00
CGA:   2    -0.875572083538E+03   -0.15843E+03   -0.15816E+03   633   0.266E+03 0.160E+01
CGA:   3    -0.931330037090E+03   -0.55758E+02   -0.55747E+02   633   0.476E+02 0.145E+01
CGA:   4    -0.947571610392E+03   -0.16242E+02   -0.16120E+02   633   0.197E+02 0.844E+00
CGA:   5    -0.952626833675E+03   -0.50552E+01   -0.50419E+01   633   0.616E+01 0.235E+00
CGA:   6    -0.954726524130E+03   -0.20997E+01   -0.20910E+01   633   0.242E+01 0.616E-01
CGA:   7    -0.955364939776E+03   -0.63842E+00   -0.63806E+00   633   0.683E+00 0.629E-02
CGA:   8    -0.955561403190E+03   -0.19646E+00   -0.19639E+00   633   0.207E+00 0.809E-03
CGA:   9    -0.955614501389E+03   -0.53098E-01   -0.53105E-01   633   0.627E-01-0.208E-03
CGA:  10    -0.955628147585E+03   -0.13646E-01   -0.13647E-01   633   0.142E-01 0.137E-03
CGA:  11    -0.955631337451E+03   -0.31899E-02   -0.31900E-02   633   0.391E-02 0.290E-04
CGA:  12    -0.955632413516E+03   -0.10761E-02   -0.10782E-02   633   0.119E-02-0.441E-04
CGA:  13    -0.955632680309E+03   -0.26679E-03   -0.26678E-03   633   0.417E-03-0.687E-05
CGA:  14    -0.955632773180E+03   -0.92870E-04   -0.92915E-04   633   0.150E-03 0.874E-05
CGA:  15    -0.955632808439E+03   -0.35259E-04   -0.35254E-04   633   0.535E-04 0.488E-05
CGA:  16    -0.955632821649E+03   -0.13210E-04   -0.13220E-04   633   0.253E-04-0.853E-06
CGA:  17    -0.955632827397E+03   -0.57480E-05   -0.57507E-05   633   0.112E-04-0.147E-05
   1 F= -.95563283E+03 E0= -.95561872E+03  d E =-.282095E-01
