Ga48 O72                                
    1.000000000000000     
     0.0000000000000000   12.2804734172212839    0.0000000000000000
     9.1427020537309431    0.0000000000000000    0.0000000000000000
     0.0000000000000000   -2.7682617730220320  -11.3006977184464645
   Ga   O    P 
    47    71     1
Direct
  0.6595703142106117  0.9993394400974722  0.1587382432705553
  0.6592488466345685  0.9979778875841774  0.6565315682704593
  0.6580581702620023  0.3312714253397075  0.1598348592757191
  0.6589058592826831  0.3311481839476400  0.6572205319312658
  0.6599686494167472  0.6668605855956500  0.1589761042502289
  0.6589469640839312  0.6646265234401838  0.6578565429096912
  0.8462347333363311  0.1624603745710758  0.3456989626958276
  0.8402015895258401  0.1644978751909392  0.8421931195696502
  0.8418423716732022  0.4994175669885337  0.3451157945420320
  0.8408255245286256  0.4996350938284877  0.8428342180351933
  0.8455146249654106  0.8337203514763587  0.3460013887066964
  0.8403678136134545  0.8324667072835226  0.8436370225252148
  0.5904835867772960  0.1626213615937928  0.3978835301669150
  0.5914410249099475  0.1647435876646171  0.8994151471152989
  0.5939324770558230  0.5008907677657675  0.4002021422131961
  0.5925670067182836  0.4978245723311332  0.8998109016633506
  0.5890302190866592  0.8339667826124142  0.3976366069499520
  0.5905120906520764  0.8314682675612062  0.8991676589246111
  0.9099149125495742  0.0059693731734001  0.1036578419354370
  0.9111195606060107  0.9975858853453801  0.6024146078272707
  0.8988110317487426  0.3480835072813733  0.0994948356684375
  0.9096598351784735  0.3310952933551121  0.6040227848772801
  0.9086312769824403  0.6759465663208459  0.1032798362255960
  0.9094640085348757  0.6650295181225374  0.6037163071149152
  0.1597680809726043  0.1606611174521291  0.6540879738226124
  0.1565725808405105  0.5074172155106424  0.1612626118356459
  0.1592805502596875  0.4978980737562111  0.6585050601063145
  0.1611953864858577  0.8334816004585761  0.1496325726324628
  0.1601445739267149  0.8328347743417766  0.6527876664189023
  0.3309740275099031  0.0017673466867691  0.3449750666229292
  0.3401283118518705  0.9977437709570651  0.8455214738098675
  0.3472072544737657  0.3312234868621644  0.3438498708740667
  0.3413231306838682  0.3301737959624234  0.8450163151552843
  0.3408571971867076  0.6654979757423334  0.3455339306787124
  0.3408310228767988  0.6637544381132443  0.8443327972245669
  0.1178581783797341  0.9917046564979088  0.3806687730907541
  0.0918456796260188  0.9916169223866547  0.8967867817626214
  0.0858975109069533  0.3265021302105637  0.4017432916798782
  0.0905430815533563  0.3235541192391977  0.8980931067951872
  0.0894757939433504  0.6672238918538227  0.3987165997448088
  0.0906450714278151  0.6606524991043585  0.8956769850734290
  0.4067676860536267  0.1644578195199529  0.1062081473560212
  0.4092283738631863  0.1650401921575479  0.6047215316665486
  0.4094455650989417  0.4990509224808903  0.1035133846497089
  0.4075002987650009  0.4971459954713282  0.6022573247691128
  0.4087049840915284  0.8331054629211749  0.1039507116799712
  0.4106313556971841  0.8307470323849344  0.6052841752693894
  0.9947234715661821  0.1830379430734368  0.1231320435935714
  0.9973182748726259  0.1650071868577356  0.6289808726681230
  0.9940775984127228  0.5070388888589292  0.1265433063014854
  0.9967719721311070  0.4981198666232203  0.6304230088778482
  0.9997509911793827  0.8411187432226157  0.1298005095556007
  0.9975429321847571  0.8305360490028519  0.6293446402219303
  0.4994327021169269  0.9987520046078160  0.3752751330013453
  0.5032024804146360  0.9985129174950060  0.8745466734511496
  0.5079583235604801  0.3338612619960912  0.3760464173367026
  0.5040723846371478  0.3317971122810803  0.8747968633655390
  0.5032433636703360  0.6647516052152795  0.3724956155399610
  0.5038595076063075  0.6636347438849697  0.8750373611305733
  0.6740831771315783  0.1649950137354210  0.2823830492479047
  0.6723458984972268  0.1641141343376091  0.7811607825068165
  0.6741114630785958  0.5001357746855959  0.2823150993710826
  0.6726100464539257  0.4984875053314823  0.7812244832454311
  0.6737717205338143  0.8337016971046722  0.2824483526468811
  0.6723571333982932  0.8317963582322889  0.7816683387194487
  0.8291409716858098  0.0015220014133845  0.2197705311353602
  0.8279088165265804  0.9972410130881997  0.7197300969739402
  0.8275337127825679  0.3334019635260717  0.2218285990236311
  0.8278470487232141  0.3308248570599588  0.7205358612765593
  0.8287295740374745  0.6685978162096262  0.2211224154644427
  0.8279174487053496  0.6641261084771131  0.7209702832039042
  0.8310611445341749  0.9984653974102713  0.4471230688272954
  0.8336830793395436  0.0005127121378763  0.9477300128655202
  0.8364834074137519  0.3304075433879703  0.4464196928931941
  0.8285164513022352  0.3332296369366219  0.9435568125276745
  0.8335391974630539  0.6655734787396241  0.4470095343296236
  0.8320665043396360  0.6668385532873700  0.9469006904753954
  0.6691327373657145  0.1660081801745505  0.0559989930010403
  0.6681186947969593  0.1647580271439253  0.5548128155041496
  0.6698390647637069  0.4984023926183312  0.0569385764502357
  0.6709342585545102  0.4984707810020339  0.5562236699611276
  0.6686200992279794  0.8326670059705990  0.0556761829795391
  0.6667758976402638  0.8307125079467781  0.5546712944101913
  0.4965483242675290  0.9990044157418012  0.1288362730580204
  0.4966848120872029  0.9986151067687743  0.6289077088056558
  0.4960276557878487  0.3318511060552822  0.1286767152807826
  0.4967627328377588  0.3319838833926525  0.6283828946547985
  0.4964958381039750  0.6658877193586719  0.1295635985394625
  0.4966503754774365  0.6624437707408433  0.6283091209801057
  0.0089027357998290  0.1545435364837857  0.3693441429321638
  0.0029322338313591  0.1590180007731306  0.8748615601109933
  0.0041556502494231  0.4977398463978560  0.3733430632269545
  0.0050515277062573  0.4919448073823673  0.8783274897242421
  0.0068569739879578  0.8359554544793042  0.3741482680104156
  0.0020950652075200  0.8264156250994503  0.8727722762782903
  0.1728955575274469  0.9967384604199339  0.7797009581438630
  0.1608645998553371  0.3337390631400012  0.2735243052154246
  0.1728330858043137  0.3294313829672362  0.7831606925437953
  0.1722484066409606  0.6659643756853910  0.2811672843252140
  0.1728505447437882  0.6636877287483216  0.7803294376256815
  0.3346263719830560  0.1693981476449054  0.2292365493630371
  0.3280518290834493  0.1648497381780274  0.7218706044053107
  0.3246284984217738  0.4958045347057123  0.2190056704312084
  0.3276528261037726  0.4965154160434366  0.7209288726072458
  0.3247704966367593  0.8334693028962405  0.2209852690305851
  0.3285146797040781  0.8299852057442152  0.7213628077360283
  0.3297322912970273  0.1720181749769694  0.4490262560535854
  0.3312574818796108  0.1653752985892538  0.9486540580582670
  0.3307983885051442  0.4957053529843378  0.4444635849177274
  0.3293834964586964  0.4964466558253093  0.9478058037249752
  0.3348808650555100  0.8284719982998610  0.4489518393140202
  0.3333974272894622  0.8297884896763534  0.9470447680585821
  0.1726216979657167  0.9907535160740508  0.0493844082163477
  0.1679083124760581  0.9974426128195688  0.5523861056458159
  0.1565209940696093  0.3166136416373746  0.0662288510171791
  0.1674603973114799  0.3317415323313995  0.5557745916395476
  0.1678099692792188  0.6613618907517846  0.0530073398565136
  0.1690390608693519  0.6625027979593980  0.5545154103832886
  0.1400907562370293  0.1870632209409138  0.1655378586170571
 
  0.00000000E+00  0.00000000E+00  0.00000000E+00
  0.00000000E+00  0.00000000E+00  0.00000000E+00
  0.00000000E+00  0.00000000E+00  0.00000000E+00
  0.00000000E+00  0.00000000E+00  0.00000000E+00
  0.00000000E+00  0.00000000E+00  0.00000000E+00
  0.00000000E+00  0.00000000E+00  0.00000000E+00
  0.00000000E+00  0.00000000E+00  0.00000000E+00
  0.00000000E+00  0.00000000E+00  0.00000000E+00
  0.00000000E+00  0.00000000E+00  0.00000000E+00
  0.00000000E+00  0.00000000E+00  0.00000000E+00
  0.00000000E+00  0.00000000E+00  0.00000000E+00
  0.00000000E+00  0.00000000E+00  0.00000000E+00
  0.00000000E+00  0.00000000E+00  0.00000000E+00
  0.00000000E+00  0.00000000E+00  0.00000000E+00
  0.00000000E+00  0.00000000E+00  0.00000000E+00
  0.00000000E+00  0.00000000E+00  0.00000000E+00
  0.00000000E+00  0.00000000E+00  0.00000000E+00
  0.00000000E+00  0.00000000E+00  0.00000000E+00
  0.00000000E+00  0.00000000E+00  0.00000000E+00
  0.00000000E+00  0.00000000E+00  0.00000000E+00
  0.00000000E+00  0.00000000E+00  0.00000000E+00
  0.00000000E+00  0.00000000E+00  0.00000000E+00
  0.00000000E+00  0.00000000E+00  0.00000000E+00
  0.00000000E+00  0.00000000E+00  0.00000000E+00
  0.00000000E+00  0.00000000E+00  0.00000000E+00
  0.00000000E+00  0.00000000E+00  0.00000000E+00
  0.00000000E+00  0.00000000E+00  0.00000000E+00
  0.00000000E+00  0.00000000E+00  0.00000000E+00
  0.00000000E+00  0.00000000E+00  0.00000000E+00
  0.00000000E+00  0.00000000E+00  0.00000000E+00
  0.00000000E+00  0.00000000E+00  0.00000000E+00
  0.00000000E+00  0.00000000E+00  0.00000000E+00
  0.00000000E+00  0.00000000E+00  0.00000000E+00
  0.00000000E+00  0.00000000E+00  0.00000000E+00
  0.00000000E+00  0.00000000E+00  0.00000000E+00
  0.00000000E+00  0.00000000E+00  0.00000000E+00
  0.00000000E+00  0.00000000E+00  0.00000000E+00
  0.00000000E+00  0.00000000E+00  0.00000000E+00
  0.00000000E+00  0.00000000E+00  0.00000000E+00
  0.00000000E+00  0.00000000E+00  0.00000000E+00
  0.00000000E+00  0.00000000E+00  0.00000000E+00
  0.00000000E+00  0.00000000E+00  0.00000000E+00
  0.00000000E+00  0.00000000E+00  0.00000000E+00
  0.00000000E+00  0.00000000E+00  0.00000000E+00
  0.00000000E+00  0.00000000E+00  0.00000000E+00
  0.00000000E+00  0.00000000E+00  0.00000000E+00
  0.00000000E+00  0.00000000E+00  0.00000000E+00
  0.00000000E+00  0.00000000E+00  0.00000000E+00
  0.00000000E+00  0.00000000E+00  0.00000000E+00
  0.00000000E+00  0.00000000E+00  0.00000000E+00
  0.00000000E+00  0.00000000E+00  0.00000000E+00
  0.00000000E+00  0.00000000E+00  0.00000000E+00
  0.00000000E+00  0.00000000E+00  0.00000000E+00
  0.00000000E+00  0.00000000E+00  0.00000000E+00
  0.00000000E+00  0.00000000E+00  0.00000000E+00
  0.00000000E+00  0.00000000E+00  0.00000000E+00
  0.00000000E+00  0.00000000E+00  0.00000000E+00
  0.00000000E+00  0.00000000E+00  0.00000000E+00
  0.00000000E+00  0.00000000E+00  0.00000000E+00
  0.00000000E+00  0.00000000E+00  0.00000000E+00
  0.00000000E+00  0.00000000E+00  0.00000000E+00
  0.00000000E+00  0.00000000E+00  0.00000000E+00
  0.00000000E+00  0.00000000E+00  0.00000000E+00
  0.00000000E+00  0.00000000E+00  0.00000000E+00
  0.00000000E+00  0.00000000E+00  0.00000000E+00
  0.00000000E+00  0.00000000E+00  0.00000000E+00
  0.00000000E+00  0.00000000E+00  0.00000000E+00
  0.00000000E+00  0.00000000E+00  0.00000000E+00
  0.00000000E+00  0.00000000E+00  0.00000000E+00
  0.00000000E+00  0.00000000E+00  0.00000000E+00
  0.00000000E+00  0.00000000E+00  0.00000000E+00
  0.00000000E+00  0.00000000E+00  0.00000000E+00
  0.00000000E+00  0.00000000E+00  0.00000000E+00
  0.00000000E+00  0.00000000E+00  0.00000000E+00
  0.00000000E+00  0.00000000E+00  0.00000000E+00
  0.00000000E+00  0.00000000E+00  0.00000000E+00
  0.00000000E+00  0.00000000E+00  0.00000000E+00
  0.00000000E+00  0.00000000E+00  0.00000000E+00
  0.00000000E+00  0.00000000E+00  0.00000000E+00
  0.00000000E+00  0.00000000E+00  0.00000000E+00
  0.00000000E+00  0.00000000E+00  0.00000000E+00
  0.00000000E+00  0.00000000E+00  0.00000000E+00
  0.00000000E+00  0.00000000E+00  0.00000000E+00
  0.00000000E+00  0.00000000E+00  0.00000000E+00
  0.00000000E+00  0.00000000E+00  0.00000000E+00
  0.00000000E+00  0.00000000E+00  0.00000000E+00
  0.00000000E+00  0.00000000E+00  0.00000000E+00
  0.00000000E+00  0.00000000E+00  0.00000000E+00
  0.00000000E+00  0.00000000E+00  0.00000000E+00
  0.00000000E+00  0.00000000E+00  0.00000000E+00
  0.00000000E+00  0.00000000E+00  0.00000000E+00
  0.00000000E+00  0.00000000E+00  0.00000000E+00
  0.00000000E+00  0.00000000E+00  0.00000000E+00
  0.00000000E+00  0.00000000E+00  0.00000000E+00
  0.00000000E+00  0.00000000E+00  0.00000000E+00
  0.00000000E+00  0.00000000E+00  0.00000000E+00
  0.00000000E+00  0.00000000E+00  0.00000000E+00
  0.00000000E+00  0.00000000E+00  0.00000000E+00
  0.00000000E+00  0.00000000E+00  0.00000000E+00
  0.00000000E+00  0.00000000E+00  0.00000000E+00
  0.00000000E+00  0.00000000E+00  0.00000000E+00
  0.00000000E+00  0.00000000E+00  0.00000000E+00
  0.00000000E+00  0.00000000E+00  0.00000000E+00
  0.00000000E+00  0.00000000E+00  0.00000000E+00
  0.00000000E+00  0.00000000E+00  0.00000000E+00
  0.00000000E+00  0.00000000E+00  0.00000000E+00
  0.00000000E+00  0.00000000E+00  0.00000000E+00
  0.00000000E+00  0.00000000E+00  0.00000000E+00
  0.00000000E+00  0.00000000E+00  0.00000000E+00
  0.00000000E+00  0.00000000E+00  0.00000000E+00
  0.00000000E+00  0.00000000E+00  0.00000000E+00
  0.00000000E+00  0.00000000E+00  0.00000000E+00
  0.00000000E+00  0.00000000E+00  0.00000000E+00
  0.00000000E+00  0.00000000E+00  0.00000000E+00
  0.00000000E+00  0.00000000E+00  0.00000000E+00
  0.00000000E+00  0.00000000E+00  0.00000000E+00
  0.00000000E+00  0.00000000E+00  0.00000000E+00
  0.00000000E+00  0.00000000E+00  0.00000000E+00
  0.00000000E+00  0.00000000E+00  0.00000000E+00
