O                                       
    1.000000000000000     
     7.5000000000000000    0.0000000000000000    0.0000000000000000
     0.0000000000000000    8.0000000000000000    0.0000000000000000
     0.0000000000000000    0.0000000000000000    8.9000000000000004
   O 
     2
Direct
 -0.0000000000000000  0.0000000000000000 -0.0008306770162505
  0.0000000000000000  0.0000000000000000  0.1244261826342280
 
  0.00000000E+00  0.00000000E+00  0.00000000E+00
  0.00000000E+00  0.00000000E+00  0.00000000E+00
