Ga47 O72                                
    1.000000000000000     
     0.0000000000000000   12.2804734172212839    0.0000000000000000
     9.1427020537309431    0.0000000000000000    0.0000000000000000
     0.0000000000000000   -2.7682617730220320  -11.3006977184464645
   Ga   O 
    47    72
Direct
  0.6610606441464597  0.0001449577271160  0.1579272722505962
  0.6578091089983715  0.0003310364522378  0.6553022713180070
  0.6613928511583111  0.3333333333333357  0.1583503243365669
  0.6575350636185107  0.3333333333333357  0.6547443524634531
  0.6610606441464597  0.6665217089395483  0.1579272722505962
  0.6578091089983715  0.6663356302144265  0.6553022713180070
  0.8440022083317587  0.1672035578471238  0.3443078396256638
  0.8401624348371044  0.1672838842931839  0.8426342756944507
  0.8440022083317587  0.4994631088195405  0.3443078396256638
  0.8401624348371044  0.4993827823734804  0.8426342756944507
  0.8427402823920431  0.8333333333333357  0.3441989799547684
  0.8397033991150025  0.8333333333333357  0.8423485765091812
  0.5891766137448684  0.1704977247139965  0.3959425519120501
  0.5919899028402966  0.1665310504983637  0.8980450056463809
  0.5891766137448684  0.4961689419526678  0.3959425519120501
  0.5919899028402966  0.5001356161683006  0.8980450056463809
  0.5901990743342722  0.8333333333333357  0.3970867406886143
  0.5928282594945671  0.8333333333333357  0.8988679752066915
  0.9089853730575257  0.0003633610398168  0.1013940150788173
  0.9093185815018003  0.0002199396279892  0.6028423368438425
  0.9116553724291379  0.3333333333333357  0.1027669862844007
  0.9098196756712582  0.3333333333333357  0.6026419308297264
  0.9089853730575257  0.6663033056268475  0.1013940150788173
  0.9093185815018003  0.6664467270386751  0.6028423368438425
  0.1633455420772307  0.1698328743168531  0.1610317333554860
  0.1599796446360742  0.1669149991737129  0.6579925248115828
  0.1633455420772307  0.4968337923498112  0.1610317333554860
  0.1599796446360742  0.4997516674929514  0.6579925248115828
  0.1584988149141893  0.8333333333333357  0.1575476956629913
  0.1594640029890328  0.8333333333333357  0.6598157978903316
  0.3401729000594571  0.0046590470458341  0.3409567220737983
  0.3426691720280033  0.0002175330729983  0.8441065257561462
  0.3420760627529731  0.3333333333333357  0.8438616773795999
  0.3401729000594571  0.6620076196208302  0.3409567220737983
  0.3426691720280033  0.6664491335936660  0.8441065257561462
  0.0925996518872125  0.0006143317967897  0.3979970321356419
  0.0897313110110787  0.0001478306950844  0.8979225210421049
  0.0998475779106727  0.3333333333333357  0.3970782527913030
  0.0909528605767989  0.3333333333333357  0.8984667922123748
  0.0925996518872125  0.6660523348698746  0.3979970321356419
  0.0897313110110787  0.6665188359715799  0.8979225210421049
  0.4097388445967738  0.1657650658530088  0.1051540818330921
  0.4053491388639117  0.1662816209779336  0.5975798270697581
  0.4097388445967738  0.5009016008136555  0.1051540818330921
  0.4053491388639117  0.5003850456887378  0.5975798270697581
  0.4101189681725472  0.8333333333333357  0.1041668877597743
  0.4084210997124273  0.8333333333333357  0.6001192419178167
  0.9966679630723974  0.1655740750021124  0.1236963307953403
  0.9969428139702714  0.1665620657927889  0.6290975378791899
  0.9966679630723974  0.5010925916645519  0.1236963307953403
  0.9969428139702714  0.5001046008738754  0.6290975378791899
  0.9945671296737615  0.8333333333333357  0.1252355234119378
  0.9963354517294434  0.8333333333333357  0.6296430153830173
  0.5042801794840415  0.0010017164396601  0.3736434136140048
  0.5053489260676969  0.9995732164336886  0.8732776165567699
  0.5013084198777022  0.3333333333333357  0.3719804583401825
  0.5049815321482285  0.3333333333333357  0.8724074393351202
  0.5042801794840415  0.6656649502270042  0.3736434136140048
  0.5053489260676969  0.6670934502329757  0.8732776165567699
  0.6746815889969469  0.1663026504169380  0.2808092433133567
  0.6718730657579997  0.1677337372724281  0.7796024773352528
  0.6746815889969469  0.5003640162497263  0.2808092433133567
  0.6718730657579997  0.4989329293942362  0.7796024773352528
  0.6742201845950291  0.8333333333333357  0.2815952272528719
  0.6722261025411527  0.8333333333333357  0.7798725947150587
  0.8292167756293694  0.0003963290908260  0.2202620830273432
  0.8264821103575812  0.0003961359513411  0.7187837763946163
  0.8297776798445469  0.3333333333333357  0.2200573183231782
  0.8267325524265985  0.3333333333333357  0.7186239541106474
  0.8292167756293694  0.6662703375758383  0.2202620830273432
  0.8264821103575812  0.6662705307153232  0.7187837763946163
  0.8336043644978375  0.0002699567947388  0.4462898993115232
  0.8307418066745171  0.0003094627276283  0.9446981526542473
  0.8326927132354669  0.3333333333333357  0.4464262888417849
  0.8320459521079115  0.3333333333333357  0.9458855554987622
  0.8336043644978375  0.6663967098719255  0.4462898993115232
  0.8307418066745171  0.6663572039390360  0.9446981526542473
  0.6689716409222939  0.1672508963211925  0.0545659745200808
  0.6675599540338908  0.1665143360083547  0.5535301361287424
  0.6689716409222939  0.4994157703454718  0.0545659745200808
  0.6675599540338908  0.5001523306583096  0.5535301361287424
  0.6711204335408780  0.8333333333333357  0.0550204274496124
  0.6676985780626126  0.8333333333333357  0.5537941412499450
  0.4993633560408384  0.9992411613751244  0.1266144070373159
  0.4961432825146233  0.0006725160167065  0.6281414668884935
  0.4977594114140871  0.3333333333333357  0.1312721748545087
  0.4933475979684587  0.3333333333333357  0.6215396548235503
  0.4993633560408384  0.6674255052915399  0.1266144070373159
  0.4961432825146233  0.6659941506499578  0.6281414668884935
  0.0062699431371698  0.1682442125492969  0.3758359809778895
  0.0025527046901246  0.1671269974637042  0.8709266677233671
  0.0062699431371698  0.4984224541173674  0.3758359809778895
  0.0025527046901246  0.4995396692029601  0.8709266677233671
  0.0045282478480360  0.8333333333333357  0.3750668698870996
  0.0019366033927639  0.8333333333333357  0.8708159572901124
  0.1689891504406162  0.9965457252544496  0.2783823467349862
  0.1734262244468638  0.0000304546892664  0.7824884340867229
  0.1612869487650528  0.3333333333333357  0.2695178403640384
  0.1733141366638193  0.3333333333333357  0.7819094358849341
  0.1689891504406162  0.6701209414122147  0.2783823467349862
  0.1734262244468638  0.6666362119773979  0.7824884340867229
  0.3249130636473865  0.1476760781728856  0.2132498546488364
  0.3284851248750869  0.1667504592047564  0.7205641328489207
  0.3249130636473865  0.5189905884937787  0.2132498546488364
  0.3284851248750869  0.4999162074619079  0.7205641328489207
  0.3277677498818861  0.8333333333333357  0.2192124882657112
  0.3282774051777508  0.8333333333333357  0.7197278229223016
  0.3138262418839872  0.1476810952398466  0.4509153729331032
  0.3362098563847482  0.1668976699343929  0.9466993358366551
  0.3138262418839872  0.5189855714268177  0.4509153729331032
  0.3362098563847482  0.4997689967322714  0.9466993358366551
  0.3325299127339960  0.8333333333333357  0.4437835662017591
  0.3345942047908608  0.8333333333333357  0.9465248065317624
  0.1647763667095532  0.9994529394979352  0.0534972115472030
  0.1654782578884451  0.9986972279536843  0.5565538087858073
  0.1710363365633825  0.3333333333333357  0.0522831619944526
  0.1677079802903449  0.3333333333333357  0.5565828391257099
  0.1647763667095532  0.6672137271687291  0.0534972115472030
  0.1654782578884451  0.6679694387129800  0.5565538087858073
 
  0.00000000E+00  0.00000000E+00  0.00000000E+00
  0.00000000E+00  0.00000000E+00  0.00000000E+00
  0.00000000E+00  0.00000000E+00  0.00000000E+00
  0.00000000E+00  0.00000000E+00  0.00000000E+00
  0.00000000E+00  0.00000000E+00  0.00000000E+00
  0.00000000E+00  0.00000000E+00  0.00000000E+00
  0.00000000E+00  0.00000000E+00  0.00000000E+00
  0.00000000E+00  0.00000000E+00  0.00000000E+00
  0.00000000E+00  0.00000000E+00  0.00000000E+00
  0.00000000E+00  0.00000000E+00  0.00000000E+00
  0.00000000E+00  0.00000000E+00  0.00000000E+00
  0.00000000E+00  0.00000000E+00  0.00000000E+00
  0.00000000E+00  0.00000000E+00  0.00000000E+00
  0.00000000E+00  0.00000000E+00  0.00000000E+00
  0.00000000E+00  0.00000000E+00  0.00000000E+00
  0.00000000E+00  0.00000000E+00  0.00000000E+00
  0.00000000E+00  0.00000000E+00  0.00000000E+00
  0.00000000E+00  0.00000000E+00  0.00000000E+00
  0.00000000E+00  0.00000000E+00  0.00000000E+00
  0.00000000E+00  0.00000000E+00  0.00000000E+00
  0.00000000E+00  0.00000000E+00  0.00000000E+00
  0.00000000E+00  0.00000000E+00  0.00000000E+00
  0.00000000E+00  0.00000000E+00  0.00000000E+00
  0.00000000E+00  0.00000000E+00  0.00000000E+00
  0.00000000E+00  0.00000000E+00  0.00000000E+00
  0.00000000E+00  0.00000000E+00  0.00000000E+00
  0.00000000E+00  0.00000000E+00  0.00000000E+00
  0.00000000E+00  0.00000000E+00  0.00000000E+00
  0.00000000E+00  0.00000000E+00  0.00000000E+00
  0.00000000E+00  0.00000000E+00  0.00000000E+00
  0.00000000E+00  0.00000000E+00  0.00000000E+00
  0.00000000E+00  0.00000000E+00  0.00000000E+00
  0.00000000E+00  0.00000000E+00  0.00000000E+00
  0.00000000E+00  0.00000000E+00  0.00000000E+00
  0.00000000E+00  0.00000000E+00  0.00000000E+00
  0.00000000E+00  0.00000000E+00  0.00000000E+00
  0.00000000E+00  0.00000000E+00  0.00000000E+00
  0.00000000E+00  0.00000000E+00  0.00000000E+00
  0.00000000E+00  0.00000000E+00  0.00000000E+00
  0.00000000E+00  0.00000000E+00  0.00000000E+00
  0.00000000E+00  0.00000000E+00  0.00000000E+00
  0.00000000E+00  0.00000000E+00  0.00000000E+00
  0.00000000E+00  0.00000000E+00  0.00000000E+00
  0.00000000E+00  0.00000000E+00  0.00000000E+00
  0.00000000E+00  0.00000000E+00  0.00000000E+00
  0.00000000E+00  0.00000000E+00  0.00000000E+00
  0.00000000E+00  0.00000000E+00  0.00000000E+00
  0.00000000E+00  0.00000000E+00  0.00000000E+00
  0.00000000E+00  0.00000000E+00  0.00000000E+00
  0.00000000E+00  0.00000000E+00  0.00000000E+00
  0.00000000E+00  0.00000000E+00  0.00000000E+00
  0.00000000E+00  0.00000000E+00  0.00000000E+00
  0.00000000E+00  0.00000000E+00  0.00000000E+00
  0.00000000E+00  0.00000000E+00  0.00000000E+00
  0.00000000E+00  0.00000000E+00  0.00000000E+00
  0.00000000E+00  0.00000000E+00  0.00000000E+00
  0.00000000E+00  0.00000000E+00  0.00000000E+00
  0.00000000E+00  0.00000000E+00  0.00000000E+00
  0.00000000E+00  0.00000000E+00  0.00000000E+00
  0.00000000E+00  0.00000000E+00  0.00000000E+00
  0.00000000E+00  0.00000000E+00  0.00000000E+00
  0.00000000E+00  0.00000000E+00  0.00000000E+00
  0.00000000E+00  0.00000000E+00  0.00000000E+00
  0.00000000E+00  0.00000000E+00  0.00000000E+00
  0.00000000E+00  0.00000000E+00  0.00000000E+00
  0.00000000E+00  0.00000000E+00  0.00000000E+00
  0.00000000E+00  0.00000000E+00  0.00000000E+00
  0.00000000E+00  0.00000000E+00  0.00000000E+00
  0.00000000E+00  0.00000000E+00  0.00000000E+00
  0.00000000E+00  0.00000000E+00  0.00000000E+00
  0.00000000E+00  0.00000000E+00  0.00000000E+00
  0.00000000E+00  0.00000000E+00  0.00000000E+00
  0.00000000E+00  0.00000000E+00  0.00000000E+00
  0.00000000E+00  0.00000000E+00  0.00000000E+00
  0.00000000E+00  0.00000000E+00  0.00000000E+00
  0.00000000E+00  0.00000000E+00  0.00000000E+00
  0.00000000E+00  0.00000000E+00  0.00000000E+00
  0.00000000E+00  0.00000000E+00  0.00000000E+00
  0.00000000E+00  0.00000000E+00  0.00000000E+00
  0.00000000E+00  0.00000000E+00  0.00000000E+00
  0.00000000E+00  0.00000000E+00  0.00000000E+00
  0.00000000E+00  0.00000000E+00  0.00000000E+00
  0.00000000E+00  0.00000000E+00  0.00000000E+00
  0.00000000E+00  0.00000000E+00  0.00000000E+00
  0.00000000E+00  0.00000000E+00  0.00000000E+00
  0.00000000E+00  0.00000000E+00  0.00000000E+00
  0.00000000E+00  0.00000000E+00  0.00000000E+00
  0.00000000E+00  0.00000000E+00  0.00000000E+00
  0.00000000E+00  0.00000000E+00  0.00000000E+00
  0.00000000E+00  0.00000000E+00  0.00000000E+00
  0.00000000E+00  0.00000000E+00  0.00000000E+00
  0.00000000E+00  0.00000000E+00  0.00000000E+00
  0.00000000E+00  0.00000000E+00  0.00000000E+00
  0.00000000E+00  0.00000000E+00  0.00000000E+00
  0.00000000E+00  0.00000000E+00  0.00000000E+00
  0.00000000E+00  0.00000000E+00  0.00000000E+00
  0.00000000E+00  0.00000000E+00  0.00000000E+00
  0.00000000E+00  0.00000000E+00  0.00000000E+00
  0.00000000E+00  0.00000000E+00  0.00000000E+00
  0.00000000E+00  0.00000000E+00  0.00000000E+00
  0.00000000E+00  0.00000000E+00  0.00000000E+00
  0.00000000E+00  0.00000000E+00  0.00000000E+00
  0.00000000E+00  0.00000000E+00  0.00000000E+00
  0.00000000E+00  0.00000000E+00  0.00000000E+00
  0.00000000E+00  0.00000000E+00  0.00000000E+00
  0.00000000E+00  0.00000000E+00  0.00000000E+00
  0.00000000E+00  0.00000000E+00  0.00000000E+00
  0.00000000E+00  0.00000000E+00  0.00000000E+00
  0.00000000E+00  0.00000000E+00  0.00000000E+00
  0.00000000E+00  0.00000000E+00  0.00000000E+00
  0.00000000E+00  0.00000000E+00  0.00000000E+00
  0.00000000E+00  0.00000000E+00  0.00000000E+00
  0.00000000E+00  0.00000000E+00  0.00000000E+00
  0.00000000E+00  0.00000000E+00  0.00000000E+00
  0.00000000E+00  0.00000000E+00  0.00000000E+00
  0.00000000E+00  0.00000000E+00  0.00000000E+00
  0.00000000E+00  0.00000000E+00  0.00000000E+00
  0.00000000E+00  0.00000000E+00  0.00000000E+00
  0.00000000E+00  0.00000000E+00  0.00000000E+00
