Ga48 O72                                
    1.000000000000000     
     0.0000000000000000   12.2804734172212839    0.0000000000000000
     9.1427020537309431    0.0000000000000000    0.0000000000000000
     0.0000000000000000   -2.7682617730220320  -11.3006977184464645
   Ga   O    P 
    47    71     1
Direct
  0.6563647240064725  0.0024936327158258  0.1582970875449377
  0.6537791999294384  0.0047265863543515  0.6559200618898515
  0.6839738670203488  0.3337613789828424  0.1511281670132405
  0.6575122590059053  0.3399679627833052  0.6552103272897654
  0.6566275065305547  0.6638778859975147  0.1575255388694785
  0.6475576343517702  0.6734239523930157  0.6567581897622645
  0.8428163909840976  0.1619889516654922  0.3637712328474407
  0.8352953523452342  0.1715762416274558  0.8395474123148503
  0.8432887360885033  0.5051209014861371  0.3489169248247492
  0.8358168458227553  0.5109801129287064  0.8370171104065847
  0.8440734230974911  0.8360063618077191  0.3504330081532459
  0.8384524515664751  0.8432367472096018  0.8397004712139591
  0.5880475167178147  0.1702714810405936  0.3911453786435857
  0.5963544985219471  0.2001545901162061  0.9057516136201329
  0.5926268555666425  0.5020413596996889  0.3923687020745277
  0.6044105697824236  0.4593135519432749  0.9070348230306493
  0.5873560945055161  0.8397128531187619  0.3978199967287992
  0.5746444439159575  0.8307196702870669  0.8945232431015739
  0.9044118884867487  0.0038556321650347  0.1057915322824172
  0.9224654833500807  0.0354250038268233  0.6057891951102476
  0.9123232133600538  0.3415111777970381  0.1015470879628069
  0.9074920209250479  0.3013107032410005  0.5982269934362350
  0.9004429759989776  0.6735063972382065  0.1011232351310838
  0.9081363440951264  0.6618853101767357  0.6022429217616079
  0.1567124906600128  0.1637767323226100  0.1552865181128666
  0.1602227250484560  0.1337004998240516  0.5919955116457771
  0.1591101563151014  0.5095387876236472  0.1553276506332324
  0.1539909960346790  0.4939967104088865  0.6538113005324462
  0.1570944185113987  0.8463950976443613  0.1490307076716135
  0.1491329013548821  0.8262527659205574  0.6637900465120055
  0.3301387785754457  0.0050247074778085  0.3389713682885045
  0.3482299692061090  0.9872865998622800  0.8482177385546805
  0.3356819308699741  0.3363560356626252  0.3405661434685143
  0.3127362103619973  0.3206220993602216  0.8449366487865575
  0.3408638209739863  0.6683000884851751  0.3340617421496077
  0.3580050174335696  0.6535289835491938  0.8469620352629121
  0.0946569118919811  0.0184622215353443  0.8712020028897953
  0.0867372627288745  0.3393796375371636  0.3962581438812762
  0.0789151904843948  0.3492029972759667  0.8952192018641441
  0.0922207923442642  0.6854637511586930  0.3980035579174839
  0.0939375617647258  0.6871015729803602  0.8908864636181733
  0.3983626720694318  0.1992197070976189  0.0909831983390745
  0.4053744568961619  0.1742438520103349  0.6089325628116455
  0.4039336937255484  0.4619797407040380  0.0930128658484293
  0.4031559596716363  0.5084908944395252  0.6012801602759481
  0.4313274410410202  0.8295039690677868  0.1165618945195419
  0.3813486824869941  0.8486365950728327  0.5955674138352620
  0.9934488242417459  0.1706001382080657  0.1300883969025293
  0.0750667137651462  0.0768286196599774  0.6989681523523572
  0.9956875583231550  0.5118405150673340  0.1260845021397614
  0.9884270608915386  0.4855766423728269  0.6178459225417967
  0.9927485219027830  0.8367771262238293  0.1209483104436515
  0.9893838649187785  0.8330959914606240  0.6193551085549274
  0.4971356985945619  0.0061600618219089  0.3711715893144358
  0.5122267438053854  0.0199589610964566  0.8782537153706329
  0.5000434485707146  0.3379119199324094  0.3699350208186871
  0.4628733218223573  0.3249842914854568  0.8687025123696017
  0.5039500163128423  0.6679477673969885  0.3700566480733798
  0.5205464583910739  0.6373015136192208  0.8809953435630362
  0.6814245692798337  0.1608680908940130  0.2873739456530089
  0.6692859153108017  0.1660305820115937  0.7726362678151446
  0.6793400588551819  0.5083360598806053  0.2836012840054352
  0.6697094090144446  0.5105612422364558  0.7723153709610884
  0.6646884238369850  0.8333039411797145  0.2771202309209713
  0.6646817066258919  0.8386563689148048  0.7810125986881857
  0.8231690714712343  0.9881233480401406  0.2207231284372071
  0.8257214739003871  0.0036297075437233  0.7187965353020687
  0.8401996267734191  0.3378579234128338  0.2273994822625767
  0.8225184213929282  0.3443361090133266  0.7194752752363769
  0.8274290015102892  0.6735986708742061  0.2245766244527374
  0.8225660387030658  0.6754134534396457  0.7158572118281654
  0.8160029582610235  0.9874720008640452  0.4559324641090754
  0.8305728132700239  0.0063326460519804  0.9458887413741621
  0.8143828083365037  0.3455621925574519  0.4451975609002119
  0.8391407883529141  0.3424421868907714  0.9437352845057490
  0.8224220988275519  0.6671181569337250  0.4488860080012316
  0.8285790750347104  0.6771646018078243  0.9417890216135305
  0.6911534055923596  0.1546069675899915  0.0608787152216621
  0.6585976750043159  0.1730214161218981  0.5507573552091642
  0.6967097308531294  0.5132695257191244  0.0618811976878462
  0.6590915460853424  0.5065429462482243  0.5516310426965276
  0.6556122381045455  0.8328445272500531  0.0526788950790831
  0.6598851097708760  0.8377658524483849  0.5556994115982263
  0.4931114430866543  0.0201648030341843  0.1283530800140582
  0.4884867478420460  0.0041411391976283  0.6226057687162765
  0.5358422314970070  0.3324730414207693  0.1377973655576028
  0.4938332904162053  0.3409980090136955  0.6285157330514508
  0.4962777200506352  0.6415340991468028  0.1310985120951997
  0.4856929708606756  0.6783930448875282  0.6166990983745606
  0.9965131312315521  0.1783872127707511  0.8754096890333187
  0.0047191786264307  0.5122020184796412  0.3735023279188852
  0.9978533199705524  0.5209400523248746  0.8717575088192859
  0.9974093980757317  0.8332396221333553  0.3752794401871427
  0.9991845401848209  0.8485118073621436  0.8670300907867841
  0.1734765611751783  0.9979124425401409  0.2660208765461860
  0.1998337222651401  0.9030661930753823  0.8243393601985929
  0.1702990044227874  0.3463664011451257  0.2771437962795105
  0.1591920329784315  0.3469780718334547  0.7806109113891821
  0.1709930239168784  0.6738946683460512  0.2775959138318527
  0.1625242775118920  0.6510488870243734  0.7680416283941724
  0.3248189915667297  0.1698340109107548  0.2241529643828599
  0.3112711501390564  0.1575179390718731  0.7129389613349701
  0.3252593837858981  0.5074111703211202  0.2188508853159163
  0.3237960131718296  0.5046513452271739  0.7165035719019244
  0.3298728033422904  0.8321700996719770  0.2114371441101071
  0.3696935403039774  0.8188096060555097  0.7482376560849815
  0.3302557002397037  0.1724365889762609  0.4487419929740213
  0.3024278833074661  0.1417353947150346  0.9354895926220124
  0.3334624172307841  0.5042990652220780  0.4422375888411665
  0.3132137956401522  0.5119926374840134  0.9413819982467686
  0.3394888921592667  0.8314982996819893  0.4335582396309619
  0.3798481648877043  0.8207816860225279  0.9584075497670952
  0.1534787940196765  0.0095006355016665  0.0398329465616598
  0.2245428236876492  0.9438376133334785  0.5741371146254153
  0.1529924884622602  0.3393790615061860  0.0530218196921908
  0.1832975435826469  0.3442011909764418  0.5510904740742646
  0.1645162881212414  0.6770250668029405  0.0501036601537876
  0.1705430662422032  0.6619534618401772  0.5531576207309570
  0.0309207338628710  0.1135390530498199  0.4008201093171806
 
  0.00000000E+00  0.00000000E+00  0.00000000E+00
  0.00000000E+00  0.00000000E+00  0.00000000E+00
  0.00000000E+00  0.00000000E+00  0.00000000E+00
  0.00000000E+00  0.00000000E+00  0.00000000E+00
  0.00000000E+00  0.00000000E+00  0.00000000E+00
  0.00000000E+00  0.00000000E+00  0.00000000E+00
  0.00000000E+00  0.00000000E+00  0.00000000E+00
  0.00000000E+00  0.00000000E+00  0.00000000E+00
  0.00000000E+00  0.00000000E+00  0.00000000E+00
  0.00000000E+00  0.00000000E+00  0.00000000E+00
  0.00000000E+00  0.00000000E+00  0.00000000E+00
  0.00000000E+00  0.00000000E+00  0.00000000E+00
  0.00000000E+00  0.00000000E+00  0.00000000E+00
  0.00000000E+00  0.00000000E+00  0.00000000E+00
  0.00000000E+00  0.00000000E+00  0.00000000E+00
  0.00000000E+00  0.00000000E+00  0.00000000E+00
  0.00000000E+00  0.00000000E+00  0.00000000E+00
  0.00000000E+00  0.00000000E+00  0.00000000E+00
  0.00000000E+00  0.00000000E+00  0.00000000E+00
  0.00000000E+00  0.00000000E+00  0.00000000E+00
  0.00000000E+00  0.00000000E+00  0.00000000E+00
  0.00000000E+00  0.00000000E+00  0.00000000E+00
  0.00000000E+00  0.00000000E+00  0.00000000E+00
  0.00000000E+00  0.00000000E+00  0.00000000E+00
  0.00000000E+00  0.00000000E+00  0.00000000E+00
  0.00000000E+00  0.00000000E+00  0.00000000E+00
  0.00000000E+00  0.00000000E+00  0.00000000E+00
  0.00000000E+00  0.00000000E+00  0.00000000E+00
  0.00000000E+00  0.00000000E+00  0.00000000E+00
  0.00000000E+00  0.00000000E+00  0.00000000E+00
  0.00000000E+00  0.00000000E+00  0.00000000E+00
  0.00000000E+00  0.00000000E+00  0.00000000E+00
  0.00000000E+00  0.00000000E+00  0.00000000E+00
  0.00000000E+00  0.00000000E+00  0.00000000E+00
  0.00000000E+00  0.00000000E+00  0.00000000E+00
  0.00000000E+00  0.00000000E+00  0.00000000E+00
  0.00000000E+00  0.00000000E+00  0.00000000E+00
  0.00000000E+00  0.00000000E+00  0.00000000E+00
  0.00000000E+00  0.00000000E+00  0.00000000E+00
  0.00000000E+00  0.00000000E+00  0.00000000E+00
  0.00000000E+00  0.00000000E+00  0.00000000E+00
  0.00000000E+00  0.00000000E+00  0.00000000E+00
  0.00000000E+00  0.00000000E+00  0.00000000E+00
  0.00000000E+00  0.00000000E+00  0.00000000E+00
  0.00000000E+00  0.00000000E+00  0.00000000E+00
  0.00000000E+00  0.00000000E+00  0.00000000E+00
  0.00000000E+00  0.00000000E+00  0.00000000E+00
  0.00000000E+00  0.00000000E+00  0.00000000E+00
  0.00000000E+00  0.00000000E+00  0.00000000E+00
  0.00000000E+00  0.00000000E+00  0.00000000E+00
  0.00000000E+00  0.00000000E+00  0.00000000E+00
  0.00000000E+00  0.00000000E+00  0.00000000E+00
  0.00000000E+00  0.00000000E+00  0.00000000E+00
  0.00000000E+00  0.00000000E+00  0.00000000E+00
  0.00000000E+00  0.00000000E+00  0.00000000E+00
  0.00000000E+00  0.00000000E+00  0.00000000E+00
  0.00000000E+00  0.00000000E+00  0.00000000E+00
  0.00000000E+00  0.00000000E+00  0.00000000E+00
  0.00000000E+00  0.00000000E+00  0.00000000E+00
  0.00000000E+00  0.00000000E+00  0.00000000E+00
  0.00000000E+00  0.00000000E+00  0.00000000E+00
  0.00000000E+00  0.00000000E+00  0.00000000E+00
  0.00000000E+00  0.00000000E+00  0.00000000E+00
  0.00000000E+00  0.00000000E+00  0.00000000E+00
  0.00000000E+00  0.00000000E+00  0.00000000E+00
  0.00000000E+00  0.00000000E+00  0.00000000E+00
  0.00000000E+00  0.00000000E+00  0.00000000E+00
  0.00000000E+00  0.00000000E+00  0.00000000E+00
  0.00000000E+00  0.00000000E+00  0.00000000E+00
  0.00000000E+00  0.00000000E+00  0.00000000E+00
  0.00000000E+00  0.00000000E+00  0.00000000E+00
  0.00000000E+00  0.00000000E+00  0.00000000E+00
  0.00000000E+00  0.00000000E+00  0.00000000E+00
  0.00000000E+00  0.00000000E+00  0.00000000E+00
  0.00000000E+00  0.00000000E+00  0.00000000E+00
  0.00000000E+00  0.00000000E+00  0.00000000E+00
  0.00000000E+00  0.00000000E+00  0.00000000E+00
  0.00000000E+00  0.00000000E+00  0.00000000E+00
  0.00000000E+00  0.00000000E+00  0.00000000E+00
  0.00000000E+00  0.00000000E+00  0.00000000E+00
  0.00000000E+00  0.00000000E+00  0.00000000E+00
  0.00000000E+00  0.00000000E+00  0.00000000E+00
  0.00000000E+00  0.00000000E+00  0.00000000E+00
  0.00000000E+00  0.00000000E+00  0.00000000E+00
  0.00000000E+00  0.00000000E+00  0.00000000E+00
  0.00000000E+00  0.00000000E+00  0.00000000E+00
  0.00000000E+00  0.00000000E+00  0.00000000E+00
  0.00000000E+00  0.00000000E+00  0.00000000E+00
  0.00000000E+00  0.00000000E+00  0.00000000E+00
  0.00000000E+00  0.00000000E+00  0.00000000E+00
  0.00000000E+00  0.00000000E+00  0.00000000E+00
  0.00000000E+00  0.00000000E+00  0.00000000E+00
  0.00000000E+00  0.00000000E+00  0.00000000E+00
  0.00000000E+00  0.00000000E+00  0.00000000E+00
  0.00000000E+00  0.00000000E+00  0.00000000E+00
  0.00000000E+00  0.00000000E+00  0.00000000E+00
  0.00000000E+00  0.00000000E+00  0.00000000E+00
  0.00000000E+00  0.00000000E+00  0.00000000E+00
  0.00000000E+00  0.00000000E+00  0.00000000E+00
  0.00000000E+00  0.00000000E+00  0.00000000E+00
  0.00000000E+00  0.00000000E+00  0.00000000E+00
  0.00000000E+00  0.00000000E+00  0.00000000E+00
  0.00000000E+00  0.00000000E+00  0.00000000E+00
  0.00000000E+00  0.00000000E+00  0.00000000E+00
  0.00000000E+00  0.00000000E+00  0.00000000E+00
  0.00000000E+00  0.00000000E+00  0.00000000E+00
  0.00000000E+00  0.00000000E+00  0.00000000E+00
  0.00000000E+00  0.00000000E+00  0.00000000E+00
  0.00000000E+00  0.00000000E+00  0.00000000E+00
  0.00000000E+00  0.00000000E+00  0.00000000E+00
  0.00000000E+00  0.00000000E+00  0.00000000E+00
  0.00000000E+00  0.00000000E+00  0.00000000E+00
  0.00000000E+00  0.00000000E+00  0.00000000E+00
  0.00000000E+00  0.00000000E+00  0.00000000E+00
  0.00000000E+00  0.00000000E+00  0.00000000E+00
  0.00000000E+00  0.00000000E+00  0.00000000E+00
  0.00000000E+00  0.00000000E+00  0.00000000E+00
  0.00000000E+00  0.00000000E+00  0.00000000E+00
  0.00000000E+00  0.00000000E+00  0.00000000E+00
