       N       E                     dE             d eps       ncg     rms          ort
SDA:   1    -0.947207961534E+03   -0.94721E+03    0.00000E+00  5040   0.266E+02 0.000E+00
CGA:   2    -0.952382533529E+03   -0.51746E+01   -0.51770E+01  5040   0.855E+01 0.224E+00
CGA:   3    -0.955035035753E+03   -0.26525E+01   -0.24925E+01  5040   0.435E+01 0.130E+01
CGA:   4    -0.955800582493E+03   -0.76555E+00   -0.77793E+00  5040   0.134E+01 0.597E-01
CGA:   5    -0.956238380727E+03   -0.43780E+00   -0.43061E+00  5040   0.593E+00 0.534E-01
CGA:   6    -0.956380382557E+03   -0.14200E+00   -0.14169E+00  5040   0.222E+00 0.797E-02
CGA:   7    -0.956434924026E+03   -0.54541E-01   -0.54404E-01  5040   0.850E-01 0.290E-02
CGA:   8    -0.956451484433E+03   -0.16560E-01   -0.16568E-01  5040   0.289E-01 0.323E-03
CGA:   9    -0.956458496623E+03   -0.70122E-02   -0.70080E-02  5040   0.173E-01 0.942E-04
CGA:  10    -0.956462810547E+03   -0.43139E-02   -0.43297E-02  5040   0.122E-01-0.399E-03
CGA:  11    -0.956465457569E+03   -0.26470E-02   -0.27489E-02  5040   0.157E-01-0.330E-02
CGA:  12    -0.956466865377E+03   -0.14078E-02   -0.14367E-02  5040   0.152E-01 0.112E-03
CGA:  13    -0.956468355646E+03   -0.14903E-02   -0.15059E-02  5040   0.107E-01-0.772E-05
CGA:  14    -0.956469765639E+03   -0.14100E-02   -0.14113E-02  5040   0.718E-02 0.211E-04
CGA:  15    -0.956470537448E+03   -0.77181E-03   -0.75353E-03  5040   0.602E-02 0.817E-04
CGA:  16    -0.956471462134E+03   -0.92469E-03   -0.92374E-03  5040   0.440E-02-0.232E-04
CGA:  17    -0.956471930086E+03   -0.46795E-03   -0.46729E-03  5040   0.360E-02-0.284E-04
CGA:  18    -0.956472419844E+03   -0.48976E-03   -0.48846E-03  5040   0.244E-02-0.192E-04
CGA:  19    -0.956472708007E+03   -0.28816E-03   -0.28653E-03  5040   0.229E-02-0.937E-05
CGA:  20    -0.956472958685E+03   -0.25068E-03   -0.24897E-03  5040   0.112E-02-0.200E-04
CGA:  21    -0.956473097669E+03   -0.13898E-03   -0.13821E-03  5040   0.119E-02-0.157E-04
CGA:  22    -0.956473230478E+03   -0.13281E-03   -0.13194E-03  5040   0.563E-03-0.106E-04
CGA:  23    -0.956473299791E+03   -0.69313E-04   -0.68879E-04  5040   0.537E-03-0.772E-05
CGA:  24    -0.956473359861E+03   -0.60070E-04   -0.59379E-04  5040   0.312E-03-0.129E-04
CGA:  25    -0.956473404320E+03   -0.44459E-04   -0.44311E-04  5040   0.321E-03-0.753E-05
CGA:  26    -0.956473435622E+03   -0.31302E-04   -0.31330E-04  5040   0.188E-03 0.320E-06
CGA:  27    -0.956473462671E+03   -0.27049E-04   -0.27121E-04  5040   0.204E-03 0.366E-05
CGA:  28    -0.956473484525E+03   -0.21853E-04   -0.21982E-04  5040   0.122E-03 0.136E-05
CGA:  29    -0.956473503072E+03   -0.18548E-04   -0.18562E-04  5040   0.112E-03 0.176E-05
CGA:  30    -0.956473515896E+03   -0.12823E-04   -0.12955E-04  5040   0.792E-04 0.291E-05
CGA:  31    -0.956473527979E+03   -0.12084E-04   -0.12099E-04  5040   0.620E-04 0.188E-05
SDA:  32    -0.956473535536E+03   -0.75562E-05   -0.75988E-05  5040   0.483E-04 0.100E-05
   1 F= -.95647354E+03 E0= -.95646444E+03  d E =-.181861E-01
