Ga8 O12                                 
    1.000000000000000     
     0.0000000000000000   12.2804737091000007    0.0000000000000000
     9.1427011490000005    0.0000000000000000    0.0000000000000000
     0.0000000000000000   -2.7682616411000001  -11.3006974810000003
   Ga   O    N    Fe
    47    71     1     1
Direct
  0.6591567022979580  0.0000000068506698  0.1566425472996972
  0.6579288155892909 -0.0000000094749470  0.6559217946352291
  0.6592193269266773  0.3340388613117494  0.1573559838992701
  0.6580010914419919  0.3326130379924351  0.6527699523939529
  0.6592191007659430  0.6659614525278454  0.1573552123533603
  0.6580012967589767  0.6673870631565213  0.6527706176003825
  0.8413469570459510  0.1666615451720171  0.3430619521546993
  0.8404853915790570  0.1668423179182485  0.8427161464238920
  0.8399863548545763  0.5000002332384434  0.3431407540168199
  0.8395990322365331  0.5000000832379091  0.8427974009432465
  0.8413470972760533  0.8333386042124399  0.3430619783018419
  0.8404855820810561  0.8331579255218777  0.8427162669005619
  0.5901929528368396  0.1693188597598563  0.3967982211866602
  0.5912927089824380  0.1669657710377521  0.8973070535866670
  0.5913063256288756  0.5000001883155675  0.8974957109604234
  0.5901930903481321  0.8306811541940384  0.3967975386580906
  0.5912926237778792  0.8330344744384992  0.8973066880797095
  0.9090768960658588  0.0000002000918701  0.1020088393512300
  0.9083200449466495  0.0000001643581341  0.6023398709496065
  0.9093161661394645  0.3332093804717517  0.1022669349267691
  0.9092662898746712  0.3334791105037949  0.6026031240140335
  0.9093162121628258  0.6667906989056420  0.1022671239039020
  0.9092663615421543  0.6665210818200492  0.6026030662768054
  0.1597185356943588  0.1668724732699938  0.1571723416679754
  0.1585654115128027  0.1665764855874722  0.6570847282216575
  0.1595775133935319  0.4999999122744072  0.1569436958378133
  0.1598486897240831  0.5000000175644650  0.6565221837299057
  0.1597181550728282  0.8331274610522073  0.1571718951747303
  0.1585651402504661  0.8334242457383936  0.6570852049838355
  0.3419644227821720 -0.0000013695715244  0.3431685783825627
  0.3407171659983994  0.0000006103170180  0.8436430242462239
  0.3426251006991549  0.3346779674866767  0.3446276220869747
  0.3409837048191779  0.3337804219688544  0.8435743668740974
  0.3426257834954095  0.6653193490059610  0.3446245786624397
  0.3409836605085345  0.6662201860104952  0.8435731511112983
  0.0918123492395329  0.0000000691211640  0.3976939634001705
  0.0910016002359187  0.0000001484507654  0.8982113947557775
  0.0913250707094893  0.3335437308841679  0.3974593518842893
  0.0906941685035708  0.3335259375944661  0.8976983677457495
  0.0913256055652871  0.6664565838691943  0.3974592708988771
  0.0906942248158117  0.6664742526956219  0.8976981443778546
  0.4089273696662898  0.1666682554613856  0.1022860662159496
  0.4070564341063150  0.1659519553677794  0.6022569091731739
  0.4096975871361160  0.5000000092019629  0.1035854205597846
  0.4110526167342107  0.5000003097729770  0.6019212697373080
  0.4089267056678105  0.8333314580858676  0.1022845020572887
  0.4070565766522461  0.8340475302509317  0.6022567721396405
  0.9969065014438194  0.1664394666127770  0.1270893256759204
  0.9963103075294495  0.1663663049749289  0.6273950024936817
  0.9968150722421036  0.5000000014293068  0.1271418086204406
  0.9970077695867920  0.4999999687616217  0.6274442878893588
  0.9969063240715779  0.8335607605881199  0.1270894066700416
  0.9963100287232052  0.8336340990381471  0.6273953984273430
  0.5039255304159264 -0.0000000532867225  0.3721109747770437
  0.5036120184000507  0.0000001447605694  0.8728314601429336
  0.5039122253878069  0.3367340300798877  0.3726033149397730
  0.5033614420624761  0.3332891529885894  0.8740310605416545
  0.5039129213641244  0.6632654259297120  0.3726019184942143
  0.5033614918501279  0.6667111599125392  0.8740320709318843
  0.6729825981898059  0.1664256640346536  0.2803666513361887
  0.6723398207069504  0.1667056870158236  0.7796618861294047
  0.6724155458430910  0.5000002252745216  0.2783203077050693
  0.6731271449985982  0.4999999060379657  0.7817070001420391
  0.6729829103848385  0.8335746136390769  0.2803664335273344
  0.6723401959696735  0.8332947273540340  0.7796620607439720
  0.8279098347954024  0.0000001822537912  0.2193282002458711
  0.8275709813684329  0.0000001384784512  0.7197548966539420
  0.8285863718002150  0.3326244673328765  0.2197076438846259
  0.8284399640535640  0.3329326640423990  0.7199314127472624
  0.8285863505299997  0.6673756945014689  0.2197077594685472
  0.8284400777414826  0.6670674884680970  0.7199315904704983
  0.8335521844472719  0.0000000872959864  0.4454038567271733
  0.8319304367459935  0.0000001755197959  0.9455625868968626
  0.8337702007080380  0.3330020135851106  0.4457514141771591
  0.8323933067899554  0.3329235030574464  0.9459055061315848
  0.8337700741272339  0.6669982510839123  0.4457515130071817
  0.8323933525676829  0.6670766213419012  0.9459056595672631
  0.6680047212242238  0.1668534138552446  0.0541831277371050
  0.6679879803768614  0.1635508970945889  0.5531645994238170
  0.6687242306565647  0.4999999901765640  0.0538475130761616
  0.6680048060692092  0.8331468675895456  0.0541828050361929
  0.6679873384760714  0.8364488803180605  0.5531645454187432
  0.4963943864653053 -0.0000003565029036  0.1266582682324076
  0.4951053912421097 -0.0000001666416406  0.6274468415739631
  0.4963529100336680  0.3329071119811539  0.1267246665445078
  0.4946232235258269  0.3308490449899246  0.6306786843026938
  0.4963526832781390  0.6670930335822608  0.1267244679069185
  0.4946238170921495  0.6691509560946647  0.6306830619369879
  0.0042751477526544  0.1664936794340552  0.3725493803052699
  0.0035543245537059  0.1665745925443204  0.8730774119041709
  0.0036309273801194  0.5000002801160963  0.3726012435476096
  0.0030842043754632  0.5000000624954071  0.8730184458447985
  0.0042752311670054  0.8335063867308409  0.3725494938219448
  0.0035543733577203  0.8334256738831325  0.8730775955670311
  0.1729739175124745 -0.0000004751748352  0.2803283628084184
  0.1717635362143530  0.0000002882306296  0.7806160246009971
  0.1729828376701636  0.3332648554877063  0.2805180225387756
  0.1722955978422472  0.3336458766189174  0.7806145916527053
  0.1729827971047417  0.6667347550184449  0.2805175640350451
  0.1722955144918161  0.6663542809092731  0.7806145224230900
  0.3279137718776339  0.1667906471338325  0.2197133255284074
  0.3263505297233009  0.1660312568152954  0.7201089578730814
  0.3270016046972132  0.4999994277805024  0.2194994891117991
  0.3277448528977002  0.5000001306378965  0.7194830688330167
  0.3279135441589910  0.8332086057036853  0.2197122911427863
  0.3263504578108309  0.8339692823761820  0.7201086130731128
  0.3312351118289844  0.1663166677083965  0.4454529334343311
  0.3315175451903691  0.1666318566724438  0.9458143270065090
  0.3296586754483842  0.5000000435875563  0.4467416288249132
  0.3321048130608573  0.5000005005680396  0.9465332664936008
  0.3312367096560260  0.8336796730458665  0.4454522526895435
  0.3315168018791214  0.8333687116728490  0.9458133313729450
  0.1684783396434338  0.0000001136362586  0.0545425335703279
  0.1680354717317688  0.0000000614135642  0.5544974381388530
  0.1679202611330351  0.3332912215910879  0.0541741854638966
  0.1675524371321054  0.3328784653332600  0.5543438019307342
  0.1679202528817879  0.6667087727827249  0.0541740071769763
  0.1675507654299798  0.6671220549230099  0.5543440269415847
  0.6576954515804632  0.5000003531576002  0.5489825815738144
  0.5975197053863589  0.4999994454988392  0.4023667076719137
 
  0.00000000E+00  0.00000000E+00  0.00000000E+00
  0.00000000E+00  0.00000000E+00  0.00000000E+00
  0.00000000E+00  0.00000000E+00  0.00000000E+00
  0.00000000E+00  0.00000000E+00  0.00000000E+00
  0.00000000E+00  0.00000000E+00  0.00000000E+00
  0.00000000E+00  0.00000000E+00  0.00000000E+00
  0.00000000E+00  0.00000000E+00  0.00000000E+00
  0.00000000E+00  0.00000000E+00  0.00000000E+00
  0.00000000E+00  0.00000000E+00  0.00000000E+00
  0.00000000E+00  0.00000000E+00  0.00000000E+00
  0.00000000E+00  0.00000000E+00  0.00000000E+00
  0.00000000E+00  0.00000000E+00  0.00000000E+00
  0.00000000E+00  0.00000000E+00  0.00000000E+00
  0.00000000E+00  0.00000000E+00  0.00000000E+00
  0.00000000E+00  0.00000000E+00  0.00000000E+00
  0.00000000E+00  0.00000000E+00  0.00000000E+00
  0.00000000E+00  0.00000000E+00  0.00000000E+00
  0.00000000E+00  0.00000000E+00  0.00000000E+00
  0.00000000E+00  0.00000000E+00  0.00000000E+00
  0.00000000E+00  0.00000000E+00  0.00000000E+00
  0.00000000E+00  0.00000000E+00  0.00000000E+00
  0.00000000E+00  0.00000000E+00  0.00000000E+00
  0.00000000E+00  0.00000000E+00  0.00000000E+00
  0.00000000E+00  0.00000000E+00  0.00000000E+00
  0.00000000E+00  0.00000000E+00  0.00000000E+00
  0.00000000E+00  0.00000000E+00  0.00000000E+00
  0.00000000E+00  0.00000000E+00  0.00000000E+00
  0.00000000E+00  0.00000000E+00  0.00000000E+00
  0.00000000E+00  0.00000000E+00  0.00000000E+00
  0.00000000E+00  0.00000000E+00  0.00000000E+00
  0.00000000E+00  0.00000000E+00  0.00000000E+00
  0.00000000E+00  0.00000000E+00  0.00000000E+00
  0.00000000E+00  0.00000000E+00  0.00000000E+00
  0.00000000E+00  0.00000000E+00  0.00000000E+00
  0.00000000E+00  0.00000000E+00  0.00000000E+00
  0.00000000E+00  0.00000000E+00  0.00000000E+00
  0.00000000E+00  0.00000000E+00  0.00000000E+00
  0.00000000E+00  0.00000000E+00  0.00000000E+00
  0.00000000E+00  0.00000000E+00  0.00000000E+00
  0.00000000E+00  0.00000000E+00  0.00000000E+00
  0.00000000E+00  0.00000000E+00  0.00000000E+00
  0.00000000E+00  0.00000000E+00  0.00000000E+00
  0.00000000E+00  0.00000000E+00  0.00000000E+00
  0.00000000E+00  0.00000000E+00  0.00000000E+00
  0.00000000E+00  0.00000000E+00  0.00000000E+00
  0.00000000E+00  0.00000000E+00  0.00000000E+00
  0.00000000E+00  0.00000000E+00  0.00000000E+00
  0.00000000E+00  0.00000000E+00  0.00000000E+00
  0.00000000E+00  0.00000000E+00  0.00000000E+00
  0.00000000E+00  0.00000000E+00  0.00000000E+00
  0.00000000E+00  0.00000000E+00  0.00000000E+00
  0.00000000E+00  0.00000000E+00  0.00000000E+00
  0.00000000E+00  0.00000000E+00  0.00000000E+00
  0.00000000E+00  0.00000000E+00  0.00000000E+00
  0.00000000E+00  0.00000000E+00  0.00000000E+00
  0.00000000E+00  0.00000000E+00  0.00000000E+00
  0.00000000E+00  0.00000000E+00  0.00000000E+00
  0.00000000E+00  0.00000000E+00  0.00000000E+00
  0.00000000E+00  0.00000000E+00  0.00000000E+00
  0.00000000E+00  0.00000000E+00  0.00000000E+00
  0.00000000E+00  0.00000000E+00  0.00000000E+00
  0.00000000E+00  0.00000000E+00  0.00000000E+00
  0.00000000E+00  0.00000000E+00  0.00000000E+00
  0.00000000E+00  0.00000000E+00  0.00000000E+00
  0.00000000E+00  0.00000000E+00  0.00000000E+00
  0.00000000E+00  0.00000000E+00  0.00000000E+00
  0.00000000E+00  0.00000000E+00  0.00000000E+00
  0.00000000E+00  0.00000000E+00  0.00000000E+00
  0.00000000E+00  0.00000000E+00  0.00000000E+00
  0.00000000E+00  0.00000000E+00  0.00000000E+00
  0.00000000E+00  0.00000000E+00  0.00000000E+00
  0.00000000E+00  0.00000000E+00  0.00000000E+00
  0.00000000E+00  0.00000000E+00  0.00000000E+00
  0.00000000E+00  0.00000000E+00  0.00000000E+00
  0.00000000E+00  0.00000000E+00  0.00000000E+00
  0.00000000E+00  0.00000000E+00  0.00000000E+00
  0.00000000E+00  0.00000000E+00  0.00000000E+00
  0.00000000E+00  0.00000000E+00  0.00000000E+00
  0.00000000E+00  0.00000000E+00  0.00000000E+00
  0.00000000E+00  0.00000000E+00  0.00000000E+00
  0.00000000E+00  0.00000000E+00  0.00000000E+00
  0.00000000E+00  0.00000000E+00  0.00000000E+00
  0.00000000E+00  0.00000000E+00  0.00000000E+00
  0.00000000E+00  0.00000000E+00  0.00000000E+00
  0.00000000E+00  0.00000000E+00  0.00000000E+00
  0.00000000E+00  0.00000000E+00  0.00000000E+00
  0.00000000E+00  0.00000000E+00  0.00000000E+00
  0.00000000E+00  0.00000000E+00  0.00000000E+00
  0.00000000E+00  0.00000000E+00  0.00000000E+00
  0.00000000E+00  0.00000000E+00  0.00000000E+00
  0.00000000E+00  0.00000000E+00  0.00000000E+00
  0.00000000E+00  0.00000000E+00  0.00000000E+00
  0.00000000E+00  0.00000000E+00  0.00000000E+00
  0.00000000E+00  0.00000000E+00  0.00000000E+00
  0.00000000E+00  0.00000000E+00  0.00000000E+00
  0.00000000E+00  0.00000000E+00  0.00000000E+00
  0.00000000E+00  0.00000000E+00  0.00000000E+00
  0.00000000E+00  0.00000000E+00  0.00000000E+00
  0.00000000E+00  0.00000000E+00  0.00000000E+00
  0.00000000E+00  0.00000000E+00  0.00000000E+00
  0.00000000E+00  0.00000000E+00  0.00000000E+00
  0.00000000E+00  0.00000000E+00  0.00000000E+00
  0.00000000E+00  0.00000000E+00  0.00000000E+00
  0.00000000E+00  0.00000000E+00  0.00000000E+00
  0.00000000E+00  0.00000000E+00  0.00000000E+00
  0.00000000E+00  0.00000000E+00  0.00000000E+00
  0.00000000E+00  0.00000000E+00  0.00000000E+00
  0.00000000E+00  0.00000000E+00  0.00000000E+00
  0.00000000E+00  0.00000000E+00  0.00000000E+00
  0.00000000E+00  0.00000000E+00  0.00000000E+00
  0.00000000E+00  0.00000000E+00  0.00000000E+00
  0.00000000E+00  0.00000000E+00  0.00000000E+00
  0.00000000E+00  0.00000000E+00  0.00000000E+00
  0.00000000E+00  0.00000000E+00  0.00000000E+00
  0.00000000E+00  0.00000000E+00  0.00000000E+00
  0.00000000E+00  0.00000000E+00  0.00000000E+00
  0.00000000E+00  0.00000000E+00  0.00000000E+00
  0.00000000E+00  0.00000000E+00  0.00000000E+00
  0.00000000E+00  0.00000000E+00  0.00000000E+00
  0.00000000E+00  0.00000000E+00  0.00000000E+00
