       N       E                     dE             d eps       ncg     rms          rms(c)
DAV:   1     0.218388934754E+05    0.21839E+05   -0.32069E+05 10080   0.281E+03
DAV:   2     0.486007605348E+04   -0.16979E+05   -0.16009E+05 10080   0.816E+02
DAV:   3    -0.136944518798E+03   -0.49970E+04   -0.46916E+04 12784   0.321E+02
DAV:   4    -0.784463294094E+03   -0.64752E+03   -0.62947E+03 12408   0.123E+02
DAV:   5    -0.832074250063E+03   -0.47611E+02   -0.47110E+02 14616   0.360E+01    0.758E+01
RMM:   6    -0.844219449283E+03   -0.12145E+02   -0.84505E+02 13832   0.339E+01    0.224E+02
RMM:   7    -0.804309156147E+03    0.39910E+02   -0.87843E+01 15323   0.117E+01    0.141E+02
RMM:   8    -0.717240154399E+03    0.87069E+02   -0.49096E+01 13151   0.656E+00    0.418E+01
RMM:   9    -0.716627492575E+03    0.61266E+00   -0.73257E+00 12895   0.347E+00    0.247E+01
RMM:  10    -0.712882549675E+03    0.37449E+01   -0.65336E+00 13087   0.286E+00    0.169E+01
RMM:  11    -0.711900394279E+03    0.98216E+00   -0.31370E+00 13388   0.190E+00    0.139E+01
RMM:  12    -0.711358604176E+03    0.54179E+00   -0.76098E-01 13814   0.127E+00    0.885E+00
RMM:  13    -0.711049193955E+03    0.30941E+00   -0.29604E-01 15374   0.675E-01    0.717E+00
RMM:  14    -0.710713726673E+03    0.33547E+00   -0.50053E-01 13407   0.718E-01    0.414E+00
RMM:  15    -0.710669866682E+03    0.43860E-01   -0.11728E-01 14078   0.412E-01    0.302E+00
RMM:  16    -0.710647606293E+03    0.22260E-01   -0.73484E-02 14974   0.271E-01    0.237E+00
RMM:  17    -0.710631663042E+03    0.15943E-01   -0.54308E-02 13319   0.243E-01    0.127E+00
RMM:  18    -0.710621843405E+03    0.98196E-02   -0.21556E-02 15521   0.162E-01    0.913E-01
RMM:  19    -0.710620348582E+03    0.14948E-02   -0.89726E-03 13626   0.802E-02    0.532E-01
RMM:  20    -0.710620084837E+03    0.26374E-03   -0.35012E-03 11905   0.558E-02    0.535E-01
RMM:  21    -0.710619870567E+03    0.21427E-03   -0.15179E-03 11462   0.330E-02    0.275E-01
RMM:  22    -0.710619945002E+03   -0.74435E-04   -0.81698E-04 10435   0.240E-02    0.346E-01
RMM:  23    -0.710619814398E+03    0.13060E-03   -0.36948E-04  9785   0.163E-02    0.209E-01
RMM:  24    -0.710619834782E+03   -0.20384E-04   -0.20691E-04  9003   0.128E-02    0.193E-01
RMM:  25    -0.710619827584E+03    0.71989E-05   -0.75909E-05  7457   0.816E-03
   1 F= -.71061983E+03 E0= -.71060950E+03  d E =-.710620E+03
       N       E                     dE             d eps       ncg     rms          rms(c)
DAV:   1    -0.710150967490E+03    0.46887E+00   -0.23896E+02 11120   0.174E+01    0.684E+00
RMM:   2    -0.711013831533E+03   -0.86286E+00   -0.87756E+00 13077   0.542E+00    0.107E+01
RMM:   3    -0.710890393501E+03    0.12344E+00   -0.27438E+00 14694   0.248E+00    0.545E+00
RMM:   4    -0.710715067831E+03    0.17533E+00   -0.52212E-01 14360   0.105E+00    0.545E+00
RMM:   5    -0.710640170316E+03    0.74898E-01   -0.18815E-01 15049   0.465E-01    0.230E+00
RMM:   6    -0.710640773683E+03   -0.60337E-03   -0.14302E-01 12842   0.355E-01    0.162E+00
RMM:   7    -0.710627373049E+03    0.13401E-01   -0.18081E-02 15227   0.190E-01    0.649E-01
RMM:   8    -0.710624094291E+03    0.32788E-02   -0.90874E-03 13882   0.896E-02    0.415E-01
RMM:   9    -0.710623314760E+03    0.77953E-03   -0.22921E-03 12735   0.494E-02    0.251E-01
RMM:  10    -0.710622606930E+03    0.70783E-03   -0.27192E-03 12675   0.483E-02    0.796E-02
RMM:  11    -0.710622629962E+03   -0.23032E-04   -0.69681E-04 11479   0.286E-02    0.280E-02
RMM:  12    -0.710622650885E+03   -0.20924E-04   -0.26407E-04  9152   0.160E-02    0.145E-02
RMM:  13    -0.710622658631E+03   -0.77455E-05   -0.91055E-05  7797   0.855E-03
   2 F= -.71062266E+03 E0= -.71061375E+03  d E =-.283105E-02
       N       E                     dE             d eps       ncg     rms          rms(c)
DAV:   1    -0.710911240893E+03   -0.28859E+00   -0.48935E+01 11120   0.841E+00    0.450E+00
RMM:   2    -0.711792809655E+03   -0.88157E+00   -0.27815E+00 12754   0.297E+00    0.110E+01
RMM:   3    -0.711066521492E+03    0.72629E+00   -0.77765E-01 13667   0.138E+00    0.420E+00
RMM:   4    -0.711017850502E+03    0.48671E-01   -0.15544E-01 14772   0.510E-01    0.366E+00
RMM:   5    -0.710986605528E+03    0.31245E-01   -0.33869E-02 15000   0.212E-01    0.238E+00
RMM:   6    -0.710991970715E+03   -0.53652E-02   -0.51970E-02 12849   0.212E-01    0.216E+00
RMM:   7    -0.710978937814E+03    0.13033E-01   -0.28840E-02 13414   0.180E-01    0.120E+00
RMM:   8    -0.710969310569E+03    0.96272E-02   -0.50835E-03 13674   0.773E-02    0.404E-01
RMM:   9    -0.710968305483E+03    0.10051E-02   -0.15607E-03 12062   0.418E-02    0.266E-01
RMM:  10    -0.710967979226E+03    0.32626E-03   -0.82196E-04 11629   0.285E-02    0.463E-02
RMM:  11    -0.710967978566E+03    0.66060E-06   -0.18495E-04  9996   0.174E-02    0.635E-02
RMM:  12    -0.710967975422E+03    0.31436E-05   -0.56687E-05  7112   0.964E-03
   3 F= -.71096798E+03 E0= -.71095864E+03  d E =-.348148E+00
       N       E                     dE             d eps       ncg     rms          rms(c)
DAV:   1    -0.710937132294E+03    0.30846E-01   -0.23253E+01 11256   0.692E+00    0.890E-01
RMM:   2    -0.711014700320E+03   -0.77568E-01   -0.83289E-01 13601   0.194E+00    0.658E-01
RMM:   3    -0.711035849758E+03   -0.21149E-01   -0.19779E-01 14803   0.786E-01    0.874E-01
RMM:   4    -0.711034301611E+03    0.15481E-02   -0.28991E-02 15062   0.286E-01    0.574E-01
RMM:   5    -0.711032364790E+03    0.19368E-02   -0.56707E-03 15171   0.105E-01    0.276E-01
RMM:   6    -0.711031158752E+03    0.12060E-02   -0.27624E-03 13216   0.653E-02    0.198E-01
RMM:   7    -0.711030969210E+03    0.18954E-03   -0.23638E-03 13044   0.585E-02    0.980E-02
RMM:   8    -0.711030895394E+03    0.73816E-04   -0.40732E-04 12724   0.311E-02    0.675E-02
RMM:   9    -0.711030861043E+03    0.34352E-04   -0.18395E-04  9965   0.147E-02    0.238E-02
RMM:  10    -0.711030855354E+03    0.56889E-05   -0.65379E-05  8594   0.110E-02
   4 F= -.71103086E+03 E0= -.71102153E+03  d E =-.628799E-01
       N       E                     dE             d eps       ncg     rms          rms(c)
DAV:   1    -0.711028998098E+03    0.18629E-02   -0.11957E+00 11568   0.157E+00    0.194E-01
RMM:   2    -0.711032837569E+03   -0.38395E-02   -0.41391E-02 13611   0.424E-01    0.138E-01
RMM:   3    -0.711033641401E+03   -0.80383E-03   -0.86486E-03 14934   0.165E-01    0.124E-01
RMM:   4    -0.711033731947E+03   -0.90547E-04   -0.12208E-03 14419   0.597E-02    0.146E-01
RMM:   5    -0.711033606417E+03    0.12553E-03   -0.26549E-04 12000   0.257E-02    0.627E-02
RMM:   6    -0.711033550771E+03    0.55645E-04   -0.19429E-04 10655   0.173E-02    0.480E-02
RMM:   7    -0.711033546048E+03    0.47234E-05   -0.10999E-04  9893   0.138E-02    0.210E-02
RMM:   8    -0.711033542068E+03    0.39800E-05   -0.22464E-05  6616   0.906E-03
   5 F= -.71103354E+03 E0= -.71102419E+03  d E =-.655666E-01
       N       E                     dE             d eps       ncg     rms          rms(c)
DAV:   1    -0.710983092358E+03    0.50454E-01   -0.23445E+01 10496   0.667E+00    0.102E+00
RMM:   2    -0.711062566776E+03   -0.79474E-01   -0.78007E-01 13113   0.174E+00    0.127E+00
RMM:   3    -0.711077402158E+03   -0.14835E-01   -0.18043E-01 15126   0.711E-01    0.111E+00
RMM:   4    -0.711072590458E+03    0.48117E-02   -0.23621E-02 14795   0.260E-01    0.577E-01
RMM:   5    -0.711070383238E+03    0.22072E-02   -0.60394E-03 15027   0.103E-01    0.326E-01
RMM:   6    -0.711069433279E+03    0.94996E-03   -0.21634E-03 13150   0.539E-02    0.214E-01
RMM:   7    -0.711068872240E+03    0.56104E-03   -0.29568E-03 12879   0.632E-02    0.117E-01
RMM:   8    -0.711068790956E+03    0.81284E-04   -0.41816E-04 12564   0.296E-02    0.428E-02
RMM:   9    -0.711068752079E+03    0.38876E-04   -0.16511E-04  9718   0.151E-02    0.443E-02
RMM:  10    -0.711068742623E+03    0.94562E-05   -0.66782E-05  8461   0.102E-02
   6 F= -.71106874E+03 E0= -.71105925E+03  d E =-.352006E-01
       N       E                     dE             d eps       ncg     rms          rms(c)
DAV:   1    -0.711068596003E+03    0.15608E-03   -0.10814E-01 11640   0.453E-01    0.746E-02
RMM:   2    -0.711068984661E+03   -0.38866E-03   -0.36121E-03 13112   0.117E-01    0.109E-01
RMM:   3    -0.711069031422E+03   -0.46762E-04   -0.83666E-04 14522   0.486E-02    0.765E-02
RMM:   4    -0.711069001010E+03    0.30412E-04   -0.11536E-04  9998   0.186E-02    0.371E-02
RMM:   5    -0.711068991184E+03    0.98263E-05   -0.33961E-05  6930   0.946E-03
   7 F= -.71106899E+03 E0= -.71105948E+03  d E =-.354491E-01
       N       E                     dE             d eps       ncg     rms          rms(c)
DAV:   1    -0.711037323923E+03    0.31677E-01   -0.13052E+01 10560   0.512E+00    0.699E-01
RMM:   2    -0.711080608632E+03   -0.43285E-01   -0.42692E-01 12927   0.133E+00    0.915E-01
RMM:   3    -0.711089779139E+03   -0.91705E-02   -0.11280E-01 15017   0.576E-01    0.641E-01
RMM:   4    -0.711088391390E+03    0.13877E-02   -0.14317E-02 14911   0.201E-01    0.421E-01
RMM:   5    -0.711087803583E+03    0.58781E-03   -0.35336E-03 14966   0.764E-02    0.215E-01
RMM:   6    -0.711087172655E+03    0.63093E-03   -0.13723E-03 12640   0.449E-02    0.147E-01
RMM:   7    -0.711087093232E+03    0.79423E-04   -0.12724E-03 12445   0.434E-02    0.543E-02
RMM:   8    -0.711087058670E+03    0.34561E-04   -0.19496E-04 10722   0.220E-02    0.508E-02
RMM:   9    -0.711087043425E+03    0.15245E-04   -0.10301E-04  9133   0.119E-02    0.128E-02
RMM:  10    -0.711087042809E+03    0.61601E-06   -0.31919E-05  6921   0.790E-03
   8 F= -.71108704E+03 E0= -.71107757E+03  d E =-.180516E-01
       N       E                     dE             d eps       ncg     rms          rms(c)
DAV:   1    -0.711086563145E+03    0.48028E-03   -0.22343E-01 11528   0.670E-01    0.914E-02
RMM:   2    -0.711087315438E+03   -0.75229E-03   -0.73075E-03 12954   0.174E-01    0.128E-01
RMM:   3    -0.711087450672E+03   -0.13523E-03   -0.19112E-03 14882   0.754E-02    0.775E-02
RMM:   4    -0.711087433297E+03    0.17376E-04   -0.23926E-04 12106   0.264E-02    0.572E-02
RMM:   5    -0.711087422798E+03    0.10499E-04   -0.72957E-05  8459   0.139E-02    0.278E-02
RMM:   6    -0.711087412149E+03    0.10648E-04   -0.32552E-05  6883   0.852E-03    0.197E-02
RMM:   7    -0.711087410787E+03    0.13623E-05   -0.24162E-05  6776   0.746E-03
   9 F= -.71108741E+03 E0= -.71107794E+03  d E =-.184196E-01
       N       E                     dE             d eps       ncg     rms          rms(c)
DAV:   1    -0.711057991755E+03    0.29420E-01   -0.10523E+01 10584   0.464E+00    0.650E-01
RMM:   2    -0.711094184046E+03   -0.36192E-01   -0.34411E-01 12897   0.121E+00    0.104E+00
RMM:   3    -0.711099842040E+03   -0.56580E-02   -0.92959E-02 14860   0.531E-01    0.549E-01
RMM:   4    -0.711099266725E+03    0.57532E-03   -0.11155E-02 14811   0.180E-01    0.461E-01
RMM:   5    -0.711098494409E+03    0.77232E-03   -0.25561E-03 15056   0.703E-02    0.228E-01
RMM:   6    -0.711097891930E+03    0.60248E-03   -0.14247E-03 12465   0.451E-02    0.141E-01
RMM:   7    -0.711097808992E+03    0.82937E-04   -0.87572E-04 12248   0.369E-02    0.760E-02
RMM:   8    -0.711097785301E+03    0.23691E-04   -0.16580E-04 10153   0.193E-02    0.441E-02
RMM:   9    -0.711097753550E+03    0.31752E-04   -0.93222E-05  9204   0.119E-02    0.265E-02
RMM:  10    -0.711097750246E+03    0.33030E-05   -0.38060E-05  7265   0.782E-03
  10 F= -.71109775E+03 E0= -.71108817E+03  d E =-.103395E-01
       N       E                     dE             d eps       ncg     rms          rms(c)
DAV:   1    -0.711097697494E+03    0.56055E-04   -0.10654E-02 10976   0.148E-01    0.224E-02
RMM:   2    -0.711097732573E+03   -0.35079E-04   -0.36824E-04 12717   0.396E-02    0.160E-02
RMM:   3    -0.711097741316E+03   -0.87421E-05   -0.93790E-05 10382   0.170E-02
  11 F= -.71109774E+03 E0= -.71108816E+03  d E =-.103305E-01
       N       E                     dE             d eps       ncg     rms          rms(c)
DAV:   1    -0.711078088663E+03    0.19644E-01   -0.69551E+00 10520   0.375E+00    0.548E-01
RMM:   2    -0.711102780524E+03   -0.24692E-01   -0.22510E-01 12768   0.968E-01    0.940E-01
RMM:   3    -0.711105686983E+03   -0.29065E-02   -0.60987E-02 14976   0.427E-01    0.491E-01
RMM:   4    -0.711104621246E+03    0.10657E-02   -0.71143E-03 14726   0.149E-01    0.357E-01
RMM:   5    -0.711104099992E+03    0.52125E-03   -0.17785E-03 15005   0.577E-02    0.165E-01
RMM:   6    -0.711103648022E+03    0.45197E-03   -0.75202E-04 12291   0.335E-02    0.113E-01
RMM:   7    -0.711103534852E+03    0.11317E-03   -0.80944E-04 12333   0.348E-02    0.459E-02
RMM:   8    -0.711103512614E+03    0.22238E-04   -0.11196E-04  9933   0.170E-02    0.322E-02
RMM:   9    -0.711103502177E+03    0.10438E-04   -0.57011E-05  8442   0.977E-03    0.925E-03
RMM:  10    -0.711103501001E+03    0.11757E-05   -0.18945E-05  6612   0.660E-03
  12 F= -.71110350E+03 E0= -.71109394E+03  d E =-.575969E-02
       N       E                     dE             d eps       ncg     rms          rms(c)
DAV:   1    -0.711103354447E+03    0.14773E-03   -0.45415E-02 11080   0.303E-01    0.457E-02
RMM:   2    -0.711103521284E+03   -0.16684E-03   -0.15145E-03 12828   0.777E-02    0.768E-02
RMM:   3    -0.711103535793E+03   -0.14509E-04   -0.38023E-04 13215   0.340E-02    0.407E-02
RMM:   4    -0.711103528039E+03    0.77539E-05   -0.46953E-05  7452   0.138E-02
  13 F= -.71110353E+03 E0= -.71109397E+03  d E =-.578672E-02
       N       E                     dE             d eps       ncg     rms          rms(c)
DAV:   1    -0.711093029454E+03    0.10506E-01   -0.36673E+00 10520   0.273E+00    0.347E-01
RMM:   2    -0.711104825368E+03   -0.11796E-01   -0.11963E-01 12915   0.699E-01    0.362E-01
RMM:   3    -0.711107965238E+03   -0.31399E-02   -0.29999E-02 15091   0.295E-01    0.381E-01
RMM:   4    -0.711107367238E+03    0.59800E-03   -0.35464E-03 14678   0.107E-01    0.194E-01
RMM:   5    -0.711107149280E+03    0.21796E-03   -0.85920E-04 14181   0.414E-02    0.104E-01
RMM:   6    -0.711107011964E+03    0.13732E-03   -0.28575E-04 10666   0.213E-02    0.726E-02
RMM:   7    -0.711106934002E+03    0.77962E-04   -0.47247E-04 11620   0.265E-02    0.338E-02
RMM:   8    -0.711106921684E+03    0.12318E-04   -0.61968E-05  8651   0.127E-02    0.193E-02
RMM:   9    -0.711106915408E+03    0.62757E-05   -0.24770E-05  7092   0.736E-03
  14 F= -.71110692E+03 E0= -.71109734E+03  d E =-.338737E-02
       N       E                     dE             d eps       ncg     rms          rms(c)
DAV:   1    -0.711106901727E+03    0.19957E-04   -0.18344E-03 10992   0.630E-02    0.977E-03
RMM:   2    -0.711106909323E+03   -0.75960E-05   -0.83838E-05 10164   0.198E-02
  15 F= -.71110691E+03 E0= -.71109733E+03  d E =-.338128E-02
       N       E                     dE             d eps       ncg     rms          rms(c)
DAV:   1    -0.711106909591E+03   -0.78636E-05   -0.13442E-03 11408   0.516E-02    0.786E-03
RMM:   2    -0.711106915333E+03   -0.57426E-05   -0.45308E-05  7676   0.137E-02
  16 F= -.71110692E+03 E0= -.71109735E+03  d E =-.338729E-02
       N       E                     dE             d eps       ncg     rms          rms(c)
DAV:   1    -0.711102688030E+03    0.42216E-02   -0.16159E+00 10560   0.182E+00    0.234E-01
RMM:   2    -0.711107590836E+03   -0.49028E-02   -0.50484E-02 12776   0.463E-01    0.206E-01
RMM:   3    -0.711109040063E+03   -0.14492E-02   -0.13221E-02 15124   0.194E-01    0.239E-01
RMM:   4    -0.711108864709E+03    0.17535E-03   -0.15985E-03 14599   0.708E-02    0.145E-01
RMM:   5    -0.711108739484E+03    0.12522E-03   -0.35201E-04 12667   0.294E-02    0.714E-02
RMM:   6    -0.711108695380E+03    0.44104E-04   -0.15639E-04  9996   0.164E-02    0.537E-02
RMM:   7    -0.711108673888E+03    0.21492E-04   -0.15656E-04 10364   0.166E-02    0.217E-02
RMM:   8    -0.711108667431E+03    0.64573E-05   -0.25704E-05  7105   0.933E-03
  17 F= -.71110867E+03 E0= -.71109914E+03  d E =-.175210E-02
       N       E                     dE             d eps       ncg     rms          rms(c)
DAV:   1    -0.711108663109E+03    0.10779E-04   -0.12987E-03 10968   0.526E-02    0.123E-02
RMM:   2    -0.711108669758E+03   -0.66487E-05   -0.66478E-05  8788   0.162E-02
  18 F= -.71110867E+03 E0= -.71109914E+03  d E =-.175442E-02
       N       E                     dE             d eps       ncg     rms          rms(c)
DAV:   1    -0.711107248811E+03    0.14143E-02   -0.55163E-01 10656   0.108E+00    0.166E-01
RMM:   2    -0.711109465797E+03   -0.22170E-02   -0.18479E-02 13082   0.285E-01    0.346E-01
RMM:   3    -0.711109452994E+03    0.12803E-04   -0.48421E-03 14721   0.125E-01    0.132E-01
RMM:   4    -0.711109384497E+03    0.68497E-04   -0.63411E-04 13754   0.437E-02    0.123E-01
RMM:   5    -0.711109332704E+03    0.51793E-04   -0.15212E-04 10386   0.195E-02    0.592E-02
RMM:   6    -0.711109283997E+03    0.48706E-04   -0.95863E-05  8997   0.137E-02    0.331E-02
RMM:   7    -0.711109278614E+03    0.53837E-05   -0.62407E-05  8782   0.106E-02
  19 F= -.71110928E+03 E0= -.71109979E+03  d E =-.608856E-03
       N       E                     dE             d eps       ncg     rms          rms(c)
DAV:   1    -0.711109279141E+03    0.48560E-05   -0.20388E-03 11328   0.656E-02    0.117E-02
RMM:   2    -0.711109287799E+03   -0.86572E-05   -0.79153E-05  9695   0.181E-02
  20 F= -.71110929E+03 E0= -.71109979E+03  d E =-.618041E-03
       N       E                     dE             d eps       ncg     rms          rms(c)
DAV:   1    -0.711108096474E+03    0.11827E-02   -0.43168E-01 10880   0.961E-01    0.145E-01
RMM:   2    -0.711109795426E+03   -0.16990E-02   -0.13766E-02 12839   0.250E-01    0.306E-01
RMM:   3    -0.711109741556E+03    0.53870E-04   -0.37778E-03 14500   0.113E-01    0.108E-01
RMM:   4    -0.711109719689E+03    0.21867E-04   -0.52748E-04 13298   0.393E-02    0.109E-01
RMM:   5    -0.711109684014E+03    0.35674E-04   -0.11335E-04  9742   0.183E-02    0.523E-02
RMM:   6    -0.711109649430E+03    0.34584E-04   -0.80789E-05  8478   0.125E-02    0.351E-02
RMM:   7    -0.711109645021E+03    0.44092E-05   -0.45272E-05  7946   0.940E-03
  21 F= -.71110965E+03 E0= -.71110011E+03  d E =-.357222E-03
       N       E                     dE             d eps       ncg     rms          rms(c)
DAV:   1    -0.711109640820E+03    0.86097E-05   -0.22323E-03 11296   0.691E-02    0.151E-02
RMM:   2    -0.711109652564E+03   -0.11743E-04   -0.84587E-05  9846   0.187E-02    0.319E-02
RMM:   3    -0.711109648982E+03    0.35816E-05   -0.17877E-05  6214   0.949E-03
  22 F= -.71110965E+03 E0= -.71110012E+03  d E =-.361184E-03
       N       E                     dE             d eps       ncg     rms          rms(c)
DAV:   1    -0.711109032407E+03    0.62016E-03   -0.21276E-01 10800   0.686E-01    0.803E-02
RMM:   2    -0.711109739116E+03   -0.70671E-03   -0.72314E-03 13172   0.182E-01    0.761E-02
RMM:   3    -0.711109940924E+03   -0.20181E-03   -0.18318E-03 14894   0.759E-02    0.950E-02
RMM:   4    -0.711109907677E+03    0.33246E-04   -0.24237E-04 12214   0.281E-02    0.433E-02
RMM:   5    -0.711109893273E+03    0.14404E-04   -0.62886E-05  8787   0.149E-02    0.271E-02
RMM:   6    -0.711109887329E+03    0.59444E-05   -0.18726E-05  6438   0.749E-03
  23 F= -.71110989E+03 E0= -.71110036E+03  d E =-.238347E-03
       N       E                     dE             d eps       ncg     rms          rms(c)
DAV:   1    -0.711109878962E+03    0.14311E-04   -0.82933E-05 11120   0.412E-02    0.113E-02
RMM:   2    -0.711109882838E+03   -0.38754E-05   -0.45904E-05  8240   0.128E-02
  24 F= -.71110988E+03 E0= -.71110035E+03  d E =-.233856E-03
       N       E                     dE             d eps       ncg     rms          rms(c)
DAV:   1    -0.711109883057E+03   -0.40945E-05   -0.96672E-05  9896   0.193E-02    0.124E-02
RMM:   2    -0.711109895598E+03   -0.12541E-04   -0.20543E-05  5984   0.861E-03    0.440E-02
RMM:   3    -0.711109884744E+03    0.10854E-04   -0.67714E-06  5679   0.490E-03    0.917E-03
RMM:   4    -0.711109883373E+03    0.13714E-05   -0.93739E-07  5542   0.212E-03
  25 F= -.71110988E+03 E0= -.71110035E+03  d E =-.234391E-03
       N       E                     dE             d eps       ncg     rms          rms(c)
DAV:   1    -0.711109593884E+03    0.29086E-03   -0.12112E-01 10896   0.519E-01    0.577E-02
RMM:   2    -0.711109974684E+03   -0.38080E-03   -0.39250E-03 13038   0.135E-01    0.554E-02
RMM:   3    -0.711110085631E+03   -0.11095E-03   -0.10609E-03 14667   0.581E-02    0.638E-02
RMM:   4    -0.711110072800E+03    0.12830E-04   -0.14257E-04 11248   0.216E-02    0.319E-02
RMM:   5    -0.711110067663E+03    0.51371E-05   -0.34445E-05  7183   0.116E-02
  26 F= -.71111007E+03 E0= -.71110055E+03  d E =-.184290E-03
       N       E                     dE             d eps       ncg     rms          rms(c)
DAV:   1    -0.711110062106E+03    0.10694E-04   -0.19520E-03 11772   0.683E-02    0.128E-02
RMM:   2    -0.711110069028E+03   -0.69215E-05   -0.85910E-05 10132   0.221E-02
  27 F= -.71111007E+03 E0= -.71110055E+03  d E =-.185655E-03
       N       E                     dE             d eps       ncg     rms          rms(c)
DAV:   1    -0.711110063087E+03   -0.98019E-06   -0.67569E-04 10588   0.399E-02    0.122E-02
RMM:   2    -0.711110073128E+03   -0.10042E-04   -0.37631E-05  6622   0.137E-02    0.350E-02
RMM:   3    -0.711110066468E+03    0.66603E-05   -0.90249E-06  5869   0.685E-03
  28 F= -.71111007E+03 E0= -.71110054E+03  d E =-.183095E-03
       N       E                     dE             d eps       ncg     rms          rms(c)
DAV:   1    -0.711110066806E+03    0.63218E-05   -0.32405E-04 10506   0.281E-02    0.830E-03
RMM:   2    -0.711110068047E+03   -0.12404E-05   -0.14739E-05  5796   0.970E-03
  29 F= -.71111007E+03 E0= -.71110054E+03  d E =-.184674E-03
       N       E                     dE             d eps       ncg     rms          rms(c)
DAV:   1    -0.711109885810E+03    0.18100E-03   -0.76078E-02 11010   0.414E-01    0.559E-02
RMM:   2    -0.711110151034E+03   -0.26522E-03   -0.25485E-03 13144   0.112E-01    0.823E-02
RMM:   3    -0.711110199786E+03   -0.48751E-04   -0.70183E-04 14363   0.480E-02    0.508E-02
RMM:   4    -0.711110194375E+03    0.54107E-05   -0.10197E-04 10184   0.185E-02    0.384E-02
RMM:   5    -0.711110187897E+03    0.64783E-05   -0.23393E-05  6422   0.102E-02
  30 F= -.71111019E+03 E0= -.71110065E+03  d E =-.119850E-03
       N       E                     dE             d eps       ncg     rms          rms(c)
DAV:   1    -0.711110185452E+03    0.89225E-05   -0.12760E-04 12468   0.210E-02    0.135E-02
RMM:   2    -0.711110186527E+03   -0.10741E-05   -0.13411E-05  5926   0.892E-03
  31 F= -.71111019E+03 E0= -.71110065E+03  d E =-.118480E-03
       N       E                     dE             d eps       ncg     rms          rms(c)
DAV:   1    -0.711110009707E+03    0.17575E-03   -0.74476E-02 11028   0.408E-01    0.497E-02
RMM:   2    -0.711110246945E+03   -0.23724E-03   -0.23028E-03 12882   0.103E-01    0.724E-02
RMM:   3    -0.711110296430E+03   -0.49485E-04   -0.62886E-04 14483   0.444E-02    0.460E-02
RMM:   4    -0.711110289486E+03    0.69432E-05   -0.85347E-05  9589   0.173E-02
  32 F= -.71111029E+03 E0= -.71110077E+03  d E =-.102960E-03
       N       E                     dE             d eps       ncg     rms          rms(c)
DAV:   1    -0.711110279627E+03    0.16803E-04   -0.24715E-04 12330   0.273E-02    0.151E-02
RMM:   2    -0.711110278243E+03    0.13843E-05   -0.17762E-05  6026   0.901E-03
  33 F= -.71111028E+03 E0= -.71110075E+03  d E =-.917161E-04
       N       E                     dE             d eps       ncg     rms          rms(c)
DAV:   1    -0.711110278728E+03    0.89884E-06   -0.13393E-04 11464   0.200E-02    0.707E-03
RMM:   2    -0.711110280122E+03   -0.13935E-05   -0.10828E-05  5738   0.819E-03
  34 F= -.71111028E+03 E0= -.71110075E+03  d E =-.935950E-04
       N       E                     dE             d eps       ncg     rms          rms(c)
DAV:   1    -0.711110190299E+03    0.88429E-04   -0.41052E-02 10964   0.307E-01    0.355E-02
RMM:   2    -0.711110336261E+03   -0.14596E-03   -0.13434E-03 13024   0.812E-02    0.648E-02
RMM:   3    -0.711110356457E+03   -0.20196E-04   -0.37965E-04 13418   0.363E-02    0.319E-02
RMM:   4    -0.711110353044E+03    0.34132E-05   -0.51158E-05  7930   0.146E-02
  35 F= -.71111035E+03 E0= -.71110083E+03  d E =-.729225E-04
       N       E                     dE             d eps       ncg     rms          rms(c)
DAV:   1    -0.711110350100E+03    0.63575E-05   -0.29117E-05  8048   0.119E-02    0.113E-02
RMM:   2    -0.711110348999E+03    0.11009E-05   -0.93912E-06  5901   0.678E-03
  36 F= -.71111035E+03 E0= -.71110083E+03  d E =-.688773E-04
       N       E                     dE             d eps       ncg     rms          rms(c)
DAV:   1    -0.711110348880E+03    0.12193E-05   -0.13025E-05  7520   0.114E-02    0.864E-03
RMM:   2    -0.711110353896E+03   -0.50159E-05   -0.11353E-05  5593   0.680E-03
  37 F= -.71111035E+03 E0= -.71110083E+03  d E =-.737747E-04
       N       E                     dE             d eps       ncg     rms          rms(c)
DAV:   1    -0.711110302971E+03    0.45910E-04   -0.21483E-02 11080   0.218E-01    0.407E-02
RMM:   2    -0.711110409897E+03   -0.10693E-03   -0.75176E-04 13023   0.594E-02    0.902E-02
RMM:   3    -0.711110390498E+03    0.19400E-04   -0.21676E-04 11939   0.268E-02    0.315E-02
RMM:   4    -0.711110386042E+03    0.44556E-05   -0.36148E-05  6733   0.134E-02
  38 F= -.71111039E+03 E0= -.71110084E+03  d E =-.321459E-04
       N       E                     dE             d eps       ncg     rms          rms(c)
DAV:   1    -0.711110362786E+03    0.27712E-04   -0.40998E-03 11096   0.954E-02    0.270E-02
RMM:   2    -0.711110410886E+03   -0.48100E-04   -0.20886E-04 11573   0.281E-02    0.732E-02
RMM:   3    -0.711110379643E+03    0.31243E-04   -0.53112E-05  7306   0.140E-02    0.220E-02
RMM:   4    -0.711110376605E+03    0.30378E-05   -0.10534E-05  5875   0.726E-03
  39 F= -.71111038E+03 E0= -.71110083E+03  d E =-.227087E-04
       N       E                     dE             d eps       ncg     rms          rms(c)
DAV:   1    -0.711110374085E+03    0.55575E-05   -0.14665E-03 10624   0.571E-02    0.120E-02
RMM:   2    -0.711110383280E+03   -0.91944E-05   -0.65439E-05  8494   0.170E-02
  40 F= -.71111038E+03 E0= -.71110083E+03  d E =-.293835E-04
       N       E                     dE             d eps       ncg     rms          rms(c)
DAV:   1    -0.711110377305E+03   -0.32197E-05   -0.35045E-04 11008   0.298E-02    0.797E-03
RMM:   2    -0.711110380810E+03   -0.35050E-05   -0.17532E-05  5638   0.918E-03
  41 F= -.71111038E+03 E0= -.71110083E+03  d E =-.269137E-04
       N       E                     dE             d eps       ncg     rms          rms(c)
DAV:   1    -0.711110379277E+03   -0.19716E-05   -0.80177E-05 10944   0.163E-02    0.943E-03
RMM:   2    -0.711110385214E+03   -0.59370E-05   -0.11634E-05  5449   0.727E-03
  42 F= -.71111039E+03 E0= -.71110084E+03  d E =-.313173E-04
       N       E                     dE             d eps       ncg     rms          rms(c)
DAV:   1    -0.711110379981E+03   -0.70427E-06   -0.14490E-05  5490   0.117E-02    0.575E-03
RMM:   2    -0.711110381973E+03   -0.19926E-05   -0.39690E-06  4934   0.382E-03
  43 F= -.71111038E+03 E0= -.71110084E+03  d E =-.280772E-04
       N       E                     dE             d eps       ncg     rms          rms(c)
DAV:   1    -0.711110379551E+03    0.42967E-06   -0.44868E-06  5400   0.695E-03    0.278E-03
RMM:   2    -0.711110379904E+03   -0.35321E-06   -0.96738E-07  4522   0.187E-03
  44 F= -.71111038E+03 E0= -.71110084E+03  d E =-.260081E-04
       N       E                     dE             d eps       ncg     rms          rms(c)
DAV:   1    -0.711110382714E+03   -0.31631E-05   -0.36787E-03 11084   0.922E-02    0.848E-03
RMM:   2    -0.711110394300E+03   -0.11586E-04   -0.12115E-04 11472   0.241E-02    0.582E-03
RMM:   3    -0.711110396831E+03   -0.25311E-05   -0.29454E-05  6779   0.109E-02
  45 F= -.71111040E+03 E0= -.71110086E+03  d E =-.169267E-04
       N       E                     dE             d eps       ncg     rms          rms(c)
DAV:   1    -0.711110398385E+03   -0.40845E-05   -0.56547E-04 11360   0.375E-02    0.637E-03
RMM:   2    -0.711110401593E+03   -0.32083E-05   -0.25856E-05  6243   0.121E-02
  46 F= -.71111040E+03 E0= -.71110086E+03  d E =-.216885E-04
       N       E                     dE             d eps       ncg     rms          rms(c)
DAV:   1    -0.711110401795E+03   -0.34101E-05   -0.21679E-03 11648   0.720E-02    0.843E-03
RMM:   2    -0.711110411791E+03   -0.99962E-05   -0.87348E-05 10150   0.209E-02
  47 F= -.71111041E+03 E0= -.71110087E+03  d E =-.318864E-04
       N       E                     dE             d eps       ncg     rms          rms(c)
DAV:   1    -0.711110405915E+03   -0.41202E-05   -0.38398E-04 10576   0.309E-02    0.766E-03
RMM:   2    -0.711110408995E+03   -0.30806E-05   -0.15750E-05  5585   0.958E-03
  48 F= -.71111041E+03 E0= -.71110087E+03  d E =-.290911E-04
       N       E                     dE             d eps       ncg     rms          rms(c)
DAV:   1    -0.711110409118E+03   -0.32031E-05   -0.26488E-04 10682   0.260E-02    0.583E-03
RMM:   2    -0.711110412138E+03   -0.30202E-05   -0.16936E-05  5621   0.101E-02
  49 F= -.71111041E+03 E0= -.71110087E+03  d E =-.322338E-04
       N       E                     dE             d eps       ncg     rms          rms(c)
DAV:   1    -0.711110416970E+03   -0.78517E-05   -0.40400E-04 10448   0.291E-02    0.116E-02
RMM:   2    -0.711110427352E+03   -0.10383E-04   -0.34761E-05  6725   0.131E-02    0.400E-02
RMM:   3    -0.711110420097E+03    0.72555E-05   -0.66406E-06  5612   0.600E-03
  50 F= -.71111042E+03 E0= -.71110088E+03  d E =-.795860E-05
       N       E                     dE             d eps       ncg     rms          rms(c)
DAV:   1    -0.711110421314E+03    0.60381E-05   -0.11232E-04 10546   0.153E-02    0.121E-02
RMM:   2    -0.711110422130E+03   -0.81621E-06   -0.58936E-06  5224   0.546E-03
  51 F= -.71111042E+03 E0= -.71110088E+03  d E =-.999221E-05
       N       E                     dE             d eps       ncg     rms          rms(c)
DAV:   1    -0.711110422535E+03   -0.12207E-05   -0.38516E-04 10864   0.283E-02    0.141E-02
RMM:   2    -0.711110428306E+03   -0.57715E-05   -0.23755E-05  6043   0.107E-02
  52 F= -.71111043E+03 E0= -.71110088E+03  d E =-.161682E-04
       N       E                     dE             d eps       ncg     rms          rms(c)
DAV:   1    -0.711110424873E+03   -0.23380E-05   -0.66996E-04 10868   0.401E-02    0.143E-02
RMM:   2    -0.711110429669E+03   -0.47964E-05   -0.39576E-05  7069   0.149E-02
  53 F= -.71111043E+03 E0= -.71110089E+03  d E =-.136295E-05
       N       E                     dE             d eps       ncg     rms          rms(c)
DAV:   1    -0.711110429157E+03   -0.42843E-05   -0.15875E-05  6600   0.125E-02    0.166E-02
RMM:   2    -0.711110445464E+03   -0.16307E-04   -0.20578E-05  5688   0.793E-03    0.508E-02
RMM:   3    -0.711110431289E+03    0.14175E-04   -0.91686E-06  5180   0.507E-03    0.137E-02
RMM:   4    -0.711110429509E+03    0.17798E-05   -0.15308E-06  5083   0.233E-03
  54 F= -.71111043E+03 E0= -.71110090E+03  d E =-.120288E-05
       N       E                     dE             d eps       ncg     rms          rms(c)
DAV:   1    -0.711110428755E+03    0.25344E-05   -0.31373E-06  5384   0.434E-03    0.231E-03
RMM:   2    -0.711110428696E+03    0.58819E-07   -0.14569E-06  5074   0.295E-03
  55 F= -.71111043E+03 E0= -.71110089E+03  d E =-.389446E-06
       N       E                     dE             d eps       ncg     rms          rms(c)
DAV:   1    -0.711110434406E+03   -0.56513E-05   -0.45567E-04 10520   0.306E-02    0.743E-03
RMM:   2    -0.711110436719E+03   -0.23134E-05   -0.14747E-05  5530   0.885E-03
  56 F= -.71111044E+03 E0= -.71110090E+03  d E =-.802352E-05
       N       E                     dE             d eps       ncg     rms          rms(c)
DAV:   1    -0.711110437757E+03   -0.33509E-05   -0.88743E-05 11288   0.154E-02    0.749E-03
RMM:   2    -0.711110441873E+03   -0.41162E-05   -0.94669E-06  5309   0.658E-03
  57 F= -.71111044E+03 E0= -.71110090E+03  d E =-.131772E-04
       N       E                     dE             d eps       ncg     rms          rms(c)
DAV:   1    -0.711110440426E+03   -0.26695E-05   -0.29045E-04 11644   0.265E-02    0.837E-03
RMM:   2    -0.711110443641E+03   -0.32149E-05   -0.14434E-05  5533   0.856E-03
  58 F= -.71111044E+03 E0= -.71110090E+03  d E =-.149454E-04
       N       E                     dE             d eps       ncg     rms          rms(c)
DAV:   1    -0.711110442689E+03   -0.22627E-05   -0.21728E-04 11040   0.244E-02    0.556E-03
RMM:   2    -0.711110444112E+03   -0.14232E-05   -0.12689E-05  5333   0.905E-03
  59 F= -.71111044E+03 E0= -.71110090E+03  d E =-.471031E-06
       N       E                     dE             d eps       ncg     rms          rms(c)
DAV:   1    -0.711110445919E+03   -0.32298E-05   -0.10438E-03 11400   0.498E-02    0.673E-03
RMM:   2    -0.711110449532E+03   -0.36135E-05   -0.38966E-05  7371   0.139E-02
  60 F= -.71111045E+03 E0= -.71110092E+03  d E =-.589110E-05
       N       E                     dE             d eps       ncg     rms          rms(c)
DAV:   1    -0.711110451812E+03   -0.58932E-05   -0.81093E-05 10048   0.151E-02    0.886E-03
RMM:   2    -0.711110456124E+03   -0.43125E-05   -0.12139E-05  5408   0.772E-03
  61 F= -.71111046E+03 E0= -.71110093E+03  d E =-.659217E-05
       N       E                     dE             d eps       ncg     rms          rms(c)
DAV:   1    -0.711110453022E+03   -0.12104E-05   -0.13506E-05  5344   0.112E-02    0.712E-03
RMM:   2    -0.711110455565E+03   -0.25426E-05   -0.36030E-06  5133   0.402E-03
  62 F= -.71111046E+03 E0= -.71110092E+03  d E =-.603271E-05
       N       E                     dE             d eps       ncg     rms          rms(c)
DAV:   1    -0.711110453342E+03   -0.31949E-06   -0.94362E-06  5352   0.861E-03    0.529E-03
RMM:   2    -0.711110455280E+03   -0.19379E-05   -0.35279E-06  5124   0.404E-03
  63 F= -.71111046E+03 E0= -.71110092E+03  d E =-.574745E-05
       N       E                     dE             d eps       ncg     rms          rms(c)
DAV:   1    -0.711110454979E+03   -0.16367E-05   -0.83353E-05 11064   0.151E-02    0.225E-03
RMM:   2    -0.711110455063E+03   -0.84343E-07   -0.34063E-06  5148   0.410E-03
  64 F= -.71111046E+03 E0= -.71110092E+03  d E =0.216867E-06
