 running    4 mpi-ranks, on    1 nodes
 distrk:  each k-point on    1 cores,    4 groups
 distr:  one band on    1 cores,    1 groups
 OpenACC runtime initialized ...    4 GPUs detected
 vasp.6.4.2 20Jul23 (build Nov 12 2023 22:16:35) complex                         
 POSCAR found type information on POSCAR GaO N Fe
 POSCAR found :  4 types and     120 ions
 scaLAPACK will be used selectively (only on CPU)
 LDA part: xc-table for Pade appr. of Perdew
 POSCAR, INCAR and KPOINTS ok, starting setup
 FFT: planning ... GRIDC
 FFT: planning ... GRID_SOFT
 FFT: planning ... GRID
 WAVECAR not read
 entering main loop
       N       E                     dE             d eps       ncg     rms          rms(c)
DAV:   1     0.218408501042E+05    0.21841E+05   -0.32069E+05 10080   0.281E+03
DAV:   2     0.485986167410E+04   -0.16981E+05   -0.16007E+05 10080   0.816E+02
DAV:   3    -0.139576098153E+03   -0.49994E+04   -0.46957E+04 12840   0.321E+02
DAV:   4    -0.784965324725E+03   -0.64539E+03   -0.62804E+03 12400   0.123E+02
DAV:   5    -0.832355388217E+03   -0.47390E+02   -0.46893E+02 14600   0.359E+01BRMIX: very serious problems
 the old and the new charge density differ
 old charge density:  1050.00000 new 1050.99974
BRMIX: very serious problems
 the old and the new charge density differ
 old charge density:  1050.00000 new 1050.99974
BRMIX: very serious problems
 the old and the new charge density differ
 old charge density:  1050.00000 new 1050.99974
BRMIX: very serious problems
 the old and the new charge density differ
 old charge density:  1050.00000 new 1050.99974
    0.759E+01
RMM:   6    -0.845070696912E+03   -0.12715E+02   -0.84880E+02 13840   0.340E+01    0.226E+02
RMM:   7    -0.805028127850E+03    0.40043E+02   -0.88039E+01 15376   0.117E+01    0.143E+02
RMM:   8    -0.717598915354E+03    0.87429E+02   -0.59464E+01 13203   0.747E+00    0.338E+01
RMM:   9    -0.716343651290E+03    0.12553E+01   -0.74270E+00 13137   0.371E+00    0.219E+01
RMM:  10    -0.712678586237E+03    0.36651E+01   -0.43808E+00 13408   0.224E+00    0.171E+01
RMM:  11    -0.712070613238E+03    0.60797E+00   -0.26197E+00 13219   0.187E+00    0.148E+01
RMM:  12    -0.710946443042E+03    0.11242E+01   -0.23360E+00 13026   0.194E+00    0.669E+00
RMM:  13    -0.710812355420E+03    0.13409E+00   -0.67887E-01 15637   0.897E-01    0.497E+00
RMM:  14    -0.710768198153E+03    0.44157E-01   -0.22278E-01 13622   0.523E-01    0.343E+00
RMM:  15    -0.710721309725E+03    0.46888E-01   -0.96700E-02 13808   0.374E-01    0.171E+00
RMM:  16    -0.710709198403E+03    0.12111E-01   -0.38924E-02 13791   0.242E-01    0.152E+00
RMM:  17    -0.710704512265E+03    0.46861E-02   -0.13707E-02 14935   0.149E-01    0.792E-01
RMM:  18    -0.710702547271E+03    0.19650E-02   -0.74903E-03 13875   0.894E-02    0.646E-01
RMM:  19    -0.710701625221E+03    0.92205E-03   -0.23688E-03 13330   0.617E-02    0.400E-01
RMM:  20    -0.710700891891E+03    0.73333E-03   -0.14148E-03 12664   0.394E-02    0.232E-01
RMM:  21    -0.710700582035E+03    0.30986E-03   -0.52050E-04 10456   0.252E-02    0.160E-01
RMM:  22    -0.710700447083E+03    0.13495E-03   -0.32336E-04  9651   0.171E-02    0.113E-01
RMM:  23    -0.710700364727E+03    0.82356E-04   -0.17173E-04  9197   0.133E-02    0.561E-02
RMM:  24    -0.710700339753E+03    0.24974E-04   -0.10164E-04  8356   0.979E-03    0.272E-02
RMM:  25    -0.710700332628E+03    0.71247E-05   -0.44933E-05  7218   0.685E-03
   1 F= -.71070033E+03 E0= -.71069002E+03  d E =-.710700E+03
 curvature:   0.00 expect dE= 0.000E+00 dE for cont linesearch  0.000E+00
 trial: gam= 0.00000 g(F)=  0.102E+01 g(S)=  0.000E+00 ort = 0.000E+00 (trialstep = 0.100E+01)
 search vector abs. value=  0.102E+01
 bond charge predicted
       N       E                     dE             d eps       ncg     rms          rms(c)
DAV:   1    -0.710099050159E+03    0.60129E+00   -0.21075E+02 11160   0.184E+01    0.489E+00
RMM:   2    -0.710841360913E+03   -0.74231E+00   -0.81119E+00 13607   0.576E+00    0.653E+00
RMM:   3    -0.710956808434E+03   -0.11545E+00   -0.22223E+00 14782   0.242E+00    0.391E+00
RMM:   4    -0.710880645376E+03    0.76163E-01   -0.37375E-01 14642   0.964E-01    0.366E+00
RMM:   5    -0.710862788654E+03    0.17857E-01   -0.96951E-02 15202   0.362E-01    0.237E+00
RMM:   6    -0.710833593683E+03    0.29195E-01   -0.85545E-02 12815   0.318E-01    0.164E+00
RMM:   7    -0.710830423642E+03    0.31700E-02   -0.34314E-02 13481   0.220E-01    0.751E-01
RMM:   8    -0.710825465341E+03    0.49583E-02   -0.11296E-02 14920   0.136E-01    0.754E-01
RMM:   9    -0.710823766080E+03    0.16993E-02   -0.35598E-03 13074   0.614E-02    0.377E-01
RMM:  10    -0.710822665432E+03    0.11006E-02   -0.23940E-03 12976   0.560E-02    0.452E-01
RMM:  11    -0.710822141627E+03    0.52380E-03   -0.85969E-04 12274   0.366E-02    0.222E-01
RMM:  12    -0.710821902258E+03    0.23937E-03   -0.39444E-04  9591   0.255E-02    0.293E-01
RMM:  13    -0.710821648033E+03    0.25422E-03   -0.18724E-04  8879   0.157E-02    0.139E-01
RMM:  14    -0.710821529149E+03    0.11888E-03   -0.12097E-04  8392   0.136E-02    0.177E-01
RMM:  15    -0.710821418624E+03    0.11053E-03   -0.59551E-05  7306   0.934E-03    0.815E-02
RMM:  16    -0.710821372563E+03    0.46061E-04   -0.36670E-05  6662   0.741E-03    0.110E-01
RMM:  17    -0.710821328339E+03    0.44224E-04   -0.17399E-05  6084   0.540E-03    0.457E-02
RMM:  18    -0.710821311860E+03    0.16480E-04   -0.98813E-06  5588   0.417E-03    0.686E-02
RMM:  19    -0.710821295038E+03    0.16822E-04   -0.55161E-06  4825   0.316E-03    0.247E-02
RMM:  20    -0.710821289627E+03    0.54107E-05   -0.34394E-06  3991   0.250E-03
   2 F= -.71082129E+03 E0= -.71081002E+03  d E =-.120957E+00
 trial-energy change:   -0.120957  1 .order   -0.032906   -1.016717    0.950904
 step:   0.5820(harm=  0.5167)  dis= 0.05394  next Energy=  -711.013580 (dE=-0.313E+00)
 bond charge predicted
       N       E                     dE             d eps       ncg     rms          rms(c)
DAV:   1    -0.710898200333E+03   -0.76905E-01   -0.36569E+01 11064   0.809E+00    0.222E+00
RMM:   2    -0.711068898091E+03   -0.17070E+00   -0.14351E+00 13749   0.240E+00    0.391E+00
RMM:   3    -0.711030461425E+03    0.38437E-01   -0.37745E-01 14483   0.103E+00    0.173E+00
RMM:   4    -0.711029376381E+03    0.10850E-02   -0.69455E-02 14925   0.372E-01    0.191E+00
RMM:   5    -0.711025805432E+03    0.35709E-02   -0.16572E-02 15002   0.145E-01    0.131E+00
RMM:   6    -0.711015896617E+03    0.99088E-02   -0.29449E-02 12849   0.183E-01    0.675E-01
RMM:   7    -0.711013460336E+03    0.24363E-02   -0.75657E-03 14155   0.110E-01    0.299E-01
RMM:   8    -0.711012957696E+03    0.50264E-03   -0.21032E-03 12708   0.498E-02    0.338E-01
RMM:   9    -0.711012287819E+03    0.66988E-03   -0.60132E-04 10796   0.312E-02    0.160E-01
RMM:  10    -0.711012026402E+03    0.26142E-03   -0.95133E-04 12564   0.331E-02    0.183E-01
RMM:  11    -0.711011877274E+03    0.14913E-03   -0.16577E-04  9662   0.197E-02    0.890E-02
RMM:  12    -0.711011824912E+03    0.52362E-04   -0.80545E-05  7763   0.106E-02    0.119E-01
RMM:  13    -0.711011770089E+03    0.54823E-04   -0.41632E-05  6744   0.797E-03    0.423E-02
RMM:  14    -0.711011752108E+03    0.17980E-04   -0.19078E-05  6141   0.589E-03    0.731E-02
RMM:  15    -0.711011731298E+03    0.20810E-04   -0.86759E-06  5963   0.391E-03    0.184E-02
RMM:  16    -0.711011726227E+03    0.50710E-05   -0.47755E-06  5565   0.315E-03
   3 F= -.71101173E+03 E0= -.71100087E+03  d E =-.311394E+00
 curvature:  -0.25 expect dE=-0.405E-01 dE for cont linesearch -0.136E-05
 trial: gam= 0.15481 g(F)=  0.160E+00 g(S)=  0.000E+00 ort = 0.234E-02 (trialstep = 0.916E+00)
 search vector abs. value=  0.185E+00
 bond charge predicted
       N       E                     dE             d eps       ncg     rms          rms(c)
DAV:   1    -0.710945287090E+03    0.66444E-01   -0.34454E+01 10976   0.847E+00    0.116E+00
RMM:   2    -0.711069946229E+03   -0.12466E+00   -0.12979E+00 13741   0.240E+00    0.153E+00
RMM:   3    -0.711097795873E+03   -0.27850E-01   -0.30793E-01 14864   0.970E-01    0.885E-01
RMM:   4    -0.711098606671E+03   -0.81080E-03   -0.41469E-02 15108   0.345E-01    0.990E-01
RMM:   5    -0.711094556488E+03    0.40502E-02   -0.90623E-03 14773   0.142E-01    0.407E-01
RMM:   6    -0.711093678360E+03    0.87813E-03   -0.61394E-03 13336   0.914E-02    0.554E-01
RMM:   7    -0.711092520235E+03    0.11581E-02   -0.36851E-03 13440   0.780E-02    0.216E-01
RMM:   8    -0.711092238961E+03    0.28127E-03   -0.81501E-04 12137   0.365E-02    0.232E-01
RMM:   9    -0.711091980883E+03    0.25808E-03   -0.28562E-04  9965   0.209E-02    0.118E-01
RMM:  10    -0.711091825524E+03    0.15536E-03   -0.31298E-04 11313   0.211E-02    0.105E-01
RMM:  11    -0.711091775055E+03    0.50470E-04   -0.77989E-05  8628   0.139E-02    0.768E-02
RMM:  12    -0.711091743419E+03    0.31636E-04   -0.35388E-05  6782   0.816E-03    0.520E-02
RMM:  13    -0.711091726134E+03    0.17285E-04   -0.14657E-05  6229   0.627E-03    0.441E-02
RMM:  14    -0.711091715559E+03    0.10575E-04   -0.77469E-06  6040   0.392E-03    0.280E-02
RMM:  15    -0.711091710034E+03    0.55250E-05   -0.36108E-06  5921   0.308E-03
   4 F= -.71109171E+03 E0= -.71108107E+03  d E =-.799838E-01
 trial-energy change:   -0.079984  1 .order   -0.079898   -0.146711   -0.013084
 step:   1.0061(harm=  1.0061)  dis= 0.02181  next Energy=  -711.092265 (dE=-0.805E-01)
 bond charge predicted
       N       E                     dE             d eps       ncg     rms          rms(c)
DAV:   1    -0.711091074740E+03    0.64082E-03   -0.33139E-01 11656   0.827E-01    0.108E-01
RMM:   2    -0.711092169210E+03   -0.10945E-02   -0.11698E-02 13630   0.225E-01    0.118E-01
RMM:   3    -0.711092411422E+03   -0.24221E-03   -0.25788E-03 14688   0.894E-02    0.811E-02
RMM:   4    -0.711092420857E+03   -0.94350E-05   -0.36134E-04 12645   0.332E-02    0.864E-02
RMM:   5    -0.711092386750E+03    0.34107E-04   -0.99781E-05  9813   0.174E-02    0.370E-02
RMM:   6    -0.711092381314E+03    0.54363E-05   -0.60240E-05  8302   0.105E-02
   5 F= -.71109238E+03 E0= -.71108168E+03  d E =-.806551E-01
 curvature:  -0.58 expect dE=-0.489E-01 dE for cont linesearch -0.738E-06
 trial: gam= 0.50457 g(F)=  0.842E-01 g(S)=  0.000E+00 ort = 0.485E-03 (trialstep = 0.934E+00)
 search vector abs. value=  0.132E+00
 bond charge predicted
       N       E                     dE             d eps       ncg     rms          rms(c)
DAV:   1    -0.711033981179E+03    0.58406E-01   -0.26903E+01 10632   0.733E+00    0.124E+00
RMM:   2    -0.711130254559E+03   -0.96273E-01   -0.94514E-01 13329   0.196E+00    0.176E+00
RMM:   3    -0.711142637554E+03   -0.12383E-01   -0.23699E-01 15041   0.822E-01    0.106E+00
RMM:   4    -0.711140573671E+03    0.20639E-02   -0.28586E-02 15028   0.283E-01    0.866E-01
RMM:   5    -0.711138804991E+03    0.17687E-02   -0.80471E-03 15043   0.113E-01    0.630E-01
RMM:   6    -0.711135933263E+03    0.28717E-02   -0.41858E-03 12558   0.826E-02    0.409E-01
RMM:   7    -0.711134841920E+03    0.10913E-02   -0.39433E-03 12815   0.744E-02    0.351E-01
RMM:   8    -0.711134451976E+03    0.38994E-03   -0.70289E-04 13079   0.430E-02    0.217E-01
RMM:   9    -0.711134161068E+03    0.29091E-03   -0.28316E-04  9848   0.219E-02    0.213E-01
RMM:  10    -0.711133982420E+03    0.17865E-03   -0.15659E-04  9631   0.170E-02    0.140E-01
RMM:  11    -0.711133888253E+03    0.94168E-04   -0.86003E-05  8300   0.131E-02    0.136E-01
RMM:  12    -0.711133814106E+03    0.74147E-04   -0.41256E-05  7043   0.907E-03    0.804E-02
RMM:  13    -0.711133778638E+03    0.35469E-04   -0.21852E-05  6327   0.697E-03    0.916E-02
RMM:  14    -0.711133746378E+03    0.32259E-04   -0.11398E-05  6065   0.521E-03    0.435E-02
RMM:  15    -0.711133733851E+03    0.12527E-04   -0.69433E-06  5939   0.394E-03    0.623E-02
RMM:  16    -0.711133720006E+03    0.13845E-04   -0.38178E-06  5546   0.299E-03    0.217E-02
RMM:  17    -0.711133715948E+03    0.40580E-05   -0.22986E-06  4515   0.235E-03
   6 F= -.71113372E+03 E0= -.71112273E+03  d E =-.413346E-01
 trial-energy change:   -0.041335  1 .order   -0.041456   -0.078914   -0.003998
 step:   0.9842(harm=  0.9842)  dis= 0.02699  next Energy=  -711.133944 (dE=-0.416E-01)
 bond charge predicted
       N       E                     dE             d eps       ncg     rms          rms(c)
DAV:   1    -0.711133521625E+03    0.19838E-03   -0.76709E-02 11640   0.392E-01    0.622E-02
RMM:   2    -0.711133774102E+03   -0.25248E-03   -0.26700E-03 13254   0.103E-01    0.673E-02
RMM:   3    -0.711133816905E+03   -0.42803E-04   -0.65538E-04 14219   0.432E-02    0.451E-02
RMM:   4    -0.711133810652E+03    0.62533E-05   -0.88633E-05  9143   0.166E-02
   7 F= -.71113381E+03 E0= -.71112285E+03  d E =-.414293E-01
 curvature:  -0.77 expect dE=-0.286E-01 dE for cont linesearch -0.109E-04
 trial: gam= 0.43581 g(F)=  0.372E-01 g(S)=  0.000E+00 ort =-0.137E-02 (trialstep = 0.944E+00)
 search vector abs. value=  0.611E-01
 bond charge predicted
       N       E                     dE             d eps       ncg     rms          rms(c)
DAV:   1    -0.711104639983E+03    0.29177E-01   -0.12987E+01 10560   0.511E+00    0.775E-01
RMM:   2    -0.711145440855E+03   -0.40801E-01   -0.43061E-01 13036   0.134E+00    0.640E-01
RMM:   3    -0.711154822527E+03   -0.93817E-02   -0.10143E-01 15138   0.536E-01    0.578E-01
RMM:   4    -0.711155238685E+03   -0.41616E-03   -0.11160E-02 15264   0.177E-01    0.423E-01
RMM:   5    -0.711155085738E+03    0.15295E-03   -0.27516E-03 14891   0.760E-02    0.443E-01
RMM:   6    -0.711154585596E+03    0.50014E-03   -0.21929E-03 12379   0.613E-02    0.300E-01
RMM:   7    -0.711154217499E+03    0.36810E-03   -0.16268E-03 12636   0.535E-02    0.267E-01
RMM:   8    -0.711154001387E+03    0.21611E-03   -0.26185E-04 10373   0.262E-02    0.171E-01
RMM:   9    -0.711153868369E+03    0.13302E-03   -0.13579E-04  8881   0.155E-02    0.166E-01
RMM:  10    -0.711153764267E+03    0.10410E-03   -0.79888E-05  8494   0.124E-02    0.110E-01
RMM:  11    -0.711153708270E+03    0.55998E-04   -0.45690E-05  7146   0.101E-02    0.105E-01
RMM:  12    -0.711153667744E+03    0.40526E-04   -0.20420E-05  6279   0.734E-03    0.733E-02
RMM:  13    -0.711153643682E+03    0.24062E-04   -0.11192E-05  6049   0.574E-03    0.683E-02
RMM:  14    -0.711153625698E+03    0.17985E-04   -0.59411E-06  5910   0.401E-03    0.469E-02
RMM:  15    -0.711153615617E+03    0.10081E-04   -0.38169E-06  5585   0.325E-03    0.451E-02
RMM:  16    -0.711153607737E+03    0.78799E-05   -0.22693E-06  4886   0.252E-03
   8 F= -.71115361E+03 E0= -.71114252E+03  d E =-.197971E-01
 trial-energy change:   -0.019797  1 .order   -0.019496   -0.034602   -0.004390
 step:   1.0728(harm=  1.0815)  dis= 0.01278  next Energy=  -711.153907 (dE=-0.201E-01)
 bond charge predicted
       N       E                     dE             d eps       ncg     rms          rms(c)
DAV:   1    -0.711153043182E+03    0.57244E-03   -0.24051E-01 11616   0.695E-01    0.116E-01
RMM:   2    -0.711153824996E+03   -0.78181E-03   -0.78861E-03 12995   0.181E-01    0.144E-01
RMM:   3    -0.711154002665E+03   -0.17767E-03   -0.19348E-03 14992   0.736E-02    0.115E-01
RMM:   4    -0.711154001805E+03    0.85979E-06   -0.21752E-04 12263   0.258E-02    0.894E-02
RMM:   5    -0.711153983608E+03    0.18198E-04   -0.69176E-05  8598   0.158E-02    0.788E-02
RMM:   6    -0.711153959896E+03    0.23712E-04   -0.66286E-05  8826   0.110E-02    0.539E-02
RMM:   7    -0.711153948991E+03    0.10905E-04   -0.16827E-05  6192   0.780E-03    0.467E-02
RMM:   8    -0.711153940770E+03    0.82206E-05   -0.67295E-06  5945   0.499E-03
   9 F= -.71115394E+03 E0= -.71114284E+03  d E =-.201301E-01
 curvature:  -0.90 expect dE=-0.218E-01 dE for cont linesearch -0.217E-05
 trial: gam= 0.63510 g(F)=  0.242E-01 g(S)=  0.000E+00 ort = 0.385E-03 (trialstep = 0.970E+00)
 search vector abs. value=  0.494E-01
 bond charge predicted
       N       E                     dE             d eps       ncg     rms          rms(c)
DAV:   1    -0.711123778915E+03    0.30170E-01   -0.11129E+01 10624   0.479E+00    0.596E-01
RMM:   2    -0.711158426717E+03   -0.34648E-01   -0.36793E-01 13096   0.124E+00    0.368E-01
RMM:   3    -0.711167300175E+03   -0.88735E-02   -0.89024E-02 15170   0.511E-01    0.361E-01
RMM:   4    -0.711167316869E+03   -0.16694E-04   -0.10623E-02 14942   0.180E-01    0.234E-01
RMM:   5    -0.711166904489E+03    0.41238E-03   -0.25299E-03 14979   0.758E-02    0.147E-01
RMM:   6    -0.711166684968E+03    0.21952E-03   -0.15347E-03 12537   0.505E-02    0.875E-02
RMM:   7    -0.711166709253E+03   -0.24285E-04   -0.48331E-04 12556   0.310E-02    0.626E-02
RMM:   8    -0.711166700777E+03    0.84765E-05   -0.14888E-04  9292   0.160E-02    0.453E-02
RMM:   9    -0.711166688662E+03    0.12115E-04   -0.93884E-05  9313   0.111E-02    0.284E-02
RMM:  10    -0.711166688844E+03   -0.18201E-06   -0.30850E-05  7126   0.737E-03
  10 F= -.71116669E+03 E0= -.71115560E+03  d E =-.127481E-01
 trial-energy change:   -0.012748  1 .order   -0.012498   -0.023756   -0.001240
 step:   1.0199(harm=  1.0234)  dis= 0.01031  next Energy=  -711.166721 (dE=-0.128E-01)
 bond charge predicted
       N       E                     dE             d eps       ncg     rms          rms(c)
DAV:   1    -0.711166643583E+03    0.45079E-04   -0.29823E-02 11488   0.248E-01    0.310E-02
RMM:   2    -0.711166739144E+03   -0.95561E-04   -0.99744E-04 13033   0.630E-02    0.388E-02
RMM:   3    -0.711166761658E+03   -0.22514E-04   -0.23576E-04 12691   0.258E-02    0.358E-02
RMM:   4    -0.711166760139E+03    0.15195E-05   -0.29249E-05  6812   0.117E-02
  11 F= -.71116676E+03 E0= -.71115567E+03  d E =-.128194E-01
 curvature:  -1.03 expect dE=-0.136E-01 dE for cont linesearch -0.167E-05
 trial: gam= 0.55003 g(F)=  0.133E-01 g(S)=  0.000E+00 ort = 0.283E-03 (trialstep = 0.980E+00)
 search vector abs. value=  0.285E-01
 bond charge predicted
       N       E                     dE             d eps       ncg     rms          rms(c)
DAV:   1    -0.711148964798E+03    0.17797E-01   -0.68695E+00 10460   0.367E+00    0.444E-01
RMM:   2    -0.711169222892E+03   -0.20258E-01   -0.21596E-01 12712   0.926E-01    0.177E-01
RMM:   3    -0.711174260685E+03   -0.50378E-02   -0.52833E-02 15134   0.379E-01    0.248E-01
RMM:   4    -0.711174458405E+03   -0.19772E-03   -0.55609E-03 15054   0.129E-01    0.155E-01
RMM:   5    -0.711174197595E+03    0.26081E-03   -0.11665E-03 14893   0.517E-02    0.133E-01
RMM:   6    -0.711174201016E+03   -0.34207E-05   -0.66163E-04 12130   0.307E-02    0.150E-01
RMM:   7    -0.711174161123E+03    0.39893E-04   -0.51475E-04 11851   0.297E-02    0.128E-01
RMM:   8    -0.711174090977E+03    0.70147E-04   -0.91747E-05  9473   0.157E-02    0.736E-02
RMM:   9    -0.711174076047E+03    0.14930E-04   -0.40564E-05  7582   0.909E-03    0.823E-02
RMM:  10    -0.711174052652E+03    0.23394E-04   -0.27757E-05  6927   0.818E-03    0.447E-02
RMM:  11    -0.711174043561E+03    0.90915E-05   -0.11705E-05  6029   0.677E-03
  12 F= -.71117404E+03 E0= -.71116288E+03  d E =-.728342E-02
 trial-energy change:   -0.007283  1 .order   -0.006934   -0.013146   -0.000723
 step:   1.0284(harm=  1.0370)  dis= 0.00731  next Energy=  -711.174061 (dE=-0.730E-02)
 bond charge predicted
       N       E                     dE             d eps       ncg     rms          rms(c)
DAV:   1    -0.711174019582E+03    0.33070E-04   -0.17073E-02 11424   0.183E-01    0.343E-02
RMM:   2    -0.711174091946E+03   -0.72364E-04   -0.55097E-04 12413   0.470E-02    0.946E-02
RMM:   3    -0.711174093053E+03   -0.11076E-05   -0.14741E-04 11333   0.205E-02    0.380E-02
RMM:   4    -0.711174089161E+03    0.38925E-05   -0.18710E-05  6511   0.990E-03
  13 F= -.71117409E+03 E0= -.71116292E+03  d E =-.732902E-02
 curvature:  -1.08 expect dE=-0.746E-02 dE for cont linesearch -0.824E-05
 trial: gam= 0.49306 g(F)=  0.693E-02 g(S)=  0.000E+00 ort = 0.467E-03 (trialstep = 0.990E+00)
 search vector abs. value=  0.143E-01
 bond charge predicted
       N       E                     dE             d eps       ncg     rms          rms(c)
DAV:   1    -0.711164239472E+03    0.98536E-02   -0.34347E+00 10552   0.266E+00    0.342E-01
RMM:   2    -0.711175307934E+03   -0.11068E-01   -0.11571E-01 13145   0.685E-01    0.278E-01
RMM:   3    -0.711177828708E+03   -0.25208E-02   -0.25897E-02 15221   0.273E-01    0.258E-01
RMM:   4    -0.711177892802E+03   -0.64093E-04   -0.27648E-03 15004   0.903E-02    0.192E-01
RMM:   5    -0.711177856652E+03    0.36149E-04   -0.64613E-04 14025   0.379E-02    0.201E-01
RMM:   6    -0.711177653139E+03    0.20351E-03   -0.44021E-04 11389   0.290E-02    0.106E-01
RMM:   7    -0.711177616641E+03    0.36498E-04   -0.28881E-04 11060   0.231E-02    0.146E-01
RMM:   8    -0.711177565424E+03    0.51217E-04   -0.64948E-05  8523   0.142E-02    0.629E-02
RMM:   9    -0.711177539523E+03    0.25901E-04   -0.29922E-05  7043   0.837E-03    0.918E-02
RMM:  10    -0.711177516899E+03    0.22624E-04   -0.19667E-05  6434   0.715E-03    0.467E-02
RMM:  11    -0.711177507277E+03    0.96225E-05   -0.86423E-06  5964   0.586E-03
  14 F= -.71117751E+03 E0= -.71116640E+03  d E =-.341812E-02
 trial-energy change:   -0.003418  1 .order   -0.003360   -0.007085    0.000365
 step:   0.9433(harm=  0.9412)  dis= 0.00507  next Energy=  -711.177516 (dE=-0.343E-02)
 bond charge predicted
       N       E                     dE             d eps       ncg     rms          rms(c)
DAV:   1    -0.711177472023E+03    0.44876E-04   -0.74820E-03 10752   0.125E-01    0.382E-02
RMM:   2    -0.711177528778E+03   -0.56755E-04   -0.27541E-04 12471   0.343E-02    0.113E-01
RMM:   3    -0.711177516198E+03    0.12580E-04   -0.68462E-05  9150   0.152E-02    0.404E-02
RMM:   4    -0.711177512449E+03    0.37492E-05   -0.13317E-05  6007   0.911E-03
  15 F= -.71117751E+03 E0= -.71116641E+03  d E =-.342329E-02
 curvature:  -0.94 expect dE=-0.273E-02 dE for cont linesearch -0.109E-04
 trial: gam= 0.43046 g(F)=  0.291E-02 g(S)=  0.000E+00 ort = 0.407E-03 (trialstep = 0.980E+00)
 search vector abs. value=  0.591E-02
 bond charge predicted
       N       E                     dE             d eps       ncg     rms          rms(c)
DAV:   1    -0.711173691530E+03    0.38247E-02   -0.14010E+00 10484   0.168E+00    0.206E-01
RMM:   2    -0.711177996960E+03   -0.43054E-02   -0.45878E-02 12889   0.432E-01    0.935E-02
RMM:   3    -0.711179022700E+03   -0.10257E-02   -0.10731E-02 15191   0.173E-01    0.108E-01
RMM:   4    -0.711179094279E+03   -0.71579E-04   -0.11321E-03 14756   0.569E-02    0.941E-02
RMM:   5    -0.711179060710E+03    0.33569E-04   -0.23091E-04 12392   0.248E-02    0.771E-02
RMM:   6    -0.711179028145E+03    0.32565E-04   -0.30389E-04 11047   0.222E-02    0.552E-02
RMM:   7    -0.711179019063E+03    0.90817E-05   -0.68240E-05  8281   0.130E-02
  16 F= -.71117902E+03 E0= -.71116793E+03  d E =-.150661E-02
 trial-energy change:   -0.001507  1 .order   -0.001574   -0.003020   -0.000128
 step:   1.0311(harm=  1.0237)  dis= 0.00358  next Energy=  -711.179022 (dE=-0.151E-02)
 bond charge predicted
       N       E                     dE             d eps       ncg     rms          rms(c)
DAV:   1    -0.711178984644E+03    0.43501E-04   -0.38943E-03 11792   0.905E-02    0.338E-02
RMM:   2    -0.711179009616E+03   -0.24972E-04   -0.18370E-04 11403   0.270E-02    0.696E-02
RMM:   3    -0.711179008483E+03    0.11336E-05   -0.52205E-05  8327   0.128E-02
  17 F= -.71117901E+03 E0= -.71116794E+03  d E =-.149603E-02
 curvature:  -0.95 expect dE=-0.164E-02 dE for cont linesearch -0.151E-04
 trial: gam= 0.64898 g(F)=  0.172E-02 g(S)=  0.000E+00 ort =-0.307E-03 (trialstep = 0.991E+00)
 search vector abs. value=  0.381E-02
 bond charge predicted
       N       E                     dE             d eps       ncg     rms          rms(c)
DAV:   1    -0.711176347763E+03    0.26619E-02   -0.92088E-01 10504   0.137E+00    0.197E-01
RMM:   2    -0.711179176199E+03   -0.28284E-02   -0.29034E-02 12696   0.348E-01    0.248E-01
RMM:   3    -0.711179889780E+03   -0.71358E-03   -0.76368E-03 15153   0.148E-01    0.161E-01
RMM:   4    -0.711179896475E+03   -0.66950E-05   -0.77986E-04 14202   0.497E-02    0.166E-01
RMM:   5    -0.711179830878E+03    0.65597E-04   -0.18825E-04 11193   0.233E-02    0.979E-02
RMM:   6    -0.711179793239E+03    0.37639E-04   -0.12474E-04  9127   0.156E-02    0.980E-02
RMM:   7    -0.711179744638E+03    0.48601E-04   -0.14228E-04 10335   0.159E-02    0.658E-02
RMM:   8    -0.711179727377E+03    0.17260E-04   -0.22351E-05  6537   0.914E-03    0.569E-02
RMM:   9    -0.711179715695E+03    0.11683E-04   -0.79546E-06  5950   0.542E-03    0.428E-02
RMM:  10    -0.711179708186E+03    0.75087E-05   -0.55819E-06  5907   0.443E-03
  18 F= -.71117971E+03 E0= -.71116862E+03  d E =-.699703E-03
 trial-energy change:   -0.000700  1 .order   -0.000572   -0.001510    0.000366
 step:   0.8474(harm=  0.7975)  dis= 0.00237  next Energy=  -711.179734 (dE=-0.726E-03)
 bond charge predicted
       N       E                     dE             d eps       ncg     rms          rms(c)
DAV:   1    -0.711179638378E+03    0.77317E-04   -0.19045E-02 10568   0.197E-01    0.274E-02
RMM:   2    -0.711179694600E+03   -0.56222E-04   -0.62809E-04 12688   0.513E-02    0.340E-02
RMM:   3    -0.711179709492E+03   -0.14892E-04   -0.16229E-04 11924   0.217E-02    0.320E-02
RMM:   4    -0.711179709421E+03    0.70722E-07   -0.19125E-05  6403   0.101E-02
  19 F= -.71117971E+03 E0= -.71116863E+03  d E =-.700938E-03
 curvature:  -0.93 expect dE=-0.668E-03 dE for cont linesearch -0.465E-05
 trial: gam= 0.27232 g(F)=  0.718E-03 g(S)=  0.000E+00 ort = 0.138E-03 (trialstep = 0.962E+00)
 search vector abs. value=  0.108E-02
 bond charge predicted
       N       E                     dE             d eps       ncg     rms          rms(c)
DAV:   1    -0.711179028788E+03    0.68070E-03   -0.23198E-01 10720   0.719E-01    0.838E-02
RMM:   2    -0.711179845900E+03   -0.81711E-03   -0.85772E-03 13562   0.193E-01    0.659E-02
RMM:   3    -0.711180028327E+03   -0.18243E-03   -0.18137E-03 15151   0.757E-02    0.721E-02
RMM:   4    -0.711180015804E+03    0.12523E-04   -0.22202E-04 12261   0.269E-02    0.508E-02
RMM:   5    -0.711180011485E+03    0.43198E-05   -0.58977E-05  8628   0.143E-02
  20 F= -.71118001E+03 E0= -.71116889E+03  d E =-.302064E-03
 trial-energy change:   -0.000302  1 .order   -0.000300   -0.000727    0.000128
 step:   0.8182(harm=  0.8182)  dis= 0.00099  next Energy=  -711.180019 (dE=-0.309E-03)
 bond charge predicted
       N       E                     dE             d eps       ncg     rms          rms(c)
DAV:   1    -0.711179971151E+03    0.44653E-04   -0.53083E-03 10944   0.113E-01    0.293E-02
RMM:   2    -0.711180007233E+03   -0.36082E-04   -0.25471E-04 12955   0.346E-02    0.697E-02
RMM:   3    -0.711180004109E+03    0.31239E-05   -0.54929E-05  8664   0.141E-02
  21 F= -.71118000E+03 E0= -.71116891E+03  d E =-.294688E-03
 curvature:  -0.58 expect dE=-0.190E-03 dE for cont linesearch -0.981E-05
 ZBRENT: interpolating
 opt :   0.8906  next Energy=  -711.180016 (dE=-0.307E-03)
 bond charge predicted
       N       E                     dE             d eps       ncg     rms          rms(c)
DAV:   1    -0.711179998045E+03    0.91877E-05   -0.12652E-03 11556   0.548E-02    0.462E-02
RMM:   2    -0.711180053073E+03   -0.55027E-04   -0.94092E-05  9099   0.200E-02    0.117E-01
RMM:   3    -0.711180028020E+03    0.25053E-04   -0.22414E-05  6017   0.973E-03    0.547E-02
RMM:   4    -0.711180016575E+03    0.11445E-04   -0.84655E-06  5866   0.675E-03    0.490E-02
RMM:   5    -0.711180006397E+03    0.10178E-04   -0.49003E-06  5777   0.460E-03    0.289E-02
RMM:   6    -0.711180000747E+03    0.56497E-05   -0.22806E-06  5740   0.332E-03
  22 F= -.71118000E+03 E0= -.71116891E+03  d E =-.291326E-03
 curvature:  -0.28 expect dE=-0.106E-03 dE for cont linesearch -0.179E-05
 ZBRENT: bisectioning
 opt :   0.8544  next Energy=  -711.180003 (dE=-0.294E-03)
 bond charge predicted
       N       E                     dE             d eps       ncg     rms          rms(c)
DAV:   1    -0.711179996252E+03    0.10145E-04   -0.33093E-04 10536   0.277E-02    0.193E-02
RMM:   2    -0.711180005141E+03   -0.88890E-05   -0.14903E-05  5736   0.980E-03
  23 F= -.71118001E+03 E0= -.71116892E+03  d E =-.295720E-03
 curvature:  -0.40 expect dE=-0.145E-03 dE for cont linesearch -0.142E-05
 trial: gam= 0.49629 g(F)=  0.363E-03 g(S)=  0.000E+00 ort = 0.620E-04 (trialstep = 0.940E+00)
 search vector abs. value=  0.690E-03
 bond charge predicted
       N       E                     dE             d eps       ncg     rms          rms(c)
DAV:   1    -0.711179649950E+03    0.34630E-03   -0.13991E-01 10742   0.557E-01    0.639E-02
RMM:   2    -0.711180086987E+03   -0.43704E-03   -0.46284E-03 13166   0.146E-01    0.451E-02
RMM:   3    -0.711180203328E+03   -0.11634E-03   -0.11422E-03 14552   0.611E-02    0.519E-02
RMM:   4    -0.711180197718E+03    0.56101E-05   -0.16120E-04 11585   0.233E-02    0.363E-02
RMM:   5    -0.711180195588E+03    0.21295E-05   -0.36374E-05  7424   0.120E-02
  24 F= -.71118020E+03 E0= -.71116909E+03  d E =-.190448E-03
 trial-energy change:   -0.000190  1 .order   -0.000187   -0.000370   -0.000004
 step:   0.9512(harm=  0.9512)  dis= 0.00097  next Energy=  -711.180192 (dE=-0.187E-03)
 bond charge predicted
       N       E                     dE             d eps       ncg     rms          rms(c)
DAV:   1    -0.711180190810E+03    0.69082E-05   -0.23972E-05  7568   0.150E-02    0.243E-02
RMM:   2    -0.711180196353E+03   -0.55435E-05   -0.14138E-05  5918   0.857E-03
  25 F= -.71118020E+03 E0= -.71116908E+03  d E =-.191212E-03
 curvature:  -0.83 expect dE=-0.189E-03 dE for cont linesearch -0.110E-05
 trial: gam= 0.56467 g(F)=  0.227E-03 g(S)=  0.000E+00 ort =-0.302E-04 (trialstep = 0.943E+00)
 search vector abs. value=  0.412E-03
 bond charge predicted
       N       E                     dE             d eps       ncg     rms          rms(c)
DAV:   1    -0.711179945067E+03    0.24574E-03   -0.86781E-02 10672   0.424E-01    0.809E-02
RMM:   2    -0.711180237408E+03   -0.29234E-03   -0.29396E-03 13050   0.113E-01    0.117E-01
RMM:   3    -0.711180296370E+03   -0.58962E-04   -0.73726E-04 14720   0.466E-02    0.595E-02
RMM:   4    -0.711180300673E+03   -0.43032E-05   -0.96522E-05 10103   0.173E-02
  26 F= -.71118030E+03 E0= -.71116921E+03  d E =-.104320E-03
 trial-energy change:   -0.000104  1 .order   -0.000032   -0.000197    0.000133
 step:   0.7579(harm=  0.5638)  dis= 0.00065  next Energy=  -711.180313 (dE=-0.117E-03)
 bond charge predicted
       N       E                     dE             d eps       ncg     rms          rms(c)
DAV:   1    -0.711180269384E+03    0.26986E-04   -0.33430E-03 11072   0.858E-02    0.297E-02
RMM:   2    -0.711180296166E+03   -0.26782E-04   -0.16862E-04 11559   0.287E-02    0.834E-02
RMM:   3    -0.711180285368E+03    0.10797E-04   -0.45405E-05  7715   0.126E-02    0.302E-02
RMM:   4    -0.711180284638E+03    0.73027E-06   -0.14864E-05  5982   0.885E-03
  27 F= -.71118028E+03 E0= -.71116920E+03  d E =-.882848E-04
 curvature:  -0.41 expect dE=-0.709E-04 dE for cont linesearch -0.194E-05
 ZBRENT: interpolating
 opt :   0.8021  next Energy=  -711.180286 (dE=-0.893E-04)
 bond charge predicted
       N       E                     dE             d eps       ncg     rms          rms(c)
DAV:   1    -0.711180276449E+03    0.89195E-05   -0.18548E-04 11762   0.220E-02    0.159E-02
RMM:   2    -0.711180285320E+03   -0.88715E-05   -0.10819E-05  5825   0.774E-03
  28 F= -.71118029E+03 E0= -.71116920E+03  d E =-.889671E-04
 curvature:  -0.21 expect dE=-0.453E-04 dE for cont linesearch -0.343E-05
 ZBRENT: interpolating
 opt :   0.7733  next Energy=  -711.180285 (dE=-0.886E-04)
 bond charge predicted
       N       E                     dE             d eps       ncg     rms          rms(c)
DAV:   1    -0.711180277354E+03   -0.90567E-06   -0.78548E-05  9072   0.147E-02    0.123E-02
RMM:   2    -0.711180284671E+03   -0.73164E-05   -0.88682E-06  5433   0.716E-03
  29 F= -.71118028E+03 E0= -.71116919E+03  d E =-.883177E-04
 curvature:  -0.02 expect dE=-0.400E-05 dE for cont linesearch -0.214E-07
 trial: gam= 0.96616 g(F)=  0.197E-03 g(S)=  0.000E+00 ort = 0.208E-04 (trialstep = 0.603E+00)
 search vector abs. value=  0.622E-03
 bond charge predicted
       N       E                     dE             d eps       ncg     rms          rms(c)
DAV:   1    -0.711180122651E+03    0.15470E-03   -0.51968E-02 10792   0.337E-01    0.406E-02
RMM:   2    -0.711180280818E+03   -0.15817E-03   -0.17289E-03 13116   0.878E-02    0.235E-02
RMM:   3    -0.711180319667E+03   -0.38850E-04   -0.42077E-04 14247   0.360E-02    0.212E-02
RMM:   4    -0.711180322143E+03   -0.24756E-05   -0.51446E-05  7834   0.141E-02
  30 F= -.71118032E+03 E0= -.71116924E+03  d E =-.374719E-04
 trial-energy change:   -0.000037  1 .order   -0.000044   -0.000131    0.000043
 step:   0.4539(harm=  0.4539)  dis= 0.00051  next Energy=  -711.180334 (dE=-0.492E-04)
 bond charge predicted
       N       E                     dE             d eps       ncg     rms          rms(c)
DAV:   1    -0.711180301401E+03    0.18266E-04   -0.31066E-03 11040   0.834E-02    0.217E-02
RMM:   2    -0.711180321958E+03   -0.20557E-04   -0.14007E-04 11883   0.243E-02    0.495E-02
RMM:   3    -0.711180318210E+03    0.37484E-05   -0.30597E-05  6560   0.116E-02
  31 F= -.71118032E+03 E0= -.71116922E+03  d E =-.335390E-04
 curvature:  -0.65 expect dE=-0.811E-04 dE for cont linesearch -0.181E-04
 ZBRENT: interpolating
 opt :   0.5504  next Energy=  -711.180324 (dE=-0.393E-04)
 bond charge predicted
       N       E                     dE             d eps       ncg     rms          rms(c)
DAV:   1    -0.711180318174E+03    0.37844E-05   -0.12608E-03 11106   0.532E-02    0.310E-02
RMM:   2    -0.711180336727E+03   -0.18554E-04   -0.61990E-05  8756   0.165E-02    0.683E-02
RMM:   3    -0.711180332297E+03    0.44307E-05   -0.11489E-05  5943   0.795E-03
  32 F= -.71118033E+03 E0= -.71116925E+03  d E =-.476258E-04
 curvature:  -0.07 expect dE=-0.969E-05 dE for cont linesearch -0.266E-06
 ZBRENT: bisectioning
 opt :   0.5022  next Energy=  -711.180334 (dE=-0.496E-04)
 bond charge predicted
       N       E                     dE             d eps       ncg     rms          rms(c)
DAV:   1    -0.711180323889E+03    0.12839E-04   -0.32180E-04 10344   0.279E-02    0.348E-02
RMM:   2    -0.711180350794E+03   -0.26906E-04   -0.24385E-05  6215   0.114E-02    0.932E-02
RMM:   3    -0.711180338777E+03    0.12017E-04   -0.73739E-06  5605   0.615E-03    0.407E-02
RMM:   4    -0.711180333777E+03    0.50005E-05   -0.34696E-06  5603   0.407E-03
  33 F= -.71118033E+03 E0= -.71116925E+03  d E =-.491058E-04
 curvature:  -0.48 expect dE=-0.762E-04 dE for cont linesearch -0.555E-05
 ZBRENT: interpolating
 opt :   0.5325  next Energy=  -711.180333 (dE=-0.481E-04)
 bond charge predicted
       N       E                     dE             d eps       ncg     rms          rms(c)
DAV:   1    -0.711180326837E+03    0.11941E-04   -0.14738E-04 11034   0.183E-02    0.239E-02
RMM:   2    -0.711180339112E+03   -0.12276E-04   -0.84137E-06  5348   0.669E-03    0.753E-02
RMM:   3    -0.711180330786E+03    0.83266E-05   -0.29903E-06  5264   0.401E-03
  34 F= -.71118033E+03 E0= -.71116923E+03  d E =-.461147E-04
 curvature:  -0.04 expect dE=-0.433E-05 dE for cont linesearch -0.413E-07
 ZBRENT: interpolating
 opt :   0.5179  next Energy=  -711.180331 (dE=-0.463E-04)
 bond charge predicted
       N       E                     dE             d eps       ncg     rms          rms(c)
DAV:   1    -0.711180327251E+03    0.11861E-04   -0.51560E-05  6944   0.109E-02    0.429E-02
RMM:   2    -0.711180358174E+03   -0.30923E-04   -0.10923E-05  5449   0.603E-03    0.101E-01
RMM:   3    -0.711180346986E+03    0.11188E-04   -0.70565E-06  5180   0.472E-03    0.527E-02
RMM:   4    -0.711180338700E+03    0.82867E-05   -0.25661E-06  4903   0.302E-03
  35 F= -.71118034E+03 E0= -.71116923E+03  d E =-.540288E-04
 curvature:  -0.22 expect dE=-0.241E-04 dE for cont linesearch -0.509E-06
 ZBRENT: interpolating
 opt :   0.5266  next Energy=  -711.180331 (dE=-0.462E-04)
 bond charge predicted
       N       E                     dE             d eps       ncg     rms          rms(c)
DAV:   1    -0.711180333091E+03    0.13895E-04   -0.40102E-05  5538   0.102E-02    0.431E-02
RMM:   2    -0.711180366743E+03   -0.33651E-04   -0.82498E-06  5281   0.564E-03    0.112E-01
RMM:   3    -0.711180352037E+03    0.14706E-04   -0.64447E-06  5166   0.470E-03    0.514E-02
RMM:   4    -0.711180342985E+03    0.90521E-05   -0.31713E-06  4707   0.327E-03
  36 F= -.71118034E+03 E0= -.71116924E+03  d E =-.583136E-04
 curvature:  -0.03 expect dE=-0.369E-05 dE for cont linesearch -0.281E-07
 ZBRENT: bisectioning
 opt :   0.5223  next Energy=  -711.180343 (dE=-0.584E-04)
 bond charge predicted
       N       E                     dE             d eps       ncg     rms          rms(c)
DAV:   1    -0.711180333791E+03    0.18246E-04   -0.44071E-05  5416   0.832E-03    0.362E-02
RMM:   2    -0.711180361543E+03   -0.27753E-04   -0.46262E-06  4993   0.354E-03    0.106E-01
RMM:   3    -0.711180346089E+03    0.15455E-04   -0.49455E-06  4539   0.398E-03    0.420E-02
RMM:   4    -0.711180340010E+03    0.60792E-05   -0.26449E-06  3739   0.292E-03
  37 F= -.71118034E+03 E0= -.71116923E+03  d E =-.553387E-04
 curvature:  -0.11 expect dE=-0.126E-04 dE for cont linesearch -0.138E-06
 ZBRENT: interpolating
 opt :   0.5246  next Energy=  -711.180343 (dE=-0.583E-04)
 bond charge predicted
       N       E                     dE             d eps       ncg     rms          rms(c)
DAV:   1    -0.711180330891E+03    0.15198E-04   -0.37700E-05  5408   0.752E-03    0.277E-02
RMM:   2    -0.711180349590E+03   -0.18700E-04   -0.24889E-06  3805   0.260E-03    0.922E-02
RMM:   3    -0.711180336858E+03    0.12733E-04   -0.29938E-06  3682   0.310E-03    0.305E-02
RMM:   4    -0.711180333372E+03    0.34856E-05   -0.19787E-06  3359   0.252E-03
  38 F= -.71118033E+03 E0= -.71116923E+03  d E =-.487012E-04
 curvature:  -0.02 expect dE=-0.204E-05 dE for cont linesearch -0.648E-09
 trial: gam= 0.37067 g(F)=  0.109E-03 g(S)=  0.000E+00 ort =-0.464E-05 (trialstep = 0.587E+00)
 search vector abs. value=  0.191E-03
 bond charge predicted
       N       E                     dE             d eps       ncg     rms          rms(c)
DAV:   1    -0.711180308193E+03    0.28665E-04   -0.14772E-02 10688   0.184E-01    0.251E-02
RMM:   2    -0.711180366577E+03   -0.58384E-04   -0.54019E-04 13402   0.508E-02    0.671E-02
RMM:   3    -0.711180372354E+03   -0.57774E-05   -0.13474E-04 11943   0.209E-02    0.235E-02
RMM:   4    -0.711180372598E+03   -0.24382E-06   -0.17552E-05  6109   0.103E-02
  39 F= -.71118037E+03 E0= -.71116927E+03  d E =-.392258E-04
 trial-energy change:   -0.000039  1 .order   -0.000034   -0.000063   -0.000005
 step:   0.6331(harm=  0.6331)  dis= 0.00036  next Energy=  -711.180367 (dE=-0.340E-04)
 bond charge predicted
       N       E                     dE             d eps       ncg     rms          rms(c)
DAV:   1    -0.711180368540E+03    0.38144E-05   -0.12663E-04 11592   0.187E-02    0.120E-02
RMM:   2    -0.711180372823E+03   -0.42831E-05   -0.87020E-06  5834   0.731E-03
  40 F= -.71118037E+03 E0= -.71116927E+03  d E =-.394506E-04
 curvature:  -0.56 expect dE=-0.216E-04 dE for cont linesearch -0.217E-05
 ZBRENT: increasing intervall
 opt :   0.7253  next Energy=  -711.180377 (dE=-0.437E-04)
 bond charge predicted
       N       E                     dE             d eps       ncg     rms          rms(c)
DAV:   1    -0.711180368225E+03    0.31447E-06   -0.37071E-04 11392   0.307E-02    0.995E-03
RMM:   2    -0.711180372995E+03   -0.47694E-05   -0.19007E-05  5872   0.108E-02
  41 F= -.71118037E+03 E0= -.71116927E+03  d E =-.396225E-04
 curvature:  -1.11 expect dE=-0.488E-04 dE for cont linesearch -0.171E-06
 trial: gam= 0.38625 g(F)=  0.439E-04 g(S)=  0.000E+00 ort =-0.541E-05 (trialstep = 0.615E+00)
 search vector abs. value=  0.682E-04
 bond charge predicted
       N       E                     dE             d eps       ncg     rms          rms(c)
DAV:   1    -0.711180362985E+03    0.52399E-05   -0.59028E-03 11016   0.117E-01    0.142E-02
RMM:   2    -0.711180383161E+03   -0.20175E-04   -0.23619E-04 13175   0.338E-02    0.254E-02
RMM:   3    -0.711180387134E+03   -0.39739E-05   -0.60475E-05  9406   0.143E-02
  42 F= -.71118039E+03 E0= -.71116929E+03  d E =-.141399E-04
 trial-energy change:   -0.000014  1 .order   -0.000011   -0.000026    0.000004
 step:   0.5349(harm=  0.5349)  dis= 0.00014  next Energy=  -711.180384 (dE=-0.112E-04)
 bond charge predicted
       N       E                     dE             d eps       ncg     rms          rms(c)
DAV:   1    -0.711180385278E+03   -0.21173E-05   -0.92678E-05  9912   0.179E-02    0.233E-02
RMM:   2    -0.711180392646E+03   -0.73682E-05   -0.10935E-05  5655   0.783E-03
  43 F= -.71118039E+03 E0= -.71116930E+03  d E =-.196514E-04
 curvature:  -0.44 expect dE=-0.526E-04 dE for cont linesearch -0.154E-04
 ZBRENT: interpolating
 opt :   0.6057  next Energy=  -711.180387 (dE=-0.142E-04)
 bond charge predicted
       N       E                     dE             d eps       ncg     rms          rms(c)
DAV:   1    -0.711180392521E+03   -0.72437E-05   -0.63193E-05 10576   0.158E-02    0.300E-02
RMM:   2    -0.711180414769E+03   -0.22248E-04   -0.16333E-05  5592   0.847E-03    0.819E-02
RMM:   3    -0.711180403304E+03    0.11465E-04   -0.69978E-06  5241   0.510E-03    0.354E-02
RMM:   4    -0.711180397838E+03    0.54661E-05   -0.25738E-06  5226   0.318E-03
  44 F= -.71118040E+03 E0= -.71116931E+03  d E =-.248430E-04
 curvature:  -0.00 expect dE=-0.498E-07 dE for cont linesearch -0.843E-09
 trial: gam= 1.30853 g(F)=  0.626E-04 g(S)=  0.000E+00 ort = 0.851E-05 (trialstep = 0.207E+00)
 search vector abs. value=  0.202E-03
 bond charge predicted
       N       E                     dE             d eps       ncg     rms          rms(c)
DAV:   1    -0.711180396019E+03    0.72849E-05   -0.20170E-03 10824   0.667E-02    0.117E-02
RMM:   2    -0.711180401423E+03   -0.54038E-05   -0.78604E-05  9151   0.193E-02
  45 F= -.71118040E+03 E0= -.71116931E+03  d E =-.358498E-05
 trial-energy change:   -0.000004  1 .order   -0.000008   -0.000015    0.000000
 step:   0.2070(harm=  0.2070)  dis= 0.00011  next Energy=  -711.180405 (dE=-0.764E-05)
 bond charge predicted
       N       E                     dE             d eps       ncg     rms          rms(c)
DAV:   1    -0.711180400494E+03   -0.44750E-05   -0.20759E-05  7824   0.974E-03    0.125E-02
RMM:   2    -0.711180406564E+03   -0.60704E-05   -0.79097E-06  5298   0.643E-03
  46 F= -.71118041E+03 E0= -.71116930E+03  d E =-.872662E-05
 curvature:  -0.28 expect dE=-0.134E-04 dE for cont linesearch -0.410E-05
 ZBRENT: interpolating
 opt :   0.2073  next Energy=  -711.180401 (dE=-0.358E-05)
 bond charge predicted
       N       E                     dE             d eps       ncg     rms          rms(c)
DAV:   1    -0.711180402479E+03   -0.19851E-05   -0.73486E-06  5448   0.885E-03    0.135E-02
RMM:   2    -0.711180407102E+03   -0.46227E-05   -0.17717E-06  5066   0.317E-03
  47 F= -.71118041E+03 E0= -.71116931E+03  d E =-.926400E-05
 curvature:  -0.00 expect dE=-0.590E-13 dE for cont linesearch -0.217E-13
 ZBRENT: interpolating
 opt :   0.2073  next Energy=  -711.180401 (dE=-0.358E-05)
 bond charge predicted
       N       E                     dE             d eps       ncg     rms          rms(c)
DAV:   1    -0.711180403583E+03   -0.11042E-05   -0.48979E-06  5344   0.690E-03    0.139E-02
RMM:   2    -0.711180410762E+03   -0.71791E-05   -0.21643E-06  4942   0.252E-03
  48 F= -.71118041E+03 E0= -.71116931E+03  d E =-.129246E-04
 curvature:  -0.00 expect dE=-0.659E-16 dE for cont linesearch -0.259E-16
 ZBRENT:  accuracy reached
 opt :   0.0000  next Energy=     0.000000 (dE= 0.711E+03)
 bond charge predicted
       N       E                     dE             d eps       ncg     rms          rms(c)
DAV:   1    -0.711180386191E+03    0.17392E-04   -0.19569E-03 10840   0.661E-02    0.287E-02
RMM:   2    -0.711180416096E+03   -0.29905E-04   -0.81188E-05  9232   0.194E-02    0.908E-02
RMM:   3    -0.711180403766E+03    0.12330E-04   -0.18297E-05  6521   0.902E-03    0.276E-02
RMM:   4    -0.711180401591E+03    0.21751E-05   -0.68654E-06  5908   0.660E-03
  49 F= -.71118040E+03 E0= -.71116931E+03  d E =-.375300E-05
 curvature:   0.00 expect dE= 0.000E+00 dE for cont linesearch  0.000E+00
 -----------------------------------------------------------------------------
|                                                                             |
|     EEEEEEE  RRRRRR   RRRRRR   OOOOOOO  RRRRRR      ###     ###     ###     |
|     E        R     R  R     R  O     O  R     R     ###     ###     ###     |
|     E        R     R  R     R  O     O  R     R     ###     ###     ###     |
|     EEEEE    RRRRRR   RRRRRR   O     O  RRRRRR       #       #       #      |
|     E        R   R    R   R    O     O  R   R                               |
|     E        R    R   R    R   O     O  R    R      ###     ###     ###     |
|     EEEEEEE  R     R  R     R  OOOOOOO  R     R     ###     ###     ###     |
|                                                                             |
|     ZBRENT: fatal error in bracketing                                       |
|      please rerun with smaller EDIFF, or copy CONTCAR                       |
|      to POSCAR and continue                                                 |
|                                                                             |
|       ---->  I REFUSE TO CONTINUE WITH THIS SICK JOB ... BYE!!! <----       |
|                                                                             |
 -----------------------------------------------------------------------------

Warning: ieee_invalid is signaling
Warning: ieee_divide_by_zero is signaling
Warning: ieee_underflow is signaling
Warning: ieee_inexact is signaling
Warning: ieee_invalid is signaling
Warning: ieee_divide_by_zero is signaling
Warning: ieee_underflow is signaling
Warning: ieee_inexact is signaling
    1
Warning: ieee_invalid is signaling
Warning: ieee_divide_by_zero is signaling
Warning: ieee_underflow is signaling
Warning: ieee_inexact is signaling
    1
    1
Warning: ieee_invalid is signaling
Warning: ieee_divide_by_zero is signaling
Warning: ieee_underflow is signaling
Warning: ieee_inexact is signaling
    1
--------------------------------------------------------------------------
Primary job  terminated normally, but 1 process returned
a non-zero exit code. Per user-direction, the job has been aborted.
--------------------------------------------------------------------------
--------------------------------------------------------------------------
mpirun detected that one or more processes exited with non-zero status, thus causing
the job to be terminated. The first process to do so was:

  Process name: [[46252,1],0]
  Exit code:    1
--------------------------------------------------------------------------
