       N       E                     dE             d eps       ncg     rms          rms(c)
DAV:   1     0.220161840392E+05    0.22016E+05   -0.32402E+05  1268   0.281E+03
DAV:   2     0.489306536982E+04   -0.17123E+05   -0.16128E+05  1268   0.820E+02
DAV:   3    -0.132974358361E+03   -0.50260E+04   -0.47103E+04  1604   0.322E+02
DAV:   4    -0.781553439448E+03   -0.64858E+03   -0.63047E+03  1544   0.123E+02
DAV:   5    -0.832195505766E+03   -0.50642E+02   -0.50186E+02  1856   0.370E+01    0.771E+01
RMM:   6    -0.837613344744E+03   -0.54178E+01   -0.82172E+02  1742   0.323E+01    0.127E+02
RMM:   7    -0.758375796997E+03    0.79238E+02   -0.15559E+02  1845   0.141E+01    0.758E+01
RMM:   8    -0.734777301812E+03    0.23598E+02   -0.78312E+01  1652   0.864E+00    0.488E+01
RMM:   9    -0.718641126434E+03    0.16136E+02   -0.11645E+01  1811   0.456E+00    0.234E+01
RMM:  10    -0.712359983364E+03    0.62811E+01   -0.66825E+00  1795   0.241E+00    0.178E+01
RMM:  11    -0.710474141402E+03    0.18858E+01   -0.27147E+00  1830   0.156E+00    0.151E+01
RMM:  12    -0.709867363842E+03    0.60678E+00   -0.29343E+00  1657   0.140E+00    0.129E+01
RMM:  13    -0.711334212210E+03   -0.14668E+01   -0.26052E+00  1692   0.166E+00    0.183E+01
RMM:  14    -0.709719772690E+03    0.16144E+01   -0.98397E-01  1747   0.119E+00    0.696E+00
RMM:  15    -0.709535578456E+03    0.18419E+00   -0.24650E-01  1801   0.715E-01    0.745E+00
RMM:  16    -0.709528102276E+03    0.74762E-02   -0.36192E-01  1853   0.634E-01    0.425E+00
RMM:  17    -0.709466647061E+03    0.61455E-01   -0.83814E-02  1840   0.284E-01    0.396E+00
RMM:  18    -0.709451864587E+03    0.14782E-01   -0.11849E-02  1888   0.107E-01    0.382E+00
RMM:  19    -0.709427793845E+03    0.24071E-01   -0.10451E-02  1653   0.111E-01    0.378E+00
RMM:  20    -0.709295750541E+03    0.13204E+00   -0.53486E-02  1789   0.226E-01    0.225E+00
RMM:  21    -0.709300217382E+03   -0.44668E-02   -0.95739E-03  1901   0.101E-01    0.237E+00
RMM:  22    -0.709298359035E+03    0.18583E-02   -0.44578E-03  1681   0.730E-02    0.212E+00
RMM:  23    -0.709278091214E+03    0.20268E-01   -0.17044E-02  1788   0.120E-01    0.199E+00
RMM:  24    -0.709284771284E+03   -0.66801E-02   -0.50791E-03  1876   0.101E-01    0.199E+00
RMM:  25    -0.709273013882E+03    0.11757E-01   -0.29372E-03  1732   0.621E-02    0.112E+00
RMM:  26    -0.709271057897E+03    0.19560E-02   -0.45110E-03  1795   0.689E-02    0.929E-01
RMM:  27    -0.709269666746E+03    0.13912E-02   -0.43645E-03  1807   0.747E-02    0.915E-01
RMM:  28    -0.709267957264E+03    0.17095E-02   -0.14156E-03  1746   0.463E-02    0.275E-01
RMM:  29    -0.709268770003E+03   -0.81274E-03   -0.85584E-04  1522   0.311E-02    0.836E-01
RMM:  30    -0.709268171895E+03    0.59811E-03   -0.21893E-04  1371   0.220E-02    0.295E-01
RMM:  31    -0.709268894552E+03   -0.72266E-03   -0.11192E-04  1320   0.141E-02    0.927E-01
RMM:  32    -0.709268000187E+03    0.89436E-03   -0.94213E-05  1231   0.164E-02    0.195E-01
RMM:  33    -0.709268079165E+03   -0.78978E-04   -0.55529E-05   982   0.118E-02    0.472E-01
RMM:  34    -0.709267927904E+03    0.15126E-03   -0.14219E-05   777   0.629E-03    0.284E-01
RMM:  35    -0.709267887343E+03    0.40561E-04   -0.74779E-06   755   0.430E-03    0.310E-01
RMM:  36    -0.709267759236E+03    0.12811E-03   -0.21649E-05   831   0.498E-03    0.128E-01
RMM:  37    -0.709267744883E+03    0.14353E-04   -0.14679E-05   775   0.624E-03    0.113E-01
RMM:  38    -0.709267731403E+03    0.13480E-04   -0.29997E-05   905   0.646E-03    0.533E-02
RMM:  39    -0.709267732802E+03   -0.13992E-05   -0.12849E-05   788   0.650E-03
   1 F= -.70926773E+03 E0= -.70924672E+03  d E =-.709268E+03
       N       E                     dE             d eps       ncg     rms          rms(c)
DAV:   1    -0.705732859697E+03    0.35349E+01   -0.21076E+02  1616   0.301E+01    0.796E+00
RMM:   2    -0.709073655464E+03   -0.33408E+01   -0.38839E+01  1912   0.713E+00    0.793E+00
RMM:   3    -0.710336287883E+03   -0.12626E+01   -0.78401E+00  2028   0.281E+00    0.128E+01
RMM:   4    -0.709527547699E+03    0.80874E+00   -0.14620E+00  1964   0.134E+00    0.321E+00
RMM:   5    -0.709479267355E+03    0.48280E-01   -0.30392E-01  1960   0.588E-01    0.237E+00
RMM:   6    -0.709471415046E+03    0.78523E-02   -0.10356E-01  1723   0.334E-01    0.202E+00
RMM:   7    -0.709475794106E+03   -0.43791E-02   -0.44690E-02  1779   0.218E-01    0.791E-01
RMM:   8    -0.709472159780E+03    0.36343E-02   -0.11407E-02  1882   0.119E-01    0.243E-01
RMM:   9    -0.709472196479E+03   -0.36699E-04   -0.37961E-03  1642   0.597E-02    0.523E-01
RMM:  10    -0.709471683420E+03    0.51306E-03   -0.10183E-03  1537   0.327E-02    0.718E-02
RMM:  11    -0.709471716285E+03   -0.32864E-04   -0.35563E-04  1351   0.204E-02    0.205E-01
RMM:  12    -0.709471650606E+03    0.65678E-04   -0.14939E-04  1255   0.125E-02    0.678E-02
RMM:  13    -0.709471641439E+03    0.91671E-05   -0.42359E-05  1065   0.914E-03
   2 F= -.70947164E+03 E0= -.70945468E+03  d E =-.203909E+00
       N       E                     dE             d eps       ncg     rms          rms(c)
DAV:   1    -0.709144842071E+03    0.32681E+00   -0.28040E+01  1672   0.116E+01    0.300E+00
RMM:   2    -0.710290461099E+03   -0.11456E+01   -0.54819E+00  1757   0.285E+00    0.108E+01
RMM:   3    -0.709655884359E+03    0.63458E+00   -0.12140E+00  2047   0.119E+00    0.270E+00
RMM:   4    -0.709629177761E+03    0.26707E-01   -0.14620E-01  1929   0.411E-01    0.265E+00
RMM:   5    -0.709641361239E+03   -0.12183E-01   -0.46106E-02  1822   0.217E-01    0.199E+00
RMM:   6    -0.709640636390E+03    0.72485E-03   -0.30066E-02  1639   0.172E-01    0.170E+00
RMM:   7    -0.709627367321E+03    0.13269E-01   -0.87566E-03  1914   0.103E-01    0.127E+00
RMM:   8    -0.709622375034E+03    0.49923E-02   -0.17583E-03  1614   0.390E-02    0.108E+00
RMM:   9    -0.709619566576E+03    0.28085E-02   -0.25586E-03  1637   0.518E-02    0.908E-01
RMM:  10    -0.709618788451E+03    0.77812E-03   -0.79362E-04  1515   0.426E-02    0.103E-01
RMM:  11    -0.709618671504E+03    0.11695E-03   -0.31211E-04  1294   0.222E-02    0.362E-01
RMM:  12    -0.709618447744E+03    0.22376E-03   -0.62597E-05  1130   0.126E-02    0.324E-02
RMM:  13    -0.709618416893E+03    0.30851E-04   -0.28946E-05   917   0.750E-03    0.932E-03
RMM:  14    -0.709618425965E+03   -0.90717E-05   -0.11857E-05   790   0.512E-03
   3 F= -.70961843E+03 E0= -.70959935E+03  d E =-.350693E+00
       N       E                     dE             d eps       ncg     rms          rms(c)
DAV:   1    -0.709455052251E+03    0.16336E+00   -0.45409E+01  1360   0.992E+00    0.191E+00
RMM:   2    -0.709668106862E+03   -0.21305E+00   -0.22988E+00  1755   0.289E+00    0.125E+00
RMM:   3    -0.709737989921E+03   -0.69883E-01   -0.48827E-01  1871   0.111E+00    0.548E+00
RMM:   4    -0.709714294671E+03    0.23695E-01   -0.76869E-02  1974   0.407E-01    0.972E-01
RMM:   5    -0.709707578306E+03    0.67164E-02   -0.18099E-02  1905   0.174E-01    0.152E+00
RMM:   6    -0.709703080514E+03    0.44978E-02   -0.83998E-03  1620   0.111E-01    0.480E-01
RMM:   7    -0.709703403571E+03   -0.32306E-03   -0.17300E-03  1808   0.580E-02    0.598E-01
RMM:   8    -0.709702928476E+03    0.47509E-03   -0.44368E-04  1523   0.256E-02    0.408E-01
RMM:   9    -0.709702723066E+03    0.20541E-03   -0.18888E-04  1390   0.169E-02    0.320E-01
RMM:  10    -0.709702537193E+03    0.18587E-03   -0.75420E-05  1228   0.112E-02    0.218E-01
RMM:  11    -0.709702470963E+03    0.66230E-04   -0.30757E-05  1034   0.836E-03    0.174E-01
RMM:  12    -0.709702395405E+03    0.75559E-04   -0.21840E-05   925   0.694E-03    0.117E-01
RMM:  13    -0.709702361867E+03    0.33537E-04   -0.16066E-05   832   0.617E-03    0.851E-02
RMM:  14    -0.709702342061E+03    0.19807E-04   -0.10089E-05   766   0.540E-03    0.612E-02
RMM:  15    -0.709702325336E+03    0.16724E-04   -0.96945E-06   761   0.511E-03    0.350E-02
RMM:  16    -0.709702319537E+03    0.57995E-05   -0.72949E-06   749   0.473E-03
   4 F= -.70970232E+03 E0= -.70968778E+03  d E =-.838936E-01
       N       E                     dE             d eps       ncg     rms          rms(c)
DAV:   1    -0.709701852845E+03    0.47249E-03   -0.14942E-01  1416   0.569E-01    0.114E-01
RMM:   2    -0.709702585457E+03   -0.73261E-03   -0.74279E-03  1738   0.163E-01    0.114E-01
RMM:   3    -0.709702743657E+03   -0.15820E-03   -0.16011E-03  1817   0.634E-02    0.129E-01
RMM:   4    -0.709702657985E+03    0.85671E-04   -0.25141E-04  1572   0.240E-02    0.433E-02
RMM:   5    -0.709702650643E+03    0.73419E-05   -0.74383E-05  1188   0.132E-02
   5 F= -.70970265E+03 E0= -.70968787E+03  d E =-.842247E-01
       N       E                     dE             d eps       ncg     rms          rms(c)
DAV:   1    -0.709578889169E+03    0.12377E+00   -0.18087E+01  1360   0.712E+00    0.133E+00
RMM:   2    -0.709714760110E+03   -0.13587E+00   -0.13753E+00  1712   0.219E+00    0.161E+00
RMM:   3    -0.709739187325E+03   -0.24427E-01   -0.35418E-01  1936   0.849E-01    0.963E-01
RMM:   4    -0.709733994954E+03    0.51924E-02   -0.45780E-02  1969   0.305E-01    0.517E-01
RMM:   5    -0.709731927267E+03    0.20677E-02   -0.82134E-03  1950   0.119E-01    0.290E-01
RMM:   6    -0.709731457976E+03    0.46929E-03   -0.57965E-03  1551   0.877E-02    0.823E-02
RMM:   7    -0.709731407516E+03    0.50460E-04   -0.82651E-04  1755   0.406E-02    0.422E-02
RMM:   8    -0.709731388077E+03    0.19439E-04   -0.23295E-04  1302   0.174E-02    0.216E-02
RMM:   9    -0.709731388294E+03   -0.21672E-06   -0.83378E-05  1211   0.113E-02
   6 F= -.70973139E+03 E0= -.70971727E+03  d E =-.287377E-01
       N       E                     dE             d eps       ncg     rms          rms(c)
DAV:   1    -0.709729957371E+03    0.14307E-02   -0.21109E-01  1368   0.771E-01    0.148E-01
RMM:   2    -0.709731502113E+03   -0.15447E-02   -0.16036E-02  1707   0.236E-01    0.149E-01
RMM:   3    -0.709731791580E+03   -0.28947E-03   -0.39212E-03  1898   0.914E-02    0.963E-02
RMM:   4    -0.709731779349E+03    0.12231E-04   -0.65699E-04  1690   0.346E-02    0.663E-02
RMM:   5    -0.709731750353E+03    0.28996E-04   -0.11613E-04  1307   0.168E-02    0.347E-02
RMM:   6    -0.709731743525E+03    0.68282E-05   -0.80513E-05  1183   0.113E-02
   7 F= -.70973174E+03 E0= -.70971760E+03  d E =-.290929E-01
       N       E                     dE             d eps       ncg     rms          rms(c)
DAV:   1    -0.709627921254E+03    0.10383E+00   -0.11558E+01  1384   0.630E+00    0.956E-01
RMM:   2    -0.709733449487E+03   -0.10553E+00   -0.11115E+00  1739   0.183E+00    0.712E-01
RMM:   3    -0.709753967754E+03   -0.20518E-01   -0.23036E-01  1963   0.676E-01    0.696E-01
RMM:   4    -0.709753777232E+03    0.19052E-03   -0.30112E-02  1956   0.249E-01    0.441E-01
RMM:   5    -0.709752508189E+03    0.12690E-02   -0.58307E-03  2063   0.967E-02    0.227E-01
RMM:   6    -0.709751995598E+03    0.51259E-03   -0.24685E-03  1623   0.577E-02    0.958E-02
RMM:   7    -0.709752041760E+03   -0.46163E-04   -0.91461E-04  1590   0.374E-02    0.447E-02
RMM:   8    -0.709752017437E+03    0.24324E-04   -0.16154E-04  1359   0.189E-02    0.224E-02
RMM:   9    -0.709752015141E+03    0.22952E-05   -0.62480E-05  1149   0.101E-02
   8 F= -.70975202E+03 E0= -.70973785E+03  d E =-.202716E-01
       N       E                     dE             d eps       ncg     rms          rms(c)
DAV:   1    -0.709749689416E+03    0.23280E-02   -0.27037E-01  1424   0.962E-01    0.143E-01
RMM:   2    -0.709752086939E+03   -0.23975E-02   -0.25168E-02  1732   0.276E-01    0.111E-01
RMM:   3    -0.709752578101E+03   -0.49116E-03   -0.54718E-03  1932   0.102E-01    0.971E-02
RMM:   4    -0.709752565070E+03    0.13032E-04   -0.74227E-04  1711   0.386E-02    0.611E-02
RMM:   5    -0.709752546193E+03    0.18877E-04   -0.15513E-04  1363   0.180E-02    0.330E-02
RMM:   6    -0.709752536497E+03    0.96958E-05   -0.95201E-05  1233   0.127E-02
   9 F= -.70975254E+03 E0= -.70973835E+03  d E =-.207930E-01
       N       E                     dE             d eps       ncg     rms          rms(c)
DAV:   1    -0.709689845384E+03    0.62701E-01   -0.12371E+01  1352   0.554E+00    0.706E-01
RMM:   2    -0.709758385481E+03   -0.68540E-01   -0.70646E-01  1723   0.161E+00    0.793E-01
RMM:   3    -0.709771004059E+03   -0.12619E-01   -0.13462E-01  1871   0.595E-01    0.689E-01
RMM:   4    -0.709767808510E+03    0.31955E-02   -0.18051E-02  1923   0.213E-01    0.329E-01
RMM:   5    -0.709767527343E+03    0.28117E-03   -0.31699E-03  2050   0.767E-02    0.265E-01
RMM:   6    -0.709766810479E+03    0.71686E-03   -0.16575E-03  1616   0.513E-02    0.141E-01
RMM:   7    -0.709766788504E+03    0.21975E-04   -0.12256E-03  1597   0.413E-02    0.997E-02
RMM:   8    -0.709766697356E+03    0.91148E-04   -0.22469E-04  1438   0.221E-02    0.285E-02
RMM:   9    -0.709766685770E+03    0.11586E-04   -0.59360E-05  1204   0.107E-02    0.142E-02
RMM:  10    -0.709766686188E+03   -0.41787E-06   -0.27232E-05   950   0.746E-03
  10 F= -.70976669E+03 E0= -.70975239E+03  d E =-.141497E-01
       N       E                     dE             d eps       ncg     rms          rms(c)
DAV:   1    -0.709766637181E+03    0.48589E-04   -0.13109E-02  1424   0.180E-01    0.227E-02
RMM:   2    -0.709766710333E+03   -0.73152E-04   -0.75997E-04  1704   0.535E-02    0.161E-02
RMM:   3    -0.709766723399E+03   -0.13067E-04   -0.14074E-04  1540   0.198E-02    0.236E-02
RMM:   4    -0.709766720364E+03    0.30354E-05   -0.22201E-05   839   0.931E-03
  11 F= -.70976672E+03 E0= -.70975240E+03  d E =-.141839E-01
       N       E                     dE             d eps       ncg     rms          rms(c)
DAV:   1    -0.709747604108E+03    0.19119E-01   -0.58844E+00  1328   0.357E+00    0.426E-01
RMM:   2    -0.709769263378E+03   -0.21659E-01   -0.23048E-01  1680   0.953E-01    0.147E-01
RMM:   3    -0.709774053723E+03   -0.47903E-02   -0.54801E-02  1918   0.382E-01    0.179E-01
RMM:   4    -0.709774497029E+03   -0.44331E-03   -0.67847E-03  1908   0.126E-01    0.152E-01
RMM:   5    -0.709774285371E+03    0.21166E-03   -0.10850E-03  1963   0.478E-02    0.924E-02
RMM:   6    -0.709774186577E+03    0.98794E-04   -0.13551E-03  1480   0.445E-02    0.645E-02
RMM:   7    -0.709774138303E+03    0.48274E-04   -0.15954E-04  1386   0.197E-02    0.325E-02
RMM:   8    -0.709774125363E+03    0.12940E-04   -0.76381E-05  1187   0.109E-02    0.887E-03
RMM:   9    -0.709774126120E+03   -0.75626E-06   -0.16971E-05   874   0.642E-03
  12 F= -.70977413E+03 E0= -.70975989E+03  d E =-.740576E-02
       N       E                     dE             d eps       ncg     rms          rms(c)
DAV:   1    -0.709773451799E+03    0.67356E-03   -0.21646E-01  1408   0.686E-01    0.816E-02
RMM:   2    -0.709774249325E+03   -0.79753E-03   -0.84890E-03  1675   0.182E-01    0.286E-02
RMM:   3    -0.709774430573E+03   -0.18125E-03   -0.20462E-03  1911   0.736E-02    0.384E-02
RMM:   4    -0.709774445095E+03   -0.14522E-04   -0.26454E-04  1601   0.246E-02    0.292E-02
RMM:   5    -0.709774437706E+03    0.73886E-05   -0.49836E-05  1119   0.124E-02
  13 F= -.70977444E+03 E0= -.70976022E+03  d E =-.771734E-02
       N       E                     dE             d eps       ncg     rms          rms(c)
DAV:   1    -0.709762626155E+03    0.11819E-01   -0.38649E+00  1304   0.283E+00    0.384E-01
RMM:   2    -0.709776499114E+03   -0.13873E-01   -0.14025E-01  1657   0.741E-01    0.397E-01
RMM:   3    -0.709778935777E+03   -0.24367E-02   -0.35106E-02  1882   0.309E-01    0.260E-01
RMM:   4    -0.709778639576E+03    0.29620E-03   -0.44906E-03  1915   0.107E-01    0.144E-01
RMM:   5    -0.709778461600E+03    0.17798E-03   -0.81235E-04  1896   0.424E-02    0.671E-02
RMM:   6    -0.709778398272E+03    0.63328E-04   -0.56484E-04  1506   0.297E-02    0.267E-02
RMM:   7    -0.709778397029E+03    0.12423E-05   -0.94306E-05  1230   0.143E-02
  14 F= -.70977840E+03 E0= -.70976427E+03  d E =-.395932E-02
       N       E                     dE             d eps       ncg     rms          rms(c)
DAV:   1    -0.709778391832E+03    0.64399E-05   -0.98483E-04  1464   0.485E-02    0.909E-03
RMM:   2    -0.709778397929E+03   -0.60968E-05   -0.66182E-05  1186   0.172E-02
  15 F= -.70977840E+03 E0= -.70976427E+03  d E =-.396022E-02
       N       E                     dE             d eps       ncg     rms          rms(c)
DAV:   1    -0.709762510069E+03    0.15882E-01   -0.19398E+00  1360   0.246E+00    0.348E-01
RMM:   2    -0.709776835903E+03   -0.14326E-01   -0.14876E-01  1690   0.703E-01    0.321E-01
RMM:   3    -0.709780442246E+03   -0.36063E-02   -0.40217E-02  1961   0.282E-01    0.242E-01
RMM:   4    -0.709780287939E+03    0.15431E-03   -0.51310E-03  1894   0.988E-02    0.143E-01
RMM:   5    -0.709780177457E+03    0.11048E-03   -0.91312E-04  1821   0.387E-02    0.804E-02
RMM:   6    -0.709780105838E+03    0.71619E-04   -0.63338E-04  1449   0.303E-02    0.280E-02
RMM:   7    -0.709780106164E+03   -0.32604E-06   -0.97971E-05  1249   0.139E-02
  16 F= -.70978011E+03 E0= -.70976597E+03  d E =-.170824E-02
       N       E                     dE             d eps       ncg     rms          rms(c)
DAV:   1    -0.709780061339E+03    0.44500E-04   -0.56903E-03  1368   0.133E-01    0.168E-02
RMM:   2    -0.709780104456E+03   -0.43118E-04   -0.44408E-04  1650   0.385E-02    0.189E-02
RMM:   3    -0.709780110407E+03   -0.59505E-05   -0.86256E-05  1157   0.147E-02
  17 F= -.70978011E+03 E0= -.70976598E+03  d E =-.171248E-02
       N       E                     dE             d eps       ncg     rms          rms(c)
DAV:   1    -0.709776530093E+03    0.35744E-02   -0.11109E+00  1304   0.155E+00    0.211E-01
RMM:   2    -0.709780355208E+03   -0.38251E-02   -0.40003E-02  1663   0.404E-01    0.151E-01
RMM:   3    -0.709781282137E+03   -0.92693E-03   -0.10565E-02  1908   0.170E-01    0.148E-01
RMM:   4    -0.709781216332E+03    0.65806E-04   -0.13547E-03  1890   0.583E-02    0.827E-02
RMM:   5    -0.709781169871E+03    0.46461E-04   -0.25425E-04  1618   0.234E-02    0.529E-02
RMM:   6    -0.709781133211E+03    0.36660E-04   -0.28687E-04  1315   0.219E-02    0.212E-02
RMM:   7    -0.709781127100E+03    0.61117E-05   -0.30885E-05   967   0.996E-03
  18 F= -.70978113E+03 E0= -.70976698E+03  d E =-.101669E-02
       N       E                     dE             d eps       ncg     rms          rms(c)
DAV:   1    -0.709781109657E+03    0.23554E-04   -0.51022E-03  1352   0.105E-01    0.136E-02
RMM:   2    -0.709781126979E+03   -0.17322E-04   -0.17976E-04  1542   0.280E-02    0.107E-02
RMM:   3    -0.709781130018E+03   -0.30382E-05   -0.43837E-05  1070   0.123E-02
  19 F= -.70978113E+03 E0= -.70976699E+03  d E =-.101961E-02
       N       E                     dE             d eps       ncg     rms          rms(c)
DAV:   1    -0.709781118553E+03    0.84260E-05   -0.22204E-03  1440   0.697E-02    0.127E-02
RMM:   2    -0.709781128873E+03   -0.10320E-04   -0.98369E-05  1305   0.197E-02    0.156E-02
RMM:   3    -0.709781128389E+03    0.48365E-06   -0.20606E-05   809   0.919E-03
  20 F= -.70978113E+03 E0= -.70976698E+03  d E =-.101798E-02
       N       E                     dE             d eps       ncg     rms          rms(c)
DAV:   1    -0.709781127428E+03    0.14448E-05   -0.54030E-04  1300   0.345E-02    0.712E-03
RMM:   2    -0.709781130097E+03   -0.26684E-05   -0.24510E-05   867   0.103E-02
  21 F= -.70978113E+03 E0= -.70976699E+03  d E =-.101969E-02
       N       E                     dE             d eps       ncg     rms          rms(c)
DAV:   1    -0.709781128505E+03   -0.10766E-05   -0.99182E-05  1216   0.159E-02    0.457E-03
RMM:   2    -0.709781130236E+03   -0.17313E-05   -0.96159E-06   696   0.634E-03
  22 F= -.70978113E+03 E0= -.70976698E+03  d E =-.101983E-02
       N       E                     dE             d eps       ncg     rms          rms(c)
DAV:   1    -0.709779934072E+03    0.11944E-02   -0.40385E-01  1324   0.929E-01    0.118E-01
RMM:   2    -0.709781304697E+03   -0.13706E-02   -0.14172E-02  1672   0.241E-01    0.107E-01
RMM:   3    -0.709781579851E+03   -0.27515E-03   -0.35182E-03  1873   0.101E-01    0.887E-02
RMM:   4    -0.709781537266E+03    0.42585E-04   -0.44119E-04  1696   0.351E-02    0.418E-02
RMM:   5    -0.709781519036E+03    0.18230E-04   -0.85676E-05  1371   0.171E-02    0.277E-02
RMM:   6    -0.709781504623E+03    0.14413E-04   -0.10770E-04  1248   0.137E-02    0.113E-02
RMM:   7    -0.709781502707E+03    0.19165E-05   -0.12195E-05   796   0.685E-03
  23 F= -.70978150E+03 E0= -.70976736E+03  d E =-.372471E-03
       N       E                     dE             d eps       ncg     rms          rms(c)
DAV:   1    -0.709781471983E+03    0.32640E-04   -0.10504E-02  1368   0.150E-01    0.194E-02
RMM:   2    -0.709781507871E+03   -0.35888E-04   -0.36746E-04  1646   0.379E-02    0.180E-02
RMM:   3    -0.709781512719E+03   -0.48478E-05   -0.77123E-05  1365   0.156E-02
  24 F= -.70978151E+03 E0= -.70976738E+03  d E =-.382483E-03
       N       E                     dE             d eps       ncg     rms          rms(c)
DAV:   1    -0.709781498367E+03    0.95041E-05   -0.27670E-03  1428   0.778E-02    0.146E-02
RMM:   2    -0.709781512331E+03   -0.13963E-04   -0.12682E-04  1468   0.227E-02    0.210E-02
RMM:   3    -0.709781510346E+03    0.19850E-05   -0.26867E-05   884   0.102E-02
  25 F= -.70978151E+03 E0= -.70976737E+03  d E =-.380110E-03
       N       E                     dE             d eps       ncg     rms          rms(c)
DAV:   1    -0.709781508726E+03    0.36045E-05   -0.74853E-04  1288   0.405E-02    0.755E-03
RMM:   2    -0.709781512438E+03   -0.37118E-05   -0.34602E-05  1034   0.121E-02
  26 F= -.70978151E+03 E0= -.70976737E+03  d E =-.382202E-03
       N       E                     dE             d eps       ncg     rms          rms(c)
DAV:   1    -0.709781510862E+03   -0.21357E-05   -0.17807E-04  1360   0.207E-02    0.482E-03
RMM:   2    -0.709781512762E+03   -0.18999E-05   -0.12402E-05   698   0.711E-03
  27 F= -.70978151E+03 E0= -.70976737E+03  d E =-.382526E-03
       N       E                     dE             d eps       ncg     rms          rms(c)
DAV:   1    -0.709781511515E+03   -0.65273E-06   -0.32099E-05  1024   0.106E-02    0.273E-03
RMM:   2    -0.709781512083E+03   -0.56807E-06   -0.47569E-06   652   0.476E-03
  28 F= -.70978151E+03 E0= -.70976737E+03  d E =-.381847E-03
       N       E                     dE             d eps       ncg     rms          rms(c)
DAV:   1    -0.709780126222E+03    0.13853E-02   -0.16011E-01  1424   0.753E-01    0.116E-01
RMM:   2    -0.709781517193E+03   -0.13910E-02   -0.14199E-02  1703   0.215E-01    0.132E-01
RMM:   3    -0.709781761502E+03   -0.24431E-03   -0.34009E-03  1929   0.848E-02    0.767E-02
RMM:   4    -0.709781742339E+03    0.19163E-04   -0.45357E-04  1667   0.314E-02    0.468E-02
RMM:   5    -0.709781730458E+03    0.11881E-04   -0.89711E-05  1232   0.152E-02    0.257E-02
RMM:   6    -0.709781725505E+03    0.49532E-05   -0.59347E-05  1173   0.103E-02
  29 F= -.70978173E+03 E0= -.70976759E+03  d E =-.213422E-03
       N       E                     dE             d eps       ncg     rms          rms(c)
DAV:   1    -0.709781714167E+03    0.16291E-04   -0.76116E-04  1400   0.526E-02    0.110E-02
RMM:   2    -0.709781721524E+03   -0.73566E-05   -0.81573E-05  1309   0.164E-02
  30 F= -.70978172E+03 E0= -.70976758E+03  d E =-.209441E-03
       N       E                     dE             d eps       ncg     rms          rms(c)
DAV:   1    -0.709781719731E+03   -0.55633E-05   -0.49944E-04  1400   0.443E-02    0.729E-03
RMM:   2    -0.709781726406E+03   -0.66759E-05   -0.58604E-05  1158   0.143E-02
  31 F= -.70978173E+03 E0= -.70976758E+03  d E =-.214324E-03
       N       E                     dE             d eps       ncg     rms          rms(c)
DAV:   1    -0.709781723940E+03   -0.42097E-05   -0.11489E-04  1384   0.224E-02    0.620E-03
RMM:   2    -0.709781725873E+03   -0.19323E-05   -0.14892E-05   762   0.699E-03
  32 F= -.70978173E+03 E0= -.70976759E+03  d E =-.213790E-03
       N       E                     dE             d eps       ncg     rms          rms(c)
DAV:   1    -0.709781724763E+03   -0.82263E-06   -0.18341E-05   912   0.116E-02    0.298E-03
RMM:   2    -0.709781725702E+03   -0.93904E-06   -0.66610E-06   664   0.521E-03
  33 F= -.70978173E+03 E0= -.70976759E+03  d E =-.213619E-03
       N       E                     dE             d eps       ncg     rms          rms(c)
DAV:   1    -0.709781227053E+03    0.49771E-03   -0.12936E-01  1360   0.563E-01    0.610E-02
RMM:   2    -0.709781763739E+03   -0.53669E-03   -0.55128E-03  1702   0.157E-01    0.562E-02
RMM:   3    -0.709781866645E+03   -0.10291E-03   -0.13373E-03  1881   0.648E-02    0.440E-02
RMM:   4    -0.709781861101E+03    0.55440E-05   -0.19109E-04  1548   0.229E-02    0.263E-02
RMM:   5    -0.709781854728E+03    0.63723E-05   -0.37007E-05  1013   0.123E-02
  34 F= -.70978185E+03 E0= -.70976772E+03  d E =-.129026E-03
       N       E                     dE             d eps       ncg     rms          rms(c)
DAV:   1    -0.709781840092E+03    0.21009E-04   -0.27404E-03  1536   0.909E-02    0.794E-03
RMM:   2    -0.709781855039E+03   -0.14947E-04   -0.15725E-04  1641   0.261E-02    0.106E-02
RMM:   3    -0.709781856045E+03   -0.10057E-05   -0.27011E-05   998   0.102E-02
  35 F= -.70978186E+03 E0= -.70976773E+03  d E =-.130343E-03
       N       E                     dE             d eps       ncg     rms          rms(c)
DAV:   1    -0.709781850660E+03    0.43787E-05   -0.75412E-04  1440   0.433E-02    0.945E-03
RMM:   2    -0.709781853823E+03   -0.31627E-05   -0.36480E-05  1071   0.126E-02
  36 F= -.70978185E+03 E0= -.70976772E+03  d E =-.128121E-03
       N       E                     dE             d eps       ncg     rms          rms(c)
DAV:   1    -0.709781854640E+03   -0.39796E-05   -0.26229E-04  1360   0.263E-02    0.732E-03
RMM:   2    -0.709781858410E+03   -0.37697E-05   -0.20331E-05   887   0.865E-03
  37 F= -.70978186E+03 E0= -.70976773E+03  d E =-.132708E-03
       N       E                     dE             d eps       ncg     rms          rms(c)
DAV:   1    -0.709781855228E+03   -0.58756E-06   -0.64349E-05  1304   0.157E-02    0.378E-03
RMM:   2    -0.709781856004E+03   -0.77597E-06   -0.72552E-06   662   0.593E-03
  38 F= -.70978186E+03 E0= -.70976773E+03  d E =-.130302E-03
       N       E                     dE             d eps       ncg     rms          rms(c)
DAV:   1    -0.709781855574E+03   -0.34640E-06   -0.85154E-06   688   0.662E-03    0.207E-03
RMM:   2    -0.709781855937E+03   -0.36341E-06   -0.26650E-06   644   0.366E-03
  39 F= -.70978186E+03 E0= -.70976773E+03  d E =-.130235E-03
       N       E                     dE             d eps       ncg     rms          rms(c)
DAV:   1    -0.709781855773E+03   -0.19875E-06   -0.14939E-06   664   0.355E-03    0.108E-03
RMM:   2    -0.709781855827E+03   -0.53777E-07   -0.79851E-07   570   0.189E-03
  40 F= -.70978186E+03 E0= -.70976772E+03  d E =-.130125E-03
       N       E                     dE             d eps       ncg     rms          rms(c)
DAV:   1    -0.709781855836E+03   -0.63446E-07   -0.28428E-07   660   0.166E-03    0.846E-04
RMM:   2    -0.709781855835E+03    0.12660E-08   -0.54348E-08   188   0.762E-04
  41 F= -.70978186E+03 E0= -.70976772E+03  d E =-.130133E-03
       N       E                     dE             d eps       ncg     rms          rms(c)
DAV:   1    -0.709781670051E+03    0.18578E-03   -0.68525E-02  1352   0.402E-01    0.428E-02
RMM:   2    -0.709781912972E+03   -0.24292E-03   -0.25351E-03  1692   0.107E-01    0.225E-02
RMM:   3    -0.709781970014E+03   -0.57042E-04   -0.62417E-04  1853   0.443E-02    0.353E-02
RMM:   4    -0.709781966944E+03    0.30702E-05   -0.89182E-05  1379   0.164E-02
  42 F= -.70978197E+03 E0= -.70976783E+03  d E =-.111109E-03
       N       E                     dE             d eps       ncg     rms          rms(c)
DAV:   1    -0.709781965356E+03    0.46578E-05   -0.29705E-05  1000   0.132E-02    0.101E-02
RMM:   2    -0.709781964579E+03    0.77727E-06   -0.96793E-06   742   0.670E-03
  43 F= -.70978196E+03 E0= -.70976783E+03  d E =-.108744E-03
       N       E                     dE             d eps       ncg     rms          rms(c)
DAV:   1    -0.709781964901E+03    0.45536E-06   -0.43006E-05  1232   0.169E-02    0.103E-02
RMM:   2    -0.709781971678E+03   -0.67772E-05   -0.28589E-05   856   0.108E-02
  44 F= -.70978197E+03 E0= -.70976783E+03  d E =-.115843E-03
       N       E                     dE             d eps       ncg     rms          rms(c)
DAV:   1    -0.709781881228E+03    0.83673E-04   -0.28965E-02  1336   0.262E-01    0.282E-02
RMM:   2    -0.709782005260E+03   -0.12403E-03   -0.13054E-03  1707   0.733E-02    0.138E-02
RMM:   3    -0.709782027573E+03   -0.22312E-04   -0.26690E-04  1691   0.287E-02    0.149E-02
RMM:   4    -0.709782029913E+03   -0.23405E-05   -0.42794E-05   935   0.128E-02
  45 F= -.70978203E+03 E0= -.70976789E+03  d E =-.582352E-04
       N       E                     dE             d eps       ncg     rms          rms(c)
DAV:   1    -0.709782028235E+03   -0.66255E-06   -0.12293E-05   920   0.954E-03    0.625E-03
RMM:   2    -0.709782028296E+03   -0.60849E-07   -0.60516E-06   741   0.571E-03
  46 F= -.70978203E+03 E0= -.70976790E+03  d E =-.566181E-04
       N       E                     dE             d eps       ncg     rms          rms(c)
DAV:   1    -0.709782032831E+03   -0.45958E-05   -0.14151E-05   920   0.107E-02    0.598E-03
RMM:   2    -0.709782034796E+03   -0.19654E-05   -0.99798E-06   670   0.716E-03
  47 F= -.70978203E+03 E0= -.70976791E+03  d E =-.631185E-04
       N       E                     dE             d eps       ncg     rms          rms(c)
DAV:   1    -0.709782028551E+03    0.42801E-05   -0.32597E-06   720   0.737E-03    0.254E-03
RMM:   2    -0.709782028631E+03   -0.79701E-07   -0.17244E-06   639   0.251E-03
  48 F= -.70978203E+03 E0= -.70976790E+03  d E =-.569527E-04
       N       E                     dE             d eps       ncg     rms          rms(c)
DAV:   1    -0.709782030284E+03   -0.17330E-05   -0.13613E-06   664   0.368E-03    0.186E-03
RMM:   2    -0.709782030489E+03   -0.20506E-06   -0.10034E-06   626   0.221E-03
  49 F= -.70978203E+03 E0= -.70976790E+03  d E =-.588110E-04
       N       E                     dE             d eps       ncg     rms          rms(c)
DAV:   1    -0.709782030367E+03   -0.83011E-07   -0.51563E-07   664   0.278E-03    0.525E-04
RMM:   2    -0.709782030382E+03   -0.15061E-07   -0.24051E-07   414   0.120E-03
  50 F= -.70978203E+03 E0= -.70976790E+03  d E =-.587041E-04
       N       E                     dE             d eps       ncg     rms          rms(c)
DAV:   1    -0.709782033492E+03   -0.31247E-05   -0.27381E-07   664   0.126E-03    0.387E-04
RMM:   2    -0.709782033495E+03   -0.33760E-08   -0.46290E-08   203   0.880E-04
  51 F= -.70978203E+03 E0= -.70976790E+03  d E =-.618171E-04
       N       E                     dE             d eps       ncg     rms          rms(c)
DAV:   1    -0.709782033527E+03   -0.35354E-07   -0.13470E-07   662   0.894E-04    0.262E-04
RMM:   2    -0.709782033526E+03    0.63301E-09   -0.27519E-09    91   0.620E-04
  52 F= -.70978203E+03 E0= -.70976790E+03  d E =-.618484E-04
       N       E                     dE             d eps       ncg     rms          rms(c)
DAV:   1    -0.709782033535E+03   -0.81054E-08   -0.65876E-08   664   0.723E-04    0.226E-04
RMM:   2    -0.709782033535E+03    0.37835E-09   -0.14209E-09    90   0.483E-04
  53 F= -.70978203E+03 E0= -.70976790E+03  d E =-.618568E-04
       N       E                     dE             d eps       ncg     rms          rms(c)
DAV:   1    -0.709782033542E+03   -0.68394E-08   -0.40901E-08   660   0.499E-04    0.886E-05
RMM:   2    -0.709782033541E+03    0.82218E-09    0.00000E+00    68   0.362E-04
  54 F= -.70978203E+03 E0= -.70976790E+03  d E =-.618632E-04
       N       E                     dE             d eps       ncg     rms          rms(c)
DAV:   1    -0.709782033545E+03   -0.31869E-08   -0.21013E-08   664   0.383E-04    0.933E-05
RMM:   2    -0.709782033544E+03    0.16589E-08    0.00000E+00    62   0.246E-04
  55 F= -.70978203E+03 E0= -.70976790E+03  d E =-.618655E-04
       N       E                     dE             d eps       ncg     rms          rms(c)
DAV:   1    -0.709782033548E+03   -0.29468E-08   -0.10749E-08   660   0.245E-04    0.638E-05
RMM:   2    -0.709782033548E+03    0.10914E-09    0.00000E+00    58   0.189E-04
  56 F= -.70978203E+03 E0= -.70976790E+03  d E =-.618700E-04
       N       E                     dE             d eps       ncg     rms          rms(c)
DAV:   1    -0.709782033548E+03    0.50932E-09   -0.57657E-09   664   0.188E-04    0.448E-05
RMM:   2    -0.709782033547E+03    0.50204E-09    0.00000E+00    53   0.131E-04
  57 F= -.70978203E+03 E0= -.70976790E+03  d E =-.618691E-04
       N       E                     dE             d eps       ncg     rms          rms(c)
DAV:   1    -0.709782033545E+03    0.22774E-08   -0.32263E-09   662   0.129E-04    0.291E-05
RMM:   2    -0.709782033546E+03   -0.29831E-09    0.00000E+00    52   0.103E-04
  58 F= -.70978203E+03 E0= -.70976790E+03  d E =-.618676E-04
       N       E                     dE             d eps       ncg     rms          rms(c)
DAV:   1    -0.709782033548E+03   -0.23210E-08   -0.18406E-09   664   0.102E-04    0.244E-05
RMM:   2    -0.709782033548E+03   -0.45111E-09    0.00000E+00    50   0.727E-05
  59 F= -.70978203E+03 E0= -.70976790E+03  d E =-.618701E-04
       N       E                     dE             d eps       ncg     rms          rms(c)
DAV:   1    -0.709782033548E+03   -0.39290E-09   -0.10917E-09   662   0.716E-05    0.126E-05
RMM:   2    -0.709782033548E+03    0.44383E-09    0.00000E+00    44   0.581E-05
  60 F= -.70978203E+03 E0= -.70976790E+03  d E =-.618696E-04
       N       E                     dE             d eps       ncg     rms          rms(c)
DAV:   1    -0.709782033548E+03    0.21828E-10   -0.66109E-10   664   0.587E-05    0.804E-06
RMM:   2    -0.709782033548E+03    0.10914E-09    0.00000E+00    47   0.409E-05
  61 F= -.70978203E+03 E0= -.70976790E+03  d E =-.618699E-04
       N       E                     dE             d eps       ncg     rms          rms(c)
DAV:   1    -0.709782033548E+03    0.21828E-10   -0.40695E-10   662   0.408E-05    0.572E-06
RMM:   2    -0.709782033548E+03    0.72760E-10    0.00000E+00    45   0.334E-05
  62 F= -.70978203E+03 E0= -.70976790E+03  d E =-.618699E-04
       N       E                     dE             d eps       ncg     rms          rms(c)
DAV:   1    -0.709781812062E+03    0.22149E-03   -0.30927E-02  1336   0.270E-01    0.298E-02
RMM:   2    -0.709781942079E+03   -0.13002E-03   -0.13607E-03  1707   0.740E-02    0.111E-02
RMM:   3    -0.709781964652E+03   -0.22574E-04   -0.27350E-04  1700   0.288E-02    0.144E-02
RMM:   4    -0.709781967040E+03   -0.23878E-05   -0.41385E-05   953   0.123E-02
  63 F= -.70978197E+03 E0= -.70976783E+03  d E =0.463772E-05
