 running    4 mpi-ranks, on    1 nodes
 distrk:  each k-point on    1 cores,    4 groups
 distr:  one band on    1 cores,    1 groups
 OpenACC runtime initialized ...    4 GPUs detected
 vasp.6.4.2 20Jul23 (build Nov 12 2023 22:16:35) complex                         
 POSCAR found type information on POSCAR GaO CuN 
 POSCAR found :  4 types and     120 ions
 scaLAPACK will be used selectively (only on CPU)
 LDA part: xc-table for Pade appr. of Perdew
 POSCAR, INCAR and KPOINTS ok, starting setup
 FFT: planning ... GRIDC
 FFT: planning ... GRID_SOFT
 FFT: planning ... GRID
 WAVECAR not read
 entering main loop
       N       E                     dE             d eps       ncg     rms          rms(c)
DAV:   1     0.219658271335E+05    0.21966E+05   -0.32073E+05 10112   0.282E+03
DAV:   2     0.489119838328E+04   -0.17075E+05   -0.16080E+05 10112   0.818E+02
DAV:   3    -0.121420975101E+03   -0.50126E+04   -0.47039E+04 12720   0.322E+02
DAV:   4    -0.773039814237E+03   -0.65162E+03   -0.63490E+03 12408   0.123E+02
DAV:   5    -0.824038402324E+03   -0.50999E+02   -0.50350E+02 14808   0.372E+01BRMIX: very serious problems
 the old and the new charge density differ
 old charge density:  1053.00000 new 1053.99974
BRMIX: very serious problems
 the old and the new charge density differ
 old charge density:  1053.00000 new 1053.99974
BRMIX: very serious problems
 the old and the new charge density differ
BRMIX: very serious problems
 the old and the new charge density differ
 old charge density:  1053.00000 new 1053.99974
 old charge density:  1053.00000 new 1053.99974
    0.765E+01
RMM:   6    -0.770155399145E+03    0.53883E+02   -0.75005E+02 14706   0.346E+01    0.385E+01
RMM:   7    -0.717015034203E+03    0.53140E+02   -0.26520E+02 13613   0.180E+01    0.246E+01
RMM:   8    -0.704397910442E+03    0.12617E+02   -0.63181E+01 11635   0.126E+01    0.125E+01
RMM:   9    -0.711606890989E+03   -0.72090E+01   -0.21533E+01 13828   0.646E+00    0.165E+01
RMM:  10    -0.705147442032E+03    0.64594E+01   -0.10918E+01 12826   0.511E+00    0.579E+00
RMM:  11    -0.705037989713E+03    0.10945E+00   -0.46666E+00 15171   0.235E+00    0.564E+00
RMM:  12    -0.705378499653E+03   -0.34051E+00   -0.17701E+00 11596   0.234E+00    0.647E+00
RMM:  13    -0.705269413057E+03    0.10909E+00   -0.49197E-01 15420   0.612E-01    0.568E+00
RMM:  14    -0.705133702626E+03    0.13571E+00   -0.14035E-01 13222   0.414E-01    0.451E+00
RMM:  15    -0.704921830915E+03    0.21187E+00   -0.44730E-01 13370   0.928E-01    0.128E+00
RMM:  16    -0.704902692641E+03    0.19138E-01   -0.60343E-02 13532   0.280E-01    0.969E-01
RMM:  17    -0.704905781165E+03   -0.30885E-02   -0.29099E-02 14700   0.130E-01    0.972E-01
RMM:  18    -0.704904536571E+03    0.12446E-02   -0.64160E-03 12003   0.771E-02    0.927E-01
RMM:  19    -0.704911651901E+03   -0.71153E-02   -0.12418E-02 13714   0.151E-01    0.109E+00
RMM:  20    -0.704925437584E+03   -0.13786E-01   -0.25895E-02 14302   0.187E-01    0.151E+00
RMM:  21    -0.704928156992E+03   -0.27194E-02   -0.11148E-02 13916   0.126E-01    0.170E+00
RMM:  22    -0.704927829184E+03    0.32781E-03   -0.15699E-02 14526   0.187E-01    0.181E+00
RMM:  23    -0.704911869490E+03    0.15960E-01   -0.10505E-02 14492   0.117E-01    0.152E+00
RMM:  24    -0.704899553234E+03    0.12316E-01   -0.76714E-03 13980   0.833E-02    0.124E+00
RMM:  25    -0.704899965627E+03   -0.41239E-03   -0.10630E-03 13007   0.408E-02    0.129E+00
RMM:  26    -0.704899871891E+03    0.93736E-04   -0.82511E-04 11117   0.345E-02    0.131E+00
RMM:  27    -0.704902704861E+03   -0.28330E-02   -0.38027E-04 10799   0.300E-02    0.149E+00
RMM:  28    -0.704906528553E+03   -0.38237E-02   -0.62999E-04 11977   0.310E-02    0.168E+00
RMM:  29    -0.704909668516E+03   -0.31400E-02   -0.40454E-04 11411   0.249E-02    0.184E+00
RMM:  30    -0.704902360582E+03    0.73079E-02   -0.47792E-04 11041   0.338E-02    0.149E+00
RMM:  31    -0.704896609790E+03    0.57508E-02   -0.18292E-03 13570   0.546E-02    0.116E+00
RMM:  32    -0.704892473780E+03    0.41360E-02   -0.27154E-03 14952   0.540E-02    0.850E-01
RMM:  33    -0.704890351206E+03    0.21226E-02   -0.27122E-03 14398   0.619E-02    0.459E-01
RMM:  34    -0.704890505002E+03   -0.15380E-03   -0.80236E-04 11062   0.330E-02    0.402E-01
RMM:  35    -0.704890005489E+03    0.49951E-03   -0.81072E-04 12183   0.325E-02    0.155E-01
RMM:  36    -0.704890123408E+03   -0.11792E-03   -0.19673E-04  9716   0.190E-02    0.172E-01
RMM:  37    -0.704890024887E+03    0.98521E-04   -0.24888E-04 10166   0.161E-02    0.422E-02
RMM:  38    -0.704890017358E+03    0.75282E-05   -0.61350E-05  7759   0.121E-02
   1 F= -.70489002E+03 E0= -.70487690E+03  d E =-.704890E+03
 curvature:   0.00 expect dE= 0.000E+00 dE for cont linesearch  0.000E+00
 trial: gam= 0.00000 g(F)=  0.152E+01 g(S)=  0.000E+00 ort = 0.000E+00 (trialstep = 0.100E+01)
 search vector abs. value=  0.152E+01
 bond charge predicted
       N       E                     dE             d eps       ncg     rms          rms(c)
DAV:   1    -0.703464489720E+03    0.14255E+01   -0.35131E+02 11512   0.259E+01    0.330E+00
RMM:   2    -0.704961538508E+03   -0.14970E+01   -0.15804E+01 14101   0.824E+00    0.326E+00
RMM:   3    -0.705233345306E+03   -0.27181E+00   -0.41312E+00 14387   0.382E+00    0.245E+00
RMM:   4    -0.705212332381E+03    0.21013E-01   -0.69156E-01 15546   0.134E+00    0.151E+00
RMM:   5    -0.705185716471E+03    0.26616E-01   -0.12489E-01 15459   0.528E-01    0.130E+00
RMM:   6    -0.705131797291E+03    0.53919E-01   -0.11672E-01 13115   0.479E-01    0.417E-01
RMM:   7    -0.705129108133E+03    0.26892E-02   -0.64708E-02 13503   0.303E-01    0.698E-01
RMM:   8    -0.705125646994E+03    0.34611E-02   -0.95516E-03 14701   0.170E-01    0.268E-01
RMM:   9    -0.705124779686E+03    0.86731E-03   -0.64933E-03 14424   0.987E-02    0.223E-01
RMM:  10    -0.705124678588E+03    0.10110E-03   -0.22074E-03 13276   0.567E-02    0.784E-02
RMM:  11    -0.705124748888E+03   -0.70300E-04   -0.88478E-04 11516   0.374E-02    0.111E-01
RMM:  12    -0.705124727132E+03    0.21756E-04   -0.45290E-04 10887   0.219E-02    0.535E-02
RMM:  13    -0.705124745052E+03   -0.17920E-04   -0.19794E-04  9352   0.160E-02    0.531E-02
RMM:  14    -0.705124744774E+03    0.27835E-06   -0.97309E-05  8227   0.945E-03
   2 F= -.70512474E+03 E0= -.70511483E+03  d E =-.234727E+00
 trial-energy change:   -0.234727  1 .order   -0.228612   -1.521193    1.063969
 step:   0.5919(harm=  0.5884)  dis= 0.04416  next Energy=  -705.341453 (dE=-0.451E+00)
 bond charge predicted
       N       E                     dE             d eps       ncg     rms          rms(c)
DAV:   1    -0.705079211817E+03    0.45533E-01   -0.57780E+01 11256   0.109E+01    0.123E+00
RMM:   2    -0.705319555371E+03   -0.24034E+00   -0.25049E+00 14120   0.337E+00    0.166E+00
RMM:   3    -0.705358621336E+03   -0.39066E-01   -0.64816E-01 14506   0.152E+00    0.874E-01
RMM:   4    -0.705356225049E+03    0.23963E-02   -0.12530E-01 15513   0.536E-01    0.613E-01
RMM:   5    -0.705352347921E+03    0.38771E-02   -0.20117E-02 15354   0.201E-01    0.506E-01
RMM:   6    -0.705342628961E+03    0.97190E-02   -0.24397E-02 13139   0.201E-01    0.181E-01
RMM:   7    -0.705342627694E+03    0.12668E-05   -0.87368E-03 14284   0.112E-01    0.246E-01
RMM:   8    -0.705342164123E+03    0.46357E-03   -0.13124E-03 12918   0.585E-02    0.105E-01
RMM:   9    -0.705341960247E+03    0.20388E-03   -0.10131E-03 12884   0.386E-02    0.835E-02
RMM:  10    -0.705341947336E+03    0.12911E-04   -0.49462E-04 11593   0.264E-02    0.365E-02
RMM:  11    -0.705341934389E+03    0.12947E-04   -0.14560E-04  9499   0.177E-02    0.401E-02
RMM:  12    -0.705341927330E+03    0.70597E-05   -0.80253E-05  8502   0.971E-03
   3 F= -.70534193E+03 E0= -.70533078E+03  d E =-.451910E+00
 curvature:  -0.29 expect dE=-0.661E-01 dE for cont linesearch -0.861E-06
 trial: gam= 0.14903 g(F)=  0.225E+00 g(S)=  0.000E+00 ort =-0.211E-02 (trialstep = 0.918E+00)
 search vector abs. value=  0.258E+00
 bond charge predicted
       N       E                     dE             d eps       ncg     rms          rms(c)
DAV:   1    -0.705246536018E+03    0.95398E-01   -0.48903E+01 11056   0.979E+00    0.142E+00
RMM:   2    -0.705425051066E+03   -0.17852E+00   -0.18177E+00 13864   0.283E+00    0.136E+00
RMM:   3    -0.705459282515E+03   -0.34231E-01   -0.47447E-01 14207   0.131E+00    0.113E+00
RMM:   4    -0.705457005502E+03    0.22770E-02   -0.88926E-02 15457   0.473E-01    0.624E-01
RMM:   5    -0.705454865577E+03    0.21399E-02   -0.15950E-02 15359   0.176E-01    0.560E-01
RMM:   6    -0.705450927876E+03    0.39377E-02   -0.78113E-03 13745   0.125E-01    0.166E-01
RMM:   7    -0.705451071148E+03   -0.14327E-03   -0.45887E-03 13108   0.833E-02    0.395E-01
RMM:   8    -0.705450335637E+03    0.73551E-03   -0.91471E-04 12654   0.497E-02    0.153E-01
RMM:   9    -0.705450215870E+03    0.11977E-03   -0.53253E-04 10900   0.286E-02    0.169E-01
RMM:  10    -0.705450123925E+03    0.91945E-04   -0.25796E-04  9860   0.186E-02    0.499E-02
RMM:  11    -0.705450150218E+03   -0.26293E-04   -0.10845E-04  8397   0.140E-02    0.804E-02
RMM:  12    -0.705450131794E+03    0.18424E-04   -0.51090E-05  7309   0.838E-03    0.391E-02
RMM:  13    -0.705450135252E+03   -0.34577E-05   -0.26529E-05  6706   0.695E-03
   4 F= -.70545014E+03 E0= -.70544050E+03  d E =-.108208E+00
 trial-energy change:   -0.108208  1 .order   -0.107926   -0.205976   -0.009877
 step:   0.9646(harm=  0.9646)  dis= 0.03921  next Energy=  -705.450102 (dE=-0.108E+00)
 bond charge predicted
       N       E                     dE             d eps       ncg     rms          rms(c)
DAV:   1    -0.705449902374E+03    0.22942E-03   -0.12417E-01 11728   0.492E-01    0.810E-02
RMM:   2    -0.705450334810E+03   -0.43244E-03   -0.43826E-03 13720   0.139E-01    0.783E-02
RMM:   3    -0.705450417277E+03   -0.82467E-04   -0.11488E-03 13428   0.661E-02    0.682E-02
RMM:   4    -0.705450396946E+03    0.20332E-04   -0.24826E-04 10994   0.263E-02    0.293E-02
RMM:   5    -0.705450395603E+03    0.13427E-05   -0.56568E-05  7489   0.136E-02
   5 F= -.70545040E+03 E0= -.70544085E+03  d E =-.108468E+00
 curvature:  -0.55 expect dE=-0.592E-01 dE for cont linesearch -0.646E-06
 trial: gam= 0.47435 g(F)=  0.107E+00 g(S)=  0.000E+00 ort =-0.548E-03 (trialstep = 0.928E+00)
 search vector abs. value=  0.164E+00
 bond charge predicted
       N       E                     dE             d eps       ncg     rms          rms(c)
DAV:   1    -0.705391944250E+03    0.58453E-01   -0.33474E+01 10864   0.801E+00    0.130E+00
RMM:   2    -0.705498468495E+03   -0.10652E+00   -0.11067E+00 13457   0.217E+00    0.106E+00
RMM:   3    -0.705519998074E+03   -0.21530E-01   -0.27318E-01 14410   0.990E-01    0.108E+00
RMM:   4    -0.705515428850E+03    0.45692E-02   -0.48987E-02 15209   0.370E-01    0.512E-01
RMM:   5    -0.705513718085E+03    0.17108E-02   -0.99520E-03 15175   0.140E-01    0.582E-01
RMM:   6    -0.705510907065E+03    0.28110E-02   -0.40030E-03 14039   0.896E-02    0.181E-01
RMM:   7    -0.705510860932E+03    0.46134E-04   -0.32853E-03 13296   0.761E-02    0.397E-01
RMM:   8    -0.705510068052E+03    0.79288E-03   -0.66645E-04 11756   0.383E-02    0.137E-01
RMM:   9    -0.705509965644E+03    0.10241E-03   -0.39957E-04 10195   0.257E-02    0.182E-01
RMM:  10    -0.705509843857E+03    0.12179E-03   -0.18501E-04  9330   0.155E-02    0.607E-02
RMM:  11    -0.705509860087E+03   -0.16229E-04   -0.92904E-05  8201   0.130E-02    0.855E-02
RMM:  12    -0.705509841135E+03    0.18951E-04   -0.37546E-05  7066   0.756E-03    0.481E-02
RMM:  13    -0.705509844413E+03   -0.32774E-05   -0.22401E-05  6494   0.655E-03
   6 F= -.70550984E+03 E0= -.70550149E+03  d E =-.594488E-01
 trial-energy change:   -0.059449  1 .order   -0.059650   -0.098877   -0.020423
 step:   1.1739(harm=  1.1691)  dis= 0.03516  next Energy=  -705.512552 (dE=-0.622E-01)
 bond charge predicted
       N       E                     dE             d eps       ncg     rms          rms(c)
DAV:   1    -0.705504371455E+03    0.54697E-02   -0.23595E+00 11568   0.212E+00    0.358E-01
RMM:   2    -0.705511627791E+03   -0.72563E-02   -0.75419E-02 13312   0.567E-01    0.287E-01
RMM:   3    -0.705513267383E+03   -0.16396E-02   -0.18841E-02 14490   0.254E-01    0.297E-01
RMM:   4    -0.705512831286E+03    0.43610E-03   -0.32851E-03 14809   0.986E-02    0.136E-01
RMM:   5    -0.705512752971E+03    0.78315E-04   -0.86664E-04 12995   0.403E-02    0.176E-01
RMM:   6    -0.705512544214E+03    0.20876E-03   -0.30438E-04 10139   0.253E-02    0.534E-02
RMM:   7    -0.705512531692E+03    0.12521E-04   -0.22091E-04  9850   0.223E-02    0.109E-01
RMM:   8    -0.705512470131E+03    0.61562E-04   -0.63994E-05  7951   0.116E-02    0.348E-02
RMM:   9    -0.705512462946E+03    0.71844E-05   -0.32197E-05  6828   0.834E-03
   7 F= -.70551246E+03 E0= -.70550448E+03  d E =-.620673E-01
 curvature:  -0.90 expect dE=-0.608E-01 dE for cont linesearch -0.601E-05
 trial: gam= 0.63777 g(F)=  0.675E-01 g(S)=  0.000E+00 ort =-0.105E-02 (trialstep = 0.977E+00)
 search vector abs. value=  0.133E+00
 bond charge predicted
       N       E                     dE             d eps       ncg     rms          rms(c)
DAV:   1    -0.705442970979E+03    0.69499E-01   -0.30988E+01 10736   0.764E+00    0.114E+00
RMM:   2    -0.705536356135E+03   -0.93385E-01   -0.99043E-01 13214   0.202E+00    0.786E-01
RMM:   3    -0.705558474475E+03   -0.22118E-01   -0.24578E-01 14795   0.912E-01    0.944E-01
RMM:   4    -0.705554437579E+03    0.40369E-02   -0.38483E-02 15178   0.337E-01    0.398E-01
RMM:   5    -0.705553553478E+03    0.88410E-03   -0.95685E-03 15157   0.129E-01    0.488E-01
RMM:   6    -0.705551760614E+03    0.17929E-02   -0.34830E-03 13675   0.842E-02    0.172E-01
RMM:   7    -0.705551748417E+03    0.12197E-04   -0.19254E-03 12983   0.577E-02    0.298E-01
RMM:   8    -0.705551309109E+03    0.43931E-03   -0.46887E-04 10959   0.307E-02    0.101E-01
RMM:   9    -0.705551283510E+03    0.25599E-04   -0.29950E-04  9847   0.214E-02    0.131E-01
RMM:  10    -0.705551224678E+03    0.58832E-04   -0.13462E-04  8838   0.133E-02    0.364E-02
RMM:  11    -0.705551238675E+03   -0.13997E-04   -0.60970E-05  7643   0.102E-02    0.616E-02
RMM:  12    -0.705551226113E+03    0.12562E-04   -0.25686E-05  6732   0.645E-03    0.255E-02
RMM:  13    -0.705551227976E+03   -0.18635E-05   -0.14853E-05  6331   0.549E-03
   8 F= -.70555123E+03 E0= -.70554535E+03  d E =-.387650E-01
 trial-energy change:   -0.038765  1 .order   -0.038759   -0.065319   -0.012198
 step:   1.2012(harm=  1.2012)  dis= 0.03165  next Energy=  -705.552622 (dE=-0.402E-01)
 bond charge predicted
       N       E                     dE             d eps       ncg     rms          rms(c)
DAV:   1    -0.705547054832E+03    0.41713E-02   -0.16334E+00 11632   0.175E+00    0.263E-01
RMM:   2    -0.705551828162E+03   -0.47733E-02   -0.50730E-02 13069   0.457E-01    0.172E-01
RMM:   3    -0.705552989377E+03   -0.11612E-02   -0.12393E-02 14886   0.200E-01    0.207E-01
RMM:   4    -0.705552775365E+03    0.21401E-03   -0.18875E-03 14608   0.765E-02    0.876E-02
RMM:   5    -0.705552754030E+03    0.21335E-04   -0.61154E-04 12766   0.334E-02    0.126E-01
RMM:   6    -0.705552672471E+03    0.81559E-04   -0.18745E-04  9782   0.199E-02    0.407E-02
RMM:   7    -0.705552659733E+03    0.12738E-04   -0.94488E-05  8169   0.150E-02    0.648E-02
RMM:   8    -0.705552638150E+03    0.21584E-04   -0.34795E-05  7221   0.790E-03    0.191E-02
RMM:   9    -0.705552636147E+03    0.20027E-05   -0.16426E-05  6299   0.613E-03
   9 F= -.70555264E+03 E0= -.70554729E+03  d E =-.401732E-01
 curvature:  -1.19 expect dE=-0.553E-01 dE for cont linesearch -0.214E-05
 trial: gam= 0.68491 g(F)=  0.463E-01 g(S)=  0.000E+00 ort =-0.488E-03 (trialstep = 0.102E+01)
 search vector abs. value=  0.108E+00
 bond charge predicted
       N       E                     dE             d eps       ncg     rms          rms(c)
DAV:   1    -0.705487263856E+03    0.65374E-01   -0.27240E+01 10824   0.726E+00    0.958E-01
RMM:   2    -0.705565851228E+03   -0.78587E-01   -0.83956E-01 13218   0.190E+00    0.573E-01
RMM:   3    -0.705586432182E+03   -0.20581E-01   -0.21562E-01 14650   0.869E-01    0.741E-01
RMM:   4    -0.705584300706E+03    0.21315E-02   -0.34746E-02 15208   0.323E-01    0.312E-01
RMM:   5    -0.705583563727E+03    0.73698E-03   -0.76755E-03 15301   0.115E-01    0.280E-01
RMM:   6    -0.705582837621E+03    0.72611E-03   -0.23974E-03 13801   0.672E-02    0.112E-01
RMM:   7    -0.705582776471E+03    0.61150E-04   -0.16132E-03 12892   0.518E-02    0.129E-01
RMM:   8    -0.705582656110E+03    0.12036E-03   -0.31041E-04 10735   0.275E-02    0.370E-02
RMM:   9    -0.705582648144E+03    0.79669E-05   -0.20061E-04  9564   0.165E-02    0.437E-02
RMM:  10    -0.705582643477E+03    0.46662E-05   -0.76405E-05  8108   0.105E-02
  10 F= -.70558264E+03 E0= -.70557928E+03  d E =-.300073E-01
 trial-energy change:   -0.030007  1 .order   -0.029364   -0.046917   -0.011811
 step:   1.3227(harm=  1.3655)  dis= 0.03085  next Energy=  -705.584399 (dE=-0.318E-01)
 bond charge predicted
       N       E                     dE             d eps       ncg     rms          rms(c)
DAV:   1    -0.705576783714E+03    0.58644E-02   -0.23647E+00 11408   0.214E+00    0.282E-01
RMM:   2    -0.705583409335E+03   -0.66256E-02   -0.71047E-02 13137   0.552E-01    0.157E-01
RMM:   3    -0.705585121993E+03   -0.17127E-02   -0.17768E-02 14824   0.243E-01    0.200E-01
RMM:   4    -0.705584978521E+03    0.14347E-03   -0.27736E-03 14929   0.926E-02    0.914E-02
RMM:   5    -0.705584912691E+03    0.65831E-04   -0.69154E-04 12958   0.356E-02    0.764E-02
RMM:   6    -0.705584871899E+03    0.40792E-04   -0.24984E-04 10379   0.214E-02    0.362E-02
RMM:   7    -0.705584859742E+03    0.12157E-04   -0.13184E-04  9310   0.171E-02    0.244E-02
RMM:   8    -0.705584854685E+03    0.50572E-05   -0.36602E-05  7283   0.915E-03
  11 F= -.70558485E+03 E0= -.70558205E+03  d E =-.322185E-01
 curvature:  -1.58 expect dE=-0.478E-01 dE for cont linesearch -0.254E-04
 trial: gam= 0.62559 g(F)=  0.303E-01 g(S)=  0.000E+00 ort = 0.132E-02 (trialstep = 0.108E+01)
 search vector abs. value=  0.742E-01
 bond charge predicted
       N       E                     dE             d eps       ncg     rms          rms(c)
DAV:   1    -0.705530520640E+03    0.54339E-01   -0.21084E+01 10744   0.639E+00    0.856E-01
RMM:   2    -0.705590770970E+03   -0.60250E-01   -0.64262E-01 13201   0.168E+00    0.539E-01
RMM:   3    -0.705605875147E+03   -0.15104E-01   -0.16628E-01 14492   0.773E-01    0.624E-01
RMM:   4    -0.705604379165E+03    0.14960E-02   -0.29199E-02 15228   0.291E-01    0.259E-01
RMM:   5    -0.705603588255E+03    0.79091E-03   -0.64453E-03 15049   0.113E-01    0.214E-01
RMM:   6    -0.705603383252E+03    0.20500E-03   -0.24301E-03 13703   0.626E-02    0.628E-02
RMM:   7    -0.705603406197E+03   -0.22945E-04   -0.85811E-04 11730   0.344E-02    0.749E-02
RMM:   8    -0.705603373497E+03    0.32700E-04   -0.27284E-04  9925   0.204E-02    0.212E-02
RMM:   9    -0.705603376451E+03   -0.29542E-05   -0.14159E-04  8627   0.132E-02    0.181E-02
RMM:  10    -0.705603378851E+03   -0.24002E-05   -0.61798E-05  7504   0.828E-03
  12 F= -.70560338E+03 E0= -.70560218E+03  d E =-.185242E-01
 trial-energy change:   -0.018524  1 .order   -0.017754   -0.033630   -0.001878
 step:   1.1374(harm=  1.1459)  dis= 0.02302  next Energy=  -705.603427 (dE=-0.186E-01)
 bond charge predicted
       N       E                     dE             d eps       ncg     rms          rms(c)
DAV:   1    -0.705603288353E+03    0.88098E-04   -0.55830E-02 11848   0.328E-01    0.438E-02
RMM:   2    -0.705603441947E+03   -0.15359E-03   -0.16608E-03 13106   0.847E-02    0.250E-02
RMM:   3    -0.705603479846E+03   -0.37899E-04   -0.41769E-04 13040   0.371E-02    0.293E-02
RMM:   4    -0.705603476547E+03    0.32997E-05   -0.71013E-05  8091   0.179E-02
  13 F= -.70560348E+03 E0= -.70560233E+03  d E =-.186219E-01
 curvature:  -1.34 expect dE=-0.197E-01 dE for cont linesearch -0.111E-05
 trial: gam= 0.50733 g(F)=  0.146E-01 g(S)=  0.000E+00 ort =-0.247E-03 (trialstep = 0.109E+01)
 search vector abs. value=  0.335E-01
 bond charge predicted
       N       E                     dE             d eps       ncg     rms          rms(c)
DAV:   1    -0.705579093394E+03    0.24386E-01   -0.97898E+00 10656   0.434E+00    0.587E-01
RMM:   2    -0.705606444453E+03   -0.27351E-01   -0.29287E-01 13083   0.114E+00    0.358E-01
RMM:   3    -0.705613370815E+03   -0.69264E-02   -0.77264E-02 14536   0.521E-01    0.402E-01
RMM:   4    -0.705612773110E+03    0.59771E-03   -0.13338E-02 15074   0.198E-01    0.176E-01
RMM:   5    -0.705612451455E+03    0.32166E-03   -0.30924E-03 15031   0.808E-02    0.134E-01
RMM:   6    -0.705612348577E+03    0.10288E-03   -0.13333E-03 12608   0.506E-02    0.321E-02
RMM:   7    -0.705612369217E+03   -0.20639E-04   -0.41678E-04 10309   0.251E-02    0.361E-02
RMM:   8    -0.705612365643E+03    0.35738E-05   -0.14158E-04  8745   0.146E-02    0.120E-02
RMM:   9    -0.705612371188E+03   -0.55449E-05   -0.81000E-05  7836   0.884E-03
  14 F= -.70561237E+03 E0= -.70561183E+03  d E =-.889464E-02
 trial-energy change:   -0.008895  1 .order   -0.008156   -0.015869   -0.000443
 step:   1.1173(harm=  1.1244)  dis= 0.01703  next Energy=  -705.612376 (dE=-0.890E-02)
 bond charge predicted
       N       E                     dE             d eps       ncg     rms          rms(c)
DAV:   1    -0.705612375038E+03   -0.93947E-05   -0.49496E-03 11704   0.981E-02    0.111E-02
RMM:   2    -0.705612390584E+03   -0.15546E-04   -0.16721E-04 11673   0.271E-02    0.606E-03
RMM:   3    -0.705612393576E+03   -0.29922E-05   -0.42609E-05  7294   0.121E-02
  15 F= -.70561239E+03 E0= -.70561187E+03  d E =-.891703E-02
 curvature:  -1.23 expect dE=-0.745E-02 dE for cont linesearch -0.572E-06
 trial: gam= 0.36929 g(F)=  0.606E-02 g(S)=  0.000E+00 ort = 0.125E-03 (trialstep = 0.110E+01)
 search vector abs. value=  0.107E-01
 bond charge predicted
       N       E                     dE             d eps       ncg     rms          rms(c)
DAV:   1    -0.705605930783E+03    0.64598E-02   -0.30647E+00 10976   0.251E+00    0.289E-01
RMM:   2    -0.705614565257E+03   -0.86345E-02   -0.92576E-02 13153   0.655E-01    0.129E-01
RMM:   3    -0.705616806582E+03   -0.22413E-02   -0.23625E-02 14968   0.281E-01    0.162E-01
RMM:   4    -0.705616829848E+03   -0.23266E-04   -0.31754E-03 15124   0.103E-01    0.969E-02
RMM:   5    -0.705616728433E+03    0.10141E-03   -0.72306E-04 13868   0.408E-02    0.559E-02
RMM:   6    -0.705616707179E+03    0.21254E-04   -0.44867E-04 12056   0.293E-02    0.258E-02
RMM:   7    -0.705616707654E+03   -0.47484E-06   -0.94170E-05  8692   0.151E-02
  16 F= -.70561671E+03 E0= -.70561634E+03  d E =-.431408E-02
 trial-energy change:   -0.004314  1 .order   -0.004128   -0.006703   -0.001553
 step:   1.3589(harm=  1.4289)  dis= 0.00989  next Energy=  -705.616895 (dE=-0.450E-02)
 bond charge predicted
       N       E                     dE             d eps       ncg     rms          rms(c)
DAV:   1    -0.705616343332E+03    0.36385E-03   -0.17441E-01 11768   0.598E-01    0.724E-02
RMM:   2    -0.705616855609E+03   -0.51228E-03   -0.54656E-03 13306   0.156E-01    0.318E-02
RMM:   3    -0.705616985549E+03   -0.12994E-03   -0.13419E-03 14747   0.664E-02    0.408E-02
RMM:   4    -0.705616985340E+03    0.20876E-06   -0.19144E-04 11328   0.259E-02    0.226E-02
RMM:   5    -0.705616981021E+03    0.43193E-05   -0.60716E-05  7863   0.144E-02
  17 F= -.70561698E+03 E0= -.70561664E+03  d E =-.458745E-02
 curvature:  -1.20 expect dE=-0.438E-02 dE for cont linesearch -0.182E-04
 trial: gam= 0.56122 g(F)=  0.365E-02 g(S)=  0.000E+00 ort = 0.403E-03 (trialstep = 0.115E+01)
 search vector abs. value=  0.748E-02
 bond charge predicted
       N       E                     dE             d eps       ncg     rms          rms(c)
DAV:   1    -0.705611223577E+03    0.57618E-02   -0.22794E+00 11184   0.222E+00    0.239E-01
RMM:   2    -0.705618095781E+03   -0.68722E-02   -0.72763E-02 13301   0.580E-01    0.101E-01
RMM:   3    -0.705619765125E+03   -0.16693E-02   -0.17412E-02 15011   0.245E-01    0.135E-01
RMM:   4    -0.705619802301E+03   -0.37176E-04   -0.23789E-03 15135   0.890E-02    0.789E-02
RMM:   5    -0.705619723559E+03    0.78743E-04   -0.53035E-04 13317   0.344E-02    0.408E-02
RMM:   6    -0.705619711145E+03    0.12414E-04   -0.30246E-04 11408   0.253E-02    0.227E-02
RMM:   7    -0.705619711405E+03   -0.26053E-06   -0.66090E-05  8168   0.135E-02
  18 F= -.70561971E+03 E0= -.70561946E+03  d E =-.273038E-02
 trial-energy change:   -0.002730  1 .order   -0.002614   -0.004462   -0.000766
 step:   1.3451(harm=  1.3883)  dis= 0.00566  next Energy=  -705.619777 (dE=-0.280E-02)
 bond charge predicted
       N       E                     dE             d eps       ncg     rms          rms(c)
DAV:   1    -0.705619548318E+03    0.16283E-03   -0.66437E-02 12136   0.379E-01    0.431E-02
RMM:   2    -0.705619761773E+03   -0.21345E-03   -0.22484E-03 13652   0.991E-02    0.189E-02
RMM:   3    -0.705619810831E+03   -0.49058E-04   -0.50473E-04 13940   0.416E-02    0.263E-02
RMM:   4    -0.705619810359E+03    0.47211E-06   -0.79727E-05  8977   0.183E-02
  19 F= -.70561981E+03 E0= -.70561956E+03  d E =-.282934E-02
 curvature:  -1.29 expect dE=-0.391E-02 dE for cont linesearch -0.238E-05
 trial: gam= 0.91108 g(F)=  0.302E-02 g(S)=  0.000E+00 ort =-0.117E-03 (trialstep = 0.987E+00)
 search vector abs. value=  0.901E-02
 bond charge predicted
       N       E                     dE             d eps       ncg     rms          rms(c)
DAV:   1    -0.705614883775E+03    0.49271E-02   -0.19945E+00 11192   0.208E+00    0.214E-01
RMM:   2    -0.705620469813E+03   -0.55860E-02   -0.58686E-02 13066   0.534E-01    0.974E-02
RMM:   3    -0.705622082300E+03   -0.16125E-02   -0.16068E-02 14954   0.234E-01    0.134E-01
RMM:   4    -0.705622099705E+03   -0.17405E-04   -0.21148E-03 15060   0.863E-02    0.710E-02
RMM:   5    -0.705622051249E+03    0.48456E-04   -0.48886E-04 13191   0.327E-02    0.366E-02
RMM:   6    -0.705622050260E+03    0.98909E-06   -0.22989E-04 10944   0.236E-02    0.228E-02
RMM:   7    -0.705622050763E+03   -0.50314E-06   -0.61182E-05  7998   0.128E-02
  20 F= -.70562205E+03 E0= -.70562185E+03  d E =-.224040E-02
 trial-energy change:   -0.002240  1 .order   -0.001969   -0.002872   -0.001066
 step:   1.2580(harm=  1.5692)  dis= 0.00613  next Energy=  -705.622203 (dE=-0.239E-02)
 bond charge predicted
       N       E                     dE             d eps       ncg     rms          rms(c)
DAV:   1    -0.705621762441E+03    0.28782E-03   -0.15121E-01 11944   0.574E-01    0.640E-02
RMM:   2    -0.705622204667E+03   -0.44223E-03   -0.46340E-03 13364   0.146E-01    0.268E-02
RMM:   3    -0.705622322074E+03   -0.11741E-03   -0.11591E-03 14642   0.622E-02    0.363E-02
RMM:   4    -0.705622323433E+03   -0.13586E-05   -0.16102E-04 11116   0.247E-02    0.186E-02
RMM:   5    -0.705622321031E+03    0.24016E-05   -0.49262E-05  7597   0.131E-02
  21 F= -.70562232E+03 E0= -.70562213E+03  d E =-.251067E-02
 curvature:  -1.74 expect dE=-0.310E-02 dE for cont linesearch -0.633E-04
 ZBRENT: increasing intervall
 opt :   1.7998  next Energy=  -705.622358 (dE=-0.255E-02)
 bond charge predicted
       N       E                     dE             d eps       ncg     rms          rms(c)
DAV:   1    -0.705620262624E+03    0.20608E-02   -0.59978E-01 11272   0.114E+00    0.120E-01
RMM:   2    -0.705621950519E+03   -0.16879E-02   -0.17741E-02 13101   0.293E-01    0.493E-02
RMM:   3    -0.705622416155E+03   -0.46564E-03   -0.47059E-03 15017   0.125E-01    0.598E-02
RMM:   4    -0.705622438225E+03   -0.22070E-04   -0.57969E-04 14519   0.454E-02    0.377E-02
RMM:   5    -0.705622426981E+03    0.11243E-04   -0.14631E-04 10504   0.200E-02    0.210E-02
RMM:   6    -0.705622426140E+03    0.84173E-06   -0.81164E-05  9313   0.142E-02
  22 F= -.70562243E+03 E0= -.70562225E+03  d E =-.261578E-02
 curvature:  -1.00 expect dE=-0.353E-02 dE for cont linesearch -0.162E-04
 trial: gam= 1.33155 g(F)=  0.353E-02 g(S)=  0.000E+00 ort =-0.382E-03 (trialstep = 0.560E+00)
 search vector abs. value=  0.185E-01
 bond charge predicted
       N       E                     dE             d eps       ncg     rms          rms(c)
DAV:   1    -0.705618896676E+03    0.35303E-02   -0.13495E+00 11112   0.169E+00    0.186E-01
RMM:   2    -0.705622572198E+03   -0.36755E-02   -0.38544E-02 12923   0.425E-01    0.804E-02
RMM:   3    -0.705623666006E+03   -0.10938E-02   -0.10677E-02 15016   0.188E-01    0.109E-01
RMM:   4    -0.705623678233E+03   -0.12228E-04   -0.14474E-03 14919   0.708E-02    0.569E-02
RMM:   5    -0.705623647295E+03    0.30939E-04   -0.34517E-04 12600   0.270E-02    0.250E-02
RMM:   6    -0.705623651804E+03   -0.45096E-05   -0.13155E-04 10144   0.181E-02    0.164E-02
RMM:   7    -0.705623652411E+03   -0.60699E-06   -0.39986E-05  7282   0.983E-03
  23 F= -.70562365E+03 E0= -.70562350E+03  d E =-.122627E-02
 trial-energy change:   -0.001226  1 .order   -0.001171   -0.001691   -0.000650
 step:   0.8000(harm=  0.9098)  dis= 0.00636  next Energy=  -705.623796 (dE=-0.137E-02)
 bond charge predicted
       N       E                     dE             d eps       ncg     rms          rms(c)
DAV:   1    -0.705623036411E+03    0.61539E-03   -0.24831E-01 11664   0.726E-01    0.775E-02
RMM:   2    -0.705623724790E+03   -0.68838E-03   -0.72137E-03 13130   0.181E-01    0.342E-02
RMM:   3    -0.705623912512E+03   -0.18772E-03   -0.18677E-03 14869   0.780E-02    0.457E-02
RMM:   4    -0.705623914345E+03   -0.18338E-05   -0.25371E-04 12225   0.303E-02    0.253E-02
RMM:   5    -0.705623908375E+03    0.59699E-05   -0.78857E-05  8912   0.159E-02
  24 F= -.70562391E+03 E0= -.70562377E+03  d E =-.148224E-02
 curvature:  -2.51 expect dE=-0.397E-02 dE for cont linesearch -0.341E-04
 ZBRENT: increasing intervall
 opt :   1.2791  next Energy=  -705.623833 (dE=-0.141E-02)
 bond charge predicted
       N       E                     dE             d eps       ncg     rms          rms(c)
DAV:   1    -0.705620478538E+03    0.34358E-02   -0.98507E-01 11160   0.145E+00    0.159E-01
RMM:   2    -0.705623144978E+03   -0.26664E-02   -0.27988E-02 12893   0.364E-01    0.674E-02
RMM:   3    -0.705623932227E+03   -0.78725E-03   -0.77408E-03 15069   0.160E-01    0.883E-02
RMM:   4    -0.705623949169E+03   -0.16943E-04   -0.10317E-03 14805   0.600E-02    0.480E-02
RMM:   5    -0.705623930163E+03    0.19007E-04   -0.24894E-04 11936   0.238E-02    0.239E-02
RMM:   6    -0.705623933089E+03   -0.29267E-05   -0.11060E-04  9966   0.163E-02    0.186E-02
RMM:   7    -0.705623932373E+03    0.71588E-06   -0.31217E-05  7030   0.891E-03
  25 F= -.70562393E+03 E0= -.70562380E+03  d E =-.150623E-02
 curvature:   5.56 expect dE= 0.113E-01 dE for cont linesearch  0.230E-03
 ZBRENT: bracketing found
 ZBRENT: interpolating
 opt :   0.9745  next Energy=  -705.623952 (dE=-0.153E-02)
 bond charge predicted
       N       E                     dE             d eps       ncg     rms          rms(c)
DAV:   1    -0.705622617685E+03    0.13154E-02   -0.39760E-01 11088   0.918E-01    0.956E-02
RMM:   2    -0.705623690548E+03   -0.10729E-02   -0.11266E-02 12967   0.231E-01    0.398E-02
RMM:   3    -0.705623991045E+03   -0.30050E-03   -0.30415E-03 15053   0.992E-02    0.481E-02
RMM:   4    -0.705624004867E+03   -0.13822E-04   -0.36981E-04 13354   0.368E-02    0.319E-02
RMM:   5    -0.705623994199E+03    0.10668E-04   -0.97927E-05  9826   0.181E-02    0.128E-02
RMM:   6    -0.705623995704E+03   -0.15045E-05   -0.46788E-05  7716   0.108E-02
  26 F= -.70562400E+03 E0= -.70562386E+03  d E =-.156956E-02
 curvature:  -1.06 expect dE=-0.174E-02 dE for cont linesearch -0.248E-05
 trial: gam= 0.11320 g(F)=  0.165E-02 g(S)=  0.000E+00 ort = 0.208E-03 (trialstep = 0.643E+00)
 search vector abs. value=  0.193E-02
 bond charge predicted
       N       E                     dE             d eps       ncg     rms          rms(c)
DAV:   1    -0.705624052970E+03   -0.58771E-04   -0.18446E-01 10712   0.634E-01    0.649E-02
RMM:   2    -0.705624665655E+03   -0.61269E-03   -0.64839E-03 13602   0.173E-01    0.262E-02
RMM:   3    -0.705624789568E+03   -0.12391E-03   -0.13888E-03 15039   0.674E-02    0.254E-02
RMM:   4    -0.705624796327E+03   -0.67595E-05   -0.15716E-04 11788   0.231E-02    0.209E-02
RMM:   5    -0.705624790289E+03    0.60384E-05   -0.59529E-05  8776   0.151E-02
  27 F= -.70562479E+03 E0= -.70562466E+03  d E =-.794585E-03
 trial-energy change:   -0.000795  1 .order   -0.000787   -0.001075   -0.000500
 step:   1.2032(harm=  1.2032)  dis= 0.00288  next Energy=  -705.625001 (dE=-0.101E-02)
 bond charge predicted
       N       E                     dE             d eps       ncg     rms          rms(c)
DAV:   1    -0.705624479013E+03    0.31731E-03   -0.13962E-01 11048   0.552E-01    0.616E-02
RMM:   2    -0.705624951316E+03   -0.47230E-03   -0.49901E-03 13678   0.152E-01    0.259E-02
RMM:   3    -0.705625055339E+03   -0.10402E-03   -0.10914E-03 14625   0.620E-02    0.352E-02
RMM:   4    -0.705625056192E+03   -0.85361E-06   -0.15840E-04 11416   0.245E-02    0.191E-02
RMM:   5    -0.705625050990E+03    0.52021E-05   -0.45314E-05  7646   0.138E-02
  28 F= -.70562505E+03 E0= -.70562492E+03  d E =-.105529E-02
 curvature:  -0.70 expect dE=-0.706E-03 dE for cont linesearch -0.811E-06
 trial: gam= 0.59531 g(F)=  0.102E-02 g(S)=  0.000E+00 ort = 0.475E-04 (trialstep = 0.755E+00)
 search vector abs. value=  0.176E-02
 bond charge predicted
       N       E                     dE             d eps       ncg     rms          rms(c)
DAV:   1    -0.705624752776E+03    0.30342E-03   -0.22611E-01 11088   0.712E-01    0.735E-02
RMM:   2    -0.705625464699E+03   -0.71192E-03   -0.74862E-03 13341   0.190E-01    0.314E-02
RMM:   3    -0.705625645928E+03   -0.18123E-03   -0.18662E-03 14598   0.825E-02    0.441E-02
RMM:   4    -0.705625650868E+03   -0.49403E-05   -0.26768E-04 12350   0.310E-02    0.241E-02
RMM:   5    -0.705625646041E+03    0.48270E-05   -0.67732E-05  8609   0.159E-02
  29 F= -.70562565E+03 E0= -.70562553E+03  d E =-.595051E-03
 trial-energy change:   -0.000595  1 .order   -0.000547   -0.000788   -0.000307
 step:   1.0218(harm=  1.2358)  dis= 0.00183  next Energy=  -705.625702 (dE=-0.651E-03)
 bond charge predicted
       N       E                     dE             d eps       ncg     rms          rms(c)
DAV:   1    -0.705625639144E+03    0.11724E-04   -0.27756E-02 11944   0.251E-01    0.313E-02
RMM:   2    -0.705625726082E+03   -0.86937E-04   -0.92305E-04 13336   0.693E-02    0.206E-02
RMM:   3    -0.705625748052E+03   -0.21970E-04   -0.25125E-04 11699   0.330E-02    0.207E-02
RMM:   4    -0.705625747790E+03    0.26138E-06   -0.56501E-05  7876   0.164E-02
  30 F= -.70562575E+03 E0= -.70562563E+03  d E =-.696800E-03
 curvature:  -0.83 expect dE=-0.344E-03 dE for cont linesearch -0.716E-05
 ZBRENT: extrapolating
 opt :   1.1374  next Energy=  -705.625755 (dE=-0.704E-03)
 bond charge predicted
       N       E                     dE             d eps       ncg     rms          rms(c)
DAV:   1    -0.705625753813E+03   -0.57612E-05   -0.54702E-03 12096   0.111E-01    0.118E-02
RMM:   2    -0.705625771537E+03   -0.17723E-04   -0.19743E-04 12891   0.319E-02    0.754E-03
RMM:   3    -0.705625775029E+03   -0.34925E-05   -0.49955E-05  8309   0.141E-02
  31 F= -.70562578E+03 E0= -.70562566E+03  d E =-.724039E-03
 curvature:  -0.83 expect dE=-0.415E-03 dE for cont linesearch -0.266E-05
 trial: gam= 0.46462 g(F)=  0.502E-03 g(S)=  0.000E+00 ort = 0.751E-04 (trialstep = 0.832E+00)
 search vector abs. value=  0.951E-03
 bond charge predicted
       N       E                     dE             d eps       ncg     rms          rms(c)
DAV:   1    -0.705625571961E+03    0.19958E-03   -0.14823E-01 11208   0.581E-01    0.564E-02
RMM:   2    -0.705626034482E+03   -0.46252E-03   -0.48564E-03 13246   0.155E-01    0.254E-02
RMM:   3    -0.705626157763E+03   -0.12328E-03   -0.12491E-03 14578   0.672E-02    0.382E-02
RMM:   4    -0.705626159139E+03   -0.13758E-05   -0.17775E-04 11446   0.259E-02    0.199E-02
RMM:   5    -0.705626153801E+03    0.53381E-05   -0.43188E-05  7453   0.135E-02
  32 F= -.70562615E+03 E0= -.70562604E+03  d E =-.378772E-03
 trial-energy change:   -0.000379  1 .order   -0.000331   -0.000446   -0.000216
 step:   1.1246(harm=  1.6136)  dis= 0.00122  next Energy=  -705.626194 (dE=-0.419E-03)
 bond charge predicted
       N       E                     dE             d eps       ncg     rms          rms(c)
DAV:   1    -0.705626155926E+03    0.32128E-05   -0.18020E-02 11832   0.203E-01    0.240E-02
RMM:   2    -0.705626212479E+03   -0.56552E-04   -0.60151E-04 13211   0.555E-02    0.880E-03
RMM:   3    -0.705626227194E+03   -0.14715E-04   -0.15867E-04 11971   0.226E-02    0.815E-03
RMM:   4    -0.705626227791E+03   -0.59730E-06   -0.21678E-05  6112   0.121E-02
  33 F= -.70562623E+03 E0= -.70562612E+03  d E =-.452762E-03
 curvature:  -0.87 expect dE=-0.215E-03 dE for cont linesearch -0.113E-04
 ZBRENT: increasing intervall
 opt :   1.7105  next Energy=  -705.626206 (dE=-0.430E-03)
 bond charge predicted
       N       E                     dE             d eps       ncg     rms          rms(c)
DAV:   1    -0.705625995826E+03    0.23137E-03   -0.73658E-02 11272   0.409E-01    0.398E-02
RMM:   2    -0.705626223702E+03   -0.22788E-03   -0.24060E-03 13253   0.110E-01    0.149E-02
RMM:   3    -0.705626280623E+03   -0.56921E-04   -0.61468E-04 14788   0.446E-02    0.144E-02
RMM:   4    -0.705626284639E+03   -0.40162E-05   -0.69866E-05  9448   0.168E-02
  34 F= -.70562628E+03 E0= -.70562618E+03  d E =-.509610E-03
 curvature:   1.72 expect dE= 0.105E-02 dE for cont linesearch  0.221E-04
 ZBRENT: bracketing found
 ZBRENT: interpolating
 opt :   1.4180  next Energy=  -705.626301 (dE=-0.526E-03)
 bond charge predicted
       N       E                     dE             d eps       ncg     rms          rms(c)
DAV:   1    -0.705626187783E+03    0.92840E-04   -0.18197E-02 11336   0.206E-01    0.221E-02
RMM:   2    -0.705626255777E+03   -0.67994E-04   -0.70019E-04 13227   0.605E-02    0.178E-02
RMM:   3    -0.705626271750E+03   -0.15973E-04   -0.19520E-04 11647   0.293E-02    0.138E-02
RMM:   4    -0.705626272723E+03   -0.97303E-06   -0.39447E-05  7216   0.140E-02
  35 F= -.70562627E+03 E0= -.70562617E+03  d E =-.497694E-03
 curvature:  -1.26 expect dE=-0.592E-03 dE for cont linesearch -0.545E-04
 ZBRENT: interpolating
 opt :   1.6073  next Energy=  -705.626290 (dE=-0.515E-03)
 bond charge predicted
       N       E                     dE             d eps       ncg     rms          rms(c)
DAV:   1    -0.705626250501E+03    0.21249E-04   -0.75237E-03 11160   0.131E-01    0.149E-02
RMM:   2    -0.705626276925E+03   -0.26424E-04   -0.27517E-04 13302   0.353E-02    0.399E-03
RMM:   3    -0.705626281636E+03   -0.47107E-05   -0.56375E-05  8561   0.147E-02
  36 F= -.70562628E+03 E0= -.70562617E+03  d E =-.506606E-03
 curvature:  -0.13 expect dE=-0.730E-04 dE for cont linesearch -0.120E-05
 ZBRENT: bisectioning
 opt :   1.5127  next Energy=  -705.626290 (dE=-0.515E-03)
 bond charge predicted
       N       E                     dE             d eps       ncg     rms          rms(c)
DAV:   1    -0.705626272510E+03    0.44150E-05   -0.18243E-03 11296   0.657E-02    0.875E-03
RMM:   2    -0.705626279550E+03   -0.70401E-05   -0.74591E-05  9563   0.180E-02
  37 F= -.70562628E+03 E0= -.70562617E+03  d E =-.504521E-03
 curvature:  -0.88 expect dE=-0.474E-03 dE for cont linesearch -0.526E-04
 ZBRENT: interpolating
 opt :   1.5807  next Energy=  -705.626283 (dE=-0.508E-03)
 bond charge predicted
       N       E                     dE             d eps       ncg     rms          rms(c)
DAV:   1    -0.705626278514E+03   -0.60043E-05   -0.90614E-04 11616   0.481E-02    0.692E-03
RMM:   2    -0.705626281779E+03   -0.32651E-05   -0.30166E-05  6375   0.128E-02
  38 F= -.70562628E+03 E0= -.70562617E+03  d E =-.506750E-03
 curvature:  -0.02 expect dE=-0.110E-04 dE for cont linesearch -0.122E-06
 trial: gam= 1.34952 g(F)=  0.533E-03 g(S)=  0.000E+00 ort =-0.749E-04 (trialstep = 0.453E+00)
 search vector abs. value=  0.206E-02
 bond charge predicted
       N       E                     dE             d eps       ncg     rms          rms(c)
DAV:   1    -0.705626143558E+03    0.13496E-03   -0.95079E-02 11296   0.466E-01    0.455E-02
RMM:   2    -0.705626420674E+03   -0.27712E-03   -0.28897E-03 13011   0.120E-01    0.202E-02
RMM:   3    -0.705626502753E+03   -0.82079E-04   -0.81778E-04 13919   0.557E-02    0.293E-02
RMM:   4    -0.705626505604E+03   -0.28515E-05   -0.13096E-04 10854   0.223E-02    0.152E-02
RMM:   5    -0.705626504728E+03    0.87654E-06   -0.26793E-05  6623   0.111E-02
  39 F= -.70562650E+03 E0= -.70562640E+03  d E =-.222949E-03
 trial-energy change:   -0.000223  1 .order   -0.000167   -0.000195   -0.000138
 step:   1.5532(harm=  1.5532)  dis= 0.00240  next Energy=  -705.626617 (dE=-0.335E-03)
 bond charge predicted
       N       E                     dE             d eps       ncg     rms          rms(c)
DAV:   1    -0.705624632608E+03    0.18730E-02   -0.55725E-01 11360   0.112E+00    0.114E-01
RMM:   2    -0.705626224877E+03   -0.15923E-02   -0.16607E-02 12958   0.286E-01    0.434E-02
RMM:   3    -0.705626696078E+03   -0.47120E-03   -0.46252E-03 15094   0.124E-01    0.633E-02
RMM:   4    -0.705626712236E+03   -0.16158E-04   -0.56074E-04 14521   0.452E-02    0.346E-02
RMM:   5    -0.705626703676E+03    0.85597E-05   -0.13040E-04 10393   0.187E-02    0.207E-02
RMM:   6    -0.705626699565E+03    0.41109E-05   -0.77836E-05  9500   0.139E-02
  40 F= -.70562670E+03 E0= -.70562660E+03  d E =-.417786E-03
 curvature:  -3.71 expect dE=-0.184E-02 dE for cont linesearch -0.248E-05
 trial: gam= 0.71459 g(F)=  0.496E-03 g(S)=  0.000E+00 ort = 0.371E-04 (trialstep = 0.673E+00)
 search vector abs. value=  0.160E-02
 bond charge predicted
       N       E                     dE             d eps       ncg     rms          rms(c)
DAV:   1    -0.705626299437E+03    0.40424E-03   -0.16686E-01 11432   0.608E-01    0.677E-02
RMM:   2    -0.705626789999E+03   -0.49056E-03   -0.51516E-03 12804   0.152E-01    0.223E-02
RMM:   3    -0.705626916237E+03   -0.12624E-03   -0.13170E-03 15152   0.642E-02    0.225E-02
RMM:   4    -0.705626927442E+03   -0.11205E-04   -0.16165E-04 11749   0.237E-02    0.192E-02
RMM:   5    -0.705626925192E+03    0.22501E-05   -0.42906E-05  7536   0.131E-02
  41 F= -.70562693E+03 E0= -.70562683E+03  d E =-.225627E-03
 trial-energy change:   -0.000226  1 .order   -0.000219   -0.000352   -0.000087
 step:   0.8927(harm=  0.8927)  dis= 0.00115  next Energy=  -705.626933 (dE=-0.233E-03)
 bond charge predicted
       N       E                     dE             d eps       ncg     rms          rms(c)
DAV:   1    -0.705626894868E+03    0.32574E-04   -0.17448E-02 12296   0.197E-01    0.248E-02
RMM:   2    -0.705626944479E+03   -0.49612E-04   -0.52715E-04 12791   0.507E-02    0.115E-02
RMM:   3    -0.705626958484E+03   -0.14004E-04   -0.14668E-04 11188   0.235E-02    0.158E-02
RMM:   4    -0.705626957611E+03    0.87339E-06   -0.28513E-05  6519   0.133E-02
  42 F= -.70562696E+03 E0= -.70562686E+03  d E =-.258045E-03
 curvature:  -1.37 expect dE=-0.320E-03 dE for cont linesearch -0.514E-06
 trial: gam= 0.25535 g(F)=  0.234E-03 g(S)=  0.000E+00 ort =-0.245E-04 (trialstep = 0.717E+00)
 search vector abs. value=  0.326E-03
 bond charge predicted
       N       E                     dE             d eps       ncg     rms          rms(c)
DAV:   1    -0.705626946608E+03    0.11876E-04   -0.37322E-02 11136   0.293E-01    0.285E-02
RMM:   2    -0.705627071525E+03   -0.12492E-03   -0.13177E-03 13442   0.813E-02    0.111E-02
RMM:   3    -0.705627102218E+03   -0.30692E-04   -0.32913E-04 13808   0.332E-02    0.148E-02
RMM:   4    -0.705627103343E+03   -0.11251E-05   -0.40480E-05  7398   0.143E-02
  43 F= -.70562710E+03 E0= -.70562701E+03  d E =-.145732E-03
 trial-energy change:   -0.000146  1 .order   -0.000111   -0.000163   -0.000060
 step:   1.1328(harm=  1.1328)  dis= 0.00073  next Energy=  -705.627086 (dE=-0.129E-03)
 bond charge predicted
       N       E                     dE             d eps       ncg     rms          rms(c)
DAV:   1    -0.705627095677E+03    0.65402E-05   -0.12608E-02 11672   0.170E-01    0.158E-02
RMM:   2    -0.705627136239E+03   -0.40562E-04   -0.44717E-04 13351   0.481E-02    0.851E-03
RMM:   3    -0.705627145970E+03   -0.97309E-05   -0.11677E-04 10604   0.205E-02    0.106E-02
RMM:   4    -0.705627146200E+03   -0.23005E-06   -0.20560E-05  6106   0.121E-02
  44 F= -.70562715E+03 E0= -.70562705E+03  d E =-.188590E-03
 curvature:  -0.81 expect dE=-0.104E-03 dE for cont linesearch -0.121E-05
 trial: gam= 0.48664 g(F)=  0.128E-03 g(S)=  0.000E+00 ort = 0.220E-04 (trialstep = 0.800E+00)
 search vector abs. value=  0.226E-03
 bond charge predicted
       N       E                     dE             d eps       ncg     rms          rms(c)
DAV:   1    -0.705627114303E+03    0.31667E-04   -0.33302E-02 11112   0.273E-01    0.280E-02
RMM:   2    -0.705627221288E+03   -0.10698E-03   -0.11250E-03 13260   0.733E-02    0.935E-03
RMM:   3    -0.705627245609E+03   -0.24322E-04   -0.26554E-04 13363   0.293E-02    0.907E-03
RMM:   4    -0.705627246985E+03   -0.13752E-05   -0.32533E-05  6698   0.135E-02
  45 F= -.70562725E+03 E0= -.70562715E+03  d E =-.100785E-03
 trial-energy change:   -0.000101  1 .order   -0.000074   -0.000111   -0.000037
 step:   1.2066(harm=  1.2066)  dis= 0.00068  next Energy=  -705.627230 (dE=-0.836E-04)
 bond charge predicted
       N       E                     dE             d eps       ncg     rms          rms(c)
DAV:   1    -0.705627237708E+03    0.79017E-05   -0.86633E-03 11672   0.140E-01    0.152E-02
RMM:   2    -0.705627267034E+03   -0.29326E-04   -0.31038E-04 12991   0.396E-02    0.131E-02
RMM:   3    -0.705627272490E+03   -0.54561E-05   -0.82719E-05  9645   0.188E-02
  46 F= -.70562727E+03 E0= -.70562717E+03  d E =-.126290E-03
 curvature:  -0.99 expect dE=-0.640E-04 dE for cont linesearch -0.639E-06
 trial: gam= 0.73792 g(F)=  0.649E-04 g(S)=  0.000E+00 ort =-0.121E-04 (trialstep = 0.881E+00)
 search vector abs. value=  0.170E-03
 bond charge predicted
       N       E                     dE             d eps       ncg     rms          rms(c)
DAV:   1    -0.705627221732E+03    0.45302E-04   -0.29948E-02 11296   0.261E-01    0.257E-02
RMM:   2    -0.705627316732E+03   -0.95000E-04   -0.99918E-04 13130   0.719E-02    0.118E-02
RMM:   3    -0.705627343775E+03   -0.27043E-04   -0.28279E-04 12206   0.329E-02    0.158E-02
RMM:   4    -0.705627345491E+03   -0.17162E-05   -0.50963E-05  8241   0.169E-02
  47 F= -.70562735E+03 E0= -.70562725E+03  d E =-.730016E-04
 trial-energy change:   -0.000073  1 .order   -0.000028   -0.000049   -0.000007
 step:   0.9008(harm=  1.0280)  dis= 0.00038  next Energy=  -705.627346 (dE=-0.731E-04)
 bond charge predicted
       N       E                     dE             d eps       ncg     rms          rms(c)
DAV:   1    -0.705627346197E+03   -0.24220E-05   -0.31181E-05  9016   0.117E-02    0.556E-03
RMM:   2    -0.705627346425E+03   -0.22764E-06   -0.68535E-06  5833   0.686E-03
  48 F= -.70562735E+03 E0= -.70562725E+03  d E =-.739350E-04
 curvature:  -0.39 expect dE=-0.104E-04 dE for cont linesearch -0.219E-05
 ZBRENT: increasing intervall
 opt :   0.9400  next Energy=  -705.627349 (dE=-0.760E-04)
 bond charge predicted
       N       E                     dE             d eps       ncg     rms          rms(c)
DAV:   1    -0.705627348698E+03   -0.25005E-05   -0.63123E-05 10624   0.163E-02    0.386E-03
RMM:   2    -0.705627349716E+03   -0.10179E-05   -0.98592E-06  5531   0.844E-03
  49 F= -.70562735E+03 E0= -.70562725E+03  d E =-.772257E-04
 curvature:  -0.38 expect dE=-0.125E-04 dE for cont linesearch -0.176E-05
 ZBRENT: increasing intervall
 opt :   1.0183  next Energy=  -705.627352 (dE=-0.792E-04)
 bond charge predicted
       N       E                     dE             d eps       ncg     rms          rms(c)
DAV:   1    -0.705627352611E+03   -0.39135E-05   -0.25630E-04 12264   0.277E-02    0.267E-03
RMM:   2    -0.705627353487E+03   -0.87609E-06   -0.93598E-06  5450   0.717E-03
  50 F= -.70562735E+03 E0= -.70562725E+03  d E =-.809974E-04
 curvature:  -0.43 expect dE=-0.148E-04 dE for cont linesearch -0.279E-05
 ZBRENT: increasing intervall
 opt :   1.1749  next Energy=  -705.627360 (dE=-0.870E-04)
 bond charge predicted
       N       E                     dE             d eps       ncg     rms          rms(c)
DAV:   1    -0.705627357151E+03   -0.45397E-05   -0.95377E-04 11456   0.479E-02    0.519E-03
RMM:   2    -0.705627361398E+03   -0.42475E-05   -0.44117E-05  7902   0.155E-02
  51 F= -.70562736E+03 E0= -.70562726E+03  d E =-.889085E-04
 curvature:  -0.92 expect dE=-0.340E-04 dE for cont linesearch -0.885E-08
 trial: gam= 0.69438 g(F)=  0.369E-04 g(S)=  0.000E+00 ort = 0.128E-05 (trialstep = 0.940E+00)
 search vector abs. value=  0.121E-03
 bond charge predicted
       N       E                     dE             d eps       ncg     rms          rms(c)
DAV:   1    -0.705627316379E+03    0.40772E-04   -0.24380E-02 11424   0.235E-01    0.238E-02
RMM:   2    -0.705627390763E+03   -0.74384E-04   -0.77962E-04 12900   0.625E-02    0.117E-02
RMM:   3    -0.705627411619E+03   -0.20856E-04   -0.21340E-04 11656   0.286E-02    0.165E-02
RMM:   4    -0.705627411751E+03   -0.13248E-06   -0.40094E-05  7283   0.153E-02
  52 F= -.70562741E+03 E0= -.70562731E+03  d E =-.503528E-04
 trial-energy change:   -0.000050  1 .order   -0.000018   -0.000036   -0.000000
 step:   0.9424(harm=  0.9424)  dis= 0.00032  next Energy=  -705.627379 (dE=-0.178E-04)
 bond charge predicted
       N       E                     dE             d eps       ncg     rms          rms(c)
DAV:   1    -0.705627411408E+03    0.21097E-06   -0.88243E-06  7112   0.890E-03    0.459E-03
RMM:   2    -0.705627411620E+03   -0.21249E-06   -0.53176E-06  5813   0.598E-03
  53 F= -.70562741E+03 E0= -.70562731E+03  d E =-.502219E-04
 curvature:  -1.51 expect dE=-0.471E-04 dE for cont linesearch -0.968E-05
 ZBRENT: increasing intervall
 opt :   0.9471  next Energy=  -705.627412 (dE=-0.505E-04)
 bond charge predicted
       N       E                     dE             d eps       ncg     rms          rms(c)
DAV:   1    -0.705627411800E+03   -0.39185E-06   -0.24586E-06  7136   0.107E-02    0.314E-03
RMM:   2    -0.705627412182E+03   -0.38221E-06   -0.28886E-06  5358   0.400E-03
  54 F= -.70562741E+03 E0= -.70562731E+03  d E =-.507834E-04
 curvature:  -0.04 expect dE=-0.112E-05 dE for cont linesearch -0.181E-06
 ZBRENT: increasing intervall
 opt :   0.9567  next Energy=  -705.627412 (dE=-0.510E-04)
 bond charge predicted
       N       E                     dE             d eps       ncg     rms          rms(c)
DAV:   1    -0.705627412080E+03   -0.28020E-06   -0.32309E-06  5584   0.975E-03    0.125E-03
RMM:   2    -0.705627412291E+03   -0.21132E-06   -0.20475E-06  5174   0.343E-03
  55 F= -.70562741E+03 E0= -.70562731E+03  d E =-.508928E-04
 curvature:  -0.04 expect dE=-0.908E-06 dE for cont linesearch -0.273E-07
 ZBRENT: increasing intervall
 opt :   0.9757  next Energy=  -705.627412 (dE=-0.508E-04)
 bond charge predicted
       N       E                     dE             d eps       ncg     rms          rms(c)
DAV:   1    -0.705627412525E+03   -0.44483E-06   -0.11251E-05  5496   0.745E-03    0.138E-03
RMM:   2    -0.705627412981E+03   -0.45606E-06   -0.45867E-06  5142   0.627E-03
  56 F= -.70562741E+03 E0= -.70562731E+03  d E =-.515823E-04
 curvature:   0.13 expect dE= 0.313E-05 dE for cont linesearch  0.165E-07
 trial: gam= 0.80419 g(F)=  0.240E-04 g(S)=  0.000E+00 ort =-0.391E-05 (trialstep = 0.947E+00)
 search vector abs. value=  0.959E-04
 bond charge predicted
       N       E                     dE             d eps       ncg     rms          rms(c)
DAV:   1    -0.705627382031E+03    0.30494E-04   -0.19754E-02 11264   0.211E-01    0.210E-02
RMM:   2    -0.705627437833E+03   -0.55802E-04   -0.58480E-04 12543   0.527E-02    0.811E-03
RMM:   3    -0.705627452375E+03   -0.14543E-04   -0.16168E-04 11539   0.234E-02    0.993E-03
RMM:   4    -0.705627452953E+03   -0.57764E-06   -0.23955E-05  6385   0.124E-02
  57 F= -.70562745E+03 E0= -.70562735E+03  d E =-.399724E-04
 trial-energy change:   -0.000040  1 .order   -0.000014   -0.000020   -0.000008
 step:   1.5301(harm=  1.5301)  dis= 0.00054  next Energy=  -705.627429 (dE=-0.160E-04)
 bond charge predicted
       N       E                     dE             d eps       ncg     rms          rms(c)
DAV:   1    -0.705627445497E+03    0.68784E-05   -0.74950E-03 11728   0.130E-01    0.124E-02
RMM:   2    -0.705627466780E+03   -0.21283E-04   -0.23009E-04 12289   0.333E-02    0.665E-03
RMM:   3    -0.705627471245E+03   -0.44657E-05   -0.61222E-05  9169   0.149E-02
  58 F= -.70562747E+03 E0= -.70562737E+03  d E =-.582646E-04
 curvature:  -3.51 expect dE=-0.109E-03 dE for cont linesearch -0.210E-06
 trial: gam= 1.72392 g(F)=  0.310E-04 g(S)=  0.000E+00 ort =-0.239E-05 (trialstep = 0.332E+00)
 search vector abs. value=  0.308E-03
 bond charge predicted
       N       E                     dE             d eps       ncg     rms          rms(c)
DAV:   1    -0.705627465849E+03    0.93054E-06   -0.77328E-03 11576   0.133E-01    0.128E-02
RMM:   2    -0.705627492549E+03   -0.26700E-04   -0.28313E-04 13339   0.350E-02    0.672E-03
RMM:   3    -0.705627496766E+03   -0.42170E-05   -0.57231E-05  8374   0.146E-02
  59 F= -.70562750E+03 E0= -.70562740E+03  d E =-.255208E-04
 trial-energy change:   -0.000026  1 .order   -0.000005   -0.000009   -0.000002
 step:   0.4158(harm=  0.4158)  dis= 0.00023  next Energy=  -705.627477 (dE=-0.558E-05)
 bond charge predicted
       N       E                     dE             d eps       ncg     rms          rms(c)
DAV:   1    -0.705627501355E+03   -0.88056E-05   -0.55370E-04 13824   0.385E-02    0.534E-03
RMM:   2    -0.705627502305E+03   -0.94987E-06   -0.14373E-05  6044   0.818E-03
  60 F= -.70562750E+03 E0= -.70562741E+03  d E =-.310593E-04
 curvature:  -2.38 expect dE=-0.560E-04 dE for cont linesearch -0.193E-04
 ZBRENT: increasing intervall
 opt :   0.5845  next Energy=  -705.627518 (dE=-0.470E-04)
 bond charge predicted
       N       E                     dE             d eps       ncg     rms          rms(c)
DAV:   1    -0.705627504225E+03   -0.28699E-05   -0.19755E-03 11688   0.683E-02    0.814E-03
RMM:   2    -0.705627511629E+03   -0.74038E-05   -0.76235E-05  8962   0.199E-02
  61 F= -.70562751E+03 E0= -.70562742E+03  d E =-.403832E-04
 curvature:  -1.97 expect dE=-0.359E-04 dE for cont linesearch -0.453E-06
 trial: gam= 0.13261 g(F)=  0.183E-04 g(S)=  0.000E+00 ort =-0.842E-05 (trialstep = 0.382E+00)
 search vector abs. value=  0.215E-04
 reached required accuracy - stopping structural energy minimisation
Warning: ieee_invalid is signaling
Warning: ieee_divide_by_zero is signaling
Warning: ieee_underflow is signaling
Warning: ieee_inexact is signaling
FORTRAN STOP
Warning: ieee_invalid is signaling
Warning: ieee_divide_by_zero is signaling
Warning: ieee_underflow is signaling
Warning: ieee_inexact is signaling
FORTRAN STOP
Warning: ieee_invalid is signaling
Warning: ieee_divide_by_zero is signaling
Warning: ieee_underflow is signaling
Warning: ieee_inexact is signaling
FORTRAN STOP
Warning: ieee_invalid is signaling
Warning: ieee_divide_by_zero is signaling
Warning: ieee_underflow is signaling
Warning: ieee_inexact is signaling
FORTRAN STOP
