Ga8 O12                                 
    1.000000000000000     
     0.0000000000000000   12.2804737091000007    0.0000000000000000
     9.1427011490000005    0.0000000000000000    0.0000000000000000
     0.0000000000000000   -2.7682616411000001  -11.3006974810000003
   Ga   O    Cu   N 
    47    71     1     1
Direct
  0.6585575969412076  0.9983888955164772  0.1546757410770780
  0.6603626084096490  0.0010626860052483  0.6570916671918425
  0.6583553799159887  0.3328268380771462  0.1563821112856303
  0.6596454689098366  0.3348379444769307  0.6577314136041110
  0.6582225233027899  0.6656971762358808  0.1563493795951061
  0.6603374181934427  0.6677560665392690  0.6562755324471894
  0.8418388656604918  0.1670235718621029  0.8430377540321317
  0.8401514256736959  0.4996703561617721  0.3441793931835306
  0.8418613165042217  0.5000454697543901  0.8441014548962755
  0.8399291529638191  0.8347876136044903  0.3418775132754917
  0.8422559788061932  0.8336869013723103  0.8423429977657690
  0.5936223874141362  0.1658929463890573  0.3988729536796853
  0.5910809181155585  0.1666363092637937  0.8972586027989706
  0.5910119297486816  0.4992828966101328  0.3976274213341782
  0.5915000315312682  0.4997732109449089  0.8976544047210950
  0.5910579804015370  0.8334469271672162  0.3963171927764222
  0.5910025425157386  0.8328853086698089  0.8959165320915830
  0.9100626156030103  0.9987677570275153  0.1008896260489678
  0.9079823602803927  0.0063761404003841  0.5983681765858293
  0.9088567456821792  0.3315960460067231  0.1035662481774438
  0.9092480216501855  0.3356569769567344  0.6023512774514757
  0.9086518886422255  0.6659362591938134  0.1025083658388439
  0.9097191344447424  0.6699623028304131  0.6020827410028531
  0.1592578793491199  0.1659257994682619  0.1573690384792030
  0.1598041900561498  0.1674191992998573  0.6567885610000630
  0.1586028396704222  0.4990520837673671  0.1576356896699949
  0.1592519995106016  0.5005894513960669  0.6566413854856918
  0.1595185509117556  0.8325249197040776  0.1570305074287859
  0.1587066490318065  0.8342038545854109  0.6567753023485139
  0.3414900244184125  0.9999267517927635  0.3440068740637727
  0.3412562877176910  0.0000680924256002  0.8434562749361163
  0.3413202568996780  0.3326133605875157  0.3443813879071840
  0.3412614533341625  0.3335020094661303  0.8434377159520423
  0.3412220963769528  0.6661802189572157  0.3439338678190467
  0.3410530592886829  0.6667780247199318  0.8432622855930987
  0.0906413515496354  0.9979589618955771  0.3979672970922792
  0.0917350262341685  0.0000702762328615  0.8976488978538129
  0.0886866215543733  0.3309803912888611  0.3980999799742193
  0.0919511344251163  0.3333286077837059  0.8981728469625523
  0.0907695522436640  0.6650253369544004  0.3977549513960881
  0.0918834692820383  0.6664159090209978  0.8982079190571923
  0.4085627923993513  0.1660987869073836  0.1026025448829131
  0.4101551276963917  0.1670250323878690  0.6029197327837181
  0.4077465051940123  0.4991410095583859  0.1024248140148956
  0.4099010943415067  0.5009699589487653  0.6029140111625111
  0.4088168632284095  0.8325933373175403  0.1023792572300479
  0.4092681346412945  0.8339823956991026  0.6025938312598527
  0.9967241513283227  0.1656211653236070  0.1292898049195657
  0.9980582246281031  0.1704764754344623  0.6307457669363217
  0.9958484680371598  0.4988249656352082  0.1283884533055897
  0.9967370639449342  0.5025746553057999  0.6276385138341354
  0.9970912295087473  0.8319182153879225  0.1269436283938958
  0.9958987648431616  0.8376947503101988  0.6268355892358812
  0.5041920569305347  0.0004162744076908  0.3729647077642610
  0.5037941583389625  0.9997970887809657  0.8722287066445134
  0.5043923768484433  0.3319924123893045  0.3731569050802861
  0.5037608482215532  0.3334605123591174  0.8728976549707781
  0.5037928944853576  0.6664065219478559  0.3731776421359143
  0.5037172205137708  0.6661147699436469  0.8720648890452622
  0.6703937589774043  0.1664940034604072  0.2775573066405812
  0.6731771194011245  0.1673410945649110  0.7809993123028249
  0.6717327541809581  0.4996271732076991  0.2798042272021561
  0.6733437711294883  0.5008130989820145  0.7809336349228104
  0.6696706597279416  0.8307207672945935  0.2771548474659440
  0.6731723059541892  0.8337641079425495  0.7793495420430929
  0.8254956795205359  0.9944200698800074  0.2145365512019382
  0.8287727987662947  0.0014723980429281  0.7193110443035735
  0.8272243794082854  0.3311601750003632  0.2217163940483928
  0.8281671035309799  0.3344274667998377  0.7204065726341398
  0.8271622512920231  0.6653772062306018  0.2196413644270621
  0.8282674777876267  0.6674097188799664  0.7194581331589660
  0.8327799703825178  0.9997867650063483  0.9447997986461303
  0.8274937611471032  0.3369456184724413  0.4477322720800885
  0.8328668342853618  0.3330305836476413  0.9466961694162705
  0.8315166346533260  0.6677092643030633  0.4457436053773449
  0.8328584008620865  0.6671265771184522  0.9455649746507504
  0.6676853594378329  0.1665174800148677  0.0536743511982039
  0.6671510858551528  0.1682678704020617  0.5558192679139680
  0.6686889592097174  0.4989775256753362  0.0543259075091811
  0.6677529371951749  0.5009297164691944  0.5544114363580732
  0.6670886945677523  0.8315272743267741  0.0525184693538279
  0.6703688231094844  0.8353320869063268  0.5527818225004637
  0.4960282790537889  0.9995493083242906  0.1266386746973609
  0.4973926638208539  0.0000379368919425  0.6273999748520040
  0.4958428052398602  0.3329220881912036  0.1269087894647569
  0.4969785624690886  0.3341705400450508  0.6282554096171964
  0.4954264227828062  0.6653493019526948  0.1263062366670340
  0.4975418770437301  0.6678482629351663  0.6270685502996471
  0.0012944346419701  0.1631983850751197  0.3765588186807420
  0.0045339146129564  0.1668225800958965  0.8745791157135656
  0.0027857904115862  0.4987422964041670  0.3733434018081567
  0.0043849682345680  0.4998972426904658  0.8734949948320008
  0.0035329391739154  0.8316510295694570  0.3716119272243930
  0.0046969350876935  0.8331529692279886  0.8729710879530543
  0.1726293974157471  0.9993171293018648  0.2811187167521538
  0.1732617442890358  0.0005883261974091  0.7806909571423475
  0.1716652602289983  0.3314678516094389  0.2818557854259467
  0.1733137757056724  0.3342915963148627  0.7808833000185942
  0.1727352327361231  0.6653940569654964  0.2809577379956991
  0.1726358029527546  0.6674807173124719  0.7804120650748487
  0.3274633994002585  0.1661622782635845  0.2201046252195411
  0.3281008664195753  0.1670293095433024  0.7196742658403039
  0.3271657044491008  0.4985649847105265  0.2203587342067337
  0.3277203904344788  0.5007080964954724  0.7194165765757603
  0.3277213730501032  0.8327830873244650  0.2199901191352822
  0.3276772877482728  0.8335672458493804  0.7195204471950944
  0.3328043414758284  0.1663235111259240  0.4465743116735155
  0.3322071802313360  0.1666779803388394  0.9458578425896533
  0.3329472651473608  0.4997687984306154  0.4464274640942989
  0.3317435890135485  0.5000008030117584  0.9456149471758195
  0.3324552882886493  0.8332140175267355  0.4460590408678300
  0.3321227628729773  0.8332552746613473  0.9457393914684289
  0.1680547922334696  0.9995017852183565  0.0546681800606663
  0.1683450174299068  0.0004000600523426  0.5543705685648277
  0.1681200165985217  0.3328856305536547  0.0551815565925793
  0.1678602473518893  0.3337562827683982  0.5540434938126424
  0.1684124350321810  0.6655150436479076  0.0549357177534731
  0.1676381305253756  0.6672832890743194  0.5542746716965254
  0.8380650245667951  0.1649859435464833  0.3389475786084972
  0.8216778531514848  0.0068887376652000  0.4400521798117296
 
  0.00000000E+00  0.00000000E+00  0.00000000E+00
  0.00000000E+00  0.00000000E+00  0.00000000E+00
  0.00000000E+00  0.00000000E+00  0.00000000E+00
  0.00000000E+00  0.00000000E+00  0.00000000E+00
  0.00000000E+00  0.00000000E+00  0.00000000E+00
  0.00000000E+00  0.00000000E+00  0.00000000E+00
  0.00000000E+00  0.00000000E+00  0.00000000E+00
  0.00000000E+00  0.00000000E+00  0.00000000E+00
  0.00000000E+00  0.00000000E+00  0.00000000E+00
  0.00000000E+00  0.00000000E+00  0.00000000E+00
  0.00000000E+00  0.00000000E+00  0.00000000E+00
  0.00000000E+00  0.00000000E+00  0.00000000E+00
  0.00000000E+00  0.00000000E+00  0.00000000E+00
  0.00000000E+00  0.00000000E+00  0.00000000E+00
  0.00000000E+00  0.00000000E+00  0.00000000E+00
  0.00000000E+00  0.00000000E+00  0.00000000E+00
  0.00000000E+00  0.00000000E+00  0.00000000E+00
  0.00000000E+00  0.00000000E+00  0.00000000E+00
  0.00000000E+00  0.00000000E+00  0.00000000E+00
  0.00000000E+00  0.00000000E+00  0.00000000E+00
  0.00000000E+00  0.00000000E+00  0.00000000E+00
  0.00000000E+00  0.00000000E+00  0.00000000E+00
  0.00000000E+00  0.00000000E+00  0.00000000E+00
  0.00000000E+00  0.00000000E+00  0.00000000E+00
  0.00000000E+00  0.00000000E+00  0.00000000E+00
  0.00000000E+00  0.00000000E+00  0.00000000E+00
  0.00000000E+00  0.00000000E+00  0.00000000E+00
  0.00000000E+00  0.00000000E+00  0.00000000E+00
  0.00000000E+00  0.00000000E+00  0.00000000E+00
  0.00000000E+00  0.00000000E+00  0.00000000E+00
  0.00000000E+00  0.00000000E+00  0.00000000E+00
  0.00000000E+00  0.00000000E+00  0.00000000E+00
  0.00000000E+00  0.00000000E+00  0.00000000E+00
  0.00000000E+00  0.00000000E+00  0.00000000E+00
  0.00000000E+00  0.00000000E+00  0.00000000E+00
  0.00000000E+00  0.00000000E+00  0.00000000E+00
  0.00000000E+00  0.00000000E+00  0.00000000E+00
  0.00000000E+00  0.00000000E+00  0.00000000E+00
  0.00000000E+00  0.00000000E+00  0.00000000E+00
  0.00000000E+00  0.00000000E+00  0.00000000E+00
  0.00000000E+00  0.00000000E+00  0.00000000E+00
  0.00000000E+00  0.00000000E+00  0.00000000E+00
  0.00000000E+00  0.00000000E+00  0.00000000E+00
  0.00000000E+00  0.00000000E+00  0.00000000E+00
  0.00000000E+00  0.00000000E+00  0.00000000E+00
  0.00000000E+00  0.00000000E+00  0.00000000E+00
  0.00000000E+00  0.00000000E+00  0.00000000E+00
  0.00000000E+00  0.00000000E+00  0.00000000E+00
  0.00000000E+00  0.00000000E+00  0.00000000E+00
  0.00000000E+00  0.00000000E+00  0.00000000E+00
  0.00000000E+00  0.00000000E+00  0.00000000E+00
  0.00000000E+00  0.00000000E+00  0.00000000E+00
  0.00000000E+00  0.00000000E+00  0.00000000E+00
  0.00000000E+00  0.00000000E+00  0.00000000E+00
  0.00000000E+00  0.00000000E+00  0.00000000E+00
  0.00000000E+00  0.00000000E+00  0.00000000E+00
  0.00000000E+00  0.00000000E+00  0.00000000E+00
  0.00000000E+00  0.00000000E+00  0.00000000E+00
  0.00000000E+00  0.00000000E+00  0.00000000E+00
  0.00000000E+00  0.00000000E+00  0.00000000E+00
  0.00000000E+00  0.00000000E+00  0.00000000E+00
  0.00000000E+00  0.00000000E+00  0.00000000E+00
  0.00000000E+00  0.00000000E+00  0.00000000E+00
  0.00000000E+00  0.00000000E+00  0.00000000E+00
  0.00000000E+00  0.00000000E+00  0.00000000E+00
  0.00000000E+00  0.00000000E+00  0.00000000E+00
  0.00000000E+00  0.00000000E+00  0.00000000E+00
  0.00000000E+00  0.00000000E+00  0.00000000E+00
  0.00000000E+00  0.00000000E+00  0.00000000E+00
  0.00000000E+00  0.00000000E+00  0.00000000E+00
  0.00000000E+00  0.00000000E+00  0.00000000E+00
  0.00000000E+00  0.00000000E+00  0.00000000E+00
  0.00000000E+00  0.00000000E+00  0.00000000E+00
  0.00000000E+00  0.00000000E+00  0.00000000E+00
  0.00000000E+00  0.00000000E+00  0.00000000E+00
  0.00000000E+00  0.00000000E+00  0.00000000E+00
  0.00000000E+00  0.00000000E+00  0.00000000E+00
  0.00000000E+00  0.00000000E+00  0.00000000E+00
  0.00000000E+00  0.00000000E+00  0.00000000E+00
  0.00000000E+00  0.00000000E+00  0.00000000E+00
  0.00000000E+00  0.00000000E+00  0.00000000E+00
  0.00000000E+00  0.00000000E+00  0.00000000E+00
  0.00000000E+00  0.00000000E+00  0.00000000E+00
  0.00000000E+00  0.00000000E+00  0.00000000E+00
  0.00000000E+00  0.00000000E+00  0.00000000E+00
  0.00000000E+00  0.00000000E+00  0.00000000E+00
  0.00000000E+00  0.00000000E+00  0.00000000E+00
  0.00000000E+00  0.00000000E+00  0.00000000E+00
  0.00000000E+00  0.00000000E+00  0.00000000E+00
  0.00000000E+00  0.00000000E+00  0.00000000E+00
  0.00000000E+00  0.00000000E+00  0.00000000E+00
  0.00000000E+00  0.00000000E+00  0.00000000E+00
  0.00000000E+00  0.00000000E+00  0.00000000E+00
  0.00000000E+00  0.00000000E+00  0.00000000E+00
  0.00000000E+00  0.00000000E+00  0.00000000E+00
  0.00000000E+00  0.00000000E+00  0.00000000E+00
  0.00000000E+00  0.00000000E+00  0.00000000E+00
  0.00000000E+00  0.00000000E+00  0.00000000E+00
  0.00000000E+00  0.00000000E+00  0.00000000E+00
  0.00000000E+00  0.00000000E+00  0.00000000E+00
  0.00000000E+00  0.00000000E+00  0.00000000E+00
  0.00000000E+00  0.00000000E+00  0.00000000E+00
  0.00000000E+00  0.00000000E+00  0.00000000E+00
  0.00000000E+00  0.00000000E+00  0.00000000E+00
  0.00000000E+00  0.00000000E+00  0.00000000E+00
  0.00000000E+00  0.00000000E+00  0.00000000E+00
  0.00000000E+00  0.00000000E+00  0.00000000E+00
  0.00000000E+00  0.00000000E+00  0.00000000E+00
  0.00000000E+00  0.00000000E+00  0.00000000E+00
  0.00000000E+00  0.00000000E+00  0.00000000E+00
  0.00000000E+00  0.00000000E+00  0.00000000E+00
  0.00000000E+00  0.00000000E+00  0.00000000E+00
  0.00000000E+00  0.00000000E+00  0.00000000E+00
  0.00000000E+00  0.00000000E+00  0.00000000E+00
  0.00000000E+00  0.00000000E+00  0.00000000E+00
  0.00000000E+00  0.00000000E+00  0.00000000E+00
  0.00000000E+00  0.00000000E+00  0.00000000E+00
  0.00000000E+00  0.00000000E+00  0.00000000E+00
  0.00000000E+00  0.00000000E+00  0.00000000E+00
  0.00000000E+00  0.00000000E+00  0.00000000E+00
