 running    4 mpi-ranks, on    1 nodes
 distrk:  each k-point on    1 cores,    4 groups
 distr:  one band on    1 cores,    1 groups
 OpenACC runtime initialized ...    4 GPUs detected
 vasp.6.4.2 20Jul23 (build Nov 12 2023 22:16:35) complex                         
 POSCAR found type information on POSCAR GaO N Fe
 POSCAR found :  4 types and     120 ions
 scaLAPACK will be used selectively (only on CPU)
 LDA part: xc-table for Pade appr. of Perdew
 POSCAR, INCAR and KPOINTS ok, starting setup
 FFT: planning ... GRIDC
 FFT: planning ... GRID_SOFT
 FFT: planning ... GRID
 WAVECAR not read
 initial charge from wavefunction
 entering main loop
       N       E                     dE             d eps       ncg     rms          ort
DAV:   1    -0.183052095524E+05   -0.18305E+05   -0.54226E+05  5040   0.744E+03
DAV:   2    -0.622651234004E+05   -0.43960E+05   -0.42402E+05  5040   0.121E+03
DAV:   3    -0.669294019311E+05   -0.46643E+04   -0.42356E+04  5040   0.357E+02
DAV:   4    -0.675186062083E+05   -0.58920E+03   -0.50160E+03  5040   0.108E+02
DAV:   5    -0.376080318057E+05    0.29911E+05   -0.73922E+02  5040   0.557E+01
 gam= 0.000 g(H,U,f)=  0.725E+05 0.308E+05 0.677E+04 ort(H,U,f) = 0.000E+00 0.000E+00 0.000E+00
SDA:   6     0.224867146590E+05    0.60095E+05   -0.73922E+02  5040   0.110E+06 0.000E+00
 gam= 0.000 trial= 0.400  step= 0.270 mean= 0.400
 gam= 0.381 g(H,U,f)=  0.179E+05 0.230E+05 0.102E+04 ort(H,U,f) = 0.145E+05-0.135E+05-0.120E+04
CGA:   7     0.534960709641E+04   -0.17137E+05   -0.14894E+05  5040   0.420E+05-0.212E+03
 gam= 0.381 trial= 0.394  step= 0.202 mean= 0.394
 gam= 0.570 g(H,U,f)=  0.993E+04 0.130E+05 0.966E+03 ort(H,U,f) = 0.575E+04-0.389E+04-0.313E+03
CGA:   8     0.264240942229E+04   -0.27072E+04   -0.42297E+04  5040   0.239E+05 0.154E+04
 gam= 0.570 trial= 0.384  step= 0.152 mean= 0.384
 gam= 0.489 g(H,U,f)=  0.605E+04 0.476E+04 0.872E+03 ort(H,U,f) = 0.372E+03-0.193E+04-0.770E+03
CGA:   9     0.134551800003E+04   -0.12969E+04   -0.18802E+04  5040   0.117E+05-0.232E+04
 gam= 0.489 trial= 0.372  step= 0.183 mean= 0.372
 gam= 0.562 g(H,U,f)=  0.356E+04 0.290E+04 0.109E+03 ort(H,U,f) = 0.648E+03 0.409E+03 0.615E+02
CGA:  10     0.635358776922E+03   -0.71016E+03   -0.96451E+03  5040   0.657E+04 0.112E+04
 gam= 0.562 trial= 0.363  step= 0.201 mean= 0.363
 gam= 0.536 g(H,U,f)=  0.262E+04 0.777E+03 0.123E+03 ort(H,U,f) =-0.242E+02 0.217E+03 0.270E+02
CGA:  11     0.139722743812E+03   -0.49564E+03   -0.72187E+03  5040   0.352E+04 0.220E+03
 gam= 0.536 trial= 0.355  step= 0.278 mean= 0.355
 gam= 0.327 g(H,U,f)=  0.101E+04 0.141E+03 0.104E+01 ort(H,U,f) = 0.195E+03 0.208E+03 0.133E+01
CGA:  12    -0.319121775482E+03   -0.45884E+03   -0.50473E+03  5040   0.115E+04 0.404E+03
 gam= 0.327 trial= 0.351  step= 0.418 mean= 0.351
 gam= 0.589 g(H,U,f)=  0.481E+03 0.193E+03 0.272E+01 ort(H,U,f) =-0.143E+02 0.743E+02 0.972E-01
CGA:  13    -0.591266553900E+03   -0.27214E+03   -0.26769E+03  5040   0.677E+03 0.601E+02
 gam= 0.589 trial= 0.354  step= 0.390 mean= 0.354
 gam= 0.954 g(H,U,f)=  0.421E+03 0.216E+03 0.892E+01 ort(H,U,f) =-0.812E+02-0.715E+02 0.130E+02
CGA:  14    -0.724147219275E+03   -0.13288E+03   -0.13897E+03  5040   0.646E+03-0.140E+03
 gam= 0.954 trial= 0.356  step= 0.360 mean= 0.356
 gam= 0.605 g(H,U,f)=  0.299E+03 0.866E+02 0.509E+01 ort(H,U,f) =-0.596E+02 0.124E+03 0.262E+01
CGA:  15    -0.816494689281E+03   -0.92347E+02   -0.92170E+02  5040   0.390E+03 0.668E+02
 gam= 0.605 trial= 0.356  step= 0.146 mean= 0.356
 gam= 0.663 g(H,U,f)=  0.204E+03 0.465E+02 0.842E+01 ort(H,U,f) = 0.834E+02-0.220E+02-0.128E+02
CGA:  16    -0.853359342130E+03   -0.36865E+02   -0.31516E+02  5040   0.259E+03 0.486E+02
 gam= 0.663 trial= 0.346  step= 0.238 mean= 0.346
 gam= 1.485 g(H,U,f)=  0.146E+03 0.149E+03 0.903E+02 ort(H,U,f) = 0.385E+02-0.515E+02 0.206E+02
CGA:  17    -0.887010258221E+03   -0.33651E+02   -0.34727E+02  5040   0.385E+03 0.767E+01
 gam= 1.485 trial= 0.340  step= 0.118 mean= 0.340
 gam= 0.636 g(H,U,f)=  0.129E+03 0.616E+02 0.547E+02 ort(H,U,f) =-0.636E+02 0.317E+02 0.564E+02
CGA:  18    -0.904715746357E+03   -0.17705E+02   -0.23350E+02  5040   0.245E+03 0.245E+02
 gam= 0.636 trial= 0.329  step= 0.121 mean= 0.329
 gam= 0.505 g(H,U,f)=  0.114E+03 0.990E+01 0.289E-01 ort(H,U,f) =-0.293E+02-0.703E+01 0.131E+00
CGA:  19    -0.912637976362E+03   -0.79222E+01   -0.15783E+02  5040   0.124E+03-0.362E+02
 gam= 0.505 trial= 0.319  step= 0.203 mean= 0.319
 gam= 0.712 g(H,U,f)=  0.657E+02 0.204E+02 0.183E+01 ort(H,U,f) = 0.215E+02-0.138E+02-0.307E+01
CGA:  20    -0.923935670071E+03   -0.11298E+02   -0.10679E+02  5040   0.880E+02 0.466E+01
 gam= 0.712 trial= 0.313  step= 0.225 mean= 0.313
 gam= 0.606 g(H,U,f)=  0.360E+02 0.166E+02 0.662E+00 ort(H,U,f) =-0.769E+00 0.476E+01-0.396E+00
CGA:  21    -0.933985160559E+03   -0.10049E+02   -0.10266E+02  5040   0.533E+02 0.360E+01
 gam= 0.606 trial= 0.309  step= 0.201 mean= 0.309
 gam= 0.593 g(H,U,f)=  0.261E+02 0.486E+01 0.661E+00 ort(H,U,f) =-0.337E+01 0.307E+01-0.115E+01
CGA:  22    -0.939514315823E+03   -0.55292E+01   -0.55802E+01  5040   0.316E+02-0.145E+01
 gam= 0.593 trial= 0.303  step= 0.299 mean= 0.303
 gam= 1.037 g(H,U,f)=  0.205E+02 0.979E+01 0.245E+01 ort(H,U,f) =-0.857E-01 0.137E-01-0.798E-01
CGA:  23    -0.944109874360E+03   -0.45956E+01   -0.45964E+01  5040   0.328E+02-0.152E+00
 gam= 1.037 trial= 0.303  step= 0.255 mean= 0.303
 gam= 0.515 g(H,U,f)=  0.133E+02 0.360E+01 0.704E-02 ort(H,U,f) =-0.696E+01 0.526E+01-0.296E-02
CGA:  24    -0.948335917631E+03   -0.42260E+01   -0.41553E+01  5040   0.169E+02-0.170E+01
 gam= 0.515 trial= 0.301  step= 0.248 mean= 0.301
 gam= 0.861 g(H,U,f)=  0.114E+02 0.293E+01 0.215E+00 ort(H,U,f) =-0.822E+00 0.123E+01-0.357E+00
CGA:  25    -0.950302275882E+03   -0.19664E+01   -0.19856E+01  5040   0.145E+02 0.468E-01
 gam= 0.861 trial= 0.298  step= 0.299 mean= 0.298
 gam= 0.711 g(H,U,f)=  0.796E+01 0.226E+01 0.117E+00 ort(H,U,f) =-0.103E+01 0.128E+01-0.983E-01
CGA:  26    -0.952484500891E+03   -0.21822E+01   -0.21822E+01  5040   0.103E+02 0.161E+00
 gam= 0.711 trial= 0.298  step= 0.228 mean= 0.298
 gam= 0.522 g(H,U,f)=  0.466E+01 0.718E+00 0.207E-01 ort(H,U,f) =-0.255E+00 0.337E+00-0.155E-01
CGA:  27    -0.953675292005E+03   -0.11908E+01   -0.11940E+01  5040   0.540E+01 0.663E-01
 gam= 0.522 trial= 0.295  step= 0.283 mean= 0.295
 gam= 0.722 g(H,U,f)=  0.290E+01 0.969E+00 0.309E-01 ort(H,U,f) = 0.136E+00-0.111E+00 0.158E-02
CGA:  28    -0.954443220917E+03   -0.76793E+00   -0.76840E+00  5040   0.390E+01 0.272E-01
 gam= 0.722 trial= 0.294  step= 0.282 mean= 0.294
 gam= 0.556 g(H,U,f)=  0.178E+01 0.385E+00 0.480E-02 ort(H,U,f) =-0.227E+00 0.271E+00 0.531E-02
CGA:  29    -0.954995429229E+03   -0.55221E+00   -0.55283E+00  5040   0.217E+01 0.492E-01
 gam= 0.556 trial= 0.293  step= 0.323 mean= 0.293
 gam= 0.653 g(H,U,f)=  0.113E+01 0.284E+00 0.659E-02 ort(H,U,f) =-0.551E-01 0.810E-01 0.300E-02
CGA:  30    -0.955351568433E+03   -0.35614E+00   -0.35558E+00  5040   0.142E+01 0.289E-01
 gam= 0.653 trial= 0.295  step= 0.378 mean= 0.295
 gam= 0.694 g(H,U,f)=  0.752E+00 0.226E+00 0.537E-02 ort(H,U,f) =-0.127E+00 0.135E+00 0.523E-02
CGA:  31    -0.955623375336E+03   -0.27181E+00   -0.27117E+00  5040   0.983E+00 0.140E-01
 gam= 0.694 trial= 0.299  step= 0.320 mean= 0.299
 gam= 0.662 g(H,U,f)=  0.562E+00 0.875E-01 0.962E-03 ort(H,U,f) =-0.957E-01 0.955E-01 0.381E-02
CGA:  32    -0.955782137728E+03   -0.15876E+00   -0.15870E+00  5040   0.650E+00 0.363E-02
 gam= 0.662 trial= 0.300  step= 0.351 mean= 0.300
 gam= 0.841 g(H,U,f)=  0.438E+00 0.108E+00 0.559E-03 ort(H,U,f) =-0.189E-01 0.155E-01-0.160E-03
CGA:  33    -0.955896442199E+03   -0.11430E+00   -0.11440E+00  5040   0.547E+00-0.353E-02
 gam= 0.841 trial= 0.303  step= 0.286 mean= 0.303
 gam= 0.578 g(H,U,f)=  0.264E+00 0.516E-01 0.161E-03 ort(H,U,f) =-0.372E-01 0.363E-01-0.623E-03
CGA:  34    -0.955974194286E+03   -0.77752E-01   -0.77735E-01  5040   0.316E+00-0.150E-02
 gam= 0.578 trial= 0.302  step= 0.278 mean= 0.302
 gam= 0.615 g(H,U,f)=  0.162E+00 0.314E-01 0.414E-03 ort(H,U,f) =-0.953E-02 0.996E-02-0.506E-03
CGA:  35    -0.956018050464E+03   -0.43856E-01   -0.43851E-01  5040   0.194E+00-0.786E-04
 gam= 0.615 trial= 0.301  step= 0.337 mean= 0.301
 gam= 0.662 g(H,U,f)=  0.103E+00 0.247E-01 0.517E-03 ort(H,U,f) =-0.975E-02 0.992E-02 0.369E-04
CGA:  36    -0.956050763866E+03   -0.32713E-01   -0.32711E-01  5040   0.129E+00 0.208E-03
 gam= 0.662 trial= 0.302  step= 0.313 mean= 0.302
 gam= 0.000 g(H,U,f)=  0.610E-01 0.110E-01 0.161E-03 ort(H,U,f) =-0.587E-02 0.603E-02 0.506E-04
SDA:  37    -0.956070886978E+03   -0.20123E-01   -0.20121E-01  5040   0.722E-01 0.209E-03
 gam= 0.000 trial= 0.303  step= 0.779 mean= 0.303
 gam= 0.302 g(H,U,f)=  0.160E-01 0.575E-02 0.709E-04 ort(H,U,f) =-0.421E-02 0.422E-02 0.987E-04
CGA:  38    -0.956099038415E+03   -0.28151E-01   -0.28124E-01  5040   0.218E-01 0.114E-03
 gam= 0.302 trial= 0.327  step= 0.934 mean= 0.327
 gam= 0.453 g(H,U,f)=  0.757E-02 0.227E-02 0.222E-04 ort(H,U,f) =-0.315E-02 0.315E-02 0.482E-04
CGA:  39    -0.956109241966E+03   -0.10204E-01   -0.10187E-01  5040   0.986E-02 0.533E-04
 gam= 0.453 trial= 0.357  step= 0.622 mean= 0.357
 gam= 0.371 g(H,U,f)=  0.265E-02 0.100E-02 0.596E-05 ort(H,U,f) =-0.782E-03 0.760E-03 0.599E-05
CGA:  40    -0.956112316367E+03   -0.30744E-02   -0.30764E-02  5040   0.366E-02-0.156E-04
 gam= 0.371 trial= 0.370  step= 0.652 mean= 0.370
 gam= 0.408 g(H,U,f)=  0.110E-02 0.390E-03 0.983E-06 ort(H,U,f) =-0.289E-03 0.289E-03 0.911E-06
CGA:  41    -0.956113508049E+03   -0.11917E-02   -0.11917E-02  5040   0.149E-02 0.173E-06
 gam= 0.408 trial= 0.384  step= 0.695 mean= 0.384
 gam= 0.413 g(H,U,f)=  0.399E-03 0.216E-03 0.379E-06 ort(H,U,f) =-0.154E-03 0.174E-03-0.103E-05
CGA:  42    -0.956114028968E+03   -0.52092E-03   -0.51802E-03  5040   0.615E-03 0.188E-04
 gam= 0.413 trial= 0.400  step= 1.047 mean= 0.400
 gam= 0.703 g(H,U,f)=  0.291E-03 0.141E-03 0.279E-06 ort(H,U,f) =-0.161E-03 0.173E-03-0.279E-06
CGA:  43    -0.956114358940E+03   -0.32997E-03   -0.32607E-03  5040   0.433E-03 0.122E-04
 gam= 0.703 trial= 0.432  step= 1.203 mean= 0.432
 gam= 1.156 g(H,U,f)=  0.389E-03 0.111E-03 0.714E-06 ort(H,U,f) =-0.178E-03 0.175E-03 0.117E-06
CGA:  44    -0.956114622894E+03   -0.26395E-03   -0.26537E-03  5040   0.500E-03-0.278E-05
 gam= 1.156 trial= 0.471  step= 0.900 mean= 0.471
 gam= 0.635 g(H,U,f)=  0.259E-03 0.586E-04 0.624E-07 ort(H,U,f) =-0.162E-03 0.168E-03 0.687E-08
CGA:  45    -0.956114848321E+03   -0.22543E-03   -0.22367E-03  5040   0.318E-03 0.623E-05
 gam= 0.635 trial= 0.492  step= 0.873 mean= 0.492
 gam= 0.643 g(H,U,f)=  0.163E-03 0.414E-04 0.449E-07 ort(H,U,f) =-0.881E-04 0.927E-04 0.627E-07
CGA:  46    -0.956114989631E+03   -0.14131E-03   -0.14032E-03  5040   0.204E-03 0.472E-05
 gam= 0.643 trial= 0.511  step= 0.955 mean= 0.511
 gam= 0.649 g(H,U,f)=  0.104E-03 0.284E-04 0.346E-07 ort(H,U,f) =-0.500E-04 0.521E-04-0.874E-07
CGA:  47    -0.956115089095E+03   -0.99464E-04   -0.99030E-04  5040   0.133E-03 0.199E-05
 gam= 0.649 trial= 0.533  step= 1.055 mean= 0.533
 gam= 0.908 g(H,U,f)=  0.962E-04 0.243E-04 0.514E-07 ort(H,U,f) =-0.395E-04 0.360E-04 0.226E-08
CGA:  48    -0.956115158854E+03   -0.69759E-04   -0.70669E-04  5040   0.120E-03-0.348E-05
 gam= 0.908 trial= 0.560  step= 1.063 mean= 0.560
 gam= 0.000 g(H,U,f)=  0.493E+00 0.764E+00 0.572E+01 ort(H,U,f) =-0.591E-01-0.466E-02-0.177E+02
CGA:  49    -0.954501877838E+03    0.16133E+01   -0.62366E-04  5040   0.698E+01-0.177E+02
 gam= 0.000 trial= 0.585  step= 0.305 mean= 0.585
 gam= 0.181 g(H,U,f)=  0.563E+00 0.684E+00 0.178E-01 ort(H,U,f) =-0.467E+00-0.710E+00-0.191E-01
CGA:  50    -0.955936666215E+03   -0.14348E+01   -0.10652E+01  5040   0.126E+01-0.120E+01
 gam= 0.181 trial= 0.571  step= 0.334 mean= 0.571
 gam= 0.018 g(H,U,f)=  0.147E-01 0.811E-02 0.725E-04 ort(H,U,f) =-0.202E-01 0.314E-01 0.502E-03
CGA:  51    -0.956109008978E+03   -0.17234E+00   -0.17498E+00  5040   0.229E-01 0.116E-01
 gam= 0.018 trial= 0.559  step= 0.508 mean= 0.559
 gam= 0.042 g(H,U,f)=  0.911E-03 0.599E-04 0.278E-06 ort(H,U,f) =-0.137E-03 0.208E-04-0.454E-05
CGA:  52    -0.956114891794E+03   -0.58828E-02   -0.58760E-02  5040   0.972E-03-0.121E-03
 gam= 0.042 trial= 0.556  step= 0.561 mean= 0.556
 gam= 0.406 g(H,U,f)=  0.187E-03 0.207E-03 0.558E-06 ort(H,U,f) =-0.524E-04 0.468E-04-0.386E-07
CGA:  53    -0.956115162795E+03   -0.27100E-03   -0.27101E-03  5040   0.395E-03-0.562E-05
 gam= 0.406 trial= 0.557  step= 0.525 mean= 0.557
 gam= 0.186 g(H,U,f)=  0.447E-04 0.286E-04 0.824E-07 ort(H,U,f) =-0.128E-04 0.104E-04-0.155E-06
CGA:  54    -0.956115265783E+03   -0.10299E-03   -0.10295E-03  5040   0.733E-04-0.252E-05
 gam= 0.186 trial= 0.555  step= 1.023 mean= 0.555
 gam= 0.790 g(H,U,f)=  0.409E-04 0.169E-04 0.331E-07 ort(H,U,f) =-0.229E-04 0.215E-04 0.310E-07
CGA:  55    -0.956115302729E+03   -0.36946E-04   -0.37269E-04  5040   0.579E-04-0.138E-05
 gam= 0.790 trial= 0.578  step= 0.999 mean= 0.578
 gam= 1.090 g(H,U,f)=  0.455E-04 0.175E-04 0.578E-07 ort(H,U,f) =-0.267E-04 0.263E-04 0.650E-07
CGA:  56    -0.956115331026E+03   -0.28297E-04   -0.28373E-04  5040   0.631E-04-0.352E-06
 gam= 1.090 trial= 0.599  step= 1.493 mean= 0.599
 gam= 1.667 g(H,U,f)=  0.820E-04 0.232E-04 0.164E-07 ort(H,U,f) =-0.338E-04 0.340E-04 0.207E-07
CGA:  57    -0.956115377957E+03   -0.46931E-04   -0.46825E-04  5040   0.105E-03 0.242E-06
 gam= 1.667 trial= 0.644  step= 1.320 mean= 0.644
 gam= 2.040 g(H,U,f)=  0.172E-03 0.427E-04 0.209E-06 ort(H,U,f) =-0.592E-04 0.601E-04-0.483E-06
CGA:  58    -0.956115447738E+03   -0.69780E-04   -0.69665E-04  5040   0.215E-03 0.398E-06
 gam= 2.040 trial= 0.678  step= 1.269 mean= 0.678
 gam= 1.779 g(H,U,f)=  0.285E-03 0.962E-04 0.191E-06 ort(H,U,f) =-0.136E-03 0.135E-03-0.791E-06
CGA:  59    -0.956115583728E+03   -0.13599E-03   -0.13671E-03  5040   0.382E-03-0.135E-05
 gam= 1.779 trial= 0.707  step= 1.255 mean= 0.707
 gam= 2.104 g(H,U,f)=  0.548E-03 0.254E-03 0.114E-05 ort(H,U,f) =-0.264E-03 0.232E-03-0.487E-05
CGA:  60    -0.956115807314E+03   -0.22359E-03   -0.23799E-03  5040   0.803E-03-0.366E-04
 gam= 2.104 trial= 0.735  step= 0.568 mean= 0.735
 gam= 1.267 g(H,U,f)=  0.513E-03 0.501E-03 0.262E-05 ort(H,U,f) =-0.280E-03 0.412E-03-0.181E-04
CGA:  61    -0.956116016497E+03   -0.20918E-03   -0.20626E-03  5040   0.102E-02 0.113E-03
 gam= 1.267 trial= 0.726  step= 0.388 mean= 0.726
 gam= 1.124 g(H,U,f)=  0.453E-03 0.688E-03 0.283E-05 ort(H,U,f) =-0.297E-03 0.600E-03-0.252E-04
CGA:  62    -0.956116220132E+03   -0.20363E-03   -0.22513E-03  5040   0.114E-02 0.278E-03
 gam= 1.124 trial= 0.710  step= 0.381 mean= 0.710
 gam= 1.228 g(H,U,f)=  0.600E-03 0.802E-03 0.239E-05 ort(H,U,f) =-0.370E-03 0.703E-03-0.273E-04
CGA:  63    -0.956116474559E+03   -0.25443E-03   -0.27740E-03  5040   0.140E-02 0.305E-03
 gam= 1.228 trial= 0.693  step= 0.303 mean= 0.693
 gam= 1.064 g(H,U,f)=  0.633E-03 0.858E-03 0.275E-05 ort(H,U,f) =-0.296E-03 0.615E-03-0.384E-04
CGA:  64    -0.956116731288E+03   -0.25673E-03   -0.26978E-03  5040   0.149E-02 0.280E-03
 gam= 1.064 trial= 0.674  step= 0.239 mean= 0.674
 gam= 0.957 g(H,U,f)=  0.531E-03 0.896E-03 0.365E-05 ort(H,U,f) =-0.124E-03 0.344E-03-0.507E-04
CGA:  65    -0.956116937123E+03   -0.20583E-03   -0.21447E-03  5040   0.143E-02 0.169E-03
 gam= 0.957 trial= 0.652  step= 0.212 mean= 0.652
 gam= 0.960 g(H,U,f)=  0.450E-03 0.920E-03 0.406E-05 ort(H,U,f) =-0.481E-04 0.191E-03-0.537E-04
CGA:  66    -0.956117089366E+03   -0.15224E-03   -0.16850E-03  5040   0.137E-02 0.892E-04
 gam= 0.960 trial= 0.630  step= 0.201 mean= 0.630
 gam= 0.973 g(H,U,f)=  0.428E-03 0.905E-03 0.358E-05 ort(H,U,f) =-0.523E-04 0.147E-03-0.497E-04
CGA:  67    -0.956117218633E+03   -0.12927E-03   -0.14686E-03  5040   0.134E-02 0.449E-04
 gam= 0.973 trial= 0.608  step= 0.196 mean= 0.608
 gam= 0.966 g(H,U,f)=  0.423E-03 0.864E-03 0.261E-05 ort(H,U,f) =-0.490E-04 0.105E-03-0.425E-04
CGA:  68    -0.956117341214E+03   -0.12258E-03   -0.13546E-03  5040   0.129E-02 0.139E-04
 gam= 0.966 trial= 0.588  step= 0.192 mean= 0.588
 gam= 0.952 g(H,U,f)=  0.408E-03 0.818E-03 0.188E-05 ort(H,U,f) =-0.153E-04 0.494E-04-0.374E-04
CGA:  69    -0.956117461436E+03   -0.12022E-03   -0.12519E-03  5040   0.123E-02-0.331E-05
 gam= 0.952 trial= 0.568  step= 0.186 mean= 0.568
 gam= 0.926 g(H,U,f)=  0.375E-03 0.760E-03 0.179E-05 ort(H,U,f) = 0.286E-04-0.752E-06-0.391E-04
CGA:  70    -0.956117577938E+03   -0.11650E-03   -0.11390E-03  5040   0.114E-02-0.112E-04
 gam= 0.926 trial= 0.549  step= 0.178 mean= 0.549
 gam= 0.896 g(H,U,f)=  0.329E-03 0.687E-03 0.241E-05 ort(H,U,f) = 0.595E-04-0.251E-04-0.470E-04
CGA:  71    -0.956117684897E+03   -0.10696E-03   -0.99989E-04  5040   0.102E-02-0.126E-04
 gam= 0.896 trial= 0.530  step= 0.171 mean= 0.530
 gam= 0.886 g(H,U,f)=  0.289E-03 0.610E-03 0.362E-05 ort(H,U,f) = 0.691E-04-0.246E-04-0.546E-04
CGA:  72    -0.956117778306E+03   -0.93410E-04   -0.85974E-04  5040   0.902E-03-0.101E-04
 gam= 0.886 trial= 0.512  step= 0.167 mean= 0.512
 gam= 0.894 g(H,U,f)=  0.264E-03 0.538E-03 0.489E-05 ort(H,U,f) = 0.724E-04-0.204E-04-0.571E-04
CGA:  73    -0.956117858495E+03   -0.80189E-04   -0.74721E-04  5040   0.807E-03-0.499E-05
 gam= 0.894 trial= 0.495  step= 0.163 mean= 0.495
 gam= 0.881 g(H,U,f)=  0.235E-03 0.470E-03 0.561E-05 ort(H,U,f) = 0.837E-04-0.270E-04-0.537E-04
CGA:  74    -0.956117926813E+03   -0.68317E-04   -0.65479E-04  5040   0.710E-03 0.302E-05
 gam= 0.881 trial= 0.479  step= 0.159 mean= 0.479
 gam= 0.862 g(H,U,f)=  0.199E-03 0.408E-03 0.564E-05 ort(H,U,f) = 0.901E-04-0.331E-04-0.450E-04
CGA:  75    -0.956117984094E+03   -0.57282E-04   -0.56805E-04  5040   0.612E-03 0.120E-04
 gam= 0.862 trial= 0.463  step= 0.158 mean= 0.463
 gam= 0.866 g(H,U,f)=  0.167E-03 0.358E-03 0.534E-05 ort(H,U,f) = 0.840E-04-0.304E-04-0.345E-04
CGA:  76    -0.956118032378E+03   -0.48284E-04   -0.49332E-04  5040   0.530E-03 0.191E-04
 gam= 0.866 trial= 0.447  step= 0.160 mean= 0.447
 gam= 0.884 g(H,U,f)=  0.143E-03 0.321E-03 0.511E-05 ort(H,U,f) = 0.717E-04-0.226E-04-0.253E-04
CGA:  77    -0.956118074273E+03   -0.41895E-04   -0.43694E-04  5040   0.469E-03 0.239E-04
 gam= 0.884 trial= 0.433  step= 0.162 mean= 0.433
 gam= 0.907 g(H,U,f)=  0.125E-03 0.295E-03 0.515E-05 ort(H,U,f) = 0.576E-04-0.125E-04-0.180E-04
CGA:  78    -0.956118111708E+03   -0.37435E-04   -0.39622E-04  5040   0.425E-03 0.270E-04
 gam= 0.907 trial= 0.419  step= 0.164 mean= 0.419
 gam= 0.936 g(H,U,f)=  0.114E-03 0.279E-03 0.546E-05 ort(H,U,f) = 0.424E-04-0.129E-05-0.118E-04
CGA:  79    -0.956118146150E+03   -0.34441E-04   -0.36859E-04  5040   0.398E-03 0.293E-04
 gam= 0.936 trial= 0.407  step= 0.166 mean= 0.407
 gam= 0.000 g(H,U,f)=  0.108E-03 0.273E-03 0.587E-05 ort(H,U,f) = 0.269E-04 0.106E-04-0.594E-05
SDA:  80    -0.956118178867E+03   -0.32717E-04   -0.35335E-04  5040   0.387E-03 0.315E-04
 gam= 0.000 trial= 0.395  step= 2.271 mean= 0.395
 gam= 0.000 trial= 2.565  step= 2.565 mean= 0.623
 gam= 3.204 g(H,U,f)=  0.106E-02 0.182E-03 0.404E-05 ort(H,U,f) =-0.235E-03 0.184E-03 0.449E-05
CGA:  81    -0.956118613638E+03   -0.43477E-03   -0.82308E-05  5040   0.124E-02-0.470E-04
 gam= 3.204 trial= 0.720  step= 1.018 mean= 0.720
 gam= 0.952 g(H,U,f)=  0.997E-03 0.181E-03 0.367E-05 ort(H,U,f) =-0.400E-03 0.387E-03 0.149E-04
CGA:  82    -0.956119169127E+03   -0.55549E-03   -0.55504E-03  5040   0.118E-02 0.182E-05
 gam= 0.952 trial= 0.735  step= 0.736 mean= 0.735
 gam= 0.818 g(H,U,f)=  0.778E-03 0.188E-03 0.100E-05 ort(H,U,f) =-0.327E-03 0.320E-03 0.829E-05
CGA:  83    -0.956119604652E+03   -0.43553E-03   -0.43552E-03  5040   0.967E-03 0.140E-05
 gam= 0.818 trial= 0.735  step= 0.691 mean= 0.735
 gam= 0.801 g(H,U,f)=  0.613E-03 0.161E-03 0.306E-06 ort(H,U,f) =-0.317E-03 0.316E-03 0.361E-05
CGA:  84    -0.956119939293E+03   -0.33464E-03   -0.33467E-03  5040   0.774E-03 0.206E-05
 gam= 0.801 trial= 0.733  step= 0.860 mean= 0.733
 gam= 0.678 g(H,U,f)=  0.452E-03 0.720E-04 0.730E-06 ort(H,U,f) =-0.234E-03 0.231E-03 0.490E-05
CGA:  85    -0.956120273161E+03   -0.33387E-03   -0.33380E-03  5040   0.525E-03 0.190E-05
 gam= 0.678 trial= 0.739  step= 0.690 mean= 0.739
 gam= 0.519 g(H,U,f)=  0.247E-03 0.247E-04 0.241E-06 ort(H,U,f) =-0.118E-03 0.116E-03 0.233E-05
CGA:  86    -0.956120454658E+03   -0.18150E-03   -0.18153E-03  5040   0.272E-03 0.606E-06
 gam= 0.519 trial= 0.737  step= 0.687 mean= 0.737
 gam= 0.507 g(H,U,f)=  0.123E-03 0.145E-04 0.109E-06 ort(H,U,f) =-0.421E-04 0.401E-04 0.955E-06
CGA:  87    -0.956120548352E+03   -0.93695E-04   -0.93673E-04  5040   0.138E-03-0.102E-05
 gam= 0.507 trial= 0.734  step= 0.672 mean= 0.734
 gam= 0.492 g(H,U,f)=  0.548E-04 0.129E-04 0.119E-06 ort(H,U,f) =-0.220E-04 0.206E-04 0.601E-06
CGA:  88    -0.956120594567E+03   -0.46215E-04   -0.46188E-04  5040   0.679E-04-0.842E-06
 gam= 0.492 trial= 0.731  step= 0.793 mean= 0.731
 gam= 0.717 g(H,U,f)=  0.388E-04 0.982E-05 0.299E-07 ort(H,U,f) =-0.172E-04 0.165E-04 0.178E-06
CGA:  89    -0.956120621286E+03   -0.26719E-04   -0.26737E-04  5040   0.487E-04-0.564E-06
 gam= 0.717 trial= 0.734  step= 0.870 mean= 0.734
 gam= 0.811 g(H,U,f)=  0.336E-04 0.586E-05 0.205E-07 ort(H,U,f) =-0.159E-04 0.154E-04 0.127E-06
CGA:  90    -0.956120642253E+03   -0.20967E-04   -0.20998E-04  5040   0.395E-04-0.455E-06
 gam= 0.811 trial= 0.741  step= 0.806 mean= 0.741
 gam= 0.720 g(H,U,f)=  0.252E-04 0.322E-05 0.348E-07 ort(H,U,f) =-0.118E-04 0.114E-04 0.178E-06
CGA:  91    -0.956120658007E+03   -0.15754E-04   -0.15762E-04  5040   0.284E-04-0.260E-06
 gam= 0.720 trial= 0.744  step= 0.779 mean= 0.744
 gam= 0.675 g(H,U,f)=  0.169E-04 0.224E-05 0.796E-08 ort(H,U,f) =-0.698E-05 0.678E-05 0.663E-07
CGA:  92    -0.956120669005E+03   -0.10999E-04   -0.11001E-04  5040   0.192E-04-0.136E-06
 gam= 0.675 trial= 0.746  step= 0.756 mean= 0.746
 gam= 0.720 g(H,U,f)=  0.119E-04 0.194E-05 0.324E-08 ort(H,U,f) =-0.462E-05 0.453E-05 0.212E-07
CGA:  93    -0.956120676223E+03   -0.72177E-05   -0.72176E-05  5040   0.138E-04-0.661E-07
 gam= 0.720 trial= 0.746  step= 0.767 mean= 0.746
 final diagonalization
   1 F= -.95612068E+03 E0= -.95611548E+03  d E =-.103886E-01
 writing wavefunctions
Warning: ieee_invalid is signaling
Warning: ieee_divide_by_zero is signaling
Warning: ieee_underflow is signaling
Warning: ieee_inexact is signaling
FORTRAN STOP
Warning: ieee_invalid is signaling
Warning: ieee_divide_by_zero is signaling
Warning: ieee_underflow is signaling
Warning: ieee_inexact is signaling
FORTRAN STOP
Warning: ieee_invalid is signaling
Warning: ieee_divide_by_zero is signaling
Warning: ieee_underflow is signaling
Warning: ieee_inexact is signaling
FORTRAN STOP
Warning: ieee_invalid is signaling
Warning: ieee_divide_by_zero is signaling
Warning: ieee_underflow is signaling
Warning: ieee_inexact is signaling
FORTRAN STOP
