Ga48 O72                                
    1.000000000000000     
     0.0000000000000000   12.2804734172212839    0.0000000000000000
     9.1427020537309431    0.0000000000000000    0.0000000000000000
     0.0000000000000000   -2.7682617730220320  -11.3006977184464645
   Ga   O    P 
    47    71     1
Direct
  0.6584608246134138  0.0000000000000000  0.1546160232967821
  0.6602975215814553  0.0000000000000000  0.6561552973649114
  0.6594643259335555  0.3330741640292345  0.1561604622921422
  0.6599339798647250  0.3336395456626065  0.6560649529360916
  0.6594643259335555  0.6669258359707584  0.1561604622921422
  0.6599339798647250  0.6663604543373935  0.6560649529360916
  0.8396492907532576  0.1636200008730313  0.3418141647888575
  0.8407503214146459  0.1664200321794382  0.8430567419056416
  0.8437997105104458  0.5000000000000000  0.3423601088571857
  0.8395967542233649  0.5000000000000000  0.8434924270747857
  0.8396492907532576  0.8363799991269687  0.3418141647888575
  0.8407503214146459  0.8335799678205618  0.8430567419056416
  0.5936276095428354  0.1683764420670499  0.3979847963563898
  0.5915349047884817  0.1665712711853189  0.8968203968051753
  0.5907821698684828  0.5000000000000000  0.3964549708132949
  0.5905078563271999  0.5000000000000000  0.8972789670016255
  0.5936276095428354  0.8316235579329501  0.3979847963563898
  0.5915349047884817  0.8334287288146811  0.8968203968051753
  0.9116675204768256  0.0000000000000000  0.1024768036019594
  0.9088237036206195  0.0000000000000000  0.6023465035003994
  0.9101668516583103  0.3329394251870355  0.1014824108252483
  0.9094168390610236  0.3337178170641835  0.6033791827385073
  0.9101668516583103  0.6670605748129645  0.1014824108252483
  0.9094168390610236  0.6662821829358165  0.6033791827385073
  0.1593151127490557  0.1765668415371380  0.1454174518321807
  0.1575383162009700  0.1698271130720173  0.6571053119881327
  0.1596572351736896  0.5000000000000000  0.1549215426061679
  0.1595858231305982  0.5000000000000000  0.6535163222032025
  0.1593151127490557  0.8234331584628620  0.1454174518321807
  0.1575383162009700  0.8301728869279827  0.6571053119881327
  0.3497025666580740  0.0000000000000000  0.3460919238135958
  0.3412057726417927  0.0000000000000000  0.8409474391061664
  0.3406842535155548  0.3335339345129640  0.3434496886997778
  0.3409178785020899  0.3335458793329664  0.8426424849309342
  0.3406842535155548  0.6664660654870360  0.3434496886997778
  0.3409178785020899  0.6664541206670336  0.8426424849309342
  0.0916104809230731  0.0000000000000000  0.8951349127265189
  0.0927622843293250  0.3296135763620356  0.3954422497616363
  0.0897505252177169  0.3348474668716293  0.8929184813935507
  0.0927622843293250  0.6703864236379644  0.3954422497616363
  0.0897505252177169  0.6651525331283707  0.8929184813935507
  0.4078733338681033  0.1660161290285131  0.1008221878284417
  0.4099469455316580  0.1667343223669562  0.6015589441932150
  0.4087139716508545  0.5000000000000000  0.1013466087719479
  0.4092844328048244  0.5000000000000000  0.6014155474559573
  0.4078733338681033  0.8339838709714869  0.1008221878284417
  0.4099469455316580  0.8332656776330438  0.6015589441932150
  0.0005872314784341  0.1663489814509305  0.1337960359623480
  0.9966398971440924  0.1664361421221727  0.6277657888284409
  0.9979318588375747  0.5000000000000000  0.1251168018981588
  0.9975339504152103  0.5000000000000000  0.6265483251291286
  0.0005872314784341  0.8336510185490695  0.1337960359623480
  0.9966398971440924  0.8335638578778273  0.6277657888284409
  0.5077939236990971  0.0000000000000000  0.3728152203356245
  0.5033118129973175  0.0000000000000000  0.8716029909619323
  0.5027858082394943  0.3326733360697460  0.3716841914706563
  0.5029874611193605  0.3326675684035720  0.8715652430721761
  0.5027858082394943  0.6673266639302540  0.3716841914706563
  0.5029874611193605  0.6673324315964280  0.8715652430721761
  0.6732504788756870  0.1669943482393990  0.2793955505332235
  0.6727541506252948  0.1663166344054545  0.7795925450474357
  0.6753358074428917  0.5000000000000000  0.2809385780298541
  0.6719677012144842  0.5000000000000000  0.7796208040205173
  0.6732504788756870  0.8330056517606010  0.2793955505332235
  0.6727541506252948  0.8336833655945455  0.7795925450474357
  0.8296280240565466  0.0000000000000000  0.2201034649348372
  0.8286192247415158  0.0000000000000000  0.7202855100163035
  0.8315243701325556  0.3299213829085659  0.2209539289012952
  0.8280342862388750  0.3333495678412390  0.7199930946153330
  0.8315243701325556  0.6700786170914341  0.2209539289012952
  0.8280342862388750  0.6666504321587610  0.7199930946153330
  0.8321112187645312  0.0000000000000000  0.4453873166996445
  0.8340388733926218  0.0000000000000000  0.9467998141745682
  0.8412291229972411  0.3303441589729061  0.4440301777714524
  0.8322128368394459  0.3324700899736612  0.9459595359302426
  0.8412291229972411  0.6696558410270939  0.4440301777714524
  0.8322128368394459  0.6675299100263388  0.9459595359302426
  0.6683777705286857  0.1666857012793486  0.0537269149265427
  0.6708479651224550  0.1672955448708464  0.5540449017792213
  0.6686453564981605  0.5000000000000000  0.0543945602817999
  0.6704506381781528  0.5000000000000000  0.5526433389910821
  0.6683777705286857  0.8333142987206514  0.0537269149265427
  0.6708479651224550  0.8327044551291536  0.5540449017792213
  0.4959489808782038  0.0000000000000000  0.1273216710455713
  0.4973357515766637  0.0000000000000000  0.6247781466924565
  0.4958137878991309  0.3324612417887778  0.1277852951614022
  0.4969182979741973  0.3333303888104027  0.6251012099876476
  0.4958137878991309  0.6675387582112222  0.1277852951614022
  0.4969182979741973  0.6666696111895973  0.6251012099876476
  0.0172295574146304  0.1414033054158637  0.3800874961768628
  0.0044446251961361  0.1667759912723383  0.8751356293107619
  0.0070661022404650  0.5000000000000000  0.3698637150655983
  0.0018445197532699  0.5000000000000000  0.8708410561080342
  0.0172295574146304  0.8585966945841363  0.3800874961768628
  0.0044446251961361  0.8332240087276617  0.8751356293107619
  0.1706328344361623  0.0000000000000000  0.7742691316270509
  0.1719842285265756  0.3302515839283586  0.2770674173093539
  0.1726920948872106  0.3341332821938039  0.7779639021124609
  0.1719842285265756  0.6697484160716414  0.2770674173093539
  0.1726920948872106  0.6658667178061961  0.7779639021124609
  0.3224576982591856  0.1594175331101439  0.2192630407337148
  0.3248731524457256  0.1641801249928108  0.7155084810440755
  0.3268700199752530  0.5000000000000000  0.2193341483197671
  0.3269410464421085  0.5000000000000000  0.7176555266337914
  0.3224576982591856  0.8405824668898561  0.2192630407337148
  0.3248731524457256  0.8358198750071892  0.7155084810440755
  0.3306043643846905  0.1645755101372401  0.4441751845582118
  0.3295355728586316  0.1655576561474845  0.9438006473385698
  0.3293692796966567  0.5000000000000000  0.4450498601714017
  0.3327219716142764  0.5000000000000000  0.9443307567258898
  0.3306043643846905  0.8354244898627599  0.4441751845582118
  0.3295355728586316  0.8344423438525155  0.9438006473385698
  0.1648371187318602  0.0000000000000000  0.0569999279210904
  0.1540821694725452  0.0000000000000000  0.5397353040971566
  0.1710013711119203  0.3382788947904913  0.0487214635995272
  0.1667883622321256  0.3314073097713006  0.5518288714292936
  0.1710013711119203  0.6617211052095087  0.0487214635995272
  0.1667883622321256  0.6685926902286994  0.5518288714292936
  0.1029965398134252  0.0000000000000000  0.3974827181718368
 
  0.00000000E+00  0.00000000E+00  0.00000000E+00
  0.00000000E+00  0.00000000E+00  0.00000000E+00
  0.00000000E+00  0.00000000E+00  0.00000000E+00
  0.00000000E+00  0.00000000E+00  0.00000000E+00
  0.00000000E+00  0.00000000E+00  0.00000000E+00
  0.00000000E+00  0.00000000E+00  0.00000000E+00
  0.00000000E+00  0.00000000E+00  0.00000000E+00
  0.00000000E+00  0.00000000E+00  0.00000000E+00
  0.00000000E+00  0.00000000E+00  0.00000000E+00
  0.00000000E+00  0.00000000E+00  0.00000000E+00
  0.00000000E+00  0.00000000E+00  0.00000000E+00
  0.00000000E+00  0.00000000E+00  0.00000000E+00
  0.00000000E+00  0.00000000E+00  0.00000000E+00
  0.00000000E+00  0.00000000E+00  0.00000000E+00
  0.00000000E+00  0.00000000E+00  0.00000000E+00
  0.00000000E+00  0.00000000E+00  0.00000000E+00
  0.00000000E+00  0.00000000E+00  0.00000000E+00
  0.00000000E+00  0.00000000E+00  0.00000000E+00
  0.00000000E+00  0.00000000E+00  0.00000000E+00
  0.00000000E+00  0.00000000E+00  0.00000000E+00
  0.00000000E+00  0.00000000E+00  0.00000000E+00
  0.00000000E+00  0.00000000E+00  0.00000000E+00
  0.00000000E+00  0.00000000E+00  0.00000000E+00
  0.00000000E+00  0.00000000E+00  0.00000000E+00
  0.00000000E+00  0.00000000E+00  0.00000000E+00
  0.00000000E+00  0.00000000E+00  0.00000000E+00
  0.00000000E+00  0.00000000E+00  0.00000000E+00
  0.00000000E+00  0.00000000E+00  0.00000000E+00
  0.00000000E+00  0.00000000E+00  0.00000000E+00
  0.00000000E+00  0.00000000E+00  0.00000000E+00
  0.00000000E+00  0.00000000E+00  0.00000000E+00
  0.00000000E+00  0.00000000E+00  0.00000000E+00
  0.00000000E+00  0.00000000E+00  0.00000000E+00
  0.00000000E+00  0.00000000E+00  0.00000000E+00
  0.00000000E+00  0.00000000E+00  0.00000000E+00
  0.00000000E+00  0.00000000E+00  0.00000000E+00
  0.00000000E+00  0.00000000E+00  0.00000000E+00
  0.00000000E+00  0.00000000E+00  0.00000000E+00
  0.00000000E+00  0.00000000E+00  0.00000000E+00
  0.00000000E+00  0.00000000E+00  0.00000000E+00
  0.00000000E+00  0.00000000E+00  0.00000000E+00
  0.00000000E+00  0.00000000E+00  0.00000000E+00
  0.00000000E+00  0.00000000E+00  0.00000000E+00
  0.00000000E+00  0.00000000E+00  0.00000000E+00
  0.00000000E+00  0.00000000E+00  0.00000000E+00
  0.00000000E+00  0.00000000E+00  0.00000000E+00
  0.00000000E+00  0.00000000E+00  0.00000000E+00
  0.00000000E+00  0.00000000E+00  0.00000000E+00
  0.00000000E+00  0.00000000E+00  0.00000000E+00
  0.00000000E+00  0.00000000E+00  0.00000000E+00
  0.00000000E+00  0.00000000E+00  0.00000000E+00
  0.00000000E+00  0.00000000E+00  0.00000000E+00
  0.00000000E+00  0.00000000E+00  0.00000000E+00
  0.00000000E+00  0.00000000E+00  0.00000000E+00
  0.00000000E+00  0.00000000E+00  0.00000000E+00
  0.00000000E+00  0.00000000E+00  0.00000000E+00
  0.00000000E+00  0.00000000E+00  0.00000000E+00
  0.00000000E+00  0.00000000E+00  0.00000000E+00
  0.00000000E+00  0.00000000E+00  0.00000000E+00
  0.00000000E+00  0.00000000E+00  0.00000000E+00
  0.00000000E+00  0.00000000E+00  0.00000000E+00
  0.00000000E+00  0.00000000E+00  0.00000000E+00
  0.00000000E+00  0.00000000E+00  0.00000000E+00
  0.00000000E+00  0.00000000E+00  0.00000000E+00
  0.00000000E+00  0.00000000E+00  0.00000000E+00
  0.00000000E+00  0.00000000E+00  0.00000000E+00
  0.00000000E+00  0.00000000E+00  0.00000000E+00
  0.00000000E+00  0.00000000E+00  0.00000000E+00
  0.00000000E+00  0.00000000E+00  0.00000000E+00
  0.00000000E+00  0.00000000E+00  0.00000000E+00
  0.00000000E+00  0.00000000E+00  0.00000000E+00
  0.00000000E+00  0.00000000E+00  0.00000000E+00
  0.00000000E+00  0.00000000E+00  0.00000000E+00
  0.00000000E+00  0.00000000E+00  0.00000000E+00
  0.00000000E+00  0.00000000E+00  0.00000000E+00
  0.00000000E+00  0.00000000E+00  0.00000000E+00
  0.00000000E+00  0.00000000E+00  0.00000000E+00
  0.00000000E+00  0.00000000E+00  0.00000000E+00
  0.00000000E+00  0.00000000E+00  0.00000000E+00
  0.00000000E+00  0.00000000E+00  0.00000000E+00
  0.00000000E+00  0.00000000E+00  0.00000000E+00
  0.00000000E+00  0.00000000E+00  0.00000000E+00
  0.00000000E+00  0.00000000E+00  0.00000000E+00
  0.00000000E+00  0.00000000E+00  0.00000000E+00
  0.00000000E+00  0.00000000E+00  0.00000000E+00
  0.00000000E+00  0.00000000E+00  0.00000000E+00
  0.00000000E+00  0.00000000E+00  0.00000000E+00
  0.00000000E+00  0.00000000E+00  0.00000000E+00
  0.00000000E+00  0.00000000E+00  0.00000000E+00
  0.00000000E+00  0.00000000E+00  0.00000000E+00
  0.00000000E+00  0.00000000E+00  0.00000000E+00
  0.00000000E+00  0.00000000E+00  0.00000000E+00
  0.00000000E+00  0.00000000E+00  0.00000000E+00
  0.00000000E+00  0.00000000E+00  0.00000000E+00
  0.00000000E+00  0.00000000E+00  0.00000000E+00
  0.00000000E+00  0.00000000E+00  0.00000000E+00
  0.00000000E+00  0.00000000E+00  0.00000000E+00
  0.00000000E+00  0.00000000E+00  0.00000000E+00
  0.00000000E+00  0.00000000E+00  0.00000000E+00
  0.00000000E+00  0.00000000E+00  0.00000000E+00
  0.00000000E+00  0.00000000E+00  0.00000000E+00
  0.00000000E+00  0.00000000E+00  0.00000000E+00
  0.00000000E+00  0.00000000E+00  0.00000000E+00
  0.00000000E+00  0.00000000E+00  0.00000000E+00
  0.00000000E+00  0.00000000E+00  0.00000000E+00
  0.00000000E+00  0.00000000E+00  0.00000000E+00
  0.00000000E+00  0.00000000E+00  0.00000000E+00
  0.00000000E+00  0.00000000E+00  0.00000000E+00
  0.00000000E+00  0.00000000E+00  0.00000000E+00
  0.00000000E+00  0.00000000E+00  0.00000000E+00
  0.00000000E+00  0.00000000E+00  0.00000000E+00
  0.00000000E+00  0.00000000E+00  0.00000000E+00
  0.00000000E+00  0.00000000E+00  0.00000000E+00
  0.00000000E+00  0.00000000E+00  0.00000000E+00
  0.00000000E+00  0.00000000E+00  0.00000000E+00
  0.00000000E+00  0.00000000E+00  0.00000000E+00
  0.00000000E+00  0.00000000E+00  0.00000000E+00
  0.00000000E+00  0.00000000E+00  0.00000000E+00
  0.00000000E+00  0.00000000E+00  0.00000000E+00
