 vasp.6.4.2 20Jul23 (build Nov 12 2023 22:16:35) complex                         
 executed on              LinuxNV date 2025.05.31  20:15:17
 running    4 mpi-ranks, on    1 nodes
 distrk:  each k-point on    1 cores,    4 groups
 distr:  one band on NCORE=   1 cores,    1 groups
 OpenACC runtime initialized ...    4 GPUs detected


--------------------------------------------------------------------------------------------------------


 INCAR:
   PREC = Normal
   ENCUT = 450
   NELM = 500
   IBRION = -1
   ISPIN = 1
   NSW = 0
   ISIF = 2
   EDIFF = 1E-5
   EDIFFG = -5E-3
   ISTART = 1
   ICHARG = 1
   ISMEAR = 0
   SIGMA = 0.05
   LWAVE = .T.
   LCHARG = .T.
   LREAL = Auto
   LPLANE = .TRUE.
   NPAR = 1
   KPAR = 4
   NCORE = 1
   ALGO = All
   LHFCALC = .TRUE.
   HSE06 = .TRUE.
   HFSCREEN = 0.2
   TIME = 0.4
   AEXX = 0.32
   LMAXFOCK = 4
   PRECFOCK = Fast
   ICORELEVEL = 1
   ISYM = 0

 POTCAR:    PAW_PBE Cu 22Jun2005                  
 POTCAR:    PAW_PBE Cu 22Jun2005                  
   SHA256 =  0e71e558f37a4e8407882b4609ceaae59938afaad9ced71dfe8490308a0ab630 Cu/POTCAR             
   COPYR  = (c) Copyright 22Jun2005 Georg Kresse                                                    
   COPYR  = This file is part of the software VASP. Any use, copying, and all other rights are regul
   COPYR  = If you do not have a valid VASP license, you may not use, copy or distribute this file. 
   VRHFIN =Cu: d10 p1                                                                               
   LEXCH  = PE                                                                                      
   EATOM  =  1390.9808 eV,  102.2342 Ry                                                             
                                                                                                    
   TITEL  = PAW_PBE Cu 22Jun2005                                                                    
   LULTRA =        F    use ultrasoft PP ?                                                          
   IUNSCR =        1    unscreen: 0-lin 1-nonlin 2-no                                               
   RPACOR =    2.000    partial core radius                                                         
   POMASS =   63.546; ZVAL   =   11.000    mass and valenz                                          
   RCORE  =    2.300    outmost cutoff radius                                                       
   RWIGS  =    2.200; RWIGS  =    1.164    wigner-seitz radius (au A)                               
   ENMAX  =  295.446; ENMIN  =  221.585 eV                                                          
   ICORE  =        3    local potential                                                             
   LCOR   =        T    correct aug charges                                                         
   LPAW   =        T    paw PP                                                                      
   EAUG   =  586.980                                                                                
   DEXC   =    0.000                                                                                
   RMAX   =    2.344    core radius for proj-oper                                                   
   RAUG   =    1.300    factor for augmentation sphere                                              
   RDEP   =    2.302    radius for radial grids                                                     
   RDEPT  =    1.771    core radius for aug-charge                                                  
                                                                                                    
   Atomic configuration                                                                             
    9 entries                                                                                       
     n  l   j            E        occ.                                                              
     1  0  0.50     -8850.2468   2.0000                                                             
     2  0  0.50     -1062.3498   2.0000                                                             
     2  1  1.50      -916.8226   6.0000                                                             
     3  0  0.50      -114.6929   2.0000                                                             
     3  1  1.50       -72.1325   6.0000                                                             
     3  2  2.50        -5.0394  10.0000                                                             
     4  0  0.50        -4.6097   1.0000                                                             
     4  1  0.50        -4.0817   0.0000                                                             
     4  3  2.50        -1.3606   0.0000                                                             
   Description                                                                                      
     l       E           TYP  RCUT    TYP  RCUT                                                     
     2     -5.0393973     23  2.200                                                                 
     2     10.8846608     23  2.200                                                                 
     0     -4.6097109     23  2.200                                                                 
     0      8.2520465     23  2.200                                                                 
     1     -2.7211652     23  2.200                                                                 
     1     21.7055443     23  2.200                                                                 
     3      2.7211652     23  2.300                                                                 
  local pseudopotential read in
  partial core-charges read in
  partial kinetic energy density read in
  atomic valenz-charges read in
  non local Contribution for L=            2  read in
    real space projection operators read in
  non local Contribution for L=            2  read in
    real space projection operators read in
  non local Contribution for L=            0  read in
    real space projection operators read in
  non local Contribution for L=            0  read in
    real space projection operators read in
  non local Contribution for L=            1  read in
    real space projection operators read in
  non local Contribution for L=            1  read in
    real space projection operators read in
    PAW grid and wavefunctions read in
 
   number of l-projection  operators is LMAX  =            6
   number of lm-projection operators is LMMAX =           18
 
 -----------------------------------------------------------------------------
|                                                                             |
|               ----> ADVICE to this user running VASP <----                  |
|                                                                             |
|     You have a (more or less) 'small supercell' and for smaller cells       |
|     it is recommended to use the reciprocal-space projection scheme!        |
|     The real-space optimization is not efficient for small cells and it     |
|     is also less accurate ...                                               |
|     Therefore, set LREAL=.FALSE. in the INCAR file.                         |
|                                                                             |
 -----------------------------------------------------------------------------

 Optimization of the real space projectors (new method)

 maximal supplied QI-value         = 16.25
 optimisation between [QCUT,QGAM] = [ 10.73, 21.61] = [ 32.22,130.83] Ry 
 Optimized for a Real-space Cutoff    1.42 Angstroem

   l    n(q)    QCUT    max X(q) W(low)/X(q) W(high)/X(q)  e(spline) 
   2      8    10.726     4.610    0.15E-03    0.25E-03    0.14E-06
   2      8    10.726     8.522    0.25E-03    0.43E-03    0.27E-06
   0      9    10.726    51.609    0.94E-04    0.10E-03    0.12E-06
   0      9    10.726    27.747    0.85E-04    0.96E-04    0.11E-06
   1      9    10.726    20.408    0.25E-03    0.14E-03    0.12E-06
   1      9    10.726    13.425    0.22E-03    0.13E-03    0.11E-06
  PAW_PBE Cu 22Jun2005                  :
 energy of atom  1       EATOM=-1390.9808
 kinetic energy error for atom=    0.0097 (will be added to EATOM!!)
 
 
 POSCAR: Cu4
  positions in direct lattice
  velocities in cartesian coordinates
 exchange correlation table for  LEXCH =        8
   RHO(1)=    0.500       N(1)  =     2000
   RHO(2)=  100.500       N(2)  =     4000
 


--------------------------------------------------------------------------------------------------------


 ion  position               nearest neighbor table
   1  0.000  0.000  0.000-   2 2.53   3 2.53   2 2.53   3 2.53   2 2.53   4 2.53   2 2.53   3 2.53
                             4 2.53   3 2.53   4 2.53   4 2.53
   2  0.000  0.500  0.500-   1 2.53   4 2.53   1 2.53   4 2.53   1 2.53   3 2.53   1 2.53   3 2.53
                             4 2.53   4 2.53   3 2.53   3 2.53
   3  0.500  0.000  0.500-   1 2.53   4 2.53   1 2.53   4 2.53   2 2.53   4 2.53   4 2.53   1 2.53
                             2 2.53   1 2.53   2 2.53   2 2.53
   4  0.500  0.500  0.000-   2 2.53   3 2.53   2 2.53   3 2.53   1 2.53   3 2.53   3 2.53   1 2.53
                             2 2.53   2 2.53   1 2.53   1 2.53
 

IMPORTANT INFORMATION: All symmetrisations will be switched off!
NOSYMM: (Re-)initialisation of all symmetry stuff for point group C_1.


----------------------------------------------------------------------------------------

                                     Primitive cell                                     

  volume of cell :      45.7840

  direct lattice vectors                    reciprocal lattice vectors
     3.577430672  0.000000000  0.000000000     0.279530225 -0.000000000  0.000000000
     0.000000000  3.577430672  0.000000000     0.000000000  0.279530225  0.000000000
     0.000000000  0.000000000  3.577430672    -0.000000000 -0.000000000  0.279530225

  length of vectors
     3.577430672  3.577430672  3.577430672     0.279530225  0.279530225  0.279530225

  position of ions in fractional coordinates (direct lattice)
     0.000000000  0.000000000  0.000000000
     0.000000000  0.500000000  0.500000000
     0.500000000  0.000000000  0.500000000
     0.500000000  0.500000000  0.000000000

  ion indices of the primitive-cell ions
   primitive index   ion index
                 1           1
                 2           2
                 3           3
                 4           4

----------------------------------------------------------------------------------------

 
 
 KPOINTS: Automatic mesh                          

Automatic generation of k-mesh.
 Grid dimensions read from file:
 generate k-points for:    2    2    2

 Generating k-lattice:

  Cartesian coordinates                     Fractional coordinates (reciprocal lattice)
     0.139765112 -0.000000000  0.000000000     0.500000000  0.000000000  0.000000000
     0.000000000  0.139765112  0.000000000     0.000000000  0.500000000  0.000000000
    -0.000000000 -0.000000000  0.139765112     0.000000000  0.000000000  0.500000000

  Length of vectors
     0.139765112  0.139765112  0.139765112

  Shift w.r.t. Gamma in fractional coordinates (k-lattice)
     0.000000000  0.000000000  0.000000000

 
 Subroutine IBZKPT returns following result:
 ===========================================
 
 Found      8 irreducible k-points:
 
 Following reciprocal coordinates:
            Coordinates               Weight
  0.000000  0.000000  0.000000      1.000000
  0.500000  0.000000  0.000000      1.000000
  0.000000  0.500000  0.000000      1.000000
  0.000000  0.000000  0.500000      1.000000
  0.500000  0.500000  0.000000      1.000000
  0.000000  0.500000  0.500000      1.000000
  0.500000  0.000000  0.500000      1.000000
  0.500000  0.500000  0.500000      1.000000
 
 Following cartesian coordinates:
            Coordinates               Weight
  0.000000  0.000000  0.000000      1.000000
  0.139765  0.000000  0.000000      1.000000
  0.000000  0.139765  0.000000      1.000000
  0.000000  0.000000  0.139765      1.000000
  0.139765  0.139765  0.000000      1.000000
  0.000000  0.139765  0.139765      1.000000
  0.139765  0.000000  0.139765      1.000000
  0.139765  0.139765  0.139765      1.000000
 
 
 Subroutine IBZKPT_HF returns following result:
 ==============================================
 
 Found      8 k-points in 1st BZ
 the following      8 k-points will be used (e.g. in the exchange kernel)
 Following reciprocal coordinates:   # in IRBZ
  0.000000  0.000000  0.000000    0.12500000   1 t-inv F
  0.500000  0.000000  0.000000    0.12500000   2 t-inv F
  0.000000  0.500000  0.000000    0.12500000   3 t-inv F
  0.000000  0.000000  0.500000    0.12500000   4 t-inv F
  0.500000  0.500000  0.000000    0.12500000   5 t-inv F
  0.000000  0.500000  0.500000    0.12500000   6 t-inv F
  0.500000  0.000000  0.500000    0.12500000   7 t-inv F
  0.500000  0.500000  0.500000    0.12500000   8 t-inv F


--------------------------------------------------------------------------------------------------------




 Dimension of arrays:
   k-points           NKPTS =      8   k-points in BZ     NKDIM =      8   number of bands    NBANDS=     26
   number of dos      NEDOS =    301   number of ions     NIONS =      4
   non local maximal  LDIM  =      6   non local SUM 2l+1 LMDIM =     18
   total plane-waves  NPLWV =   8000
   max r-space proj   IRMAX =   2155   max aug-charges    IRDMAX=   5260
   dimension x,y,z NGX =    20 NGY =   20 NGZ =   20
   dimension x,y,z NGXF=    40 NGYF=   40 NGZF=   40
   support grid    NGXF=    40 NGYF=   40 NGZF=   40
   ions per type =               4
   NGX,Y,Z   is equivalent  to a cutoff of   9.29,  9.29,  9.29 a.u.
   NGXF,Y,Z  is equivalent  to a cutoff of  18.59, 18.59, 18.59 a.u.

 SYSTEM =  unknown system                          
 POSCAR =  Cu4                                     

 Startparameter for this run:
   NWRITE =      2    write-flag & timer
   PREC   = normal    normal or accurate (medium, high low for compatibility)
   ISTART =      1    job   : 0-new  1-cont  2-samecut
   ICHARG =      1    charge: 1-file 2-atom 10-const
   ISPIN  =      1    spin polarized calculation?
   LNONCOLLINEAR =      F non collinear calculations
   LSORBIT =      F    spin-orbit coupling
   INIWAV =      1    electr: 0-lowe 1-rand  2-diag
   LASPH  =      F    aspherical Exc in radial PAW
 Electronic Relaxation 1
   ENCUT  =  450.0 eV  33.07 Ry    5.75 a.u.   6.19  6.19  6.19*2*pi/ulx,y,z
   ENINI  =  450.0     initial cutoff
   ENAUG  =  587.0 eV  augmentation charge cutoff
   NELM   =    500;   NELMIN=  2; NELMDL=  0     # of ELM steps 
   EDIFF  = 0.1E-04   stopping-criterion for ELM
   LREAL  =      T    real-space projection
   NLSPLINE    = F    spline interpolate recip. space projectors
   LCOMPAT=      F    compatible to vasp.4.4
   GGA_COMPAT  = T    GGA compatible to vasp.4.4-vasp.4.6
   LMAXPAW     = -100 max onsite density
   LMAXMIX     =    2 max onsite mixed and CHGCAR
   VOSKOWN=      0    Vosko Wilk Nusair interpolation
   ROPT   =   -0.00050
 Ionic relaxation
   EDIFFG = -.5E-02   stopping-criterion for IOM
   NSW    =      0    number of steps for IOM
   NBLOCK =      1;   KBLOCK =      1    inner block; outer block 
   IBRION =     -1    ionic relax: 0-MD 1-quasi-New 2-CG
   NFREE  =      0    steps in history (QN), initial steepest desc. (CG)
   ISIF   =      2    stress and relaxation
   IWAVPR =     10    prediction:  0-non 1-charg 2-wave 3-comb
   ISYM   =      0    0-nonsym 1-usesym 2-fastsym
   LCORR  =      T    Harris-Foulkes like correction to forces

   POTIM  = 0.5000    time-step for ionic-motion
   TEIN   =    0.0    initial temperature
   TEBEG  =    0.0;   TEEND  =   0.0 temperature during run
   SMASS  =  -3.00    Nose mass-parameter (am)
   estimated Nose-frequenzy (Omega)   =  0.10E-29 period in steps = 0.13E+47 mass=  -0.292E-27a.u.
   SCALEE = 1.0000    scale energy and forces
   NPACO  =    256;   APACO  = 10.0  distance and # of slots for P.C.
   PSTRESS=    0.0 pullay stress

  Mass of Ions in am
   POMASS =  63.55
  Ionic Valenz
   ZVAL   =  11.00
  Atomic Wigner-Seitz radii
   RWIGS  =  -1.00
  virtual crystal weights 
   VCA    =   1.00
   NELECT =      44.0000    total number of electrons
   NUPDOWN=      -1.0000    fix difference up-down

 DOS related values:
   EMIN   =  10.00;   EMAX   =-10.00  energy-range for DOS
   EFERMI =   0.00;   METHOD = LEGACY      
   ISMEAR =     0;   SIGMA  =   0.05  broadening in eV -4-tet -1-fermi 0-gaus

 Electronic relaxation 2 (details)
   IALGO  =     58    algorithm
   LDIAG  =      T    sub-space diagonalisation (order eigenvalues)
   LSUBROT=      F    optimize rotation matrix (better conditioning)
   TURBO    =      0    0=normal 1=particle mesh
   IRESTART =      0    0=no restart 2=restart with 2 vectors
   NREBOOT  =      0    no. of reboots
   NMIN     =      0    reboot dimension
   EREF     =   0.00    reference energy to select bands
   IMIX   =      4    mixing-type and parameters
     AMIX     =   0.40;   BMIX     =  1.00
     AMIX_MAG =   1.60;   BMIX_MAG =  1.00
     AMIN     =   0.10
     WC   =   100.;   INIMIX=   1;  MIXPRE=   1;  MAXMIX= -45

 Intra band minimization:
   WEIMIN = 0.0000     energy-eigenvalue tresh-hold
   EBREAK =  0.96E-07  absolut break condition
   DEPER  =   0.30     relativ break condition  

   TIME   =   0.40     timestep for ELM

  volume/ion in A,a.u.               =      11.45        77.24
  Fermi-wavevector in a.u.,A,eV,Ry     =   1.615553  3.052952 35.511355  2.610011
  Thomas-Fermi vector in A             =   2.710282
 
 Write flags
   LWAVE        =      T    write WAVECAR
   LDOWNSAMPLE  =      F    k-point downsampling of WAVECAR
   LCHARG       =      T    write CHGCAR
   LVTOT        =      F    write LOCPOT, total local potential
   LVHAR        =      F    write LOCPOT, Hartree potential only
   LELF         =      F    write electronic localiz. function (ELF)
   LORBIT       =      0    0 simple, 1 ext, 2 COOP (PROOUT), +10 PAW based schemes


 Dipole corrections
   LMONO  =      F    monopole corrections only (constant potential shift)
   LDIPOL =      F    correct potential (dipole corrections)
   IDIPOL =      0    1-x, 2-y, 3-z, 4-all directions 
   EPSILON=  1.0000000 bulk dielectric constant

 Core level calculations are selected ICORELEVEL =  1
 Exchange correlation treatment:
   GGA     =    --    GGA type
   LEXCH   =     8    internal setting for exchange type
   LIBXC   =     F    Libxc                    
   VOSKOWN =     0    Vosko Wilk Nusair interpolation
   EXXOEP  =     0    0=HF, 1=EXX-LHF (local Hartree Fock) 2=EXX OEP
   LHFCALC =     T    Hartree Fock is set to
   LSYMGRAD=     F    symmetrize gradient (conserves proper symmetry)
   PRECFOCK=fast      Normal, Fast or Accurate (Low or Medium for compatibility)
   LRHFCALC=     F    long range Hartree Fock
   LRSCOR  =     F    long range correlation only (use DFT for short range part)
   LTHOMAS =     F    Thomas Fermi screening in HF
   LMODELHF=     F    short range full HF, long range fraction AEXX
   FOCKCORR=     1    mode to apply convergence corrections
   LFOCKACE=     T    use Adeptively-Compressed-Exchange operator
   ENCUT4O =  -1.0   cutoff for four orbital integrals eV
   LMAXFOCK=     4    L truncation for augmentation on plane wave grid
   LMAXFOCKAE=  -1    L truncation for all-electron charge restoration on plane wave grid
   NMAXFOCKAE=   1    number of basis functions for all-electron charge restoration
   LFOCKAEDFT=     F  apply the AE augmentation even for DFT
   NKREDX  =     1    reduce k-point grid by
   NKREDY  =     1    reduce k-point grid by
   NKREDZ  =     1    reduce k-point grid by
   SHIFTRED=     F    shift reduced grid of Gamma
   HFKIDENT=     F    idential grid for each k-point
   ODDONLY =     F    use only odd q-grid points
   EVENONLY=     F    use only even q-grid points
   HFALPHA =   -1.0000 decay constant for conv. correction
   MCALPHA =    0.0000 extent of test-charge in conv. correction in multipole expansion
   AEXX    =    0.3200 exact exchange contribution
   HFSCREEN=    0.2000 screening length (either q_TF or 0.3 A-1)
   HFSCREENC=   0.2000 screening length for correlation (either q_TF or 0.3 A-1)
   HFRCUT  =    0.0000 spherical cutoff for potential kernel
   ALDAX   =    0.6800 LDA exchange part
   AGGAX   =    0.6800 GGA exchange part
   ALDAC   =    1.0000 LDA correlation
   AGGAC   =    1.0000 GGA correlation
   ENCUTFOCK=  -1.0 apply spherical cutoff to Coloumb kernel
   NBANDSGWLOW=     1    first orbital included in HF term
   NBLOCK_FOCK=    64    blocking factor in FOCK_ACC

 Linear response parameters
   LEPSILON=     F    determine dielectric tensor
   LRPA    =     F    only Hartree local field effects (RPA)
   LNABLA  =     F    use nabla operator in PAW spheres
   LVEL    =     F    velocity operator in full k-point grid
   CSHIFT  =0.1000    complex shift for real part using Kramers Kronig
   OMEGAMAX=  -1.0    maximum frequency
   DEG_THRESHOLD= 0.2000000E-02 threshold for treating states as degnerate
   RTIME   =   -0.100 relaxation time in fs
  (WPLASMAI=    0.000 imaginary part of plasma frequency in eV, 0.658/RTIME)
   DFIELD  = 0.0000000 0.0000000 0.0000000 field for delta impulse in time
 
  Optional k-point grid parameters
   LKPOINTS_OPT  =     F    use optional k-point grid
   KPOINTS_OPT_MODE=     1    mode for optional k-point grid
 
 Orbital magnetization related:
   ORBITALMAG=     F  switch on orbital magnetization
   LCHIMAG   =     F  perturbation theory with respect to B field
   DQ        =  0.001000  dq finite difference perturbation B field
   LLRAUG    =     F  two centre corrections for induced B field
   LBONE     =     F  B-component reconstruction in AE one-centre
   LVGVCALC  =     T  calculate vGv susceptibility
   LVGVAPPL  =     F  apply vGv susceptibility instead of pGv for G=0

 Random number generation:
   RANDOM_GENERATOR = DEFAULT
   PCG_SEED         = not used


--------------------------------------------------------------------------------------------------------


 Static calculation
 charge density and potential will be updated during run
 non-spin polarized calculation
 Conjugate gradient for all bands (Freysoldt, et al. PRB 79, 241103 (2009))
 preconditioned conjugated gradient                                        
 perform sub-space diagonalisation
    before iterative eigenvector-optimisation
 modified Broyden-mixing scheme, WC =      100.0
 initial mixing is a Kerker type mixing with AMIX =  0.4000 and BMIX =      1.0000
 Hartree-type preconditioning will be used
 using additional bands             4
 real space projection scheme for non local part
 use partial core corrections
 no Harris-corrections to forces 
 use gradient corrections 
 use of overlap-Matrix (Vanderbilt PP)
 Gauss-broadening in eV      SIGMA  =   0.05


--------------------------------------------------------------------------------------------------------


  energy-cutoff  :      450.00
  volume of cell :       45.78
      direct lattice vectors                 reciprocal lattice vectors
     3.577430672  0.000000000  0.000000000     0.279530225 -0.000000000  0.000000000
     0.000000000  3.577430672  0.000000000     0.000000000  0.279530225  0.000000000
     0.000000000  0.000000000  3.577430672    -0.000000000 -0.000000000  0.279530225

  length of vectors
     3.577430672  3.577430672  3.577430672     0.279530225  0.279530225  0.279530225


 
 old parameters found on file WAVECAR:
  energy-cutoff  :      450.00
  volume of cell :       45.78
      direct lattice vectors                 reciprocal lattice vectors
     3.577430672  0.000000000  0.000000000     0.279530225 -0.000000000  0.000000000
     0.000000000  3.577430672  0.000000000     0.000000000  0.279530225  0.000000000
     0.000000000  0.000000000  3.577430672    -0.000000000 -0.000000000  0.279530225

  length of vectors

 
 k-points in units of 2pi/SCALE and weight: Automatic mesh                          
   0.00000000  0.00000000  0.00000000       0.125
   0.13976511  0.00000000  0.00000000       0.125
   0.00000000  0.13976511  0.00000000       0.125
   0.00000000  0.00000000  0.13976511       0.125
   0.13976511  0.13976511  0.00000000       0.125
   0.00000000  0.13976511  0.13976511       0.125
   0.13976511  0.00000000  0.13976511       0.125
   0.13976511  0.13976511  0.13976511       0.125
 
 k-points in reciprocal lattice and weights: Automatic mesh                          
   0.00000000  0.00000000  0.00000000       0.125
   0.50000000  0.00000000  0.00000000       0.125
   0.00000000  0.50000000  0.00000000       0.125
   0.00000000  0.00000000  0.50000000       0.125
   0.50000000  0.50000000  0.00000000       0.125
   0.00000000  0.50000000  0.50000000       0.125
   0.50000000  0.00000000  0.50000000       0.125
   0.50000000  0.50000000  0.50000000       0.125
 
 position of ions in fractional coordinates (direct lattice) 
   0.00000000  0.00000000  0.00000000
   0.00000000  0.50000000  0.50000000
   0.50000000  0.00000000  0.50000000
   0.50000000  0.50000000  0.00000000
 
 position of ions in cartesian coordinates  (Angst):
   0.00000000  0.00000000  0.00000000
   0.00000000  1.78871534  1.78871534
   1.78871534  0.00000000  1.78871534
   1.78871534  1.78871534  0.00000000
 


--------------------------------------------------------------------------------------------------------


 k-point   1 :   0.0000 0.0000 0.0000  plane waves:    1021
 k-point   2 :   0.5000 0.0000 0.0000  plane waves:    1020
 k-point   3 :   0.0000 0.5000 0.0000  plane waves:    1020
 k-point   4 :   0.0000 0.0000 0.5000  plane waves:    1020
 k-point   5 :   0.5000 0.5000 0.0000  plane waves:     992
 k-point   6 :   0.0000 0.5000 0.5000  plane waves:     992
 k-point   7 :   0.5000 0.0000 0.5000  plane waves:     992
 k-point   8 :   0.5000 0.5000 0.5000  plane waves:     968

 maximum and minimum number of plane-waves per node :      1021      968

 maximum number of plane-waves:      1021
 maximum index in each direction: 
   IXMAX=    6   IYMAX=    6   IZMAX=    6
   IXMIN=   -6   IYMIN=   -6   IZMIN=   -6


 serial   3D FFT for wavefunctions
 parallel 3D FFT for charge:
    minimum data exchange during FFTs selected (reduces bandwidth)


 FFT grid for exact exchange (Hartree Fock) 
  NGX = 14; NGY = 14; NGZ = 14

 
 Radii for the augmentation spheres in the non-local exchange
 for species   1 augmentation radius   1.273 (default was   0.943)
       energy cutoff for augmentation   1800.0
 Maximum index for augmentation-charges in exchange           485
  SETUP_FOCK is finished

 total amount of memory used by VASP MPI-rank0    48693. kBytes
=======================================================================

   base      :      30000. kBytes
   nonlr-proj:       1872. kBytes
   fftplans  :       2284. kBytes
   grid      :       3500. kBytes
   one-center:         62. kBytes
   HF        :         64. kBytes
   wavefun   :      10911. kBytes
 
     INWAV:  cpu time      0.1760: real time      0.1773
 Broyden mixing: mesh for mixing (old mesh)
   NGX = 13   NGY = 13   NGZ = 13
  (NGX  = 40   NGY  = 40   NGZ  = 40)
  gives a total of   2197 points

 initial charge density was supplied:
 number of electron      43.9999762 magnetization 
 charge density for first step will be calculated from the start-wavefunctions


--------------------------------------------------------------------------------------------------------


 Maximum index for non-local projection operator          2007
 Maximum index for augmentation-charges          4945 (set IRDMAX)


--------------------------------------------------------------------------------------------------------


 initial charge from wavefunction
 First call to EWALD:  gamma=   0.495
 Maximum number of real-space cells 3x 3x 3
 Maximum number of reciprocal cells 3x 3x 3

    FEWALD:  cpu time      0.0010: real time      0.0010


--------------------------------------- Ionic step        1  -------------------------------------------




--------------------------------------- Iteration      1(   1)  ---------------------------------------


    POTLOK:  cpu time      0.1624: real time      0.1623
    SETDIJ:  cpu time      0.1055: real time      0.1055
    TRIAL :  cpu time      0.3957: real time      0.3986
    CORREC:  cpu time      0.4371: real time      0.4370
    CHARGE:  cpu time      0.0111: real time      0.0111
    --------------------------------------------
      LOOP:  cpu time      1.1182: real time      1.1210

 eigenvalue-minimisations  :     0
 total energy-change (2. order) :-0.1300067E+02  (-0.2206178E+00)
 number of electron      43.9999760 magnetization 
 augmentation part       28.2134985 magnetization 

 Free energy of the ion-electron system (eV)
  ---------------------------------------------------
  alpha Z        PSCENC =       255.57509302
  Ewald energy   TEWEN  =     -4466.07994564
  -Hartree energ DENC   =     -1319.13167710
  -exchange      EXHF   =       146.71090955
  -V(xc)+E(xc)   XCENC  =       122.59978606
  PAW double counting   =      5341.26688546    -5727.13926534
  entropy T*S    EENTRO =        -0.04138536
  eigenvalues    EBANDS =        81.93442665
  atomic energy  EATOM  =      5551.30450086
  ---------------------------------------------------
  free energy    TOTEN  =       -13.00067205 eV

  energy without entropy =      -12.95928669  energy(sigma->0) =      -12.97997937
  exchange ACFDT corr.  =        -0.37159525  see jH, gK, PRB 81, 115126


--------------------------------------------------------------------------------------------------------




--------------------------------------- Iteration      1(   2)  ---------------------------------------


    POTLOK:  cpu time      0.0740: real time      0.0739
    SETDIJ:  cpu time      0.1158: real time      0.1157
    TRIAL :  cpu time      0.2733: real time      0.2732
    CORREC:  cpu time      0.4312: real time      0.4461
    CHARGE:  cpu time      0.0110: real time      0.0110
    --------------------------------------------
      LOOP:  cpu time      0.9054: real time      0.9210

 eigenvalue-minimisations  :     0
 total energy-change (2. order) :-0.2187961E+00  (-0.2676104E+00)
 number of electron      43.9999759 magnetization 
 augmentation part       28.2490583 magnetization 

 Free energy of the ion-electron system (eV)
  ---------------------------------------------------
  alpha Z        PSCENC =       255.57509302
  Ewald energy   TEWEN  =     -4466.07994564
  -Hartree energ DENC   =     -1343.80069328
  -exchange      EXHF   =       147.70273207
  -V(xc)+E(xc)   XCENC  =       123.45135363
  PAW double counting   =      5386.49731882    -5780.19431351
  entropy T*S    EENTRO =        -0.04106627
  eigenvalues    EBANDS =       112.36587121
  atomic energy  EATOM  =      5551.30450086
  ---------------------------------------------------
  free energy    TOTEN  =       -13.21946818 eV

  energy without entropy =      -13.17840191  energy(sigma->0) =      -13.19893504
  exchange ACFDT corr.  =        -0.37056475  see jH, gK, PRB 81, 115126


--------------------------------------------------------------------------------------------------------




--------------------------------------- Iteration      1(   3)  ---------------------------------------


    POTLOK:  cpu time      0.0737: real time      0.0737
    SETDIJ:  cpu time      0.1116: real time      0.1115
    TRIAL :  cpu time      0.2736: real time      0.2735
    CORREC:  cpu time      0.4276: real time      0.4275
    CHARGE:  cpu time      0.0110: real time      0.0110
    --------------------------------------------
      LOOP:  cpu time      0.8976: real time      0.8978

 eigenvalue-minimisations  :     0
 total energy-change (2. order) :-0.2703086E+00  (-0.4202356E-01)
 number of electron      43.9999759 magnetization 
 augmentation part       28.2729822 magnetization 

 Free energy of the ion-electron system (eV)
  ---------------------------------------------------
  alpha Z        PSCENC =       255.57509302
  Ewald energy   TEWEN  =     -4466.07994564
  -Hartree energ DENC   =     -1346.56882588
  -exchange      EXHF   =       148.10962215
  -V(xc)+E(xc)   XCENC  =       123.52122475
  PAW double counting   =      5519.28780418    -5906.80290331
  entropy T*S    EENTRO =        -0.04128661
  eigenvalues    EBANDS =       108.20471942
  atomic energy  EATOM  =      5551.30450086
  ---------------------------------------------------
  free energy    TOTEN  =       -13.48977674 eV

  energy without entropy =      -13.44849012  energy(sigma->0) =      -13.46913343
  exchange ACFDT corr.  =        -0.36905399  see jH, gK, PRB 81, 115126


--------------------------------------------------------------------------------------------------------




--------------------------------------- Iteration      1(   4)  ---------------------------------------


    POTLOK:  cpu time      0.0749: real time      0.0750
    SETDIJ:  cpu time      0.1117: real time      0.1117
    TRIAL :  cpu time      0.2733: real time      0.2733
    CORREC:  cpu time      0.4348: real time      0.4347
    CHARGE:  cpu time      0.0111: real time      0.0111
    --------------------------------------------
      LOOP:  cpu time      0.9062: real time      0.9066

 eigenvalue-minimisations  :     0
 total energy-change (2. order) :-0.3921568E-01  (-0.4703501E-01)
 number of electron      43.9999759 magnetization 
 augmentation part       28.3272967 magnetization 

 Free energy of the ion-electron system (eV)
  ---------------------------------------------------
  alpha Z        PSCENC =       255.57509302
  Ewald energy   TEWEN  =     -4466.07994564
  -Hartree energ DENC   =     -1348.42391126
  -exchange      EXHF   =       148.21703135
  -V(xc)+E(xc)   XCENC  =       123.58359322
  PAW double counting   =      5545.22100164    -5932.59857213
  entropy T*S    EENTRO =        -0.04098726
  eigenvalues    EBANDS =       109.71350313
  atomic energy  EATOM  =      5551.30450086
  ---------------------------------------------------
  free energy    TOTEN  =       -13.52899242 eV

  energy without entropy =      -13.48800516  energy(sigma->0) =      -13.50849879
  exchange ACFDT corr.  =        -0.37512870  see jH, gK, PRB 81, 115126


--------------------------------------------------------------------------------------------------------




--------------------------------------- Iteration      1(   5)  ---------------------------------------


    POTLOK:  cpu time      0.0828: real time      0.0828
    SETDIJ:  cpu time      0.1051: real time      0.1051
    TRIAL :  cpu time      0.2734: real time      0.2733
    CORREC:  cpu time      0.4321: real time      0.4319
    CHARGE:  cpu time      0.0111: real time      0.0111
    --------------------------------------------
      LOOP:  cpu time      0.9047: real time      0.9049

 eigenvalue-minimisations  :     0
 total energy-change (2. order) :-0.4631597E-01  (-0.2976249E-01)
 number of electron      43.9999759 magnetization 
 augmentation part       28.3547553 magnetization 

 Free energy of the ion-electron system (eV)
  ---------------------------------------------------
  alpha Z        PSCENC =       255.57509302
  Ewald energy   TEWEN  =     -4466.07994564
  -Hartree energ DENC   =     -1352.68023584
  -exchange      EXHF   =       148.41421240
  -V(xc)+E(xc)   XCENC  =       123.73183232
  PAW double counting   =      5579.24534853    -5967.69003711
  entropy T*S    EENTRO =        -0.03936780
  eigenvalues    EBANDS =       114.64491034
  atomic energy  EATOM  =      5551.30450086
  ---------------------------------------------------
  free energy    TOTEN  =       -13.57530839 eV

  energy without entropy =      -13.53594059  energy(sigma->0) =      -13.55562449
  exchange ACFDT corr.  =        -0.36469123  see jH, gK, PRB 81, 115126


--------------------------------------------------------------------------------------------------------




--------------------------------------- Iteration      1(   6)  ---------------------------------------


    POTLOK:  cpu time      0.0759: real time      0.0759
    SETDIJ:  cpu time      0.1115: real time      0.1114
    TRIAL :  cpu time      0.2740: real time      0.2740
    CORREC:  cpu time      0.4334: real time      0.4333
    CHARGE:  cpu time      0.0110: real time      0.0110
    --------------------------------------------
      LOOP:  cpu time      0.9061: real time      0.9061

 eigenvalue-minimisations  :     0
 total energy-change (2. order) :-0.3005857E-01  (-0.1454776E-01)
 number of electron      43.9999759 magnetization 
 augmentation part       28.3346393 magnetization 

 Free energy of the ion-electron system (eV)
  ---------------------------------------------------
  alpha Z        PSCENC =       255.57509302
  Ewald energy   TEWEN  =     -4466.07994564
  -Hartree energ DENC   =     -1355.12644965
  -exchange      EXHF   =       148.55428931
  -V(xc)+E(xc)   XCENC  =       123.81632728
  PAW double counting   =      5590.08597115    -5979.01808371
  entropy T*S    EENTRO =        -0.03718595
  eigenvalues    EBANDS =       117.32229823
  atomic energy  EATOM  =      5551.30450086
  ---------------------------------------------------
  free energy    TOTEN  =       -13.60536696 eV

  energy without entropy =      -13.56818101  energy(sigma->0) =      -13.58677398
  exchange ACFDT corr.  =        -0.33936523  see jH, gK, PRB 81, 115126


--------------------------------------------------------------------------------------------------------




--------------------------------------- Iteration      1(   7)  ---------------------------------------


    POTLOK:  cpu time      0.0671: real time      0.0671
    SETDIJ:  cpu time      0.1253: real time      0.1253
    TRIAL :  cpu time      0.2738: real time      0.2737
    CORREC:  cpu time      0.4330: real time      0.4329
    CHARGE:  cpu time      0.0110: real time      0.0110
    --------------------------------------------
      LOOP:  cpu time      0.9105: real time      0.9107

 eigenvalue-minimisations  :     0
 total energy-change (2. order) :-0.1466903E-01  (-0.2711264E-01)
 number of electron      43.9999760 magnetization 
 augmentation part       28.3115875 magnetization 

 Free energy of the ion-electron system (eV)
  ---------------------------------------------------
  alpha Z        PSCENC =       255.57509302
  Ewald energy   TEWEN  =     -4466.07994564
  -Hartree energ DENC   =     -1353.34645887
  -exchange      EXHF   =       148.52288311
  -V(xc)+E(xc)   XCENC  =       123.75426692
  PAW double counting   =      5590.65272767    -5978.65339929
  entropy T*S    EENTRO =        -0.02559638
  eigenvalues    EBANDS =       114.68748219
  atomic energy  EATOM  =      5551.30450086
  ---------------------------------------------------
  free energy    TOTEN  =       -13.62003599 eV

  energy without entropy =      -13.59443961  energy(sigma->0) =      -13.60723780
  exchange ACFDT corr.  =        -0.31026629  see jH, gK, PRB 81, 115126


--------------------------------------------------------------------------------------------------------




--------------------------------------- Iteration      1(   8)  ---------------------------------------


    POTLOK:  cpu time      0.0765: real time      0.0765
    SETDIJ:  cpu time      0.1110: real time      0.1110
    TRIAL :  cpu time      0.2743: real time      0.2886
    CORREC:  cpu time      0.4300: real time      0.4299
    CHARGE:  cpu time      0.0111: real time      0.0111
    --------------------------------------------
      LOOP:  cpu time      0.9033: real time      0.9178

 eigenvalue-minimisations  :     0
 total energy-change (2. order) :-0.3313755E-01  (-0.2346800E-01)
 number of electron      43.9999760 magnetization 
 augmentation part       28.3223542 magnetization 

 Free energy of the ion-electron system (eV)
  ---------------------------------------------------
  alpha Z        PSCENC =       255.57509302
  Ewald energy   TEWEN  =     -4466.07994564
  -Hartree energ DENC   =     -1351.39669117
  -exchange      EXHF   =       148.56663631
  -V(xc)+E(xc)   XCENC  =       123.68629938
  PAW double counting   =      5590.42168540    -5977.31608984
  entropy T*S    EENTRO =        -0.01484690
  eigenvalues    EBANDS =       111.61093451
  atomic energy  EATOM  =      5551.30450086
  ---------------------------------------------------
  free energy    TOTEN  =       -13.65317354 eV

  energy without entropy =      -13.63832664  energy(sigma->0) =      -13.64575009
  exchange ACFDT corr.  =        -0.20328407  see jH, gK, PRB 81, 115126


--------------------------------------------------------------------------------------------------------




--------------------------------------- Iteration      1(   9)  ---------------------------------------


    POTLOK:  cpu time      0.0779: real time      0.0779
    SETDIJ:  cpu time      0.1047: real time      0.1047
    TRIAL :  cpu time      0.2757: real time      0.2756
    CORREC:  cpu time      0.4307: real time      0.4306
    CHARGE:  cpu time      0.0112: real time      0.0112
    --------------------------------------------
      LOOP:  cpu time      0.9004: real time      0.9006

 eigenvalue-minimisations  :     0
 total energy-change (2. order) :-0.1220027E-01  (-0.1067526E-01)
 number of electron      43.9999759 magnetization 
 augmentation part       28.3564001 magnetization 

 Free energy of the ion-electron system (eV)
  ---------------------------------------------------
  alpha Z        PSCENC =       255.57509302
  Ewald energy   TEWEN  =     -4466.07994564
  -Hartree energ DENC   =     -1352.51134401
  -exchange      EXHF   =       148.69869071
  -V(xc)+E(xc)   XCENC  =       123.72462807
  PAW double counting   =      5591.02690149    -5978.11742981
  entropy T*S    EENTRO =        -0.00901280
  eigenvalues    EBANDS =       112.72837843
  atomic energy  EATOM  =      5551.30450086
  ---------------------------------------------------
  free energy    TOTEN  =       -13.66537380 eV

  energy without entropy =      -13.65636100  energy(sigma->0) =      -13.66086740
  exchange ACFDT corr.  =        -0.10892719  see jH, gK, PRB 81, 115126


--------------------------------------------------------------------------------------------------------




--------------------------------------- Iteration      1(  10)  ---------------------------------------


    POTLOK:  cpu time      0.0765: real time      0.0765
    SETDIJ:  cpu time      0.1085: real time      0.1085
    TRIAL :  cpu time      0.2754: real time      0.2929
    CORREC:  cpu time      0.4322: real time      0.4321
    CHARGE:  cpu time      0.0112: real time      0.0112
    --------------------------------------------
      LOOP:  cpu time      0.9040: real time      0.9217

 eigenvalue-minimisations  :     0
 total energy-change (2. order) :-0.6507336E-02  (-0.1435947E-01)
 number of electron      43.9999759 magnetization 
 augmentation part       28.4027863 magnetization 

 Free energy of the ion-electron system (eV)
  ---------------------------------------------------
  alpha Z        PSCENC =       255.57509302
  Ewald energy   TEWEN  =     -4466.07994564
  -Hartree energ DENC   =     -1355.71923937
  -exchange      EXHF   =       148.86747377
  -V(xc)+E(xc)   XCENC  =       123.83560561
  PAW double counting   =      5592.54582090    -5980.71902513
  entropy T*S    EENTRO =        -0.00401801
  eigenvalues    EBANDS =       116.72684764
  atomic energy  EATOM  =      5551.30450086
  ---------------------------------------------------
  free energy    TOTEN  =       -13.67188114 eV

  energy without entropy =      -13.66786313  energy(sigma->0) =      -13.66987213
  exchange ACFDT corr.  =        -0.06229196  see jH, gK, PRB 81, 115126


--------------------------------------------------------------------------------------------------------




--------------------------------------- Iteration      1(  11)  ---------------------------------------


    POTLOK:  cpu time      0.0775: real time      0.0775
    SETDIJ:  cpu time      0.1086: real time      0.1086
    TRIAL :  cpu time      0.4129: real time      0.7130
    CORREC:  cpu time      0.4291: real time      0.4290
    CHARGE:  cpu time      0.0110: real time      0.0110
    --------------------------------------------
      LOOP:  cpu time      1.0393: real time      1.3396

 eigenvalue-minimisations  :     0
 total energy-change (2. order) :-0.1279625E-01  (-0.2091395E-01)
 number of electron      43.9999759 magnetization 
 augmentation part       28.4218448 magnetization 

 Free energy of the ion-electron system (eV)
  ---------------------------------------------------
  alpha Z        PSCENC =       255.57509302
  Ewald energy   TEWEN  =     -4466.07994564
  -Hartree energ DENC   =     -1360.07231606
  -exchange      EXHF   =       149.07566510
  -V(xc)+E(xc)   XCENC  =       123.98609060
  PAW double counting   =      5595.07230648    -5984.70129658
  entropy T*S    EENTRO =        -0.00072352
  eigenvalues    EBANDS =       122.15924284
  atomic energy  EATOM  =      5551.30450086
  ---------------------------------------------------
  free energy    TOTEN  =       -13.68467739 eV

  energy without entropy =      -13.68395388  energy(sigma->0) =      -13.68431563
  exchange ACFDT corr.  =        -0.02480276  see jH, gK, PRB 81, 115126


--------------------------------------------------------------------------------------------------------




--------------------------------------- Iteration      1(  12)  ---------------------------------------


    POTLOK:  cpu time      0.0801: real time      0.0801
    SETDIJ:  cpu time      0.1081: real time      0.1081
    TRIAL :  cpu time      0.2732: real time      0.2731
    CORREC:  cpu time      0.4257: real time      0.4256
    CHARGE:  cpu time      0.0110: real time      0.0110
    --------------------------------------------
      LOOP:  cpu time      0.8982: real time      0.8985

 eigenvalue-minimisations  :     0
 total energy-change (2. order) :-0.1979665E-01  (-0.1575169E-01)
 number of electron      43.9999759 magnetization 
 augmentation part       28.3906423 magnetization 

 Free energy of the ion-electron system (eV)
  ---------------------------------------------------
  alpha Z        PSCENC =       255.57509302
  Ewald energy   TEWEN  =     -4466.07994564
  -Hartree energ DENC   =     -1361.92725533
  -exchange      EXHF   =       149.18163561
  -V(xc)+E(xc)   XCENC  =       124.04915355
  PAW double counting   =      5597.38326612    -5987.32957569
  entropy T*S    EENTRO =        -0.00005721
  eigenvalues    EBANDS =       124.13937697
  atomic energy  EATOM  =      5551.30450086
  ---------------------------------------------------
  free energy    TOTEN  =       -13.70447404 eV

  energy without entropy =      -13.70441683  energy(sigma->0) =      -13.70444544
  exchange ACFDT corr.  =        -0.00356047  see jH, gK, PRB 81, 115126


--------------------------------------------------------------------------------------------------------




--------------------------------------- Iteration      1(  13)  ---------------------------------------


    POTLOK:  cpu time      0.0753: real time      0.0752
    SETDIJ:  cpu time      0.1104: real time      0.1104
    TRIAL :  cpu time      0.2711: real time      0.2710
    CORREC:  cpu time      0.4186: real time      0.4185
    CHARGE:  cpu time      0.0110: real time      0.0110
    --------------------------------------------
      LOOP:  cpu time      0.8865: real time      0.8868

 eigenvalue-minimisations  :     0
 total energy-change (2. order) :-0.1501133E-01  (-0.1440400E-01)
 number of electron      43.9999759 magnetization 
 augmentation part       28.3576489 magnetization 

 Free energy of the ion-electron system (eV)
  ---------------------------------------------------
  alpha Z        PSCENC =       255.57509302
  Ewald energy   TEWEN  =     -4466.07994564
  -Hartree energ DENC   =     -1359.12262137
  -exchange      EXHF   =       149.09300189
  -V(xc)+E(xc)   XCENC  =       123.95003943
  PAW double counting   =      5597.61056515    -5986.09999877
  entropy T*S    EENTRO =        -0.00000035
  eigenvalues    EBANDS =       120.04993728
  atomic energy  EATOM  =      5551.30450086
  ---------------------------------------------------
  free energy    TOTEN  =       -13.71948537 eV

  energy without entropy =      -13.71948502  energy(sigma->0) =      -13.71948520
  exchange ACFDT corr.  =        -0.00023321  see jH, gK, PRB 81, 115126


--------------------------------------------------------------------------------------------------------




--------------------------------------- Iteration      1(  14)  ---------------------------------------


    POTLOK:  cpu time      0.0730: real time      0.0729
    SETDIJ:  cpu time      0.1125: real time      0.1124
    TRIAL :  cpu time      0.2693: real time      0.2693
    CORREC:  cpu time      0.4273: real time      0.4272
    CHARGE:  cpu time      0.0110: real time      0.0110
    --------------------------------------------
      LOOP:  cpu time      0.8933: real time      0.8934

 eigenvalue-minimisations  :     0
 total energy-change (2. order) :-0.1433081E-01  (-0.1699349E-01)
 number of electron      43.9999759 magnetization 
 augmentation part       28.3697499 magnetization 

 Free energy of the ion-electron system (eV)
  ---------------------------------------------------
  alpha Z        PSCENC =       255.57509302
  Ewald energy   TEWEN  =     -4466.07994564
  -Hartree energ DENC   =     -1356.13136593
  -exchange      EXHF   =       148.99199525
  -V(xc)+E(xc)   XCENC  =       123.84441855
  PAW double counting   =      5597.16540256    -5984.18270782
  entropy T*S    EENTRO =        -0.00000000
  eigenvalues    EBANDS =       115.77879332
  atomic energy  EATOM  =      5551.30450086
  ---------------------------------------------------
  free energy    TOTEN  =       -13.73381618 eV

  energy without entropy =      -13.73381618  energy(sigma->0) =      -13.73381618
  exchange ACFDT corr.  =        -0.00000093  see jH, gK, PRB 81, 115126


--------------------------------------------------------------------------------------------------------




--------------------------------------- Iteration      1(  15)  ---------------------------------------


    POTLOK:  cpu time      0.0666: real time      0.0666
    SETDIJ:  cpu time      0.1142: real time      0.1142
    TRIAL :  cpu time      0.2690: real time      0.2690
    CORREC:  cpu time      0.4267: real time      0.4266
    CHARGE:  cpu time      0.0111: real time      0.0111
    --------------------------------------------
      LOOP:  cpu time      0.8878: real time      0.8879

 eigenvalue-minimisations  :     0
 total energy-change (2. order) :-0.1699450E-01  (-0.9902781E-02)
 number of electron      43.9999758 magnetization 
 augmentation part       28.3971684 magnetization 

 Free energy of the ion-electron system (eV)
  ---------------------------------------------------
  alpha Z        PSCENC =       255.57509302
  Ewald energy   TEWEN  =     -4466.07994564
  -Hartree energ DENC   =     -1357.25320561
  -exchange      EXHF   =       149.03877580
  -V(xc)+E(xc)   XCENC  =       123.88232723
  PAW double counting   =      5596.83392602    -5984.12568747
  entropy T*S    EENTRO =        -0.00000000
  eigenvalues    EBANDS =       117.07340512
  atomic energy  EATOM  =      5551.30450086
  ---------------------------------------------------
  free energy    TOTEN  =       -13.75081068 eV

  energy without entropy =      -13.75081068  energy(sigma->0) =      -13.75081068
  exchange ACFDT corr.  =        -0.00000000  see jH, gK, PRB 81, 115126


--------------------------------------------------------------------------------------------------------




--------------------------------------- Iteration      1(  16)  ---------------------------------------


    POTLOK:  cpu time      0.0828: real time      0.0827
    SETDIJ:  cpu time      0.1047: real time      0.1047
    TRIAL :  cpu time      0.2670: real time      0.2670
    CORREC:  cpu time      0.4319: real time      0.4318
    CHARGE:  cpu time      0.0110: real time      0.0110
    --------------------------------------------
      LOOP:  cpu time      0.8977: real time      0.8978

 eigenvalue-minimisations  :     0
 total energy-change (2. order) :-0.9893928E-02  (-0.1005966E-01)
 number of electron      43.9999758 magnetization 
 augmentation part       28.3915690 magnetization 

 Free energy of the ion-electron system (eV)
  ---------------------------------------------------
  alpha Z        PSCENC =       255.57509302
  Ewald energy   TEWEN  =     -4466.07994564
  -Hartree energ DENC   =     -1359.72939573
  -exchange      EXHF   =       149.12480186
  -V(xc)+E(xc)   XCENC  =       123.96896232
  PAW double counting   =      5595.03333973    -5983.43067552
  entropy T*S    EENTRO =        -0.00000000
  eigenvalues    EBANDS =       120.47261449
  atomic energy  EATOM  =      5551.30450086
  ---------------------------------------------------
  free energy    TOTEN  =       -13.76070461 eV

  energy without entropy =      -13.76070461  energy(sigma->0) =      -13.76070461
  exchange ACFDT corr.  =        -0.00000000  see jH, gK, PRB 81, 115126


--------------------------------------------------------------------------------------------------------




--------------------------------------- Iteration      1(  17)  ---------------------------------------


    POTLOK:  cpu time      0.0641: real time      0.0641
    SETDIJ:  cpu time      0.1268: real time      0.1267
    TRIAL :  cpu time      0.2680: real time      0.2679
    CORREC:  cpu time      0.4281: real time      0.4281
    CHARGE:  cpu time      0.0110: real time      0.0110
    --------------------------------------------
      LOOP:  cpu time      0.8982: real time      0.8984

 eigenvalue-minimisations  :     0
 total energy-change (2. order) :-0.1007007E-01  (-0.7684414E-02)
 number of electron      43.9999758 magnetization 
 augmentation part       28.3542673 magnetization 

 Free energy of the ion-electron system (eV)
  ---------------------------------------------------
  alpha Z        PSCENC =       255.57509302
  Ewald energy   TEWEN  =     -4466.07994564
  -Hartree energ DENC   =     -1359.08921585
  -exchange      EXHF   =       149.07959437
  -V(xc)+E(xc)   XCENC  =       123.94890617
  PAW double counting   =      5587.79308993    -5976.46070685
  entropy T*S    EENTRO =        -0.00000000
  eigenvalues    EBANDS =       120.15790932
  atomic energy  EATOM  =      5551.30450086
  ---------------------------------------------------
  free energy    TOTEN  =       -13.77077468 eV

  energy without entropy =      -13.77077468  energy(sigma->0) =      -13.77077468
  exchange ACFDT corr.  =        -0.00000000  see jH, gK, PRB 81, 115126


--------------------------------------------------------------------------------------------------------




--------------------------------------- Iteration      1(  18)  ---------------------------------------


    POTLOK:  cpu time      0.0654: real time      0.0653
    SETDIJ:  cpu time      0.1177: real time      0.1177
    TRIAL :  cpu time      0.2676: real time      0.2675
    CORREC:  cpu time      0.4292: real time      0.4291
    CHARGE:  cpu time      0.0112: real time      0.0112
    --------------------------------------------
      LOOP:  cpu time      0.8912: real time      0.8914

 eigenvalue-minimisations  :     0
 total energy-change (2. order) :-0.7860884E-02  (-0.3989360E-02)
 number of electron      43.9999759 magnetization 
 augmentation part       28.3311072 magnetization 

 Free energy of the ion-electron system (eV)
  ---------------------------------------------------
  alpha Z        PSCENC =       255.57509302
  Ewald energy   TEWEN  =     -4466.07994564
  -Hartree energ DENC   =     -1355.51850333
  -exchange      EXHF   =       148.91980819
  -V(xc)+E(xc)   XCENC  =       123.82720541
  PAW double counting   =      5578.54756544    -5966.47947946
  entropy T*S    EENTRO =        -0.00000000
  eigenvalues    EBANDS =       116.12511995
  atomic energy  EATOM  =      5551.30450086
  ---------------------------------------------------
  free energy    TOTEN  =       -13.77863556 eV

  energy without entropy =      -13.77863556  energy(sigma->0) =      -13.77863556
  exchange ACFDT corr.  =        -0.00000000  see jH, gK, PRB 81, 115126


--------------------------------------------------------------------------------------------------------




--------------------------------------- Iteration      1(  19)  ---------------------------------------


    POTLOK:  cpu time      0.0745: real time      0.0744
    SETDIJ:  cpu time      0.1075: real time      0.1075
    TRIAL :  cpu time      0.2679: real time      0.2679
    CORREC:  cpu time      0.4305: real time      0.4304
    CHARGE:  cpu time      0.0110: real time      0.0110
    --------------------------------------------
      LOOP:  cpu time      0.8917: real time      0.8937

 eigenvalue-minimisations  :     0
 total energy-change (2. order) :-0.4045114E-02  (-0.3694031E-02)
 number of electron      43.9999759 magnetization 
 augmentation part       28.3262602 magnetization 

 Free energy of the ion-electron system (eV)
  ---------------------------------------------------
  alpha Z        PSCENC =       255.57509302
  Ewald energy   TEWEN  =     -4466.07994564
  -Hartree energ DENC   =     -1353.30440353
  -exchange      EXHF   =       148.81619265
  -V(xc)+E(xc)   XCENC  =       123.75199226
  PAW double counting   =      5572.26473191    -5959.85995617
  entropy T*S    EENTRO =        -0.00000000
  eigenvalues    EBANDS =       113.74911398
  atomic energy  EATOM  =      5551.30450086
  ---------------------------------------------------
  free energy    TOTEN  =       -13.78268068 eV

  energy without entropy =      -13.78268068  energy(sigma->0) =      -13.78268068
  exchange ACFDT corr.  =        -0.00000000  see jH, gK, PRB 81, 115126


--------------------------------------------------------------------------------------------------------




--------------------------------------- Iteration      1(  20)  ---------------------------------------


    POTLOK:  cpu time      0.0704: real time      0.0704
    SETDIJ:  cpu time      0.1207: real time      0.1206
    TRIAL :  cpu time      0.2682: real time      0.2682
    CORREC:  cpu time      0.4221: real time      0.4220
    CHARGE:  cpu time      0.0111: real time      0.0111
    --------------------------------------------
      LOOP:  cpu time      0.8926: real time      0.8927

 eigenvalue-minimisations  :     0
 total energy-change (2. order) :-0.3707140E-02  (-0.2253980E-02)
 number of electron      43.9999759 magnetization 
 augmentation part       28.3313712 magnetization 

 Free energy of the ion-electron system (eV)
  ---------------------------------------------------
  alpha Z        PSCENC =       255.57509302
  Ewald energy   TEWEN  =     -4466.07994564
  -Hartree energ DENC   =     -1352.78696220
  -exchange      EXHF   =       148.77178493
  -V(xc)+E(xc)   XCENC  =       123.73612244
  PAW double counting   =      5566.53036111    -5954.54625046
  entropy T*S    EENTRO =        -0.00000000
  eigenvalues    EBANDS =       113.70890813
  atomic energy  EATOM  =      5551.30450086
  ---------------------------------------------------
  free energy    TOTEN  =       -13.78638782 eV

  energy without entropy =      -13.78638782  energy(sigma->0) =      -13.78638782
  exchange ACFDT corr.  =        -0.00000000  see jH, gK, PRB 81, 115126


--------------------------------------------------------------------------------------------------------




--------------------------------------- Iteration      1(  21)  ---------------------------------------


    POTLOK:  cpu time      0.0834: real time      0.0834
    SETDIJ:  cpu time      0.1045: real time      0.1045
    TRIAL :  cpu time      0.2677: real time      0.2684
    CORREC:  cpu time      0.4315: real time      0.4314
    CHARGE:  cpu time      0.0110: real time      0.0110
    --------------------------------------------
      LOOP:  cpu time      0.8983: real time      0.8992

 eigenvalue-minimisations  :     0
 total energy-change (2. order) :-0.2259935E-02  (-0.1807800E-02)
 number of electron      43.9999759 magnetization 
 augmentation part       28.3309356 magnetization 

 Free energy of the ion-electron system (eV)
  ---------------------------------------------------
  alpha Z        PSCENC =       255.57509302
  Ewald energy   TEWEN  =     -4466.07994564
  -Hartree energ DENC   =     -1353.23129431
  -exchange      EXHF   =       148.77227834
  -V(xc)+E(xc)   XCENC  =       123.75296791
  PAW double counting   =      5563.75041212    -5952.32420081
  entropy T*S    EENTRO =        -0.00000000
  eigenvalues    EBANDS =       114.69154075
  atomic energy  EATOM  =      5551.30450086
  ---------------------------------------------------
  free energy    TOTEN  =       -13.78864775 eV

  energy without entropy =      -13.78864775  energy(sigma->0) =      -13.78864775
  exchange ACFDT corr.  =        -0.00000000  see jH, gK, PRB 81, 115126


--------------------------------------------------------------------------------------------------------




--------------------------------------- Iteration      1(  22)  ---------------------------------------


    POTLOK:  cpu time      0.0798: real time      0.0798
    SETDIJ:  cpu time      0.1045: real time      0.1045
    TRIAL :  cpu time      0.2679: real time      0.2679
    CORREC:  cpu time      0.4295: real time      0.4294
    CHARGE:  cpu time      0.0110: real time      0.0110
    --------------------------------------------
      LOOP:  cpu time      0.8930: real time      0.8932

 eigenvalue-minimisations  :     0
 total energy-change (2. order) :-0.1813046E-02  (-0.2215935E-02)
 number of electron      43.9999759 magnetization 
 augmentation part       28.3220675 magnetization 

 Free energy of the ion-electron system (eV)
  ---------------------------------------------------
  alpha Z        PSCENC =       255.57509302
  Ewald energy   TEWEN  =     -4466.07994564
  -Hartree energ DENC   =     -1353.20861337
  -exchange      EXHF   =       148.76129263
  -V(xc)+E(xc)   XCENC  =       123.75289980
  PAW double counting   =      5562.50731768    -5951.29897876
  entropy T*S    EENTRO =        -0.00000000
  eigenvalues    EBANDS =       114.89597299
  atomic energy  EATOM  =      5551.30450086
  ---------------------------------------------------
  free energy    TOTEN  =       -13.79046080 eV

  energy without entropy =      -13.79046080  energy(sigma->0) =      -13.79046080
  exchange ACFDT corr.  =        -0.00000000  see jH, gK, PRB 81, 115126


--------------------------------------------------------------------------------------------------------




--------------------------------------- Iteration      1(  23)  ---------------------------------------


    POTLOK:  cpu time      0.0709: real time      0.0709
    SETDIJ:  cpu time      0.1102: real time      0.1102
    TRIAL :  cpu time      0.2682: real time      0.2693
    CORREC:  cpu time      0.4167: real time      0.4167
    CHARGE:  cpu time      0.0111: real time      0.0111
    --------------------------------------------
      LOOP:  cpu time      0.8773: real time      0.8787

 eigenvalue-minimisations  :     0
 total energy-change (2. order) :-0.2218615E-02  (-0.2065271E-02)
 number of electron      43.9999759 magnetization 
 augmentation part       28.3164568 magnetization 

 Free energy of the ion-electron system (eV)
  ---------------------------------------------------
  alpha Z        PSCENC =       255.57509302
  Ewald energy   TEWEN  =     -4466.07994564
  -Hartree energ DENC   =     -1352.46193072
  -exchange      EXHF   =       148.72620043
  -V(xc)+E(xc)   XCENC  =       123.72699917
  PAW double counting   =      5562.23211958    -5950.87678593
  entropy T*S    EENTRO =        -0.00000000
  eigenvalues    EBANDS =       114.06106982
  atomic energy  EATOM  =      5551.30450086
  ---------------------------------------------------
  free energy    TOTEN  =       -13.79267941 eV

  energy without entropy =      -13.79267941  energy(sigma->0) =      -13.79267941
  exchange ACFDT corr.  =        -0.00000000  see jH, gK, PRB 81, 115126


--------------------------------------------------------------------------------------------------------




--------------------------------------- Iteration      1(  24)  ---------------------------------------


    POTLOK:  cpu time      0.0780: real time      0.0780
    SETDIJ:  cpu time      0.1044: real time      0.1044
    TRIAL :  cpu time      0.2680: real time      0.2680
    CORREC:  cpu time      0.4249: real time      0.4247
    CHARGE:  cpu time      0.0111: real time      0.0111
    --------------------------------------------
      LOOP:  cpu time      0.8867: real time      0.8868

 eigenvalue-minimisations  :     0
 total energy-change (2. order) :-0.2050794E-02  (-0.3435073E-02)
 number of electron      43.9999759 magnetization 
 augmentation part       28.3248791 magnetization 

 Free energy of the ion-electron system (eV)
  ---------------------------------------------------
  alpha Z        PSCENC =       255.57509302
  Ewald energy   TEWEN  =     -4466.07994564
  -Hartree energ DENC   =     -1352.04901485
  -exchange      EXHF   =       148.71013639
  -V(xc)+E(xc)   XCENC  =       123.71190379
  PAW double counting   =      5563.76613497    -5952.23163150
  entropy T*S    EENTRO =        -0.00000000
  eigenvalues    EBANDS =       113.49809275
  atomic energy  EATOM  =      5551.30450086
  ---------------------------------------------------
  free energy    TOTEN  =       -13.79473021 eV

  energy without entropy =      -13.79473021  energy(sigma->0) =      -13.79473021
  exchange ACFDT corr.  =        -0.00000000  see jH, gK, PRB 81, 115126


--------------------------------------------------------------------------------------------------------




--------------------------------------- Iteration      1(  25)  ---------------------------------------


    POTLOK:  cpu time      0.0889: real time      0.0889
    SETDIJ:  cpu time      0.1047: real time      0.1047
    TRIAL :  cpu time      0.2682: real time      0.2681
    CORREC:  cpu time      0.4309: real time      0.4308
    CHARGE:  cpu time      0.0111: real time      0.0111
    --------------------------------------------
      LOOP:  cpu time      0.9041: real time      0.9042

 eigenvalue-minimisations  :     0
 total energy-change (2. order) :-0.3439937E-02  (-0.3677746E-02)
 number of electron      43.9999759 magnetization 
 augmentation part       28.3387991 magnetization 

 Free energy of the ion-electron system (eV)
  ---------------------------------------------------
  alpha Z        PSCENC =       255.57509302
  Ewald energy   TEWEN  =     -4466.07994564
  -Hartree energ DENC   =     -1353.01725835
  -exchange      EXHF   =       148.75394869
  -V(xc)+E(xc)   XCENC  =       123.74361411
  PAW double counting   =      5569.55357364    -5958.13925255
  entropy T*S    EENTRO =        -0.00000006
  eigenvalues    EBANDS =       114.50755608
  atomic energy  EATOM  =      5551.30450086
  ---------------------------------------------------
  free energy    TOTEN  =       -13.79817014 eV

  energy without entropy =      -13.79817008  energy(sigma->0) =      -13.79817011
  exchange ACFDT corr.  =        -0.00000000  see jH, gK, PRB 81, 115126


--------------------------------------------------------------------------------------------------------




--------------------------------------- Iteration      1(  26)  ---------------------------------------


    POTLOK:  cpu time      0.0675: real time      0.0676
    SETDIJ:  cpu time      0.1182: real time      0.1182
    TRIAL :  cpu time      0.2702: real time      0.2701
    CORREC:  cpu time      0.4381: real time      0.4379
    CHARGE:  cpu time      0.0110: real time      0.0110
    --------------------------------------------
      LOOP:  cpu time      0.9052: real time      0.9054

 eigenvalue-minimisations  :     0
 total energy-change (2. order) :-0.3784036E-02  (-0.3159179E-02)
 number of electron      43.9999759 magnetization 
 augmentation part       28.3447033 magnetization 

 Free energy of the ion-electron system (eV)
  ---------------------------------------------------
  alpha Z        PSCENC =       255.57509302
  Ewald energy   TEWEN  =     -4466.07994564
  -Hartree energ DENC   =     -1354.46378448
  -exchange      EXHF   =       148.81959095
  -V(xc)+E(xc)   XCENC  =       123.79195303
  PAW double counting   =      5576.95989786    -5965.73972855
  entropy T*S    EENTRO =        -0.00000507
  eigenvalues    EBANDS =       116.03046884
  atomic energy  EATOM  =      5551.30450086
  ---------------------------------------------------
  free energy    TOTEN  =       -13.80195418 eV

  energy without entropy =      -13.80194910  energy(sigma->0) =      -13.80195164
  exchange ACFDT corr.  =        -0.00000015  see jH, gK, PRB 81, 115126


--------------------------------------------------------------------------------------------------------




--------------------------------------- Iteration      1(  27)  ---------------------------------------


    POTLOK:  cpu time      0.0860: real time      0.0860
    SETDIJ:  cpu time      0.1059: real time      0.1059
    TRIAL :  cpu time      0.2729: real time      0.2901
    CORREC:  cpu time      0.4318: real time      0.4317
    CHARGE:  cpu time      0.0110: real time      0.0110
    --------------------------------------------
      LOOP:  cpu time      0.9079: real time      0.9254

 eigenvalue-minimisations  :     0
 total energy-change (2. order) :-0.3292143E-02  (-0.3194824E-02)
 number of electron      43.9999759 magnetization 
 augmentation part       28.3461026 magnetization 

 Free energy of the ion-electron system (eV)
  ---------------------------------------------------
  alpha Z        PSCENC =       255.57509302
  Ewald energy   TEWEN  =     -4466.07994564
  -Hartree energ DENC   =     -1355.07207858
  -exchange      EXHF   =       148.85374584
  -V(xc)+E(xc)   XCENC  =       123.81178308
  PAW double counting   =      5583.27094379    -5971.94076472
  entropy T*S    EENTRO =        -0.00005539
  eigenvalues    EBANDS =       116.47148110
  atomic energy  EATOM  =      5551.30450086
  ---------------------------------------------------
  free energy    TOTEN  =       -13.80524632 eV

  energy without entropy =      -13.80519093  energy(sigma->0) =      -13.80521863
  exchange ACFDT corr.  =        -0.00001568  see jH, gK, PRB 81, 115126


--------------------------------------------------------------------------------------------------------




--------------------------------------- Iteration      1(  28)  ---------------------------------------


    POTLOK:  cpu time      0.0793: real time      0.0792
    SETDIJ:  cpu time      0.1097: real time      0.1097
    TRIAL :  cpu time      0.2719: real time      0.2718
    CORREC:  cpu time      0.4340: real time      0.4339
    CHARGE:  cpu time      0.0111: real time      0.0111
    --------------------------------------------
      LOOP:  cpu time      0.9060: real time      0.9063

 eigenvalue-minimisations  :     0
 total energy-change (2. order) :-0.3771432E-02  (-0.3373363E-02)
 number of electron      43.9999759 magnetization 
 augmentation part       28.3472723 magnetization 

 Free energy of the ion-electron system (eV)
  ---------------------------------------------------
  alpha Z        PSCENC =       255.57509302
  Ewald energy   TEWEN  =     -4466.07994564
  -Hartree energ DENC   =     -1355.19492232
  -exchange      EXHF   =       148.86920067
  -V(xc)+E(xc)   XCENC  =       123.81511478
  PAW double counting   =      5588.83157380    -5977.22287972
  entropy T*S    EENTRO =        -0.00015234
  eigenvalues    EBANDS =       116.29330219
  atomic energy  EATOM  =      5551.30450086
  ---------------------------------------------------
  free energy    TOTEN  =       -13.80901775 eV

  energy without entropy =      -13.80886542  energy(sigma->0) =      -13.80894158
  exchange ACFDT corr.  =        -0.00021454  see jH, gK, PRB 81, 115126


--------------------------------------------------------------------------------------------------------




--------------------------------------- Iteration      1(  29)  ---------------------------------------


    POTLOK:  cpu time      0.0842: real time      0.0841
    SETDIJ:  cpu time      0.1045: real time      0.1045
    TRIAL :  cpu time      0.2725: real time      0.2724
    CORREC:  cpu time      0.4312: real time      0.4311
    CHARGE:  cpu time      0.0111: real time      0.0111
    --------------------------------------------
      LOOP:  cpu time      0.9038: real time      0.9038

 eigenvalue-minimisations  :     0
 total energy-change (2. order) :-0.3780428E-02  (-0.2786350E-02)
 number of electron      43.9999759 magnetization 
 augmentation part       28.3507260 magnetization 

 Free energy of the ion-electron system (eV)
  ---------------------------------------------------
  alpha Z        PSCENC =       255.57509302
  Ewald energy   TEWEN  =     -4466.07994564
  -Hartree energ DENC   =     -1355.24860649
  -exchange      EXHF   =       148.88056444
  -V(xc)+E(xc)   XCENC  =       123.81638083
  PAW double counting   =      5593.36727096    -5981.49871673
  entropy T*S    EENTRO =        -0.00015660
  eigenvalues    EBANDS =       116.07081292
  atomic energy  EATOM  =      5551.30450086
  ---------------------------------------------------
  free energy    TOTEN  =       -13.81279818 eV

  energy without entropy =      -13.81264158  energy(sigma->0) =      -13.81271988
  exchange ACFDT corr.  =        -0.00063857  see jH, gK, PRB 81, 115126


--------------------------------------------------------------------------------------------------------




--------------------------------------- Iteration      1(  30)  ---------------------------------------


    POTLOK:  cpu time      0.0824: real time      0.0824
    SETDIJ:  cpu time      0.1067: real time      0.1067
    TRIAL :  cpu time      0.2724: real time      0.2723
    CORREC:  cpu time      0.4272: real time      0.4271
    CHARGE:  cpu time      0.0111: real time      0.0111
    --------------------------------------------
      LOOP:  cpu time      0.9001: real time      0.9001

 eigenvalue-minimisations  :     0
 total energy-change (2. order) :-0.2891776E-02  (-0.2006039E-02)
 number of electron      43.9999759 magnetization 
 augmentation part       28.3565669 magnetization 

 Free energy of the ion-electron system (eV)
  ---------------------------------------------------
  alpha Z        PSCENC =       255.57509302
  Ewald energy   TEWEN  =     -4466.07994564
  -Hartree energ DENC   =     -1355.48521734
  -exchange      EXHF   =       148.89680351
  -V(xc)+E(xc)   XCENC  =       123.82438573
  PAW double counting   =      5596.52148608    -5984.54792618
  entropy T*S    EENTRO =        -0.00008133
  eigenvalues    EBANDS =       116.17528660
  atomic energy  EATOM  =      5551.30450086
  ---------------------------------------------------
  free energy    TOTEN  =       -13.81568996 eV

  energy without entropy =      -13.81560862  energy(sigma->0) =      -13.81564929
  exchange ACFDT corr.  =        -0.00062023  see jH, gK, PRB 81, 115126


--------------------------------------------------------------------------------------------------------




--------------------------------------- Iteration      1(  31)  ---------------------------------------


    POTLOK:  cpu time      0.0825: real time      0.0825
    SETDIJ:  cpu time      0.1047: real time      0.1047
    TRIAL :  cpu time      0.2716: real time      0.2716
    CORREC:  cpu time      0.4304: real time      0.4303
    CHARGE:  cpu time      0.0111: real time      0.0111
    --------------------------------------------
      LOOP:  cpu time      0.9005: real time      0.9008

 eigenvalue-minimisations  :     0
 total energy-change (2. order) :-0.2130268E-02  (-0.1948622E-02)
 number of electron      43.9999759 magnetization 
 augmentation part       28.3644400 magnetization 

 Free energy of the ion-electron system (eV)
  ---------------------------------------------------
  alpha Z        PSCENC =       255.57509302
  Ewald energy   TEWEN  =     -4466.07994564
  -Hartree energ DENC   =     -1355.93716293
  -exchange      EXHF   =       148.91856422
  -V(xc)+E(xc)   XCENC  =       123.84020892
  PAW double counting   =      5598.30178698    -5986.39931297
  entropy T*S    EENTRO =        -0.00002123
  eigenvalues    EBANDS =       116.65852865
  atomic energy  EATOM  =      5551.30450086
  ---------------------------------------------------
  free energy    TOTEN  =       -13.81782023 eV

  energy without entropy =      -13.81779899  energy(sigma->0) =      -13.81780961
  exchange ACFDT corr.  =        -0.00031433  see jH, gK, PRB 81, 115126


--------------------------------------------------------------------------------------------------------




--------------------------------------- Iteration      1(  32)  ---------------------------------------


    POTLOK:  cpu time      0.0649: real time      0.0648
    SETDIJ:  cpu time      0.1273: real time      0.1273
    TRIAL :  cpu time      0.2713: real time      0.2712
    CORREC:  cpu time      0.4303: real time      0.4469
    CHARGE:  cpu time      0.0110: real time      0.0110
    --------------------------------------------
      LOOP:  cpu time      0.9049: real time      0.9218

 eigenvalue-minimisations  :     0
 total energy-change (2. order) :-0.2009991E-02  (-0.7002459E-02)
 number of electron      43.9999759 magnetization 
 augmentation part       28.3638517 magnetization 

 Free energy of the ion-electron system (eV)
  ---------------------------------------------------
  alpha Z        PSCENC =       255.57509302
  Ewald energy   TEWEN  =     -4466.07994564
  -Hartree energ DENC   =     -1356.56303039
  -exchange      EXHF   =       148.94510435
  -V(xc)+E(xc)   XCENC  =       123.86233834
  PAW double counting   =      5599.30854469    -5987.59865818
  entropy T*S    EENTRO =        -0.00000075
  eigenvalues    EBANDS =       117.42624397
  atomic energy  EATOM  =      5551.30450086
  ---------------------------------------------------
  free energy    TOTEN  =       -13.81983022 eV

  energy without entropy =      -13.81982947  energy(sigma->0) =      -13.81982984
  exchange ACFDT corr.  =        -0.00007531  see jH, gK, PRB 81, 115126


--------------------------------------------------------------------------------------------------------




--------------------------------------- Iteration      1(  33)  ---------------------------------------


    POTLOK:  cpu time      0.0699: real time      0.0699
    SETDIJ:  cpu time      0.1225: real time      0.1225
    TRIAL :  cpu time      0.2708: real time      0.2708
    CORREC:  cpu time      0.4245: real time      0.4244
    CHARGE:  cpu time      0.0111: real time      0.0111
    --------------------------------------------
      LOOP:  cpu time      0.8992: real time      0.8993

 eigenvalue-minimisations  :     0
 total energy-change (2. order) :-0.7038598E-02  (-0.9683733E-02)
 number of electron      43.9999759 magnetization 
 augmentation part       28.3391371 magnetization 

 Free energy of the ion-electron system (eV)
  ---------------------------------------------------
  alpha Z        PSCENC =       255.57509302
  Ewald energy   TEWEN  =     -4466.07994564
  -Hartree energ DENC   =     -1356.47811481
  -exchange      EXHF   =       148.93545152
  -V(xc)+E(xc)   XCENC  =       123.86015744
  PAW double counting   =      5596.34300257    -5984.75468122
  entropy T*S    EENTRO =        -0.00000000
  eigenvalues    EBANDS =       117.46766819
  atomic energy  EATOM  =      5551.30450086
  ---------------------------------------------------
  free energy    TOTEN  =       -13.82686882 eV

  energy without entropy =      -13.82686882  energy(sigma->0) =      -13.82686882
  exchange ACFDT corr.  =        -0.00000211  see jH, gK, PRB 81, 115126


--------------------------------------------------------------------------------------------------------




--------------------------------------- Iteration      1(  34)  ---------------------------------------


    POTLOK:  cpu time      0.0708: real time      0.0707
    SETDIJ:  cpu time      0.1086: real time      0.1086
    TRIAL :  cpu time      0.2688: real time      0.2688
    CORREC:  cpu time      0.4255: real time      0.4423
    CHARGE:  cpu time      0.0110: real time      0.0110
    --------------------------------------------
      LOOP:  cpu time      0.8849: real time      0.9019

 eigenvalue-minimisations  :     0
 total energy-change (2. order) :-0.9608061E-02  (-0.3437064E-02)
 number of electron      43.9999759 magnetization 
 augmentation part       28.3482412 magnetization 

 Free energy of the ion-electron system (eV)
  ---------------------------------------------------
  alpha Z        PSCENC =       255.57509302
  Ewald energy   TEWEN  =     -4466.07994564
  -Hartree energ DENC   =     -1354.08003862
  -exchange      EXHF   =       148.82430708
  -V(xc)+E(xc)   XCENC  =       123.77891927
  PAW double counting   =      5585.74089932    -5973.75644312
  entropy T*S    EENTRO =        -0.00000000
  eigenvalues    EBANDS =       114.85623095
  atomic energy  EATOM  =      5551.30450086
  ---------------------------------------------------
  free energy    TOTEN  =       -13.83647688 eV

  energy without entropy =      -13.83647688  energy(sigma->0) =      -13.83647688
  exchange ACFDT corr.  =        -0.00000000  see jH, gK, PRB 81, 115126


--------------------------------------------------------------------------------------------------------




--------------------------------------- Iteration      1(  35)  ---------------------------------------


    POTLOK:  cpu time      0.0877: real time      0.0876
    SETDIJ:  cpu time      0.1042: real time      0.1042
    TRIAL :  cpu time      0.2680: real time      0.2680
    CORREC:  cpu time      0.4219: real time      0.4218
    CHARGE:  cpu time      0.0110: real time      0.0110
    --------------------------------------------
      LOOP:  cpu time      0.8931: real time      0.8932

 eigenvalue-minimisations  :     0
 total energy-change (2. order) :-0.3448275E-02  (-0.1850145E-02)
 number of electron      43.9999759 magnetization 
 augmentation part       28.3381276 magnetization 

 Free energy of the ion-electron system (eV)
  ---------------------------------------------------
  alpha Z        PSCENC =       255.57509302
  Ewald energy   TEWEN  =     -4466.07994564
  -Hartree energ DENC   =     -1354.85594777
  -exchange      EXHF   =       148.84305833
  -V(xc)+E(xc)   XCENC  =       123.80706729
  PAW double counting   =      5581.21157519    -5969.80022410
  entropy T*S    EENTRO =        -0.00000000
  eigenvalues    EBANDS =       116.15489767
  atomic energy  EATOM  =      5551.30450086
  ---------------------------------------------------
  free energy    TOTEN  =       -13.83992515 eV

  energy without entropy =      -13.83992515  energy(sigma->0) =      -13.83992515
  exchange ACFDT corr.  =         0.00000000  see jH, gK, PRB 81, 115126


--------------------------------------------------------------------------------------------------------




--------------------------------------- Iteration      1(  36)  ---------------------------------------


    POTLOK:  cpu time      0.0808: real time      0.0807
    SETDIJ:  cpu time      0.1060: real time      0.1060
    TRIAL :  cpu time      0.2678: real time      0.2677
    CORREC:  cpu time      0.4204: real time      0.4373
    CHARGE:  cpu time      0.0110: real time      0.0110
    --------------------------------------------
      LOOP:  cpu time      0.8861: real time      0.9032

 eigenvalue-minimisations  :     0
 total energy-change (2. order) :-0.1842643E-02  (-0.9251195E-03)
 number of electron      43.9999759 magnetization 
 augmentation part       28.3375449 magnetization 

 Free energy of the ion-electron system (eV)
  ---------------------------------------------------
  alpha Z        PSCENC =       255.57509302
  Ewald energy   TEWEN  =     -4466.07994564
  -Hartree energ DENC   =     -1353.90582519
  -exchange      EXHF   =       148.80161804
  -V(xc)+E(xc)   XCENC  =       123.77460520
  PAW double counting   =      5577.39539822    -5965.75949796
  entropy T*S    EENTRO =        -0.00000000
  eigenvalues    EBANDS =       115.05228565
  atomic energy  EATOM  =      5551.30450086
  ---------------------------------------------------
  free energy    TOTEN  =       -13.84176779 eV

  energy without entropy =      -13.84176779  energy(sigma->0) =      -13.84176779
  exchange ACFDT corr.  =        -0.00000000  see jH, gK, PRB 81, 115126


--------------------------------------------------------------------------------------------------------




--------------------------------------- Iteration      1(  37)  ---------------------------------------


    POTLOK:  cpu time      0.0743: real time      0.0742
    SETDIJ:  cpu time      0.1151: real time      0.1151
    TRIAL :  cpu time      0.2678: real time      0.2677
    CORREC:  cpu time      0.4258: real time      0.4257
    CHARGE:  cpu time      0.0110: real time      0.0111
    --------------------------------------------
      LOOP:  cpu time      0.8944: real time      0.8946

 eigenvalue-minimisations  :     0
 total energy-change (2. order) :-0.9278994E-03  (-0.6989596E-03)
 number of electron      43.9999759 magnetization 
 augmentation part       28.3394879 magnetization 

 Free energy of the ion-electron system (eV)
  ---------------------------------------------------
  alpha Z        PSCENC =       255.57509302
  Ewald energy   TEWEN  =     -4466.07994564
  -Hartree energ DENC   =     -1353.86682619
  -exchange      EXHF   =       148.79776467
  -V(xc)+E(xc)   XCENC  =       123.77329142
  PAW double counting   =      5575.49590856    -5963.89841829
  entropy T*S    EENTRO =        -0.00000000
  eigenvalues    EBANDS =       115.05593590
  atomic energy  EATOM  =      5551.30450086
  ---------------------------------------------------
  free energy    TOTEN  =       -13.84269569 eV

  energy without entropy =      -13.84269569  energy(sigma->0) =      -13.84269569
  exchange ACFDT corr.  =        -0.00000000  see jH, gK, PRB 81, 115126


--------------------------------------------------------------------------------------------------------




--------------------------------------- Iteration      1(  38)  ---------------------------------------


    POTLOK:  cpu time      0.0738: real time      0.0738
    SETDIJ:  cpu time      0.1062: real time      0.1062
    TRIAL :  cpu time      0.2678: real time      0.2677
    CORREC:  cpu time      0.4281: real time      0.4469
    CHARGE:  cpu time      0.0111: real time      0.0111
    --------------------------------------------
      LOOP:  cpu time      0.8873: real time      0.9063

 eigenvalue-minimisations  :     0
 total energy-change (2. order) :-0.6984442E-03  (-0.6692651E-03)
 number of electron      43.9999759 magnetization 
 augmentation part       28.3342389 magnetization 

 Free energy of the ion-electron system (eV)
  ---------------------------------------------------
  alpha Z        PSCENC =       255.57509302
  Ewald energy   TEWEN  =     -4466.07994564
  -Hartree energ DENC   =     -1354.08125061
  -exchange      EXHF   =       148.80544549
  -V(xc)+E(xc)   XCENC  =       123.78059393
  PAW double counting   =      5574.13213656    -5962.62730099
  entropy T*S    EENTRO =        -0.00000000
  eigenvalues    EBANDS =       115.34733324
  atomic energy  EATOM  =      5551.30450086
  ---------------------------------------------------
  free energy    TOTEN  =       -13.84339414 eV

  energy without entropy =      -13.84339414  energy(sigma->0) =      -13.84339414
  exchange ACFDT corr.  =        -0.00000000  see jH, gK, PRB 81, 115126


--------------------------------------------------------------------------------------------------------




--------------------------------------- Iteration      1(  39)  ---------------------------------------


    POTLOK:  cpu time      0.0755: real time      0.0755
    SETDIJ:  cpu time      0.1150: real time      0.1149
    TRIAL :  cpu time      0.2694: real time      0.2694
    CORREC:  cpu time      0.4254: real time      0.4253
    CHARGE:  cpu time      0.0110: real time      0.0110
    --------------------------------------------
      LOOP:  cpu time      0.8965: real time      0.8967

 eigenvalue-minimisations  :     0
 total energy-change (2. order) :-0.6672183E-03  (-0.9543779E-03)
 number of electron      43.9999759 magnetization 
 augmentation part       28.3391507 magnetization 

 Free energy of the ion-electron system (eV)
  ---------------------------------------------------
  alpha Z        PSCENC =       255.57509302
  Ewald energy   TEWEN  =     -4466.07994564
  -Hartree energ DENC   =     -1353.64683625
  -exchange      EXHF   =       148.78972400
  -V(xc)+E(xc)   XCENC  =       123.76522117
  PAW double counting   =      5572.61893678    -5960.93041164
  entropy T*S    EENTRO =        -0.00000000
  eigenvalues    EBANDS =       114.75965635
  atomic energy  EATOM  =      5551.30450086
  ---------------------------------------------------
  free energy    TOTEN  =       -13.84406136 eV

  energy without entropy =      -13.84406136  energy(sigma->0) =      -13.84406136
  exchange ACFDT corr.  =        -0.00000000  see jH, gK, PRB 81, 115126


--------------------------------------------------------------------------------------------------------




--------------------------------------- Iteration      1(  40)  ---------------------------------------


    POTLOK:  cpu time      0.0676: real time      0.0676
    SETDIJ:  cpu time      0.1180: real time      0.1179
    TRIAL :  cpu time      0.2673: real time      0.2672
    CORREC:  cpu time      0.4284: real time      0.4340
    CHARGE:  cpu time      0.0111: real time      0.0111
    --------------------------------------------
      LOOP:  cpu time      0.8926: real time      0.8985

 eigenvalue-minimisations  :     0
 total energy-change (2. order) :-0.9649208E-03  (-0.1236611E-02)
 number of electron      43.9999759 magnetization 
 augmentation part       28.3366892 magnetization 

 Free energy of the ion-electron system (eV)
  ---------------------------------------------------
  alpha Z        PSCENC =       255.57509302
  Ewald energy   TEWEN  =     -4466.07994564
  -Hartree energ DENC   =     -1354.18044771
  -exchange      EXHF   =       148.81228530
  -V(xc)+E(xc)   XCENC  =       123.78328950
  PAW double counting   =      5571.31394566    -5959.78117070
  entropy T*S    EENTRO =        -0.00000000
  eigenvalues    EBANDS =       115.40742344
  atomic energy  EATOM  =      5551.30450086
  ---------------------------------------------------
  free energy    TOTEN  =       -13.84502628 eV

  energy without entropy =      -13.84502628  energy(sigma->0) =      -13.84502628
  exchange ACFDT corr.  =        -0.00000000  see jH, gK, PRB 81, 115126


--------------------------------------------------------------------------------------------------------




--------------------------------------- Iteration      1(  41)  ---------------------------------------


    POTLOK:  cpu time      0.0770: real time      0.0770
    SETDIJ:  cpu time      0.1060: real time      0.1060
    TRIAL :  cpu time      0.2683: real time      0.2682
    CORREC:  cpu time      0.4287: real time      0.4286
    CHARGE:  cpu time      0.0110: real time      0.0110
    --------------------------------------------
      LOOP:  cpu time      0.8912: real time      0.8913

 eigenvalue-minimisations  :     0
 total energy-change (2. order) :-0.1216717E-02  (-0.1627208E-02)
 number of electron      43.9999759 magnetization 
 augmentation part       28.3396099 magnetization 

 Free energy of the ion-electron system (eV)
  ---------------------------------------------------
  alpha Z        PSCENC =       255.57509302
  Ewald energy   TEWEN  =     -4466.07994564
  -Hartree energ DENC   =     -1354.03231263
  -exchange      EXHF   =       148.81030893
  -V(xc)+E(xc)   XCENC  =       123.77764298
  PAW double counting   =      5569.86639983    -5958.21426058
  entropy T*S    EENTRO =        -0.00000000
  eigenvalues    EBANDS =       115.14633024
  atomic energy  EATOM  =      5551.30450086
  ---------------------------------------------------
  free energy    TOTEN  =       -13.84624299 eV

  energy without entropy =      -13.84624299  energy(sigma->0) =      -13.84624299
  exchange ACFDT corr.  =        -0.00000000  see jH, gK, PRB 81, 115126


--------------------------------------------------------------------------------------------------------




--------------------------------------- Iteration      1(  42)  ---------------------------------------


    POTLOK:  cpu time      0.0801: real time      0.0800
    SETDIJ:  cpu time      0.1097: real time      0.1097
    TRIAL :  cpu time      0.2681: real time      0.2680
    CORREC:  cpu time      0.4278: real time      0.4277
    CHARGE:  cpu time      0.0111: real time      0.0111
    --------------------------------------------
      LOOP:  cpu time      0.8970: real time      0.8972

 eigenvalue-minimisations  :     0
 total energy-change (2. order) :-0.1630078E-02  (-0.1601335E-02)
 number of electron      43.9999759 magnetization 
 augmentation part       28.3397706 magnetization 

 Free energy of the ion-electron system (eV)
  ---------------------------------------------------
  alpha Z        PSCENC =       255.57509302
  Ewald energy   TEWEN  =     -4466.07994564
  -Hartree energ DENC   =     -1354.37219155
  -exchange      EXHF   =       148.82759762
  -V(xc)+E(xc)   XCENC  =       123.78907101
  PAW double counting   =      5568.85481513    -5957.26881763
  entropy T*S    EENTRO =        -0.00000000
  eigenvalues    EBANDS =       115.52200411
  atomic energy  EATOM  =      5551.30450086
  ---------------------------------------------------
  free energy    TOTEN  =       -13.84787307 eV

  energy without entropy =      -13.84787307  energy(sigma->0) =      -13.84787307
  exchange ACFDT corr.  =        -0.00000000  see jH, gK, PRB 81, 115126


--------------------------------------------------------------------------------------------------------




--------------------------------------- Iteration      1(  43)  ---------------------------------------


    POTLOK:  cpu time      0.0879: real time      0.0879
    SETDIJ:  cpu time      0.1050: real time      0.1051
    TRIAL :  cpu time      0.2681: real time      0.2681
    CORREC:  cpu time      0.4259: real time      0.4257
    CHARGE:  cpu time      0.0112: real time      0.0113
    --------------------------------------------
      LOOP:  cpu time      0.8984: real time      0.8987

 eigenvalue-minimisations  :     0
 total energy-change (2. order) :-0.1613695E-02  (-0.1274636E-02)
 number of electron      43.9999759 magnetization 
 augmentation part       28.3402244 magnetization 

 Free energy of the ion-electron system (eV)
  ---------------------------------------------------
  alpha Z        PSCENC =       255.57509302
  Ewald energy   TEWEN  =     -4466.07994564
  -Hartree energ DENC   =     -1354.39271034
  -exchange      EXHF   =       148.83245098
  -V(xc)+E(xc)   XCENC  =       123.78975749
  PAW double counting   =      5568.91517354    -5957.29658821
  entropy T*S    EENTRO =        -0.00000000
  eigenvalues    EBANDS =       115.50278154
  atomic energy  EATOM  =      5551.30450086
  ---------------------------------------------------
  free energy    TOTEN  =       -13.84948677 eV

  energy without entropy =      -13.84948677  energy(sigma->0) =      -13.84948677
  exchange ACFDT corr.  =        -0.00000000  see jH, gK, PRB 81, 115126


--------------------------------------------------------------------------------------------------------




--------------------------------------- Iteration      1(  44)  ---------------------------------------


    POTLOK:  cpu time      0.0669: real time      0.0669
    SETDIJ:  cpu time      0.1208: real time      0.1207
    TRIAL :  cpu time      0.2673: real time      0.2676
    CORREC:  cpu time      0.4296: real time      0.4297
    CHARGE:  cpu time      0.0112: real time      0.0112
    --------------------------------------------
      LOOP:  cpu time      0.8961: real time      0.8967

 eigenvalue-minimisations  :     0
 total energy-change (2. order) :-0.1263686E-02  (-0.1275325E-02)
 number of electron      43.9999759 magnetization 
 augmentation part       28.3429533 magnetization 

 Free energy of the ion-electron system (eV)
  ---------------------------------------------------
  alpha Z        PSCENC =       255.57509302
  Ewald energy   TEWEN  =     -4466.07994564
  -Hartree energ DENC   =     -1354.37516418
  -exchange      EXHF   =       148.83388905
  -V(xc)+E(xc)   XCENC  =       123.78945355
  PAW double counting   =      5570.02256284    -5958.40322918
  entropy T*S    EENTRO =        -0.00000000
  eigenvalues    EBANDS =       115.48208924
  atomic energy  EATOM  =      5551.30450086
  ---------------------------------------------------
  free energy    TOTEN  =       -13.85075045 eV

  energy without entropy =      -13.85075045  energy(sigma->0) =      -13.85075045
  exchange ACFDT corr.  =        -0.00000000  see jH, gK, PRB 81, 115126


--------------------------------------------------------------------------------------------------------




--------------------------------------- Iteration      1(  45)  ---------------------------------------


    POTLOK:  cpu time      0.0844: real time      0.0844
    SETDIJ:  cpu time      0.1050: real time      0.1051
    TRIAL :  cpu time      0.2674: real time      0.2678
    CORREC:  cpu time      0.4250: real time      0.4249
    CHARGE:  cpu time      0.0111: real time      0.0111
    --------------------------------------------
      LOOP:  cpu time      0.8932: real time      0.8937

 eigenvalue-minimisations  :     0
 total energy-change (2. order) :-0.1276381E-02  (-0.1341503E-02)
 number of electron      43.9999759 magnetization 
 augmentation part       28.3379989 magnetization 

 Free energy of the ion-electron system (eV)
  ---------------------------------------------------
  alpha Z        PSCENC =       255.57509302
  Ewald energy   TEWEN  =     -4466.07994564
  -Hartree energ DENC   =     -1354.51605729
  -exchange      EXHF   =       148.83973665
  -V(xc)+E(xc)   XCENC  =       123.79497006
  PAW double counting   =      5572.10266626    -5960.58671852
  entropy T*S    EENTRO =        -0.00000000
  eigenvalues    EBANDS =       115.71372777
  atomic energy  EATOM  =      5551.30450086
  ---------------------------------------------------
  free energy    TOTEN  =       -13.85202683 eV

  energy without entropy =      -13.85202683  energy(sigma->0) =      -13.85202683
  exchange ACFDT corr.  =        -0.00000000  see jH, gK, PRB 81, 115126


--------------------------------------------------------------------------------------------------------




--------------------------------------- Iteration      1(  46)  ---------------------------------------


    POTLOK:  cpu time      0.0713: real time      0.0713
    SETDIJ:  cpu time      0.1211: real time      0.1211
    TRIAL :  cpu time      0.2690: real time      0.2689
    CORREC:  cpu time      0.4264: real time      0.4263
    CHARGE:  cpu time      0.0110: real time      0.0110
    --------------------------------------------
      LOOP:  cpu time      0.8989: real time      0.8991

 eigenvalue-minimisations  :     0
 total energy-change (2. order) :-0.1330670E-02  (-0.1500916E-02)
 number of electron      43.9999759 magnetization 
 augmentation part       28.3411247 magnetization 

 Free energy of the ion-electron system (eV)
  ---------------------------------------------------
  alpha Z        PSCENC =       255.57509302
  Ewald energy   TEWEN  =     -4466.07994564
  -Hartree energ DENC   =     -1353.93917642
  -exchange      EXHF   =       148.81769130
  -V(xc)+E(xc)   XCENC  =       123.77556025
  PAW double counting   =      5574.24394211    -5962.56582808
  entropy T*S    EENTRO =        -0.00000000
  eigenvalues    EBANDS =       115.01480509
  atomic energy  EATOM  =      5551.30450086
  ---------------------------------------------------
  free energy    TOTEN  =       -13.85335750 eV

  energy without entropy =      -13.85335750  energy(sigma->0) =      -13.85335750
  exchange ACFDT corr.  =        -0.00000000  see jH, gK, PRB 81, 115126


--------------------------------------------------------------------------------------------------------




--------------------------------------- Iteration      1(  47)  ---------------------------------------


    POTLOK:  cpu time      0.0718: real time      0.0718
    SETDIJ:  cpu time      0.1179: real time      0.1179
    TRIAL :  cpu time      0.2683: real time      0.2682
    CORREC:  cpu time      0.4273: real time      0.4272
    CHARGE:  cpu time      0.0110: real time      0.0110
    --------------------------------------------
      LOOP:  cpu time      0.8965: real time      0.8967

 eigenvalue-minimisations  :     0
 total energy-change (2. order) :-0.1474686E-02  (-0.1761660E-02)
 number of electron      43.9999759 magnetization 
 augmentation part       28.3386766 magnetization 

 Free energy of the ion-electron system (eV)
  ---------------------------------------------------
  alpha Z        PSCENC =       255.57509302
  Ewald energy   TEWEN  =     -4466.07994564
  -Hartree energ DENC   =     -1354.13651821
  -exchange      EXHF   =       148.82420967
  -V(xc)+E(xc)   XCENC  =       123.78282271
  PAW double counting   =      5576.85524910    -5965.31650899
  entropy T*S    EENTRO =        -0.00000000
  eigenvalues    EBANDS =       115.33626529
  atomic energy  EATOM  =      5551.30450086
  ---------------------------------------------------
  free energy    TOTEN  =       -13.85483219 eV

  energy without entropy =      -13.85483219  energy(sigma->0) =      -13.85483219
  exchange ACFDT corr.  =        -0.00000000  see jH, gK, PRB 81, 115126


--------------------------------------------------------------------------------------------------------




--------------------------------------- Iteration      1(  48)  ---------------------------------------


    POTLOK:  cpu time      0.0773: real time      0.0773
    SETDIJ:  cpu time      0.1135: real time      0.1135
    TRIAL :  cpu time      0.2691: real time      0.2690
    CORREC:  cpu time      0.4268: real time      0.4268
    CHARGE:  cpu time      0.0110: real time      0.0110
    --------------------------------------------
      LOOP:  cpu time      0.8980: real time      0.8982

 eigenvalue-minimisations  :     0
 total energy-change (2. order) :-0.1756128E-02  (-0.1833045E-02)
 number of electron      43.9999759 magnetization 
 augmentation part       28.3348531 magnetization 

 Free energy of the ion-electron system (eV)
  ---------------------------------------------------
  alpha Z        PSCENC =       255.57509302
  Ewald energy   TEWEN  =     -4466.07994564
  -Hartree energ DENC   =     -1353.85309784
  -exchange      EXHF   =       148.81177593
  -V(xc)+E(xc)   XCENC  =       123.77320810
  PAW double counting   =      5578.94292278    -5967.36977919
  entropy T*S    EENTRO =        -0.00000000
  eigenvalues    EBANDS =       115.03873366
  atomic energy  EATOM  =      5551.30450086
  ---------------------------------------------------
  free energy    TOTEN  =       -13.85658832 eV

  energy without entropy =      -13.85658832  energy(sigma->0) =      -13.85658832
  exchange ACFDT corr.  =        -0.00000000  see jH, gK, PRB 81, 115126


--------------------------------------------------------------------------------------------------------




--------------------------------------- Iteration      1(  49)  ---------------------------------------


    POTLOK:  cpu time      0.0704: real time      0.0704
    SETDIJ:  cpu time      0.1224: real time      0.1224
    TRIAL :  cpu time      0.2675: real time      0.2674
    CORREC:  cpu time      0.4279: real time      0.4278
    CHARGE:  cpu time      0.0110: real time      0.0110
    --------------------------------------------
      LOOP:  cpu time      0.8993: real time      0.8995

 eigenvalue-minimisations  :     0
 total energy-change (2. order) :-0.1789124E-02  (-0.1570308E-02)
 number of electron      43.9999759 magnetization 
 augmentation part       28.3381789 magnetization 

 Free energy of the ion-electron system (eV)
  ---------------------------------------------------
  alpha Z        PSCENC =       255.57509302
  Ewald energy   TEWEN  =     -4466.07994564
  -Hartree energ DENC   =     -1353.50787097
  -exchange      EXHF   =       148.79736402
  -V(xc)+E(xc)   XCENC  =       123.76108873
  PAW double counting   =      5579.68321122    -5968.02796480
  entropy T*S    EENTRO =        -0.00000000
  eigenvalues    EBANDS =       114.63614611
  atomic energy  EATOM  =      5551.30450086
  ---------------------------------------------------
  free energy    TOTEN  =       -13.85837744 eV

  energy without entropy =      -13.85837744  energy(sigma->0) =      -13.85837744
  exchange ACFDT corr.  =        -0.00000000  see jH, gK, PRB 81, 115126


--------------------------------------------------------------------------------------------------------




--------------------------------------- Iteration      1(  50)  ---------------------------------------


    POTLOK:  cpu time      0.0883: real time      0.0883
    SETDIJ:  cpu time      0.1047: real time      0.1046
    TRIAL :  cpu time      0.2671: real time      0.2670
    CORREC:  cpu time      0.4326: real time      0.4325
    CHARGE:  cpu time      0.0111: real time      0.0111
    --------------------------------------------
      LOOP:  cpu time      0.9040: real time      0.9043

 eigenvalue-minimisations  :     0
 total energy-change (2. order) :-0.1569752E-02  (-0.1556132E-02)
 number of electron      43.9999759 magnetization 
 augmentation part       28.3372734 magnetization 

 Free energy of the ion-electron system (eV)
  ---------------------------------------------------
  alpha Z        PSCENC =       255.57509302
  Ewald energy   TEWEN  =     -4466.07994564
  -Hartree energ DENC   =     -1353.87728699
  -exchange      EXHF   =       148.81131648
  -V(xc)+E(xc)   XCENC  =       123.77347820
  PAW double counting   =      5579.63968889    -5968.13057829
  entropy T*S    EENTRO =        -0.00000000
  eigenvalues    EBANDS =       115.12378627
  atomic energy  EATOM  =      5551.30450086
  ---------------------------------------------------
  free energy    TOTEN  =       -13.85994720 eV

  energy without entropy =      -13.85994720  energy(sigma->0) =      -13.85994720
  exchange ACFDT corr.  =        -0.00000000  see jH, gK, PRB 81, 115126


--------------------------------------------------------------------------------------------------------




--------------------------------------- Iteration      1(  51)  ---------------------------------------


    POTLOK:  cpu time      0.0843: real time      0.0843
    SETDIJ:  cpu time      0.1047: real time      0.1047
    TRIAL :  cpu time      0.2683: real time      0.2682
    CORREC:  cpu time      0.4318: real time      0.4317
    CHARGE:  cpu time      0.0110: real time      0.0110
    --------------------------------------------
      LOOP:  cpu time      0.9002: real time      0.9004

 eigenvalue-minimisations  :     0
 total energy-change (2. order) :-0.1557890E-02  (-0.1421984E-02)
 number of electron      43.9999759 magnetization 
 augmentation part       28.3335483 magnetization 

 Free energy of the ion-electron system (eV)
  ---------------------------------------------------
  alpha Z        PSCENC =       255.57509302
  Ewald energy   TEWEN  =     -4466.07994564
  -Hartree energ DENC   =     -1353.87468453
  -exchange      EXHF   =       148.81242669
  -V(xc)+E(xc)   XCENC  =       123.77286571
  PAW double counting   =      5578.52918732    -5966.99109304
  entropy T*S    EENTRO =        -0.00000000
  eigenvalues    EBANDS =       115.09014453
  atomic energy  EATOM  =      5551.30450086
  ---------------------------------------------------
  free energy    TOTEN  =       -13.86150509 eV

  energy without entropy =      -13.86150509  energy(sigma->0) =      -13.86150509
  exchange ACFDT corr.  =        -0.00000000  see jH, gK, PRB 81, 115126


--------------------------------------------------------------------------------------------------------




--------------------------------------- Iteration      1(  52)  ---------------------------------------


    POTLOK:  cpu time      0.0742: real time      0.0742
    SETDIJ:  cpu time      0.1045: real time      0.1045
    TRIAL :  cpu time      0.2678: real time      0.2857
    CORREC:  cpu time      0.4258: real time      0.4257
    CHARGE:  cpu time      0.0110: real time      0.0110
    --------------------------------------------
      LOOP:  cpu time      0.8835: real time      0.9018

 eigenvalue-minimisations  :     0
 total energy-change (2. order) :-0.1422977E-02  (-0.1311655E-02)
 number of electron      43.9999759 magnetization 
 augmentation part       28.3371589 magnetization 

 Free energy of the ion-electron system (eV)
  ---------------------------------------------------
  alpha Z        PSCENC =       255.57509302
  Ewald energy   TEWEN  =     -4466.07994564
  -Hartree energ DENC   =     -1353.59389936
  -exchange      EXHF   =       148.80348917
  -V(xc)+E(xc)   XCENC  =       123.76273037
  PAW double counting   =      5576.79462235    -5965.11357458
  entropy T*S    EENTRO =        -0.00000000
  eigenvalues    EBANDS =       114.68405575
  atomic energy  EATOM  =      5551.30450086
  ---------------------------------------------------
  free energy    TOTEN  =       -13.86292806 eV

  energy without entropy =      -13.86292806  energy(sigma->0) =      -13.86292806
  exchange ACFDT corr.  =        -0.00000000  see jH, gK, PRB 81, 115126


--------------------------------------------------------------------------------------------------------




--------------------------------------- Iteration      1(  53)  ---------------------------------------


    POTLOK:  cpu time      0.0776: real time      0.0776
    SETDIJ:  cpu time      0.1093: real time      0.1092
    TRIAL :  cpu time      0.2693: real time      0.2693
    CORREC:  cpu time      0.4232: real time      0.4232
    CHARGE:  cpu time      0.0111: real time      0.0111
    --------------------------------------------
      LOOP:  cpu time      0.8907: real time      0.8908

 eigenvalue-minimisations  :     0
 total energy-change (2. order) :-0.1312334E-02  (-0.1147863E-02)
 number of electron      43.9999759 magnetization 
 augmentation part       28.3404624 magnetization 

 Free energy of the ion-electron system (eV)
  ---------------------------------------------------
  alpha Z        PSCENC =       255.57509302
  Ewald energy   TEWEN  =     -4466.07994564
  -Hartree energ DENC   =     -1353.96539069
  -exchange      EXHF   =       148.81932827
  -V(xc)+E(xc)   XCENC  =       123.77541107
  PAW double counting   =      5575.29889536    -5963.72598611
  entropy T*S    EENTRO =        -0.00000000
  eigenvalues    EBANDS =       115.13385347
  atomic energy  EATOM  =      5551.30450086
  ---------------------------------------------------
  free energy    TOTEN  =       -13.86424040 eV

  energy without entropy =      -13.86424040  energy(sigma->0) =      -13.86424040
  exchange ACFDT corr.  =        -0.00000000  see jH, gK, PRB 81, 115126


--------------------------------------------------------------------------------------------------------




--------------------------------------- Iteration      1(  54)  ---------------------------------------


    POTLOK:  cpu time      0.0751: real time      0.0750
    SETDIJ:  cpu time      0.1159: real time      0.1159
    TRIAL :  cpu time      0.2678: real time      0.2780
    CORREC:  cpu time      0.4259: real time      0.4258
    CHARGE:  cpu time      0.0111: real time      0.0111
    --------------------------------------------
      LOOP:  cpu time      0.8958: real time      0.9063

 eigenvalue-minimisations  :     0
 total energy-change (2. order) :-0.1146908E-02  (-0.9628127E-03)
 number of electron      43.9999759 magnetization 
 augmentation part       28.3375330 magnetization 

 Free energy of the ion-electron system (eV)
  ---------------------------------------------------
  alpha Z        PSCENC =       255.57509302
  Ewald energy   TEWEN  =     -4466.07994564
  -Hartree energ DENC   =     -1354.27488483
  -exchange      EXHF   =       148.83285333
  -V(xc)+E(xc)   XCENC  =       123.78612547
  PAW double counting   =      5574.09772324    -5962.61236817
  entropy T*S    EENTRO =        -0.00000000
  eigenvalues    EBANDS =       115.50551542
  atomic energy  EATOM  =      5551.30450086
  ---------------------------------------------------
  free energy    TOTEN  =       -13.86538730 eV

  energy without entropy =      -13.86538730  energy(sigma->0) =      -13.86538730
  exchange ACFDT corr.  =        -0.00000000  see jH, gK, PRB 81, 115126


--------------------------------------------------------------------------------------------------------




--------------------------------------- Iteration      1(  55)  ---------------------------------------


    POTLOK:  cpu time      0.0706: real time      0.0706
    SETDIJ:  cpu time      0.1172: real time      0.1172
    TRIAL :  cpu time      0.2674: real time      0.2674
    CORREC:  cpu time      0.4255: real time      0.4254
    CHARGE:  cpu time      0.0109: real time      0.0109
    --------------------------------------------
      LOOP:  cpu time      0.8919: real time      0.8921

 eigenvalue-minimisations  :     0
 total energy-change (2. order) :-0.9623144E-03  (-0.1043301E-02)
 number of electron      43.9999759 magnetization 
 augmentation part       28.3377639 magnetization 

 Free energy of the ion-electron system (eV)
  ---------------------------------------------------
  alpha Z        PSCENC =       255.57509302
  Ewald energy   TEWEN  =     -4466.07994564
  -Hartree energ DENC   =     -1353.99000969
  -exchange      EXHF   =       148.82382573
  -V(xc)+E(xc)   XCENC  =       123.77628636
  PAW double counting   =      5573.09622751    -5961.47313892
  entropy T*S    EENTRO =        -0.00000000
  eigenvalues    EBANDS =       115.10081114
  atomic energy  EATOM  =      5551.30450086
  ---------------------------------------------------
  free energy    TOTEN  =       -13.86634962 eV

  energy without entropy =      -13.86634962  energy(sigma->0) =      -13.86634962
  exchange ACFDT corr.  =        -0.00000000  see jH, gK, PRB 81, 115126


--------------------------------------------------------------------------------------------------------




--------------------------------------- Iteration      1(  56)  ---------------------------------------


    POTLOK:  cpu time      0.0704: real time      0.0704
    SETDIJ:  cpu time      0.1180: real time      0.1180
    TRIAL :  cpu time      0.2682: real time      0.2724
    CORREC:  cpu time      0.4330: real time      0.4330
    CHARGE:  cpu time      0.0110: real time      0.0110
    --------------------------------------------
      LOOP:  cpu time      0.9009: real time      0.9052

 eigenvalue-minimisations  :     0
 total energy-change (2. order) :-0.1041334E-02  (-0.1016458E-02)
 number of electron      43.9999759 magnetization 
 augmentation part       28.3414834 magnetization 

 Free energy of the ion-electron system (eV)
  ---------------------------------------------------
  alpha Z        PSCENC =       255.57509302
  Ewald energy   TEWEN  =     -4466.07994564
  -Hartree energ DENC   =     -1353.98810312
  -exchange      EXHF   =       148.82534953
  -V(xc)+E(xc)   XCENC  =       123.77632242
  PAW double counting   =      5572.49134701    -5960.84390699
  entropy T*S    EENTRO =        -0.00000000
  eigenvalues    EBANDS =       115.07195197
  atomic energy  EATOM  =      5551.30450086
  ---------------------------------------------------
  free energy    TOTEN  =       -13.86739095 eV

  energy without entropy =      -13.86739095  energy(sigma->0) =      -13.86739095
  exchange ACFDT corr.  =        -0.00000000  see jH, gK, PRB 81, 115126


--------------------------------------------------------------------------------------------------------




--------------------------------------- Iteration      1(  57)  ---------------------------------------


    POTLOK:  cpu time      0.0825: real time      0.0824
    SETDIJ:  cpu time      0.1044: real time      0.1044
    TRIAL :  cpu time      0.2682: real time      0.2681
    CORREC:  cpu time      0.4287: real time      0.4287
    CHARGE:  cpu time      0.0109: real time      0.0109
    --------------------------------------------
      LOOP:  cpu time      0.8949: real time      0.8953

 eigenvalue-minimisations  :     0
 total energy-change (2. order) :-0.1013590E-02  (-0.9749554E-03)
 number of electron      43.9999759 magnetization 
 augmentation part       28.3394237 magnetization 

 Free energy of the ion-electron system (eV)
  ---------------------------------------------------
  alpha Z        PSCENC =       255.57509302
  Ewald energy   TEWEN  =     -4466.07994564
  -Hartree energ DENC   =     -1354.30526424
  -exchange      EXHF   =       148.83790192
  -V(xc)+E(xc)   XCENC  =       123.78750288
  PAW double counting   =      5572.33905955    -5960.81304832
  entropy T*S    EENTRO =        -0.00000000
  eigenvalues    EBANDS =       115.48579543
  atomic energy  EATOM  =      5551.30450086
  ---------------------------------------------------
  free energy    TOTEN  =       -13.86840454 eV

  energy without entropy =      -13.86840454  energy(sigma->0) =      -13.86840454
  exchange ACFDT corr.  =        -0.00000000  see jH, gK, PRB 81, 115126


--------------------------------------------------------------------------------------------------------




--------------------------------------- Iteration      1(  58)  ---------------------------------------


    POTLOK:  cpu time      0.0824: real time      0.0824
    SETDIJ:  cpu time      0.1061: real time      0.1061
    TRIAL :  cpu time      0.2677: real time      0.2676
    CORREC:  cpu time      0.4288: real time      0.4288
    CHARGE:  cpu time      0.0111: real time      0.0111
    --------------------------------------------
      LOOP:  cpu time      0.8964: real time      0.8966

 eigenvalue-minimisations  :     0
 total energy-change (2. order) :-0.9726426E-03  (-0.8555915E-03)
 number of electron      43.9999759 magnetization 
 augmentation part       28.3358303 magnetization 

 Free energy of the ion-electron system (eV)
  ---------------------------------------------------
  alpha Z        PSCENC =       255.57509302
  Ewald energy   TEWEN  =     -4466.07994564
  -Hartree energ DENC   =     -1354.08979799
  -exchange      EXHF   =       148.82920693
  -V(xc)+E(xc)   XCENC  =       123.78023738
  PAW double counting   =      5572.18765866    -5960.60301110
  entropy T*S    EENTRO =        -0.00000000
  eigenvalues    EBANDS =       115.22668069
  atomic energy  EATOM  =      5551.30450086
  ---------------------------------------------------
  free energy    TOTEN  =       -13.86937718 eV

  energy without entropy =      -13.86937718  energy(sigma->0) =      -13.86937718
  exchange ACFDT corr.  =        -0.00000000  see jH, gK, PRB 81, 115126


--------------------------------------------------------------------------------------------------------




--------------------------------------- Iteration      1(  59)  ---------------------------------------


    POTLOK:  cpu time      0.0855: real time      0.0854
    SETDIJ:  cpu time      0.1045: real time      0.1045
    TRIAL :  cpu time      0.2674: real time      0.2673
    CORREC:  cpu time      0.4221: real time      0.4220
    CHARGE:  cpu time      0.0111: real time      0.0111
    --------------------------------------------
      LOOP:  cpu time      0.8907: real time      0.8909

 eigenvalue-minimisations  :     0
 total energy-change (2. order) :-0.8548050E-03  (-0.7495672E-03)
 number of electron      43.9999759 magnetization 
 augmentation part       28.3371844 magnetization 

 Free energy of the ion-electron system (eV)
  ---------------------------------------------------
  alpha Z        PSCENC =       255.57509302
  Ewald energy   TEWEN  =     -4466.07994564
  -Hartree energ DENC   =     -1353.74620203
  -exchange      EXHF   =       148.81491084
  -V(xc)+E(xc)   XCENC  =       123.76844781
  PAW double counting   =      5572.15714875    -5960.47700909
  entropy T*S    EENTRO =        -0.00000000
  eigenvalues    EBANDS =       114.81282350
  atomic energy  EATOM  =      5551.30450086
  ---------------------------------------------------
  free energy    TOTEN  =       -13.87023199 eV

  energy without entropy =      -13.87023199  energy(sigma->0) =      -13.87023199
  exchange ACFDT corr.  =        -0.00000000  see jH, gK, PRB 81, 115126


--------------------------------------------------------------------------------------------------------




--------------------------------------- Iteration      1(  60)  ---------------------------------------


    POTLOK:  cpu time      0.0689: real time      0.0689
    SETDIJ:  cpu time      0.1337: real time      0.1337
    TRIAL :  cpu time      0.2673: real time      0.2672
    CORREC:  cpu time      0.4309: real time      0.4308
    CHARGE:  cpu time      0.0110: real time      0.0110
    --------------------------------------------
      LOOP:  cpu time      0.9121: real time      0.9121

 eigenvalue-minimisations  :     0
 total energy-change (2. order) :-0.7492277E-03  (-0.6002410E-03)
 number of electron      43.9999759 magnetization 
 augmentation part       28.3385032 magnetization 

 Free energy of the ion-electron system (eV)
  ---------------------------------------------------
  alpha Z        PSCENC =       255.57509302
  Ewald energy   TEWEN  =     -4466.07994564
  -Hartree energ DENC   =     -1353.87285630
  -exchange      EXHF   =       148.81808830
  -V(xc)+E(xc)   XCENC  =       123.77291072
  PAW double counting   =      5572.44242899    -5960.84913068
  entropy T*S    EENTRO =        -0.00000000
  eigenvalues    EBANDS =       115.01792952
  atomic energy  EATOM  =      5551.30450086
  ---------------------------------------------------
  free energy    TOTEN  =       -13.87098122 eV

  energy without entropy =      -13.87098122  energy(sigma->0) =      -13.87098122
  exchange ACFDT corr.  =        -0.00000000  see jH, gK, PRB 81, 115126


--------------------------------------------------------------------------------------------------------




--------------------------------------- Iteration      1(  61)  ---------------------------------------


    POTLOK:  cpu time      0.0743: real time      0.0743
    SETDIJ:  cpu time      0.1045: real time      0.1045
    TRIAL :  cpu time      0.2683: real time      0.2683
    CORREC:  cpu time      0.4311: real time      0.4475
    CHARGE:  cpu time      0.0110: real time      0.0110
    --------------------------------------------
      LOOP:  cpu time      0.8895: real time      0.9062

 eigenvalue-minimisations  :     0
 total energy-change (2. order) :-0.6003038E-03  (-0.4801003E-03)
 number of electron      43.9999759 magnetization 
 augmentation part       28.3360844 magnetization 

 Free energy of the ion-electron system (eV)
  ---------------------------------------------------
  alpha Z        PSCENC =       255.57509302
  Ewald energy   TEWEN  =     -4466.07994564
  -Hartree energ DENC   =     -1354.00100226
  -exchange      EXHF   =       148.82156666
  -V(xc)+E(xc)   XCENC  =       123.77737861
  PAW double counting   =      5572.76606790    -5961.25346543
  entropy T*S    EENTRO =        -0.00000000
  eigenvalues    EBANDS =       115.21822475
  atomic energy  EATOM  =      5551.30450086
  ---------------------------------------------------
  free energy    TOTEN  =       -13.87158152 eV

  energy without entropy =      -13.87158152  energy(sigma->0) =      -13.87158152
  exchange ACFDT corr.  =        -0.00000000  see jH, gK, PRB 81, 115126


--------------------------------------------------------------------------------------------------------




--------------------------------------- Iteration      1(  62)  ---------------------------------------


    POTLOK:  cpu time      0.0806: real time      0.0806
    SETDIJ:  cpu time      0.1095: real time      0.1095
    TRIAL :  cpu time      0.2677: real time      0.2676
    CORREC:  cpu time      0.4216: real time      0.4215
    CHARGE:  cpu time      0.0110: real time      0.0110
    --------------------------------------------
      LOOP:  cpu time      0.8905: real time      0.8907

 eigenvalue-minimisations  :     0
 total energy-change (2. order) :-0.4800694E-03  (-0.3994950E-03)
 number of electron      43.9999759 magnetization 
 augmentation part       28.3348171 magnetization 

 Free energy of the ion-electron system (eV)
  ---------------------------------------------------
  alpha Z        PSCENC =       255.57509302
  Ewald energy   TEWEN  =     -4466.07994564
  -Hartree energ DENC   =     -1353.78456662
  -exchange      EXHF   =       148.81260470
  -V(xc)+E(xc)   XCENC  =       123.76983053
  PAW double counting   =      5572.96301188    -5961.38716752
  entropy T*S    EENTRO =        -0.00000000
  eigenvalues    EBANDS =       114.95457720
  atomic energy  EATOM  =      5551.30450086
  ---------------------------------------------------
  free energy    TOTEN  =       -13.87206159 eV

  energy without entropy =      -13.87206159  energy(sigma->0) =      -13.87206159
  exchange ACFDT corr.  =        -0.00000000  see jH, gK, PRB 81, 115126


--------------------------------------------------------------------------------------------------------




--------------------------------------- Iteration      1(  63)  ---------------------------------------


    POTLOK:  cpu time      0.0758: real time      0.0758
    SETDIJ:  cpu time      0.1176: real time      0.1176
    TRIAL :  cpu time      0.2684: real time      0.2683
    CORREC:  cpu time      0.4279: real time      0.4446
    CHARGE:  cpu time      0.0111: real time      0.0111
    --------------------------------------------
      LOOP:  cpu time      0.9009: real time      0.9180

 eigenvalue-minimisations  :     0
 total energy-change (2. order) :-0.3994548E-03  (-0.6952840E-03)
 number of electron      43.9999759 magnetization 
 augmentation part       28.3406550 magnetization 

 Free energy of the ion-electron system (eV)
  ---------------------------------------------------
  alpha Z        PSCENC =       255.57509302
  Ewald energy   TEWEN  =     -4466.07994564
  -Hartree energ DENC   =     -1353.67639649
  -exchange      EXHF   =       148.80834660
  -V(xc)+E(xc)   XCENC  =       123.76599708
  PAW double counting   =      5573.26088828    -5961.65073467
  entropy T*S    EENTRO =        -0.00000000
  eigenvalues    EBANDS =       114.81978991
  atomic energy  EATOM  =      5551.30450086
  ---------------------------------------------------
  free energy    TOTEN  =       -13.87246105 eV

  energy without entropy =      -13.87246105  energy(sigma->0) =      -13.87246105
  exchange ACFDT corr.  =        -0.00000000  see jH, gK, PRB 81, 115126


--------------------------------------------------------------------------------------------------------




--------------------------------------- Iteration      1(  64)  ---------------------------------------


    POTLOK:  cpu time      0.0765: real time      0.0765
    SETDIJ:  cpu time      0.1069: real time      0.1069
    TRIAL :  cpu time      0.2668: real time      0.2667
    CORREC:  cpu time      0.4235: real time      0.4234
    CHARGE:  cpu time      0.0110: real time      0.0110
    --------------------------------------------
      LOOP:  cpu time      0.8850: real time      0.8851

 eigenvalue-minimisations  :     0
 total energy-change (2. order) :-0.6969334E-03  (-0.7530950E-03)
 number of electron      43.9999759 magnetization 
 augmentation part       28.3331973 magnetization 

 Free energy of the ion-electron system (eV)
  ---------------------------------------------------
  alpha Z        PSCENC =       255.57509302
  Ewald energy   TEWEN  =     -4466.07994564
  -Hartree energ DENC   =     -1354.21966473
  -exchange      EXHF   =       148.83006858
  -V(xc)+E(xc)   XCENC  =       123.78478161
  PAW double counting   =      5573.69673656    -5962.27259048
  entropy T*S    EENTRO =        -0.00000000
  eigenvalues    EBANDS =       115.50786225
  atomic energy  EATOM  =      5551.30450086
  ---------------------------------------------------
  free energy    TOTEN  =       -13.87315798 eV

  energy without entropy =      -13.87315798  energy(sigma->0) =      -13.87315798
  exchange ACFDT corr.  =        -0.00000000  see jH, gK, PRB 81, 115126


--------------------------------------------------------------------------------------------------------




--------------------------------------- Iteration      1(  65)  ---------------------------------------


    POTLOK:  cpu time      0.0749: real time      0.0749
    SETDIJ:  cpu time      0.1048: real time      0.1048
    TRIAL :  cpu time      0.2670: real time      0.2679
    CORREC:  cpu time      0.4217: real time      0.4382
    CHARGE:  cpu time      0.0111: real time      0.0111
    --------------------------------------------
      LOOP:  cpu time      0.8797: real time      0.8976

 eigenvalue-minimisations  :     0
 total energy-change (2. order) :-0.7520999E-03  (-0.1337254E-02)
 number of electron      43.9999759 magnetization 
 augmentation part       28.3390701 magnetization 

 Free energy of the ion-electron system (eV)
  ---------------------------------------------------
  alpha Z        PSCENC =       255.57509302
  Ewald energy   TEWEN  =     -4466.07994564
  -Hartree energ DENC   =     -1353.52549421
  -exchange      EXHF   =       148.80582882
  -V(xc)+E(xc)   XCENC  =       123.76057327
  PAW double counting   =      5573.61989512    -5961.89636321
  entropy T*S    EENTRO =        -0.00000000
  eigenvalues    EBANDS =       114.56200190
  atomic energy  EATOM  =      5551.30450086
  ---------------------------------------------------
  free energy    TOTEN  =       -13.87391008 eV

  energy without entropy =      -13.87391008  energy(sigma->0) =      -13.87391008
  exchange ACFDT corr.  =        -0.00000000  see jH, gK, PRB 81, 115126


--------------------------------------------------------------------------------------------------------




--------------------------------------- Iteration      1(  66)  ---------------------------------------


    POTLOK:  cpu time      0.0752: real time      0.0751
    SETDIJ:  cpu time      0.1110: real time      0.1110
    TRIAL :  cpu time      0.2674: real time      0.2674
    CORREC:  cpu time      0.4282: real time      0.4281
    CHARGE:  cpu time      0.0110: real time      0.0110
    --------------------------------------------
      LOOP:  cpu time      0.8931: real time      0.8932

 eigenvalue-minimisations  :     0
 total energy-change (2. order) :-0.1334117E-02  (-0.1251855E-02)
 number of electron      43.9999759 magnetization 
 augmentation part       28.3410426 magnetization 

 Free energy of the ion-electron system (eV)
  ---------------------------------------------------
  alpha Z        PSCENC =       255.57509302
  Ewald energy   TEWEN  =     -4466.07994564
  -Hartree energ DENC   =     -1354.06810836
  -exchange      EXHF   =       148.82957982
  -V(xc)+E(xc)   XCENC  =       123.77922527
  PAW double counting   =      5574.37514424    -5962.80313238
  entropy T*S    EENTRO =        -0.00000000
  eigenvalues    EBANDS =       115.21239898
  atomic energy  EATOM  =      5551.30450086
  ---------------------------------------------------
  free energy    TOTEN  =       -13.87524420 eV

  energy without entropy =      -13.87524420  energy(sigma->0) =      -13.87524420
  exchange ACFDT corr.  =        -0.00000000  see jH, gK, PRB 81, 115126


--------------------------------------------------------------------------------------------------------




--------------------------------------- Iteration      1(  67)  ---------------------------------------


    POTLOK:  cpu time      0.0725: real time      0.0725
    SETDIJ:  cpu time      0.1153: real time      0.1153
    TRIAL :  cpu time      0.2680: real time      0.2680
    CORREC:  cpu time      0.4248: real time      0.4422
    CHARGE:  cpu time      0.0110: real time      0.0110
    --------------------------------------------
      LOOP:  cpu time      0.8918: real time      0.9096

 eigenvalue-minimisations  :     0
 total energy-change (2. order) :-0.1246229E-02  (-0.1070498E-02)
 number of electron      43.9999759 magnetization 
 augmentation part       28.3362958 magnetization 

 Free energy of the ion-electron system (eV)
  ---------------------------------------------------
  alpha Z        PSCENC =       255.57509302
  Ewald energy   TEWEN  =     -4466.07994564
  -Hartree energ DENC   =     -1354.25480457
  -exchange      EXHF   =       148.83867387
  -V(xc)+E(xc)   XCENC  =       123.78552006
  PAW double counting   =      5574.91239178    -5963.37766917
  entropy T*S    EENTRO =        -0.00000000
  eigenvalues    EBANDS =       115.41974937
  atomic energy  EATOM  =      5551.30450086
  ---------------------------------------------------
  free energy    TOTEN  =       -13.87649042 eV

  energy without entropy =      -13.87649042  energy(sigma->0) =      -13.87649042
  exchange ACFDT corr.  =        -0.00000000  see jH, gK, PRB 81, 115126


--------------------------------------------------------------------------------------------------------




--------------------------------------- Iteration      1(  68)  ---------------------------------------


    POTLOK:  cpu time      0.0694: real time      0.0694
    SETDIJ:  cpu time      0.1100: real time      0.1099
    TRIAL :  cpu time      0.2674: real time      0.2674
    CORREC:  cpu time      0.4203: real time      0.4202
    CHARGE:  cpu time      0.0110: real time      0.0110
    --------------------------------------------
      LOOP:  cpu time      0.8783: real time      0.8785

 eigenvalue-minimisations  :     0
 total energy-change (2. order) :-0.1070453E-02  (-0.7171802E-03)
 number of electron      43.9999759 magnetization 
 augmentation part       28.3400403 magnetization 

 Free energy of the ion-electron system (eV)
  ---------------------------------------------------
  alpha Z        PSCENC =       255.57509302
  Ewald energy   TEWEN  =     -4466.07994564
  -Hartree energ DENC   =     -1353.81158872
  -exchange      EXHF   =       148.82212297
  -V(xc)+E(xc)   XCENC  =       123.77009522
  PAW double counting   =      5574.97865081    -5963.28089505
  entropy T*S    EENTRO =        -0.00000000
  eigenvalues    EBANDS =       114.84440567
  atomic energy  EATOM  =      5551.30450086
  ---------------------------------------------------
  free energy    TOTEN  =       -13.87756088 eV

  energy without entropy =      -13.87756088  energy(sigma->0) =      -13.87756088
  exchange ACFDT corr.  =        -0.00000000  see jH, gK, PRB 81, 115126


--------------------------------------------------------------------------------------------------------




--------------------------------------- Iteration      1(  69)  ---------------------------------------


    POTLOK:  cpu time      0.0862: real time      0.0861
    SETDIJ:  cpu time      0.1042: real time      0.1042
    TRIAL :  cpu time      0.2676: real time      0.2676
    CORREC:  cpu time      0.4290: real time      0.4462
    CHARGE:  cpu time      0.0110: real time      0.0110
    --------------------------------------------
      LOOP:  cpu time      0.8983: real time      0.9157

 eigenvalue-minimisations  :     0
 total energy-change (2. order) :-0.7172697E-03  (-0.4541941E-03)
 number of electron      43.9999759 magnetization 
 augmentation part       28.3376176 magnetization 

 Free energy of the ion-electron system (eV)
  ---------------------------------------------------
  alpha Z        PSCENC =       255.57509302
  Ewald energy   TEWEN  =     -4466.07994564
  -Hartree energ DENC   =     -1354.14909996
  -exchange      EXHF   =       148.83354162
  -V(xc)+E(xc)   XCENC  =       123.78190944
  PAW double counting   =      5575.19459242    -5963.66215794
  entropy T*S    EENTRO =        -0.00000000
  eigenvalues    EBANDS =       115.32328804
  atomic energy  EATOM  =      5551.30450086
  ---------------------------------------------------
  free energy    TOTEN  =       -13.87827815 eV

  energy without entropy =      -13.87827815  energy(sigma->0) =      -13.87827815
  exchange ACFDT corr.  =        -0.00000000  see jH, gK, PRB 81, 115126


--------------------------------------------------------------------------------------------------------




--------------------------------------- Iteration      1(  70)  ---------------------------------------


    POTLOK:  cpu time      0.0828: real time      0.0828
    SETDIJ:  cpu time      0.1049: real time      0.1049
    TRIAL :  cpu time      0.2664: real time      0.2664
    CORREC:  cpu time      0.4299: real time      0.4298
    CHARGE:  cpu time      0.0111: real time      0.0111
    --------------------------------------------
      LOOP:  cpu time      0.8952: real time      0.8954

 eigenvalue-minimisations  :     0
 total energy-change (2. order) :-0.4541573E-03  (-0.2337776E-03)
 number of electron      43.9999759 magnetization 
 augmentation part       28.3363322 magnetization 

 Free energy of the ion-electron system (eV)
  ---------------------------------------------------
  alpha Z        PSCENC =       255.57509302
  Ewald energy   TEWEN  =     -4466.07994564
  -Hartree energ DENC   =     -1353.91903250
  -exchange      EXHF   =       148.82329561
  -V(xc)+E(xc)   XCENC  =       123.77402153
  PAW double counting   =      5574.98066140    -5963.39740417
  entropy T*S    EENTRO =        -0.00000000
  eigenvalues    EBANDS =       115.06007759
  atomic energy  EATOM  =      5551.30450086
  ---------------------------------------------------
  free energy    TOTEN  =       -13.87873230 eV

  energy without entropy =      -13.87873230  energy(sigma->0) =      -13.87873230
  exchange ACFDT corr.  =        -0.00000000  see jH, gK, PRB 81, 115126


--------------------------------------------------------------------------------------------------------




--------------------------------------- Iteration      1(  71)  ---------------------------------------


    POTLOK:  cpu time      0.0716: real time      0.0716
    SETDIJ:  cpu time      0.1137: real time      0.1137
    TRIAL :  cpu time      0.2680: real time      0.2680
    CORREC:  cpu time      0.4251: real time      0.4428
    CHARGE:  cpu time      0.0110: real time      0.0110
    --------------------------------------------
      LOOP:  cpu time      0.8897: real time      0.9076

 eigenvalue-minimisations  :     0
 total energy-change (2. order) :-0.2334955E-03  (-0.9928101E-04)
 number of electron      43.9999759 magnetization 
 augmentation part       28.3381725 magnetization 

 Free energy of the ion-electron system (eV)
  ---------------------------------------------------
  alpha Z        PSCENC =       255.57509302
  Ewald energy   TEWEN  =     -4466.07994564
  -Hartree energ DENC   =     -1353.79815839
  -exchange      EXHF   =       148.81759816
  -V(xc)+E(xc)   XCENC  =       123.76989288
  PAW double counting   =      5574.74890202    -5963.14364745
  entropy T*S    EENTRO =        -0.00000000
  eigenvalues    EBANDS =       114.92679874
  atomic energy  EATOM  =      5551.30450086
  ---------------------------------------------------
  free energy    TOTEN  =       -13.87896580 eV

  energy without entropy =      -13.87896580  energy(sigma->0) =      -13.87896580
  exchange ACFDT corr.  =        -0.00000000  see jH, gK, PRB 81, 115126


--------------------------------------------------------------------------------------------------------




--------------------------------------- Iteration      1(  72)  ---------------------------------------


    POTLOK:  cpu time      0.0728: real time      0.0728
    SETDIJ:  cpu time      0.1108: real time      0.1108
    TRIAL :  cpu time      0.2683: real time      0.2683
    CORREC:  cpu time      0.4207: real time      0.4207
    CHARGE:  cpu time      0.0110: real time      0.0110
    --------------------------------------------
      LOOP:  cpu time      0.8839: real time      0.8842

 eigenvalue-minimisations  :     0
 total energy-change (2. order) :-0.9929304E-04  (-0.6469851E-04)
 number of electron      43.9999759 magnetization 
 augmentation part       28.3364473 magnetization 

 Free energy of the ion-electron system (eV)
  ---------------------------------------------------
  alpha Z        PSCENC =       255.57509302
  Ewald energy   TEWEN  =     -4466.07994564
  -Hartree energ DENC   =     -1353.96894072
  -exchange      EXHF   =       148.82355998
  -V(xc)+E(xc)   XCENC  =       123.77584793
  PAW double counting   =      5574.71071674    -5963.17975155
  entropy T*S    EENTRO =        -0.00000000
  eigenvalues    EBANDS =       115.15985429
  atomic energy  EATOM  =      5551.30450086
  ---------------------------------------------------
  free energy    TOTEN  =       -13.87906509 eV

  energy without entropy =      -13.87906509  energy(sigma->0) =      -13.87906509
  exchange ACFDT corr.  =        -0.00000000  see jH, gK, PRB 81, 115126


--------------------------------------------------------------------------------------------------------




--------------------------------------- Iteration      1(  73)  ---------------------------------------


    POTLOK:  cpu time      0.0829: real time      0.0829
    SETDIJ:  cpu time      0.1051: real time      0.1051
    TRIAL :  cpu time      0.2674: real time      0.2674
    CORREC:  cpu time      0.4200: real time      0.4366
    CHARGE:  cpu time      0.0111: real time      0.0111
    --------------------------------------------
      LOOP:  cpu time      0.8866: real time      0.9037

 eigenvalue-minimisations  :     0
 total energy-change (2. order) :-0.6470548E-04  (-0.4971413E-04)
 number of electron      43.9999759 magnetization 
 augmentation part       28.3370776 magnetization 

 Free energy of the ion-electron system (eV)
  ---------------------------------------------------
  alpha Z        PSCENC =       255.57509302
  Ewald energy   TEWEN  =     -4466.07994564
  -Hartree energ DENC   =     -1353.80950080
  -exchange      EXHF   =       148.81735613
  -V(xc)+E(xc)   XCENC  =       123.77032690
  PAW double counting   =      5574.51769799    -5962.92821609
  entropy T*S    EENTRO =        -0.00000000
  eigenvalues    EBANDS =       114.95355783
  atomic energy  EATOM  =      5551.30450086
  ---------------------------------------------------
  free energy    TOTEN  =       -13.87912980 eV

  energy without entropy =      -13.87912980  energy(sigma->0) =      -13.87912980
  exchange ACFDT corr.  =        -0.00000000  see jH, gK, PRB 81, 115126


--------------------------------------------------------------------------------------------------------




--------------------------------------- Iteration      1(  74)  ---------------------------------------


    POTLOK:  cpu time      0.0793: real time      0.0793
    SETDIJ:  cpu time      0.1146: real time      0.1145
    TRIAL :  cpu time      0.2670: real time      0.2669
    CORREC:  cpu time      0.4316: real time      0.4315
    CHARGE:  cpu time      0.0110: real time      0.0110
    --------------------------------------------
      LOOP:  cpu time      0.9037: real time      0.9038

 eigenvalue-minimisations  :     0
 total energy-change (2. order) :-0.4985848E-04  (-0.3663646E-04)
 number of electron      43.9999759 magnetization 
 augmentation part       28.3373124 magnetization 

 Free energy of the ion-electron system (eV)
  ---------------------------------------------------
  alpha Z        PSCENC =       255.57509302
  Ewald energy   TEWEN  =     -4466.07994564
  -Hartree energ DENC   =     -1353.87026995
  -exchange      EXHF   =       148.81976425
  -V(xc)+E(xc)   XCENC  =       123.77242839
  PAW double counting   =      5574.38666512    -5962.81719246
  entropy T*S    EENTRO =        -0.00000000
  eigenvalues    EBANDS =       115.02977676
  atomic energy  EATOM  =      5551.30450086
  ---------------------------------------------------
  free energy    TOTEN  =       -13.87917966 eV

  energy without entropy =      -13.87917966  energy(sigma->0) =      -13.87917966
  exchange ACFDT corr.  =        -0.00000000  see jH, gK, PRB 81, 115126


--------------------------------------------------------------------------------------------------------




--------------------------------------- Iteration      1(  75)  ---------------------------------------


    POTLOK:  cpu time      0.0688: real time      0.0688
    SETDIJ:  cpu time      0.1162: real time      0.1162
    TRIAL :  cpu time      0.2687: real time      0.2688
    CORREC:  cpu time      0.4265: real time      0.4377
    CHARGE:  cpu time      0.0111: real time      0.0111
    --------------------------------------------
      LOOP:  cpu time      0.8917: real time      0.9032

 eigenvalue-minimisations  :     0
 total energy-change (2. order) :-0.3680762E-04  (-0.3000998E-04)
 number of electron      43.9999759 magnetization 
 augmentation part       28.3371229 magnetization 

 Free energy of the ion-electron system (eV)
  ---------------------------------------------------
  alpha Z        PSCENC =       255.57509302
  Ewald energy   TEWEN  =     -4466.07994564
  -Hartree energ DENC   =     -1353.89577434
  -exchange      EXHF   =       148.82107403
  -V(xc)+E(xc)   XCENC  =       123.77329434
  PAW double counting   =      5574.21147152    -5962.64414363
  entropy T*S    EENTRO =        -0.00000000
  eigenvalues    EBANDS =       115.05521337
  atomic energy  EATOM  =      5551.30450086
  ---------------------------------------------------
  free energy    TOTEN  =       -13.87921646 eV

  energy without entropy =      -13.87921646  energy(sigma->0) =      -13.87921646
  exchange ACFDT corr.  =        -0.00000000  see jH, gK, PRB 81, 115126


--------------------------------------------------------------------------------------------------------




--------------------------------------- Iteration      1(  76)  ---------------------------------------


    POTLOK:  cpu time      0.0746: real time      0.0746
    SETDIJ:  cpu time      0.1105: real time      0.1105
    TRIAL :  cpu time      0.2676: real time      0.2676
    CORREC:  cpu time      0.4261: real time      0.4260
    CHARGE:  cpu time      0.0110: real time      0.0110
    --------------------------------------------
      LOOP:  cpu time      0.8901: real time      0.8902

 eigenvalue-minimisations  :     0
 total energy-change (2. order) :-0.3004489E-04  (-0.2927831E-04)
 number of electron      43.9999759 magnetization 
 augmentation part       28.3374111 magnetization 

 Free energy of the ion-electron system (eV)
  ---------------------------------------------------
  alpha Z        PSCENC =       255.57509302
  Ewald energy   TEWEN  =     -4466.07994564
  -Hartree energ DENC   =     -1353.88426033
  -exchange      EXHF   =       148.82108982
  -V(xc)+E(xc)   XCENC  =       123.77285241
  PAW double counting   =      5574.02472314    -5962.44337100
  entropy T*S    EENTRO =        -0.00000000
  eigenvalues    EBANDS =       115.03007122
  atomic energy  EATOM  =      5551.30450086
  ---------------------------------------------------
  free energy    TOTEN  =       -13.87924651 eV

  energy without entropy =      -13.87924651  energy(sigma->0) =      -13.87924651
  exchange ACFDT corr.  =        -0.00000000  see jH, gK, PRB 81, 115126


--------------------------------------------------------------------------------------------------------




--------------------------------------- Iteration      1(  77)  ---------------------------------------


    POTLOK:  cpu time      0.0748: real time      0.0748
    SETDIJ:  cpu time      0.1117: real time      0.1117
    TRIAL :  cpu time      0.2684: real time      0.2683
    CORREC:  cpu time      0.4250: real time      0.4312
    CHARGE:  cpu time      0.0113: real time      0.0113
    --------------------------------------------
      LOOP:  cpu time      0.8914: real time      0.8978

 eigenvalue-minimisations  :     0
 total energy-change (2. order) :-0.2932257E-04  (-0.3082739E-04)
 number of electron      43.9999759 magnetization 
 augmentation part       28.3376003 magnetization 

 Free energy of the ion-electron system (eV)
  ---------------------------------------------------
  alpha Z        PSCENC =       255.57509302
  Ewald energy   TEWEN  =     -4466.07994564
  -Hartree energ DENC   =     -1353.91659320
  -exchange      EXHF   =       148.82268846
  -V(xc)+E(xc)   XCENC  =       123.77394446
  PAW double counting   =      5573.85350771    -5962.27693788
  entropy T*S    EENTRO =        -0.00000000
  eigenvalues    EBANDS =       115.06446637
  atomic energy  EATOM  =      5551.30450086
  ---------------------------------------------------
  free energy    TOTEN  =       -13.87927583 eV

  energy without entropy =      -13.87927583  energy(sigma->0) =      -13.87927583
  exchange ACFDT corr.  =        -0.00000000  see jH, gK, PRB 81, 115126


--------------------------------------------------------------------------------------------------------




--------------------------------------- Iteration      1(  78)  ---------------------------------------


    POTLOK:  cpu time      0.0759: real time      0.0759
    SETDIJ:  cpu time      0.1138: real time      0.1138
    TRIAL :  cpu time      0.2670: real time      0.2669
    CORREC:  cpu time      0.4202: real time      0.4201
    CHARGE:  cpu time      0.0110: real time      0.0110
    --------------------------------------------
      LOOP:  cpu time      0.8881: real time      0.8884

 eigenvalue-minimisations  :     0
 total energy-change (2. order) :-0.3086643E-04  (-0.2511691E-04)
 number of electron      43.9999759 magnetization 
 augmentation part       28.3368631 magnetization 

 Free energy of the ion-electron system (eV)
  ---------------------------------------------------
  alpha Z        PSCENC =       255.57509302
  Ewald energy   TEWEN  =     -4466.07994564
  -Hartree energ DENC   =     -1353.93647226
  -exchange      EXHF   =       148.82358223
  -V(xc)+E(xc)   XCENC  =       123.77462937
  PAW double counting   =      5573.69595262    -5962.12675869
  entropy T*S    EENTRO =        -0.00000000
  eigenvalues    EBANDS =       115.09011179
  atomic energy  EATOM  =      5551.30450086
  ---------------------------------------------------
  free energy    TOTEN  =       -13.87930670 eV

  energy without entropy =      -13.87930670  energy(sigma->0) =      -13.87930670
  exchange ACFDT corr.  =        -0.00000000  see jH, gK, PRB 81, 115126


--------------------------------------------------------------------------------------------------------




--------------------------------------- Iteration      1(  79)  ---------------------------------------


    POTLOK:  cpu time      0.0786: real time      0.0786
    SETDIJ:  cpu time      0.1142: real time      0.1142
    TRIAL :  cpu time      0.2680: real time      0.2704
    CORREC:  cpu time      0.4234: real time      0.4234
    CHARGE:  cpu time      0.0110: real time      0.0110
    --------------------------------------------
      LOOP:  cpu time      0.8954: real time      0.8980

 eigenvalue-minimisations  :     0
 total energy-change (2. order) :-0.2505880E-04  (-0.2010323E-04)
 number of electron      43.9999759 magnetization 
 augmentation part       28.3377117 magnetization 

 Free energy of the ion-electron system (eV)
  ---------------------------------------------------
  alpha Z        PSCENC =       255.57509302
  Ewald energy   TEWEN  =     -4466.07994564
  -Hartree energ DENC   =     -1353.86808786
  -exchange      EXHF   =       148.82099051
  -V(xc)+E(xc)   XCENC  =       123.77226193
  PAW double counting   =      5573.59419592    -5962.00184549
  entropy T*S    EENTRO =        -0.00000000
  eigenvalues    EBANDS =       115.00350499
  atomic energy  EATOM  =      5551.30450086
  ---------------------------------------------------
  free energy    TOTEN  =       -13.87933176 eV

  energy without entropy =      -13.87933176  energy(sigma->0) =      -13.87933176
  exchange ACFDT corr.  =        -0.00000000  see jH, gK, PRB 81, 115126


--------------------------------------------------------------------------------------------------------




--------------------------------------- Iteration      1(  80)  ---------------------------------------


    POTLOK:  cpu time      0.0719: real time      0.0719
    SETDIJ:  cpu time      0.1045: real time      0.1045
    TRIAL :  cpu time      0.2677: real time      0.2676
    CORREC:  cpu time      0.4209: real time      0.4208
    CHARGE:  cpu time      0.0111: real time      0.0111
    --------------------------------------------
      LOOP:  cpu time      0.8761: real time      0.8763

 eigenvalue-minimisations  :     0
 total energy-change (2. order) :-0.2009964E-04  (-0.1772557E-04)
 number of electron      43.9999759 magnetization 
 augmentation part       28.3367201 magnetization 

 Free energy of the ion-electron system (eV)
  ---------------------------------------------------
  alpha Z        PSCENC =       255.57509302
  Ewald energy   TEWEN  =     -4466.07994564
  -Hartree energ DENC   =     -1353.94268532
  -exchange      EXHF   =       148.82357741
  -V(xc)+E(xc)   XCENC  =       123.77488487
  PAW double counting   =      5573.63992357    -5962.08431991
  entropy T*S    EENTRO =        -0.00000000
  eigenvalues    EBANDS =       115.10961929
  atomic energy  EATOM  =      5551.30450086
  ---------------------------------------------------
  free energy    TOTEN  =       -13.87935186 eV

  energy without entropy =      -13.87935186  energy(sigma->0) =      -13.87935186
  exchange ACFDT corr.  =        -0.00000000  see jH, gK, PRB 81, 115126


--------------------------------------------------------------------------------------------------------




--------------------------------------- Iteration      1(  81)  ---------------------------------------


    POTLOK:  cpu time      0.0789: real time      0.0789
    SETDIJ:  cpu time      0.1119: real time      0.1119
    TRIAL :  cpu time      0.2688: real time      0.2687
    CORREC:  cpu time      0.4202: real time      0.4373
    CHARGE:  cpu time      0.0110: real time      0.0110
    --------------------------------------------
      LOOP:  cpu time      0.8910: real time      0.9084

 eigenvalue-minimisations  :     0
 total energy-change (2. order) :-0.1766632E-04  (-0.1467694E-04)
 number of electron      43.9999759 magnetization 
 augmentation part       28.3369371 magnetization 

 Free energy of the ion-electron system (eV)
  ---------------------------------------------------
  alpha Z        PSCENC =       255.57509302
  Ewald energy   TEWEN  =     -4466.07994564
  -Hartree energ DENC   =     -1353.84725135
  -exchange      EXHF   =       148.81973043
  -V(xc)+E(xc)   XCENC  =       123.77159179
  PAW double counting   =      5573.68684348    -5962.10166745
  entropy T*S    EENTRO =        -0.00000000
  eigenvalues    EBANDS =       114.99173535
  atomic energy  EATOM  =      5551.30450086
  ---------------------------------------------------
  free energy    TOTEN  =       -13.87936952 eV

  energy without entropy =      -13.87936952  energy(sigma->0) =      -13.87936952
  exchange ACFDT corr.  =        -0.00000000  see jH, gK, PRB 81, 115126


--------------------------------------------------------------------------------------------------------




--------------------------------------- Iteration      1(  82)  ---------------------------------------


    POTLOK:  cpu time      0.0612: real time      0.0612
    SETDIJ:  cpu time      0.1251: real time      0.1251
    TRIAL :  cpu time      0.2675: real time      0.2675
    CORREC:  cpu time      0.4307: real time      0.4306
    CHARGE:  cpu time      0.0110: real time      0.0110
    --------------------------------------------
      LOOP:  cpu time      0.8958: real time      0.8960

 eigenvalue-minimisations  :     0
 total energy-change (2. order) :-0.1465517E-04  (-0.1095034E-04)
 number of electron      43.9999759 magnetization 
 augmentation part       28.3373239 magnetization 

 Free energy of the ion-electron system (eV)
  ---------------------------------------------------
  alpha Z        PSCENC =       255.57509302
  Ewald energy   TEWEN  =     -4466.07994564
  -Hartree energ DENC   =     -1353.86446767
  -exchange      EXHF   =       148.82017371
  -V(xc)+E(xc)   XCENC  =       123.77220043
  PAW double counting   =      5573.83274680    -5962.25866840
  entropy T*S    EENTRO =        -0.00000000
  eigenvalues    EBANDS =       115.01898271
  atomic energy  EATOM  =      5551.30450086
  ---------------------------------------------------
  free energy    TOTEN  =       -13.87938418 eV

  energy without entropy =      -13.87938418  energy(sigma->0) =      -13.87938418
  exchange ACFDT corr.  =        -0.00000000  see jH, gK, PRB 81, 115126


--------------------------------------------------------------------------------------------------------




--------------------------------------- Iteration      1(  83)  ---------------------------------------


    POTLOK:  cpu time      0.0709: real time      0.0708
    SETDIJ:  cpu time      0.1045: real time      0.1045
    TRIAL :  cpu time      0.2685: real time      0.2684
    CORREC:  cpu time      0.4209: real time      0.4375
    CHARGE:  cpu time      0.0110: real time      0.0110
    --------------------------------------------
      LOOP:  cpu time      0.8759: real time      0.8929

 eigenvalue-minimisations  :     0
 total energy-change (2. order) :-0.1095106E-04  (-0.1009771E-04)
 number of electron      43.9999759 magnetization 
 augmentation part       28.3367647 magnetization 

 Free energy of the ion-electron system (eV)
  ---------------------------------------------------
  alpha Z        PSCENC =       255.57509302
  Ewald energy   TEWEN  =     -4466.07994564
  -Hartree energ DENC   =     -1353.89870531
  -exchange      EXHF   =       148.82141272
  -V(xc)+E(xc)   XCENC  =       123.77338755
  PAW double counting   =      5573.98825796    -5962.42793043
  entropy T*S    EENTRO =        -0.00000000
  eigenvalues    EBANDS =       115.06453414
  atomic energy  EATOM  =      5551.30450086
  ---------------------------------------------------
  free energy    TOTEN  =       -13.87939513 eV

  energy without entropy =      -13.87939513  energy(sigma->0) =      -13.87939513
  exchange ACFDT corr.  =        -0.00000000  see jH, gK, PRB 81, 115126


--------------------------------------------------------------------------------------------------------




--------------------------------------- Iteration      1(  84)  ---------------------------------------


    POTLOK:  cpu time      0.0816: real time      0.0816
    SETDIJ:  cpu time      0.1048: real time      0.1048
    TRIAL :  cpu time      0.2677: real time      0.2677
    CORREC:  cpu time      0.4242: real time      0.4241
    CHARGE:  cpu time      0.0110: real time      0.0110
    --------------------------------------------
      LOOP:  cpu time      0.8895: real time      0.8898

 eigenvalue-minimisations  :     0
 total energy-change (2. order) :-0.1008594E-04  (-0.8316835E-05)
 number of electron      43.9999759 magnetization 
 augmentation part       28.3372981 magnetization 

 Free energy of the ion-electron system (eV)
  ---------------------------------------------------
  alpha Z        PSCENC =       255.57509302
  Ewald energy   TEWEN  =     -4466.07994564
  -Hartree energ DENC   =     -1353.84723916
  -exchange      EXHF   =       148.81957954
  -V(xc)+E(xc)   XCENC  =       123.77158056
  PAW double counting   =      5574.10897202    -5962.52494866
  entropy T*S    EENTRO =        -0.00000000
  eigenvalues    EBANDS =       114.99300224
  atomic energy  EATOM  =      5551.30450086
  ---------------------------------------------------
  free energy    TOTEN  =       -13.87940522 eV

  energy without entropy =      -13.87940522  energy(sigma->0) =      -13.87940522
  exchange ACFDT corr.  =        -0.00000000  see jH, gK, PRB 81, 115126


--------------------------------------------------------------------------------------------------------




--------------------------------------- Iteration      1(  85)  ---------------------------------------


    POTLOK:  cpu time      0.0738: real time      0.0738
    SETDIJ:  cpu time      0.1147: real time      0.1147
    TRIAL :  cpu time      0.2713: real time      0.2828
    CORREC:  cpu time      0.4281: real time      0.4280
    EDDIAG:  cpu time      0.2051: real time      0.2051
    CHARGE:  cpu time      0.0110: real time      0.0110
    --------------------------------------------
      LOOP:  cpu time      1.2351: real time      1.2469

 eigenvalue-minimisations  :     0
 total energy-change (2. order) :-0.8330578E-05  (-0.8752273E-05)
 number of electron      43.9999759 magnetization 
 augmentation part       28.3373691 magnetization 

 Free energy of the ion-electron system (eV)
  ---------------------------------------------------
  alpha Z        PSCENC =       255.57509302
  Ewald energy   TEWEN  =     -4466.07994564
  -Hartree energ DENC   =     -1353.89678591
  -exchange      EXHF   =       148.82199792
  -V(xc)+E(xc)   XCENC  =       123.77328591
  PAW double counting   =      5574.28592462    -5962.71612388
  entropy T*S    EENTRO =        -0.00000000
  eigenvalues    EBANDS =       115.05440697
  atomic energy  EATOM  =      5551.30450086
  ---------------------------------------------------
  free energy    TOTEN  =       -13.87941355 eV

  energy without entropy =      -13.87941355  energy(sigma->0) =      -13.87941355
  exchange ACFDT corr.  =        -0.00000000  see jH, gK, PRB 81, 115126


--------------------------------------------------------------------------------------------------------


  average scaling for gradient   0.4224


 the core state eigenenergies are
   1-  1s  -8839.3244  2s  -1051.6819  2p   -906.1257  3s   -103.8348  3p    -61.2417
     
   2-  1s  -8839.1800  2s  -1051.5390  2p   -905.9826  3s   -103.7137  3p    -61.1230
     
   3-  1s  -8839.3579  2s  -1051.7172  2p   -906.1612  3s   -103.8522  3p    -61.2576
     
   4-  1s  -8839.2017  2s  -1051.5619  2p   -906.0055  3s   -103.7254  3p    -61.1338
     
 
 E-fermi :   6.5458     XC(G=0):  -9.7761     alpha+bet :-13.8514

 Fermi energy:         6.5457752293

 k-point     1 :       0.0000    0.0000    0.0000
  band No.  band energies     occupation 
      1      -3.2449      2.00000
      2       0.3411      2.00000
      3       0.3984      2.00000
      4       0.4035      2.00000
      5       0.8248      2.00000
      6       0.8287      2.00000
      7       0.8673      2.00000
      8       2.3586      2.00000
      9       2.3735      2.00000
     10       2.4300      2.00000
     11       3.1771      2.00000
     12       3.2472      2.00000
     13       3.8804      2.00000
     14       3.9099      2.00000
     15       3.9324      2.00000
     16       4.1849      2.00000
     17       4.1882      2.00000
     18       4.1978      2.00000
     19       4.2108      2.00000
     20       4.2240      2.00000
     21       4.2923      2.00000
     22       9.8464      0.00000
     23       9.8545      0.00000
     24       9.8582      0.00000
     25      16.1633      0.00000
     26      16.1673      0.00000

 k-point     2 :       0.5000    0.0000    0.0000
  band No.  band energies     occupation 
      1      -0.2298      2.00000
      2      -0.2077      2.00000
      3       1.1747      2.00000
      4       1.1821      2.00000
      5       1.5667      2.00000
      6       1.5708      2.00000
      7       1.9312      2.00000
      8       1.9399      2.00000
      9       1.9868      2.00000
     10       1.9980      2.00000
     11       2.9987      2.00000
     12       3.0430      2.00000
     13       3.1339      2.00000
     14       3.1455      2.00000
     15       3.2243      2.00000
     16       3.2547      2.00000
     17       3.3053      2.00000
     18       3.3218      2.00000
     19       3.5964      2.00000
     20       3.6164      2.00000
     21       4.1870      2.00000
     22       4.1877      2.00000
     23      15.0168      0.00000
     24      15.0370      0.00000
     25      15.0416      0.00000
     26      15.0936      0.00000

 k-point     3 :       0.0000    0.5000    0.0000
  band No.  band energies     occupation 
      1      -0.2252      2.00000
      2      -0.2009      2.00000
      3       1.0962      2.00000
      4       1.1987      2.00000
      5       1.5861      2.00000
      6       1.6528      2.00000
      7       1.8807      2.00000
      8       1.9017      2.00000
      9       1.9915      2.00000
     10       2.0083      2.00000
     11       2.9554      2.00000
     12       3.0281      2.00000
     13       3.0847      2.00000
     14       3.1457      2.00000
     15       3.2019      2.00000
     16       3.2588      2.00000
     17       3.2711      2.00000
     18       3.3596      2.00000
     19       3.5187      2.00000
     20       3.6469      2.00000
     21       4.2113      2.00000
     22       4.2831      2.00000
     23      15.0130      0.00000
     24      15.0239      0.00000
     25      15.0253      0.00000
     26      15.0278      0.00000

 k-point     4 :       0.0000    0.0000    0.5000
  band No.  band energies     occupation 
      1      -0.2366      2.00000
      2      -0.2015      2.00000
      3       1.1724      2.00000
      4       1.1768      2.00000
      5       1.5677      2.00000
      6       1.5700      2.00000
      7       1.9451      2.00000
      8       1.9525      2.00000
      9       1.9886      2.00000
     10       1.9968      2.00000
     11       2.9605      2.00000
     12       2.9815      2.00000
     13       3.1802      2.00000
     14       3.2001      2.00000
     15       3.2155      2.00000
     16       3.2351      2.00000
     17       3.2940      2.00000
     18       3.2999      2.00000
     19       3.6221      2.00000
     20       3.6338      2.00000
     21       4.1872      2.00000
     22       4.1880      2.00000
     23      15.0141      0.00000
     24      15.0341      0.00000
     25      15.0355      0.00000
     26      15.0982      0.00000

 k-point     5 :       0.5000    0.5000    0.0000
  band No.  band energies     occupation 
      1       1.2918      2.00000
      2       1.3023      2.00000
      3       1.3460      2.00000
      4       1.3568      2.00000
      5       1.8989      2.00000
      6       1.9123      2.00000
      7       1.9312      2.00000
      8       1.9447      2.00000
      9       2.0047      2.00000
     10       2.0185      2.00000
     11       2.1266      2.00000
     12       2.1326      2.00000
     13       2.8513      2.00000
     14       2.8736      2.00000
     15       2.9265      2.00000
     16       2.9434      2.00000
     17       3.3695      2.00000
     18       3.3725      2.00000
     19       3.4007      2.00000
     20       3.4050      2.00000
     21       6.2077      2.00000
     22       6.2128      2.00000
     23       7.0987      0.00000
     24       7.1024      0.00000
     25      18.8990      0.00000
     26      18.9176      0.00000

 k-point     6 :       0.0000    0.5000    0.5000
  band No.  band energies     occupation 
      1       1.2905      2.00000
      2       1.3027      2.00000
      3       1.3449      2.00000
      4       1.3569      2.00000
      5       1.8979      2.00000
      6       1.9090      2.00000
      7       1.9299      2.00000
      8       1.9420      2.00000
      9       2.0050      2.00000
     10       2.0255      2.00000
     11       2.1212      2.00000
     12       2.1406      2.00000
     13       2.8538      2.00000
     14       2.8712      2.00000
     15       2.9298      2.00000
     16       2.9398      2.00000
     17       3.3704      2.00000
     18       3.3740      2.00000
     19       3.4003      2.00000
     20       3.4043      2.00000
     21       6.2063      2.00000
     22       6.2144      2.00000
     23       7.0962      0.00000
     24       7.1044      0.00000
     25      18.8907      0.00000
     26      18.9112      0.00000

 k-point     7 :       0.5000    0.0000    0.5000
  band No.  band energies     occupation 
      1       1.3171      2.00000
      2       1.3225      2.00000
      3       1.3656      2.00000
      4       1.3745      2.00000
      5       1.8358      2.00000
      6       1.8525      2.00000
      7       1.9446      2.00000
      8       1.9583      2.00000
      9       2.0541      2.00000
     10       2.0649      2.00000
     11       2.0917      2.00000
     12       2.1652      2.00000
     13       2.7798      2.00000
     14       2.8103      2.00000
     15       2.9036      2.00000
     16       2.9241      2.00000
     17       3.2841      2.00000
     18       3.3025      2.00000
     19       3.4227      2.00000
     20       3.4341      2.00000
     21       6.2745      2.00000
     22       7.0300      0.00000
     23       7.0476      0.00000
     24       7.1314      0.00000
     25      18.8862      0.00000
     26      18.9167      0.00000

 k-point     8 :       0.5000    0.5000    0.5000
  band No.  band energies     occupation 
      1       0.4026      2.00000
      2       0.4169      2.00000
      3       0.4541      2.00000
      4       0.4625      2.00000
      5       2.1779      2.00000
      6       2.1874      2.00000
      7       2.2424      2.00000
      8       2.2717      2.00000
      9       2.3279      2.00000
     10       2.3655      2.00000
     11       2.3716      2.00000
     12       2.4130      2.00000
     13       3.8291      2.00000
     14       3.8354      2.00000
     15       3.9245      2.00000
     16       4.0127      2.00000
     17       4.1097      2.00000
     18       4.1720      2.00000
     19       4.1894      2.00000
     20       4.2350      2.00000
     21       6.1559      2.00000
     22       6.1895      2.00000
     23       6.2894      2.00000
     24       6.3164      2.00000
     25      12.3589      0.00000
     26      12.4062      0.00000


--------------------------------------------------------------------------------------------------------


 soft charge-density along one line, spin component            1
         0         1         2         3         4         5         6         7         8         9
 total charge-density along one line
 
 pseudopotential strength for first ion, spin component:            1
  0.958   0.007  -0.001  -0.002   0.000  -7.968  -0.005   0.001
  0.007   0.956  -0.002   0.001   0.003  -0.005  -7.966   0.001
 -0.001  -0.002   0.961   0.005   0.000   0.001   0.001  -7.968
 -0.002   0.001   0.005   0.942   0.009   0.002  -0.001  -0.004
  0.000   0.003   0.000   0.009   0.965  -0.000  -0.002  -0.001
 -7.968  -0.005   0.001   0.002  -0.000  12.734   0.004  -0.001
 -0.005  -7.966   0.001  -0.001  -0.002   0.004  12.733  -0.001
  0.001   0.001  -7.968  -0.004  -0.001  -0.001  -0.001  12.732
  0.002  -0.001  -0.004  -7.959  -0.006  -0.001   0.001   0.002
 -0.000  -0.002  -0.001  -0.006  -7.971   0.000   0.001   0.001
 -0.000   0.001   0.002  -0.003   0.003   0.000  -0.001  -0.001
 -0.001   0.002   0.004  -0.005   0.006   0.000  -0.001  -0.001
  0.002  -0.001   0.000   0.000   0.000  -0.002   0.001  -0.000
  0.000  -0.000  -0.002   0.001  -0.000   0.000  -0.000   0.001
 -0.000   0.000  -0.002  -0.001   0.002   0.000   0.000   0.001
  0.003  -0.001   0.000   0.000   0.000  -0.002   0.000   0.000
  0.000  -0.000  -0.002   0.001  -0.000   0.000  -0.000   0.001
 -0.000   0.000  -0.002  -0.002   0.003  -0.000   0.000   0.002
 total augmentation occupancy for first ion, spin component:            1
  1.936  -0.000  -0.001  -0.000   0.000  -0.019   0.000   0.000  -0.000  -0.000   0.001   0.000  -0.002  -0.000   0.000   0.001
 -0.000   1.936  -0.001   0.000   0.001   0.000  -0.019   0.000  -0.000  -0.001  -0.004  -0.000   0.002   0.000  -0.000  -0.002
 -0.001  -0.001   1.942   0.003  -0.006   0.000   0.000  -0.033  -0.001   0.004  -0.015   0.000  -0.000   0.005  -0.001   0.000
 -0.000   0.000   0.003   1.916   0.004  -0.000  -0.000  -0.001  -0.007  -0.002   0.012  -0.001   0.000   0.012  -0.001  -0.000
  0.000   0.001  -0.006   0.004   1.935  -0.000  -0.001   0.004  -0.002  -0.029  -0.027   0.000  -0.000   0.005  -0.002   0.000
 -0.019   0.000   0.000  -0.000  -0.000   0.018  -0.000  -0.000   0.000  -0.000  -0.001   0.000   0.001   0.000  -0.000  -0.000
  0.000  -0.019   0.000  -0.000  -0.001  -0.000   0.018  -0.000   0.000   0.000   0.002  -0.000  -0.000  -0.000  -0.000   0.000
  0.000   0.000  -0.033  -0.001   0.004  -0.000  -0.000   0.014   0.000  -0.001   0.007  -0.001   0.000  -0.001   0.000  -0.000
 -0.000  -0.000  -0.001  -0.007  -0.002   0.000   0.000   0.000   0.015   0.001  -0.005   0.000  -0.000  -0.004   0.001   0.000
 -0.000  -0.001   0.004  -0.002  -0.029  -0.000   0.000  -0.001   0.001   0.013   0.012  -0.001   0.000  -0.002   0.000  -0.000
  0.001  -0.004  -0.015   0.012  -0.027  -0.001   0.002   0.007  -0.005   0.012   2.425  -0.446   0.001   0.010   0.000  -0.000
  0.000  -0.000   0.000  -0.001   0.000   0.000  -0.000  -0.001   0.000  -0.001  -0.446   0.085  -0.000  -0.001   0.000   0.000
 -0.002   0.002  -0.000   0.000  -0.000   0.001  -0.000   0.000  -0.000   0.000   0.001  -0.000   0.299   0.001  -0.001  -0.032
 -0.000   0.000   0.005   0.012   0.005   0.000  -0.000  -0.001  -0.004  -0.002   0.010  -0.001   0.001   0.291   0.001  -0.000
  0.000  -0.000  -0.001  -0.001  -0.002  -0.000  -0.000   0.000   0.001   0.000   0.000   0.000  -0.001   0.001   0.295   0.000
  0.001  -0.002   0.000  -0.000   0.000  -0.000   0.000  -0.000   0.000  -0.000  -0.000   0.000  -0.032  -0.000   0.000   0.004
 -0.000  -0.000  -0.002   0.000  -0.000   0.000   0.000   0.000   0.000   0.000  -0.001   0.000  -0.000  -0.032  -0.000   0.000
 -0.000  -0.000   0.000  -0.002   0.001   0.000   0.000  -0.000  -0.000  -0.000   0.000  -0.000   0.000  -0.000  -0.032  -0.000


------------------------ aborting loop because EDIFF is reached ----------------------------------------


    FORLOC:  cpu time      0.0003: real time      0.0003
    FORHF :  cpu time      0.6611: real time      0.6635
    FORNL :  cpu time      0.0498: real time      0.0498
    STRESS:  cpu time      0.1528: real time      0.1528
    FORCOR:  cpu time      0.0802: real time      0.0802
    OFIELD:  cpu time      0.0006: real time      0.0006

  FORCE on cell =-STRESS in cart. coord.  units (eV):
  Direction    XX          YY          ZZ          XY          YZ          ZX
  --------------------------------------------------------------------------------------
  Alpha Z   255.57509   255.57509   255.57509
  Ewald   -1488.69397 -1488.69397 -1488.69397    -0.00000     0.00000     0.00000
  Hartree   450.84271   452.22938   450.83215    -0.02204    -0.03012     0.58906
  E(xc)    -177.80974  -177.82417  -177.80956     0.00020     0.00032    -0.00588
  Local     398.09956   394.47972   398.12788     0.05147     0.07231    -1.41183
  n-local   517.11696   519.84407   517.09731    -0.03564    -0.05614     1.07320
  augment   321.53185   322.60043   321.51983    -0.01439    -0.02254     0.45383
  Kinetic   362.36261   363.60904   362.36174    -0.01685    -0.02399     0.47286
  Fock     -638.79182  -640.12702  -638.77334     0.02280     0.03467    -0.68519
  -------------------------------------------------------------------------------------
  Total       0.23326     1.69258     0.23713    -0.01445    -0.02549     0.48605
  in kB       8.16275    59.23058     8.29823    -0.50577    -0.89198    17.00904
  external pressure =       25.23 kB  Pullay stress =        0.00 kB


 VOLUME and BASIS-vectors are now :
 -----------------------------------------------------------------------------
  energy-cutoff  :      450.00
  volume of cell :       45.78
      direct lattice vectors                 reciprocal lattice vectors
     3.577430672  0.000000000  0.000000000     0.279530225 -0.000000000  0.000000000
     0.000000000  3.577430672  0.000000000     0.000000000  0.279530225  0.000000000
     0.000000000  0.000000000  3.577430672    -0.000000000 -0.000000000  0.279530225

  length of vectors
     3.577430672  3.577430672  3.577430672     0.279530225  0.279530225  0.279530225


 FORCES acting on ions:
    Electron-Ion                     Ewald-Force                    Non-Local-Force
 -----------------------------------------------------------------------------------------------
   0.330E-01 0.259E-01 0.558E+00   0.288E-13 0.784E-14 -.887E-14   -.153E+00 -.256E-01 -.501E+00
   -.963E+00 -.111E-01 -.575E+00   0.297E-13 -.174E-13 0.534E-14   0.930E+00 0.807E-02 0.522E+00
   0.964E+00 -.141E-01 -.241E+00   -.308E-13 0.186E-13 0.554E-14   -.930E+00 0.166E-01 0.158E+00
   -.325E-01 -.389E-03 0.259E+00   -.300E-13 -.669E-14 -.324E-14   0.150E+00 -.214E-02 -.179E+00
 -----------------------------------------------------------------------------------------------
   0.172E-02 0.416E-03 0.326E-03   -.227E-14 0.231E-14 -.123E-14   -.288E-02 -.307E-02 0.127E-03
 
 
 POSITION                                       TOTAL-FORCE (eV/Angst)
 -----------------------------------------------------------------------------------
      0.00000      0.00000      0.00000        -0.135129     -0.001304      0.037797
      0.00000      1.78872      1.78872         0.005373     -0.002044     -0.035061
      1.78872      0.00000      1.78872        -0.005885      0.003284     -0.080850
      1.78872      1.78872      0.00000         0.135641      0.000064      0.078114
 -----------------------------------------------------------------------------------
    total drift:                                0.001636      0.001243      0.000240


--------------------------------------------------------------------------------------------------------



  FREE ENERGIE OF THE ION-ELECTRON SYSTEM (eV)
  ---------------------------------------------------
  free  energy   TOTEN  =       -13.87941355 eV

  energy  without entropy=      -13.87941355  energy(sigma->0) =      -13.87941355
 


--------------------------------------------------------------------------------------------------------


    POTLOK:  cpu time      0.1811: real time      0.1811


--------------------------------------------------------------------------------------------------------


 writing wavefunctions
     LOOP+:  cpu time     78.0459: real time     78.7594
    4ORBIT:  cpu time      0.0000: real time      0.0000

 total amount of memory used by VASP MPI-rank0    52192. kBytes
=======================================================================

   base      :      30000. kBytes
   nonlr-proj:       2178. kBytes
   fftplans  :       2284. kBytes
   grid      :       3500. kBytes
   one-center:         62. kBytes
   HF        :         64. kBytes
   wavefun   :      10911. kBytes
   fock_wrk  :       3193. kBytes
 
  
  
 General timing and accounting informations for this job:
 ========================================================
  
                  Total CPU time used (sec):       85.397
                            User time (sec):       81.997
                          System time (sec):        3.400
                         Elapsed time (sec):       87.724
  
                   Maximum memory used (kb):     3356928.
                   Average memory used (kb):          N/A
  
                          Minor page faults:        68234
                          Major page faults:            4
                 Voluntary context switches:         7678
