Ga8 O12                                 
    1.000000000000000     
     0.0000000000000000   12.2804737091000007    0.0000000000000000
     9.1427011490000005    0.0000000000000000    0.0000000000000000
     0.0000000000000000   -2.7682616411000001  -11.3006974810000003
   Ga   O    Cu
    47    72     1
Direct
  0.6593321384862572 -0.0000006650507820  0.1574170796721029
  0.6585238637297937 -0.0000016783882391  0.6561864512517256
  0.6578147935105340  0.3327011253842699  0.1543319914874225
  0.6559492282619239  0.3298192991551060  0.6598769226810272
  0.6578112994785351  0.6672924511150745  0.1543296829652296
  0.6559475929820473  0.6701819565676034  0.6598806753890067
  0.8404746666295068  0.1668210680563179  0.3428674754650820
  0.8411368146636922  0.1663187443157880  0.8437954672566627
  0.8427533589929419  0.4999981755482758  0.3402282011716275
  0.8402646842835666  0.5000012483613239  0.8430241040044485
  0.8404773184877965  0.8331836852385645  0.3428619613779323
  0.8411410873282075  0.8336843827750771  0.8437954125652037
  0.5923756590765228  0.1679511866864462  0.3981667346179307
  0.5897382898794398  0.1662461155101654  0.8980886943541888
  0.5888931620195573  0.5000017320361672  0.8973057027991844
  0.5923638969529766  0.8320344025314915  0.3981620758192091
  0.5897421256103323  0.8337602082249926  0.8980952117826770
  0.9099692324659466 -0.0000037893755311  0.1028157073284391
  0.9077647586498410  0.0000044962756323  0.6024259395512768
  0.9099655649790928  0.3334958323719622  0.1021223439969421
  0.9074311830343613  0.3337925518442527  0.6012738003964457
  0.9099672361744406  0.6665048965821556  0.1021220501440362
  0.9074357608766938  0.6662143717472321  0.6012752538956495
  0.1602860736534321  0.1671875679473628  0.1579160151147199
  0.1575543565682240  0.1667166933660958  0.6564267861633265
  0.1606617807053550  0.5000038903638544  0.1576518037539922
  0.1585365298636329  0.5000032456825988  0.6562068663930766
  0.1602877040748623  0.8328041540797452  0.1579195426995090
  0.1575535923456934  0.8332791983569228  0.6564292674385654
  0.3432558928516656 -0.0000077668327008  0.3433024150605166
  0.3391970489069953 -0.0000028479398713  0.8426547132972291
  0.3465714617336813  0.3352319633942421  0.3442855297461949
  0.3396719759657744  0.3335818818396603  0.8432525206703674
  0.3465913418747990  0.6647757634576869  0.3442832461454406
  0.3396732783241939  0.6664241441100893  0.8432548275796730
  0.0900908060337170  0.0000045710739080  0.3969001177697632
  0.0909242753265239  0.0000023460650291  0.8984397723939899
  0.0928410633915061  0.3331818951421471  0.3970546717099678
  0.0908533387135806  0.3336066038223686  0.8979916169510058
  0.0928431193085776  0.6668153167926414  0.3970492737931632
  0.0908503745884149  0.6663919577118302  0.8979903715104864
  0.4084176870967432  0.1660040946642007  0.1013454909570641
  0.4072818951884535  0.1657407769746103  0.6025482841219342
  0.4104012240007170  0.4999985600917910  0.1031069148782044
  0.4092560884801875  0.5000010522771642  0.6020904119388635
  0.4084180117611106  0.8339965531606497  0.1013473996937080
  0.4072864033963093  0.8342612936561909  0.6025512036517084
  0.9972170146162259  0.1668523561183740  0.1281348616751327
  0.9946643854645344  0.1672420621986156  0.6261594762849578
  0.9973813147111824  0.5000009760444535  0.1279755879347757
  0.9953801702278524  0.5000024133355387  0.6260367798155750
  0.9972208201855207  0.8331438010962259  0.1281364081430427
  0.9946675523630422  0.8327661073425180  0.6261655577618126
  0.5056007650437272  0.0000021386346668  0.3732051951726099
  0.5021852301910746  0.0000006358440427  0.8726741285123994
  0.5083905441079334  0.3340279310956573  0.3740399325254293
  0.5023028893105218  0.3326720067409532  0.8730323355062437
  0.5083432513217756  0.6660208076187202  0.3740136038377543
  0.5023054597732328  0.6673356035022726  0.8730308527094678
  0.6734618477611261  0.1661734196972207  0.2798181059829555
  0.6723782844265678  0.1658405655106397  0.7818782507279579
  0.6672012543284352  0.4999761041906655  0.2695452737763284
  0.6722561306551840  0.5000051750025448  0.7827289199614003
  0.6734629862717212  0.8338281611808330  0.2798185974105171
  0.6723838108401041  0.8341618002258959  0.7818860127650529
  0.8284396650507531  0.0000037482536371  0.2196544004960936
  0.8273128356100679  0.0000016876796672  0.7204020231769127
  0.8276686077626960  0.3344826834066456  0.2190932997310339
  0.8254411150219158  0.3348220775216496  0.7181225575670498
  0.8276638127929382  0.6655092598471724  0.2190909985738314
  0.8254394921681243  0.6651803087067973  0.7181199762223046
  0.8319322563767200  0.0000006591814658  0.4455803916295592
  0.8330412306385869 -0.0000004323618160  0.9464069378158542
  0.8287761012121037  0.3361157389006261  0.4443237708556422
  0.8333790546886525  0.3329882875617514  0.9456035772474266
  0.8287755753922490  0.6638889597787933  0.4443226093810645
  0.8333808390634925  0.6670154644449064  0.9456073423374574
  0.6685955361905719  0.1659889686366717  0.0538088849864445
  0.6687809243243319  0.1664528911898551  0.5556466364544476
  0.6690828058214657  0.4999967513573874  0.0517429076907910
  0.6555090455664269  0.4999878642538901  0.5604368660612931
  0.6686052953161143  0.8340113579315579  0.0538087685570264
  0.6687824296860739  0.8335446422059682  0.5556450387394724
  0.4964932634318131  0.0000000976429053  0.1259193845183808
  0.4958722075868473  0.0000023542309567  0.6280938211979207
  0.4957856258477769  0.3320000606248941  0.1245504574592952
  0.4943581412671278  0.3317170353265719  0.6303045779291895
  0.4957860136000996  0.6679983953804136  0.1245462534068449
  0.4943615735823516  0.6682837734874698  0.6302962008493354
  0.0032414702230359  0.1677245965851879  0.3729244445058791
  0.0035016407337144  0.1668047920012047  0.8724484755075526
  0.0048581073761611  0.4999985712407221  0.3730387424228280
  0.0031092040324105  0.4999982855187032  0.8721035857893453
  0.0032440927687465  0.8322769379165753  0.3729248913469829
  0.0035020544570357  0.8331978357272813  0.8724450907626634
  0.1734830429448656 -0.0000050047318813  0.2813314687634141
  0.1704179832038525  0.0000012917810355  0.7796268865103809
  0.1748244359248116  0.3333153225708311  0.2808991418777580
  0.1714058079709433  0.3335590933639854  0.7799939372786255
  0.1748180737295913  0.6666851850947580  0.2808893539887576
  0.1714046808204277  0.6664412141893989  0.7799950034521509
  0.3288348657687207  0.1666404095382531  0.2198704927730032
  0.3256997771227814  0.1658857459190854  0.7193846636161270
  0.3288648391916933  0.4999952713887661  0.2197727675857223
  0.3268175569346157  0.5000046898122469  0.7193812513914445
  0.3288137808519769  0.8333621590737053  0.2198487610243587
  0.3256955241508562  0.8341059414953058  0.7193812555904626
  0.3335554731672117  0.1672056280263386  0.4452105079913313
  0.3302243622266870  0.1662744363875273  0.9451573989398563
  0.3318856161260673  0.5000022998937365  0.4460981653739460
  0.3318570172790501  0.5000030002262161  0.9462446171259232
  0.3335621995033254  0.8327941095949750  0.4452134153683054
  0.3302248206761557  0.8337260739250962  0.9451587527075058
  0.1679196071737627 -0.0000045126289168  0.0550114136736160
  0.1667141972166311 -0.0000005451766916  0.5536586812591300
  0.1679727739558641  0.3333852351203643  0.0544201176972329
  0.1675923727140901  0.3330021812136301  0.5542096263213162
  0.1679766085421822  0.6666138898217646  0.0544119413381835
  0.1675912200333008  0.6669976341521243  0.5542048846634773
  0.6137405928722112  0.4999588236174334  0.4028846965587162
 
  0.00000000E+00  0.00000000E+00  0.00000000E+00
  0.00000000E+00  0.00000000E+00  0.00000000E+00
  0.00000000E+00  0.00000000E+00  0.00000000E+00
  0.00000000E+00  0.00000000E+00  0.00000000E+00
  0.00000000E+00  0.00000000E+00  0.00000000E+00
  0.00000000E+00  0.00000000E+00  0.00000000E+00
  0.00000000E+00  0.00000000E+00  0.00000000E+00
  0.00000000E+00  0.00000000E+00  0.00000000E+00
  0.00000000E+00  0.00000000E+00  0.00000000E+00
  0.00000000E+00  0.00000000E+00  0.00000000E+00
  0.00000000E+00  0.00000000E+00  0.00000000E+00
  0.00000000E+00  0.00000000E+00  0.00000000E+00
  0.00000000E+00  0.00000000E+00  0.00000000E+00
  0.00000000E+00  0.00000000E+00  0.00000000E+00
  0.00000000E+00  0.00000000E+00  0.00000000E+00
  0.00000000E+00  0.00000000E+00  0.00000000E+00
  0.00000000E+00  0.00000000E+00  0.00000000E+00
  0.00000000E+00  0.00000000E+00  0.00000000E+00
  0.00000000E+00  0.00000000E+00  0.00000000E+00
  0.00000000E+00  0.00000000E+00  0.00000000E+00
  0.00000000E+00  0.00000000E+00  0.00000000E+00
  0.00000000E+00  0.00000000E+00  0.00000000E+00
  0.00000000E+00  0.00000000E+00  0.00000000E+00
  0.00000000E+00  0.00000000E+00  0.00000000E+00
  0.00000000E+00  0.00000000E+00  0.00000000E+00
  0.00000000E+00  0.00000000E+00  0.00000000E+00
  0.00000000E+00  0.00000000E+00  0.00000000E+00
  0.00000000E+00  0.00000000E+00  0.00000000E+00
  0.00000000E+00  0.00000000E+00  0.00000000E+00
  0.00000000E+00  0.00000000E+00  0.00000000E+00
  0.00000000E+00  0.00000000E+00  0.00000000E+00
  0.00000000E+00  0.00000000E+00  0.00000000E+00
  0.00000000E+00  0.00000000E+00  0.00000000E+00
  0.00000000E+00  0.00000000E+00  0.00000000E+00
  0.00000000E+00  0.00000000E+00  0.00000000E+00
  0.00000000E+00  0.00000000E+00  0.00000000E+00
  0.00000000E+00  0.00000000E+00  0.00000000E+00
  0.00000000E+00  0.00000000E+00  0.00000000E+00
  0.00000000E+00  0.00000000E+00  0.00000000E+00
  0.00000000E+00  0.00000000E+00  0.00000000E+00
  0.00000000E+00  0.00000000E+00  0.00000000E+00
  0.00000000E+00  0.00000000E+00  0.00000000E+00
  0.00000000E+00  0.00000000E+00  0.00000000E+00
  0.00000000E+00  0.00000000E+00  0.00000000E+00
  0.00000000E+00  0.00000000E+00  0.00000000E+00
  0.00000000E+00  0.00000000E+00  0.00000000E+00
  0.00000000E+00  0.00000000E+00  0.00000000E+00
  0.00000000E+00  0.00000000E+00  0.00000000E+00
  0.00000000E+00  0.00000000E+00  0.00000000E+00
  0.00000000E+00  0.00000000E+00  0.00000000E+00
  0.00000000E+00  0.00000000E+00  0.00000000E+00
  0.00000000E+00  0.00000000E+00  0.00000000E+00
  0.00000000E+00  0.00000000E+00  0.00000000E+00
  0.00000000E+00  0.00000000E+00  0.00000000E+00
  0.00000000E+00  0.00000000E+00  0.00000000E+00
  0.00000000E+00  0.00000000E+00  0.00000000E+00
  0.00000000E+00  0.00000000E+00  0.00000000E+00
  0.00000000E+00  0.00000000E+00  0.00000000E+00
  0.00000000E+00  0.00000000E+00  0.00000000E+00
  0.00000000E+00  0.00000000E+00  0.00000000E+00
  0.00000000E+00  0.00000000E+00  0.00000000E+00
  0.00000000E+00  0.00000000E+00  0.00000000E+00
  0.00000000E+00  0.00000000E+00  0.00000000E+00
  0.00000000E+00  0.00000000E+00  0.00000000E+00
  0.00000000E+00  0.00000000E+00  0.00000000E+00
  0.00000000E+00  0.00000000E+00  0.00000000E+00
  0.00000000E+00  0.00000000E+00  0.00000000E+00
  0.00000000E+00  0.00000000E+00  0.00000000E+00
  0.00000000E+00  0.00000000E+00  0.00000000E+00
  0.00000000E+00  0.00000000E+00  0.00000000E+00
  0.00000000E+00  0.00000000E+00  0.00000000E+00
  0.00000000E+00  0.00000000E+00  0.00000000E+00
  0.00000000E+00  0.00000000E+00  0.00000000E+00
  0.00000000E+00  0.00000000E+00  0.00000000E+00
  0.00000000E+00  0.00000000E+00  0.00000000E+00
  0.00000000E+00  0.00000000E+00  0.00000000E+00
  0.00000000E+00  0.00000000E+00  0.00000000E+00
  0.00000000E+00  0.00000000E+00  0.00000000E+00
  0.00000000E+00  0.00000000E+00  0.00000000E+00
  0.00000000E+00  0.00000000E+00  0.00000000E+00
  0.00000000E+00  0.00000000E+00  0.00000000E+00
  0.00000000E+00  0.00000000E+00  0.00000000E+00
  0.00000000E+00  0.00000000E+00  0.00000000E+00
  0.00000000E+00  0.00000000E+00  0.00000000E+00
  0.00000000E+00  0.00000000E+00  0.00000000E+00
  0.00000000E+00  0.00000000E+00  0.00000000E+00
  0.00000000E+00  0.00000000E+00  0.00000000E+00
  0.00000000E+00  0.00000000E+00  0.00000000E+00
  0.00000000E+00  0.00000000E+00  0.00000000E+00
  0.00000000E+00  0.00000000E+00  0.00000000E+00
  0.00000000E+00  0.00000000E+00  0.00000000E+00
  0.00000000E+00  0.00000000E+00  0.00000000E+00
  0.00000000E+00  0.00000000E+00  0.00000000E+00
  0.00000000E+00  0.00000000E+00  0.00000000E+00
  0.00000000E+00  0.00000000E+00  0.00000000E+00
  0.00000000E+00  0.00000000E+00  0.00000000E+00
  0.00000000E+00  0.00000000E+00  0.00000000E+00
  0.00000000E+00  0.00000000E+00  0.00000000E+00
  0.00000000E+00  0.00000000E+00  0.00000000E+00
  0.00000000E+00  0.00000000E+00  0.00000000E+00
  0.00000000E+00  0.00000000E+00  0.00000000E+00
  0.00000000E+00  0.00000000E+00  0.00000000E+00
  0.00000000E+00  0.00000000E+00  0.00000000E+00
  0.00000000E+00  0.00000000E+00  0.00000000E+00
  0.00000000E+00  0.00000000E+00  0.00000000E+00
  0.00000000E+00  0.00000000E+00  0.00000000E+00
  0.00000000E+00  0.00000000E+00  0.00000000E+00
  0.00000000E+00  0.00000000E+00  0.00000000E+00
  0.00000000E+00  0.00000000E+00  0.00000000E+00
  0.00000000E+00  0.00000000E+00  0.00000000E+00
  0.00000000E+00  0.00000000E+00  0.00000000E+00
  0.00000000E+00  0.00000000E+00  0.00000000E+00
  0.00000000E+00  0.00000000E+00  0.00000000E+00
  0.00000000E+00  0.00000000E+00  0.00000000E+00
  0.00000000E+00  0.00000000E+00  0.00000000E+00
  0.00000000E+00  0.00000000E+00  0.00000000E+00
  0.00000000E+00  0.00000000E+00  0.00000000E+00
  0.00000000E+00  0.00000000E+00  0.00000000E+00
  0.00000000E+00  0.00000000E+00  0.00000000E+00
  0.00000000E+00  0.00000000E+00  0.00000000E+00
