 running    4 mpi-ranks, on    1 nodes
 distrk:  each k-point on    1 cores,    4 groups
 distr:  one band on    1 cores,    1 groups
 OpenACC runtime initialized ...    4 GPUs detected
 vasp.6.4.2 20Jul23 (build Nov 12 2023 22:16:35) complex                         
 POSCAR found type information on POSCAR GaO Cu
 POSCAR found :  3 types and     120 ions
 scaLAPACK will be used selectively (only on CPU)
 LDA part: xc-table for Pade appr. of Perdew
 POSCAR, INCAR and KPOINTS ok, starting setup
 FFT: planning ... GRIDC
 FFT: planning ... GRID_SOFT
 FFT: planning ... GRID
 WAVECAR not read
 entering main loop
       N       E                     dE             d eps       ncg     rms          rms(c)
DAV:   1     0.219675087965E+05    0.21968E+05   -0.32068E+05 10112   0.282E+03
DAV:   2     0.488559698870E+04   -0.17082E+05   -0.16089E+05 10112   0.817E+02
DAV:   3    -0.123887240077E+03   -0.50095E+04   -0.47038E+04 12680   0.322E+02
DAV:   4    -0.777889055868E+03   -0.65400E+03   -0.63690E+03 12408   0.123E+02
DAV:   5    -0.829039303164E+03   -0.51150E+02   -0.50496E+02 14776   0.372E+01    0.773E+01
RMM:   6    -0.782033350003E+03    0.47006E+02   -0.77288E+02 14863   0.349E+01    0.391E+01
RMM:   7    -0.725654340227E+03    0.56379E+02   -0.26694E+02 13531   0.190E+01    0.259E+01
RMM:   8    -0.710193903239E+03    0.15460E+02   -0.65675E+01 11638   0.130E+01    0.120E+01
RMM:   9    -0.712134379271E+03   -0.19405E+01   -0.98578E+00 14755   0.394E+00    0.117E+01
RMM:  10    -0.711790889019E+03    0.34349E+00   -0.10574E+01 14245   0.348E+00    0.879E+00
RMM:  11    -0.711151224410E+03    0.63966E+00   -0.36714E+00 13416   0.358E+00    0.613E+00
RMM:  12    -0.710828716322E+03    0.32251E+00   -0.12093E+00 13657   0.148E+00    0.343E+00
RMM:  13    -0.710735799799E+03    0.92917E-01   -0.36895E-01 13993   0.641E-01    0.206E+00
RMM:  14    -0.710713986773E+03    0.21813E-01   -0.11981E-01 15409   0.354E-01    0.146E+00
RMM:  15    -0.710725907896E+03   -0.11921E-01   -0.82872E-02 13720   0.322E-01    0.200E+00
RMM:  16    -0.710714760236E+03    0.11148E-01   -0.36231E-02 13542   0.314E-01    0.127E+00
RMM:  17    -0.710719905831E+03   -0.51456E-02   -0.23988E-02 13731   0.219E-01    0.158E+00
RMM:  18    -0.710708465274E+03    0.11441E-01   -0.84542E-03 13459   0.150E-01    0.806E-01
RMM:  19    -0.710707522997E+03    0.94228E-03   -0.46634E-03 11976   0.973E-02    0.105E+00
RMM:  20    -0.710704068615E+03    0.34544E-02   -0.27662E-03 10978   0.835E-02    0.585E-01
RMM:  21    -0.710703884879E+03    0.18374E-03   -0.19382E-03 10823   0.709E-02    0.807E-01
RMM:  22    -0.710701762219E+03    0.21227E-02   -0.12797E-03 10511   0.593E-02    0.402E-01
RMM:  23    -0.710701678848E+03    0.83370E-04   -0.88030E-04 10323   0.495E-02    0.619E-01
RMM:  24    -0.710700518759E+03    0.11601E-02   -0.60762E-04 10216   0.415E-02    0.284E-01
RMM:  25    -0.710700508290E+03    0.10469E-04   -0.44215E-04  9988   0.359E-02    0.478E-01
RMM:  26    -0.710699821732E+03    0.68656E-03   -0.30520E-04  9474   0.298E-02    0.200E-01
RMM:  27    -0.710699837940E+03   -0.16208E-04   -0.22799E-04  9089   0.261E-02    0.368E-01
RMM:  28    -0.710699439160E+03    0.39878E-03   -0.15661E-04  8342   0.216E-02    0.143E-01
RMM:  29    -0.710699462759E+03   -0.23599E-04   -0.11952E-04  7964   0.192E-02    0.285E-01
RMM:  30    -0.710699233882E+03    0.22888E-03   -0.81485E-05  7177   0.158E-02    0.107E-01
RMM:  31    -0.710699252904E+03   -0.19022E-04   -0.64284E-05  6898   0.142E-02    0.220E-01
RMM:  32    -0.710699122987E+03    0.12992E-03   -0.42961E-05  6327   0.116E-02    0.860E-02
RMM:  33    -0.710699132186E+03   -0.91987E-05   -0.35545E-05  6200   0.109E-02
   1 F= -.71069913E+03 E0= -.71067361E+03  d E =-.710699E+03
 curvature:   0.00 expect dE= 0.000E+00 dE for cont linesearch  0.000E+00
 trial: gam= 0.00000 g(F)=  0.241E+00 g(S)=  0.000E+00 ort = 0.000E+00 (trialstep = 0.100E+01)
 search vector abs. value=  0.241E+00
 bond charge predicted
       N       E                     dE             d eps       ncg     rms          rms(c)
DAV:   1    -0.710576320883E+03    0.12280E+00   -0.60528E+01 11424   0.101E+01    0.171E+00
RMM:   2    -0.710824880947E+03   -0.24856E+00   -0.21785E+00 13400   0.280E+00    0.297E+00
RMM:   3    -0.710846456823E+03   -0.21576E-01   -0.49423E-01 14903   0.120E+00    0.180E+00
RMM:   4    -0.710834438809E+03    0.12018E-01   -0.72013E-02 15006   0.465E-01    0.159E+00
RMM:   5    -0.710817023515E+03    0.17415E-01   -0.17766E-02 14528   0.224E-01    0.878E-01
RMM:   6    -0.710812087039E+03    0.49365E-02   -0.11205E-02 13221   0.160E-01    0.923E-01
RMM:   7    -0.710805826879E+03    0.62602E-02   -0.92741E-03 12815   0.139E-01    0.333E-01
RMM:   8    -0.710805390318E+03    0.43656E-03   -0.63753E-03 13439   0.115E-01    0.616E-01
RMM:   9    -0.710803606421E+03    0.17839E-02   -0.12574E-03 11915   0.616E-02    0.166E-01
RMM:  10    -0.710803975417E+03   -0.36900E-03   -0.57340E-04 10131   0.351E-02    0.423E-01
RMM:  11    -0.710803273163E+03    0.70225E-03   -0.37187E-04 10642   0.284E-02    0.157E-01
RMM:  12    -0.710803339855E+03   -0.66691E-04   -0.17746E-04  9184   0.221E-02    0.252E-01
RMM:  13    -0.710803164818E+03    0.17504E-03   -0.87224E-05  8260   0.134E-02    0.146E-01
RMM:  14    -0.710803149686E+03    0.15132E-04   -0.61238E-05  7606   0.127E-02    0.146E-01
RMM:  15    -0.710803122863E+03    0.26823E-04   -0.29266E-05  6758   0.858E-03    0.115E-01
RMM:  16    -0.710803095251E+03    0.27612E-04   -0.26859E-05  6640   0.890E-03    0.721E-02
RMM:  17    -0.710803096368E+03   -0.11169E-05   -0.14957E-05  6158   0.715E-03
   2 F= -.71080310E+03 E0= -.71077918E+03  d E =-.103964E+00
 trial-energy change:   -0.103964  1 .order   -0.105946   -0.241217    0.029324
 step:   0.8872(harm=  0.8916)  dis= 0.03899  next Energy=  -710.804753 (dE=-0.106E+00)
 bond charge predicted
       N       E                     dE             d eps       ncg     rms          rms(c)
DAV:   1    -0.710801961795E+03    0.11335E-02   -0.76815E-01 11352   0.114E+00    0.237E-01
RMM:   2    -0.710805893812E+03   -0.39320E-02   -0.27659E-02 13344   0.312E-01    0.453E-01
RMM:   3    -0.710805472167E+03    0.42165E-03   -0.58181E-03 14868   0.132E-01    0.276E-01
RMM:   4    -0.710805307881E+03    0.16429E-03   -0.87128E-04 12987   0.548E-02    0.241E-01
RMM:   5    -0.710805060107E+03    0.24777E-03   -0.29897E-04 10109   0.338E-02    0.162E-01
RMM:   6    -0.710804925601E+03    0.13451E-03   -0.13271E-04  8039   0.220E-02    0.155E-01
RMM:   7    -0.710804843245E+03    0.82355E-04   -0.13159E-04  9085   0.175E-02    0.122E-01
RMM:   8    -0.710804779296E+03    0.63949E-04   -0.15373E-04  9186   0.198E-02    0.990E-02
RMM:   9    -0.710804747391E+03    0.31905E-04   -0.41878E-05  7273   0.120E-02    0.752E-02
RMM:  10    -0.710804731211E+03    0.16180E-04   -0.17797E-05  6328   0.816E-03    0.715E-02
RMM:  11    -0.710804714264E+03    0.16947E-04   -0.13612E-05  6194   0.706E-03    0.540E-02
RMM:  12    -0.710804705711E+03    0.85533E-05   -0.83798E-06  5708   0.572E-03
   3 F= -.71080471E+03 E0= -.71078069E+03  d E =-.105574E+00
 curvature:  -0.45 expect dE=-0.331E-01 dE for cont linesearch -0.362E-05
 trial: gam= 0.30231 g(F)=  0.743E-01 g(S)=  0.000E+00 ort = 0.140E-02 (trialstep = 0.977E+00)
 search vector abs. value=  0.972E-01
 bond charge predicted
       N       E                     dE             d eps       ncg     rms          rms(c)
DAV:   1    -0.710765142507E+03    0.39572E-01   -0.22944E+01 11304   0.656E+00    0.910E-01
RMM:   2    -0.710843309811E+03   -0.78167E-01   -0.75218E-01 13317   0.173E+00    0.127E+00
RMM:   3    -0.710859532254E+03   -0.16222E-01   -0.17041E-01 15170   0.721E-01    0.102E+00
RMM:   4    -0.710856332665E+03    0.31996E-02   -0.19687E-02 15143   0.259E-01    0.819E-01
RMM:   5    -0.710853556590E+03    0.27761E-02   -0.55564E-03 14399   0.128E-01    0.582E-01
RMM:   6    -0.710851889754E+03    0.16668E-02   -0.38494E-03 13100   0.933E-02    0.621E-01
RMM:   7    -0.710850590397E+03    0.12994E-02   -0.33766E-03 12913   0.883E-02    0.382E-01
RMM:   8    -0.710850290344E+03    0.30005E-03   -0.95927E-04 11347   0.557E-02    0.454E-01
RMM:   9    -0.710849506526E+03    0.78382E-03   -0.52672E-04  9305   0.394E-02    0.239E-01
RMM:  10    -0.710849404412E+03    0.10211E-03   -0.33432E-04  9811   0.319E-02    0.340E-01
RMM:  11    -0.710848985864E+03    0.41855E-03   -0.22390E-04  9251   0.261E-02    0.166E-01
RMM:  12    -0.710848932158E+03    0.53706E-04   -0.14646E-04  8595   0.219E-02    0.243E-01
RMM:  13    -0.710848718453E+03    0.21370E-03   -0.88653E-05  7581   0.168E-02    0.118E-01
RMM:  14    -0.710848694147E+03    0.24307E-04   -0.63238E-05  7212   0.145E-02    0.174E-01
RMM:  15    -0.710848586919E+03    0.10723E-03   -0.39186E-05  6634   0.113E-02    0.846E-02
RMM:  16    -0.710848575202E+03    0.11717E-04   -0.29530E-05  6311   0.101E-02    0.125E-01
RMM:  17    -0.710848522462E+03    0.52740E-04   -0.17855E-05  5669   0.788E-03    0.630E-02
RMM:  18    -0.710848515266E+03    0.71955E-05   -0.13947E-05  5408   0.712E-03
   4 F= -.71084852E+03 E0= -.71082474E+03  d E =-.438096E-01
 trial-energy change:   -0.043810  1 .order   -0.043987   -0.073059   -0.014916
 step:   1.2342(harm=  1.2282)  dis= 0.03057  next Energy=  -710.850471 (dE=-0.458E-01)
 bond charge predicted
       N       E                     dE             d eps       ncg     rms          rms(c)
DAV:   1    -0.710844923657E+03    0.35988E-02   -0.15844E+00 11688   0.172E+00    0.234E-01
RMM:   2    -0.710850333402E+03   -0.54097E-02   -0.50627E-02 13221   0.449E-01    0.371E-01
RMM:   3    -0.710851245245E+03   -0.91184E-03   -0.11381E-02 14953   0.188E-01    0.276E-01
RMM:   4    -0.710851153694E+03    0.91551E-04   -0.14342E-03 14504   0.692E-02    0.259E-01
RMM:   5    -0.710850934754E+03    0.21894E-03   -0.41722E-04 11331   0.366E-02    0.165E-01
RMM:   6    -0.710850763280E+03    0.17147E-03   -0.30976E-04 10420   0.291E-02    0.171E-01
RMM:   7    -0.710850638142E+03    0.12514E-03   -0.25744E-04 10210   0.238E-02    0.981E-02
RMM:   8    -0.710850620164E+03    0.17978E-04   -0.72106E-05  7748   0.166E-02    0.128E-01
RMM:   9    -0.710850553856E+03    0.66308E-04   -0.37525E-05  6855   0.112E-02    0.613E-02
RMM:  10    -0.710850552030E+03    0.18263E-05   -0.23852E-05  6500   0.913E-03
   5 F= -.71085055E+03 E0= -.71082695E+03  d E =-.458463E-01
 curvature:  -0.80 expect dE=-0.388E-01 dE for cont linesearch -0.245E-06
 trial: gam= 0.67667 g(F)=  0.486E-01 g(S)=  0.000E+00 ort =-0.173E-03 (trialstep = 0.103E+01)
 search vector abs. value=  0.928E-01
 bond charge predicted
       N       E                     dE             d eps       ncg     rms          rms(c)
DAV:   1    -0.710803868453E+03    0.46685E-01   -0.25028E+01 10968   0.671E+00    0.123E+00
RMM:   2    -0.710898030807E+03   -0.94162E-01   -0.74380E-01 12563   0.171E+00    0.217E+00
RMM:   3    -0.710908394450E+03   -0.10364E-01   -0.20800E-01 14630   0.815E-01    0.159E+00
RMM:   4    -0.710901017245E+03    0.73772E-02   -0.35234E-02 14762   0.339E-01    0.112E+00
RMM:   5    -0.710892236070E+03    0.87812E-02   -0.94850E-03 14535   0.157E-01    0.725E-01
RMM:   6    -0.710888274227E+03    0.39618E-02   -0.43350E-03 13098   0.102E-01    0.549E-01
RMM:   7    -0.710886359421E+03    0.19148E-02   -0.28196E-03 12549   0.838E-02    0.430E-01
RMM:   8    -0.710884966393E+03    0.13930E-02   -0.23760E-03 13003   0.683E-02    0.241E-01
RMM:   9    -0.710884815452E+03    0.15094E-03   -0.62105E-04 10741   0.425E-02    0.294E-01
RMM:  10    -0.710884399348E+03    0.41610E-03   -0.30921E-04  9853   0.280E-02    0.147E-01
RMM:  11    -0.710884283027E+03    0.11632E-03   -0.18939E-04  9494   0.217E-02    0.171E-01
RMM:  12    -0.710884159277E+03    0.12375E-03   -0.98679E-05  8194   0.159E-02    0.101E-01
RMM:  13    -0.710884122106E+03    0.37171E-04   -0.59611E-05  7455   0.129E-02    0.108E-01
RMM:  14    -0.710884076297E+03    0.45808E-04   -0.34773E-05  6807   0.100E-02    0.712E-02
RMM:  15    -0.710884061077E+03    0.15220E-04   -0.22333E-05  6455   0.811E-03    0.752E-02
RMM:  16    -0.710884040367E+03    0.20710E-04   -0.13937E-05  5806   0.657E-03    0.513E-02
RMM:  17    -0.710884031882E+03    0.84849E-05   -0.90576E-06  5128   0.542E-03
   6 F= -.71088403E+03 E0= -.71086100E+03  d E =-.334799E-01
 trial-energy change:   -0.033480  1 .order   -0.033309   -0.049834   -0.016783
 step:   1.5282(harm=  1.5512)  dis= 0.02980  next Energy=  -710.888125 (dE=-0.376E-01)
 bond charge predicted
       N       E                     dE             d eps       ncg     rms          rms(c)
DAV:   1    -0.710869741595E+03    0.14299E-01   -0.58912E+00 11104   0.326E+00    0.606E-01
RMM:   2    -0.710891795573E+03   -0.22054E-01   -0.17143E-01 12472   0.826E-01    0.108E+00
RMM:   3    -0.710894926292E+03   -0.31307E-02   -0.49444E-02 14625   0.394E-01    0.852E-01
RMM:   4    -0.710893042942E+03    0.18833E-02   -0.83494E-03 14556   0.168E-01    0.614E-01
RMM:   5    -0.710890756510E+03    0.22864E-02   -0.23870E-03 13620   0.807E-02    0.399E-01
RMM:   6    -0.710889520276E+03    0.12362E-02   -0.11669E-03 11152   0.550E-02    0.279E-01
RMM:   7    -0.710888960972E+03    0.55930E-03   -0.80181E-04 10722   0.456E-02    0.226E-01
RMM:   8    -0.710888589075E+03    0.37190E-03   -0.54183E-04 11049   0.345E-02    0.110E-01
RMM:   9    -0.710888485432E+03    0.10364E-03   -0.13074E-04  8610   0.219E-02    0.118E-01
RMM:  10    -0.710888413337E+03    0.72094E-04   -0.68240E-05  8048   0.120E-02    0.680E-02
RMM:  11    -0.710888381605E+03    0.31732E-04   -0.36744E-05  7079   0.105E-02    0.530E-02
RMM:  12    -0.710888360569E+03    0.21036E-04   -0.15820E-05  6390   0.654E-03    0.302E-02
RMM:  13    -0.710888352927E+03    0.76416E-05   -0.84936E-06  6092   0.518E-03
   7 F= -.71088835E+03 E0= -.71086578E+03  d E =-.378009E-01
 curvature:  -1.48 expect dE=-0.517E-01 dE for cont linesearch -0.184E-04
 trial: gam= 0.70918 g(F)=  0.348E-01 g(S)=  0.000E+00 ort = 0.107E-02 (trialstep = 0.113E+01)
 search vector abs. value=  0.831E-01
 bond charge predicted
       N       E                     dE             d eps       ncg     rms          rms(c)
DAV:   1    -0.710817789017E+03    0.70572E-01   -0.26162E+01 11016   0.712E+00    0.118E+00
RMM:   2    -0.710918098608E+03   -0.10031E+00   -0.83737E-01 12968   0.185E+00    0.204E+00
RMM:   3    -0.710930862843E+03   -0.12764E-01   -0.21738E-01 14575   0.875E-01    0.151E+00
RMM:   4    -0.710921339822E+03    0.95230E-02   -0.38679E-02 14898   0.350E-01    0.949E-01
RMM:   5    -0.710914702960E+03    0.66369E-02   -0.93136E-03 14849   0.152E-01    0.678E-01
RMM:   6    -0.710910718970E+03    0.39840E-02   -0.38270E-03 13726   0.943E-02    0.408E-01
RMM:   7    -0.710909198962E+03    0.15200E-02   -0.34384E-03 13096   0.865E-02    0.375E-01
RMM:   8    -0.710908087189E+03    0.11118E-02   -0.19811E-03 12982   0.622E-02    0.129E-01
RMM:   9    -0.710907944529E+03    0.14266E-03   -0.46244E-04 10169   0.385E-02    0.210E-01
RMM:  10    -0.710907695622E+03    0.24891E-03   -0.24247E-04 10029   0.207E-02    0.651E-02
RMM:  11    -0.710907669141E+03    0.26481E-04   -0.13633E-04  9266   0.172E-02    0.105E-01
RMM:  12    -0.710907617649E+03    0.51492E-04   -0.64976E-05  7845   0.111E-02    0.436E-02
RMM:  13    -0.710907609389E+03    0.82602E-05   -0.38156E-05  7091   0.924E-03
   8 F= -.71090761E+03 E0= -.71088621E+03  d E =-.192565E-01
 trial-energy change:   -0.019256  1 .order   -0.019031   -0.040182    0.002121
 step:   1.0738(harm=  1.0721)  dis= 0.01794  next Energy=  -710.907661 (dE=-0.193E-01)
 bond charge predicted
       N       E                     dE             d eps       ncg     rms          rms(c)
DAV:   1    -0.710907428970E+03    0.18868E-03   -0.61809E-02 11992   0.346E-01    0.605E-02
RMM:   2    -0.710907679755E+03   -0.25079E-03   -0.19589E-03 12902   0.895E-02    0.117E-01
RMM:   3    -0.710907696560E+03   -0.16805E-04   -0.48397E-04 13073   0.406E-02    0.787E-02
RMM:   4    -0.710907694111E+03    0.24489E-05   -0.91762E-05  8340   0.213E-02
   9 F= -.71090769E+03 E0= -.71088629E+03  d E =-.193412E-01
 curvature:  -1.25 expect dE=-0.278E-01 dE for cont linesearch -0.644E-04
 trial: gam= 0.66563 g(F)=  0.222E-01 g(S)=  0.000E+00 ort = 0.207E-02 (trialstep = 0.112E+01)
 search vector abs. value=  0.618E-01
 bond charge predicted
       N       E                     dE             d eps       ncg     rms          rms(c)
DAV:   1    -0.710858061624E+03    0.49635E-01   -0.19170E+01 10976   0.605E+00    0.963E-01
RMM:   2    -0.710926313294E+03   -0.68252E-01   -0.57332E-01 12656   0.156E+00    0.166E+00
RMM:   3    -0.710936855566E+03   -0.10542E-01   -0.16463E-01 14454   0.768E-01    0.122E+00
RMM:   4    -0.710930446539E+03    0.64090E-02   -0.28881E-02 14959   0.301E-01    0.742E-01
RMM:   5    -0.710926506855E+03    0.39397E-02   -0.69848E-03 14976   0.128E-01    0.536E-01
RMM:   6    -0.710923933522E+03    0.25733E-02   -0.25749E-03 12971   0.765E-02    0.313E-01
RMM:   7    -0.710923068623E+03    0.86490E-03   -0.21605E-03 12886   0.684E-02    0.309E-01
RMM:   8    -0.710922456127E+03    0.61250E-03   -0.10901E-03 12271   0.462E-02    0.124E-01
RMM:   9    -0.710922416718E+03    0.39410E-04   -0.29175E-04  9562   0.292E-02    0.192E-01
RMM:  10    -0.710922218641E+03    0.19808E-03   -0.16065E-04  9485   0.176E-02    0.712E-02
RMM:  11    -0.710922192035E+03    0.26606E-04   -0.96850E-05  8754   0.147E-02    0.110E-01
RMM:  12    -0.710922141277E+03    0.50758E-04   -0.44721E-05  7263   0.104E-02    0.506E-02
RMM:  13    -0.710922134976E+03    0.63003E-05   -0.27341E-05  6636   0.859E-03
  10 F= -.71092213E+03 E0= -.71090173E+03  d E =-.144409E-01
 trial-energy change:   -0.014441  1 .order   -0.015116   -0.026392   -0.003841
 step:   1.3614(harm=  1.3081)  dis= 0.02327  next Energy=  -710.922547 (dE=-0.149E-01)
 bond charge predicted
       N       E                     dE             d eps       ncg     rms          rms(c)
DAV:   1    -0.710919529763E+03    0.26115E-02   -0.91280E-01 11576   0.132E+00    0.227E-01
RMM:   2    -0.710922878032E+03   -0.33483E-02   -0.26854E-02 12587   0.337E-01    0.388E-01
RMM:   3    -0.710923383693E+03   -0.50566E-03   -0.76950E-03 14357   0.166E-01    0.319E-01
RMM:   4    -0.710923029407E+03    0.35429E-03   -0.14860E-03 14015   0.679E-02    0.196E-01
RMM:   5    -0.710922760913E+03    0.26849E-03   -0.37940E-04 10844   0.322E-02    0.135E-01
RMM:   6    -0.710922601614E+03    0.15930E-03   -0.15635E-04  8683   0.209E-02    0.814E-02
RMM:   7    -0.710922544042E+03    0.57571E-04   -0.14369E-04  9962   0.176E-02    0.773E-02
RMM:   8    -0.710922510716E+03    0.33327E-04   -0.43340E-05  7516   0.114E-02    0.397E-02
RMM:   9    -0.710922501308E+03    0.94074E-05   -0.17058E-05  6335   0.749E-03
  11 F= -.71092250E+03 E0= -.71090245E+03  d E =-.148072E-01
 curvature:  -1.58 expect dE=-0.247E-01 dE for cont linesearch -0.113E-06
 trial: gam= 0.68825 g(F)=  0.156E-01 g(S)=  0.000E+00 ort =-0.665E-04 (trialstep = 0.117E+01)
 search vector abs. value=  0.448E-01
 bond charge predicted
       N       E                     dE             d eps       ncg     rms          rms(c)
DAV:   1    -0.710882278053E+03    0.40233E-01   -0.15307E+01 10896   0.535E+00    0.923E-01
RMM:   2    -0.710938732220E+03   -0.56454E-01   -0.45515E-01 12689   0.139E+00    0.166E+00
RMM:   3    -0.710944235500E+03   -0.55033E-02   -0.12871E-01 14254   0.691E-01    0.111E+00
RMM:   4    -0.710937055420E+03    0.71801E-02   -0.25929E-02 14935   0.280E-01    0.624E-01
RMM:   5    -0.710933683952E+03    0.33715E-02   -0.60679E-03 14862   0.117E-01    0.448E-01
RMM:   6    -0.710931721408E+03    0.19625E-02   -0.21710E-03 12743   0.655E-02    0.232E-01
RMM:   7    -0.710931120009E+03    0.60140E-03   -0.18213E-03 12938   0.607E-02    0.230E-01
RMM:   8    -0.710930821569E+03    0.29844E-03   -0.70688E-04 11307   0.370E-02    0.106E-01
RMM:   9    -0.710930792215E+03    0.29354E-04   -0.21600E-04  9263   0.239E-02    0.137E-01
RMM:  10    -0.710930685187E+03    0.10703E-03   -0.12245E-04  9097   0.149E-02    0.607E-02
RMM:  11    -0.710930662456E+03    0.22731E-04   -0.74124E-05  8109   0.122E-02    0.743E-02
RMM:  12    -0.710930636516E+03    0.25940E-04   -0.31551E-05  6873   0.863E-03    0.392E-02
RMM:  13    -0.710930631288E+03    0.52276E-05   -0.18188E-05  6383   0.680E-03
  12 F= -.71093063E+03 E0= -.71091196E+03  d E =-.812998E-02
 trial-energy change:   -0.008130  1 .order   -0.008206   -0.018181    0.001770
 step:   1.0608(harm=  1.0630)  dis= 0.01867  next Energy=  -710.930711 (dE=-0.821E-02)
 bond charge predicted
       N       E                     dE             d eps       ncg     rms          rms(c)
DAV:   1    -0.710930290483E+03    0.34603E-03   -0.12571E-01 11584   0.484E-01    0.841E-02
RMM:   2    -0.710930754117E+03   -0.46363E-03   -0.36586E-03 12684   0.123E-01    0.148E-01
RMM:   3    -0.710930775138E+03   -0.21021E-04   -0.96848E-04 14615   0.557E-02    0.895E-02
RMM:   4    -0.710930759751E+03    0.15387E-04   -0.14741E-04  9960   0.247E-02    0.888E-02
RMM:   5    -0.710930711897E+03    0.47854E-04   -0.42709E-05  7042   0.141E-02    0.426E-02
RMM:   6    -0.710930699671E+03    0.12226E-04   -0.22080E-05  6497   0.905E-03    0.513E-02
RMM:   7    -0.710930685591E+03    0.14080E-04   -0.20442E-05  6397   0.827E-03    0.287E-02
RMM:   8    -0.710930683360E+03    0.22302E-05   -0.92529E-06  5999   0.630E-03
  13 F= -.71093068E+03 E0= -.71091185E+03  d E =-.818205E-02
 curvature:  -1.53 expect dE=-0.109E-01 dE for cont linesearch -0.302E-06
 trial: gam= 0.41437 g(F)=  0.712E-02 g(S)=  0.000E+00 ort =-0.941E-04 (trialstep = 0.115E+01)
 search vector abs. value=  0.147E-01
 bond charge predicted
       N       E                     dE             d eps       ncg     rms          rms(c)
DAV:   1    -0.710920593749E+03    0.10092E-01   -0.47332E+00 11056   0.302E+00    0.496E-01
RMM:   2    -0.710937103451E+03   -0.16510E-01   -0.13858E-01 12894   0.786E-01    0.839E-01
RMM:   3    -0.710938999293E+03   -0.18958E-02   -0.38151E-02 14256   0.380E-01    0.602E-01
RMM:   4    -0.710937195639E+03    0.18037E-02   -0.76137E-03 14761   0.156E-01    0.366E-01
RMM:   5    -0.710936039943E+03    0.11557E-02   -0.17564E-03 14224   0.652E-02    0.224E-01
RMM:   6    -0.710935441553E+03    0.59839E-03   -0.69508E-04 12166   0.380E-02    0.122E-01
RMM:   7    -0.710935235570E+03    0.20598E-03   -0.61334E-04 11590   0.357E-02    0.685E-02
RMM:   8    -0.710935192434E+03    0.43136E-04   -0.14051E-04  9428   0.194E-02    0.498E-02
RMM:   9    -0.710935170912E+03    0.21522E-04   -0.48631E-05  7674   0.105E-02    0.247E-02
RMM:  10    -0.710935165458E+03    0.54540E-05   -0.20952E-05  6634   0.655E-03
  14 F= -.71093517E+03 E0= -.71091731E+03  d E =-.448210E-02
 trial-energy change:   -0.004482  1 .order   -0.004263   -0.008113   -0.000413
 step:   1.1974(harm=  1.2067)  dis= 0.01346  next Energy=  -710.935175 (dE=-0.449E-02)
 bond charge predicted
       N       E                     dE             d eps       ncg     rms          rms(c)
DAV:   1    -0.710935159912E+03    0.11000E-04   -0.10040E-02 12160   0.139E-01    0.245E-02
RMM:   2    -0.710935202436E+03   -0.42523E-04   -0.32558E-04 12635   0.371E-02    0.490E-02
RMM:   3    -0.710935199250E+03    0.31861E-05   -0.81303E-05  9212   0.170E-02
  15 F= -.71093520E+03 E0= -.71091760E+03  d E =-.451589E-02
 curvature:  -1.23 expect dE=-0.533E-02 dE for cont linesearch -0.218E-06
 trial: gam= 0.60615 g(F)=  0.435E-02 g(S)=  0.000E+00 ort = 0.512E-04 (trialstep = 0.116E+01)
 search vector abs. value=  0.982E-02
 bond charge predicted
       N       E                     dE             d eps       ncg     rms          rms(c)
DAV:   1    -0.710929495649E+03    0.57068E-02   -0.31768E+00 11336   0.247E+00    0.408E-01
RMM:   2    -0.710940113513E+03   -0.10618E-01   -0.88388E-02 12720   0.634E-01    0.668E-01
RMM:   3    -0.710941299612E+03   -0.11861E-02   -0.25594E-02 14291   0.311E-01    0.492E-01
RMM:   4    -0.710940057796E+03    0.12418E-02   -0.52912E-03 14724   0.128E-01    0.269E-01
RMM:   5    -0.710939367462E+03    0.69033E-03   -0.12443E-03 13372   0.529E-02    0.176E-01
RMM:   6    -0.710939046641E+03    0.32082E-03   -0.44776E-04 10879   0.306E-02    0.100E-01
RMM:   7    -0.710938947914E+03    0.98727E-04   -0.36903E-04 11021   0.269E-02    0.699E-02
RMM:   8    -0.710938926447E+03    0.21467E-04   -0.82360E-05  8539   0.154E-02    0.553E-02
RMM:   9    -0.710938908915E+03    0.17532E-04   -0.32274E-05  6963   0.916E-03    0.365E-02
RMM:  10    -0.710938900953E+03    0.79620E-05   -0.20113E-05  6525   0.695E-03
  16 F= -.71093890E+03 E0= -.71092211E+03  d E =-.370170E-02
 trial-energy change:   -0.003702  1 .order   -0.003395   -0.005058   -0.001732
 step:   1.5054(harm=  1.7574)  dis= 0.01436  next Energy=  -710.939171 (dE=-0.397E-02)
 bond charge predicted
       N       E                     dE             d eps       ncg     rms          rms(c)
DAV:   1    -0.710938517182E+03    0.39173E-03   -0.29190E-01 11992   0.749E-01    0.125E-01
RMM:   2    -0.710939496756E+03   -0.97957E-03   -0.80664E-03 12678   0.192E-01    0.202E-01
RMM:   3    -0.710939582531E+03   -0.85775E-04   -0.23282E-03 14246   0.931E-02    0.148E-01
RMM:   4    -0.710939483335E+03    0.99196E-04   -0.46522E-04 12058   0.396E-02    0.908E-02
RMM:   5    -0.710939413256E+03    0.70079E-04   -0.12663E-04  8754   0.202E-02    0.519E-02
RMM:   6    -0.710939387171E+03    0.26085E-04   -0.42191E-05  7266   0.110E-02    0.413E-02
RMM:   7    -0.710939376594E+03    0.10577E-04   -0.53374E-05  8245   0.103E-02    0.307E-02
RMM:   8    -0.710939371926E+03    0.46673E-05   -0.10064E-05  6089   0.664E-03
  17 F= -.71093937E+03 E0= -.71092291E+03  d E =-.417268E-02
 curvature:  -1.63 expect dE=-0.588E-02 dE for cont linesearch -0.148E-03
 ZBRENT: increasing intervall
 opt :   2.2046  next Energy=  -710.939645 (dE=-0.445E-02)
 bond charge predicted
       N       E                     dE             d eps       ncg     rms          rms(c)
DAV:   1    -0.710936006581E+03    0.33700E-02   -0.11622E+00 11408   0.150E+00    0.250E-01
RMM:   2    -0.710939918510E+03   -0.39119E-02   -0.32295E-02 12734   0.383E-01    0.402E-01
RMM:   3    -0.710940256349E+03   -0.33784E-03   -0.92371E-03 14212   0.188E-01    0.291E-01
RMM:   4    -0.710939820774E+03    0.43558E-03   -0.19738E-03 14381   0.784E-02    0.158E-01
RMM:   5    -0.710939574988E+03    0.24579E-03   -0.46443E-04 11554   0.329E-02    0.966E-02
RMM:   6    -0.710939476481E+03    0.98506E-04   -0.15897E-04  9474   0.188E-02    0.613E-02
RMM:   7    -0.710939444720E+03    0.31761E-04   -0.13931E-04 10127   0.164E-02    0.405E-02
RMM:   8    -0.710939437707E+03    0.70134E-05   -0.29737E-05  6904   0.100E-02
  18 F= -.71093944E+03 E0= -.71092358E+03  d E =-.423846E-02
 curvature:  -3.01 expect dE=-0.240E-01 dE for cont linesearch -0.173E-03
 trial: gam= 2.10814 g(F)=  0.798E-02 g(S)=  0.000E+00 ort =-0.752E-03 (trialstep = 0.277E+00)
 search vector abs. value=  0.485E-01
 bond charge predicted
       N       E                     dE             d eps       ncg     rms          rms(c)
DAV:   1    -0.710938541985E+03    0.90274E-03   -0.89580E-01 11608   0.130E+00    0.209E-01
RMM:   2    -0.710941227939E+03   -0.26860E-02   -0.22546E-02 12404   0.321E-01    0.325E-01
RMM:   3    -0.710941517897E+03   -0.28996E-03   -0.69884E-03 14315   0.158E-01    0.233E-01
RMM:   4    -0.710941238754E+03    0.27914E-03   -0.14264E-03 13871   0.673E-02    0.127E-01
RMM:   5    -0.710941084587E+03    0.15417E-03   -0.35880E-04 10810   0.290E-02    0.737E-02
RMM:   6    -0.710941021871E+03    0.62716E-04   -0.12927E-04  9417   0.167E-02    0.422E-02
RMM:   7    -0.710941008360E+03    0.13511E-04   -0.71046E-05  8410   0.126E-02    0.244E-02
RMM:   8    -0.710941005975E+03    0.23853E-05   -0.18794E-05  6537   0.772E-03
  19 F= -.71094101E+03 E0= -.71092568E+03  d E =-.156827E-02
 ZBRENT: can't locate minimum, use default step
 trial-energy change:   -0.001568  1 .order   -0.001570   -0.001770   -0.001371
 step:   1.1070(harm=  1.2258)  dis= 0.02502  next Energy=  -710.943358 (dE=-0.392E-02)
 bond charge predicted
       N       E                     dE             d eps       ncg     rms          rms(c)
DAV:   1    -0.710921110209E+03    0.19898E-01   -0.80654E+00 11400   0.389E+00    0.595E-01
RMM:   2    -0.710944317128E+03   -0.23207E-01   -0.20405E-01 12367   0.970E-01    0.923E-01
RMM:   3    -0.710947294951E+03   -0.29778E-02   -0.64959E-02 14286   0.486E-01    0.609E-01
RMM:   4    -0.710944802499E+03    0.24925E-02   -0.12937E-02 14840   0.200E-01    0.272E-01
RMM:   5    -0.710944026024E+03    0.77647E-03   -0.30572E-03 14790   0.782E-02    0.200E-01
RMM:   6    -0.710943611265E+03    0.41476E-03   -0.12705E-03 12743   0.458E-02    0.769E-02
RMM:   7    -0.710943584162E+03    0.27103E-04   -0.43391E-04 10933   0.276E-02    0.511E-02
RMM:   8    -0.710943574100E+03    0.10062E-04   -0.11880E-04  8873   0.160E-02    0.432E-02
RMM:   9    -0.710943564343E+03    0.97567E-05   -0.52305E-05  7570   0.902E-03
  20 F= -.71094356E+03 E0= -.71093007E+03  d E =-.412664E-02
 curvature:  -4.57 expect dE=-0.314E-01 dE for cont linesearch -0.260E-04
 trial: gam= 0.24234 g(F)=  0.686E-02 g(S)=  0.000E+00 ort = 0.525E-03 (trialstep = 0.443E+00)
 search vector abs. value=  0.996E-02
 bond charge predicted
       N       E                     dE             d eps       ncg     rms          rms(c)
DAV:   1    -0.710944482240E+03   -0.90814E-03   -0.45217E-01 11728   0.982E-01    0.122E-01
RMM:   2    -0.710945993671E+03   -0.15114E-02   -0.15122E-02 13447   0.267E-01    0.127E-01
RMM:   3    -0.710946309643E+03   -0.31597E-03   -0.37030E-03 14778   0.115E-01    0.114E-01
RMM:   4    -0.710946260405E+03    0.49237E-04   -0.54187E-04 13613   0.448E-02    0.694E-02
RMM:   5    -0.710946221613E+03    0.38792E-04   -0.13989E-04  9736   0.217E-02    0.473E-02
RMM:   6    -0.710946194844E+03    0.26769E-04   -0.89521E-05  9661   0.136E-02    0.273E-02
RMM:   7    -0.710946191520E+03    0.33234E-05   -0.38638E-05  7486   0.104E-02
  21 F= -.71094619E+03 E0= -.71093293E+03  d E =-.262718E-02
 trial-energy change:   -0.002627  1 .order   -0.002602   -0.003094   -0.002109
 step:   1.3909(harm=  1.3909)  dis= 0.00979  next Energy=  -710.948424 (dE=-0.486E-02)
 bond charge predicted
       N       E                     dE             d eps       ncg     rms          rms(c)
DAV:   1    -0.710940254486E+03    0.59404E-02   -0.20665E+00 11152   0.210E+00    0.251E-01
RMM:   2    -0.710947113053E+03   -0.68586E-02   -0.69351E-02 13472   0.575E-01    0.247E-01
RMM:   3    -0.710948728595E+03   -0.16155E-02   -0.17367E-02 14641   0.254E-01    0.260E-01
RMM:   4    -0.710948407151E+03    0.32144E-03   -0.27262E-03 14749   0.971E-02    0.119E-01
RMM:   5    -0.710948279078E+03    0.12807E-03   -0.62150E-04 13644   0.391E-02    0.929E-02
RMM:   6    -0.710948157322E+03    0.12176E-03   -0.40541E-04 12409   0.283E-02    0.291E-02
RMM:   7    -0.710948157171E+03    0.15142E-06   -0.11704E-04  9647   0.162E-02    0.180E-02
RMM:   8    -0.710948153608E+03    0.35624E-05   -0.27035E-05  6872   0.930E-03
  22 F= -.71094815E+03 E0= -.71093546E+03  d E =-.458927E-02
 curvature:  -0.99 expect dE=-0.506E-02 dE for cont linesearch -0.512E-04
 trial: gam= 0.89594 g(F)=  0.510E-02 g(S)=  0.000E+00 ort =-0.717E-03 (trialstep = 0.533E+00)
 search vector abs. value=  0.118E-01
 bond charge predicted
       N       E                     dE             d eps       ncg     rms          rms(c)
DAV:   1    -0.710947200304E+03    0.95687E-03   -0.79271E-01 11368   0.128E+00    0.155E-01
RMM:   2    -0.710949607575E+03   -0.24073E-02   -0.24377E-02 13239   0.336E-01    0.150E-01
RMM:   3    -0.710950189185E+03   -0.58161E-03   -0.62269E-03 14428   0.153E-01    0.162E-01
RMM:   4    -0.710950068337E+03    0.12085E-03   -0.10885E-03 14217   0.598E-02    0.683E-02
RMM:   5    -0.710950024806E+03    0.43531E-04   -0.23485E-04 11214   0.243E-02    0.555E-02
RMM:   6    -0.710949988254E+03    0.36552E-04   -0.13739E-04 10329   0.170E-02    0.236E-02
RMM:   7    -0.710949988426E+03   -0.17229E-06   -0.45589E-05  7739   0.108E-02
  23 F= -.71094999E+03 E0= -.71093776E+03  d E =-.183482E-02
 trial-energy change:   -0.001835  1 .order   -0.001792   -0.002377   -0.001207
 step:   0.9320(harm=  1.0839)  dis= 0.00755  next Energy=  -710.950457 (dE=-0.230E-02)
 bond charge predicted
       N       E                     dE             d eps       ncg     rms          rms(c)
DAV:   1    -0.710948941621E+03    0.10466E-02   -0.44223E-01 11464   0.953E-01    0.117E-01
RMM:   2    -0.710950288263E+03   -0.13466E-02   -0.13655E-02 13368   0.250E-01    0.108E-01
RMM:   3    -0.710950612646E+03   -0.32438E-03   -0.34157E-03 14462   0.112E-01    0.118E-01
RMM:   4    -0.710950548841E+03    0.63805E-04   -0.58178E-04 12967   0.447E-02    0.515E-02
RMM:   5    -0.710950525471E+03    0.23370E-04   -0.14213E-04  9828   0.211E-02    0.402E-02
RMM:   6    -0.710950506260E+03    0.19211E-04   -0.10316E-04  9872   0.147E-02    0.111E-02
RMM:   7    -0.710950505266E+03    0.99364E-06   -0.19721E-05  6474   0.841E-03
  24 F= -.71095051E+03 E0= -.71093852E+03  d E =-.235166E-02
 curvature:  -1.33 expect dE=-0.314E-02 dE for cont linesearch -0.155E-04
 trial: gam= 0.21663 g(F)=  0.237E-02 g(S)=  0.000E+00 ort = 0.372E-03 (trialstep = 0.613E+00)
 search vector abs. value=  0.308E-02
 bond charge predicted
       N       E                     dE             d eps       ncg     rms          rms(c)
DAV:   1    -0.710950573946E+03   -0.67687E-04   -0.27893E-01 11096   0.757E-01    0.918E-02
RMM:   2    -0.710951469241E+03   -0.89529E-03   -0.93847E-03 13302   0.204E-01    0.613E-02
RMM:   3    -0.710951704879E+03   -0.23564E-03   -0.22696E-03 14788   0.895E-02    0.901E-02
RMM:   4    -0.710951671311E+03    0.33568E-04   -0.34401E-04 12069   0.352E-02    0.437E-02
RMM:   5    -0.710951657269E+03    0.14043E-04   -0.92754E-05  8988   0.183E-02    0.342E-02
RMM:   6    -0.710951642441E+03    0.14828E-04   -0.38430E-05  7404   0.988E-03    0.191E-02
RMM:   7    -0.710951640636E+03    0.18043E-05   -0.34206E-05  7319   0.911E-03
  25 F= -.71095164E+03 E0= -.71093971E+03  d E =-.113537E-02
 trial-energy change:   -0.001135  1 .order   -0.001168   -0.001500   -0.000836
 step:   1.3847(harm=  1.3847)  dis= 0.00536  next Energy=  -710.952200 (dE=-0.169E-02)
 bond charge predicted
       N       E                     dE             d eps       ncg     rms          rms(c)
DAV:   1    -0.710950294250E+03    0.13482E-02   -0.44072E-01 11088   0.952E-01    0.116E-01
RMM:   2    -0.710951715705E+03   -0.14215E-02   -0.14887E-02 13291   0.258E-01    0.773E-02
RMM:   3    -0.710952107273E+03   -0.39157E-03   -0.36759E-03 14787   0.114E-01    0.118E-01
RMM:   4    -0.710952044637E+03    0.62635E-04   -0.57442E-04 13143   0.451E-02    0.530E-02
RMM:   5    -0.710952022615E+03    0.22022E-04   -0.14937E-04 10085   0.208E-02    0.405E-02
RMM:   6    -0.710951998659E+03    0.23956E-04   -0.68586E-05  8959   0.126E-02    0.195E-02
RMM:   7    -0.710951998004E+03    0.65536E-06   -0.43213E-05  7725   0.986E-03
  26 F= -.71095200E+03 E0= -.71094026E+03  d E =-.149274E-02
 curvature:  -0.87 expect dE=-0.157E-02 dE for cont linesearch -0.108E-04
 trial: gam= 0.91841 g(F)=  0.181E-02 g(S)=  0.000E+00 ort =-0.196E-03 (trialstep = 0.585E+00)
 search vector abs. value=  0.405E-02
 bond charge predicted
       N       E                     dE             d eps       ncg     rms          rms(c)
DAV:   1    -0.710951564894E+03    0.43377E-03   -0.33054E-01 11496   0.812E-01    0.102E-01
RMM:   2    -0.710952492299E+03   -0.92741E-03   -0.95629E-03 12952   0.209E-01    0.848E-02
RMM:   3    -0.710952735516E+03   -0.24322E-03   -0.25393E-03 14697   0.943E-02    0.951E-02
RMM:   4    -0.710952700180E+03    0.35336E-04   -0.40729E-04 12068   0.392E-02    0.511E-02
RMM:   5    -0.710952679422E+03    0.20758E-04   -0.11071E-04  9201   0.201E-02    0.325E-02
RMM:   6    -0.710952666681E+03    0.12741E-04   -0.74882E-05  9074   0.122E-02    0.154E-02
RMM:   7    -0.710952665421E+03    0.12603E-05   -0.16914E-05  6359   0.792E-03
  27 F= -.71095267E+03 E0= -.71094121E+03  d E =-.667417E-03
 trial-energy change:   -0.000667  1 .order   -0.000692   -0.000950   -0.000434
 step:   1.0759(harm=  1.0759)  dis= 0.00637  next Energy=  -710.952873 (dE=-0.875E-03)
 bond charge predicted
       N       E                     dE             d eps       ncg     rms          rms(c)
DAV:   1    -0.710952068710E+03    0.59797E-03   -0.23365E-01 11552   0.683E-01    0.835E-02
RMM:   2    -0.710952718942E+03   -0.65023E-03   -0.67976E-03 13000   0.176E-01    0.603E-02
RMM:   3    -0.710952902761E+03   -0.18382E-03   -0.17824E-03 14650   0.789E-02    0.818E-02
RMM:   4    -0.710952873840E+03    0.28921E-04   -0.28747E-04 11553   0.330E-02    0.392E-02
RMM:   5    -0.710952862065E+03    0.11775E-04   -0.78878E-05  8385   0.167E-02    0.269E-02
RMM:   6    -0.710952852909E+03    0.91562E-05   -0.52826E-05  8185   0.107E-02
  28 F= -.71095285E+03 E0= -.71094154E+03  d E =-.854904E-03
 curvature:  -1.34 expect dE=-0.173E-02 dE for cont linesearch -0.204E-05
 trial: gam= 0.38997 g(F)=  0.129E-02 g(S)=  0.000E+00 ort = 0.786E-04 (trialstep = 0.683E+00)
 search vector abs. value=  0.197E-02
 bond charge predicted
       N       E                     dE             d eps       ncg     rms          rms(c)
DAV:   1    -0.710952729279E+03    0.13279E-03   -0.21028E-01 11464   0.674E-01    0.810E-02
RMM:   2    -0.710953403600E+03   -0.67432E-03   -0.69505E-03 13408   0.184E-01    0.657E-02
RMM:   3    -0.710953570720E+03   -0.16712E-03   -0.17822E-03 14736   0.790E-02    0.704E-02
RMM:   4    -0.710953555539E+03    0.15182E-04   -0.26222E-04 11680   0.319E-02    0.408E-02
RMM:   5    -0.710953542835E+03    0.12704E-04   -0.74205E-05  8370   0.171E-02    0.266E-02
RMM:   6    -0.710953534209E+03    0.86263E-05   -0.50554E-05  8150   0.106E-02
  29 F= -.71095353E+03 E0= -.71094245E+03  d E =-.681300E-03
 trial-energy change:   -0.000681  1 .order   -0.000665   -0.000902   -0.000428
 step:   1.3004(harm=  1.3004)  dis= 0.00490  next Energy=  -710.953712 (dE=-0.859E-03)
 bond charge predicted
       N       E                     dE             d eps       ncg     rms          rms(c)
DAV:   1    -0.710953081884E+03    0.46095E-03   -0.17189E-01 11560   0.610E-01    0.745E-02
RMM:   2    -0.710953636246E+03   -0.55436E-03   -0.57235E-03 13771   0.164E-01    0.580E-02
RMM:   3    -0.710953758062E+03   -0.12182E-03   -0.13516E-03 14779   0.668E-02    0.541E-02
RMM:   4    -0.710953752829E+03    0.52329E-05   -0.17635E-04 11152   0.267E-02    0.379E-02
RMM:   5    -0.710953742741E+03    0.10088E-04   -0.52158E-05  7712   0.154E-02    0.246E-02
RMM:   6    -0.710953735821E+03    0.69200E-05   -0.41915E-05  7773   0.955E-03
  30 F= -.71095374E+03 E0= -.71094286E+03  d E =-.882913E-03
 curvature:  -0.97 expect dE=-0.821E-03 dE for cont linesearch -0.236E-07
 trial: gam= 0.70150 g(F)=  0.848E-03 g(S)=  0.000E+00 ort =-0.692E-05 (trialstep = 0.806E+00)
 search vector abs. value=  0.181E-02
 bond charge predicted
       N       E                     dE             d eps       ncg     rms          rms(c)
DAV:   1    -0.710953292093E+03    0.45065E-03   -0.26905E-01 11424   0.757E-01    0.882E-02
RMM:   2    -0.710954059114E+03   -0.76702E-03   -0.79551E-03 13150   0.196E-01    0.628E-02
RMM:   3    -0.710954269212E+03   -0.21010E-03   -0.21155E-03 14779   0.855E-02    0.764E-02
RMM:   4    -0.710954251152E+03    0.18060E-04   -0.30911E-04 11872   0.350E-02    0.436E-02
RMM:   5    -0.710954237730E+03    0.13421E-04   -0.87779E-05  8898   0.180E-02    0.273E-02
RMM:   6    -0.710954228122E+03    0.96086E-05   -0.60110E-05  8629   0.112E-02
  31 F= -.71095423E+03 E0= -.71094349E+03  d E =-.492300E-03
 trial-energy change:   -0.000492  1 .order   -0.000485   -0.000680   -0.000289
 step:   1.4046(harm=  1.4046)  dis= 0.00423  next Energy=  -710.954328 (dE=-0.592E-03)
 bond charge predicted
       N       E                     dE             d eps       ncg     rms          rms(c)
DAV:   1    -0.710953836969E+03    0.40076E-03   -0.14806E-01 11768   0.561E-01    0.683E-02
RMM:   2    -0.710954265165E+03   -0.42820E-03   -0.44102E-03 13482   0.143E-01    0.525E-02
RMM:   3    -0.710954373965E+03   -0.10880E-03   -0.11055E-03 14378   0.621E-02    0.608E-02
RMM:   4    -0.710954360917E+03    0.13048E-04   -0.17956E-04 10541   0.271E-02    0.329E-02
RMM:   5    -0.710954352712E+03    0.82048E-05   -0.51997E-05  7579   0.136E-02
  32 F= -.71095435E+03 E0= -.71094389E+03  d E =-.616891E-03
 curvature:  -1.50 expect dE=-0.107E-02 dE for cont linesearch -0.317E-05
 trial: gam= 0.81422 g(F)=  0.709E-03 g(S)=  0.000E+00 ort =-0.617E-04 (trialstep = 0.926E+00)
 search vector abs. value=  0.181E-02
 bond charge predicted
       N       E                     dE             d eps       ncg     rms          rms(c)
DAV:   1    -0.710953595517E+03    0.76540E-03   -0.35872E-01 11304   0.869E-01    0.101E-01
RMM:   2    -0.710954628368E+03   -0.10329E-02   -0.10600E-02 13022   0.224E-01    0.886E-02
RMM:   3    -0.710954885108E+03   -0.25674E-03   -0.27576E-03 14516   0.101E-01    0.944E-02
RMM:   4    -0.710954846931E+03    0.38177E-04   -0.45853E-04 12639   0.407E-02    0.444E-02
RMM:   5    -0.710954831631E+03    0.15300E-04   -0.11817E-04  9522   0.198E-02    0.320E-02
RMM:   6    -0.710954822444E+03    0.91864E-05   -0.73452E-05  9045   0.122E-02
  33 F= -.71095482E+03 E0= -.71094435E+03  d E =-.469732E-03
 trial-energy change:   -0.000470  1 .order   -0.000435   -0.000610   -0.000261
 step:   1.6174(harm=  1.6174)  dis= 0.00527  next Energy=  -710.954885 (dE=-0.532E-03)
 bond charge predicted
       N       E                     dE             d eps       ncg     rms          rms(c)
DAV:   1    -0.710954206346E+03    0.62528E-03   -0.19985E-01 11576   0.648E-01    0.768E-02
RMM:   2    -0.710954794472E+03   -0.58813E-03   -0.59807E-03 13409   0.164E-01    0.661E-02
RMM:   3    -0.710954932901E+03   -0.13843E-03   -0.14493E-03 14368   0.724E-02    0.723E-02
RMM:   4    -0.710954908931E+03    0.23969E-04   -0.24990E-04 11251   0.306E-02    0.318E-02
RMM:   5    -0.710954901022E+03    0.79091E-05   -0.69763E-05  8152   0.152E-02
  34 F= -.71095490E+03 E0= -.71094480E+03  d E =-.548310E-03
 curvature:  -2.22 expect dE=-0.220E-02 dE for cont linesearch -0.367E-04
 ZBRENT: interpolating
 opt :   1.3543  next Energy=  -710.954924 (dE=-0.571E-03)
 bond charge predicted
       N       E                     dE             d eps       ncg     rms          rms(c)
DAV:   1    -0.710954788459E+03    0.12047E-03   -0.29359E-02 11296   0.252E-01    0.311E-02
RMM:   2    -0.710954888141E+03   -0.99682E-04   -0.96770E-04 12903   0.686E-02    0.392E-02
RMM:   3    -0.710954901226E+03   -0.13085E-04   -0.23417E-04 11674   0.319E-02    0.280E-02
RMM:   4    -0.710954897154E+03    0.40718E-05   -0.46918E-05  7459   0.158E-02
  35 F= -.71095490E+03 E0= -.71094471E+03  d E =-.544442E-03
 curvature:  -1.37 expect dE=-0.104E-02 dE for cont linesearch -0.400E-04
 ZBRENT: interpolating
 opt :   1.5044  next Energy=  -710.954911 (dE=-0.558E-03)
 bond charge predicted
       N       E                     dE             d eps       ncg     rms          rms(c)
DAV:   1    -0.710954863021E+03    0.38205E-04   -0.92464E-03 11592   0.140E-01    0.182E-02
RMM:   2    -0.710954892330E+03   -0.29308E-04   -0.30645E-04 12664   0.364E-02    0.947E-03
RMM:   3    -0.710954899704E+03   -0.73741E-05   -0.70605E-05  8879   0.168E-02
  36 F= -.71095490E+03 E0= -.71094467E+03  d E =-.546992E-03
 curvature:  -0.34 expect dE=-0.298E-03 dE for cont linesearch -0.965E-05
 ZBRENT: bisectioning
 opt :   1.4293  next Energy=  -710.954918 (dE=-0.565E-03)
 bond charge predicted
       N       E                     dE             d eps       ncg     rms          rms(c)
DAV:   1    -0.710954891103E+03    0.12265E-05   -0.22495E-03 12624   0.737E-02    0.937E-03
RMM:   2    -0.710954897380E+03   -0.62769E-05   -0.62700E-05  9468   0.155E-02
  37 F= -.71095490E+03 E0= -.71094464E+03  d E =-.544668E-03
 curvature:  -0.64 expect dE=-0.511E-03 dE for cont linesearch -0.127E-04
 ZBRENT: interpolating
 opt :   1.4633  next Energy=  -710.954901 (dE=-0.548E-03)
 bond charge predicted
       N       E                     dE             d eps       ncg     rms          rms(c)
DAV:   1    -0.710954897768E+03   -0.66648E-05   -0.46107E-04 12576   0.359E-02    0.840E-03
RMM:   2    -0.710954903473E+03   -0.57046E-05   -0.17844E-05  6125   0.932E-03
  38 F= -.71095490E+03 E0= -.71094461E+03  d E =-.550761E-03
 curvature:  -0.16 expect dE=-0.132E-03 dE for cont linesearch -0.691E-06
 trial: gam= 1.25342 g(F)=  0.813E-03 g(S)=  0.000E+00 ort =-0.876E-04 (trialstep = 0.544E+00)
 search vector abs. value=  0.343E-02
 bond charge predicted
       N       E                     dE             d eps       ncg     rms          rms(c)
DAV:   1    -0.710954490680E+03    0.40709E-03   -0.23312E-01 11376   0.702E-01    0.807E-02
RMM:   2    -0.710955135936E+03   -0.64526E-03   -0.65337E-03 13012   0.178E-01    0.774E-02
RMM:   3    -0.710955299199E+03   -0.16326E-03   -0.18193E-03 14170   0.833E-02    0.778E-02
RMM:   4    -0.710955274487E+03    0.24712E-04   -0.32278E-04 11886   0.342E-02    0.329E-02
RMM:   5    -0.710955265814E+03    0.86730E-05   -0.77390E-05  8397   0.164E-02
  39 F= -.71095527E+03 E0= -.71094531E+03  d E =-.362342E-03
 trial-energy change:   -0.000362  1 .order   -0.000285   -0.000383   -0.000188
 step:   0.6767(harm=  1.0686)  dis= 0.00298  next Energy=  -710.955290 (dE=-0.386E-03)
 bond charge predicted
       N       E                     dE             d eps       ncg     rms          rms(c)
DAV:   1    -0.710955275643E+03   -0.11556E-05   -0.13638E-02 12072   0.171E-01    0.206E-02
RMM:   2    -0.710955312304E+03   -0.36661E-04   -0.38771E-04 12778   0.456E-02    0.122E-02
RMM:   3    -0.710955322489E+03   -0.10186E-04   -0.11144E-04 10931   0.198E-02    0.129E-02
RMM:   4    -0.710955322638E+03   -0.14839E-06   -0.18545E-05  6152   0.112E-02
  40 F= -.71095532E+03 E0= -.71094535E+03  d E =-.419165E-03
 curvature:  -1.15 expect dE=-0.477E-03 dE for cont linesearch -0.246E-04
 ZBRENT: increasing intervall
 opt :   0.9422  next Energy=  -710.955375 (dE=-0.471E-03)
 bond charge predicted
       N       E                     dE             d eps       ncg     rms          rms(c)
DAV:   1    -0.710955234859E+03    0.87630E-04   -0.55819E-02 11456   0.343E-01    0.406E-02
RMM:   2    -0.710955390255E+03   -0.15540E-03   -0.15554E-03 12829   0.881E-02    0.438E-02
RMM:   3    -0.710955424576E+03   -0.34322E-04   -0.45091E-04 12865   0.422E-02    0.376E-02
RMM:   4    -0.710955418838E+03    0.57385E-05   -0.86415E-05  9299   0.200E-02
  41 F= -.71095542E+03 E0= -.71094553E+03  d E =-.515365E-03
 curvature:  -2.43 expect dE=-0.105E-02 dE for cont linesearch -0.374E-06
 trial: gam= 0.17603 g(F)=  0.432E-03 g(S)=  0.000E+00 ort = 0.230E-04 (trialstep = 0.624E+00)
 search vector abs. value=  0.547E-03
 bond charge predicted
       N       E                     dE             d eps       ncg     rms          rms(c)
DAV:   1    -0.710955410266E+03    0.14310E-04   -0.48966E-02 10976   0.334E-01    0.406E-02
RMM:   2    -0.710955598669E+03   -0.18840E-03   -0.19339E-03 13621   0.979E-02    0.445E-02
RMM:   3    -0.710955639506E+03   -0.40837E-04   -0.51590E-04 13395   0.470E-02    0.404E-02
RMM:   4    -0.710955632834E+03    0.66717E-05   -0.10283E-04  9792   0.192E-02    0.160E-02
RMM:   5    -0.710955629887E+03    0.29468E-05   -0.22106E-05  6479   0.101E-02
  42 F= -.71095563E+03 E0= -.71094587E+03  d E =-.211050E-03
 trial-energy change:   -0.000211  1 .order   -0.000182   -0.000272   -0.000092
 step:   0.9435(harm=  0.9435)  dis= 0.00095  next Energy=  -710.955625 (dE=-0.206E-03)
 bond charge predicted
       N       E                     dE             d eps       ncg     rms          rms(c)
DAV:   1    -0.710955606280E+03    0.26554E-04   -0.12693E-02 11624   0.171E-01    0.186E-02
RMM:   2    -0.710955652863E+03   -0.46582E-04   -0.49450E-04 13568   0.488E-02    0.107E-02
RMM:   3    -0.710955662690E+03   -0.98274E-05   -0.11768E-04 11383   0.197E-02    0.983E-03
RMM:   4    -0.710955662138E+03    0.55198E-06   -0.15822E-05  5963   0.104E-02
  43 F= -.71095566E+03 E0= -.71094590E+03  d E =-.243300E-03
 curvature:  -0.59 expect dE=-0.887E-04 dE for cont linesearch -0.556E-06
 trial: gam= 0.50407 g(F)=  0.150E-03 g(S)=  0.000E+00 ort =-0.227E-04 (trialstep = 0.688E+00)
 search vector abs. value=  0.266E-03
 bond charge predicted
       N       E                     dE             d eps       ncg     rms          rms(c)
DAV:   1    -0.710955654938E+03    0.77524E-05   -0.29327E-02 11400   0.251E-01    0.291E-02
RMM:   2    -0.710955741376E+03   -0.86438E-04   -0.88460E-04 12825   0.657E-02    0.293E-02
RMM:   3    -0.710955760987E+03   -0.19612E-04   -0.23920E-04 11561   0.311E-02    0.263E-02
RMM:   4    -0.710955758100E+03    0.28871E-05   -0.48098E-05  7555   0.166E-02
  44 F= -.71095576E+03 E0= -.71094604E+03  d E =-.959624E-04
 trial-energy change:   -0.000096  1 .order   -0.000063   -0.000095   -0.000031
 step:   1.0216(harm=  1.0216)  dis= 0.00114  next Energy=  -710.955733 (dE=-0.708E-04)
 bond charge predicted
       N       E                     dE             d eps       ncg     rms          rms(c)
DAV:   1    -0.710955761665E+03   -0.67774E-06   -0.70383E-03 12064   0.124E-01    0.157E-02
RMM:   2    -0.710955783198E+03   -0.21533E-04   -0.21958E-04 12181   0.337E-02    0.221E-02
RMM:   3    -0.710955785599E+03   -0.24005E-05   -0.68070E-05  9401   0.163E-02
  45 F= -.71095579E+03 E0= -.71094617E+03  d E =-.123461E-03
 curvature:  -0.98 expect dE=-0.961E-04 dE for cont linesearch -0.221E-05
 ZBRENT: increasing intervall
 opt :   1.6896  next Energy=  -710.955788 (dE=-0.126E-03)
 bond charge predicted
       N       E                     dE             d eps       ncg     rms          rms(c)
DAV:   1    -0.710955716710E+03    0.66488E-04   -0.27758E-02 11472   0.245E-01    0.271E-02
RMM:   2    -0.710955794648E+03   -0.77938E-04   -0.84705E-04 12942   0.642E-02    0.161E-02
RMM:   3    -0.710955814349E+03   -0.19700E-04   -0.22010E-04 11966   0.285E-02    0.196E-02
RMM:   4    -0.710955814158E+03    0.19072E-06   -0.39386E-05  7186   0.158E-02
  46 F= -.71095581E+03 E0= -.71094626E+03  d E =-.152020E-03
 curvature:  -1.09 expect dE=-0.224E-03 dE for cont linesearch -0.558E-05
 ZBRENT: bracketing found
 ZBRENT: interpolating
 opt :   1.2877  next Energy=  -710.955789 (dE=-0.127E-03)
 bond charge predicted
       N       E                     dE             d eps       ncg     rms          rms(c)
DAV:   1    -0.710955760557E+03    0.53792E-04   -0.98055E-03 11064   0.146E-01    0.208E-02
RMM:   2    -0.710955796462E+03   -0.35904E-04   -0.33443E-04 12381   0.407E-02    0.262E-02
RMM:   3    -0.710955801027E+03   -0.45651E-05   -0.10042E-04 10069   0.201E-02    0.159E-02
RMM:   4    -0.710955799874E+03    0.11527E-05   -0.19453E-05  6298   0.111E-02
  47 F= -.71095580E+03 E0= -.71094619E+03  d E =-.137736E-03
 curvature:  -0.63 expect dE=-0.118E-03 dE for cont linesearch -0.271E-04
 ZBRENT: interpolating
 opt :   1.5862  next Energy=  -710.955816 (dE=-0.154E-03)
 bond charge predicted
       N       E                     dE             d eps       ncg     rms          rms(c)
DAV:   1    -0.710955791622E+03    0.94044E-05   -0.53666E-03 11176   0.108E-01    0.129E-02
RMM:   2    -0.710955808393E+03   -0.16770E-04   -0.17563E-04 11904   0.273E-02    0.622E-03
RMM:   3    -0.710955810765E+03   -0.23726E-05   -0.35530E-05  7125   0.119E-02
  48 F= -.71095581E+03 E0= -.71094622E+03  d E =-.148627E-03
 curvature:  -0.04 expect dE=-0.836E-05 dE for cont linesearch -0.135E-06
 trial: gam= 1.15624 g(F)=  0.187E-03 g(S)=  0.000E+00 ort =-0.284E-04 (trialstep = 0.484E+00)
 search vector abs. value=  0.477E-03
 bond charge predicted
       N       E                     dE             d eps       ncg     rms          rms(c)
DAV:   1    -0.710955802362E+03    0.60302E-05   -0.25733E-02 11448   0.236E-01    0.272E-02
RMM:   2    -0.710955880073E+03   -0.77710E-04   -0.80438E-04 12974   0.637E-02    0.251E-02
RMM:   3    -0.710955899549E+03   -0.19477E-04   -0.22455E-04 11502   0.303E-02    0.260E-02
RMM:   4    -0.710955897162E+03    0.23873E-05   -0.47577E-05  7666   0.168E-02
  49 F= -.71095590E+03 E0= -.71094634E+03  d E =-.863968E-04
 trial-energy change:   -0.000086  1 .order   -0.000054   -0.000075   -0.000034
 step:   0.8840(harm=  0.8840)  dis= 0.00137  next Energy=  -710.955879 (dE=-0.681E-04)
 bond charge predicted
       N       E                     dE             d eps       ncg     rms          rms(c)
DAV:   1    -0.710955893386E+03    0.61636E-05   -0.17740E-02 11696   0.196E-01    0.237E-02
RMM:   2    -0.710955942912E+03   -0.49526E-04   -0.51796E-04 12772   0.512E-02    0.255E-02
RMM:   3    -0.710955953307E+03   -0.10396E-04   -0.14772E-04 10953   0.246E-02    0.219E-02
RMM:   4    -0.710955950752E+03    0.25557E-05   -0.30828E-05  6599   0.135E-02
  50 F= -.71095595E+03 E0= -.71094646E+03  d E =-.139987E-03
 curvature:  -1.37 expect dE=-0.102E-03 dE for cont linesearch -0.687E-05
 ZBRENT: increasing intervall
 opt :   1.6843  next Energy=  -710.955973 (dE=-0.162E-03)
 bond charge predicted
       N       E                     dE             d eps       ncg     rms          rms(c)
DAV:   1    -0.710955766251E+03    0.18706E-03   -0.70120E-02 11416   0.389E-01    0.443E-02
RMM:   2    -0.710955963283E+03   -0.19703E-03   -0.20476E-03 12945   0.101E-01    0.389E-02
RMM:   3    -0.710956016753E+03   -0.53470E-04   -0.57470E-04 13556   0.474E-02    0.434E-02
RMM:   4    -0.710956008232E+03    0.85212E-05   -0.10297E-04  9694   0.208E-02    0.172E-02
RMM:   5    -0.710956005868E+03    0.23635E-05   -0.25833E-05  6529   0.103E-02
  51 F= -.71095601E+03 E0= -.71094667E+03  d E =-.195103E-03
 curvature:  -4.49 expect dE=-0.994E-03 dE for cont linesearch -0.486E-05
 trial: gam= 1.34427 g(F)=  0.222E-03 g(S)=  0.000E+00 ort =-0.227E-04 (trialstep = 0.338E+00)
 search vector abs. value=  0.102E-02
 bond charge predicted
       N       E                     dE             d eps       ncg     rms          rms(c)
DAV:   1    -0.710955987318E+03    0.20914E-04   -0.26784E-02 11768   0.239E-01    0.284E-02
RMM:   2    -0.710956061518E+03   -0.74200E-04   -0.76225E-04 12756   0.610E-02    0.225E-02
RMM:   3    -0.710956079829E+03   -0.18311E-04   -0.20237E-04 11621   0.279E-02    0.256E-02
RMM:   4    -0.710956077030E+03    0.27991E-05   -0.40270E-05  7040   0.155E-02
  52 F= -.71095608E+03 E0= -.71094678E+03  d E =-.711619E-04
 trial-energy change:   -0.000071  1 .order   -0.000044   -0.000065   -0.000023
 step:   0.5235(harm=  0.5235)  dis= 0.00123  next Energy=  -710.956056 (dE=-0.500E-04)
 bond charge predicted
       N       E                     dE             d eps       ncg     rms          rms(c)
DAV:   1    -0.710956082120E+03   -0.22905E-05   -0.83231E-03 12008   0.133E-01    0.184E-02
RMM:   2    -0.710956107444E+03   -0.25324E-04   -0.24346E-04 12125   0.350E-02    0.253E-02
RMM:   3    -0.710956108831E+03   -0.13873E-05   -0.74747E-05  9636   0.176E-02
  53 F= -.71095611E+03 E0= -.71094694E+03  d E =-.102963E-03
 curvature:  -1.40 expect dE=-0.173E-03 dE for cont linesearch -0.386E-05
 ZBRENT: increasing intervall
 opt :   0.8949  next Energy=  -710.956123 (dE=-0.117E-03)
 bond charge predicted
       N       E                     dE             d eps       ncg     rms          rms(c)
DAV:   1    -0.710956046886E+03    0.60558E-04   -0.32792E-02 11560   0.265E-01    0.300E-02
RMM:   2    -0.710956132695E+03   -0.85809E-04   -0.93303E-04 12631   0.683E-02    0.170E-02
RMM:   3    -0.710956156897E+03   -0.24202E-04   -0.26686E-04 12290   0.309E-02    0.204E-02
RMM:   4    -0.710956157090E+03   -0.19300E-06   -0.45827E-05  7790   0.172E-02
  54 F= -.71095616E+03 E0= -.71094698E+03  d E =-.151222E-03
 curvature:  -5.18 expect dE=-0.620E-03 dE for cont linesearch -0.168E-05
 trial: gam= 0.18039 g(F)=  0.120E-03 g(S)=  0.000E+00 ort =-0.182E-04 (trialstep = 0.449E+00)
 search vector abs. value=  0.146E-03
 bond charge predicted
       N       E                     dE             d eps       ncg     rms          rms(c)
DAV:   1    -0.710956176396E+03   -0.19499E-04   -0.72039E-03 10960   0.126E-01    0.186E-02
RMM:   2    -0.710956208627E+03   -0.32231E-04   -0.29138E-04 12230   0.383E-02    0.311E-02
RMM:   3    -0.710956207623E+03    0.10037E-05   -0.82078E-05  9253   0.184E-02
  55 F= -.71095621E+03 E0= -.71094713E+03  d E =-.505330E-04
 trial-energy change:   -0.000051  1 .order   -0.000035   -0.000052   -0.000018
 step:   0.6896(harm=  0.6896)  dis= 0.00037  next Energy=  -710.956197 (dE=-0.401E-04)
 bond charge predicted
       N       E                     dE             d eps       ncg     rms          rms(c)
DAV:   1    -0.710956214948E+03   -0.63211E-05   -0.21268E-03 12032   0.699E-02    0.886E-03
RMM:   2    -0.710956223395E+03   -0.84463E-05   -0.97643E-05 11302   0.217E-02
  56 F= -.71095622E+03 E0= -.71094714E+03  d E =-.663041E-04
 curvature:  -0.43 expect dE=-0.143E-04 dE for cont linesearch -0.183E-05
 ZBRENT: increasing intervall
 opt :   1.1705  next Energy=  -710.956228 (dE=-0.707E-04)
 bond charge predicted
       N       E                     dE             d eps       ncg     rms          rms(c)
DAV:   1    -0.710956206310E+03    0.86381E-05   -0.83208E-03 11184   0.136E-01    0.152E-02
RMM:   2    -0.710956238663E+03   -0.32353E-04   -0.34108E-04 13012   0.397E-02    0.201E-02
RMM:   3    -0.710956242825E+03   -0.41618E-05   -0.83447E-05  9381   0.181E-02
  57 F= -.71095624E+03 E0= -.71094709E+03  d E =-.857345E-04
 curvature:  -1.04 expect dE=-0.807E-04 dE for cont linesearch -0.899E-05
 ZBRENT: bracketing found
 ZBRENT: interpolating
 opt :   0.8871  next Energy=  -710.956226 (dE=-0.688E-04)
 bond charge predicted
       N       E                     dE             d eps       ncg     rms          rms(c)
DAV:   1    -0.710956219615E+03    0.19048E-04   -0.27794E-03 10904   0.797E-02    0.130E-02
RMM:   2    -0.710956231281E+03   -0.11666E-04   -0.12914E-04 11683   0.267E-02    0.826E-03
RMM:   3    -0.710956234637E+03   -0.33561E-05   -0.33040E-05  6762   0.123E-02
  58 F= -.71095623E+03 E0= -.71094715E+03  d E =-.775469E-04
 curvature:  -0.28 expect dE=-0.297E-04 dE for cont linesearch -0.168E-04
 ZBRENT: interpolating
 opt :   1.0923  next Energy=  -710.956244 (dE=-0.871E-04)
 bond charge predicted
       N       E                     dE             d eps       ncg     rms          rms(c)
DAV:   1    -0.710956233474E+03   -0.21925E-05   -0.13974E-03 11080   0.581E-02    0.772E-03
RMM:   2    -0.710956239477E+03   -0.60031E-05   -0.62289E-05  9564   0.178E-02
  59 F= -.71095624E+03 E0= -.71094714E+03  d E =-.823864E-04
 curvature:  -0.02 expect dE=-0.178E-05 dE for cont linesearch -0.258E-06
 ZBRENT: bisectioning
 opt :   0.9897  next Energy=  -710.956244 (dE=-0.868E-04)
 bond charge predicted
       N       E                     dE             d eps       ncg     rms          rms(c)
DAV:   1    -0.710956236291E+03   -0.28178E-05   -0.33902E-04 11504   0.321E-02    0.717E-03
RMM:   2    -0.710956240449E+03   -0.41575E-05   -0.18554E-05  5898   0.104E-02
  60 F= -.71095624E+03 E0= -.71094718E+03  d E =-.833586E-04
 curvature:  -0.40 expect dE=-0.325E-04 dE for cont linesearch -0.101E-04
 ZBRENT: interpolating
 opt :   1.0514  next Energy=  -710.956240 (dE=-0.832E-04)
 bond charge predicted
       N       E                     dE             d eps       ncg     rms          rms(c)
DAV:   1    -0.710956238928E+03   -0.26366E-05   -0.12151E-04 11568   0.293E-02    0.332E-03
RMM:   2    -0.710956240222E+03   -0.12943E-05   -0.98237E-06  5568   0.664E-03
  61 F= -.71095624E+03 E0= -.71094716E+03  d E =-.831319E-04
 curvature:  -0.03 expect dE=-0.200E-05 dE for cont linesearch -0.325E-09
 trial: gam= 0.66126 g(F)=  0.616E-04 g(S)=  0.000E+00 ort =-0.121E-05 (trialstep = 0.570E+00)
 search vector abs. value=  0.124E-03
 bond charge predicted
       N       E                     dE             d eps       ncg     rms          rms(c)
DAV:   1    -0.710956238833E+03    0.95461E-07   -0.96439E-03 11216   0.143E-01    0.163E-02
RMM:   2    -0.710956267177E+03   -0.28344E-04   -0.29982E-04 12216   0.369E-02    0.776E-03
RMM:   3    -0.710956274050E+03   -0.68731E-05   -0.80363E-05  9444   0.166E-02
  62 F= -.71095627E+03 E0= -.71094723E+03  d E =-.338273E-04
 trial-energy change:   -0.000034  1 .order   -0.000020   -0.000035   -0.000005
 step:   0.6643(harm=  0.6643)  dis= 0.00037  next Energy=  -710.956260 (dE=-0.202E-04)
 bond charge predicted
       N       E                     dE             d eps       ncg     rms          rms(c)
DAV:   1    -0.710956279544E+03   -0.12367E-04   -0.31675E-04 15064   0.313E-02    0.667E-03
RMM:   2    -0.710956280596E+03   -0.10523E-05   -0.98852E-06  5914   0.635E-03
  63 F= -.71095628E+03 E0= -.71094722E+03  d E =-.403735E-04
 curvature:  -0.68 expect dE=-0.296E-04 dE for cont linesearch -0.120E-04
 ZBRENT: increasing intervall
 opt :   0.8535  next Energy=  -710.956297 (dE=-0.564E-04)
 bond charge predicted
       N       E                     dE             d eps       ncg     rms          rms(c)
DAV:   1    -0.710956281364E+03   -0.18207E-05   -0.10613E-03 12568   0.511E-02    0.613E-03
RMM:   2    -0.710956283695E+03   -0.23307E-05   -0.27636E-05  6711   0.108E-02
  64 F= -.71095628E+03 E0= -.71094723E+03  d E =-.434726E-04
 curvature:  -0.91 expect dE=-0.332E-04 dE for cont linesearch -0.322E-05
 ZBRENT: increasing intervall
 opt :   1.2320  next Energy=  -710.956282 (dE=-0.416E-04)
 bond charge predicted
       N       E                     dE             d eps       ncg     rms          rms(c)
DAV:   1    -0.710956277952E+03    0.34118E-05   -0.42591E-03 11416   0.964E-02    0.115E-02
RMM:   2    -0.710956292159E+03   -0.14206E-04   -0.15109E-04 10579   0.274E-02    0.121E-02
RMM:   3    -0.710956294763E+03   -0.26042E-05   -0.44341E-05  7634   0.132E-02
  65 F= -.71095629E+03 E0= -.71094722E+03  d E =-.545408E-04
 curvature:   0.52 expect dE= 0.285E-04 dE for cont linesearch  0.908E-06
 ZBRENT: bracketing found
 ZBRENT: interpolating
 opt :   1.0761  next Energy=  -710.956296 (dE=-0.557E-04)
 bond charge predicted
       N       E                     dE             d eps       ncg     rms          rms(c)
DAV:   1    -0.710956287924E+03    0.42345E-05   -0.69566E-04 11136   0.408E-02    0.711E-03
RMM:   2    -0.710956290346E+03   -0.24217E-05   -0.26403E-05  6388   0.117E-02
  66 F= -.71095629E+03 E0= -.71094720E+03  d E =-.501238E-04
 curvature:  -0.66 expect dE=-0.546E-04 dE for cont linesearch -0.209E-04
 ZBRENT: interpolating
 opt :   1.2024  next Energy=  -710.956295 (dE=-0.548E-04)
 bond charge predicted
       N       E                     dE             d eps       ncg     rms          rms(c)
DAV:   1    -0.710956292580E+03   -0.46552E-05   -0.43942E-04 11832   0.341E-02    0.755E-03
RMM:   2    -0.710956297048E+03   -0.44689E-05   -0.19318E-05  6068   0.105E-02
  67 F= -.71095630E+03 E0= -.71094718E+03  d E =-.568261E-04
 curvature:  -0.01 expect dE=-0.380E-06 dE for cont linesearch -0.189E-08
 trial: gam= 0.74962 g(F)=  0.556E-04 g(S)=  0.000E+00 ort =-0.586E-05 (trialstep = 0.696E+00)
 search vector abs. value=  0.116E-03
 bond charge predicted
       N       E                     dE             d eps       ncg     rms          rms(c)
DAV:   1    -0.710956282593E+03    0.99870E-05   -0.13153E-02 11312   0.172E-01    0.192E-02
RMM:   2    -0.710956324727E+03   -0.42135E-04   -0.42387E-04 12386   0.473E-02    0.223E-02
RMM:   3    -0.710956334134E+03   -0.94066E-05   -0.13244E-04 11149   0.225E-02    0.150E-02
RMM:   4    -0.710956333062E+03    0.10721E-05   -0.23234E-05  6366   0.122E-02
  68 F= -.71095633E+03 E0= -.71094729E+03  d E =-.360131E-04
 trial-energy change:   -0.000036  1 .order   -0.000022   -0.000036   -0.000008
 step:   0.9026(harm=  0.9026)  dis= 0.00066  next Energy=  -710.956320 (dE=-0.231E-04)
 reached required accuracy - stopping structural energy minimisation
Warning: ieee_invalid is signaling
Warning: ieee_divide_by_zero is signaling
Warning: ieee_underflow is signaling
Warning: ieee_inexact is signaling
FORTRAN STOP
Warning: ieee_invalid is signaling
Warning: ieee_divide_by_zero is signaling
Warning: ieee_underflow is signaling
Warning: ieee_inexact is signaling
FORTRAN STOP
Warning: ieee_invalid is signaling
Warning: ieee_divide_by_zero is signaling
Warning: ieee_underflow is signaling
Warning: ieee_inexact is signaling
FORTRAN STOP
Warning: ieee_invalid is signaling
Warning: ieee_divide_by_zero is signaling
Warning: ieee_underflow is signaling
Warning: ieee_inexact is signaling
FORTRAN STOP
