       N       E                     dE             d eps       ncg     rms          rms(c)
DAV:   1     0.219720798698E+05    0.21972E+05   -0.32078E+05 10112   0.282E+03
DAV:   2     0.489177562411E+04   -0.17080E+05   -0.16083E+05 10112   0.818E+02
DAV:   3    -0.126834670740E+03   -0.50186E+04   -0.47092E+04 12752   0.322E+02
DAV:   4    -0.778155914335E+03   -0.65132E+03   -0.63457E+03 12400   0.123E+02
DAV:   5    -0.829014791260E+03   -0.50859E+02   -0.50196E+02 14784   0.372E+01    0.773E+01
RMM:   6    -0.781980457873E+03    0.47034E+02   -0.77127E+02 14892   0.349E+01    0.391E+01
RMM:   7    -0.725627688344E+03    0.56353E+02   -0.26729E+02 13510   0.190E+01    0.259E+01
RMM:   8    -0.710166018587E+03    0.15462E+02   -0.65221E+01 11656   0.130E+01    0.120E+01
RMM:   9    -0.712060666965E+03   -0.18946E+01   -0.98890E+00 14735   0.390E+00    0.116E+01
RMM:  10    -0.711820296488E+03    0.24037E+00   -0.10421E+01 14275   0.345E+00    0.888E+00
RMM:  11    -0.711149815720E+03    0.67048E+00   -0.37006E+00 13389   0.359E+00    0.611E+00
RMM:  12    -0.710825802052E+03    0.32401E+00   -0.11723E+00 13684   0.147E+00    0.340E+00
RMM:  13    -0.710732824800E+03    0.92977E-01   -0.36747E-01 14001   0.643E-01    0.197E+00
RMM:  14    -0.710709344592E+03    0.23480E-01   -0.12733E-01 15353   0.359E-01    0.129E+00
RMM:  15    -0.710717662079E+03   -0.83175E-02   -0.68948E-02 13837   0.296E-01    0.176E+00
RMM:  16    -0.710713254359E+03    0.44077E-02   -0.28005E-02 13730   0.264E-01    0.127E+00
RMM:  17    -0.710716526357E+03   -0.32720E-02   -0.23301E-02 13751   0.217E-01    0.141E+00
RMM:  18    -0.710705972840E+03    0.10554E-01   -0.72069E-03 13231   0.133E-01    0.629E-01
RMM:  19    -0.710705469752E+03    0.50309E-03   -0.42291E-03 11384   0.869E-02    0.942E-01
RMM:  20    -0.710702490688E+03    0.29791E-02   -0.26727E-03 11643   0.766E-02    0.499E-01
RMM:  21    -0.710702338815E+03    0.15187E-03   -0.17667E-03 10935   0.638E-02    0.668E-01
RMM:  22    -0.710700994468E+03    0.13443E-02   -0.10860E-03 10564   0.520E-02    0.379E-01
RMM:  23    -0.710700929208E+03    0.65260E-04   -0.76100E-04 10391   0.446E-02    0.514E-01
RMM:  24    -0.710700204536E+03    0.72467E-03   -0.50575E-04 10063   0.372E-02    0.288E-01
RMM:  25    -0.710700121128E+03    0.83408E-04   -0.37644E-04  9844   0.324E-02    0.394E-01
RMM:  26    -0.710699679092E+03    0.44204E-03   -0.26092E-04  9336   0.273E-02    0.212E-01
RMM:  27    -0.710699632773E+03    0.46319E-04   -0.19015E-04  8845   0.235E-02    0.304E-01
RMM:  28    -0.710699361603E+03    0.27117E-03   -0.13321E-04  8219   0.198E-02    0.150E-01
RMM:  29    -0.710699347225E+03    0.14377E-04   -0.99537E-05  7660   0.172E-02    0.235E-01
RMM:  30    -0.710699185860E+03    0.16136E-03   -0.69100E-05  7007   0.144E-02    0.106E-01
RMM:  31    -0.710699188105E+03   -0.22448E-05   -0.51684E-05  6642   0.127E-02
   1 F= -.71069919E+03 E0= -.71067367E+03  d E =-.710699E+03
       N       E                     dE             d eps       ncg     rms          rms(c)
DAV:   1    -0.710575648137E+03    0.12354E+00   -0.60551E+01 11416   0.101E+01    0.172E+00
RMM:   2    -0.710825944964E+03   -0.25030E+00   -0.21837E+00 13391   0.280E+00    0.300E+00
RMM:   3    -0.710847077290E+03   -0.21132E-01   -0.49817E-01 14900   0.121E+00    0.183E+00
RMM:   4    -0.710834801469E+03    0.12276E-01   -0.72885E-02 14977   0.468E-01    0.159E+00
RMM:   5    -0.710817116531E+03    0.17685E-01   -0.18022E-02 14520   0.226E-01    0.888E-01
RMM:   6    -0.710812168072E+03    0.49485E-02   -0.11140E-02 13436   0.159E-01    0.919E-01
RMM:   7    -0.710805840609E+03    0.63275E-02   -0.92149E-03 12838   0.138E-01    0.358E-01
RMM:   8    -0.710805620088E+03    0.22052E-03   -0.61375E-03 13418   0.111E-01    0.662E-01
RMM:   9    -0.710803825564E+03    0.17945E-02   -0.14942E-03 12615   0.617E-02    0.237E-01
RMM:  10    -0.710803996386E+03   -0.17082E-03   -0.64932E-04 10490   0.409E-02    0.443E-01
RMM:  11    -0.710803213152E+03    0.78323E-03   -0.34284E-04  9979   0.274E-02    0.185E-01
RMM:  12    -0.710803412643E+03   -0.19949E-03   -0.21472E-04 10005   0.217E-02    0.329E-01
RMM:  13    -0.710803114088E+03    0.29855E-03   -0.11768E-04  8964   0.165E-02    0.181E-01
RMM:  14    -0.710803164302E+03   -0.50214E-04   -0.74721E-05  7855   0.146E-02    0.228E-01
RMM:  15    -0.710803047922E+03    0.11638E-03   -0.38073E-05  6894   0.992E-03    0.153E-01
RMM:  16    -0.710803046104E+03    0.18180E-05   -0.32186E-05  6814   0.102E-02
   2 F= -.71080305E+03 E0= -.71077899E+03  d E =-.103858E+00
       N       E                     dE             d eps       ncg     rms          rms(c)
DAV:   1    -0.710801797666E+03    0.12503E-02   -0.81341E-01 11280   0.118E+00    0.290E-01
RMM:   2    -0.710806441176E+03   -0.46435E-02   -0.29763E-02 13334   0.323E-01    0.545E-01
RMM:   3    -0.710805976843E+03    0.46433E-03   -0.61732E-03 14861   0.137E-01    0.368E-01
RMM:   4    -0.710805555857E+03    0.42099E-03   -0.10136E-03 12765   0.606E-02    0.278E-01
RMM:   5    -0.710805247693E+03    0.30816E-03   -0.36685E-04 10161   0.382E-02    0.229E-01
RMM:   6    -0.710804974406E+03    0.27329E-03   -0.17879E-04  7973   0.257E-02    0.167E-01
RMM:   7    -0.710804922903E+03    0.51503E-04   -0.21612E-04  9767   0.217E-02    0.194E-01
RMM:   8    -0.710804781578E+03    0.14132E-03   -0.15028E-04  8112   0.217E-02    0.112E-01
RMM:   9    -0.710804761395E+03    0.20183E-04   -0.64091E-05  7642   0.137E-02    0.141E-01
RMM:  10    -0.710804697566E+03    0.63829E-04   -0.36276E-05  6703   0.115E-02    0.787E-02
RMM:  11    -0.710804678426E+03    0.19141E-04   -0.21892E-05  6347   0.883E-03    0.977E-02
RMM:  12    -0.710804645739E+03    0.32687E-04   -0.15345E-05  6095   0.745E-03    0.534E-02
RMM:  13    -0.710804638724E+03    0.70149E-05   -0.10976E-05  5747   0.653E-03
   3 F= -.71080464E+03 E0= -.71078059E+03  d E =-.105451E+00
       N       E                     dE             d eps       ncg     rms          rms(c)
DAV:   1    -0.710765212175E+03    0.39434E-01   -0.22798E+01 11312   0.654E+00    0.890E-01
RMM:   2    -0.710842301210E+03   -0.77089E-01   -0.74867E-01 13323   0.172E+00    0.122E+00
RMM:   3    -0.710858618372E+03   -0.16317E-01   -0.16893E-01 15158   0.717E-01    0.995E-01
RMM:   4    -0.710855664631E+03    0.29537E-02   -0.19343E-02 15197   0.256E-01    0.795E-01
RMM:   5    -0.710853149717E+03    0.25149E-02   -0.54376E-03 14423   0.127E-01    0.566E-01
RMM:   6    -0.710851551938E+03    0.15978E-02   -0.39371E-03 13033   0.938E-02    0.613E-01
RMM:   7    -0.710850341610E+03    0.12103E-02   -0.33119E-03 12929   0.877E-02    0.378E-01
RMM:   8    -0.710850074898E+03    0.26671E-03   -0.89838E-04 11177   0.549E-02    0.452E-01
RMM:   9    -0.710849297312E+03    0.77759E-03   -0.51033E-04  9223   0.386E-02    0.237E-01
RMM:  10    -0.710849198527E+03    0.98785E-04   -0.32882E-04  9832   0.316E-02    0.338E-01
RMM:  11    -0.710848760123E+03    0.43840E-03   -0.20796E-04  9104   0.255E-02    0.150E-01
RMM:  12    -0.710848727771E+03    0.32352E-04   -0.13634E-04  8536   0.209E-02    0.246E-01
RMM:  13    -0.710848502135E+03    0.22564E-03   -0.83126E-05  7506   0.165E-02    0.993E-02
RMM:  14    -0.710848507403E+03   -0.52677E-05   -0.58180E-05  7107   0.139E-02
   4 F= -.71084851E+03 E0= -.71082478E+03  d E =-.438687E-01
       N       E                     dE             d eps       ncg     rms          rms(c)
DAV:   1    -0.710845859377E+03    0.26428E-02   -0.12740E+00 11712   0.154E+00    0.214E-01
RMM:   2    -0.710850471284E+03   -0.46119E-02   -0.40609E-02 13158   0.404E-01    0.424E-01
RMM:   3    -0.710851060488E+03   -0.58920E-03   -0.94269E-03 14926   0.172E-01    0.263E-01
RMM:   4    -0.710851136843E+03   -0.76355E-04   -0.12141E-03 14077   0.655E-02    0.324E-01
RMM:   5    -0.710850777921E+03    0.35892E-03   -0.39485E-04 10848   0.376E-02    0.161E-01
RMM:   6    -0.710850727516E+03    0.50405E-04   -0.23987E-04  9334   0.274E-02    0.244E-01
RMM:   7    -0.710850505901E+03    0.22162E-03   -0.21890E-04  9932   0.228E-02    0.130E-01
RMM:   8    -0.710850521315E+03   -0.15415E-04   -0.15299E-04  9357   0.208E-02    0.191E-01
RMM:   9    -0.710850377061E+03    0.14425E-03   -0.65625E-05  7454   0.153E-02    0.709E-02
RMM:  10    -0.710850391394E+03   -0.14333E-04   -0.35563E-05  6734   0.114E-02    0.149E-01
RMM:  11    -0.710850303969E+03    0.87424E-04   -0.25112E-05  6442   0.944E-03    0.358E-02
RMM:  12    -0.710850319228E+03   -0.15259E-04   -0.17201E-05  6207   0.805E-03    0.115E-01
RMM:  13    -0.710850272417E+03    0.46812E-04   -0.10463E-05  5961   0.637E-03    0.231E-02
RMM:  14    -0.710850285010E+03   -0.12593E-04   -0.77609E-06  5478   0.556E-03    0.895E-02
RMM:  15    -0.710850257889E+03    0.27121E-04   -0.47416E-06  4661   0.431E-03    0.178E-02
RMM:  16    -0.710850266082E+03   -0.81933E-05   -0.37766E-06  4444   0.393E-03
   5 F= -.71085027E+03 E0= -.71082657E+03  d E =-.456274E-01
       N       E                     dE             d eps       ncg     rms          rms(c)
DAV:   1    -0.710808653544E+03    0.41604E-01   -0.23310E+01 10944   0.648E+00    0.119E+00
RMM:   2    -0.710896241761E+03   -0.87588E-01   -0.69345E-01 12579   0.166E+00    0.209E+00
RMM:   3    -0.710906240247E+03   -0.99985E-02   -0.19313E-01 14660   0.784E-01    0.154E+00
RMM:   4    -0.710899430090E+03    0.68102E-02   -0.32344E-02 14758   0.326E-01    0.110E+00
RMM:   5    -0.710891253708E+03    0.81764E-02   -0.88534E-03 14514   0.152E-01    0.712E-01
RMM:   6    -0.710887490607E+03    0.37631E-02   -0.40361E-03 12967   0.992E-02    0.543E-01
RMM:   7    -0.710885681328E+03    0.18093E-02   -0.26473E-03 12518   0.814E-02    0.431E-01
RMM:   8    -0.710884375647E+03    0.13057E-02   -0.21959E-03 12977   0.659E-02    0.263E-01
RMM:   9    -0.710884207378E+03    0.16827E-03   -0.61191E-04 10681   0.425E-02    0.303E-01
RMM:  10    -0.710883783614E+03    0.42376E-03   -0.30228E-04  9735   0.283E-02    0.162E-01
RMM:  11    -0.710883640108E+03    0.14351E-03   -0.18747E-04  9484   0.219E-02    0.170E-01
RMM:  12    -0.710883506595E+03    0.13351E-03   -0.97008E-05  8206   0.158E-02    0.100E-01
RMM:  13    -0.710883461053E+03    0.45542E-04   -0.58231E-05  7407   0.125E-02    0.105E-01
RMM:  14    -0.710883417258E+03    0.43794E-04   -0.33404E-05  6767   0.980E-03    0.713E-02
RMM:  15    -0.710883398832E+03    0.18426E-04   -0.22480E-05  6456   0.831E-03    0.673E-02
RMM:  16    -0.710883381699E+03    0.17133E-04   -0.12979E-05  6138   0.658E-03    0.513E-02
RMM:  17    -0.710883373007E+03    0.86921E-05   -0.84698E-06  5214   0.532E-03
   6 F= -.71088337E+03 E0= -.71086028E+03  d E =-.331069E-01
       N       E                     dE             d eps       ncg     rms          rms(c)
DAV:   1    -0.710867642581E+03    0.15739E-01   -0.64424E+00 11128   0.341E+00    0.631E-01
RMM:   2    -0.710891612462E+03   -0.23970E-01   -0.18805E-01 12495   0.865E-01    0.112E+00
RMM:   3    -0.710895108425E+03   -0.34960E-02   -0.53644E-02 14642   0.410E-01    0.881E-01
RMM:   4    -0.710893070712E+03    0.20377E-02   -0.90373E-03 14585   0.175E-01    0.634E-01
RMM:   5    -0.710890662734E+03    0.24080E-02   -0.26004E-03 13808   0.840E-02    0.417E-01
RMM:   6    -0.710889323255E+03    0.13395E-02   -0.12452E-03 11341   0.569E-02    0.292E-01
RMM:   7    -0.710888744293E+03    0.57896E-03   -0.84736E-04 10747   0.470E-02    0.247E-01
RMM:   8    -0.710888390443E+03    0.35385E-03   -0.55614E-04 11093   0.349E-02    0.175E-01
RMM:   9    -0.710888275611E+03    0.11483E-03   -0.17450E-04  9393   0.235E-02    0.153E-01
RMM:  10    -0.710888152780E+03    0.12283E-03   -0.79857E-05  8043   0.148E-02    0.852E-02
RMM:  11    -0.710888099056E+03    0.53724E-04   -0.50259E-05  7427   0.117E-02    0.693E-02
RMM:  12    -0.710888071139E+03    0.27917E-04   -0.22854E-05  6575   0.788E-03    0.489E-02
RMM:  13    -0.710888057815E+03    0.13324E-04   -0.14519E-05  6244   0.677E-03    0.337E-02
RMM:  14    -0.710888051392E+03    0.64225E-05   -0.69797E-06  6010   0.513E-03
   7 F= -.71088805E+03 E0= -.71086531E+03  d E =-.377853E-01
       N       E                     dE             d eps       ncg     rms          rms(c)
DAV:   1    -0.710818139310E+03    0.69919E-01   -0.26520E+01 10992   0.712E+00    0.119E+00
RMM:   2    -0.710919378828E+03   -0.10124E+00   -0.83461E-01 12888   0.184E+00    0.211E+00
RMM:   3    -0.710931360055E+03   -0.11981E-01   -0.22023E-01 14528   0.878E-01    0.153E+00
RMM:   4    -0.710921888909E+03    0.94711E-02   -0.39193E-02 14915   0.352E-01    0.988E-01
RMM:   5    -0.710914830515E+03    0.70584E-02   -0.95363E-03 14815   0.153E-01    0.700E-01
RMM:   6    -0.710911204738E+03    0.36258E-02   -0.39331E-03 13671   0.968E-02    0.524E-01
RMM:   7    -0.710909656292E+03    0.15484E-02   -0.23329E-03 12964   0.731E-02    0.486E-01
RMM:   8    -0.710908637254E+03    0.10190E-02   -0.27482E-03 13246   0.695E-02    0.355E-01
RMM:   9    -0.710908125833E+03    0.51142E-03   -0.79101E-04 11708   0.485E-02    0.248E-01
RMM:  10    -0.710907744955E+03    0.38088E-03   -0.30059E-04  9714   0.285E-02    0.167E-01
RMM:  11    -0.710907554787E+03    0.19017E-03   -0.19690E-04 10085   0.201E-02    0.809E-02
RMM:  12    -0.710907500287E+03    0.54501E-04   -0.88802E-05  8551   0.131E-02    0.909E-02
RMM:  13    -0.710907469685E+03    0.30601E-04   -0.46995E-05  7459   0.987E-03    0.249E-02
RMM:  14    -0.710907462131E+03    0.75548E-05   -0.21207E-05  6574   0.683E-03
   8 F= -.71090746E+03 E0= -.71088584E+03  d E =-.194107E-01
       N       E                     dE             d eps       ncg     rms          rms(c)
DAV:   1    -0.710907403550E+03    0.66136E-04   -0.15548E-02 11848   0.172E-01    0.332E-02
RMM:   2    -0.710907461463E+03   -0.57913E-04   -0.49986E-04 12684   0.447E-02    0.532E-02
RMM:   3    -0.710907468472E+03   -0.70092E-05   -0.12024E-04 10444   0.205E-02    0.454E-02
RMM:   4    -0.710907463748E+03    0.47243E-05   -0.22066E-05  6419   0.116E-02
   9 F= -.71090746E+03 E0= -.71088590E+03  d E =-.194124E-01
       N       E                     dE             d eps       ncg     rms          rms(c)
DAV:   1    -0.710866074628E+03    0.41394E-01   -0.16668E+01 11024   0.564E+00    0.894E-01
RMM:   2    -0.710925115083E+03   -0.59040E-01   -0.49672E-01 12655   0.145E+00    0.155E+00
RMM:   3    -0.710934480379E+03   -0.93653E-02   -0.14215E-01 14484   0.711E-01    0.116E+00
RMM:   4    -0.710929289165E+03    0.51912E-02   -0.24735E-02 14990   0.279E-01    0.739E-01
RMM:   5    -0.710925725279E+03    0.35639E-02   -0.60248E-03 14912   0.120E-01    0.550E-01
RMM:   6    -0.710923712018E+03    0.20133E-02   -0.22763E-03 12670   0.742E-02    0.411E-01
RMM:   7    -0.710922676312E+03    0.10357E-02   -0.15114E-03 12694   0.569E-02    0.343E-01
RMM:   8    -0.710922101239E+03    0.57507E-03   -0.14480E-03 12956   0.516E-02    0.224E-01
RMM:   9    -0.710921864541E+03    0.23670E-03   -0.33106E-04  9792   0.335E-02    0.170E-01
RMM:  10    -0.710921678651E+03    0.18589E-03   -0.14331E-04  9090   0.183E-02    0.989E-02
RMM:  11    -0.710921611528E+03    0.67123E-04   -0.92183E-05  8801   0.134E-02    0.666E-02
RMM:  12    -0.710921588488E+03    0.23040E-04   -0.41712E-05  7279   0.929E-03    0.575E-02
RMM:  13    -0.710921575815E+03    0.12673E-04   -0.21241E-05  6493   0.742E-03    0.310E-02
RMM:  14    -0.710921570793E+03    0.50226E-05   -0.10271E-05  6135   0.546E-03
  10 F= -.71092157E+03 E0= -.71090090E+03  d E =-.141070E-01
       N       E                     dE             d eps       ncg     rms          rms(c)
DAV:   1    -0.710918873205E+03    0.27026E-02   -0.10360E+00 11520   0.141E+00    0.230E-01
RMM:   2    -0.710922614202E+03   -0.37410E-02   -0.30289E-02 12605   0.358E-01    0.406E-01
RMM:   3    -0.710923139090E+03   -0.52489E-03   -0.86068E-03 14583   0.172E-01    0.309E-01
RMM:   4    -0.710922863515E+03    0.27557E-03   -0.15063E-03 14202   0.705E-02    0.226E-01
RMM:   5    -0.710922564355E+03    0.29916E-03   -0.40818E-04 11031   0.334E-02    0.148E-01
RMM:   6    -0.710922418992E+03    0.14536E-03   -0.17389E-04  8716   0.225E-02    0.123E-01
RMM:   7    -0.710922332404E+03    0.86588E-04   -0.14676E-04 10073   0.177E-02    0.948E-02
RMM:   8    -0.710922285336E+03    0.47069E-04   -0.77578E-05  8731   0.139E-02    0.586E-02
RMM:   9    -0.710922264989E+03    0.20347E-04   -0.22307E-05  6566   0.875E-03    0.464E-02
RMM:  10    -0.710922251631E+03    0.13358E-04   -0.93461E-06  6060   0.602E-03    0.264E-02
RMM:  11    -0.710922245991E+03    0.56398E-05   -0.58377E-06  5971   0.449E-03
  11 F= -.71092225E+03 E0= -.71090192E+03  d E =-.147822E-01
       N       E                     dE             d eps       ncg     rms          rms(c)
DAV:   1    -0.710891746176E+03    0.30505E-01   -0.12230E+01 10936   0.480E+00    0.835E-01
RMM:   2    -0.710938129003E+03   -0.46383E-01   -0.36630E-01 12741   0.125E+00    0.155E+00
RMM:   3    -0.710942128100E+03   -0.39991E-02   -0.10262E-01 14197   0.621E-01    0.105E+00
RMM:   4    -0.710936344545E+03    0.57836E-02   -0.21136E-02 14971   0.251E-01    0.622E-01
RMM:   5    -0.710933345962E+03    0.29986E-02   -0.48252E-03 14815   0.106E-01    0.473E-01
RMM:   6    -0.710931833186E+03    0.15128E-02   -0.17655E-03 12369   0.620E-02    0.344E-01
RMM:   7    -0.710931104115E+03    0.72907E-03   -0.11548E-03 12452   0.491E-02    0.293E-01
RMM:   8    -0.710930687244E+03    0.41687E-03   -0.11134E-03 13108   0.450E-02    0.178E-01
RMM:   9    -0.710930528895E+03    0.15835E-03   -0.24940E-04  9572   0.288E-02    0.135E-01
RMM:  10    -0.710930413505E+03    0.11539E-03   -0.10852E-04  8755   0.152E-02    0.760E-02
RMM:  11    -0.710930371876E+03    0.41629E-04   -0.62215E-05  8063   0.107E-02    0.480E-02
RMM:  12    -0.710930361359E+03    0.10517E-04   -0.28638E-05  6787   0.742E-03    0.434E-02
RMM:  13    -0.710930354773E+03    0.65863E-05   -0.13693E-05  6247   0.603E-03
  12 F= -.71093035E+03 E0= -.71091137E+03  d E =-.810878E-02
       N       E                     dE             d eps       ncg     rms          rms(c)
DAV:   1    -0.710930315191E+03    0.46168E-04   -0.11506E-02 11928   0.147E-01    0.387E-02
RMM:   2    -0.710930403820E+03   -0.88629E-04   -0.37154E-04 12468   0.385E-02    0.107E-01
RMM:   3    -0.710930392518E+03    0.11301E-04   -0.96147E-05  9711   0.181E-02    0.743E-02
RMM:   4    -0.710930374394E+03    0.18124E-04   -0.21011E-05  6304   0.118E-02    0.528E-02
RMM:   5    -0.710930359129E+03    0.15266E-04   -0.92624E-06  6004   0.754E-03    0.314E-02
RMM:   6    -0.710930352463E+03    0.66652E-05   -0.48153E-06  5931   0.545E-03
  13 F= -.71093035E+03 E0= -.71091129E+03  d E =-.810647E-02
       N       E                     dE             d eps       ncg     rms          rms(c)
DAV:   1    -0.710919133530E+03    0.11226E-01   -0.52133E+00 10976   0.314E+00    0.536E-01
RMM:   2    -0.710938382800E+03   -0.19249E-01   -0.15076E-01 12739   0.811E-01    0.102E+00
RMM:   3    -0.710940271936E+03   -0.18891E-02   -0.41931E-02 14364   0.392E-01    0.782E-01
RMM:   4    -0.710938173164E+03    0.20988E-02   -0.80100E-03 15064   0.155E-01    0.536E-01
RMM:   5    -0.710936678391E+03    0.14948E-02   -0.19838E-03 13826   0.746E-02    0.403E-01
RMM:   6    -0.710935728752E+03    0.94964E-03   -0.79488E-04 10733   0.483E-02    0.252E-01
RMM:   7    -0.710935253025E+03    0.47573E-03   -0.86841E-04 12391   0.384E-02    0.192E-01
RMM:   8    -0.710935052145E+03    0.20088E-03   -0.35836E-04 11089   0.294E-02    0.709E-02
RMM:   9    -0.710935005304E+03    0.46842E-04   -0.94272E-05  8494   0.167E-02    0.107E-01
RMM:  10    -0.710934963248E+03    0.42055E-04   -0.41259E-05  7422   0.954E-03    0.231E-02
RMM:  11    -0.710934949993E+03    0.13255E-04   -0.18813E-05  6450   0.696E-03    0.489E-02
RMM:  12    -0.710934943675E+03    0.63184E-05   -0.10592E-05  6116   0.515E-03
  14 F= -.71093494E+03 E0= -.71091697E+03  d E =-.459121E-02
       N       E                     dE             d eps       ncg     rms          rms(c)
DAV:   1    -0.710934851723E+03    0.98271E-04   -0.60077E-02 12016   0.336E-01    0.712E-02
RMM:   2    -0.710935180362E+03   -0.32864E-03   -0.17814E-03 12813   0.867E-02    0.186E-01
RMM:   3    -0.710935165744E+03    0.14618E-04   -0.46898E-04 12759   0.415E-02    0.137E-01
RMM:   4    -0.710935104253E+03    0.61491E-04   -0.10011E-04  8778   0.214E-02    0.866E-02
RMM:   5    -0.710935059508E+03    0.44745E-04   -0.36369E-05  6663   0.133E-02    0.576E-02
RMM:   6    -0.710935037887E+03    0.21622E-04   -0.16566E-05  6255   0.897E-03    0.357E-02
RMM:   7    -0.710935028570E+03    0.93169E-05   -0.14989E-05  6176   0.654E-03
  15 F= -.71093503E+03 E0= -.71091716E+03  d E =-.467611E-02
       N       E                     dE             d eps       ncg     rms          rms(c)
DAV:   1    -0.710928963263E+03    0.60746E-02   -0.31364E+00 11296   0.247E+00    0.403E-01
RMM:   2    -0.710940176822E+03   -0.11214E-01   -0.89229E-02 12700   0.634E-01    0.735E-01
RMM:   3    -0.710941197799E+03   -0.10210E-02   -0.25376E-02 14274   0.311E-01    0.549E-01
RMM:   4    -0.710940091363E+03    0.11064E-02   -0.51400E-03 15046   0.122E-01    0.381E-01
RMM:   5    -0.710939415518E+03    0.67585E-03   -0.11844E-03 13160   0.551E-02    0.297E-01
RMM:   6    -0.710938939090E+03    0.47643E-03   -0.46069E-04  9705   0.369E-02    0.185E-01
RMM:   7    -0.710938706583E+03    0.23251E-03   -0.50362E-04 11349   0.296E-02    0.147E-01
RMM:   8    -0.710938595546E+03    0.11104E-03   -0.17778E-04 10238   0.214E-02    0.459E-02
RMM:   9    -0.710938570053E+03    0.25494E-04   -0.50455E-05  7569   0.121E-02    0.797E-02
RMM:  10    -0.710938547775E+03    0.22278E-04   -0.22418E-05  6655   0.731E-03    0.181E-02
RMM:  11    -0.710938539983E+03    0.77919E-05   -0.11304E-05  6134   0.567E-03
  16 F= -.71093854E+03 E0= -.71092158E+03  d E =-.351141E-02
       N       E                     dE             d eps       ncg     rms          rms(c)
DAV:   1    -0.710937357296E+03    0.11905E-02   -0.55557E-01 11808   0.104E+00    0.171E-01
RMM:   2    -0.710939355007E+03   -0.19977E-02   -0.15795E-02 12714   0.266E-01    0.309E-01
RMM:   3    -0.710939533912E+03   -0.17891E-03   -0.44323E-03 14249   0.129E-01    0.247E-01
RMM:   4    -0.710939344563E+03    0.18935E-03   -0.86628E-04 13532   0.504E-02    0.175E-01
RMM:   5    -0.710939214586E+03    0.12998E-03   -0.22301E-04  9839   0.284E-02    0.134E-01
RMM:   6    -0.710939118832E+03    0.95755E-04   -0.90003E-05  7786   0.176E-02    0.797E-02
RMM:   7    -0.710939074756E+03    0.44076E-04   -0.11065E-04 10015   0.141E-02    0.654E-02
RMM:   8    -0.710939053703E+03    0.21053E-04   -0.27659E-05  6687   0.981E-03    0.195E-02
RMM:   9    -0.710939048396E+03    0.53068E-05   -0.89505E-06  6046   0.606E-03
  17 F= -.71093905E+03 E0= -.71092242E+03  d E =-.401983E-02
       N       E                     dE             d eps       ncg     rms          rms(c)
DAV:   1    -0.710935339951E+03    0.37138E-02   -0.24259E+00 11432   0.216E+00    0.351E-01
RMM:   2    -0.710943265727E+03   -0.79258E-02   -0.64882E-02 12642   0.545E-01    0.585E-01
RMM:   3    -0.710943952226E+03   -0.68650E-03   -0.19242E-02 14243   0.268E-01    0.411E-01
RMM:   4    -0.710943053193E+03    0.89903E-03   -0.40687E-03 14735   0.111E-01    0.232E-01
RMM:   5    -0.710942684139E+03    0.36905E-03   -0.93919E-04 12836   0.446E-02    0.210E-01
RMM:   6    -0.710942497054E+03    0.18709E-03   -0.29003E-04  9599   0.271E-02    0.145E-01
RMM:   7    -0.710942379931E+03    0.11712E-03   -0.33303E-04 11139   0.249E-02    0.115E-01
RMM:   8    -0.710942318257E+03    0.61674E-04   -0.10491E-04  9203   0.169E-02    0.453E-02
RMM:   9    -0.710942299328E+03    0.18929E-04   -0.30766E-05  7000   0.949E-03    0.551E-02
RMM:  10    -0.710942286783E+03    0.12545E-04   -0.14398E-05  6309   0.631E-03    0.198E-02
RMM:  11    -0.710942282049E+03    0.47335E-05   -0.77189E-06  6040   0.491E-03
  18 F= -.71094228E+03 E0= -.71092649E+03  d E =-.323365E-02
       N       E                     dE             d eps       ncg     rms          rms(c)
DAV:   1    -0.710938348287E+03    0.39385E-02   -0.19330E+00 11552   0.193E+00    0.306E-01
RMM:   2    -0.710944444582E+03   -0.60963E-02   -0.51349E-02 12661   0.484E-01    0.488E-01
RMM:   3    -0.710945016688E+03   -0.57211E-03   -0.15115E-02 14236   0.237E-01    0.346E-01
RMM:   4    -0.710944375131E+03    0.64156E-03   -0.31791E-03 14671   0.982E-02    0.194E-01
RMM:   5    -0.710944138864E+03    0.23627E-03   -0.74913E-04 12493   0.392E-02    0.183E-01
RMM:   6    -0.710944013362E+03    0.12550E-03   -0.22259E-04  9379   0.237E-02    0.129E-01
RMM:   7    -0.710943924386E+03    0.88976E-04   -0.27495E-04 11019   0.226E-02    0.100E-01
RMM:   8    -0.710943878020E+03    0.46365E-04   -0.76842E-05  8538   0.149E-02    0.383E-02
RMM:   9    -0.710943863822E+03    0.14198E-04   -0.23398E-05  6693   0.822E-03    0.480E-02
RMM:  10    -0.710943854601E+03    0.92208E-05   -0.10913E-05  6152   0.574E-03
  19 F= -.71094385E+03 E0= -.71092892E+03  d E =-.480620E-02
       N       E                     dE             d eps       ncg     rms          rms(c)
DAV:   1    -0.710920801324E+03    0.23062E-01   -0.77321E+00 11392   0.386E+00    0.581E-01
RMM:   2    -0.710944118106E+03   -0.23317E-01   -0.20772E-01 12595   0.976E-01    0.895E-01
RMM:   3    -0.710947164888E+03   -0.30468E-02   -0.62475E-02 14268   0.483E-01    0.641E-01
RMM:   4    -0.710945191885E+03    0.19730E-02   -0.11921E-02 15074   0.189E-01    0.443E-01
RMM:   5    -0.710944609893E+03    0.58199E-03   -0.27401E-03 14877   0.732E-02    0.381E-01
RMM:   6    -0.710943988773E+03    0.62112E-03   -0.92488E-04 11782   0.493E-02    0.256E-01
RMM:   7    -0.710943592191E+03    0.39658E-03   -0.12242E-03 13078   0.462E-02    0.184E-01
RMM:   8    -0.710943420148E+03    0.17204E-03   -0.29104E-04 10567   0.266E-02    0.584E-02
RMM:   9    -0.710943378832E+03    0.41316E-04   -0.93670E-05  8409   0.151E-02    0.956E-02
RMM:  10    -0.710943346314E+03    0.32518E-04   -0.42868E-05  7448   0.882E-03    0.157E-02
RMM:  11    -0.710943335338E+03    0.10977E-04   -0.22917E-05  6598   0.668E-03    0.361E-02
RMM:  12    -0.710943332333E+03    0.30048E-05   -0.94930E-06  6149   0.460E-03
  20 F= -.71094333E+03 E0= -.71093010E+03  d E =-.428394E-02
       N       E                     dE             d eps       ncg     rms          rms(c)
DAV:   1    -0.710934152617E+03    0.91827E-02   -0.35238E+00 11312   0.260E+00    0.402E-01
RMM:   2    -0.710944179198E+03   -0.10027E-01   -0.91651E-02 12686   0.645E-01    0.477E-01
RMM:   3    -0.710945572892E+03   -0.13937E-02   -0.26580E-02 14734   0.301E-01    0.397E-01
RMM:   4    -0.710945052164E+03    0.52073E-03   -0.46585E-03 14333   0.128E-01    0.259E-01
RMM:   5    -0.710944535776E+03    0.51639E-03   -0.12501E-03 13586   0.518E-02    0.166E-01
RMM:   6    -0.710944477367E+03    0.58409E-04   -0.36185E-04 10557   0.270E-02    0.201E-01
RMM:   7    -0.710944312524E+03    0.16484E-03   -0.46926E-04 11597   0.297E-02    0.103E-01
RMM:   8    -0.710944262342E+03    0.50182E-04   -0.10062E-04  8974   0.178E-02    0.851E-02
RMM:   9    -0.710944226069E+03    0.36273E-04   -0.37090E-05  7222   0.997E-03    0.338E-02
RMM:  10    -0.710944213665E+03    0.12404E-04   -0.15834E-05  6375   0.676E-03    0.379E-02
RMM:  11    -0.710944208476E+03    0.51887E-05   -0.86153E-06  6040   0.490E-03
  21 F= -.71094421E+03 E0= -.71092980E+03  d E =-.516008E-02
       N       E                     dE             d eps       ncg     rms          rms(c)
DAV:   1    -0.710942774696E+03    0.14390E-02   -0.12652E+00 11432   0.156E+00    0.240E-01
RMM:   2    -0.710946488298E+03   -0.37136E-02   -0.32454E-02 12680   0.391E-01    0.361E-01
RMM:   3    -0.710946995026E+03   -0.50673E-03   -0.98685E-03 14275   0.190E-01    0.287E-01
RMM:   4    -0.710946746156E+03    0.24887E-03   -0.19210E-03 14873   0.753E-02    0.220E-01
RMM:   5    -0.710946599915E+03    0.14624E-03   -0.43741E-04 11660   0.325E-02    0.172E-01
RMM:   6    -0.710946460019E+03    0.13990E-03   -0.17201E-04  8446   0.239E-02    0.110E-01
RMM:   7    -0.710946387208E+03    0.72812E-04   -0.21083E-04 10742   0.192E-02    0.819E-02
RMM:   8    -0.710946353062E+03    0.34146E-04   -0.44504E-05  7432   0.121E-02    0.261E-02
RMM:   9    -0.710946344051E+03    0.90112E-05   -0.14524E-05  6238   0.682E-03
  22 F= -.71094634E+03 E0= -.71093263E+03  d E =-.213557E-02
       N       E                     dE             d eps       ncg     rms          rms(c)
DAV:   1    -0.710921230344E+03    0.25123E-01   -0.96967E+00 11424   0.432E+00    0.632E-01
RMM:   2    -0.710949173156E+03   -0.27943E-01   -0.25418E-01 12650   0.110E+00    0.966E-01
RMM:   3    -0.710953536425E+03   -0.43633E-02   -0.78427E-02 14286   0.541E-01    0.757E-01
RMM:   4    -0.710952411746E+03    0.11247E-02   -0.14232E-02 15426   0.198E-01    0.640E-01
RMM:   5    -0.710951145666E+03    0.12661E-02   -0.30038E-03 14412   0.885E-02    0.418E-01
RMM:   6    -0.710950115841E+03    0.10298E-02   -0.12272E-03 12152   0.584E-02    0.299E-01
RMM:   7    -0.710949592939E+03    0.52290E-03   -0.16471E-03 13106   0.530E-02    0.178E-01
RMM:   8    -0.710949398047E+03    0.19489E-03   -0.28782E-04 10352   0.277E-02    0.820E-02
RMM:   9    -0.710949340630E+03    0.57416E-04   -0.11735E-04  8717   0.151E-02    0.793E-02
RMM:  10    -0.710949308592E+03    0.32039E-04   -0.47834E-05  7551   0.939E-03    0.178E-02
RMM:  11    -0.710949299812E+03    0.87801E-05   -0.27448E-05  6775   0.662E-03
  23 F= -.71094930E+03 E0= -.71093774E+03  d E =-.509134E-02
       N       E                     dE             d eps       ncg     rms          rms(c)
DAV:   1    -0.710948686880E+03    0.62171E-03   -0.74651E-01 11888   0.121E+00    0.169E-01
RMM:   2    -0.710950922911E+03   -0.22360E-02   -0.20805E-02 13156   0.316E-01    0.263E-01
RMM:   3    -0.710951429255E+03   -0.50634E-03   -0.58537E-03 14826   0.142E-01    0.259E-01
RMM:   4    -0.710951327539E+03    0.10172E-03   -0.87460E-04 14654   0.509E-02    0.181E-01
RMM:   5    -0.710951174354E+03    0.15318E-03   -0.22870E-04  9817   0.303E-02    0.118E-01
RMM:   6    -0.710951082725E+03    0.91629E-04   -0.10955E-04  8341   0.192E-02    0.746E-02
RMM:   7    -0.710951036437E+03    0.46288E-04   -0.15461E-04 10345   0.163E-02    0.354E-02
RMM:   8    -0.710951025916E+03    0.10521E-04   -0.20288E-05  6495   0.935E-03    0.225E-02
RMM:   9    -0.710951022322E+03    0.35940E-05   -0.76392E-06  6040   0.514E-03
  24 F= -.71095102E+03 E0= -.71093998E+03  d E =-.172251E-02
       N       E                     dE             d eps       ncg     rms          rms(c)
DAV:   1    -0.710950146145E+03    0.87977E-03   -0.52061E-01 11656   0.101E+00    0.138E-01
RMM:   2    -0.710951649786E+03   -0.15036E-02   -0.14571E-02 13224   0.264E-01    0.185E-01
RMM:   3    -0.710952012390E+03   -0.36260E-03   -0.40106E-03 14734   0.118E-01    0.197E-01
RMM:   4    -0.710951966550E+03    0.45840E-04   -0.61229E-04 14101   0.423E-02    0.145E-01
RMM:   5    -0.710951880717E+03    0.85833E-04   -0.15514E-04  9325   0.254E-02    0.961E-02
RMM:   6    -0.710951822548E+03    0.58169E-04   -0.72899E-05  7773   0.161E-02    0.610E-02
RMM:   7    -0.710951792425E+03    0.30123E-04   -0.10835E-04  9950   0.140E-02    0.301E-02
RMM:   8    -0.710951785017E+03    0.74075E-05   -0.14016E-05  6183   0.810E-03
  25 F= -.71095179E+03 E0= -.71094125E+03  d E =-.248521E-02
       N       E                     dE             d eps       ncg     rms          rms(c)
DAV:   1    -0.710944833103E+03    0.69593E-02   -0.20805E+00 11344   0.203E+00    0.277E-01
RMM:   2    -0.710951078525E+03   -0.62454E-02   -0.58108E-02 13139   0.530E-01    0.443E-01
RMM:   3    -0.710952426641E+03   -0.13481E-02   -0.16509E-02 14788   0.240E-01    0.402E-01
RMM:   4    -0.710952224883E+03    0.20176E-03   -0.25009E-03 15186   0.851E-02    0.296E-01
RMM:   5    -0.710951793417E+03    0.43147E-03   -0.63101E-04 11471   0.490E-02    0.172E-01
RMM:   6    -0.710951568938E+03    0.22448E-03   -0.29201E-04  9884   0.295E-02    0.121E-01
RMM:   7    -0.710951457134E+03    0.11180E-03   -0.36693E-04 11216   0.254E-02    0.441E-02
RMM:   8    -0.710951436536E+03    0.20598E-04   -0.52609E-05  7817   0.136E-02    0.393E-02
RMM:   9    -0.710951428321E+03    0.82149E-05   -0.21526E-05  6644   0.697E-03
  26 F= -.71095143E+03 E0= -.71094174E+03  d E =-.212851E-02
       N       E                     dE             d eps       ncg     rms          rms(c)
DAV:   1    -0.710949115534E+03    0.23210E-02   -0.90437E-01 11216   0.133E+00    0.186E-01
RMM:   2    -0.710951870812E+03   -0.27553E-02   -0.24904E-02 13121   0.347E-01    0.317E-01
RMM:   3    -0.710952466336E+03   -0.59552E-03   -0.70503E-03 15100   0.152E-01    0.283E-01
RMM:   4    -0.710952294341E+03    0.17200E-03   -0.87872E-04 14671   0.550E-02    0.192E-01
RMM:   5    -0.710952105351E+03    0.18899E-03   -0.25957E-04 10278   0.322E-02    0.119E-01
RMM:   6    -0.710952007679E+03    0.97671E-04   -0.14312E-04  8535   0.221E-02    0.767E-02
RMM:   7    -0.710951953760E+03    0.53919E-04   -0.15944E-04 10257   0.174E-02    0.291E-02
RMM:   8    -0.710951944841E+03    0.89198E-05   -0.20115E-05  6478   0.909E-03
  27 F= -.71095194E+03 E0= -.71094164E+03  d E =-.264503E-02
       N       E                     dE             d eps       ncg     rms          rms(c)
DAV:   1    -0.710950740190E+03    0.12136E-02   -0.79466E-01 11296   0.125E+00    0.154E-01
RMM:   2    -0.710952754834E+03   -0.20146E-02   -0.21047E-02 12926   0.316E-01    0.138E-01
RMM:   3    -0.710953328563E+03   -0.57373E-03   -0.59297E-03 14570   0.145E-01    0.168E-01
RMM:   4    -0.710953269816E+03    0.58747E-04   -0.93445E-04 14303   0.551E-02    0.127E-01
RMM:   5    -0.710953237595E+03    0.32221E-04   -0.21896E-04 10626   0.237E-02    0.103E-01
RMM:   6    -0.710953185059E+03    0.52536E-04   -0.86604E-05  7958   0.176E-02    0.645E-02
RMM:   7    -0.710953153854E+03    0.31205E-04   -0.14765E-04 10524   0.160E-02    0.404E-02
RMM:   8    -0.710953142926E+03    0.10928E-04   -0.18834E-05  6472   0.945E-03    0.161E-02
RMM:   9    -0.710953139719E+03    0.32065E-05   -0.62601E-06  5988   0.504E-03
  28 F= -.71095314E+03 E0= -.71094326E+03  d E =-.119488E-02
       N       E                     dE             d eps       ncg     rms          rms(c)
DAV:   1    -0.710951743122E+03    0.13998E-02   -0.58709E-01 11616   0.107E+00    0.133E-01
RMM:   2    -0.710953247559E+03   -0.15044E-02   -0.15707E-02 12936   0.272E-01    0.118E-01
RMM:   3    -0.710953703033E+03   -0.45547E-03   -0.43958E-03 14665   0.123E-01    0.163E-01
RMM:   4    -0.710953664761E+03    0.38272E-04   -0.64826E-04 14007   0.455E-02    0.121E-01
RMM:   5    -0.710953623824E+03    0.40937E-04   -0.15942E-04  9804   0.226E-02    0.893E-02
RMM:   6    -0.710953579008E+03    0.44816E-04   -0.70266E-05  7684   0.159E-02    0.550E-02
RMM:   7    -0.710953555298E+03    0.23710E-04   -0.11435E-04 10164   0.143E-02    0.296E-02
RMM:   8    -0.710953548099E+03    0.71995E-05   -0.14582E-05  6263   0.840E-03
  29 F= -.71095355E+03 E0= -.71094407E+03  d E =-.160326E-02
       N       E                     dE             d eps       ncg     rms          rms(c)
DAV:   1    -0.710952600475E+03    0.95482E-03   -0.54798E-01 11520   0.105E+00    0.143E-01
RMM:   2    -0.710954511225E+03   -0.19108E-02   -0.16171E-02 13113   0.271E-01    0.303E-01
RMM:   3    -0.710954779381E+03   -0.26816E-03   -0.42045E-03 15116   0.117E-01    0.222E-01
RMM:   4    -0.710954631549E+03    0.14783E-03   -0.51598E-04 13700   0.436E-02    0.148E-01
RMM:   5    -0.710954499510E+03    0.13204E-03   -0.15639E-04  9109   0.272E-02    0.806E-02
RMM:   6    -0.710954443344E+03    0.56166E-04   -0.99924E-05  8524   0.176E-02    0.580E-02
RMM:   7    -0.710954414702E+03    0.28642E-04   -0.10320E-04  9746   0.140E-02    0.188E-02
RMM:   8    -0.710954410538E+03    0.41644E-05   -0.13784E-05  6224   0.780E-03
  30 F= -.71095441E+03 E0= -.71094525E+03  d E =-.862439E-03
       N       E                     dE             d eps       ncg     rms          rms(c)
DAV:   1    -0.710954029092E+03    0.38561E-03   -0.15575E-01 12000   0.561E-01    0.802E-02
RMM:   2    -0.710954636013E+03   -0.60692E-03   -0.46415E-03 13147   0.144E-01    0.199E-01
RMM:   3    -0.710954671036E+03   -0.35023E-04   -0.11868E-03 14854   0.623E-02    0.122E-01
RMM:   4    -0.710954615389E+03    0.55647E-04   -0.15718E-04 11095   0.255E-02    0.888E-02
RMM:   5    -0.710954569243E+03    0.46146E-04   -0.48947E-05  7288   0.165E-02    0.409E-02
RMM:   6    -0.710954551508E+03    0.17735E-04   -0.30664E-05  6813   0.106E-02    0.330E-02
RMM:   7    -0.710954543430E+03    0.80787E-05   -0.31913E-05  7097   0.866E-03
  31 F= -.71095454E+03 E0= -.71094552E+03  d E =-.995331E-03
       N       E                     dE             d eps       ncg     rms          rms(c)
DAV:   1    -0.710953399745E+03    0.11518E-02   -0.48861E-01 11424   0.101E+00    0.122E-01
RMM:   2    -0.710955007159E+03   -0.16074E-02   -0.14659E-02 13067   0.261E-01    0.224E-01
RMM:   3    -0.710955323459E+03   -0.31630E-03   -0.37372E-03 15109   0.112E-01    0.184E-01
RMM:   4    -0.710955237771E+03    0.85688E-04   -0.44586E-04 13907   0.405E-02    0.118E-01
RMM:   5    -0.710955155025E+03    0.82746E-04   -0.12635E-04  9021   0.249E-02    0.682E-02
RMM:   6    -0.710955109591E+03    0.45435E-04   -0.10510E-04  9422   0.166E-02    0.385E-02
RMM:   7    -0.710955096409E+03    0.13182E-04   -0.54222E-05  8022   0.114E-02    0.181E-02
RMM:   8    -0.710955093652E+03    0.27571E-05   -0.93092E-06  6115   0.640E-03
  32 F= -.71095509E+03 E0= -.71094628E+03  d E =-.550222E-03
       N       E                     dE             d eps       ncg     rms          rms(c)
DAV:   1    -0.710954957131E+03    0.13928E-03   -0.53245E-02 12136   0.334E-01    0.443E-02
RMM:   2    -0.710955161278E+03   -0.20415E-03   -0.16411E-03 13303   0.856E-02    0.105E-01
RMM:   3    -0.710955178448E+03   -0.17169E-04   -0.39143E-04 13688   0.362E-02    0.660E-02
RMM:   4    -0.710955163129E+03    0.15318E-04   -0.54362E-05  8019   0.171E-02    0.474E-02
RMM:   5    -0.710955150487E+03    0.12642E-04   -0.17786E-05  6165   0.105E-02    0.223E-02
RMM:   6    -0.710955144574E+03    0.59124E-05   -0.11608E-05  6040   0.735E-03
  33 F= -.71095514E+03 E0= -.71094639E+03  d E =-.601145E-03
       N       E                     dE             d eps       ncg     rms          rms(c)
DAV:   1    -0.710954569250E+03    0.58124E-03   -0.26680E-01 11376   0.769E-01    0.907E-02
RMM:   2    -0.710955505666E+03   -0.93642E-03   -0.82628E-03 13232   0.202E-01    0.186E-01
RMM:   3    -0.710955682953E+03   -0.17729E-03   -0.21909E-03 15025   0.855E-02    0.140E-01
RMM:   4    -0.710955623404E+03    0.59549E-04   -0.25139E-04 12637   0.316E-02    0.860E-02
RMM:   5    -0.710955577432E+03    0.45972E-04   -0.65725E-05  8477   0.191E-02    0.517E-02
RMM:   6    -0.710955558892E+03    0.18539E-04   -0.47412E-05  7303   0.134E-02    0.355E-02
RMM:   7    -0.710955546794E+03    0.12098E-04   -0.44266E-05  7673   0.107E-02    0.131E-02
RMM:   8    -0.710955544682E+03    0.21119E-05   -0.60540E-06  5945   0.535E-03
  34 F= -.71095554E+03 E0= -.71094693E+03  d E =-.400108E-03
       N       E                     dE             d eps       ncg     rms          rms(c)
DAV:   1    -0.710955298185E+03    0.24861E-03   -0.85786E-02 11784   0.436E-01    0.550E-02
RMM:   2    -0.710955635365E+03   -0.33718E-03   -0.27102E-03 13471   0.113E-01    0.134E-01
RMM:   3    -0.710955668058E+03   -0.32693E-04   -0.66479E-04 14554   0.471E-02    0.838E-02
RMM:   4    -0.710955640982E+03    0.27076E-04   -0.82441E-05  9532   0.193E-02    0.570E-02
RMM:   5    -0.710955621488E+03    0.19494E-04   -0.21257E-05  6249   0.117E-02    0.300E-02
RMM:   6    -0.710955613991E+03    0.74972E-05   -0.16895E-05  6319   0.886E-03
  35 F= -.71095561E+03 E0= -.71094709E+03  d E =-.469416E-03
       N       E                     dE             d eps       ncg     rms          rms(c)
DAV:   1    -0.710954725453E+03    0.89603E-03   -0.32439E-01 11344   0.851E-01    0.896E-02
RMM:   2    -0.710955692994E+03   -0.96754E-03   -0.97408E-03 13192   0.220E-01    0.104E-01
RMM:   3    -0.710955999564E+03   -0.30657E-03   -0.25808E-03 14948   0.932E-02    0.145E-01
RMM:   4    -0.710955961575E+03    0.37989E-04   -0.30413E-04 13521   0.333E-02    0.760E-02
RMM:   5    -0.710955923549E+03    0.38026E-04   -0.72161E-05  8776   0.187E-02    0.542E-02
RMM:   6    -0.710955907436E+03    0.16113E-04   -0.57888E-05  8212   0.125E-02    0.437E-02
RMM:   7    -0.710955897200E+03    0.10236E-04   -0.26933E-05  6564   0.102E-02    0.149E-02
RMM:   8    -0.710955893863E+03    0.33371E-05   -0.86243E-06  5951   0.660E-03
  36 F= -.71095589E+03 E0= -.71094747E+03  d E =-.279873E-03
       N       E                     dE             d eps       ncg     rms          rms(c)
DAV:   1    -0.710955813684E+03    0.83516E-04   -0.23820E-02 12160   0.231E-01    0.246E-02
RMM:   2    -0.710955885697E+03   -0.72013E-04   -0.75088E-04 13451   0.591E-02    0.156E-02
RMM:   3    -0.710955905838E+03   -0.20141E-04   -0.17503E-04 11642   0.251E-02    0.319E-02
RMM:   4    -0.710955905041E+03    0.79683E-06   -0.27925E-05  6480   0.128E-02
  37 F= -.71095591E+03 E0= -.71094750E+03  d E =-.291051E-03
       N       E                     dE             d eps       ncg     rms          rms(c)
DAV:   1    -0.710955871791E+03    0.34047E-04   -0.76254E-03 11304   0.131E-01    0.184E-02
RMM:   2    -0.710955904969E+03   -0.33178E-04   -0.25875E-04 12864   0.349E-02    0.455E-02
RMM:   3    -0.710955905286E+03   -0.31743E-06   -0.62653E-05  8779   0.158E-02
  38 F= -.71095591E+03 E0= -.71094748E+03  d E =-.291296E-03
       N       E                     dE             d eps       ncg     rms          rms(c)
DAV:   1    -0.710955895928E+03    0.90411E-05   -0.28277E-03 11976   0.811E-02    0.233E-02
RMM:   2    -0.710955946621E+03   -0.50693E-04   -0.11121E-04 10712   0.225E-02    0.943E-02
RMM:   3    -0.710955921179E+03    0.25442E-04   -0.26951E-05  6527   0.116E-02    0.369E-02
RMM:   4    -0.710955909452E+03    0.11727E-04   -0.97845E-06  5970   0.857E-03    0.290E-02
RMM:   5    -0.710955904326E+03    0.51264E-05   -0.37393E-06  5910   0.505E-03
  39 F= -.71095590E+03 E0= -.71094746E+03  d E =-.290335E-03
       N       E                     dE             d eps       ncg     rms          rms(c)
DAV:   1    -0.710955255149E+03    0.65430E-03   -0.23140E-01 11304   0.724E-01    0.734E-02
RMM:   2    -0.710955935969E+03   -0.68082E-03   -0.70923E-03 13190   0.188E-01    0.366E-02
RMM:   3    -0.710956129867E+03   -0.19390E-03   -0.18863E-03 14886   0.792E-02    0.584E-02
RMM:   4    -0.710956144461E+03   -0.14594E-04   -0.22140E-04 12737   0.274E-02    0.537E-02
RMM:   5    -0.710956136529E+03    0.79320E-05   -0.51920E-05  8155   0.156E-02
  40 F= -.71095614E+03 E0= -.71094779E+03  d E =-.232203E-03
       N       E                     dE             d eps       ncg     rms          rms(c)
DAV:   1    -0.710956131188E+03    0.13273E-04   -0.17838E-04  9624   0.334E-02    0.346E-02
RMM:   2    -0.710956221778E+03   -0.90590E-04   -0.83472E-05  7442   0.199E-02    0.133E-01
RMM:   3    -0.710956163477E+03    0.58301E-04   -0.24504E-05  6485   0.110E-02    0.557E-02
RMM:   4    -0.710956137454E+03    0.26023E-04   -0.10255E-05  6072   0.744E-03    0.378E-02
RMM:   5    -0.710956127812E+03    0.96415E-05   -0.46370E-06  5923   0.490E-03
  41 F= -.71095613E+03 E0= -.71094776E+03  d E =-.223487E-03
       N       E                     dE             d eps       ncg     rms          rms(c)
DAV:   1    -0.710956126873E+03    0.10581E-04   -0.18329E-04 12760   0.222E-02    0.114E-02
RMM:   2    -0.710956138904E+03   -0.12031E-04   -0.96756E-06  5891   0.648E-03    0.517E-02
RMM:   3    -0.710956131449E+03    0.74555E-05   -0.41671E-06  5767   0.513E-03
  42 F= -.71095613E+03 E0= -.71094778E+03  d E =-.227123E-03
       N       E                     dE             d eps       ncg     rms          rms(c)
DAV:   1    -0.710956129704E+03    0.92004E-05   -0.63824E-04 12144   0.387E-02    0.152E-02
RMM:   2    -0.710956151420E+03   -0.21717E-04   -0.22864E-05  6245   0.985E-03    0.678E-02
RMM:   3    -0.710956138982E+03    0.12438E-04   -0.84542E-06  5780   0.725E-03    0.236E-02
RMM:   4    -0.710956133368E+03    0.56141E-05   -0.37697E-06  5711   0.493E-03
  43 F= -.71095613E+03 E0= -.71094779E+03  d E =-.229043E-03
       N       E                     dE             d eps       ncg     rms          rms(c)
DAV:   1    -0.710956129046E+03    0.99361E-05   -0.23375E-03 11552   0.734E-02    0.814E-03
RMM:   2    -0.710956138154E+03   -0.91080E-05   -0.78688E-05  9646   0.200E-02
  44 F= -.71095614E+03 E0= -.71094780E+03  d E =-.233829E-03
       N       E                     dE             d eps       ncg     rms          rms(c)
DAV:   1    -0.710956131791E+03   -0.27446E-05   -0.71113E-04 10752   0.396E-02    0.889E-03
RMM:   2    -0.710956139363E+03   -0.75728E-05   -0.21657E-05  5866   0.110E-02
  45 F= -.71095614E+03 E0= -.71094782E+03  d E =-.235038E-03
       N       E                     dE             d eps       ncg     rms          rms(c)
DAV:   1    -0.710956136758E+03   -0.49675E-05   -0.45362E-04 11200   0.305E-02    0.102E-02
RMM:   2    -0.710956148924E+03   -0.12166E-04   -0.18539E-05  5892   0.102E-02    0.529E-02
RMM:   3    -0.710956140770E+03    0.81543E-05   -0.60174E-06  5552   0.639E-03
  46 F= -.71095614E+03 E0= -.71094780E+03  d E =-.236444E-03
       N       E                     dE             d eps       ncg     rms          rms(c)
DAV:   1    -0.710955791537E+03    0.35739E-03   -0.13266E-01 10912   0.546E-01    0.578E-02
RMM:   2    -0.710956238360E+03   -0.44682E-03   -0.44228E-03 13296   0.142E-01    0.759E-02
RMM:   3    -0.710956358298E+03   -0.11994E-03   -0.10539E-03 15107   0.580E-02    0.944E-02
RMM:   4    -0.710956338087E+03    0.20211E-04   -0.12148E-04 11110   0.210E-02    0.460E-02
RMM:   5    -0.710956322494E+03    0.15593E-04   -0.30107E-05  6817   0.134E-02    0.350E-02
RMM:   6    -0.710956312260E+03    0.10235E-04   -0.24147E-05  6631   0.943E-03    0.160E-02
RMM:   7    -0.710956309651E+03    0.26088E-05   -0.16167E-05  6210   0.768E-03
  47 F= -.71095631E+03 E0= -.71094798E+03  d E =-.168881E-03
       N       E                     dE             d eps       ncg     rms          rms(c)
DAV:   1    -0.710955726268E+03    0.58599E-03   -0.14013E-01 11152   0.561E-01    0.710E-02
RMM:   2    -0.710956307272E+03   -0.58100E-03   -0.47770E-03 13365   0.147E-01    0.168E-01
RMM:   3    -0.710956375205E+03   -0.67933E-04   -0.11415E-03 15222   0.604E-02    0.111E-01
RMM:   4    -0.710956329477E+03    0.45728E-04   -0.13448E-04 10988   0.234E-02    0.701E-02
RMM:   5    -0.710956297983E+03    0.31494E-04   -0.37794E-05  7203   0.150E-02    0.391E-02
RMM:   6    -0.710956282282E+03    0.15701E-04   -0.22265E-05  6506   0.966E-03    0.178E-02
RMM:   7    -0.710956278432E+03    0.38501E-05   -0.20467E-05  6401   0.777E-03
  48 F= -.71095628E+03 E0= -.71094793E+03  d E =-.137662E-03
       N       E                     dE             d eps       ncg     rms          rms(c)
DAV:   1    -0.710956227742E+03    0.54540E-04   -0.24200E-02 10952   0.232E-01    0.268E-02
RMM:   2    -0.710956325138E+03   -0.97396E-04   -0.80210E-04 13368   0.592E-02    0.703E-02
RMM:   3    -0.710956331243E+03   -0.61055E-05   -0.17666E-04 12163   0.243E-02    0.389E-02
RMM:   4    -0.710956323324E+03    0.79196E-05   -0.21761E-05  6223   0.123E-02
  49 F= -.71095632E+03 E0= -.71094795E+03  d E =-.182554E-03
       N       E                     dE             d eps       ncg     rms          rms(c)
DAV:   1    -0.710956225578E+03    0.10567E-03   -0.40316E-02 11008   0.301E-01    0.360E-02
RMM:   2    -0.710956358830E+03   -0.13325E-03   -0.12679E-03 13079   0.757E-02    0.547E-02
RMM:   3    -0.710956392127E+03   -0.33297E-04   -0.31108E-04 13178   0.334E-02    0.582E-02
RMM:   4    -0.710956386358E+03    0.57689E-05   -0.44001E-05  7447   0.147E-02
  50 F= -.71095639E+03 E0= -.71094800E+03  d E =-.630342E-04
       N       E                     dE             d eps       ncg     rms          rms(c)
DAV:   1    -0.710956375973E+03    0.16154E-04   -0.34621E-04 13080   0.340E-02    0.182E-02
RMM:   2    -0.710956402116E+03   -0.26143E-04   -0.21791E-05  6355   0.807E-03    0.783E-02
RMM:   3    -0.710956384428E+03    0.17687E-04   -0.79042E-06  5910   0.649E-03    0.250E-02
RMM:   4    -0.710956378410E+03    0.60185E-05   -0.45650E-06  5776   0.446E-03
  51 F= -.71095638E+03 E0= -.71094797E+03  d E =-.550864E-04
       N       E                     dE             d eps       ncg     rms          rms(c)
DAV:   1    -0.710956375456E+03    0.89722E-05   -0.22709E-04 11944   0.258E-02    0.448E-03
RMM:   2    -0.710956377283E+03   -0.18264E-05   -0.66583E-06  5603   0.628E-03
  52 F= -.71095638E+03 E0= -.71094796E+03  d E =-.539590E-04
       N       E                     dE             d eps       ncg     rms          rms(c)
DAV:   1    -0.710956375455E+03    0.14406E-08   -0.28442E-05  6288   0.890E-03    0.333E-03
RMM:   2    -0.710956375660E+03   -0.20547E-06   -0.30084E-06  5314   0.421E-03
  53 F= -.71095638E+03 E0= -.71094799E+03  d E =-.523366E-04
       N       E                     dE             d eps       ncg     rms          rms(c)
DAV:   1    -0.710956421115E+03   -0.45660E-04   -0.70491E-03 10832   0.128E-01    0.247E-02
RMM:   2    -0.710956480978E+03   -0.59863E-04   -0.30992E-04 13711   0.378E-02    0.839E-02
RMM:   3    -0.710956471163E+03    0.98155E-05   -0.70985E-05  9501   0.157E-02
  54 F= -.71095647E+03 E0= -.71094807E+03  d E =-.955026E-04
       N       E                     dE             d eps       ncg     rms          rms(c)
DAV:   1    -0.710956455768E+03    0.25210E-04   -0.62051E-03 11488   0.122E-01    0.125E-02
RMM:   2    -0.710956480588E+03   -0.24819E-04   -0.28722E-04 13462   0.387E-02    0.348E-02
RMM:   3    -0.710956484262E+03   -0.36746E-05   -0.78658E-05  9801   0.167E-02
  55 F= -.71095648E+03 E0= -.71094807E+03  d E =-.108602E-03
       N       E                     dE             d eps       ncg     rms          rms(c)
DAV:   1    -0.710956479529E+03    0.10587E-05   -0.75562E-05  9632   0.258E-02    0.156E-02
RMM:   2    -0.710956496555E+03   -0.17026E-04   -0.20657E-05  6102   0.883E-03    0.612E-02
RMM:   3    -0.710956487219E+03    0.93359E-05   -0.69415E-06  5956   0.629E-03
  56 F= -.71095649E+03 E0= -.71094807E+03  d E =-.111559E-03
       N       E                     dE             d eps       ncg     rms          rms(c)
DAV:   1    -0.710956482387E+03    0.14168E-04   -0.14169E-04  9256   0.259E-02    0.244E-02
RMM:   2    -0.710956536040E+03   -0.53653E-04   -0.32578E-05  6676   0.920E-03    0.109E-01
RMM:   3    -0.710956503869E+03    0.32172E-04   -0.13035E-05  5754   0.756E-03    0.396E-02
RMM:   4    -0.710956486205E+03    0.17664E-04   -0.62544E-06  5579   0.529E-03    0.258E-02
RMM:   5    -0.710956481369E+03    0.48351E-05   -0.24587E-06  5366   0.317E-03
  57 F= -.71095648E+03 E0= -.71094806E+03  d E =-.105709E-03
       N       E                     dE             d eps       ncg     rms          rms(c)
DAV:   1    -0.710956479825E+03    0.63792E-05   -0.25976E-05  6072   0.877E-03    0.819E-03
RMM:   2    -0.710956486923E+03   -0.70977E-05   -0.47176E-06  5379   0.278E-03
  58 F= -.71095649E+03 E0= -.71094806E+03  d E =-.111263E-03
       N       E                     dE             d eps       ncg     rms          rms(c)
DAV:   1    -0.710956481642E+03   -0.18169E-05   -0.30616E-03 10688   0.818E-02    0.147E-02
RMM:   2    -0.710956496634E+03   -0.14992E-04   -0.13066E-04 10824   0.231E-02    0.341E-02
RMM:   3    -0.710956497111E+03   -0.47694E-06   -0.23245E-05  6455   0.100E-02
  59 F= -.71095650E+03 E0= -.71094808E+03  d E =-.101878E-04
