Ga48 O72                                
    1.000000000000000     
     0.0000000000000000   12.2804734172212839    0.0000000000000000
     9.1427020537309431    0.0000000000000000    0.0000000000000000
     0.0000000000000000   -2.7682617730220320  -11.3006977184464645
   Ga   O    P 
    48    71     1
Direct
  0.6608313872200814  0.0000000000000000  0.1552454749755853
  0.6582520424552522  0.0000000000000000  0.6577333269437450
  0.6601024498766475  0.3350453144759514  0.1548924719589294
  0.6597147878359845  0.3336956626502219  0.6568794722718251
  0.6601024498766475  0.6649546855240484  0.1548924719589294
  0.6597147878359845  0.6663043373497780  0.6568794722718251
  0.8347643273576442  0.1698927946210024  0.3434419128729967
  0.8395164005652610  0.1668984119688763  0.8444982804796000
  0.8407130755610697  0.5000000000000000  0.3437707801684153
  0.8394464538565152  0.5000000000000000  0.8421349813579763
  0.8347643273576442  0.8301072053789974  0.3434419128729967
  0.8395164005652610  0.8331015880311238  0.8444982804796000
  0.5936943417432666  0.1697077506134612  0.3990148925643280
  0.5911616373068884  0.1667727169195236  0.8978140901478863
  0.5947841964386308  0.5000000000000000  0.3977818084878099
  0.5918687735212514  0.5000000000000000  0.8969529238761561
  0.5936943417432666  0.8302922493865385  0.3990148925643280
  0.5911616373068884  0.8332272830804764  0.8978140901478863
  0.9098695262620868  0.0000000000000000  0.1034459075868053
  0.9064209656355789  0.0000000000000000  0.6052094759252190
  0.9065944011279339  0.3342941460958674  0.1012366774557782
  0.9072801338458633  0.3337423941880659  0.6009243578256409
  0.9065944011279339  0.6657058539041328  0.1012366774557782
  0.9072801338458633  0.6662576058119342  0.6009243578256409
  0.1615429326175642  0.1723132584244175  0.1455212113125112
  0.1588627512006649  0.1687862521680273  0.6611277308673320
  0.1579899470115503  0.5000000000000000  0.1580967389545371
  0.1590743125490544  0.5000000000000000  0.6536839188776318
  0.1615429326175642  0.8276867415755829  0.1455212113125112
  0.1588627512006649  0.8312137478319725  0.6611277308673320
  0.3546513476039068  0.0000000000000000  0.3485298434231546
  0.3411987735505222  0.0000000000000000  0.8449910104078072
  0.3431327044945519  0.3344823417960680  0.3414379087019189
  0.3420371797773802  0.3340361980476390  0.8430328103401871
  0.3431327044945519  0.6655176582039324  0.3414379087019189
  0.3420371797773802  0.6659638019523609  0.8430328103401871
  0.0638919901248062  0.0000000000000000  0.4212238193500578
  0.0879960970077570  0.0000000000000000  0.8943676301075671
  0.0914128472336715  0.3332859193694677  0.3966056222044441
  0.0886330864843313  0.3341973634924505  0.8943852664684944
  0.0914128472336715  0.6667140806305322  0.3966056222044441
  0.0886330864843313  0.6658026365075493  0.8943852664684944
  0.4134828000290368  0.1679875800398503  0.1009291887711727
  0.4106320619086990  0.1682882757318167  0.6054837333396643
  0.4096015811654762  0.5000000000000000  0.1014192250296087
  0.4099457527952247  0.5000000000000000  0.6014681267276302
  0.4134828000290368  0.8320124199601496  0.1009291887711727
  0.4106320619086990  0.8317117242681835  0.6054837333396643
  0.9946874169724903  0.1691986660648377  0.1217071647164725
  0.9948127858100730  0.1667626870758029  0.6285859997011278
  0.9951472718351031  0.5000000000000000  0.1260380158939958
  0.9959488552689880  0.5000000000000000  0.6255976305531104
  0.9946874169724903  0.8308013339351623  0.1217071647164725
  0.9948127858100730  0.8332373129241973  0.6285859997011278
  0.5103248803080975  0.0000000000000000  0.3720089225847935
  0.5039079748165236  0.0000000000000000  0.8728285035393354
  0.5063340843196756  0.3349017262033545  0.3721535230054478
  0.5043310813183999  0.3336981647387368  0.8727535111685004
  0.5063340843196756  0.6650982737966452  0.3721535230054478
  0.5043310813183999  0.6663018352612641  0.8727535111685004
  0.6715173627046080  0.1666686872456278  0.2790951313039822
  0.6719567653925450  0.1665981352884739  0.7804842651936000
  0.6727877282748034  0.5000000000000000  0.2782549438509508
  0.6725513566866262  0.5000000000000000  0.7798138245001590
  0.6715173627046080  0.8333313127543718  0.2790951313039822
  0.6719567653925450  0.8334018647115261  0.7804842651936000
  0.8281494589207796  0.0000000000000000  0.2207015217898841
  0.8262282361902366  0.0000000000000000  0.7214845333977872
  0.8268480137017840  0.3343959340332734  0.2195347668566113
  0.8273077954330107  0.3330974863019224  0.7195513519866598
  0.8268480137017840  0.6656040659667267  0.2195347668566113
  0.8273077954330107  0.6669025136980775  0.7195513519866598
  0.8330198104309924  0.0000000000000000  0.4469999612779484
  0.8316270797168930  0.0000000000000000  0.9465224819852551
  0.8242466391307689  0.3362642691712304  0.4465612072387472
  0.8300233023651885  0.3343047659306853  0.9447075000320462
  0.8242466391307689  0.6637357308287692  0.4465612072387472
  0.8300233023651885  0.6656952340693149  0.9447075000320462
  0.6693626237446303  0.1670823470672238  0.0538188041366065
  0.6687948273383952  0.1661166119021624  0.5554162283028818
  0.6711903494030624  0.5000000000000000  0.0523498187828072
  0.6681596878785824  0.5000000000000000  0.5550385151109012
  0.6693626237446303  0.8329176529327760  0.0538188041366065
  0.6687948273383952  0.8338833880978375  0.5554162283028818
  0.4989432786557656  0.0000000000000000  0.1258262790456428
  0.4963433363137823  0.0000000000000000  0.6278416744150968
  0.4992089332434313  0.3355851947045954  0.1246556455501290
  0.4980449997928247  0.3343962954646191  0.6296674888736341
  0.4992089332434313  0.6644148052954046  0.1246556455501290
  0.4980449997928247  0.6656037045353808  0.6296674888736341
 -0.0063905501071179  0.1769526223388876  0.3813579328230474
  0.0020382928694876  0.1673633823209223  0.8719148225357350
  0.0030507376170306  0.5000000000000000  0.3737147024260197
  0.0015899001388927  0.5000000000000000  0.8707330109416705
 -0.0063905501071179  0.8230473776611120  0.3813579328230474
  0.0020382928694876  0.8326366176790778  0.8719148225357350
  0.1736558024200873  0.0000000000000000  0.7833057521359643
  0.1732318563561195  0.3380527097250408  0.2804026550760119
  0.1723716914282161  0.3342806712158605  0.7799502318419141
  0.1732318563561195  0.6619472902749590  0.2804026550760119
  0.1723716914282161  0.6657193287841394  0.7799502318419141
  0.3327683927141298  0.1744801453875479  0.2166697793473056
  0.3277814989960213  0.1670634148917821  0.7206320599706911
  0.3281015270444304  0.5000000000000000  0.2177284317117425
  0.3272416791472105  0.5000000000000000  0.7181961647808233
  0.3327683927141298  0.8255198546124524  0.2166697793473056
  0.3277814989960213  0.8329365851082178  0.7206320599706911
  0.3411909075388836  0.1709817508516984  0.4475686606164770
  0.3341330460004172  0.1681367740788056  0.9455731196931703
  0.3345174769982285  0.5000000000000000  0.4449751530981894
  0.3325503281978842  0.5000000000000000  0.9448150939291579
  0.3411909075388836  0.8290182491483018  0.4475686606164770
  0.3341330460004172  0.8318632259211945  0.9455731196931703
  0.1731036024937672  0.0000000000000000  0.0462500596309092
  0.1643782697968358  0.0000000000000000  0.5639121018423998
  0.1674763073425955  0.3379237339033140  0.0503641616067759
  0.1681218321370056  0.3316969232660683  0.5537646472683795
  0.1674763073425955  0.6620762660966858  0.0503641616067759
  0.1681218321370056  0.6683030767339314  0.5537646472683795
  0.1654156487886041  0.0000000000000000  0.2907753377184252
 
  0.00000000E+00  0.00000000E+00  0.00000000E+00
  0.00000000E+00  0.00000000E+00  0.00000000E+00
  0.00000000E+00  0.00000000E+00  0.00000000E+00
  0.00000000E+00  0.00000000E+00  0.00000000E+00
  0.00000000E+00  0.00000000E+00  0.00000000E+00
  0.00000000E+00  0.00000000E+00  0.00000000E+00
  0.00000000E+00  0.00000000E+00  0.00000000E+00
  0.00000000E+00  0.00000000E+00  0.00000000E+00
  0.00000000E+00  0.00000000E+00  0.00000000E+00
  0.00000000E+00  0.00000000E+00  0.00000000E+00
  0.00000000E+00  0.00000000E+00  0.00000000E+00
  0.00000000E+00  0.00000000E+00  0.00000000E+00
  0.00000000E+00  0.00000000E+00  0.00000000E+00
  0.00000000E+00  0.00000000E+00  0.00000000E+00
  0.00000000E+00  0.00000000E+00  0.00000000E+00
  0.00000000E+00  0.00000000E+00  0.00000000E+00
  0.00000000E+00  0.00000000E+00  0.00000000E+00
  0.00000000E+00  0.00000000E+00  0.00000000E+00
  0.00000000E+00  0.00000000E+00  0.00000000E+00
  0.00000000E+00  0.00000000E+00  0.00000000E+00
  0.00000000E+00  0.00000000E+00  0.00000000E+00
  0.00000000E+00  0.00000000E+00  0.00000000E+00
  0.00000000E+00  0.00000000E+00  0.00000000E+00
  0.00000000E+00  0.00000000E+00  0.00000000E+00
  0.00000000E+00  0.00000000E+00  0.00000000E+00
  0.00000000E+00  0.00000000E+00  0.00000000E+00
  0.00000000E+00  0.00000000E+00  0.00000000E+00
  0.00000000E+00  0.00000000E+00  0.00000000E+00
  0.00000000E+00  0.00000000E+00  0.00000000E+00
  0.00000000E+00  0.00000000E+00  0.00000000E+00
  0.00000000E+00  0.00000000E+00  0.00000000E+00
  0.00000000E+00  0.00000000E+00  0.00000000E+00
  0.00000000E+00  0.00000000E+00  0.00000000E+00
  0.00000000E+00  0.00000000E+00  0.00000000E+00
  0.00000000E+00  0.00000000E+00  0.00000000E+00
  0.00000000E+00  0.00000000E+00  0.00000000E+00
  0.00000000E+00  0.00000000E+00  0.00000000E+00
  0.00000000E+00  0.00000000E+00  0.00000000E+00
  0.00000000E+00  0.00000000E+00  0.00000000E+00
  0.00000000E+00  0.00000000E+00  0.00000000E+00
  0.00000000E+00  0.00000000E+00  0.00000000E+00
  0.00000000E+00  0.00000000E+00  0.00000000E+00
  0.00000000E+00  0.00000000E+00  0.00000000E+00
  0.00000000E+00  0.00000000E+00  0.00000000E+00
  0.00000000E+00  0.00000000E+00  0.00000000E+00
  0.00000000E+00  0.00000000E+00  0.00000000E+00
  0.00000000E+00  0.00000000E+00  0.00000000E+00
  0.00000000E+00  0.00000000E+00  0.00000000E+00
  0.00000000E+00  0.00000000E+00  0.00000000E+00
  0.00000000E+00  0.00000000E+00  0.00000000E+00
  0.00000000E+00  0.00000000E+00  0.00000000E+00
  0.00000000E+00  0.00000000E+00  0.00000000E+00
  0.00000000E+00  0.00000000E+00  0.00000000E+00
  0.00000000E+00  0.00000000E+00  0.00000000E+00
  0.00000000E+00  0.00000000E+00  0.00000000E+00
  0.00000000E+00  0.00000000E+00  0.00000000E+00
  0.00000000E+00  0.00000000E+00  0.00000000E+00
  0.00000000E+00  0.00000000E+00  0.00000000E+00
  0.00000000E+00  0.00000000E+00  0.00000000E+00
  0.00000000E+00  0.00000000E+00  0.00000000E+00
  0.00000000E+00  0.00000000E+00  0.00000000E+00
  0.00000000E+00  0.00000000E+00  0.00000000E+00
  0.00000000E+00  0.00000000E+00  0.00000000E+00
  0.00000000E+00  0.00000000E+00  0.00000000E+00
  0.00000000E+00  0.00000000E+00  0.00000000E+00
  0.00000000E+00  0.00000000E+00  0.00000000E+00
  0.00000000E+00  0.00000000E+00  0.00000000E+00
  0.00000000E+00  0.00000000E+00  0.00000000E+00
  0.00000000E+00  0.00000000E+00  0.00000000E+00
  0.00000000E+00  0.00000000E+00  0.00000000E+00
  0.00000000E+00  0.00000000E+00  0.00000000E+00
  0.00000000E+00  0.00000000E+00  0.00000000E+00
  0.00000000E+00  0.00000000E+00  0.00000000E+00
  0.00000000E+00  0.00000000E+00  0.00000000E+00
  0.00000000E+00  0.00000000E+00  0.00000000E+00
  0.00000000E+00  0.00000000E+00  0.00000000E+00
  0.00000000E+00  0.00000000E+00  0.00000000E+00
  0.00000000E+00  0.00000000E+00  0.00000000E+00
  0.00000000E+00  0.00000000E+00  0.00000000E+00
  0.00000000E+00  0.00000000E+00  0.00000000E+00
  0.00000000E+00  0.00000000E+00  0.00000000E+00
  0.00000000E+00  0.00000000E+00  0.00000000E+00
  0.00000000E+00  0.00000000E+00  0.00000000E+00
  0.00000000E+00  0.00000000E+00  0.00000000E+00
  0.00000000E+00  0.00000000E+00  0.00000000E+00
  0.00000000E+00  0.00000000E+00  0.00000000E+00
  0.00000000E+00  0.00000000E+00  0.00000000E+00
  0.00000000E+00  0.00000000E+00  0.00000000E+00
  0.00000000E+00  0.00000000E+00  0.00000000E+00
  0.00000000E+00  0.00000000E+00  0.00000000E+00
  0.00000000E+00  0.00000000E+00  0.00000000E+00
  0.00000000E+00  0.00000000E+00  0.00000000E+00
  0.00000000E+00  0.00000000E+00  0.00000000E+00
  0.00000000E+00  0.00000000E+00  0.00000000E+00
  0.00000000E+00  0.00000000E+00  0.00000000E+00
  0.00000000E+00  0.00000000E+00  0.00000000E+00
  0.00000000E+00  0.00000000E+00  0.00000000E+00
  0.00000000E+00  0.00000000E+00  0.00000000E+00
  0.00000000E+00  0.00000000E+00  0.00000000E+00
  0.00000000E+00  0.00000000E+00  0.00000000E+00
  0.00000000E+00  0.00000000E+00  0.00000000E+00
  0.00000000E+00  0.00000000E+00  0.00000000E+00
  0.00000000E+00  0.00000000E+00  0.00000000E+00
  0.00000000E+00  0.00000000E+00  0.00000000E+00
  0.00000000E+00  0.00000000E+00  0.00000000E+00
  0.00000000E+00  0.00000000E+00  0.00000000E+00
  0.00000000E+00  0.00000000E+00  0.00000000E+00
  0.00000000E+00  0.00000000E+00  0.00000000E+00
  0.00000000E+00  0.00000000E+00  0.00000000E+00
  0.00000000E+00  0.00000000E+00  0.00000000E+00
  0.00000000E+00  0.00000000E+00  0.00000000E+00
  0.00000000E+00  0.00000000E+00  0.00000000E+00
  0.00000000E+00  0.00000000E+00  0.00000000E+00
  0.00000000E+00  0.00000000E+00  0.00000000E+00
  0.00000000E+00  0.00000000E+00  0.00000000E+00
  0.00000000E+00  0.00000000E+00  0.00000000E+00
  0.00000000E+00  0.00000000E+00  0.00000000E+00
  0.00000000E+00  0.00000000E+00  0.00000000E+00
  0.00000000E+00  0.00000000E+00  0.00000000E+00
  0.00000000E+00  0.00000000E+00  0.00000000E+00
