Ga48 O72                                
    1.000000000000000     
     0.0000000000000000   12.2804734172212839    0.0000000000000000
     9.1427020537309431    0.0000000000000000    0.0000000000000000
     0.0000000000000000   -2.7682617730220320  -11.3006977184464645
   Ga   O    P 
    48    71     1
Direct
  0.6604963856382824  0.0000000000000000  0.1563932899705449
  0.6564373654333124  0.0000000000000000  0.6554224300735854
  0.6606727417266924  0.3334159157919174  0.1568904993863711
  0.6543746914087052  0.3325609791807835  0.6560993789763359
  0.6606727417266924  0.6665840842080826  0.1568904993863711
  0.6543746914087052  0.6674390208192165  0.6560993789763359
  0.8392518925436079  0.1675005158269656  0.3431911197841302
  0.8379053630476960  0.1671216256966090  0.8420869983936612
  0.8425430406969880  0.5000000000000000  0.3426221617419358
  0.8383729957820734  0.5000000000000000  0.8418208099352640
  0.8392518925436079  0.8324994841730344  0.3431911197841302
  0.8379053630476960  0.8328783743033910  0.8420869983936612
  0.5901588515139409  0.1672380679533561  0.3973939364640415
  0.5902495072548106  0.1666649247609797  0.8981965619947516
  0.5947837341478746  0.5000000000000000  0.3976637364377353
  0.5947327199886914  0.5000000000000000  0.9005208152534365
  0.5901588515139409  0.8327619320466439  0.3973939364640415
  0.5902495072548106  0.8333350752390203  0.8981965619947516
  0.9076837592103644  0.0000000000000000  0.1005646392582165
  0.9075495623879490  0.0000000000000000  0.6022632654131996
  0.9080992788170761  0.3328061091333865  0.1015902528940416
  0.9056770982673825  0.3340463401528524  0.6022975719532440
  0.9080992788170761  0.6671938908666206  0.1015902528940416
  0.9056770982673825  0.6659536598471476  0.6022975719532440
  0.1596735481780414  0.1665208190869194  0.1539377783180385
  0.1573528712034502  0.1729476137082528  0.6622844426264223
  0.1572253822242971  0.5000000000000000  0.1580720446764730
  0.1580125617690840  0.5000000000000000  0.6582176893604270
  0.1596735481780414  0.8334791809130806  0.1539377783180385
  0.1573528712034502  0.8270523862917472  0.6622844426264223
  0.3415619851817553  0.0000000000000000  0.3408942747753088
  0.3401256327356137  0.0000000000000000  0.8480698623039444
  0.3431591055696259  0.3359218242460429  0.3411937631203728
  0.3437922497173602  0.3342330965670754  0.8466666090796124
  0.3431591055696259  0.6640781757539571  0.3411937631203728
  0.3437922497173602  0.6657669034329246  0.8466666090796124
  0.0839930277615082  0.0000000000000000  0.3827343900554609
  0.0871413309772393  0.0000000000000000  0.8981170439441399
  0.0917731615289625  0.3326057304207026  0.3989699961015134
  0.0881239190623333  0.3332892949139890  0.8978032788640036
  0.0917731615289625  0.6673942695792974  0.3989699961015134
  0.0881239190623333  0.6667107050860110  0.8978032788640036
  0.4119139401471443  0.1668116024450725  0.1039132215450280
  0.4015439304668149  0.1616891300727801  0.6029270203531212
  0.4107919022411366  0.5000000000000000  0.1029822254250590
  0.4076033138444330  0.5000000000000000  0.6031175640981132
  0.4119139401471443  0.8331883975549275  0.1039132215450280
  0.4015439304668149  0.8383108699272199  0.6029270203531212
  0.9956184365939222  0.1663549641273363  0.1243589794130173
  0.9932193877473594  0.1678384244525049  0.6275220600389346
  0.9948277991269379  0.5000000000000000  0.1265443168077880
  0.9937682837287198  0.5000000000000000  0.6284433333535446
  0.9956184365939222  0.8336450358726637  0.1243589794130173
  0.9932193877473594  0.8321615755474880  0.6275220600389346
  0.5047988179073783  0.0000000000000000  0.3691029798629799
  0.5040273144722960  0.0000000000000000  0.8777164576533494
  0.5062230127842255  0.3357788963323927  0.3691453154443991
  0.5068012342621842  0.3356219056167333  0.8788038421359659
  0.5062230127842255  0.6642211036676073  0.3691453154443991
  0.5068012342621842  0.6643780943832667  0.8788038421359659
  0.6729035052332577  0.1667452636449411  0.2804892234997212
  0.6705845834218493  0.1668815010549309  0.7801883187222742
  0.6748784067465081  0.5000000000000000  0.2801289162079641
  0.6705183672875989  0.5000000000000000  0.7795248344164278
  0.6729035052332577  0.8332547363550589  0.2804892234997212
  0.6705845834218493  0.8331184989450691  0.7801883187222742
  0.8276204494981840  0.0000000000000000  0.2189287241737929
  0.8249666395151323  0.0000000000000000  0.7186715322388082
  0.8277038857117844  0.3334544281258403  0.2192383595747955
  0.8242904325826643  0.3335841607058896  0.7191888588535917
  0.8277038857117844  0.6665455718741597  0.2192383595747955
  0.8242904325826643  0.6664158392941104  0.7191888588535917
  0.8319173037029657  0.0000000000000000  0.4453208902130896
  0.8298128348310172  0.0000000000000000  0.9445160159214936
  0.8305257900030156  0.3344144024636790  0.4454007806402274
  0.8300746741889284  0.3337446958949002  0.9452483390917763
  0.8305257900030156  0.6655855975363210  0.4454007806402274
  0.8300746741889284  0.6662553041050998  0.9452483390917763
  0.6695072614026714  0.1667627979805104  0.0545086404831707
  0.6674654992097402  0.1671154431281963  0.5536971959430232
  0.6724269957611853  0.5000000000000000  0.0561397630117426
  0.6664501098192801  0.5000000000000000  0.5553263727774365
  0.6695072614026714  0.8332372020194896  0.0545086404831707
  0.6674654992097402  0.8328845568718037  0.5536971959430232
  0.4989128594537817  0.0000000000000000  0.1282140247382557
  0.4966410533389549  0.0000000000000000  0.6285219726360083
  0.4986690022601792  0.3342473085792435  0.1277875367437815
  0.4926816239822429  0.3308026919711509  0.6269613707265194
  0.4986690022601792  0.6657526914207565  0.1277875367437815
  0.4926816239822429  0.6691973080288491  0.6269613707265194
  0.9993279395036438  0.1698867492490663  0.3660568750146069
  0.0001217452130646  0.1673154901689102  0.8717581051122778
  0.0039373533831792  0.5000000000000000  0.3719906515205480
  0.0009115196848342  0.5000000000000000  0.8724807700743966
  0.9993279395036438  0.8301132507509337  0.3660568750146069
  0.0001217452130646  0.8326845098310898  0.8717581051122778
  0.1719238106253016  0.0000000000000000  0.2702189215479009
  0.1731901492067465  0.0000000000000000  0.7886684260486945
  0.1725456709817550  0.3329995716374583  0.2803847945920737
  0.1706502836992030  0.3344268080012682  0.7819805986576043
  0.1725456709817550  0.6670004283625417  0.2803847945920737
  0.1706502836992030  0.6655731919987318  0.7819805986576043
  0.3277195068501442  0.1680760754368578  0.2169379198357149
  0.3366178528226769  0.1748303084329734  0.7338803427535296
  0.3270433810419746  0.5000000000000000  0.2178296453424764
  0.3275511276366743  0.5000000000000000  0.7221580770868101
  0.3277195068501442  0.8319239245631422  0.2169379198357149
  0.3366178528226769  0.8251696915670266  0.7338803427535296
  0.3434348866784021  0.1715795451408368  0.4400581804197827
  0.3320733267067482  0.1684866075145308  0.9503742371585560
  0.3337451271019987  0.5000000000000000  0.4449008491902475
  0.3316296803965670  0.5000000000000000  0.9475962475403890
  0.3434348866784021  0.8284204548591632  0.4400581804197827
  0.3320733267067482  0.8315133924854692  0.9503742371585560
  0.1668417399787145  0.0000000000000000  0.0515676479665146
  0.1654018532573289  0.3348420305815623  0.0537245287190871
  0.1674450016672751  0.3396837883506407  0.5551400368051702
  0.1654018532573289  0.6651579694184377  0.0537245287190871
  0.1674450016672751  0.6603162116493593  0.5551400368051702
  0.2119470812975663  0.0000000000000000  0.5494586464779161
 
  0.00000000E+00  0.00000000E+00  0.00000000E+00
  0.00000000E+00  0.00000000E+00  0.00000000E+00
  0.00000000E+00  0.00000000E+00  0.00000000E+00
  0.00000000E+00  0.00000000E+00  0.00000000E+00
  0.00000000E+00  0.00000000E+00  0.00000000E+00
  0.00000000E+00  0.00000000E+00  0.00000000E+00
  0.00000000E+00  0.00000000E+00  0.00000000E+00
  0.00000000E+00  0.00000000E+00  0.00000000E+00
  0.00000000E+00  0.00000000E+00  0.00000000E+00
  0.00000000E+00  0.00000000E+00  0.00000000E+00
  0.00000000E+00  0.00000000E+00  0.00000000E+00
  0.00000000E+00  0.00000000E+00  0.00000000E+00
  0.00000000E+00  0.00000000E+00  0.00000000E+00
  0.00000000E+00  0.00000000E+00  0.00000000E+00
  0.00000000E+00  0.00000000E+00  0.00000000E+00
  0.00000000E+00  0.00000000E+00  0.00000000E+00
  0.00000000E+00  0.00000000E+00  0.00000000E+00
  0.00000000E+00  0.00000000E+00  0.00000000E+00
  0.00000000E+00  0.00000000E+00  0.00000000E+00
  0.00000000E+00  0.00000000E+00  0.00000000E+00
  0.00000000E+00  0.00000000E+00  0.00000000E+00
  0.00000000E+00  0.00000000E+00  0.00000000E+00
  0.00000000E+00  0.00000000E+00  0.00000000E+00
  0.00000000E+00  0.00000000E+00  0.00000000E+00
  0.00000000E+00  0.00000000E+00  0.00000000E+00
  0.00000000E+00  0.00000000E+00  0.00000000E+00
  0.00000000E+00  0.00000000E+00  0.00000000E+00
  0.00000000E+00  0.00000000E+00  0.00000000E+00
  0.00000000E+00  0.00000000E+00  0.00000000E+00
  0.00000000E+00  0.00000000E+00  0.00000000E+00
  0.00000000E+00  0.00000000E+00  0.00000000E+00
  0.00000000E+00  0.00000000E+00  0.00000000E+00
  0.00000000E+00  0.00000000E+00  0.00000000E+00
  0.00000000E+00  0.00000000E+00  0.00000000E+00
  0.00000000E+00  0.00000000E+00  0.00000000E+00
  0.00000000E+00  0.00000000E+00  0.00000000E+00
  0.00000000E+00  0.00000000E+00  0.00000000E+00
  0.00000000E+00  0.00000000E+00  0.00000000E+00
  0.00000000E+00  0.00000000E+00  0.00000000E+00
  0.00000000E+00  0.00000000E+00  0.00000000E+00
  0.00000000E+00  0.00000000E+00  0.00000000E+00
  0.00000000E+00  0.00000000E+00  0.00000000E+00
  0.00000000E+00  0.00000000E+00  0.00000000E+00
  0.00000000E+00  0.00000000E+00  0.00000000E+00
  0.00000000E+00  0.00000000E+00  0.00000000E+00
  0.00000000E+00  0.00000000E+00  0.00000000E+00
  0.00000000E+00  0.00000000E+00  0.00000000E+00
  0.00000000E+00  0.00000000E+00  0.00000000E+00
  0.00000000E+00  0.00000000E+00  0.00000000E+00
  0.00000000E+00  0.00000000E+00  0.00000000E+00
  0.00000000E+00  0.00000000E+00  0.00000000E+00
  0.00000000E+00  0.00000000E+00  0.00000000E+00
  0.00000000E+00  0.00000000E+00  0.00000000E+00
  0.00000000E+00  0.00000000E+00  0.00000000E+00
  0.00000000E+00  0.00000000E+00  0.00000000E+00
  0.00000000E+00  0.00000000E+00  0.00000000E+00
  0.00000000E+00  0.00000000E+00  0.00000000E+00
  0.00000000E+00  0.00000000E+00  0.00000000E+00
  0.00000000E+00  0.00000000E+00  0.00000000E+00
  0.00000000E+00  0.00000000E+00  0.00000000E+00
  0.00000000E+00  0.00000000E+00  0.00000000E+00
  0.00000000E+00  0.00000000E+00  0.00000000E+00
  0.00000000E+00  0.00000000E+00  0.00000000E+00
  0.00000000E+00  0.00000000E+00  0.00000000E+00
  0.00000000E+00  0.00000000E+00  0.00000000E+00
  0.00000000E+00  0.00000000E+00  0.00000000E+00
  0.00000000E+00  0.00000000E+00  0.00000000E+00
  0.00000000E+00  0.00000000E+00  0.00000000E+00
  0.00000000E+00  0.00000000E+00  0.00000000E+00
  0.00000000E+00  0.00000000E+00  0.00000000E+00
  0.00000000E+00  0.00000000E+00  0.00000000E+00
  0.00000000E+00  0.00000000E+00  0.00000000E+00
  0.00000000E+00  0.00000000E+00  0.00000000E+00
  0.00000000E+00  0.00000000E+00  0.00000000E+00
  0.00000000E+00  0.00000000E+00  0.00000000E+00
  0.00000000E+00  0.00000000E+00  0.00000000E+00
  0.00000000E+00  0.00000000E+00  0.00000000E+00
  0.00000000E+00  0.00000000E+00  0.00000000E+00
  0.00000000E+00  0.00000000E+00  0.00000000E+00
  0.00000000E+00  0.00000000E+00  0.00000000E+00
  0.00000000E+00  0.00000000E+00  0.00000000E+00
  0.00000000E+00  0.00000000E+00  0.00000000E+00
  0.00000000E+00  0.00000000E+00  0.00000000E+00
  0.00000000E+00  0.00000000E+00  0.00000000E+00
  0.00000000E+00  0.00000000E+00  0.00000000E+00
  0.00000000E+00  0.00000000E+00  0.00000000E+00
  0.00000000E+00  0.00000000E+00  0.00000000E+00
  0.00000000E+00  0.00000000E+00  0.00000000E+00
  0.00000000E+00  0.00000000E+00  0.00000000E+00
  0.00000000E+00  0.00000000E+00  0.00000000E+00
  0.00000000E+00  0.00000000E+00  0.00000000E+00
  0.00000000E+00  0.00000000E+00  0.00000000E+00
  0.00000000E+00  0.00000000E+00  0.00000000E+00
  0.00000000E+00  0.00000000E+00  0.00000000E+00
  0.00000000E+00  0.00000000E+00  0.00000000E+00
  0.00000000E+00  0.00000000E+00  0.00000000E+00
  0.00000000E+00  0.00000000E+00  0.00000000E+00
  0.00000000E+00  0.00000000E+00  0.00000000E+00
  0.00000000E+00  0.00000000E+00  0.00000000E+00
  0.00000000E+00  0.00000000E+00  0.00000000E+00
  0.00000000E+00  0.00000000E+00  0.00000000E+00
  0.00000000E+00  0.00000000E+00  0.00000000E+00
  0.00000000E+00  0.00000000E+00  0.00000000E+00
  0.00000000E+00  0.00000000E+00  0.00000000E+00
  0.00000000E+00  0.00000000E+00  0.00000000E+00
  0.00000000E+00  0.00000000E+00  0.00000000E+00
  0.00000000E+00  0.00000000E+00  0.00000000E+00
  0.00000000E+00  0.00000000E+00  0.00000000E+00
  0.00000000E+00  0.00000000E+00  0.00000000E+00
  0.00000000E+00  0.00000000E+00  0.00000000E+00
  0.00000000E+00  0.00000000E+00  0.00000000E+00
  0.00000000E+00  0.00000000E+00  0.00000000E+00
  0.00000000E+00  0.00000000E+00  0.00000000E+00
  0.00000000E+00  0.00000000E+00  0.00000000E+00
  0.00000000E+00  0.00000000E+00  0.00000000E+00
  0.00000000E+00  0.00000000E+00  0.00000000E+00
  0.00000000E+00  0.00000000E+00  0.00000000E+00
  0.00000000E+00  0.00000000E+00  0.00000000E+00
  0.00000000E+00  0.00000000E+00  0.00000000E+00
  0.00000000E+00  0.00000000E+00  0.00000000E+00
