Ga48 O72                                
    1.000000000000000     
     0.0000000000000000   12.2804734172212839    0.0000000000000000
     9.1427020537309431    0.0000000000000000    0.0000000000000000
     0.0000000000000000   -2.7682617730220320  -11.3006977184464645
   Ga   O    P 
    48    71     1
Direct
  0.6604963856382822 -0.0000000000000000  0.1563932899705419
  0.6564373654333143 -0.0000000000000000  0.6554224300735849
  0.6606727417266950  0.3334159157919192  0.1568904993863698
  0.6543746914087029  0.3325609791807835  0.6560993789763323
  0.6606727417266950  0.6665840842080808  0.1568904993863698
  0.6543746914087029  0.6674390208192169  0.6560993789763323
  0.8392518925436111  0.1675005158269649  0.3431911197841285
  0.8379053630476937  0.1671216256966123  0.8420869983936612
  0.8425430406969878  0.5000000000000000  0.3426221617419378
  0.8383729957820737  0.5000000000000000  0.8418208099352609
  0.8392518925436111  0.8324994841730351  0.3431911197841285
  0.8379053630476937  0.8328783743033874  0.8420869983936612
  0.5901588515139375  0.1672380679533555  0.3973939364640393
  0.5902495072548087  0.1666649247609829  0.8981965619947495
  0.5947837341478751  0.5000000000000000  0.3976637364377329
  0.5947327199886905  0.5000000000000000  0.9005208152534355
  0.5901588515139375  0.8327619320466447  0.3973939364640393
  0.5902495072548087  0.8333350752390173  0.8981965619947495
  0.9076837592103677 -0.0000000000000000  0.1005646392582166
  0.9075495623879504 -0.0000000000000000  0.6022632654132025
  0.9080992788170787  0.3328061091333831  0.1015902528940397
  0.9056770982673827  0.3340463401528532  0.6022975719532457
  0.9080992788170787  0.6671938908666172  0.1015902528940397
  0.9056770982673827  0.6659536598471467  0.6022975719532457
  0.1596735481780425  0.1665208190869213  0.1539377783180418
  0.1573528712034520  0.1729476137082528  0.6622844426264244
  0.1572253822242958  0.5000000000000000  0.1580720446764707
  0.1580125617690849  0.5000000000000000  0.6582176893604236
  0.1596735481780425  0.8334791809130779  0.1539377783180418
  0.1573528712034520  0.8270523862917475  0.6622844426264244
  0.3415619851817555 -0.0000000000000000  0.3408942747753119
  0.3401256327356169 -0.0000000000000000  0.8480698623039414
  0.3431591055696253  0.3359218242460415  0.3411937631203740
  0.3437922497173613  0.3342330965670769  0.8466666090796120
  0.3431591055696253  0.6640781757539584  0.3411937631203740
  0.3437922497173613  0.6657669034329231  0.8466666090796120
  0.0839930277615105 -0.0000000000000000  0.3827343900554586
  0.0871413309772395 -0.0000000000000000  0.8981170439441399
  0.0917731615289591  0.3326057304207031  0.3989699961015153
  0.0881239190623358  0.3332892949139873  0.8978032788640028
  0.0917731615289591  0.6673942695792968  0.3989699961015153
  0.0881239190623358  0.6667107050860126  0.8978032788640028
  0.4119139401471412  0.1668116024450713  0.1039132215450314
  0.4015439304668129  0.1616891300727810  0.6029270203531233
  0.4107919022411397  0.5000000000000000  0.1029822254250617
  0.4076033138444355  0.5000000000000000  0.6031175640981137
  0.4119139401471412  0.8331883975549285  0.1039132215450314
  0.4015439304668129  0.8383108699272189  0.6029270203531233
  0.9956184365939257  0.1663549641273396  0.1243589794130153
  0.9932193877473630  0.1678384244525080  0.6275220600389325
  0.9948277991269368  0.5000000000000000  0.1265443168077868
  0.9937682837287214  0.5000000000000000  0.6284433333535480
  0.9956184365939257  0.8336450358726601  0.1243589794130153
  0.9932193877473630  0.8321615755474915  0.6275220600389325
  0.5047988179073791 -0.0000000000000000  0.3691029798629804
  0.5040273144722935 -0.0000000000000000  0.8777164576533523
  0.5062230127842269  0.3357788963323960  0.3691453154443967
  0.5068012342621837  0.3356219056167304  0.8788038421359656
  0.5062230127842269  0.6642211036676041  0.3691453154443967
  0.5068012342621837  0.6643780943832694  0.8788038421359656
  0.6729035052332547  0.1667452636449420  0.2804892234997219
  0.6705845834218496  0.1668815010549301  0.7801883187222761
  0.6748784067465069  0.5000000000000000  0.2801289162079607
  0.6705183672875996  0.5000000000000000  0.7795248344164283
  0.6729035052332547  0.8332547363550582  0.2804892234997219
  0.6705845834218496  0.8331184989450697  0.7801883187222761
  0.8276204494981810 -0.0000000000000000  0.2189287241737914
  0.8249666395151330 -0.0000000000000000  0.7186715322388086
  0.8277038857117864  0.3334544281258378  0.2192383595747941
  0.8242904325826639  0.3335841607058898  0.7191888588535897
  0.8277038857117864  0.6665455718741621  0.2192383595747941
  0.8242904325826639  0.6664158392941101  0.7191888588535897
  0.8319173037029630 -0.0000000000000000  0.4453208902130864
  0.8298128348310156 -0.0000000000000000  0.9445160159214957
  0.8305257900030159  0.3344144024636778  0.4454007806402283
  0.8300746741889272  0.3337446958948970  0.9452483390917744
  0.8305257900030159  0.6655855975363227  0.4454007806402283
  0.8300746741889272  0.6662553041051030  0.9452483390917744
  0.6695072614026712  0.1667627979805118  0.0545086404831742
  0.6674654992097422  0.1671154431281933  0.5536971959430219
  0.6724269957611850  0.5000000000000000  0.0561397630117458
  0.6664501098192781  0.5000000000000000  0.5553263727774367
  0.6695072614026712  0.8332372020194877  0.0545086404831742
  0.6674654992097422  0.8328845568718071  0.5536971959430219
  0.4989128594537814 -0.0000000000000000  0.1282140247382579
  0.4966410533389571 -0.0000000000000000  0.6285219726360096
  0.4986690022601777  0.3342473085792455  0.1277875367437807
  0.4926816239822429  0.3308026919711479  0.6269613707265183
  0.4986690022601777  0.6657526914207547  0.1277875367437807
  0.4926816239822429  0.6691973080288524  0.6269613707265183
 -0.0006720604963594  0.1698867492490695  0.3660568750146102
  0.0001217452130633  0.1673154901689079  0.8717581051122796
  0.0039373533831803  0.5000000000000000  0.3719906515205453
  0.0009115196848373  0.5000000000000000  0.8724807700743940
 -0.0006720604963594  0.8301132507509307  0.3660568750146102
  0.0001217452130633  0.8326845098310919  0.8717581051122796
  0.1719238106252999 -0.0000000000000000  0.2702189215478991
  0.1731901492067431 -0.0000000000000000  0.7886684260486950
  0.1725456709817564  0.3329995716374568  0.2803847945920767
  0.1706502836992026  0.3344268080012675  0.7819805986576019
  0.1725456709817564  0.6670004283625429  0.2803847945920767
  0.1706502836992026  0.6655731919987323  0.7819805986576019
  0.3277195068501459  0.1680760754368569  0.2169379198357115
  0.3366178528226739  0.1748303084329743  0.7338803427535330
  0.3270433810419738  0.5000000000000000  0.2178296453424751
  0.3275511276366770  0.5000000000000000  0.7221580770868136
  0.3277195068501459  0.8319239245631427  0.2169379198357115
  0.3366178528226739  0.8251696915670254  0.7338803427535330
  0.3434348866784041  0.1715795451408349  0.4400581804197854
  0.3320733267067453  0.1684866075145293  0.9503742371585557
  0.3337451271019967  0.5000000000000000  0.4449008491902484
  0.3316296803965637  0.5000000000000000  0.9475962475403892
  0.3434348866784041  0.8284204548591650  0.4400581804197854
  0.3320733267067453  0.8315133924854708  0.9503742371585557
  0.1668417399787128 -0.0000000000000000  0.0515676479665149
  0.1654018532573270  0.3348420305815651  0.0537245287190852
  0.1674450016672742  0.3396837883506433  0.5551400368051734
  0.1654018532573270  0.6651579694184349  0.0537245287190852
  0.1674450016672742  0.6603162116493573  0.5551400368051734
  0.2119470812975678 -0.0000000000000000  0.5494586464779170
 
  0.00000000E+00  0.00000000E+00  0.00000000E+00
  0.00000000E+00  0.00000000E+00  0.00000000E+00
  0.00000000E+00  0.00000000E+00  0.00000000E+00
  0.00000000E+00  0.00000000E+00  0.00000000E+00
  0.00000000E+00  0.00000000E+00  0.00000000E+00
  0.00000000E+00  0.00000000E+00  0.00000000E+00
  0.00000000E+00  0.00000000E+00  0.00000000E+00
  0.00000000E+00  0.00000000E+00  0.00000000E+00
  0.00000000E+00  0.00000000E+00  0.00000000E+00
  0.00000000E+00  0.00000000E+00  0.00000000E+00
  0.00000000E+00  0.00000000E+00  0.00000000E+00
  0.00000000E+00  0.00000000E+00  0.00000000E+00
  0.00000000E+00  0.00000000E+00  0.00000000E+00
  0.00000000E+00  0.00000000E+00  0.00000000E+00
  0.00000000E+00  0.00000000E+00  0.00000000E+00
  0.00000000E+00  0.00000000E+00  0.00000000E+00
  0.00000000E+00  0.00000000E+00  0.00000000E+00
  0.00000000E+00  0.00000000E+00  0.00000000E+00
  0.00000000E+00  0.00000000E+00  0.00000000E+00
  0.00000000E+00  0.00000000E+00  0.00000000E+00
  0.00000000E+00  0.00000000E+00  0.00000000E+00
  0.00000000E+00  0.00000000E+00  0.00000000E+00
  0.00000000E+00  0.00000000E+00  0.00000000E+00
  0.00000000E+00  0.00000000E+00  0.00000000E+00
  0.00000000E+00  0.00000000E+00  0.00000000E+00
  0.00000000E+00  0.00000000E+00  0.00000000E+00
  0.00000000E+00  0.00000000E+00  0.00000000E+00
  0.00000000E+00  0.00000000E+00  0.00000000E+00
  0.00000000E+00  0.00000000E+00  0.00000000E+00
  0.00000000E+00  0.00000000E+00  0.00000000E+00
  0.00000000E+00  0.00000000E+00  0.00000000E+00
  0.00000000E+00  0.00000000E+00  0.00000000E+00
  0.00000000E+00  0.00000000E+00  0.00000000E+00
  0.00000000E+00  0.00000000E+00  0.00000000E+00
  0.00000000E+00  0.00000000E+00  0.00000000E+00
  0.00000000E+00  0.00000000E+00  0.00000000E+00
  0.00000000E+00  0.00000000E+00  0.00000000E+00
  0.00000000E+00  0.00000000E+00  0.00000000E+00
  0.00000000E+00  0.00000000E+00  0.00000000E+00
  0.00000000E+00  0.00000000E+00  0.00000000E+00
  0.00000000E+00  0.00000000E+00  0.00000000E+00
  0.00000000E+00  0.00000000E+00  0.00000000E+00
  0.00000000E+00  0.00000000E+00  0.00000000E+00
  0.00000000E+00  0.00000000E+00  0.00000000E+00
  0.00000000E+00  0.00000000E+00  0.00000000E+00
  0.00000000E+00  0.00000000E+00  0.00000000E+00
  0.00000000E+00  0.00000000E+00  0.00000000E+00
  0.00000000E+00  0.00000000E+00  0.00000000E+00
  0.00000000E+00  0.00000000E+00  0.00000000E+00
  0.00000000E+00  0.00000000E+00  0.00000000E+00
  0.00000000E+00  0.00000000E+00  0.00000000E+00
  0.00000000E+00  0.00000000E+00  0.00000000E+00
  0.00000000E+00  0.00000000E+00  0.00000000E+00
  0.00000000E+00  0.00000000E+00  0.00000000E+00
  0.00000000E+00  0.00000000E+00  0.00000000E+00
  0.00000000E+00  0.00000000E+00  0.00000000E+00
  0.00000000E+00  0.00000000E+00  0.00000000E+00
  0.00000000E+00  0.00000000E+00  0.00000000E+00
  0.00000000E+00  0.00000000E+00  0.00000000E+00
  0.00000000E+00  0.00000000E+00  0.00000000E+00
  0.00000000E+00  0.00000000E+00  0.00000000E+00
  0.00000000E+00  0.00000000E+00  0.00000000E+00
  0.00000000E+00  0.00000000E+00  0.00000000E+00
  0.00000000E+00  0.00000000E+00  0.00000000E+00
  0.00000000E+00  0.00000000E+00  0.00000000E+00
  0.00000000E+00  0.00000000E+00  0.00000000E+00
  0.00000000E+00  0.00000000E+00  0.00000000E+00
  0.00000000E+00  0.00000000E+00  0.00000000E+00
  0.00000000E+00  0.00000000E+00  0.00000000E+00
  0.00000000E+00  0.00000000E+00  0.00000000E+00
  0.00000000E+00  0.00000000E+00  0.00000000E+00
  0.00000000E+00  0.00000000E+00  0.00000000E+00
  0.00000000E+00  0.00000000E+00  0.00000000E+00
  0.00000000E+00  0.00000000E+00  0.00000000E+00
  0.00000000E+00  0.00000000E+00  0.00000000E+00
  0.00000000E+00  0.00000000E+00  0.00000000E+00
  0.00000000E+00  0.00000000E+00  0.00000000E+00
  0.00000000E+00  0.00000000E+00  0.00000000E+00
  0.00000000E+00  0.00000000E+00  0.00000000E+00
  0.00000000E+00  0.00000000E+00  0.00000000E+00
  0.00000000E+00  0.00000000E+00  0.00000000E+00
  0.00000000E+00  0.00000000E+00  0.00000000E+00
  0.00000000E+00  0.00000000E+00  0.00000000E+00
  0.00000000E+00  0.00000000E+00  0.00000000E+00
  0.00000000E+00  0.00000000E+00  0.00000000E+00
  0.00000000E+00  0.00000000E+00  0.00000000E+00
  0.00000000E+00  0.00000000E+00  0.00000000E+00
  0.00000000E+00  0.00000000E+00  0.00000000E+00
  0.00000000E+00  0.00000000E+00  0.00000000E+00
  0.00000000E+00  0.00000000E+00  0.00000000E+00
  0.00000000E+00  0.00000000E+00  0.00000000E+00
  0.00000000E+00  0.00000000E+00  0.00000000E+00
  0.00000000E+00  0.00000000E+00  0.00000000E+00
  0.00000000E+00  0.00000000E+00  0.00000000E+00
  0.00000000E+00  0.00000000E+00  0.00000000E+00
  0.00000000E+00  0.00000000E+00  0.00000000E+00
  0.00000000E+00  0.00000000E+00  0.00000000E+00
  0.00000000E+00  0.00000000E+00  0.00000000E+00
  0.00000000E+00  0.00000000E+00  0.00000000E+00
  0.00000000E+00  0.00000000E+00  0.00000000E+00
  0.00000000E+00  0.00000000E+00  0.00000000E+00
  0.00000000E+00  0.00000000E+00  0.00000000E+00
  0.00000000E+00  0.00000000E+00  0.00000000E+00
  0.00000000E+00  0.00000000E+00  0.00000000E+00
  0.00000000E+00  0.00000000E+00  0.00000000E+00
  0.00000000E+00  0.00000000E+00  0.00000000E+00
  0.00000000E+00  0.00000000E+00  0.00000000E+00
  0.00000000E+00  0.00000000E+00  0.00000000E+00
  0.00000000E+00  0.00000000E+00  0.00000000E+00
  0.00000000E+00  0.00000000E+00  0.00000000E+00
  0.00000000E+00  0.00000000E+00  0.00000000E+00
  0.00000000E+00  0.00000000E+00  0.00000000E+00
  0.00000000E+00  0.00000000E+00  0.00000000E+00
  0.00000000E+00  0.00000000E+00  0.00000000E+00
  0.00000000E+00  0.00000000E+00  0.00000000E+00
  0.00000000E+00  0.00000000E+00  0.00000000E+00
  0.00000000E+00  0.00000000E+00  0.00000000E+00
  0.00000000E+00  0.00000000E+00  0.00000000E+00
  0.00000000E+00  0.00000000E+00  0.00000000E+00
  0.00000000E+00  0.00000000E+00  0.00000000E+00
