Ga8 O12                                 
    1.000000000000000     
     0.0000000000000000   12.2804737091000007    0.0000000000000000
     9.1427011490000005    0.0000000000000000    0.0000000000000000
     0.0000000000000000   -2.7682616411000001  -11.3006974810000003
   Ga   O    Cu   N 
    47    71     1     1
Direct
  0.6576370538619827  0.9981715382988341  0.1550214109113455
  0.6595380190218663  0.9998301580427764  0.6570231206137862
  0.6580085480791240  0.3333317895073407  0.1558153596624337
  0.6592929043975531  0.3333121753109509  0.6572330843565339
  0.6589367657192540  0.6657026703816555  0.1563243902996163
  0.6597571987697037  0.6664720888968176  0.6571508621235935
  0.8356485215692473  0.1626680193226733  0.3424649477587209
  0.8412706763370181  0.1663180502053052  0.8434715356042304
  0.8416498924437548  0.4993650939596890  0.3425859955843507
  0.8418765095079124  0.5003430989146480  0.8438982009403944
  0.8410049722434110  0.8314942231566178  0.3439104798472385
  0.8418069517558706  0.8334910420869761  0.8444847365902035
  0.5906377412795294  0.1663575821396464  0.3982284158655460
  0.5903047090706366  0.1663921925121770  0.8972225740343092
  0.5924334904963544  0.5004699491440121  0.3979942186090213
  0.5904245738687166  0.4997783015441186  0.8970911535165769
  0.5918902225449045  0.8328803110220733  0.3977971971846657
  0.5901104341468582  0.8326656407779893  0.8968216930115886
  0.9093204955301317  0.9988727794831433  0.1057410981303093
  0.9074870200586105  0.9981982677592143  0.6003294161493713
  0.9085809881919005  0.3349282967084832  0.1035013321776788
  0.9085935493151354  0.3328475736853846  0.6021424494052212
  0.9094213589544609  0.6667762008935441  0.1031886790971868
  0.9079422737687395  0.6655935828200654  0.6014408613818745
  0.1621374729701088  0.1665029471881212  0.1592783985877162
  0.1600723614033726  0.1667156113846602  0.6568044742691797
  0.1597165249820520  0.5011204767738064  0.1574661667773043
  0.1583677075272192  0.5004116438354913  0.6549324280942770
  0.1595281486485405  0.8339171354223041  0.1589315299238123
  0.1576173424797602  0.8319693324584492  0.6553213132710809
  0.3417854260734288  0.9999620788147325  0.3444145838696429
  0.3403922702824005  0.9996436948860818  0.8429157513052417
  0.3429569142728894  0.3342651759285076  0.3436394021382441
  0.3404816993416730  0.3334733072901912  0.8428761499901611
  0.3415068212222323  0.6670385249051378  0.3439218717264723
  0.3399171960439631  0.6664881589654215  0.8427394114823272
  0.0908766552439531  0.0000060494780172  0.8975362620243601
  0.0922329743734949  0.3353874848919745  0.3959473121749895
  0.0916222043870789  0.3338606573282377  0.8977827287594238
  0.0883343291204497  0.6743416059278289  0.3964730345685723
  0.0916088133307440  0.6670451984645283  0.8981639981878544
  0.4093452124873238  0.1666160818691154  0.1014884377578582
  0.4097920595722897  0.1668340540266016  0.6026628131789948
  0.4085508849213113  0.5001278324242762  0.1018050808212863
  0.4094980728176978  0.5003461564435128  0.6027050336942210
  0.4086342950639974  0.8325186133345710  0.1018785744842603
  0.4095989656074650  0.8333574642747692  0.6029850826342695
  0.9969934341504754  0.1675691134815622  0.1420161379471665
  0.9960659361092610  0.1652017625344371  0.6192668342973633
  0.9969860571028946  0.5001768484746307  0.1278847895372550
  0.9959623802569340  0.4992282229913698  0.6269997919802677
  0.9968022450916862  0.8330912988061456  0.1271027451355380
  0.9953116499128996  0.8324529829949370  0.6271663096241014
  0.5042643900017865  0.9994126499968132  0.3727862517709113
  0.5029639016015679  0.9996340874102714  0.8724680309249422
  0.5048854546750690  0.3340153988512924  0.3730656111689825
  0.5029676686510030  0.3331624447056996  0.8722781858331672
  0.5044064840433009  0.6663048575871571  0.3731165504218197
  0.5025711434558886  0.6660947244527406  0.8719045678273503
  0.6704979600502909  0.1665899175974417  0.2794833826405494
  0.6732773014847027  0.1665069786494300  0.7813870382560424
  0.6723155838475634  0.4987361468417362  0.2798318562327751
  0.6735521653371066  0.4992910950472549  0.7814053391612674
  0.6718618432860879  0.8314443337045532  0.2795828310176844
  0.6736384060345273  0.8338994653285283  0.7815560478279266
  0.8234403923487790  0.9977000757701759  0.2177408714030022
  0.8283228128079116  0.0003544874654224  0.7199823178184772
  0.8258725635021023  0.3340856724731012  0.2187354751500408
  0.8282870662635275  0.3325035221152248  0.7199583767807596
  0.8264058997972583  0.6643442925575229  0.2184566844366813
  0.8277923230896036  0.6663950888875547  0.7200371465259678
  0.8251051559573028  0.9979089517226640  0.4459857618229250
  0.8357854719973261  0.0012278963583299  0.9478625971485357
  0.8320737218973875  0.3320979889079325  0.4453414702018179
  0.8347580089148465  0.3325401152359220  0.9466679365050581
  0.8286412479568739  0.6636036957045945  0.4458567437117082
  0.8330797320819059  0.6665771305450079  0.9463338916674999
  0.6669160438336945  0.1663129626765354  0.0536289911726300
  0.6677571854483375  0.1668894875889038  0.5548293187070144
  0.6675476782812879  0.4993733242464344  0.0532476443841361
  0.6684750896001788  0.4995099036125197  0.5549964620870398
  0.6671077434863548  0.8319934651987779  0.0529580870785722
  0.6676867314272812  0.8330756457816832  0.5549636174862371
  0.4958411940532557  0.9993503243823412  0.1261451618674840
  0.4970615247058774  0.0001147930957117  0.6286209285070967
  0.4959788423878351  0.3336612060552540  0.1259341242502003
  0.4969567848644729  0.3337029766549335  0.6285526535381436
  0.4962886207030834  0.6661752148905578  0.1259408570852685
  0.4972720905725367  0.6666561038069361  0.6289044134369135
  0.0039603029281423  0.1671527114012434  0.8726728252574887
  0.0043417628682008  0.5022788504145126  0.3728289203602770
  0.0042438442969228  0.5003251944016327  0.8727168063027477
  0.9987828692010297  0.8351740620623147  0.3725292616230504
  0.0039694687592942  0.8333042917403048  0.8724053842478341
  0.1767339480314263  0.9998710600949536  0.2792408785065064
  0.1717902870299923  0.0003650742189691  0.7799300349220601
  0.1751988596441407  0.3353393611422320  0.2806336573403243
  0.1717237681983903  0.3327250170302989  0.7794111345761152
  0.1730174771884805  0.6675111487530572  0.2812969049938658
  0.1719146884855078  0.6665900422006956  0.7798199846958198
  0.3298601715637304  0.1684857431563103  0.2196196696171100
  0.3278643154367629  0.1670991445464551  0.7195909034398653
  0.3280556107456221  0.5008681417889633  0.2194218219761268
  0.3266636747165492  0.4997616918541965  0.7188572481811804
  0.3285963284651956  0.8325581384735870  0.2195718295225149
  0.3271058487053580  0.8334463167848440  0.7194023807946124
  0.3348653150244800  0.1676438550166068  0.4459974959722999
  0.3312967755064165  0.1665665781614933  0.9452461325930201
  0.3335694724977714  0.5001813794340535  0.4461744331357096
  0.3307395510251681  0.4997051951381266  0.9452859256393253
  0.3346177548315410  0.8330416207515299  0.4464300985543943
  0.3310496069630915  0.8332176901845827  0.9453704754859231
  0.1662788260080248  0.0012794667963192  0.0543708879498084
  0.1721841179684063  0.9987003375857384  0.5562214647789219
  0.1659648498550510  0.3325995266125616  0.0549230645623027
  0.1675424305605304  0.3329905895001559  0.5533106696898997
  0.1681188044569168  0.6675018060622264  0.0547315366095020
  0.1673221278369112  0.6667169401781905  0.5532114608542926
  0.0945415926561992  0.0161397662411105  0.4000680232310216
  0.0001583943665722  0.1636826901922106  0.3641717976304193
 
  0.00000000E+00  0.00000000E+00  0.00000000E+00
  0.00000000E+00  0.00000000E+00  0.00000000E+00
  0.00000000E+00  0.00000000E+00  0.00000000E+00
  0.00000000E+00  0.00000000E+00  0.00000000E+00
  0.00000000E+00  0.00000000E+00  0.00000000E+00
  0.00000000E+00  0.00000000E+00  0.00000000E+00
  0.00000000E+00  0.00000000E+00  0.00000000E+00
  0.00000000E+00  0.00000000E+00  0.00000000E+00
  0.00000000E+00  0.00000000E+00  0.00000000E+00
  0.00000000E+00  0.00000000E+00  0.00000000E+00
  0.00000000E+00  0.00000000E+00  0.00000000E+00
  0.00000000E+00  0.00000000E+00  0.00000000E+00
  0.00000000E+00  0.00000000E+00  0.00000000E+00
  0.00000000E+00  0.00000000E+00  0.00000000E+00
  0.00000000E+00  0.00000000E+00  0.00000000E+00
  0.00000000E+00  0.00000000E+00  0.00000000E+00
  0.00000000E+00  0.00000000E+00  0.00000000E+00
  0.00000000E+00  0.00000000E+00  0.00000000E+00
  0.00000000E+00  0.00000000E+00  0.00000000E+00
  0.00000000E+00  0.00000000E+00  0.00000000E+00
  0.00000000E+00  0.00000000E+00  0.00000000E+00
  0.00000000E+00  0.00000000E+00  0.00000000E+00
  0.00000000E+00  0.00000000E+00  0.00000000E+00
  0.00000000E+00  0.00000000E+00  0.00000000E+00
  0.00000000E+00  0.00000000E+00  0.00000000E+00
  0.00000000E+00  0.00000000E+00  0.00000000E+00
  0.00000000E+00  0.00000000E+00  0.00000000E+00
  0.00000000E+00  0.00000000E+00  0.00000000E+00
  0.00000000E+00  0.00000000E+00  0.00000000E+00
  0.00000000E+00  0.00000000E+00  0.00000000E+00
  0.00000000E+00  0.00000000E+00  0.00000000E+00
  0.00000000E+00  0.00000000E+00  0.00000000E+00
  0.00000000E+00  0.00000000E+00  0.00000000E+00
  0.00000000E+00  0.00000000E+00  0.00000000E+00
  0.00000000E+00  0.00000000E+00  0.00000000E+00
  0.00000000E+00  0.00000000E+00  0.00000000E+00
  0.00000000E+00  0.00000000E+00  0.00000000E+00
  0.00000000E+00  0.00000000E+00  0.00000000E+00
  0.00000000E+00  0.00000000E+00  0.00000000E+00
  0.00000000E+00  0.00000000E+00  0.00000000E+00
  0.00000000E+00  0.00000000E+00  0.00000000E+00
  0.00000000E+00  0.00000000E+00  0.00000000E+00
  0.00000000E+00  0.00000000E+00  0.00000000E+00
  0.00000000E+00  0.00000000E+00  0.00000000E+00
  0.00000000E+00  0.00000000E+00  0.00000000E+00
  0.00000000E+00  0.00000000E+00  0.00000000E+00
  0.00000000E+00  0.00000000E+00  0.00000000E+00
  0.00000000E+00  0.00000000E+00  0.00000000E+00
  0.00000000E+00  0.00000000E+00  0.00000000E+00
  0.00000000E+00  0.00000000E+00  0.00000000E+00
  0.00000000E+00  0.00000000E+00  0.00000000E+00
  0.00000000E+00  0.00000000E+00  0.00000000E+00
  0.00000000E+00  0.00000000E+00  0.00000000E+00
  0.00000000E+00  0.00000000E+00  0.00000000E+00
  0.00000000E+00  0.00000000E+00  0.00000000E+00
  0.00000000E+00  0.00000000E+00  0.00000000E+00
  0.00000000E+00  0.00000000E+00  0.00000000E+00
  0.00000000E+00  0.00000000E+00  0.00000000E+00
  0.00000000E+00  0.00000000E+00  0.00000000E+00
  0.00000000E+00  0.00000000E+00  0.00000000E+00
  0.00000000E+00  0.00000000E+00  0.00000000E+00
  0.00000000E+00  0.00000000E+00  0.00000000E+00
  0.00000000E+00  0.00000000E+00  0.00000000E+00
  0.00000000E+00  0.00000000E+00  0.00000000E+00
  0.00000000E+00  0.00000000E+00  0.00000000E+00
  0.00000000E+00  0.00000000E+00  0.00000000E+00
  0.00000000E+00  0.00000000E+00  0.00000000E+00
  0.00000000E+00  0.00000000E+00  0.00000000E+00
  0.00000000E+00  0.00000000E+00  0.00000000E+00
  0.00000000E+00  0.00000000E+00  0.00000000E+00
  0.00000000E+00  0.00000000E+00  0.00000000E+00
  0.00000000E+00  0.00000000E+00  0.00000000E+00
  0.00000000E+00  0.00000000E+00  0.00000000E+00
  0.00000000E+00  0.00000000E+00  0.00000000E+00
  0.00000000E+00  0.00000000E+00  0.00000000E+00
  0.00000000E+00  0.00000000E+00  0.00000000E+00
  0.00000000E+00  0.00000000E+00  0.00000000E+00
  0.00000000E+00  0.00000000E+00  0.00000000E+00
  0.00000000E+00  0.00000000E+00  0.00000000E+00
  0.00000000E+00  0.00000000E+00  0.00000000E+00
  0.00000000E+00  0.00000000E+00  0.00000000E+00
  0.00000000E+00  0.00000000E+00  0.00000000E+00
  0.00000000E+00  0.00000000E+00  0.00000000E+00
  0.00000000E+00  0.00000000E+00  0.00000000E+00
  0.00000000E+00  0.00000000E+00  0.00000000E+00
  0.00000000E+00  0.00000000E+00  0.00000000E+00
  0.00000000E+00  0.00000000E+00  0.00000000E+00
  0.00000000E+00  0.00000000E+00  0.00000000E+00
  0.00000000E+00  0.00000000E+00  0.00000000E+00
  0.00000000E+00  0.00000000E+00  0.00000000E+00
  0.00000000E+00  0.00000000E+00  0.00000000E+00
  0.00000000E+00  0.00000000E+00  0.00000000E+00
  0.00000000E+00  0.00000000E+00  0.00000000E+00
  0.00000000E+00  0.00000000E+00  0.00000000E+00
  0.00000000E+00  0.00000000E+00  0.00000000E+00
  0.00000000E+00  0.00000000E+00  0.00000000E+00
  0.00000000E+00  0.00000000E+00  0.00000000E+00
  0.00000000E+00  0.00000000E+00  0.00000000E+00
  0.00000000E+00  0.00000000E+00  0.00000000E+00
  0.00000000E+00  0.00000000E+00  0.00000000E+00
  0.00000000E+00  0.00000000E+00  0.00000000E+00
  0.00000000E+00  0.00000000E+00  0.00000000E+00
  0.00000000E+00  0.00000000E+00  0.00000000E+00
  0.00000000E+00  0.00000000E+00  0.00000000E+00
  0.00000000E+00  0.00000000E+00  0.00000000E+00
  0.00000000E+00  0.00000000E+00  0.00000000E+00
  0.00000000E+00  0.00000000E+00  0.00000000E+00
  0.00000000E+00  0.00000000E+00  0.00000000E+00
  0.00000000E+00  0.00000000E+00  0.00000000E+00
  0.00000000E+00  0.00000000E+00  0.00000000E+00
  0.00000000E+00  0.00000000E+00  0.00000000E+00
  0.00000000E+00  0.00000000E+00  0.00000000E+00
  0.00000000E+00  0.00000000E+00  0.00000000E+00
  0.00000000E+00  0.00000000E+00  0.00000000E+00
  0.00000000E+00  0.00000000E+00  0.00000000E+00
  0.00000000E+00  0.00000000E+00  0.00000000E+00
  0.00000000E+00  0.00000000E+00  0.00000000E+00
  0.00000000E+00  0.00000000E+00  0.00000000E+00
  0.00000000E+00  0.00000000E+00  0.00000000E+00
  0.00000000E+00  0.00000000E+00  0.00000000E+00
