 running    4 mpi-ranks, on    1 nodes
 distrk:  each k-point on    1 cores,    4 groups
 distr:  one band on    1 cores,    1 groups
 OpenACC runtime initialized ...    4 GPUs detected
 vasp.6.4.2 20Jul23 (build Nov 12 2023 22:16:35) complex                         
 POSCAR found type information on POSCAR GaO CuN 
 POSCAR found :  4 types and     120 ions
 scaLAPACK will be used selectively (only on CPU)
 LDA part: xc-table for Pade appr. of Perdew
 POSCAR, INCAR and KPOINTS ok, starting setup
 FFT: planning ... GRIDC
 FFT: planning ... GRID_SOFT
 FFT: planning ... GRID
 WAVECAR not read
 initial charge from wavefunction
 entering main loop
       N       E                     dE             d eps       ncg     rms          ort
DAV:   1    -0.184161669786E+05   -0.18416E+05   -0.54776E+05  5048   0.744E+03
DAV:   2    -0.623985695887E+05   -0.43982E+05   -0.42682E+05  5048   0.120E+03
DAV:   3    -0.670002150724E+05   -0.46016E+04   -0.41196E+04  5048   0.354E+02
DAV:   4    -0.675538280754E+05   -0.55361E+03   -0.47619E+03  5048   0.105E+02
DAV:   5    -0.375160332440E+05    0.30038E+05   -0.75336E+02  5048   0.533E+01
 gam= 0.000 g(H,U,f)=  0.699E+05 0.217E+05 0.286E+04 ort(H,U,f) = 0.000E+00 0.000E+00 0.000E+00
SDA:   6     0.207145147331E+05    0.58231E+05   -0.75336E+02  5048   0.945E+05 0.000E+00
 gam= 0.000 trial= 0.400  step= 0.273 mean= 0.400
 gam= 0.882 g(H,U,f)=  0.189E+05 0.414E+05 0.231E+05 ort(H,U,f) = 0.117E+05-0.360E+05-0.204E+05
CGA:   7     0.591865445233E+04   -0.14796E+05   -0.12871E+05  5048   0.833E+05-0.447E+05
 gam= 0.882 trial= 0.394  step= 0.185 mean= 0.394
 gam= 0.268 g(H,U,f)=  0.135E+05 0.793E+04 0.838E+03 ort(H,U,f) = 0.638E+04 0.536E+03-0.802E+03
CGA:   8     0.341478337312E+04   -0.25039E+04   -0.40654E+04  5048   0.223E+05 0.611E+04
 gam= 0.268 trial= 0.383  step= 0.144 mean= 0.383
 gam= 0.357 g(H,U,f)=  0.493E+04 0.290E+04 0.133E+03 ort(H,U,f) = 0.277E+04 0.469E+04 0.190E+03
CGA:   9     0.133844906539E+04   -0.20763E+04   -0.17288E+04  5048   0.796E+04 0.765E+04
 gam= 0.357 trial= 0.371  step= 0.144 mean= 0.371
 gam= 1.250 g(H,U,f)=  0.559E+04 0.421E+04 0.146E+03 ort(H,U,f) = 0.101E+04-0.933E+03 0.283E+02
CGA:  10     0.825764256139E+03   -0.51268E+03   -0.77247E+03  5048   0.995E+04 0.109E+03
 gam= 1.250 trial= 0.360  step= 0.139 mean= 0.360
 gam= 0.655 g(H,U,f)=  0.458E+04 0.186E+04 0.771E+02 ort(H,U,f) = 0.108E+04-0.105E+04-0.104E+03
CGA:  11     0.385532997323E+03   -0.44023E+03   -0.70076E+03  5048   0.652E+04-0.715E+02
 gam= 0.655 trial= 0.349  step= 0.181 mean= 0.349
 gam= 0.445 g(H,U,f)=  0.231E+04 0.560E+03 0.322E+02 ort(H,U,f) =-0.711E+02 0.276E+03 0.339E+00
CGA:  12    -0.528677481393E+02   -0.43840E+03   -0.58476E+03  5048   0.290E+04 0.205E+03
 gam= 0.445 trial= 0.340  step= 0.257 mean= 0.340
 gam= 0.442 g(H,U,f)=  0.116E+04 0.120E+03 0.135E+01 ort(H,U,f) = 0.132E+03 0.121E+03-0.697E+00
CGA:  13    -0.397376706158E+03   -0.34451E+03   -0.38462E+03  5048   0.128E+04 0.252E+03
 gam= 0.442 trial= 0.336  step= 0.354 mean= 0.336
 gam= 0.414 g(H,U,f)=  0.476E+03 0.531E+02 0.178E+01 ort(H,U,f) =-0.912E+01 0.626E+02 0.270E+01
CGA:  14    -0.645476666851E+03   -0.24810E+03   -0.24706E+03  5048   0.531E+03 0.561E+02
 gam= 0.414 trial= 0.337  step= 0.486 mean= 0.337
 gam= 0.636 g(H,U,f)=  0.309E+03 0.273E+02 0.122E+01 ort(H,U,f) =-0.317E+02 0.326E+02 0.134E+01
CGA:  15    -0.781162941462E+03   -0.13569E+03   -0.13471E+03  5048   0.338E+03 0.227E+01
 gam= 0.636 trial= 0.345  step= 0.443 mean= 0.345
 gam= 0.520 g(H,U,f)=  0.156E+03 0.195E+02 0.109E+00 ort(H,U,f) =-0.210E+02 0.230E+02 0.189E+00
CGA:  16    -0.856829998540E+03   -0.75667E+02   -0.75250E+02  5048   0.176E+03 0.224E+01
 gam= 0.520 trial= 0.350  step= 0.465 mean= 0.350
 gam= 0.571 g(H,U,f)=  0.918E+02 0.849E+01 0.351E-01 ort(H,U,f) =-0.172E+02 0.142E+02 0.579E-01
CGA:  17    -0.897808047462E+03   -0.40978E+02   -0.41116E+02  5048   0.100E+03-0.295E+01
 gam= 0.571 trial= 0.355  step= 0.521 mean= 0.355
 gam= 0.736 g(H,U,f)=  0.642E+02 0.951E+01 0.892E-01 ort(H,U,f) =-0.152E+02-0.373E+00-0.536E+00
CGA:  18    -0.921135112666E+03   -0.23327E+02   -0.25689E+02  5048   0.738E+02-0.161E+02
 gam= 0.736 trial= 0.364  step= 0.305 mean= 0.364
 gam= 0.531 g(H,U,f)=  0.351E+02 0.409E+01 0.262E-04 ort(H,U,f) =-0.368E+01 0.300E+01 0.240E-04
CGA:  19    -0.930662690462E+03   -0.95276E+01   -0.94564E+01  5048   0.392E+02-0.677E+00
 gam= 0.531 trial= 0.361  step= 0.368 mean= 0.361
 gam= 0.776 g(H,U,f)=  0.275E+02 0.292E+01 0.135E-02 ort(H,U,f) =-0.554E+00-0.164E+00 0.276E-02
CGA:  20    -0.937816585006E+03   -0.71539E+01   -0.71587E+01  5048   0.304E+02-0.715E+00
 gam= 0.776 trial= 0.361  step= 0.298 mean= 0.361
 gam= 0.514 g(H,U,f)=  0.138E+02 0.183E+01 0.173E-01 ort(H,U,f) =-0.350E+00 0.427E+00 0.726E-01
CGA:  21    -0.942255007237E+03   -0.44384E+01   -0.44491E+01  5048   0.156E+02 0.149E+00
 gam= 0.514 trial= 0.358  step= 0.366 mean= 0.358
 gam= 0.718 g(H,U,f)=  0.962E+01 0.161E+01 0.826E-02 ort(H,U,f) =-0.729E+00 0.534E+00 0.322E-01
CGA:  22    -0.945128117414E+03   -0.28731E+01   -0.28747E+01  5048   0.112E+02-0.163E+00
 gam= 0.718 trial= 0.358  step= 0.288 mean= 0.358
 gam= 0.655 g(H,U,f)=  0.522E+01 0.212E+01 0.235E-01 ort(H,U,f) = 0.795E+00-0.856E+00-0.120E+00
CGA:  23    -0.946774566691E+03   -0.16464E+01   -0.15991E+01  5048   0.736E+01-0.181E+00
 gam= 0.655 trial= 0.355  step= 0.295 mean= 0.355
 gam= 0.796 g(H,U,f)=  0.369E+01 0.210E+01 0.657E-01 ort(H,U,f) =-0.454E+00 0.624E+00-0.934E-01
CGA:  24    -0.947839440887E+03   -0.10649E+01   -0.10684E+01  5048   0.586E+01 0.771E-01
 gam= 0.796 trial= 0.352  step= 0.248 mean= 0.352
 gam= 0.592 g(H,U,f)=  0.295E+01 0.513E+00 0.424E-02 ort(H,U,f) =-0.219E+00 0.223E+00 0.412E-02
CGA:  25    -0.948572179562E+03   -0.73274E+00   -0.73425E+00  5048   0.347E+01 0.835E-02
 gam= 0.592 trial= 0.347  step= 0.305 mean= 0.347
 gam= 0.770 g(H,U,f)=  0.172E+01 0.948E+00 0.615E-02 ort(H,U,f) = 0.322E+00-0.252E+00 0.173E-02
CGA:  26    -0.949098655766E+03   -0.52648E+00   -0.52966E+00  5048   0.267E+01 0.715E-01
 gam= 0.770 trial= 0.345  step= 0.287 mean= 0.345
 gam= 0.535 g(H,U,f)=  0.113E+01 0.302E+00 0.329E-02 ort(H,U,f) =-0.259E+00 0.282E+00-0.464E-02
CGA:  27    -0.949489873222E+03   -0.39122E+00   -0.39193E+00  5048   0.143E+01 0.180E-01
 gam= 0.535 trial= 0.342  step= 0.320 mean= 0.342
 gam= 0.759 g(H,U,f)=  0.820E+00 0.256E+00 0.100E-01 ort(H,U,f) = 0.154E-01 0.208E-02-0.253E-02
CGA:  28    -0.949719908458E+03   -0.23004E+00   -0.23030E+00  5048   0.109E+01 0.149E-01
 gam= 0.759 trial= 0.341  step= 0.354 mean= 0.341
 gam= 0.702 g(H,U,f)=  0.534E+00 0.219E+00 0.920E-02 ort(H,U,f) =-0.838E-01 0.869E-01 0.556E-02
CGA:  29    -0.949914280886E+03   -0.19437E+00   -0.19430E+00  5048   0.762E+00 0.871E-02
 gam= 0.702 trial= 0.341  step= 0.312 mean= 0.341
 gam= 0.667 g(H,U,f)=  0.430E+00 0.744E-01 0.432E-02 ort(H,U,f) =-0.657E-01 0.695E-01 0.792E-02
CGA:  30    -0.950033633255E+03   -0.11935E+00   -0.11972E+00  5048   0.508E+00 0.117E-01
 gam= 0.667 trial= 0.340  step= 0.345 mean= 0.340
 gam= 0.689 g(H,U,f)=  0.271E+00 0.779E-01 0.192E-02 ort(H,U,f) =-0.134E-01 0.130E-01 0.603E-02
CGA:  31    -0.950122649169E+03   -0.89016E-01   -0.88990E-01  5048   0.350E+00 0.563E-02
 gam= 0.689 trial= 0.340  step= 0.347 mean= 0.340
 gam= 0.703 g(H,U,f)=  0.188E+00 0.570E-01 0.112E-02 ort(H,U,f) =-0.395E-01 0.348E-01 0.442E-02
CGA:  32    -0.950184140589E+03   -0.61491E-01   -0.61494E-01  5048   0.246E+00-0.278E-03
 gam= 0.703 trial= 0.340  step= 0.363 mean= 0.340
 gam= 0.640 g(H,U,f)=  0.127E+00 0.295E-01 0.963E-03 ort(H,U,f) =-0.295E-01 0.261E-01 0.230E-02
CGA:  33    -0.950228842749E+03   -0.44702E-01   -0.44726E-01  5048   0.158E+00-0.112E-02
 gam= 0.640 trial= 0.342  step= 0.375 mean= 0.342
 gam= 0.749 g(H,U,f)=  0.887E-01 0.283E-01 0.104E-02 ort(H,U,f) =-0.111E-01 0.994E-02 0.106E-02
CGA:  34    -0.950258278135E+03   -0.29435E-01   -0.29440E-01  5048   0.118E+00-0.104E-03
 gam= 0.749 trial= 0.343  step= 0.409 mean= 0.343
 gam= 0.712 g(H,U,f)=  0.653E-01 0.179E-01 0.804E-03 ort(H,U,f) =-0.143E-01 0.140E-01 0.513E-03
CGA:  35    -0.950282406887E+03   -0.24129E-01   -0.24117E-01  5048   0.840E-01 0.240E-03
 gam= 0.712 trial= 0.347  step= 0.364 mean= 0.347
 gam= 0.704 g(H,U,f)=  0.484E-01 0.102E-01 0.598E-03 ort(H,U,f) =-0.768E-02 0.731E-02 0.417E-03
CGA:  36    -0.950297732040E+03   -0.15325E-01   -0.15324E-01  5048   0.592E-01 0.511E-04
 gam= 0.704 trial= 0.347  step= 0.411 mean= 0.347
 gam= 0.000 g(H,U,f)=  0.348E-01 0.107E-01 0.392E-03 ort(H,U,f) =-0.417E-02 0.371E-02 0.447E-03
SDA:  37    -0.950309908783E+03   -0.12177E-01   -0.12177E-01  5048   0.459E-01-0.126E-04
 gam= 0.000 trial= 0.351  step= 0.702 mean= 0.351
 gam= 0.525 g(H,U,f)=  0.149E-01 0.890E-02 0.280E-03 ort(H,U,f) =-0.898E-03 0.442E-03 0.276E-03
CGA:  38    -0.950325994329E+03   -0.16086E-01   -0.16117E-01  5048   0.241E-01-0.180E-03
 gam= 0.525 trial= 0.368  step= 0.543 mean= 0.368
 gam= 0.631 g(H,U,f)=  0.792E-02 0.711E-02 0.199E-03 ort(H,U,f) =-0.240E-02 0.206E-02 0.310E-03
CGA:  39    -0.950332503850E+03   -0.65095E-02   -0.65140E-02  5048   0.152E-01-0.365E-04
 gam= 0.631 trial= 0.377  step= 0.666 mean= 0.377
 gam= 0.386 g(H,U,f)=  0.308E-02 0.277E-02 0.267E-04 ort(H,U,f) =-0.117E-02 0.121E-02 0.123E-03
CGA:  40    -0.950337587138E+03   -0.50833E-02   -0.50592E-02  5048   0.587E-02 0.161E-03
 gam= 0.386 trial= 0.391  step= 0.993 mean= 0.391
 gam= 0.507 g(H,U,f)=  0.185E-02 0.109E-02 0.369E-04 ort(H,U,f) =-0.108E-02 0.101E-02 0.500E-04
CGA:  41    -0.950340532022E+03   -0.29449E-02   -0.29489E-02  5048   0.298E-02-0.209E-04
 gam= 0.507 trial= 0.421  step= 1.332 mean= 0.421
 gam= 0.942 g(H,U,f)=  0.208E-02 0.705E-03 0.180E-04 ort(H,U,f) =-0.912E-03 0.944E-03 0.284E-04
CGA:  42    -0.950342534915E+03   -0.20029E-02   -0.19774E-02  5048   0.281E-02 0.602E-04
 gam= 0.942 trial= 0.467  step= 0.973 mean= 0.467
 gam= 0.913 g(H,U,f)=  0.199E-02 0.563E-03 0.759E-05 ort(H,U,f) =-0.960E-03 0.940E-03 0.200E-04
CGA:  43    -0.950343926344E+03   -0.13914E-02   -0.13921E-02  5048   0.256E-02 0.510E-06
 gam= 0.913 trial= 0.492  step= 0.859 mean= 0.492
 gam= 0.849 g(H,U,f)=  0.154E-02 0.637E-03 0.173E-05 ort(H,U,f) =-0.766E-03 0.814E-03-0.653E-06
CGA:  44    -0.950345037046E+03   -0.11107E-02   -0.11005E-02  5048   0.218E-02 0.469E-04
 gam= 0.849 trial= 0.511  step= 0.725 mean= 0.511
 gam= 0.811 g(H,U,f)=  0.993E-03 0.771E-03 0.765E-06 ort(H,U,f) =-0.344E-03 0.304E-03-0.590E-05
CGA:  45    -0.950345834005E+03   -0.79696E-03   -0.80278E-03  5048   0.176E-02-0.458E-04
 gam= 0.811 trial= 0.521  step= 0.751 mean= 0.521
 gam= 0.700 g(H,U,f)=  0.829E-03 0.402E-03 0.503E-05 ort(H,U,f) =-0.470E-03 0.498E-03-0.133E-04
CGA:  46    -0.950346484201E+03   -0.65020E-03   -0.64812E-03  5048   0.124E-02 0.149E-04
 gam= 0.700 trial= 0.533  step= 1.387 mean= 0.533
 gam= 1.479 g(H,U,f)=  0.125E-02 0.570E-03 0.721E-05 ort(H,U,f) =-0.628E-03 0.598E-03-0.493E-05
CGA:  47    -0.950347333414E+03   -0.84921E-03   -0.86403E-03  5048   0.183E-02-0.347E-04
 gam= 1.479 trial= 0.575  step= 1.717 mean= 0.575
 gam= 0.000 g(H,U,f)=  0.410E-02 0.774E+00 0.176E+01 ort(H,U,f) =-0.150E-02-0.934E+00-0.448E+01
CGA:  48    -0.950339056543E+03    0.82769E-02   -0.15253E-02  5048   0.253E+01-0.541E+01
 gam= 0.000 trial= 0.633  step= 0.318 mean= 0.633
 gam= 0.001 g(H,U,f)=  0.858E-03 0.110E-02 0.127E-04 ort(H,U,f) = 0.124E-02 0.118E-02 0.129E-04
CGA:  49    -0.950349841904E+03   -0.10785E-01   -0.40358E+00  5048   0.197E-02 0.243E-02
 gam= 0.001 trial= 0.617  step= 1.777 mean= 0.617
 gam= 1.219 g(H,U,f)=  0.144E-02 0.952E-03 0.105E-04 ort(H,U,f) =-0.545E-03 0.765E-03 0.123E-04
CGA:  50    -0.950351742084E+03   -0.19002E-02   -0.17542E-02  5048   0.240E-02 0.232E-03
 gam= 1.219 trial= 0.675  step= 1.370 mean= 0.675
 gam= 2.062 g(H,U,f)=  0.390E-02 0.105E-02 0.653E-05 ort(H,U,f) =-0.143E-02 0.144E-02 0.172E-04
CGA:  51    -0.950353594319E+03   -0.18522E-02   -0.18410E-02  5048   0.496E-02 0.307E-04
 gam= 2.062 trial= 0.710  step= 0.979 mean= 0.710
 gam= 1.651 g(H,U,f)=  0.467E-02 0.350E-02 0.103E-04 ort(H,U,f) =-0.249E-02 0.200E-02-0.286E-04
CGA:  52    -0.950355975742E+03   -0.23814E-02   -0.24593E-02  5048   0.818E-02-0.517E-03
 gam= 1.651 trial= 0.723  step= 0.000 mean= 0.723
 gam= 0.000 g(H,U,f)=  0.479E-02 0.567E-02 0.106E-04 ort(H,U,f) = 0.554E-03 0.659E-02-0.363E-04
CGA:  53    -0.950355008628E+03    0.96711E-03   -0.70802E-06  5048   0.105E-01 0.711E-02
 gam= 0.000 trial= 0.687  step= 0.456 mean= 0.687
 gam= 0.456 g(H,U,f)=  0.228E-02 0.248E-02 0.137E-04 ort(H,U,f) =-0.640E-03 0.686E-03 0.748E-05
CGA:  54    -0.950357321425E+03   -0.23128E-02   -0.23888E-02  5048   0.478E-02 0.537E-04
 gam= 0.456 trial= 0.675  step= 0.831 mean= 0.675
 gam= 0.682 g(H,U,f)=  0.200E-02 0.125E-02 0.553E-05 ort(H,U,f) =-0.901E-03 0.128E-02 0.102E-04
CGA:  55    -0.950359364902E+03   -0.20435E-02   -0.19955E-02  5048   0.326E-02 0.392E-03
 gam= 0.682 trial= 0.683  step= 1.122 mean= 0.683
 gam= 1.062 g(H,U,f)=  0.226E-02 0.120E-02 0.591E-05 ort(H,U,f) =-0.137E-02 0.143E-02 0.776E-05
CGA:  56    -0.950361362406E+03   -0.19975E-02   -0.19782E-02  5048   0.346E-02 0.650E-04
 gam= 1.062 trial= 0.705  step= 1.209 mean= 0.705
 gam= 0.000 g(H,U,f)=  0.803E+00 0.217E+01 0.704E+02 ort(H,U,f) =-0.324E-01-0.108E+01-0.927E+02
CGA:  57    -0.945571342747E+03    0.47900E+01   -0.21341E-02  5048   0.734E+02-0.938E+02
 gam= 0.000 trial= 0.730  step= 0.388 mean= 0.730
 gam= 0.046 g(H,U,f)=  0.175E+01 0.160E+01 0.476E-03 ort(H,U,f) =-0.109E+01-0.131E+01-0.509E-04
CGA:  58    -0.949904514749E+03   -0.43332E+01   -0.14235E+02  5048   0.334E+01-0.241E+01
 gam= 0.046 trial= 0.713  step= 0.253 mean= 0.713
 gam= 0.040 g(H,U,f)=  0.570E-01 0.765E-01 0.657E-04 ort(H,U,f) =-0.178E-02 0.840E-01-0.224E-03
CGA:  59    -0.950327487521E+03   -0.42297E+00   -0.40864E+00  5048   0.134E+00 0.820E-01
 gam= 0.040 trial= 0.690  step= 0.512 mean= 0.690
 gam= 0.101 g(H,U,f)=  0.972E-02 0.372E-02 0.260E-04 ort(H,U,f) = 0.710E-03-0.730E-04-0.261E-04
CGA:  60    -0.950362226352E+03   -0.34739E-01   -0.35064E-01  5048   0.135E-01 0.611E-03
 gam= 0.101 trial= 0.681  step= 0.525 mean= 0.681
 gam= 0.327 g(H,U,f)=  0.167E-02 0.271E-02 0.189E-04 ort(H,U,f) =-0.148E-02 0.146E-02 0.203E-04
CGA:  61    -0.950365780712E+03   -0.35544E-02   -0.35546E-02  5048   0.440E-02-0.103E-05
 gam= 0.327 trial= 0.673  step= 0.469 mean= 0.673
 gam= 0.570 g(H,U,f)=  0.818E-03 0.169E-02 0.202E-05 ort(H,U,f) = 0.750E-06-0.135E-04 0.788E-05
CGA:  62    -0.950366814651E+03   -0.10339E-02   -0.10321E-02  5048   0.251E-02-0.486E-05
 gam= 0.570 trial= 0.663  step= 1.422 mean= 0.663
 gam= 1.136 g(H,U,f)=  0.175E-02 0.108E-02 0.164E-04 ort(H,U,f) =-0.110E-02 0.108E-02 0.182E-04
CGA:  63    -0.950368591973E+03   -0.17773E-02   -0.17797E-02  5048   0.285E-02-0.746E-05
 gam= 1.136 trial= 0.701  step= 1.986 mean= 0.701
 gam= 2.283 g(H,U,f)=  0.483E-02 0.165E-02 0.251E-04 ort(H,U,f) =-0.166E-02 0.156E-02 0.416E-04
CGA:  64    -0.950371379114E+03   -0.27871E-02   -0.28167E-02  5048   0.650E-02-0.616E-04
 gam= 2.283 trial= 0.765  step= 0.723 mean= 0.765
 gam= 1.073 g(H,U,f)=  0.376E-02 0.321E-02 0.620E-05 ort(H,U,f) =-0.131E-02 0.112E-02 0.133E-04
CGA:  65    -0.950373684628E+03   -0.23055E-02   -0.22967E-02  5048   0.697E-02-0.178E-03
 gam= 1.073 trial= 0.763  step= 0.736 mean= 0.763
 gam= 0.708 g(H,U,f)=  0.356E-02 0.136E-02 0.154E-04 ort(H,U,f) =-0.141E-02 0.137E-02 0.848E-04
CGA:  66    -0.950376176991E+03   -0.24924E-02   -0.24932E-02  5048   0.493E-02 0.375E-04
 gam= 0.708 trial= 0.762  step= 0.702 mean= 0.762
 gam= 0.600 g(H,U,f)=  0.178E-02 0.116E-02 0.246E-04 ort(H,U,f) =-0.522E-03 0.461E-03 0.111E-03
CGA:  67    -0.950377915460E+03   -0.17385E-02   -0.17416E-02  5048   0.296E-02 0.497E-04
 gam= 0.600 trial= 0.759  step= 0.567 mean= 0.759
 gam= 0.748 g(H,U,f)=  0.125E-02 0.956E-03 0.460E-05 ort(H,U,f) =-0.297E-03 0.260E-03 0.368E-04
CGA:  68    -0.950378765171E+03   -0.84971E-03   -0.84827E-03  5048   0.221E-02-0.703E-06
 gam= 0.748 trial= 0.749  step= 0.646 mean= 0.749
 gam= 0.550 g(H,U,f)=  0.771E-03 0.445E-03 0.146E-05 ort(H,U,f) =-0.432E-03 0.429E-03 0.194E-04
CGA:  69    -0.950379477470E+03   -0.71230E-03   -0.71467E-03  5048   0.122E-02 0.160E-04
 gam= 0.550 trial= 0.744  step= 0.806 mean= 0.744
 gam= 0.904 g(H,U,f)=  0.733E-03 0.368E-03 0.837E-06 ort(H,U,f) =-0.364E-03 0.359E-03 0.624E-05
CGA:  70    -0.950379972084E+03   -0.49461E-03   -0.49451E-03  5048   0.110E-02 0.157E-05
 gam= 0.904 trial= 0.747  step= 0.645 mean= 0.747
 gam= 0.847 g(H,U,f)=  0.547E-03 0.384E-03 0.230E-05 ort(H,U,f) =-0.258E-03 0.262E-03-0.114E-04
CGA:  71    -0.950380328740E+03   -0.35666E-03   -0.35571E-03  5048   0.933E-03-0.745E-05
 gam= 0.847 trial= 0.742  step= 0.638 mean= 0.742
 gam= 0.625 g(H,U,f)=  0.401E-03 0.180E-03 0.155E-05 ort(H,U,f) =-0.231E-03 0.237E-03-0.350E-05
CGA:  72    -0.950380623989E+03   -0.29525E-03   -0.29564E-03  5048   0.583E-03 0.227E-05
 gam= 0.625 trial= 0.737  step= 0.790 mean= 0.737
 gam= 0.832 g(H,U,f)=  0.339E-03 0.145E-03 0.131E-05 ort(H,U,f) =-0.115E-03 0.119E-03-0.263E-05
CGA:  73    -0.950380854873E+03   -0.23088E-03   -0.23081E-03  5048   0.485E-03 0.162E-05
 gam= 0.832 trial= 0.740  step= 0.526 mean= 0.740
 gam= 0.605 g(H,U,f)=  0.177E-03 0.112E-03 0.385E-05 ort(H,U,f) =-0.415E-04 0.462E-04-0.464E-05
CGA:  74    -0.950380982958E+03   -0.12809E-03   -0.12780E-03  5048   0.294E-03 0.104E-06
 gam= 0.605 trial= 0.729  step= 0.618 mean= 0.729
 gam= 0.537 g(H,U,f)=  0.116E-03 0.405E-04 0.123E-05 ort(H,U,f) =-0.436E-04 0.451E-04 0.303E-06
CGA:  75    -0.950381073616E+03   -0.90659E-04   -0.90783E-04  5048   0.158E-03 0.176E-05
 gam= 0.537 trial= 0.723  step= 0.708 mean= 0.723
 gam= 0.705 g(H,U,f)=  0.727E-04 0.383E-04 0.188E-06 ort(H,U,f) =-0.162E-04 0.175E-04 0.330E-06
CGA:  76    -0.950381129800E+03   -0.56184E-04   -0.56196E-04  5048   0.111E-03 0.168E-05
 gam= 0.705 trial= 0.723  step= 0.557 mean= 0.723
 gam= 0.690 g(H,U,f)=  0.452E-04 0.310E-04 0.475E-06 ort(H,U,f) =-0.172E-04 0.175E-04 0.631E-06
CGA:  77    -0.950381161055E+03   -0.31255E-04   -0.31319E-04  5048   0.767E-04 0.967E-06
 gam= 0.690 trial= 0.714  step= 0.677 mean= 0.714
 gam= 0.701 g(H,U,f)=  0.371E-04 0.164E-04 0.215E-06 ort(H,U,f) =-0.185E-04 0.193E-04 0.468E-06
CGA:  78    -0.950381187222E+03   -0.26166E-04   -0.26191E-04  5048   0.538E-04 0.128E-05
 gam= 0.701 trial= 0.712  step= 0.742 mean= 0.712
 gam= 0.853 g(H,U,f)=  0.286E-04 0.172E-04 0.685E-07 ort(H,U,f) =-0.119E-04 0.126E-04 0.104E-06
CGA:  79    -0.950381207517E+03   -0.20296E-04   -0.20283E-04  5048   0.459E-04 0.849E-06
 gam= 0.853 trial= 0.714  step= 0.598 mean= 0.714
 gam= 0.807 g(H,U,f)=  0.249E-04 0.121E-04 0.552E-07 ort(H,U,f) =-0.131E-04 0.129E-04 0.274E-06
CGA:  80    -0.950381221439E+03   -0.13921E-04   -0.13923E-04  5048   0.370E-04 0.833E-07
 gam= 0.807 trial= 0.708  step= 0.696 mean= 0.708
 gam= 0.687 g(H,U,f)=  0.193E-04 0.613E-05 0.183E-08 ort(H,U,f) =-0.971E-05 0.964E-05 0.205E-07
CGA:  81    -0.950381234342E+03   -0.12903E-04   -0.12902E-04  5048   0.254E-04-0.517E-07
 gam= 0.687 trial= 0.708  step= 0.669 mean= 0.708
 gam= 0.805 g(H,U,f)=  0.139E-04 0.659E-05 0.322E-08 ort(H,U,f) =-0.567E-05 0.546E-05-0.239E-07
CGA:  82    -0.950381242830E+03   -0.84887E-05   -0.84843E-05  5048   0.205E-04-0.237E-06
 gam= 0.805 trial= 0.706  step= 0.634 mean= 0.706
 final diagonalization
   1 F= -.95038124E+03 E0= -.95037126E+03  d E =-.199588E-01
 writing wavefunctions
Warning: ieee_invalid is signaling
Warning: ieee_divide_by_zero is signaling
Warning: ieee_underflow is signaling
Warning: ieee_inexact is signaling
FORTRAN STOP
Warning: ieee_invalid is signaling
Warning: ieee_divide_by_zero is signaling
Warning: ieee_underflow is signaling
Warning: ieee_inexact is signaling
FORTRAN STOP
Warning: ieee_invalid is signaling
Warning: ieee_divide_by_zero is signaling
Warning: ieee_underflow is signaling
Warning: ieee_inexact is signaling
FORTRAN STOP
Warning: ieee_invalid is signaling
Warning: ieee_divide_by_zero is signaling
Warning: ieee_underflow is signaling
Warning: ieee_inexact is signaling
FORTRAN STOP
