 vasp.6.4.2 20Jul23 (build Nov 12 2023 22:16:35) complex                         
 executed on              LinuxNV date 2025.05.31  20:15:06
 running    4 mpi-ranks, on    1 nodes
 distrk:  each k-point on    1 cores,    4 groups
 distr:  one band on NCORE=   1 cores,    1 groups
 OpenACC runtime initialized ...    4 GPUs detected


--------------------------------------------------------------------------------------------------------


 INCAR:
   PREC = Normal
   ENCUT = 450
   NELM = 300
   IBRION = -1
   ISPIN = 1
   NSW = 0
   ISIF = 2
   EDIFF = 1E-5
   EDIFFG = -5E-3
   ISTART = 0
   ICHARG = 0
   ISMEAR = 0
   SIGMA = 0.05
   LWAVE = .T.
   LCHARG = .T.
   LREAL = Auto
   LPLANE = .TRUE.
   NPAR = 1
   KPAR = 4
   NCORE = 1
   ICORELEVEL = 1
   ISYM = 0

 POTCAR:    PAW_PBE Cu 22Jun2005                  
 POTCAR:    PAW_PBE Cu 22Jun2005                  
   SHA256 =  0e71e558f37a4e8407882b4609ceaae59938afaad9ced71dfe8490308a0ab630 Cu/POTCAR             
   COPYR  = (c) Copyright 22Jun2005 Georg Kresse                                                    
   COPYR  = This file is part of the software VASP. Any use, copying, and all other rights are regul
   COPYR  = If you do not have a valid VASP license, you may not use, copy or distribute this file. 
   VRHFIN =Cu: d10 p1                                                                               
   LEXCH  = PE                                                                                      
   EATOM  =  1390.9808 eV,  102.2342 Ry                                                             
                                                                                                    
   TITEL  = PAW_PBE Cu 22Jun2005                                                                    
   LULTRA =        F    use ultrasoft PP ?                                                          
   IUNSCR =        1    unscreen: 0-lin 1-nonlin 2-no                                               
   RPACOR =    2.000    partial core radius                                                         
   POMASS =   63.546; ZVAL   =   11.000    mass and valenz                                          
   RCORE  =    2.300    outmost cutoff radius                                                       
   RWIGS  =    2.200; RWIGS  =    1.164    wigner-seitz radius (au A)                               
   ENMAX  =  295.446; ENMIN  =  221.585 eV                                                          
   ICORE  =        3    local potential                                                             
   LCOR   =        T    correct aug charges                                                         
   LPAW   =        T    paw PP                                                                      
   EAUG   =  586.980                                                                                
   DEXC   =    0.000                                                                                
   RMAX   =    2.344    core radius for proj-oper                                                   
   RAUG   =    1.300    factor for augmentation sphere                                              
   RDEP   =    2.302    radius for radial grids                                                     
   RDEPT  =    1.771    core radius for aug-charge                                                  
                                                                                                    
   Atomic configuration                                                                             
    9 entries                                                                                       
     n  l   j            E        occ.                                                              
     1  0  0.50     -8850.2468   2.0000                                                             
     2  0  0.50     -1062.3498   2.0000                                                             
     2  1  1.50      -916.8226   6.0000                                                             
     3  0  0.50      -114.6929   2.0000                                                             
     3  1  1.50       -72.1325   6.0000                                                             
     3  2  2.50        -5.0394  10.0000                                                             
     4  0  0.50        -4.6097   1.0000                                                             
     4  1  0.50        -4.0817   0.0000                                                             
     4  3  2.50        -1.3606   0.0000                                                             
   Description                                                                                      
     l       E           TYP  RCUT    TYP  RCUT                                                     
     2     -5.0393973     23  2.200                                                                 
     2     10.8846608     23  2.200                                                                 
     0     -4.6097109     23  2.200                                                                 
     0      8.2520465     23  2.200                                                                 
     1     -2.7211652     23  2.200                                                                 
     1     21.7055443     23  2.200                                                                 
     3      2.7211652     23  2.300                                                                 
  local pseudopotential read in
  partial core-charges read in
  partial kinetic energy density read in
  atomic valenz-charges read in
  non local Contribution for L=            2  read in
    real space projection operators read in
  non local Contribution for L=            2  read in
    real space projection operators read in
  non local Contribution for L=            0  read in
    real space projection operators read in
  non local Contribution for L=            0  read in
    real space projection operators read in
  non local Contribution for L=            1  read in
    real space projection operators read in
  non local Contribution for L=            1  read in
    real space projection operators read in
    PAW grid and wavefunctions read in
 
   number of l-projection  operators is LMAX  =            6
   number of lm-projection operators is LMMAX =           18
 
 -----------------------------------------------------------------------------
|                                                                             |
|               ----> ADVICE to this user running VASP <----                  |
|                                                                             |
|     You have a (more or less) 'small supercell' and for smaller cells       |
|     it is recommended to use the reciprocal-space projection scheme!        |
|     The real-space optimization is not efficient for small cells and it     |
|     is also less accurate ...                                               |
|     Therefore, set LREAL=.FALSE. in the INCAR file.                         |
|                                                                             |
 -----------------------------------------------------------------------------

 Optimization of the real space projectors (new method)

 maximal supplied QI-value         = 16.25
 optimisation between [QCUT,QGAM] = [ 10.73, 21.61] = [ 32.22,130.83] Ry 
 Optimized for a Real-space Cutoff    1.42 Angstroem

   l    n(q)    QCUT    max X(q) W(low)/X(q) W(high)/X(q)  e(spline) 
   2      8    10.726     4.610    0.15E-03    0.25E-03    0.14E-06
   2      8    10.726     8.522    0.25E-03    0.43E-03    0.27E-06
   0      9    10.726    51.609    0.94E-04    0.10E-03    0.12E-06
   0      9    10.726    27.747    0.85E-04    0.96E-04    0.11E-06
   1      9    10.726    20.408    0.25E-03    0.14E-03    0.12E-06
   1      9    10.726    13.425    0.22E-03    0.13E-03    0.11E-06
  PAW_PBE Cu 22Jun2005                  :
 energy of atom  1       EATOM=-1390.9808
 kinetic energy error for atom=    0.0097 (will be added to EATOM!!)
 
 
 POSCAR: Cu4
  positions in direct lattice
  velocities in cartesian coordinates
 exchange correlation table for  LEXCH =        8
   RHO(1)=    0.500       N(1)  =     2000
   RHO(2)=  100.500       N(2)  =     4000
 


--------------------------------------------------------------------------------------------------------


 ion  position               nearest neighbor table
   1  0.000  0.000  0.000-   2 2.53   3 2.53   2 2.53   3 2.53   2 2.53   4 2.53   2 2.53   3 2.53
                             4 2.53   3 2.53   4 2.53   4 2.53
   2  0.000  0.500  0.500-   1 2.53   4 2.53   1 2.53   4 2.53   1 2.53   3 2.53   1 2.53   3 2.53
                             4 2.53   4 2.53   3 2.53   3 2.53
   3  0.500  0.000  0.500-   1 2.53   4 2.53   1 2.53   4 2.53   2 2.53   4 2.53   4 2.53   1 2.53
                             2 2.53   1 2.53   2 2.53   2 2.53
   4  0.500  0.500  0.000-   2 2.53   3 2.53   2 2.53   3 2.53   1 2.53   3 2.53   3 2.53   1 2.53
                             2 2.53   2 2.53   1 2.53   1 2.53
 

IMPORTANT INFORMATION: All symmetrisations will be switched off!
NOSYMM: (Re-)initialisation of all symmetry stuff for point group C_1.


----------------------------------------------------------------------------------------

                                     Primitive cell                                     

  volume of cell :      45.7840

  direct lattice vectors                    reciprocal lattice vectors
     3.577430672  0.000000000  0.000000000     0.279530225 -0.000000000  0.000000000
     0.000000000  3.577430672  0.000000000     0.000000000  0.279530225  0.000000000
     0.000000000  0.000000000  3.577430672    -0.000000000 -0.000000000  0.279530225

  length of vectors
     3.577430672  3.577430672  3.577430672     0.279530225  0.279530225  0.279530225

  position of ions in fractional coordinates (direct lattice)
     0.000000000  0.000000000  0.000000000
     0.000000000  0.500000000  0.500000000
     0.500000000  0.000000000  0.500000000
     0.500000000  0.500000000  0.000000000

  ion indices of the primitive-cell ions
   primitive index   ion index
                 1           1
                 2           2
                 3           3
                 4           4

----------------------------------------------------------------------------------------

 
 
 KPOINTS: Automatic mesh                          

Automatic generation of k-mesh.
 Grid dimensions read from file:
 generate k-points for:    2    2    2

 Generating k-lattice:

  Cartesian coordinates                     Fractional coordinates (reciprocal lattice)
     0.139765112 -0.000000000  0.000000000     0.500000000  0.000000000  0.000000000
     0.000000000  0.139765112  0.000000000     0.000000000  0.500000000  0.000000000
    -0.000000000 -0.000000000  0.139765112     0.000000000  0.000000000  0.500000000

  Length of vectors
     0.139765112  0.139765112  0.139765112

  Shift w.r.t. Gamma in fractional coordinates (k-lattice)
     0.000000000  0.000000000  0.000000000

 
 Subroutine IBZKPT returns following result:
 ===========================================
 
 Found      8 irreducible k-points:
 
 Following reciprocal coordinates:
            Coordinates               Weight
  0.000000  0.000000  0.000000      1.000000
  0.500000  0.000000  0.000000      1.000000
  0.000000  0.500000  0.000000      1.000000
  0.000000  0.000000  0.500000      1.000000
  0.500000  0.500000  0.000000      1.000000
  0.000000  0.500000  0.500000      1.000000
  0.500000  0.000000  0.500000      1.000000
  0.500000  0.500000  0.500000      1.000000
 
 Following cartesian coordinates:
            Coordinates               Weight
  0.000000  0.000000  0.000000      1.000000
  0.139765  0.000000  0.000000      1.000000
  0.000000  0.139765  0.000000      1.000000
  0.000000  0.000000  0.139765      1.000000
  0.139765  0.139765  0.000000      1.000000
  0.000000  0.139765  0.139765      1.000000
  0.139765  0.000000  0.139765      1.000000
  0.139765  0.139765  0.139765      1.000000
 


--------------------------------------------------------------------------------------------------------




 Dimension of arrays:
   k-points           NKPTS =      8   k-points in BZ     NKDIM =      8   number of bands    NBANDS=     26
   number of dos      NEDOS =    301   number of ions     NIONS =      4
   non local maximal  LDIM  =      6   non local SUM 2l+1 LMDIM =     18
   total plane-waves  NPLWV =   8000
   max r-space proj   IRMAX =   2155   max aug-charges    IRDMAX=   5260
   dimension x,y,z NGX =    20 NGY =   20 NGZ =   20
   dimension x,y,z NGXF=    40 NGYF=   40 NGZF=   40
   support grid    NGXF=    40 NGYF=   40 NGZF=   40
   ions per type =               4
   NGX,Y,Z   is equivalent  to a cutoff of   9.29,  9.29,  9.29 a.u.
   NGXF,Y,Z  is equivalent  to a cutoff of  18.59, 18.59, 18.59 a.u.

 SYSTEM =  unknown system                          
 POSCAR =  Cu4                                     

 Startparameter for this run:
   NWRITE =      2    write-flag & timer
   PREC   = normal    normal or accurate (medium, high low for compatibility)
   ISTART =      0    job   : 0-new  1-cont  2-samecut
   ICHARG =      0    charge: 1-file 2-atom 10-const
   ISPIN  =      1    spin polarized calculation?
   LNONCOLLINEAR =      F non collinear calculations
   LSORBIT =      F    spin-orbit coupling
   INIWAV =      1    electr: 0-lowe 1-rand  2-diag
   LASPH  =      F    aspherical Exc in radial PAW
 Electronic Relaxation 1
   ENCUT  =  450.0 eV  33.07 Ry    5.75 a.u.   6.19  6.19  6.19*2*pi/ulx,y,z
   ENINI  =  450.0     initial cutoff
   ENAUG  =  587.0 eV  augmentation charge cutoff
   NELM   =    300;   NELMIN=  2; NELMDL= -5     # of ELM steps 
   EDIFF  = 0.1E-04   stopping-criterion for ELM
   LREAL  =      T    real-space projection
   NLSPLINE    = F    spline interpolate recip. space projectors
   LCOMPAT=      F    compatible to vasp.4.4
   GGA_COMPAT  = T    GGA compatible to vasp.4.4-vasp.4.6
   LMAXPAW     = -100 max onsite density
   LMAXMIX     =    2 max onsite mixed and CHGCAR
   VOSKOWN=      0    Vosko Wilk Nusair interpolation
   ROPT   =   -0.00050
 Ionic relaxation
   EDIFFG = -.5E-02   stopping-criterion for IOM
   NSW    =      0    number of steps for IOM
   NBLOCK =      1;   KBLOCK =      1    inner block; outer block 
   IBRION =     -1    ionic relax: 0-MD 1-quasi-New 2-CG
   NFREE  =      0    steps in history (QN), initial steepest desc. (CG)
   ISIF   =      2    stress and relaxation
   IWAVPR =     10    prediction:  0-non 1-charg 2-wave 3-comb
   ISYM   =      0    0-nonsym 1-usesym 2-fastsym
   LCORR  =      T    Harris-Foulkes like correction to forces

   POTIM  = 0.5000    time-step for ionic-motion
   TEIN   =    0.0    initial temperature
   TEBEG  =    0.0;   TEEND  =   0.0 temperature during run
   SMASS  =  -3.00    Nose mass-parameter (am)
   estimated Nose-frequenzy (Omega)   =  0.10E-29 period in steps = 0.13E+47 mass=  -0.292E-27a.u.
   SCALEE = 1.0000    scale energy and forces
   NPACO  =    256;   APACO  = 10.0  distance and # of slots for P.C.
   PSTRESS=    0.0 pullay stress

  Mass of Ions in am
   POMASS =  63.55
  Ionic Valenz
   ZVAL   =  11.00
  Atomic Wigner-Seitz radii
   RWIGS  =  -1.00
  virtual crystal weights 
   VCA    =   1.00
   NELECT =      44.0000    total number of electrons
   NUPDOWN=      -1.0000    fix difference up-down

 DOS related values:
   EMIN   =  10.00;   EMAX   =-10.00  energy-range for DOS
   EFERMI =   0.00;   METHOD = LEGACY      
   ISMEAR =     0;   SIGMA  =   0.05  broadening in eV -4-tet -1-fermi 0-gaus

 Electronic relaxation 2 (details)
   IALGO  =     38    algorithm
   LDIAG  =      T    sub-space diagonalisation (order eigenvalues)
   LSUBROT=      F    optimize rotation matrix (better conditioning)
   TURBO    =      0    0=normal 1=particle mesh
   IRESTART =      0    0=no restart 2=restart with 2 vectors
   NREBOOT  =      0    no. of reboots
   NMIN     =      0    reboot dimension
   EREF     =   0.00    reference energy to select bands
   IMIX   =      4    mixing-type and parameters
     AMIX     =   0.40;   BMIX     =  1.00
     AMIX_MAG =   1.60;   BMIX_MAG =  1.00
     AMIN     =   0.10
     WC   =   100.;   INIMIX=   1;  MIXPRE=   1;  MAXMIX= -45

 Intra band minimization:
   WEIMIN = 0.0000     energy-eigenvalue tresh-hold
   EBREAK =  0.96E-07  absolut break condition
   DEPER  =   0.30     relativ break condition  

   TIME   =   0.40     timestep for ELM

  volume/ion in A,a.u.               =      11.45        77.24
  Fermi-wavevector in a.u.,A,eV,Ry     =   1.615553  3.052952 35.511355  2.610011
  Thomas-Fermi vector in A             =   2.710282
 
 Write flags
   LWAVE        =      T    write WAVECAR
   LDOWNSAMPLE  =      F    k-point downsampling of WAVECAR
   LCHARG       =      T    write CHGCAR
   LVTOT        =      F    write LOCPOT, total local potential
   LVHAR        =      F    write LOCPOT, Hartree potential only
   LELF         =      F    write electronic localiz. function (ELF)
   LORBIT       =      0    0 simple, 1 ext, 2 COOP (PROOUT), +10 PAW based schemes


 Dipole corrections
   LMONO  =      F    monopole corrections only (constant potential shift)
   LDIPOL =      F    correct potential (dipole corrections)
   IDIPOL =      0    1-x, 2-y, 3-z, 4-all directions 
   EPSILON=  1.0000000 bulk dielectric constant

 Core level calculations are selected ICORELEVEL =  1
 Exchange correlation treatment:
   GGA     =    --    GGA type
   LEXCH   =     8    internal setting for exchange type
   LIBXC   =     F    Libxc                    
   VOSKOWN =     0    Vosko Wilk Nusair interpolation
   LHFCALC =     F    Hartree Fock is set to
   LHFONE  =     F    Hartree Fock one center treatment
   AEXX    =    0.0000 exact exchange contribution

 Linear response parameters
   LEPSILON=     F    determine dielectric tensor
   LRPA    =     F    only Hartree local field effects (RPA)
   LNABLA  =     F    use nabla operator in PAW spheres
   LVEL    =     F    velocity operator in full k-point grid
   CSHIFT  =0.1000    complex shift for real part using Kramers Kronig
   OMEGAMAX=  -1.0    maximum frequency
   DEG_THRESHOLD= 0.2000000E-02 threshold for treating states as degnerate
   RTIME   =   -0.100 relaxation time in fs
  (WPLASMAI=    0.000 imaginary part of plasma frequency in eV, 0.658/RTIME)
   DFIELD  = 0.0000000 0.0000000 0.0000000 field for delta impulse in time
 
  Optional k-point grid parameters
   LKPOINTS_OPT  =     F    use optional k-point grid
   KPOINTS_OPT_MODE=     1    mode for optional k-point grid
 
 Orbital magnetization related:
   ORBITALMAG=     F  switch on orbital magnetization
   LCHIMAG   =     F  perturbation theory with respect to B field
   DQ        =  0.001000  dq finite difference perturbation B field
   LLRAUG    =     F  two centre corrections for induced B field
   LBONE     =     F  B-component reconstruction in AE one-centre
   LVGVCALC  =     T  calculate vGv susceptibility
   LVGVAPPL  =     F  apply vGv susceptibility instead of pGv for G=0

 Random number generation:
   RANDOM_GENERATOR = DEFAULT
   PCG_SEED         = not used


--------------------------------------------------------------------------------------------------------


 Static calculation
 charge density and potential will be updated during run
 non-spin polarized calculation
 Variant of blocked Davidson
 Davidson routine will perform the subspace rotation
 perform sub-space diagonalisation
    after iterative eigenvector-optimisation
 modified Broyden-mixing scheme, WC =      100.0
 initial mixing is a Kerker type mixing with AMIX =  0.4000 and BMIX =      1.0000
 Hartree-type preconditioning will be used
 using additional bands             4
 real space projection scheme for non local part
 use partial core corrections
 calculate Harris-corrections to forces 
   (improved forces if not selfconsistent)
 use gradient corrections 
 use of overlap-Matrix (Vanderbilt PP)
 Gauss-broadening in eV      SIGMA  =   0.05


--------------------------------------------------------------------------------------------------------


  energy-cutoff  :      450.00
  volume of cell :       45.78
      direct lattice vectors                 reciprocal lattice vectors
     3.577430672  0.000000000  0.000000000     0.279530225 -0.000000000  0.000000000
     0.000000000  3.577430672  0.000000000     0.000000000  0.279530225  0.000000000
     0.000000000  0.000000000  3.577430672    -0.000000000 -0.000000000  0.279530225

  length of vectors
     3.577430672  3.577430672  3.577430672     0.279530225  0.279530225  0.279530225


 
 k-points in units of 2pi/SCALE and weight: Automatic mesh                          
   0.00000000  0.00000000  0.00000000       0.125
   0.13976511  0.00000000  0.00000000       0.125
   0.00000000  0.13976511  0.00000000       0.125
   0.00000000  0.00000000  0.13976511       0.125
   0.13976511  0.13976511  0.00000000       0.125
   0.00000000  0.13976511  0.13976511       0.125
   0.13976511  0.00000000  0.13976511       0.125
   0.13976511  0.13976511  0.13976511       0.125
 
 k-points in reciprocal lattice and weights: Automatic mesh                          
   0.00000000  0.00000000  0.00000000       0.125
   0.50000000  0.00000000  0.00000000       0.125
   0.00000000  0.50000000  0.00000000       0.125
   0.00000000  0.00000000  0.50000000       0.125
   0.50000000  0.50000000  0.00000000       0.125
   0.00000000  0.50000000  0.50000000       0.125
   0.50000000  0.00000000  0.50000000       0.125
   0.50000000  0.50000000  0.50000000       0.125
 
 position of ions in fractional coordinates (direct lattice) 
   0.00000000  0.00000000  0.00000000
   0.00000000  0.50000000  0.50000000
   0.50000000  0.00000000  0.50000000
   0.50000000  0.50000000  0.00000000
 
 position of ions in cartesian coordinates  (Angst):
   0.00000000  0.00000000  0.00000000
   0.00000000  1.78871534  1.78871534
   1.78871534  0.00000000  1.78871534
   1.78871534  1.78871534  0.00000000
 


--------------------------------------------------------------------------------------------------------


 k-point   1 :   0.0000 0.0000 0.0000  plane waves:    1021
 k-point   2 :   0.5000 0.0000 0.0000  plane waves:    1020
 k-point   3 :   0.0000 0.5000 0.0000  plane waves:    1020
 k-point   4 :   0.0000 0.0000 0.5000  plane waves:    1020
 k-point   5 :   0.5000 0.5000 0.0000  plane waves:     992
 k-point   6 :   0.0000 0.5000 0.5000  plane waves:     992
 k-point   7 :   0.5000 0.0000 0.5000  plane waves:     992
 k-point   8 :   0.5000 0.5000 0.5000  plane waves:     968

 maximum and minimum number of plane-waves per node :      1021      968

 maximum number of plane-waves:      1021
 maximum index in each direction: 
   IXMAX=    6   IYMAX=    6   IZMAX=    6
   IXMIN=   -6   IYMIN=   -6   IZMIN=   -6


 serial   3D FFT for wavefunctions
 parallel 3D FFT for charge:
    minimum data exchange during FFTs selected (reduces bandwidth)


 total amount of memory used by VASP MPI-rank0    40895. kBytes
=======================================================================

   base      :      30000. kBytes
   nonlr-proj:       1412. kBytes
   fftplans  :       2284. kBytes
   grid      :       3500. kBytes
   one-center:         62. kBytes
   wavefun   :       3637. kBytes
 
     INWAV:  cpu time      0.0000: real time      0.0001
 Broyden mixing: mesh for mixing (old mesh)
   NGX = 13   NGY = 13   NGZ = 13
  (NGX  = 40   NGY  = 40   NGZ  = 40)
  gives a total of   2197 points

 charge density for first step will be calculated from the start-wavefunctions


--------------------------------------------------------------------------------------------------------


 Maximum index for non-local projection operator          2007
 Maximum index for augmentation-charges          4945 (set IRDMAX)


--------------------------------------------------------------------------------------------------------


 initial charge from wavefunction
 First call to EWALD:  gamma=   0.495
 Maximum number of real-space cells 3x 3x 3
 Maximum number of reciprocal cells 3x 3x 3

    FEWALD:  cpu time      0.0010: real time      0.0010


--------------------------------------- Ionic step        1  -------------------------------------------




--------------------------------------- Iteration      1(   1)  ---------------------------------------


    POTLOK:  cpu time      0.0216: real time      0.0216
    SETDIJ:  cpu time      0.0056: real time      0.0056
     EDDAV:  cpu time      0.1303: real time      0.1302
       DOS:  cpu time      0.0004: real time      0.0004
    --------------------------------------------
      LOOP:  cpu time      0.1579: real time      0.1579

 eigenvalue-minimisations  :   490
 total energy-change (2. order) :-0.9262151E+03  (-0.3666717E+04)
 number of electron      43.9999952 magnetization 
 augmentation part        5.5463905 magnetization 

 Free energy of the ion-electron system (eV)
  ---------------------------------------------------
  alpha Z        PSCENC =       255.57509302
  Ewald energy   TEWEN  =     -4466.07994564
  -Hartree energ DENC   =      -175.91238606
  -exchange      EXHF   =         0.00000000
  -V(xc)+E(xc)   XCENC  =       123.47130373
  PAW double counting   =    777615.05769107  -777730.12809781
  entropy T*S    EENTRO =        -0.00000101
  eigenvalues    EBANDS =     -2112.08323281
  atomic energy  EATOM  =      5563.88447798
  Solvation  Ediel_sol  =         0.00000000
  ---------------------------------------------------
  free energy    TOTEN  =      -926.21509753 eV

  energy without entropy =     -926.21509652  energy(sigma->0) =     -926.21509702


--------------------------------------------------------------------------------------------------------




--------------------------------------- Iteration      1(   2)  ---------------------------------------


     EDDAV:  cpu time      0.0780: real time      0.0787
       DOS:  cpu time      0.0004: real time      0.0004
    --------------------------------------------
      LOOP:  cpu time      0.0784: real time      0.0791

 eigenvalue-minimisations  :   432
 total energy-change (2. order) :-0.2987024E+03  (-0.2952949E+03)
 number of electron      43.9999952 magnetization 
 augmentation part        5.5463905 magnetization 

 Free energy of the ion-electron system (eV)
  ---------------------------------------------------
  alpha Z        PSCENC =       255.57509302
  Ewald energy   TEWEN  =     -4466.07994564
  -Hartree energ DENC   =      -175.91238606
  -exchange      EXHF   =         0.00000000
  -V(xc)+E(xc)   XCENC  =       123.47130373
  PAW double counting   =    777615.05769107  -777730.12809781
  entropy T*S    EENTRO =        -0.00000457
  eigenvalues    EBANDS =     -2410.78562501
  atomic energy  EATOM  =      5563.88447798
  Solvation  Ediel_sol  =         0.00000000
  ---------------------------------------------------
  free energy    TOTEN  =     -1224.91749328 eV

  energy without entropy =    -1224.91748871  energy(sigma->0) =    -1224.91749100


--------------------------------------------------------------------------------------------------------




--------------------------------------- Iteration      1(   3)  ---------------------------------------


     EDDAV:  cpu time      0.0901: real time      0.0906
       DOS:  cpu time      0.0002: real time      0.0002
    --------------------------------------------
      LOOP:  cpu time      0.0903: real time      0.0908

 eigenvalue-minimisations  :   586
 total energy-change (2. order) :-0.7439932E+02  (-0.7402650E+02)
 number of electron      43.9999952 magnetization 
 augmentation part        5.5463905 magnetization 

 Free energy of the ion-electron system (eV)
  ---------------------------------------------------
  alpha Z        PSCENC =       255.57509302
  Ewald energy   TEWEN  =     -4466.07994564
  -Hartree energ DENC   =      -175.91238606
  -exchange      EXHF   =         0.00000000
  -V(xc)+E(xc)   XCENC  =       123.47130373
  PAW double counting   =    777615.05769107  -777730.12809781
  entropy T*S    EENTRO =        -0.00000000
  eigenvalues    EBANDS =     -2485.18494799
  atomic energy  EATOM  =      5563.88447798
  Solvation  Ediel_sol  =         0.00000000
  ---------------------------------------------------
  free energy    TOTEN  =     -1299.31681170 eV

  energy without entropy =    -1299.31681170  energy(sigma->0) =    -1299.31681170


--------------------------------------------------------------------------------------------------------




--------------------------------------- Iteration      1(   4)  ---------------------------------------


     EDDAV:  cpu time      0.0814: real time      0.0817
       DOS:  cpu time      0.0002: real time      0.0002
    --------------------------------------------
      LOOP:  cpu time      0.0816: real time      0.0819

 eigenvalue-minimisations  :   594
 total energy-change (2. order) :-0.7476725E+01  (-0.7462812E+01)
 number of electron      43.9999952 magnetization 
 augmentation part        5.5463905 magnetization 

 Free energy of the ion-electron system (eV)
  ---------------------------------------------------
  alpha Z        PSCENC =       255.57509302
  Ewald energy   TEWEN  =     -4466.07994564
  -Hartree energ DENC   =      -175.91238606
  -exchange      EXHF   =         0.00000000
  -V(xc)+E(xc)   XCENC  =       123.47130373
  PAW double counting   =    777615.05769107  -777730.12809781
  entropy T*S    EENTRO =        -0.00000000
  eigenvalues    EBANDS =     -2492.66167317
  atomic energy  EATOM  =      5563.88447798
  Solvation  Ediel_sol  =         0.00000000
  ---------------------------------------------------
  free energy    TOTEN  =     -1306.79353688 eV

  energy without entropy =    -1306.79353688  energy(sigma->0) =    -1306.79353688


--------------------------------------------------------------------------------------------------------




--------------------------------------- Iteration      1(   5)  ---------------------------------------


     EDDAV:  cpu time      0.0799: real time      0.0802
       DOS:  cpu time      0.0002: real time      0.0002
    CHARGE:  cpu time      0.0113: real time      0.0113
    MIXING:  cpu time      0.0016: real time      0.0016
    --------------------------------------------
      LOOP:  cpu time      0.0931: real time      0.0934

 eigenvalue-minimisations  :   604
 total energy-change (2. order) :-0.2445031E+00  (-0.2427783E+00)
 number of electron      43.9999724 magnetization 
 augmentation part       33.0335994 magnetization 

 Broyden mixing:
  rms(total) = 0.87117E+02    rms(broyden)= 0.87115E+02
  rms(prec ) = 0.94451E+02
  weight for this iteration     100.00

 Free energy of the ion-electron system (eV)
  ---------------------------------------------------
  alpha Z        PSCENC =       255.57509302
  Ewald energy   TEWEN  =     -4466.07994564
  -Hartree energ DENC   =      -175.91238606
  -exchange      EXHF   =         0.00000000
  -V(xc)+E(xc)   XCENC  =       123.47130373
  PAW double counting   =    777615.05769107  -777730.12809781
  entropy T*S    EENTRO =        -0.00000000
  eigenvalues    EBANDS =     -2492.90617628
  atomic energy  EATOM  =      5563.88447798
  Solvation  Ediel_sol  =         0.00000000
  ---------------------------------------------------
  free energy    TOTEN  =     -1307.03803998 eV

  energy without entropy =    -1307.03803998  energy(sigma->0) =    -1307.03803998


--------------------------------------------------------------------------------------------------------




--------------------------------------- Iteration      1(   6)  ---------------------------------------


    POTLOK:  cpu time      0.0033: real time      0.0037
    SETDIJ:  cpu time      0.0054: real time      0.0054
     EDDAV:  cpu time      0.0582: real time      0.0582
       DOS:  cpu time      0.0005: real time      0.0005
    CHARGE:  cpu time      0.0110: real time      0.0110
    MIXING:  cpu time      0.0016: real time      0.0016
    --------------------------------------------
      LOOP:  cpu time      0.0800: real time      0.0804

 eigenvalue-minimisations  :   418
 total energy-change (2. order) : 0.1132813E+04  (-0.2197661E+03)
 number of electron      43.9999712 magnetization 
 augmentation part       34.4464309 magnetization 

 Broyden mixing:
  rms(total) = 0.41113E+02    rms(broyden)= 0.41112E+02
  rms(prec ) = 0.43721E+02
  weight for this iteration     100.00

 eigenvalues of (default mixing * dielectric matrix)
  average eigenvalue GAMMA=   0.7315
  0.7315

 Free energy of the ion-electron system (eV)
  ---------------------------------------------------
  alpha Z        PSCENC =       255.57509302
  Ewald energy   TEWEN  =     -4466.07994564
  -Hartree energ DENC   =      -770.39781157
  -exchange      EXHF   =         0.00000000
  -V(xc)+E(xc)   XCENC  =       153.89734409
  PAW double counting   =    959278.16386159  -959685.54286002
  entropy T*S    EENTRO =        -0.00268771
  eigenvalues    EBANDS =      -503.72230913
  atomic energy  EATOM  =      5563.88447798
  Solvation  Ediel_sol  =         0.00000000
  ---------------------------------------------------
  free energy    TOTEN  =      -174.22483738 eV

  energy without entropy =     -174.22214967  energy(sigma->0) =     -174.22349353


--------------------------------------------------------------------------------------------------------




--------------------------------------- Iteration      1(   7)  ---------------------------------------


    POTLOK:  cpu time      0.0033: real time      0.0037
    SETDIJ:  cpu time      0.0049: real time      0.0049
     EDDAV:  cpu time      0.0628: real time      0.0628
       DOS:  cpu time      0.0005: real time      0.0005
    CHARGE:  cpu time      0.0109: real time      0.0109
    MIXING:  cpu time      0.0016: real time      0.0016
    --------------------------------------------
      LOOP:  cpu time      0.0840: real time      0.0844

 eigenvalue-minimisations  :   452
 total energy-change (2. order) : 0.1359898E+03  (-0.2561048E+02)
 number of electron      43.9999740 magnetization 
 augmentation part       30.6156356 magnetization 

 Broyden mixing:
  rms(total) = 0.28338E+02    rms(broyden)= 0.28338E+02
  rms(prec ) = 0.29341E+02
  weight for this iteration     100.00

 eigenvalues of (default mixing * dielectric matrix)
  average eigenvalue GAMMA=   1.6095
  1.0255  2.1935

 Free energy of the ion-electron system (eV)
  ---------------------------------------------------
  alpha Z        PSCENC =       255.57509302
  Ewald energy   TEWEN  =     -4466.07994564
  -Hartree energ DENC   =     -1056.64362169
  -exchange      EXHF   =         0.00000000
  -V(xc)+E(xc)   XCENC  =       167.56074059
  PAW double counting   =    481424.41970599  -481934.13514512
  entropy T*S    EENTRO =        -0.00851824
  eigenvalues    EBANDS =         7.19222145
  atomic energy  EATOM  =      5563.88447798
  Solvation  Ediel_sol  =         0.00000000
  ---------------------------------------------------
  free energy    TOTEN  =       -38.23499165 eV

  energy without entropy =      -38.22647341  energy(sigma->0) =      -38.23073253


--------------------------------------------------------------------------------------------------------




--------------------------------------- Iteration      1(   8)  ---------------------------------------


    POTLOK:  cpu time      0.0031: real time      0.0036
    SETDIJ:  cpu time      0.0049: real time      0.0049
     EDDAV:  cpu time      0.0942: real time      0.0941
       DOS:  cpu time      0.0004: real time      0.0004
    CHARGE:  cpu time      0.0110: real time      0.0110
    MIXING:  cpu time      0.0016: real time      0.0016
    --------------------------------------------
      LOOP:  cpu time      0.1152: real time      0.1156

 eigenvalue-minimisations  :   696
 total energy-change (2. order) :-0.1534420E+02  (-0.4586410E+02)
 number of electron      43.9999787 magnetization 
 augmentation part       23.9848798 magnetization 

 Broyden mixing:
  rms(total) = 0.87270E+01    rms(broyden)= 0.87268E+01
  rms(prec ) = 0.14711E+02
  weight for this iteration     100.00

 eigenvalues of (default mixing * dielectric matrix)
  average eigenvalue GAMMA=   1.2228
  2.1826  1.0393  0.4467

 Free energy of the ion-electron system (eV)
  ---------------------------------------------------
  alpha Z        PSCENC =       255.57509302
  Ewald energy   TEWEN  =     -4466.07994564
  -Hartree energ DENC   =     -1338.85782523
  -exchange      EXHF   =         0.00000000
  -V(xc)+E(xc)   XCENC  =       180.03559228
  PAW double counting   =     48109.35897878   -48602.58492956
  entropy T*S    EENTRO =        -0.00049914
  eigenvalues    EBANDS =       245.08986215
  atomic energy  EATOM  =      5563.88447798
  Solvation  Ediel_sol  =         0.00000000
  ---------------------------------------------------
  free energy    TOTEN  =       -53.57919536 eV

  energy without entropy =      -53.57869621  energy(sigma->0) =      -53.57894579


--------------------------------------------------------------------------------------------------------




--------------------------------------- Iteration      1(   9)  ---------------------------------------


    POTLOK:  cpu time      0.0032: real time      0.0037
    SETDIJ:  cpu time      0.0047: real time      0.0047
     EDDAV:  cpu time      0.0880: real time      0.0880
       DOS:  cpu time      0.0005: real time      0.0005
    CHARGE:  cpu time      0.0109: real time      0.0109
    MIXING:  cpu time      0.0017: real time      0.0017
    --------------------------------------------
      LOOP:  cpu time      0.1091: real time      0.1095

 eigenvalue-minimisations  :   642
 total energy-change (2. order) : 0.3138817E+02  (-0.2893643E+02)
 number of electron      43.9999757 magnetization 
 augmentation part       27.4203509 magnetization 

 Broyden mixing:
  rms(total) = 0.68954E+01    rms(broyden)= 0.68952E+01
  rms(prec ) = 0.86399E+01
  weight for this iteration     100.00

 eigenvalues of (default mixing * dielectric matrix)
  average eigenvalue GAMMA=   1.1347
  2.3373  1.0521  0.7629  0.3866

 Free energy of the ion-electron system (eV)
  ---------------------------------------------------
  alpha Z        PSCENC =       255.57509302
  Ewald energy   TEWEN  =     -4466.07994564
  -Hartree energ DENC   =     -1273.35376153
  -exchange      EXHF   =         0.00000000
  -V(xc)+E(xc)   XCENC  =       176.69264374
  PAW double counting   =     41434.42074407   -41900.80236529
  entropy T*S    EENTRO =        -0.00604591
  eigenvalues    EBANDS =       187.47813740
  atomic energy  EATOM  =      5563.88447798
  Solvation  Ediel_sol  =         0.00000000
  ---------------------------------------------------
  free energy    TOTEN  =       -22.19102216 eV

  energy without entropy =      -22.18497625  energy(sigma->0) =      -22.18799920


--------------------------------------------------------------------------------------------------------




--------------------------------------- Iteration      1(  10)  ---------------------------------------


    POTLOK:  cpu time      0.0033: real time      0.0036
    SETDIJ:  cpu time      0.0047: real time      0.0047
     EDDAV:  cpu time      0.0840: real time      0.0840
       DOS:  cpu time      0.0005: real time      0.0005
    CHARGE:  cpu time      0.0114: real time      0.0114
    MIXING:  cpu time      0.0019: real time      0.0019
    --------------------------------------------
      LOOP:  cpu time      0.1058: real time      0.1061

 eigenvalue-minimisations  :   584
 total energy-change (2. order) : 0.3398453E+01  (-0.8562373E+01)
 number of electron      43.9999762 magnetization 
 augmentation part       27.9478426 magnetization 

 Broyden mixing:
  rms(total) = 0.42168E+01    rms(broyden)= 0.42167E+01
  rms(prec ) = 0.61352E+01
  weight for this iteration     100.00

 eigenvalues of (default mixing * dielectric matrix)
  average eigenvalue GAMMA=   1.0614
  2.4983  1.0057  0.7588  0.7588  0.2855

 Free energy of the ion-electron system (eV)
  ---------------------------------------------------
  alpha Z        PSCENC =       255.57509302
  Ewald energy   TEWEN  =     -4466.07994564
  -Hartree energ DENC   =     -1281.13368595
  -exchange      EXHF   =         0.00000000
  -V(xc)+E(xc)   XCENC  =       176.92590907
  PAW double counting   =     20558.48892056   -21009.77046407
  entropy T*S    EENTRO =        -0.00685250
  eigenvalues    EBANDS =       183.32397869
  atomic energy  EATOM  =      5563.88447798
  Solvation  Ediel_sol  =         0.00000000
  ---------------------------------------------------
  free energy    TOTEN  =       -18.79256884 eV

  energy without entropy =      -18.78571634  energy(sigma->0) =      -18.78914259


--------------------------------------------------------------------------------------------------------




--------------------------------------- Iteration      1(  11)  ---------------------------------------


    POTLOK:  cpu time      0.0032: real time      0.0037
    SETDIJ:  cpu time      0.0048: real time      0.0048
     EDDAV:  cpu time      0.0869: real time      0.0869
       DOS:  cpu time      0.0005: real time      0.0005
    CHARGE:  cpu time      0.0108: real time      0.0108
    MIXING:  cpu time      0.0019: real time      0.0019
    --------------------------------------------
      LOOP:  cpu time      0.1081: real time      0.1086

 eigenvalue-minimisations  :   576
 total energy-change (2. order) : 0.3810367E+01  (-0.1684156E+01)
 number of electron      43.9999764 magnetization 
 augmentation part       27.4212415 magnetization 

 Broyden mixing:
  rms(total) = 0.83893E+00    rms(broyden)= 0.83882E+00
  rms(prec ) = 0.20886E+01
  weight for this iteration     100.00

 eigenvalues of (default mixing * dielectric matrix)
  average eigenvalue GAMMA=   1.0254
  2.4936  1.1863  0.9930  0.5894  0.5894  0.3007

 Free energy of the ion-electron system (eV)
  ---------------------------------------------------
  alpha Z        PSCENC =       255.57509302
  Ewald energy   TEWEN  =     -4466.07994564
  -Hartree energ DENC   =     -1333.02597574
  -exchange      EXHF   =         0.00000000
  -V(xc)+E(xc)   XCENC  =       179.32177750
  PAW double counting   =      5376.85925201    -5820.22970642
  entropy T*S    EENTRO =        -0.00813966
  eigenvalues    EBANDS =       228.72096501
  atomic energy  EATOM  =      5563.88447798
  Solvation  Ediel_sol  =         0.00000000
  ---------------------------------------------------
  free energy    TOTEN  =       -14.98220193 eV

  energy without entropy =      -14.97406227  energy(sigma->0) =      -14.97813210


--------------------------------------------------------------------------------------------------------




--------------------------------------- Iteration      1(  12)  ---------------------------------------


    POTLOK:  cpu time      0.0032: real time      0.0037
    SETDIJ:  cpu time      0.0049: real time      0.0049
     EDDAV:  cpu time      0.0883: real time      0.0883
       DOS:  cpu time      0.0005: real time      0.0005
    CHARGE:  cpu time      0.0109: real time      0.0109
    MIXING:  cpu time      0.0019: real time      0.0019
    --------------------------------------------
      LOOP:  cpu time      0.1096: real time      0.1101

 eigenvalue-minimisations  :   626
 total energy-change (2. order) : 0.7637696E+00  (-0.7046628E+00)
 number of electron      43.9999760 magnetization 
 augmentation part       28.1469440 magnetization 

 Broyden mixing:
  rms(total) = 0.37854E+00    rms(broyden)= 0.37826E+00
  rms(prec ) = 0.98621E+00
  weight for this iteration     100.00

 eigenvalues of (default mixing * dielectric matrix)
  average eigenvalue GAMMA=   0.9531
  2.4968  1.1611  0.9916  0.6276  0.6276  0.4655  0.3015

 Free energy of the ion-electron system (eV)
  ---------------------------------------------------
  alpha Z        PSCENC =       255.57509302
  Ewald energy   TEWEN  =     -4466.07994564
  -Hartree energ DENC   =     -1307.33628499
  -exchange      EXHF   =         0.00000000
  -V(xc)+E(xc)   XCENC  =       177.98952946
  PAW double counting   =      5400.35882921    -5832.99081244
  entropy T*S    EENTRO =        -0.01677278
  eigenvalues    EBANDS =       194.39745390
  atomic energy  EATOM  =      5563.88447798
  Solvation  Ediel_sol  =         0.00000000
  ---------------------------------------------------
  free energy    TOTEN  =       -14.21843228 eV

  energy without entropy =      -14.20165949  energy(sigma->0) =      -14.21004589


--------------------------------------------------------------------------------------------------------




--------------------------------------- Iteration      1(  13)  ---------------------------------------


    POTLOK:  cpu time      0.0034: real time      0.0036
    SETDIJ:  cpu time      0.0049: real time      0.0049
     EDDAV:  cpu time      0.0849: real time      0.0848
       DOS:  cpu time      0.0005: real time      0.0005
    CHARGE:  cpu time      0.0108: real time      0.0108
    MIXING:  cpu time      0.0020: real time      0.0020
    --------------------------------------------
      LOOP:  cpu time      0.1064: real time      0.1067

 eigenvalue-minimisations  :   596
 total energy-change (2. order) :-0.9072635E-02  (-0.2254246E+00)
 number of electron      43.9999761 magnetization 
 augmentation part       28.1034314 magnetization 

 Broyden mixing:
  rms(total) = 0.37180E+00    rms(broyden)= 0.37159E+00
  rms(prec ) = 0.10206E+01
  weight for this iteration     100.00

 eigenvalues of (default mixing * dielectric matrix)
  average eigenvalue GAMMA=   0.8952
  2.5002  1.0144  0.9590  0.9590  0.6322  0.6322  0.2995  0.1653

 Free energy of the ion-electron system (eV)
  ---------------------------------------------------
  alpha Z        PSCENC =       255.57509302
  Ewald energy   TEWEN  =     -4466.07994564
  -Hartree energ DENC   =     -1310.41157241
  -exchange      EXHF   =         0.00000000
  -V(xc)+E(xc)   XCENC  =       178.13932631
  PAW double counting   =      5332.04494305    -5765.33181611
  entropy T*S    EENTRO =        -0.01210562
  eigenvalues    EBANDS =       197.96409450
  atomic energy  EATOM  =      5563.88447798
  Solvation  Ediel_sol  =         0.00000000
  ---------------------------------------------------
  free energy    TOTEN  =       -14.22750491 eV

  energy without entropy =      -14.21539929  energy(sigma->0) =      -14.22145210


--------------------------------------------------------------------------------------------------------




--------------------------------------- Iteration      1(  14)  ---------------------------------------


    POTLOK:  cpu time      0.0032: real time      0.0036
    SETDIJ:  cpu time      0.0047: real time      0.0047
     EDDAV:  cpu time      0.0753: real time      0.0753
       DOS:  cpu time      0.0005: real time      0.0005
    CHARGE:  cpu time      0.0114: real time      0.0114
    MIXING:  cpu time      0.0021: real time      0.0021
    --------------------------------------------
      LOOP:  cpu time      0.0972: real time      0.0976

 eigenvalue-minimisations  :   544
 total energy-change (2. order) :-0.1858466E-01  (-0.7987080E-01)
 number of electron      43.9999762 magnetization 
 augmentation part       27.9242108 magnetization 

 Broyden mixing:
  rms(total) = 0.39862E+00    rms(broyden)= 0.39851E+00
  rms(prec ) = 0.10667E+01
  weight for this iteration     100.00

 eigenvalues of (default mixing * dielectric matrix)
  average eigenvalue GAMMA=   0.8737
  2.4999  1.1445  1.1445  1.0064  0.5589  0.5589  0.4832  0.3045  0.1622

 Free energy of the ion-electron system (eV)
  ---------------------------------------------------
  alpha Z        PSCENC =       255.57509302
  Ewald energy   TEWEN  =     -4466.07994564
  -Hartree energ DENC   =     -1317.61109496
  -exchange      EXHF   =         0.00000000
  -V(xc)+E(xc)   XCENC  =       178.49930178
  PAW double counting   =      5282.51678435    -5717.68125827
  entropy T*S    EENTRO =        -0.00579014
  eigenvalues    EBANDS =       206.65634230
  atomic energy  EATOM  =      5563.88447798
  Solvation  Ediel_sol  =         0.00000000
  ---------------------------------------------------
  free energy    TOTEN  =       -14.24608958 eV

  energy without entropy =      -14.24029944  energy(sigma->0) =      -14.24319451


--------------------------------------------------------------------------------------------------------




--------------------------------------- Iteration      1(  15)  ---------------------------------------


    POTLOK:  cpu time      0.0034: real time      0.0037
    SETDIJ:  cpu time      0.0051: real time      0.0051
     EDDAV:  cpu time      0.0780: real time      0.0780
       DOS:  cpu time      0.0005: real time      0.0005
    CHARGE:  cpu time      0.0110: real time      0.0110
    MIXING:  cpu time      0.0022: real time      0.0022
    --------------------------------------------
      LOOP:  cpu time      0.1002: real time      0.1005

 eigenvalue-minimisations  :   532
 total energy-change (2. order) : 0.1379308E+00  (-0.2337199E-01)
 number of electron      43.9999763 magnetization 
 augmentation part       27.8617541 magnetization 

 Broyden mixing:
  rms(total) = 0.10766E+00    rms(broyden)= 0.10733E+00
  rms(prec ) = 0.28454E+00
  weight for this iteration     100.00

 eigenvalues of (default mixing * dielectric matrix)
  average eigenvalue GAMMA=   0.9393
  2.4934  1.8276  1.0180  1.0180  0.9626  0.5839  0.5839  0.4394  0.3051  0.1617

 Free energy of the ion-electron system (eV)
  ---------------------------------------------------
  alpha Z        PSCENC =       255.57509302
  Ewald energy   TEWEN  =     -4466.07994564
  -Hartree energ DENC   =     -1321.20000755
  -exchange      EXHF   =         0.00000000
  -V(xc)+E(xc)   XCENC  =       178.67173237
  PAW double counting   =      5281.84280171    -5717.05939520
  entropy T*S    EENTRO =        -0.03900308
  eigenvalues    EBANDS =       210.29608764
  atomic energy  EATOM  =      5563.88447798
  Solvation  Ediel_sol  =         0.00000000
  ---------------------------------------------------
  free energy    TOTEN  =       -14.10815876 eV

  energy without entropy =      -14.06915567  energy(sigma->0) =      -14.08865721


--------------------------------------------------------------------------------------------------------




--------------------------------------- Iteration      1(  16)  ---------------------------------------


    POTLOK:  cpu time      0.0032: real time      0.0036
    SETDIJ:  cpu time      0.0048: real time      0.0048
     EDDAV:  cpu time      0.0907: real time      0.0907
       DOS:  cpu time      0.0005: real time      0.0005
    CHARGE:  cpu time      0.0109: real time      0.0109
    MIXING:  cpu time      0.0023: real time      0.0023
    --------------------------------------------
      LOOP:  cpu time      0.1123: real time      0.1127

 eigenvalue-minimisations  :   638
 total energy-change (2. order) :-0.5296437E-01  (-0.5257900E-01)
 number of electron      43.9999763 magnetization 
 augmentation part       27.8868204 magnetization 

 Broyden mixing:
  rms(total) = 0.33092E+00    rms(broyden)= 0.33077E+00
  rms(prec ) = 0.91186E+00
  weight for this iteration     100.00

 eigenvalues of (default mixing * dielectric matrix)
  average eigenvalue GAMMA=   0.8874
  2.4992  1.9253  0.9889  0.9813  0.9813  0.5226  0.5226  0.3035  0.4373  0.4373
  0.1624

 Free energy of the ion-electron system (eV)
  ---------------------------------------------------
  alpha Z        PSCENC =       255.57509302
  Ewald energy   TEWEN  =     -4466.07994564
  -Hartree energ DENC   =     -1320.26234600
  -exchange      EXHF   =         0.00000000
  -V(xc)+E(xc)   XCENC  =       178.61416925
  PAW double counting   =      5289.90550657    -5723.76430663
  entropy T*S    EENTRO =        -0.01634978
  eigenvalues    EBANDS =       207.98257810
  atomic energy  EATOM  =      5563.88447798
  Solvation  Ediel_sol  =         0.00000000
  ---------------------------------------------------
  free energy    TOTEN  =       -14.16112312 eV

  energy without entropy =      -14.14477334  energy(sigma->0) =      -14.15294823


--------------------------------------------------------------------------------------------------------




--------------------------------------- Iteration      1(  17)  ---------------------------------------


    POTLOK:  cpu time      0.0032: real time      0.0037
    SETDIJ:  cpu time      0.0048: real time      0.0048
     EDDAV:  cpu time      0.0844: real time      0.0844
       DOS:  cpu time      0.0005: real time      0.0005
    CHARGE:  cpu time      0.0108: real time      0.0108
    MIXING:  cpu time      0.0024: real time      0.0024
    --------------------------------------------
      LOOP:  cpu time      0.1062: real time      0.1066

 eigenvalue-minimisations  :   550
 total energy-change (2. order) : 0.4475734E-01  (-0.1025053E+00)
 number of electron      43.9999762 magnetization 
 augmentation part       27.9420599 magnetization 

 Broyden mixing:
  rms(total) = 0.20866E+00    rms(broyden)= 0.20833E+00
  rms(prec ) = 0.57536E+00
  weight for this iteration     100.00

 eigenvalues of (default mixing * dielectric matrix)
  average eigenvalue GAMMA=   0.9173
  2.4994  1.6749  1.6749  1.0613  0.9824  0.8077  0.5458  0.5458  0.3027  0.3750
  0.3750  0.1623

 Free energy of the ion-electron system (eV)
  ---------------------------------------------------
  alpha Z        PSCENC =       255.57509302
  Ewald energy   TEWEN  =     -4466.07994564
  -Hartree energ DENC   =     -1318.01786756
  -exchange      EXHF   =         0.00000000
  -V(xc)+E(xc)   XCENC  =       178.50030853
  PAW double counting   =      5284.69617068    -5717.97496802
  entropy T*S    EENTRO =        -0.02756591
  eigenvalues    EBANDS =       205.32793113
  atomic energy  EATOM  =      5563.88447798
  Solvation  Ediel_sol  =         0.00000000
  ---------------------------------------------------
  free energy    TOTEN  =       -14.11636579 eV

  energy without entropy =      -14.08879988  energy(sigma->0) =      -14.10258283


--------------------------------------------------------------------------------------------------------




--------------------------------------- Iteration      1(  18)  ---------------------------------------


    POTLOK:  cpu time      0.0032: real time      0.0036
    SETDIJ:  cpu time      0.0049: real time      0.0049
     EDDAV:  cpu time      0.0831: real time      0.0830
       DOS:  cpu time      0.0005: real time      0.0005
    CHARGE:  cpu time      0.0108: real time      0.0108
    MIXING:  cpu time      0.0026: real time      0.0026
    --------------------------------------------
      LOOP:  cpu time      0.1051: real time      0.1054

 eigenvalue-minimisations  :   606
 total energy-change (2. order) : 0.1871932E-01  (-0.1694200E-01)
 number of electron      43.9999762 magnetization 
 augmentation part       27.9670854 magnetization 

 Broyden mixing:
  rms(total) = 0.85279E-01    rms(broyden)= 0.85071E-01
  rms(prec ) = 0.22589E+00
  weight for this iteration     100.00

 eigenvalues of (default mixing * dielectric matrix)
  average eigenvalue GAMMA=   0.8687
  2.4992  1.7046  1.7046  1.0500  0.9803  0.7851  0.5400  0.5400  0.4074  0.4074
  0.3028  0.1627  0.2088

 Free energy of the ion-electron system (eV)
  ---------------------------------------------------
  alpha Z        PSCENC =       255.57509302
  Ewald energy   TEWEN  =     -4466.07994564
  -Hartree energ DENC   =     -1317.78171802
  -exchange      EXHF   =         0.00000000
  -V(xc)+E(xc)   XCENC  =       178.48572187
  PAW double counting   =      5285.60440233    -5718.51096597
  entropy T*S    EENTRO =        -0.03942615
  eigenvalues    EBANDS =       204.76471411
  atomic energy  EATOM  =      5563.88447798
  Solvation  Ediel_sol  =         0.00000000
  ---------------------------------------------------
  free energy    TOTEN  =       -14.09764646 eV

  energy without entropy =      -14.05822031  energy(sigma->0) =      -14.07793339


--------------------------------------------------------------------------------------------------------




--------------------------------------- Iteration      1(  19)  ---------------------------------------


    POTLOK:  cpu time      0.0033: real time      0.0037
    SETDIJ:  cpu time      0.0049: real time      0.0049
     EDDAV:  cpu time      0.0813: real time      0.0813
       DOS:  cpu time      0.0005: real time      0.0005
    CHARGE:  cpu time      0.0109: real time      0.0110
    MIXING:  cpu time      0.0027: real time      0.0027
    --------------------------------------------
      LOOP:  cpu time      0.1036: real time      0.1040

 eigenvalue-minimisations  :   606
 total energy-change (2. order) : 0.4554395E-02  (-0.2388314E-02)
 number of electron      43.9999762 magnetization 
 augmentation part       27.9590225 magnetization 

 Broyden mixing:
  rms(total) = 0.25273E-01    rms(broyden)= 0.25165E-01
  rms(prec ) = 0.65804E-01
  weight for this iteration     100.00

 eigenvalues of (default mixing * dielectric matrix)
  average eigenvalue GAMMA=   0.8650
  2.4996  2.1083  1.1597  1.1597  0.9911  0.7195  0.5819  0.5824  0.5824  0.4870
  0.4870  0.3015  0.2874  0.1625

 Free energy of the ion-electron system (eV)
  ---------------------------------------------------
  alpha Z        PSCENC =       255.57509302
  Ewald energy   TEWEN  =     -4466.07994564
  -Hartree energ DENC   =     -1318.31941141
  -exchange      EXHF   =         0.00000000
  -V(xc)+E(xc)   XCENC  =       178.51194220
  PAW double counting   =      5285.18537917    -5718.13189300
  entropy T*S    EENTRO =        -0.04120785
  eigenvalues    EBANDS =       205.32247345
  atomic energy  EATOM  =      5563.88447798
  Solvation  Ediel_sol  =         0.00000000
  ---------------------------------------------------
  free energy    TOTEN  =       -14.09309207 eV

  energy without entropy =      -14.05188422  energy(sigma->0) =      -14.07248815


--------------------------------------------------------------------------------------------------------




--------------------------------------- Iteration      1(  20)  ---------------------------------------


    POTLOK:  cpu time      0.0033: real time      0.0035
    SETDIJ:  cpu time      0.0049: real time      0.0049
     EDDAV:  cpu time      0.0844: real time      0.0844
       DOS:  cpu time      0.0005: real time      0.0005
    CHARGE:  cpu time      0.0108: real time      0.0108
    MIXING:  cpu time      0.0027: real time      0.0027
    --------------------------------------------
      LOOP:  cpu time      0.1066: real time      0.1068

 eigenvalue-minimisations  :   622
 total energy-change (2. order) : 0.3921042E-03  (-0.8259362E-03)
 number of electron      43.9999762 magnetization 
 augmentation part       27.9516175 magnetization 

 Broyden mixing:
  rms(total) = 0.30098E-01    rms(broyden)= 0.30074E-01
  rms(prec ) = 0.82686E-01
  weight for this iteration     100.00

 eigenvalues of (default mixing * dielectric matrix)
  average eigenvalue GAMMA=   0.9247
  2.4954  2.4954  1.3263  1.3263  0.9987  0.8775  0.8775  0.8090  0.5285  0.5285
  0.4399  0.4399  0.3024  0.1625  0.2626

 Free energy of the ion-electron system (eV)
  ---------------------------------------------------
  alpha Z        PSCENC =       255.57509302
  Ewald energy   TEWEN  =     -4466.07994564
  -Hartree energ DENC   =     -1318.72347331
  -exchange      EXHF   =         0.00000000
  -V(xc)+E(xc)   XCENC  =       178.53095066
  PAW double counting   =      5284.95624164    -5717.89545337
  entropy T*S    EENTRO =        -0.04113240
  eigenvalues    EBANDS =       205.70054145
  atomic energy  EATOM  =      5563.88447798
  Solvation  Ediel_sol  =         0.00000000
  ---------------------------------------------------
  free energy    TOTEN  =       -14.09269996 eV

  energy without entropy =      -14.05156756  energy(sigma->0) =      -14.07213376


--------------------------------------------------------------------------------------------------------




--------------------------------------- Iteration      1(  21)  ---------------------------------------


    POTLOK:  cpu time      0.0032: real time      0.0036
    SETDIJ:  cpu time      0.0049: real time      0.0049
     EDDAV:  cpu time      0.0776: real time      0.0776
       DOS:  cpu time      0.0005: real time      0.0005
    CHARGE:  cpu time      0.0108: real time      0.0108
    MIXING:  cpu time      0.0030: real time      0.0030
    --------------------------------------------
      LOOP:  cpu time      0.1000: real time      0.1003

 eigenvalue-minimisations  :   592
 total energy-change (2. order) :-0.3149811E-03  (-0.5539773E-03)
 number of electron      43.9999762 magnetization 
 augmentation part       27.9432456 magnetization 

 Broyden mixing:
  rms(total) = 0.46223E-01    rms(broyden)= 0.46205E-01
  rms(prec ) = 0.12619E+00
  weight for this iteration     100.00

 eigenvalues of (default mixing * dielectric matrix)
  average eigenvalue GAMMA=   0.9444
  2.4495  2.4495  1.5958  1.5958  0.9443  0.9443  0.9934  0.8778  0.5300  0.5300
  0.6016  0.4331  0.4331  0.3020  0.1625  0.2674

 Free energy of the ion-electron system (eV)
  ---------------------------------------------------
  alpha Z        PSCENC =       255.57509302
  Ewald energy   TEWEN  =     -4466.07994564
  -Hartree energ DENC   =     -1319.10994558
  -exchange      EXHF   =         0.00000000
  -V(xc)+E(xc)   XCENC  =       178.54964537
  PAW double counting   =      5285.34416254    -5718.32224492
  entropy T*S    EENTRO =        -0.04083029
  eigenvalues    EBANDS =       206.10657257
  atomic energy  EATOM  =      5563.88447798
  Solvation  Ediel_sol  =         0.00000000
  ---------------------------------------------------
  free energy    TOTEN  =       -14.09301495 eV

  energy without entropy =      -14.05218466  energy(sigma->0) =      -14.07259980


--------------------------------------------------------------------------------------------------------




--------------------------------------- Iteration      1(  22)  ---------------------------------------


    POTLOK:  cpu time      0.0032: real time      0.0037
    SETDIJ:  cpu time      0.0047: real time      0.0047
     EDDAV:  cpu time      0.0771: real time      0.0770
       DOS:  cpu time      0.0005: real time      0.0005
    CHARGE:  cpu time      0.0108: real time      0.0108
    MIXING:  cpu time      0.0031: real time      0.0031
    --------------------------------------------
      LOOP:  cpu time      0.0994: real time      0.0998

 eigenvalue-minimisations  :   584
 total energy-change (2. order) : 0.5054916E-03  (-0.1230963E-03)
 number of electron      43.9999762 magnetization 
 augmentation part       27.9432912 magnetization 

 Broyden mixing:
  rms(total) = 0.21238E-01    rms(broyden)= 0.21224E-01
  rms(prec ) = 0.57937E-01
  weight for this iteration     100.00

 eigenvalues of (default mixing * dielectric matrix)
  average eigenvalue GAMMA=   0.9239
  2.4898  2.3123  1.6729  1.1916  1.1916  1.1877  0.9804  0.9027  0.5301  0.5301
  0.6291  0.4599  0.4599  0.4375  0.3021  0.1625  0.2658

 Free energy of the ion-electron system (eV)
  ---------------------------------------------------
  alpha Z        PSCENC =       255.57509302
  Ewald energy   TEWEN  =     -4466.07994564
  -Hartree energ DENC   =     -1319.08945243
  -exchange      EXHF   =         0.00000000
  -V(xc)+E(xc)   XCENC  =       178.54837370
  PAW double counting   =      5285.25308482    -5718.21333870
  entropy T*S    EENTRO =        -0.04128255
  eigenvalues    EBANDS =       206.07048036
  atomic energy  EATOM  =      5563.88447798
  Solvation  Ediel_sol  =         0.00000000
  ---------------------------------------------------
  free energy    TOTEN  =       -14.09250945 eV

  energy without entropy =      -14.05122690  energy(sigma->0) =      -14.07186818


--------------------------------------------------------------------------------------------------------




--------------------------------------- Iteration      1(  23)  ---------------------------------------


    POTLOK:  cpu time      0.0032: real time      0.0036
    SETDIJ:  cpu time      0.0049: real time      0.0049
     EDDAV:  cpu time      0.0743: real time      0.0743
       DOS:  cpu time      0.0005: real time      0.0005
    CHARGE:  cpu time      0.0109: real time      0.0109
    MIXING:  cpu time      0.0032: real time      0.0032
    --------------------------------------------
      LOOP:  cpu time      0.0970: real time      0.0974

 eigenvalue-minimisations  :   540
 total energy-change (2. order) : 0.1259258E-03  (-0.1406284E-04)
 number of electron      43.9999762 magnetization 
 augmentation part       27.9426788 magnetization 

 Broyden mixing:
  rms(total) = 0.17277E-01    rms(broyden)= 0.17272E-01
  rms(prec ) = 0.46827E-01
  weight for this iteration     100.00

 eigenvalues of (default mixing * dielectric matrix)
  average eigenvalue GAMMA=   0.9124
  2.4757  2.4025  1.4711  1.4047  1.1881  1.1881  0.9935  0.8116  0.6349  0.6349
  0.5282  0.5282  0.5737  0.4283  0.4283  0.3020  0.1625  0.2667

 Free energy of the ion-electron system (eV)
  ---------------------------------------------------
  alpha Z        PSCENC =       255.57509302
  Ewald energy   TEWEN  =     -4466.07994564
  -Hartree energ DENC   =     -1319.10125140
  -exchange      EXHF   =         0.00000000
  -V(xc)+E(xc)   XCENC  =       178.54901338
  PAW double counting   =      5284.78628802    -5717.75260865
  entropy T*S    EENTRO =        -0.04131634
  eigenvalues    EBANDS =       206.08786609
  atomic energy  EATOM  =      5563.88447798
  Solvation  Ediel_sol  =         0.00000000
  ---------------------------------------------------
  free energy    TOTEN  =       -14.09238353 eV

  energy without entropy =      -14.05106719  energy(sigma->0) =      -14.07172536


--------------------------------------------------------------------------------------------------------




--------------------------------------- Iteration      1(  24)  ---------------------------------------


    POTLOK:  cpu time      0.0033: real time      0.0036
    SETDIJ:  cpu time      0.0055: real time      0.0055
     EDDAV:  cpu time      0.0773: real time      0.0773
       DOS:  cpu time      0.0006: real time      0.0006
    CHARGE:  cpu time      0.0110: real time      0.0110
    MIXING:  cpu time      0.0036: real time      0.0036
    --------------------------------------------
      LOOP:  cpu time      0.1012: real time      0.1016

 eigenvalue-minimisations  :   468
 total energy-change (2. order) : 0.4081136E-05  (-0.7197992E-04)
 number of electron      43.9999762 magnetization 
 augmentation part       27.9432333 magnetization 

 Broyden mixing:
  rms(total) = 0.16908E-01    rms(broyden)= 0.16903E-01
  rms(prec ) = 0.45894E-01
  weight for this iteration     100.00

 eigenvalues of (default mixing * dielectric matrix)
  average eigenvalue GAMMA=   0.9104
  2.4586  2.4586  1.7991  1.1568  1.1568  1.2217  0.9894  0.8855  0.7729  0.7729
  0.5287  0.5287  0.5945  0.4346  0.4346  0.1625  0.3021  0.2663  0.3740

 Free energy of the ion-electron system (eV)
  ---------------------------------------------------
  alpha Z        PSCENC =       255.57509302
  Ewald energy   TEWEN  =     -4466.07994564
  -Hartree energ DENC   =     -1319.08719868
  -exchange      EXHF   =         0.00000000
  -V(xc)+E(xc)   XCENC  =       178.54821533
  PAW double counting   =      5284.79117446    -5717.73747920
  entropy T*S    EENTRO =        -0.04131610
  eigenvalues    EBANDS =       206.05459938
  atomic energy  EATOM  =      5563.88447798
  Solvation  Ediel_sol  =         0.00000000
  ---------------------------------------------------
  free energy    TOTEN  =       -14.09237945 eV

  energy without entropy =      -14.05106334  energy(sigma->0) =      -14.07172140


--------------------------------------------------------------------------------------------------------




--------------------------------------- Iteration      1(  25)  ---------------------------------------


    POTLOK:  cpu time      0.0033: real time      0.0037
    SETDIJ:  cpu time      0.0050: real time      0.0050
     EDDAV:  cpu time      0.0431: real time      0.0431
       DOS:  cpu time      0.0005: real time      0.0005
    CHARGE:  cpu time      0.0109: real time      0.0109
    MIXING:  cpu time      0.0035: real time      0.0035
    --------------------------------------------
      LOOP:  cpu time      0.0663: real time      0.0667

 eigenvalue-minimisations  :   228
 total energy-change (2. order) : 0.6029993E-04  (-0.4331293E-05)
 number of electron      43.9999762 magnetization 
 augmentation part       27.9430348 magnetization 

 Broyden mixing:
  rms(total) = 0.99437E-02    rms(broyden)= 0.99419E-02
  rms(prec ) = 0.27009E-01
  weight for this iteration     100.00

 eigenvalues of (default mixing * dielectric matrix)
  average eigenvalue GAMMA=   0.9641
  2.4773  2.4773  1.9851  1.3550  1.3550  1.3004  1.0536  1.0536  0.9774  0.8040
  0.8040  0.5283  0.5283  0.5817  0.4352  0.4352  0.1625  0.3989  0.3021  0.2665

 Free energy of the ion-electron system (eV)
  ---------------------------------------------------
  alpha Z        PSCENC =       255.57509302
  Ewald energy   TEWEN  =     -4466.07994564
  -Hartree energ DENC   =     -1319.10642153
  -exchange      EXHF   =         0.00000000
  -V(xc)+E(xc)   XCENC  =       178.54914352
  PAW double counting   =      5284.67117290    -5717.61722406
  entropy T*S    EENTRO =        -0.04136571
  eigenvalues    EBANDS =       206.07275037
  atomic energy  EATOM  =      5563.88447798
  Solvation  Ediel_sol  =         0.00000000
  ---------------------------------------------------
  free energy    TOTEN  =       -14.09231915 eV

  energy without entropy =      -14.05095343  energy(sigma->0) =      -14.07163629


--------------------------------------------------------------------------------------------------------




--------------------------------------- Iteration      1(  26)  ---------------------------------------


    POTLOK:  cpu time      0.0032: real time      0.0036
    SETDIJ:  cpu time      0.0049: real time      0.0049
     EDDAV:  cpu time      0.0517: real time      0.0517
       DOS:  cpu time      0.0005: real time      0.0005
    CHARGE:  cpu time      0.0109: real time      0.0109
    MIXING:  cpu time      0.0038: real time      0.0038
    --------------------------------------------
      LOOP:  cpu time      0.0750: real time      0.0754

 eigenvalue-minimisations  :   260
 total energy-change (2. order) : 0.3253701E-04  (-0.1412200E-05)
 number of electron      43.9999762 magnetization 
 augmentation part       27.9425077 magnetization 

 Broyden mixing:
  rms(total) = 0.47599E-02    rms(broyden)= 0.47568E-02
  rms(prec ) = 0.12870E-01
  weight for this iteration     100.00

 eigenvalues of (default mixing * dielectric matrix)
  average eigenvalue GAMMA=   0.9876
  2.4724  2.3804  2.3804  1.3851  1.3851  1.2214  1.2214  1.1288  1.0580  1.0580
  0.7088  0.7088  0.5282  0.5282  0.5818  0.4342  0.4342  0.1625  0.3021  0.3927
  0.2665

 Free energy of the ion-electron system (eV)
  ---------------------------------------------------
  alpha Z        PSCENC =       255.57509302
  Ewald energy   TEWEN  =     -4466.07994564
  -Hartree energ DENC   =     -1319.13138854
  -exchange      EXHF   =         0.00000000
  -V(xc)+E(xc)   XCENC  =       178.55041218
  PAW double counting   =      5284.53673142    -5717.48823008
  entropy T*S    EENTRO =        -0.04138302
  eigenvalues    EBANDS =       206.10194606
  atomic energy  EATOM  =      5563.88447798
  Solvation  Ediel_sol  =         0.00000000
  ---------------------------------------------------
  free energy    TOTEN  =       -14.09228661 eV

  energy without entropy =      -14.05090359  energy(sigma->0) =      -14.07159510


--------------------------------------------------------------------------------------------------------




--------------------------------------- Iteration      1(  27)  ---------------------------------------


    POTLOK:  cpu time      0.0033: real time      0.0037
    SETDIJ:  cpu time      0.0048: real time      0.0048
     EDDAV:  cpu time      0.0436: real time      0.0436
       DOS:  cpu time      0.0005: real time      0.0005
    --------------------------------------------
      LOOP:  cpu time      0.0833: real time      0.0837

 eigenvalue-minimisations  :   240
 total energy-change (2. order) : 0.5403019E-05  (-0.1705457E-05)
 number of electron      43.9999762 magnetization 
 augmentation part       27.9425077 magnetization 

 Free energy of the ion-electron system (eV)
  ---------------------------------------------------
  alpha Z        PSCENC =       255.57509302
  Ewald energy   TEWEN  =     -4466.07994564
  -Hartree energ DENC   =     -1319.14304771
  -exchange      EXHF   =         0.00000000
  -V(xc)+E(xc)   XCENC  =       178.55100780
  PAW double counting   =      5284.47876189    -5717.43240935
  entropy T*S    EENTRO =        -0.04138556
  eigenvalues    EBANDS =       206.11516635
  atomic energy  EATOM  =      5563.88447798
  Solvation  Ediel_sol  =         0.00000000
  ---------------------------------------------------
  free energy    TOTEN  =       -14.09228121 eV

  energy without entropy =      -14.05089565  energy(sigma->0) =      -14.07158843


--------------------------------------------------------------------------------------------------------




 the core state eigenenergies are
   1-  1s  -8841.1896  2s  -1053.5237  2p   -907.9850  3s   -105.0107  3p    -62.3656
     
   2-  1s  -8841.1938  2s  -1053.5279  2p   -907.9893  3s   -105.0135  3p    -62.3683
     
   3-  1s  -8841.1937  2s  -1053.5279  2p   -907.9892  3s   -105.0135  3p    -62.3683
     
   4-  1s  -8841.1913  2s  -1053.5254  2p   -907.9867  3s   -105.0120  3p    -62.3668
     
 
 E-fermi :   7.5048     XC(G=0): -12.9380     alpha+bet :-13.8514

 Fermi energy:         7.5047927605

 k-point     1 :       0.0000    0.0000    0.0000
  band No.  band energies     occupation 
      1      -1.6264      2.00000
      2       2.7654      2.00000
      3       2.7660      2.00000
      4       2.7665      2.00000
      5       3.2112      2.00000
      6       3.2112      2.00000
      7       3.2112      2.00000
      8       4.6441      2.00000
      9       4.6441      2.00000
     10       4.6442      2.00000
     11       5.5001      2.00000
     12       5.5002      2.00000
     13       6.0681      2.00000
     14       6.0686      2.00000
     15       6.0688      2.00000
     16       6.2270      2.00000
     17       6.2274      2.00000
     18       6.2274      2.00000
     19       6.2280      2.00000
     20       6.2280      2.00000
     21       6.2284      2.00000
     22       9.4377      0.00000
     23       9.4377      0.00000
     24       9.4377      0.00000
     25      15.2236      0.00000
     26      15.2238      0.00000

 k-point     2 :       0.5000    0.0000    0.0000
  band No.  band energies     occupation 
      1       1.1785      2.00000
      2       1.1786      2.00000
      3       3.5191      2.00000
      4       3.5195      2.00000
      5       3.9064      2.00000
      6       3.9070      2.00000
      7       4.1375      2.00000
      8       4.1376      2.00000
      9       4.1380      2.00000
     10       4.1380      2.00000
     11       5.0471      2.00000
     12       5.0476      2.00000
     13       5.3270      2.00000
     14       5.3271      2.00000
     15       5.3276      2.00000
     16       5.3276      2.00000
     17       5.4610      2.00000
     18       5.4615      2.00000
     19       5.7804      2.00000
     20       5.7809      2.00000
     21       6.2282      2.00000
     22       6.2288      2.00000
     23      14.2398      0.00000
     24      14.2398      0.00000
     25      14.2399      0.00000
     26      14.2399      0.00000

 k-point     3 :       0.0000    0.5000    0.0000
  band No.  band energies     occupation 
      1       1.1785      2.00000
      2       1.1786      2.00000
      3       3.5191      2.00000
      4       3.5196      2.00000
      5       3.9064      2.00000
      6       3.9070      2.00000
      7       4.1375      2.00000
      8       4.1376      2.00000
      9       4.1380      2.00000
     10       4.1380      2.00000
     11       5.0471      2.00000
     12       5.0475      2.00000
     13       5.3271      2.00000
     14       5.3271      2.00000
     15       5.3276      2.00000
     16       5.3276      2.00000
     17       5.4610      2.00000
     18       5.4614      2.00000
     19       5.7804      2.00000
     20       5.7810      2.00000
     21       6.2282      2.00000
     22       6.2288      2.00000
     23      14.2398      0.00000
     24      14.2398      0.00000
     25      14.2398      0.00000
     26      14.2399      0.00000

 k-point     4 :       0.0000    0.0000    0.5000
  band No.  band energies     occupation 
      1       1.1784      2.00000
      2       1.1787      2.00000
      3       3.5184      2.00000
      4       3.5203      2.00000
      5       3.9061      2.00000
      6       3.9073      2.00000
      7       4.1370      2.00000
      8       4.1370      2.00000
      9       4.1385      2.00000
     10       4.1385      2.00000
     11       5.0466      2.00000
     12       5.0480      2.00000
     13       5.3264      2.00000
     14       5.3264      2.00000
     15       5.3283      2.00000
     16       5.3283      2.00000
     17       5.4604      2.00000
     18       5.4619      2.00000
     19       5.7795      2.00000
     20       5.7820      2.00000
     21       6.2278      2.00000
     22       6.2292      2.00000
     23      14.2398      0.00000
     24      14.2398      0.00000
     25      14.2399      0.00000
     26      14.2399      0.00000

 k-point     5 :       0.5000    0.5000    0.0000
  band No.  band energies     occupation 
      1       3.0479      2.00000
      2       3.0479      2.00000
      3       3.0483      2.00000
      4       3.0485      2.00000
      5       4.1371      2.00000
      6       4.1372      2.00000
      7       4.1387      2.00000
      8       4.1387      2.00000
      9       4.3504      2.00000
     10       4.3504      2.00000
     11       4.3515      2.00000
     12       4.3520      2.00000
     13       5.1643      2.00000
     14       5.1644      2.00000
     15       5.1662      2.00000
     16       5.1672      2.00000
     17       5.4906      2.00000
     18       5.4907      2.00000
     19       5.4925      2.00000
     20       5.4926      2.00000
     21       7.5117      0.84494
     22       7.5117      0.84455
     23       7.5127      0.82334
     24       7.5128      0.82017
     25      17.8229      0.00000
     26      17.8233      0.00000

 k-point     6 :       0.0000    0.5000    0.5000
  band No.  band energies     occupation 
      1       3.0479      2.00000
      2       3.0480      2.00000
      3       3.0482      2.00000
      4       3.0484      2.00000
      5       4.1376      2.00000
      6       4.1378      2.00000
      7       4.1381      2.00000
      8       4.1383      2.00000
      9       4.3505      2.00000
     10       4.3507      2.00000
     11       4.3513      2.00000
     12       4.3520      2.00000
     13       5.1646      2.00000
     14       5.1646      2.00000
     15       5.1659      2.00000
     16       5.1668      2.00000
     17       5.4912      2.00000
     18       5.4914      2.00000
     19       5.4917      2.00000
     20       5.4921      2.00000
     21       7.5119      0.83982
     22       7.5121      0.83609
     23       7.5123      0.83187
     24       7.5126      0.82571
     25      17.8232      0.00000
     26      17.8233      0.00000

 k-point     7 :       0.5000    0.0000    0.5000
  band No.  band energies     occupation 
      1       3.0479      2.00000
      2       3.0480      2.00000
      3       3.0482      2.00000
      4       3.0485      2.00000
      5       4.1376      2.00000
      6       4.1378      2.00000
      7       4.1380      2.00000
      8       4.1383      2.00000
      9       4.3505      2.00000
     10       4.3506      2.00000
     11       4.3513      2.00000
     12       4.3519      2.00000
     13       5.1646      2.00000
     14       5.1647      2.00000
     15       5.1658      2.00000
     16       5.1669      2.00000
     17       5.4912      2.00000
     18       5.4915      2.00000
     19       5.4917      2.00000
     20       5.4920      2.00000
     21       7.5120      0.83913
     22       7.5121      0.83642
     23       7.5123      0.83232
     24       7.5126      0.82563
     25      17.8231      0.00000
     26      17.8232      0.00000

 k-point     8 :       0.5000    0.5000    0.5000
  band No.  band energies     occupation 
      1       2.5885      2.00000
      2       2.5886      2.00000
      3       2.5889      2.00000
      4       2.5889      2.00000
      5       4.6143      2.00000
      6       4.6144      2.00000
      7       4.6147      2.00000
      8       4.6147      2.00000
      9       4.6149      2.00000
     10       4.6152      2.00000
     11       4.6155      2.00000
     12       4.6156      2.00000
     13       6.0829      2.00000
     14       6.0829      2.00000
     15       6.0831      2.00000
     16       6.0835      2.00000
     17       6.0835      2.00000
     18       6.0835      2.00000
     19       6.0838      2.00000
     20       6.0838      2.00000
     21       6.8753      2.00000
     22       6.8755      2.00000
     23       6.8756      2.00000
     24       6.8756      2.00000
     25      11.7774      0.00000
     26      11.7775      0.00000


--------------------------------------------------------------------------------------------------------


 soft charge-density along one line, spin component            1
         0         1         2         3         4         5         6         7         8         9
 total charge-density along one line
 
 pseudopotential strength for first ion, spin component:            1
 -2.862   0.000   0.000   0.000   0.000  -4.738  -0.000  -0.000
  0.000  -2.862   0.000  -0.000  -0.000  -0.000  -4.739  -0.000
  0.000   0.000  -2.845   0.000  -0.000  -0.000  -0.000  -4.751
  0.000  -0.000   0.000  -2.862   0.000  -0.000   0.000  -0.000
  0.000  -0.000  -0.000   0.000  -2.845  -0.000   0.000   0.000
 -4.738  -0.000  -0.000  -0.000  -0.000  10.290   0.000   0.000
 -0.000  -4.739  -0.000   0.000   0.000   0.000  10.290   0.000
 -0.000  -0.000  -4.751  -0.000   0.000   0.000   0.000  10.298
 -0.000   0.000  -0.000  -4.739  -0.000   0.000  -0.000   0.000
 -0.000   0.000   0.000  -0.000  -4.751   0.000  -0.000  -0.000
  0.000  -0.000   0.000  -0.000  -0.000  -0.000   0.000  -0.000
  0.000  -0.000   0.000  -0.000  -0.000  -0.000   0.000  -0.000
  0.000  -0.000   0.000  -0.000   0.000  -0.000   0.000  -0.000
 -0.000  -0.000  -0.000   0.000   0.000  -0.000   0.000   0.000
 -0.000  -0.000  -0.000  -0.000   0.000   0.000  -0.000   0.000
  0.000  -0.000   0.000   0.000   0.000  -0.000   0.000  -0.000
  0.000  -0.000  -0.000   0.000   0.000  -0.000   0.000   0.000
 -0.000   0.000  -0.000  -0.000   0.000   0.000  -0.000   0.000
 total augmentation occupancy for first ion, spin component:            1
  1.891   0.000  -0.000   0.000  -0.000  -0.021  -0.000  -0.000  -0.000  -0.000  -0.000   0.000   0.000   0.000  -0.000  -0.000
  0.000   1.891   0.000  -0.000  -0.000   0.000  -0.021   0.000  -0.000  -0.000  -0.000   0.000   0.000  -0.000  -0.000  -0.000
 -0.000   0.000   1.910  -0.000  -0.000  -0.000   0.000  -0.038   0.000   0.000   0.000   0.000   0.000   0.000  -0.000  -0.000
  0.000  -0.000  -0.000   1.891  -0.000   0.000   0.000  -0.000  -0.021   0.000   0.000  -0.000   0.000   0.000   0.000  -0.000
 -0.000  -0.000  -0.000  -0.000   1.911  -0.000  -0.000   0.000   0.000  -0.038  -0.000  -0.000   0.000   0.000   0.000  -0.000
 -0.021   0.000  -0.000   0.000  -0.000   0.020  -0.000  -0.000  -0.000  -0.000   0.000  -0.000  -0.000  -0.000  -0.000   0.000
 -0.000  -0.021   0.000   0.000  -0.000  -0.000   0.020  -0.000  -0.000   0.000  -0.000   0.000  -0.000   0.000  -0.000   0.000
 -0.000   0.000  -0.038  -0.000   0.000  -0.000  -0.000   0.016   0.000  -0.000  -0.000  -0.000  -0.000  -0.000   0.000   0.000
 -0.000  -0.000   0.000  -0.021   0.000  -0.000  -0.000   0.000   0.020  -0.000  -0.000   0.000  -0.000  -0.000  -0.000   0.000
 -0.000  -0.000   0.000   0.000  -0.038  -0.000   0.000  -0.000  -0.000   0.017   0.000  -0.000  -0.000  -0.000  -0.000   0.000
 -0.000  -0.000   0.000   0.000  -0.000   0.000  -0.000  -0.000  -0.000   0.000   1.810  -0.174  -0.000   0.000  -0.000   0.000
  0.000   0.000   0.000  -0.000  -0.000  -0.000   0.000  -0.000   0.000  -0.000  -0.174   0.022   0.000  -0.000   0.000  -0.000
  0.000   0.000   0.000   0.000   0.000  -0.000  -0.000  -0.000  -0.000  -0.000  -0.000   0.000   0.271   0.000  -0.000  -0.017
  0.000  -0.000   0.000   0.000   0.000  -0.000   0.000  -0.000  -0.000  -0.000   0.000  -0.000   0.000   0.271   0.000  -0.000
 -0.000  -0.000  -0.000   0.000   0.000  -0.000  -0.000   0.000  -0.000  -0.000  -0.000   0.000  -0.000   0.000   0.271  -0.000
 -0.000  -0.000  -0.000  -0.000  -0.000   0.000   0.000   0.000   0.000   0.000   0.000  -0.000  -0.017  -0.000  -0.000   0.001
 -0.000   0.000  -0.000  -0.000  -0.000   0.000  -0.000  -0.000   0.000   0.000  -0.000   0.000  -0.000  -0.017  -0.000   0.000
 -0.000   0.000   0.000  -0.000  -0.000   0.000   0.000   0.000   0.000   0.000   0.000  -0.000  -0.000  -0.000  -0.017   0.000


------------------------ aborting loop because EDIFF is reached ----------------------------------------


    CHARGE:  cpu time      0.0138: real time      0.0138
    FORLOC:  cpu time      0.0003: real time      0.0003
    FORNL :  cpu time      0.0500: real time      0.0500
    STRESS:  cpu time      0.1528: real time      0.1528
    FORCOR:  cpu time      0.0029: real time      0.0029
    FORHAR:  cpu time      0.0008: real time      0.0008
    MIXING:  cpu time      0.3252: real time      0.3252
    OFIELD:  cpu time      0.0000: real time      0.0000

  FORCE on cell =-STRESS in cart. coord.  units (eV):
  Direction    XX          YY          ZZ          XY          YZ          ZX
  --------------------------------------------------------------------------------------
  Alpha Z   255.57509   255.57509   255.57509
  Ewald   -1488.69397 -1488.69397 -1488.69397    -0.00000     0.00000     0.00000
  Hartree   439.70980   439.71071   439.71116     0.00007    -0.00001    -0.00003
  E(xc)    -257.10511  -257.10520  -257.10533    -0.00000     0.00000     0.00000
  Local     391.95529   391.95296   391.95176    -0.00017     0.00003     0.00008
  n-local   -78.38413   -78.38333   -78.38386     0.00005    -0.00008    -0.00001
  augment   380.97697   380.97628   380.97468     0.00002    -0.00001    -0.00001
  Kinetic   357.80730   357.80714   357.80772     0.00004     0.00001     0.00000
  Fock        0.00000     0.00000     0.00000     0.00000     0.00000     0.00000
  -------------------------------------------------------------------------------------
  Total       1.84126     1.83968     1.83726     0.00001    -0.00006     0.00002
  in kB      64.43343    64.37819    64.29352     0.00038    -0.00195     0.00084
  external pressure =       64.37 kB  Pullay stress =        0.00 kB


 VOLUME and BASIS-vectors are now :
 -----------------------------------------------------------------------------
  energy-cutoff  :      450.00
  volume of cell :       45.78
      direct lattice vectors                 reciprocal lattice vectors
     3.577430672  0.000000000  0.000000000     0.279530225 -0.000000000  0.000000000
     0.000000000  3.577430672  0.000000000     0.000000000  0.279530225  0.000000000
     0.000000000  0.000000000  3.577430672    -0.000000000 -0.000000000  0.279530225

  length of vectors
     3.577430672  3.577430672  3.577430672     0.279530225  0.279530225  0.279530225


 FORCES acting on ions
    electron-ion (+dipol)            ewald-force                    non-local-force                 convergence-correction
 -----------------------------------------------------------------------------------------------
   -.116E-03 0.748E-04 -.480E-04   0.288E-13 0.784E-14 -.887E-14   0.338E-03 -.914E-04 0.954E-04   -.121E-03 0.940E-05 -.181E-04
   0.248E-03 0.187E-04 0.560E-05   0.297E-13 -.174E-13 0.534E-14   -.169E-03 -.568E-04 0.358E-05   -.616E-04 0.365E-04 -.104E-04
   -.158E-03 0.631E-04 -.202E-04   -.308E-13 0.186E-13 0.554E-14   -.717E-04 0.117E-04 -.426E-04   0.159E-03 -.780E-04 0.480E-04
   -.144E-03 -.463E-04 0.567E-04   -.300E-13 -.669E-14 -.324E-14   0.740E-04 0.386E-04 -.776E-04   0.614E-04 0.380E-04 0.375E-04
 -----------------------------------------------------------------------------------------------
   -.170E-03 0.110E-03 -.587E-05   -.227E-14 0.231E-14 -.123E-14   0.171E-03 -.979E-04 -.213E-04   0.373E-04 0.589E-05 0.570E-04
 
 
 POSITION                                       TOTAL-FORCE (eV/Angst)
 -----------------------------------------------------------------------------------
      0.00000      0.00000      0.00000         0.000091     -0.000012      0.000022
      0.00000      1.78872      1.78872         0.000008     -0.000006     -0.000009
      1.78872      0.00000      1.78872        -0.000080     -0.000008     -0.000022
      1.78872      1.78872      0.00000        -0.000018      0.000026      0.000009
 -----------------------------------------------------------------------------------
    total drift:                                0.000038      0.000018      0.000030


--------------------------------------------------------------------------------------------------------



  FREE ENERGIE OF THE ION-ELECTRON SYSTEM (eV)
  ---------------------------------------------------
  free  energy   TOTEN  =       -14.09228121 eV

  energy  without entropy=      -14.05089565  energy(sigma->0) =      -14.07158843
 


--------------------------------------------------------------------------------------------------------


    POTLOK:  cpu time      0.3385: real time      0.3384


--------------------------------------------------------------------------------------------------------


 writing wavefunctions
     LOOP+:  cpu time      3.6076: real time      3.8086
    4ORBIT:  cpu time      0.0000: real time      0.0000

 total amount of memory used by VASP MPI-rank0    40895. kBytes
=======================================================================

   base      :      30000. kBytes
   nonlr-proj:       1412. kBytes
   fftplans  :       2284. kBytes
   grid      :       3500. kBytes
   one-center:         62. kBytes
   wavefun   :       3637. kBytes
 
  
  
 General timing and accounting informations for this job:
 ========================================================
  
                  Total CPU time used (sec):        7.263
                            User time (sec):        5.526
                          System time (sec):        1.737
                         Elapsed time (sec):        9.075
  
                   Maximum memory used (kb):     3575552.
                   Average memory used (kb):          N/A
  
                          Minor page faults:        61337
                          Major page faults:            2
                 Voluntary context switches:         3564
