<?xml version="1.0" encoding="ISO-8859-1"?>
<modeling>
 <generator>
  <i name="program" type="string">vasp </i>
  <i name="version" type="string">6.4.2  </i>
  <i name="subversion" type="string">20Jul23 (build Nov 12 2023 22:16:35) complex                          parallel </i>
  <i name="platform" type="string">LinuxNV </i>
  <i name="date" type="string">2025 05 31 </i>
  <i name="time" type="string">20:15:06 </i>
 </generator>
 <incar>
  <i type="int" name="ISTART">     0</i>
  <i type="string" name="PREC">Normal</i>
  <i type="int" name="ISPIN">     1</i>
  <i type="int" name="ICHARG">     0</i>
  <i type="int" name="NELM">   300</i>
  <i type="int" name="IBRION">    -1</i>
  <i name="EDIFF">      0.00001000</i>
  <i name="EDIFFG">     -0.00500000</i>
  <i type="int" name="NSW">     0</i>
  <i type="int" name="ISIF">     2</i>
  <i type="int" name="ISYM">     0</i>
  <i name="ENCUT">    450.00000000</i>
  <i type="string" name="LREAL">Auto</i>
  <i type="logical" name="LPLANE"> T  </i>
  <i type="int" name="ISMEAR">     0</i>
  <i name="SIGMA">      0.05000000</i>
  <i type="logical" name="LWAVE"> T  </i>
  <i type="logical" name="LCHARG"> T  </i>
  <i type="int" name="ICORELEVEL">     1</i>
 </incar>
 <primitive_cell>
  <structure name="primitive_cell" >
   <crystal>
    <varray name="basis" >
     <v>       3.57743067       0.00000000       0.00000000 </v>
     <v>       0.00000000       3.57743067       0.00000000 </v>
     <v>       0.00000000       0.00000000       3.57743067 </v>
    </varray>
    <i name="volume">     45.78399426 </i>
    <varray name="rec_basis" >
     <v>       0.27953022      -0.00000000       0.00000000 </v>
     <v>       0.00000000       0.27953022       0.00000000 </v>
     <v>      -0.00000000      -0.00000000       0.27953022 </v>
    </varray>
   </crystal>
   <varray name="positions" >
    <v>       0.00000000       0.00000000       0.00000000 </v>
    <v>       0.00000000       0.50000000       0.50000000 </v>
    <v>       0.50000000       0.00000000       0.50000000 </v>
    <v>       0.50000000       0.50000000       0.00000000 </v>
   </varray>
  </structure>
  <varray name="primitive_index" >
   <v type="int" >        1 </v>
   <v type="int" >        2 </v>
   <v type="int" >        3 </v>
   <v type="int" >        4 </v>
  </varray>
 </primitive_cell>
 <kpoints>
  <generation param="Gamma">
   <v type="int" name="divisions">       2        2        2 </v>
   <v name="usershift">      0.00000000       0.00000000       0.00000000 </v>
   <v name="genvec1">      0.50000000       0.00000000       0.00000000 </v>
   <v name="genvec2">      0.00000000       0.50000000       0.00000000 </v>
   <v name="genvec3">      0.00000000       0.00000000       0.50000000 </v>
   <v name="shift">      0.00000000       0.00000000       0.00000000 </v>
  </generation>
  <varray name="kpointlist" >
   <v>       0.00000000       0.00000000       0.00000000 </v>
   <v>       0.50000000       0.00000000       0.00000000 </v>
   <v>       0.00000000       0.50000000       0.00000000 </v>
   <v>       0.00000000       0.00000000       0.50000000 </v>
   <v>       0.50000000       0.50000000       0.00000000 </v>
   <v>       0.00000000       0.50000000       0.50000000 </v>
   <v>       0.50000000       0.00000000       0.50000000 </v>
   <v>       0.50000000       0.50000000       0.50000000 </v>
  </varray>
  <varray name="weights" >
   <v>       0.12500000 </v>
   <v>       0.12500000 </v>
   <v>       0.12500000 </v>
   <v>       0.12500000 </v>
   <v>       0.12500000 </v>
   <v>       0.12500000 </v>
   <v>       0.12500000 </v>
   <v>       0.12500000 </v>
  </varray>
 </kpoints>
 <parameters>
  <separator name="general" >
   <i type="string" name="SYSTEM">unknown system</i>
   <i type="logical" name="LCOMPAT"> F  </i>
  </separator>
  <separator name="electronic" >
   <i type="string" name="PREC">normal</i>
   <i name="ENMAX">    450.00000000</i>
   <i name="ENAUG">    586.98000000</i>
   <i name="EDIFF">      0.00001000</i>
   <i type="int" name="IALGO">    38</i>
   <i type="int" name="IWAVPR">    10</i>
   <i type="int" name="NBANDS">    26</i>
   <i type="int" name="NBANDSLOW">    -1</i>
   <i type="int" name="NBANDSHIGH">    -1</i>
   <i name="NELECT">     44.00000000</i>
   <i type="int" name="TURBO">     0</i>
   <i type="int" name="IRESTART">     0</i>
   <i type="int" name="NREBOOT">     0</i>
   <i type="int" name="NMIN">     0</i>
   <i name="EREF">      0.00000000</i>
   <separator name="electronic smearing" >
    <i type="int" name="ISMEAR">     0</i>
    <i name="SIGMA">      0.05000000</i>
    <i name="KSPACING">      0.50000000</i>
    <i type="logical" name="KGAMMA"> T  </i>
    <i type="logical" name="KBLOWUP"> T  </i>
   </separator>
   <separator name="electronic projectors" >
    <i type="logical" name="LREAL"> T  </i>
    <v name="ROPT">     -0.00050000</v>
    <i type="int" name="LMAXPAW">  -100</i>
    <i type="int" name="LMAXMIX">     2</i>
    <i type="logical" name="NLSPLINE"> F  </i>
   </separator>
   <separator name="electronic startup" >
    <i type="int" name="ISTART">     0</i>
    <i type="int" name="ICHARG">     0</i>
    <i type="int" name="INIWAV">     1</i>
   </separator>
   <separator name="electronic spin" >
    <i type="int" name="ISPIN">     1</i>
    <i type="logical" name="LNONCOLLINEAR"> F  </i>
    <v name="MAGMOM">      1.00000000      1.00000000      1.00000000      1.00000000</v>
    <i name="NUPDOWN">     -1.00000000</i>
    <i type="logical" name="LSORBIT"> F  </i>
    <v name="SAXIS">      0.00000000      0.00000000      1.00000000</v>
    <i type="logical" name="LSPIRAL"> F  </i>
    <v name="QSPIRAL">      0.00000000      0.00000000      0.00000000</v>
    <i type="logical" name="LZEROZ"> F  </i>
   </separator>
   <separator name="electronic exchange-correlation" >
    <i type="logical" name="LASPH"> F  </i>
    <i type="logical" name="LMETAGGA"> F  </i>
   </separator>
   <separator name="electronic convergence" >
    <i type="int" name="NELM">   300</i>
    <i type="int" name="NELMDL">    -5</i>
    <i type="int" name="NELMIN">     2</i>
    <i name="ENINI">    450.00000000</i>
    <separator name="electronic convergence detail" >
     <i type="logical" name="LDIAG"> T  </i>
     <i type="logical" name="LSUBROT"> F  </i>
     <i name="WEIMIN">      0.00000000</i>
     <i name="EBREAK">      0.00000010</i>
     <i name="DEPER">      0.30000000</i>
     <i type="int" name="NRMM">     4</i>
     <i name="TIME">      0.40000000</i>
    </separator>
   </separator>
   <separator name="electronic mixer" >
    <i name="AMIX">      0.40000000</i>
    <i name="BMIX">      1.00000000</i>
    <i name="AMIN">      0.10000000</i>
    <i name="AMIX_MAG">      1.60000000</i>
    <i name="BMIX_MAG">      1.00000000</i>
    <separator name="electronic mixer details" >
     <i type="int" name="IMIX">     4</i>
     <i type="logical" name="MIXFIRST"> F  </i>
     <i type="int" name="MAXMIX">   -45</i>
     <i name="WC">    100.00000000</i>
     <i type="int" name="INIMIX">     1</i>
     <i type="int" name="MIXPRE">     1</i>
     <i type="int" name="MREMOVE">     5</i>
    </separator>
   </separator>
   <separator name="electronic dipolcorrection" >
    <i type="logical" name="LDIPOL"> F  </i>
    <i type="logical" name="LMONO"> F  </i>
    <i type="int" name="IDIPOL">     0</i>
    <i name="EPSILON">      1.00000000</i>
    <v name="DIPOL">   -100.00000000   -100.00000000   -100.00000000</v>
    <i name="EFIELD">      0.00000000</i>
   </separator>
  </separator>
  <separator name="grids" >
   <i type="int" name="NGX">    20</i>
   <i type="int" name="NGY">    20</i>
   <i type="int" name="NGZ">    20</i>
   <i type="int" name="NGXF">    40</i>
   <i type="int" name="NGYF">    40</i>
   <i type="int" name="NGZF">    40</i>
   <i type="logical" name="ADDGRID"> F  </i>
  </separator>
  <separator name="ionic" >
   <i type="int" name="NSW">     0</i>
   <i type="int" name="IBRION">    -1</i>
   <i type="int" name="MDALGO">     0</i>
   <i type="int" name="ISIF">     2</i>
   <i name="PSTRESS">      0.00000000</i>
   <i name="EDIFFG">     -0.00500000</i>
   <i type="int" name="NFREE">     0</i>
   <i name="POTIM">      0.50000000</i>
   <i name="SMASS">     -3.00000000</i>
   <i name="SCALEE">      1.00000000</i>
  </separator>
  <separator name="ionic md" >
   <i name="TEBEG">      0.00010000</i>
   <i name="TEEND">      0.00010000</i>
   <i type="int" name="NBLOCK">     1</i>
   <i type="int" name="KBLOCK">     1</i>
   <i type="int" name="NPACO">   256</i>
   <i name="APACO">     10.00000000</i>
  </separator>
  <separator name="symmetry" >
   <i type="int" name="ISYM">     0</i>
   <i name="SYMPREC">      0.00001000</i>
  </separator>
  <separator name="dos" >
   <i type="int" name="LORBIT">     0</i>
   <v name="RWIGS">     -1.00000000</v>
   <i type="int" name="NEDOS">   301</i>
   <i name="EMIN">     10.00000000</i>
   <i name="EMAX">    -10.00000000</i>
   <i name="EFERMI">      0.00000000</i>
  </separator>
  <separator name="writing" >
   <i type="int" name="NWRITE">     2</i>
   <i type="logical" name="LWAVE"> T  </i>
   <i type="logical" name="LDOWNSAMPLE"> F  </i>
   <i type="logical" name="LCHARG"> T  </i>
   <i type="logical" name="LPARD"> F  </i>
   <i type="logical" name="LVTOT"> F  </i>
   <i type="logical" name="LVHAR"> F  </i>
   <i type="logical" name="LELF"> F  </i>
   <i type="logical" name="LOPTICS"> F  </i>
   <v name="STM">      0.00000000      0.00000000      0.00000000      0.00000000      0.00000000      0.00000000      0.00000000</v>
  </separator>
  <separator name="performance" >
   <i type="int" name="NPAR">     1</i>
   <i type="int" name="NSIM">     4</i>
   <i type="int" name="NBLK">    -1</i>
   <i type="logical" name="LPLANE"> T  </i>
   <i type="logical" name="LSCALAPACK"> T  </i>
   <i type="logical" name="LSCAAWARE"> F  </i>
   <i type="logical" name="LSCALU"> F  </i>
   <i type="logical" name="LASYNC"> F  </i>
   <i type="logical" name="LORBITALREAL"> F  </i>
  </separator>
  <separator name="miscellaneous" >
   <i type="int" name="IDIOT">     3</i>
   <i type="int" name="PHON_NSTRUCT">    -1</i>
   <i type="logical" name="LMUSIC"> F  </i>
   <v name="POMASS">     63.54600000</v>
   <v name="DARWINR">      0.00000000</v>
   <v name="DARWINV">      1.00000000</v>
   <i type="logical" name="LCORR"> T  </i>
  </separator>
  <i type="logical" name="GGA_COMPAT"> T  </i>
  <i type="logical" name="LBERRY"> F  </i>
  <i type="int" name="ICORELEVEL">     1</i>
  <i type="int" name="CLNT">     1</i>
  <i type="int" name="CLN">     1</i>
  <i type="int" name="CLL">     0</i>
  <i name="CLZ">      0.00000000</i>
  <i type="logical" name="LDAU"> F  </i>
  <i type="int" name="I_CONSTRAINED_M">     0</i>
  <separator name="electronic exchange-correlation" >
   <i type="string" name="GGA">--</i>
   <i type="int" name="VOSKOWN">     0</i>
   <i type="logical" name="LHFCALC"> F  </i>
   <i type="string" name="PRECFOCK"></i>
   <i type="logical" name="LSYMGRAD"> F  </i>
   <i type="logical" name="LHFONE"> F  </i>
   <i type="logical" name="LRHFCALC"> F  </i>
   <i type="logical" name="LTHOMAS"> F  </i>
   <i type="logical" name="LMODELHF"> F  </i>
   <i type="logical" name="LFOCKACE"> F  </i>
   <i name="ENCUT4O">     -1.00000000</i>
   <i type="int" name="EXXOEP">     0</i>
   <i type="int" name="FOURORBIT">     0</i>
   <i name="AEXX">      0.00000000</i>
   <i name="HFALPHA">      0.00000000</i>
   <i name="MCALPHA">      0.00000000</i>
   <i name="ALDAX">      1.00000000</i>
   <i name="AGGAX">      1.00000000</i>
   <i name="ALDAC">      1.00000000</i>
   <i name="AGGAC">      1.00000000</i>
   <i type="int" name="NKREDX">     1</i>
   <i type="int" name="NKREDY">     1</i>
   <i type="int" name="NKREDZ">     1</i>
   <i type="logical" name="SHIFTRED"> F  </i>
   <i type="logical" name="ODDONLY"> F  </i>
   <i type="logical" name="EVENONLY"> F  </i>
   <i type="int" name="LMAXFOCK">     0</i>
   <i type="int" name="NMAXFOCKAE">     0</i>
   <i type="logical" name="LFOCKAEDFT"> F  </i>
   <i name="HFSCREEN">      0.00000000</i>
   <i name="HFSCREENC">      0.00000000</i>
   <i type="int" name="NBANDSGWLOW">     0</i>
  </separator>
  <separator name="vdW DFT" >
   <i type="logical" name="LUSE_VDW"> F  </i>
   <i type="int" name="IVDW_NL">     1</i>
   <i type="logical" name="LSPIN_VDW"> F  </i>
   <i name="Zab_VDW">     -0.84910000</i>
   <i name="PARAM1">      0.12340000</i>
   <i name="PARAM2">      1.00000000</i>
   <i name="PARAM3">      0.00000000</i>
  </separator>
  <separator name="model GW" >
   <i type="int" name="MODEL_GW">     0</i>
   <i name="MODEL_EPS0">      6.86759914</i>
   <i name="MODEL_ALPHA">      1.00000000</i>
  </separator>
  <separator name="linear response parameters" >
   <i type="logical" name="LEPSILON"> F  </i>
   <i type="logical" name="LRPA"> F  </i>
   <i type="logical" name="LNABLA"> F  </i>
   <i type="logical" name="LVEL"> F  </i>
   <i name="CSHIFT">      0.10000000</i>
   <i name="OMEGAMAX">     -1.00000000</i>
   <i name="DEG_THRESHOLD">      0.00200000</i>
   <i name="RTIME">     -0.10000000</i>
   <i name="WPLASMAI">      0.00000000</i>
   <v name="DFIELD">      0.00000000      0.00000000      0.00000000</v>
   <v name="WPLASMA">      0.00000000      0.00000000      0.00000000      0.00000000      0.00000000      0.00000000      0.00000000      0.00000000      0.00000000</v>
  </separator>
  <separator name="orbital magnetization" >
   <i type="logical" name="NUCIND"> F  </i>
   <v name="MAGPOS">      0.00000000      0.00000000      0.00000000</v>
   <i type="logical" name="LNICSALL"> T  </i>
   <i type="logical" name="ORBITALMAG"> F  </i>
   <i type="logical" name="LMAGBLOCH"> F  </i>
   <i type="logical" name="LCHIMAG"> F  </i>
   <i type="logical" name="LGAUGE"> T  </i>
   <i type="int" name="MAGATOM">     0</i>
   <v name="MAGDIPOL">      0.00000000      0.00000000      0.00000000</v>
   <v name="AVECCONST">      0.00000000      0.00000000      0.00000000</v>
  </separator>
  <separator name="response functions" >
   <i type="logical" name="LALL_IN_ONE"> F  </i>
   <i type="int" name="IALL_IN_ONE">    -1</i>
   <i type="int" name="NBANDS_WAVE">    -1</i>
   <i type="logical" name="LFINITE_TEMPERATURE"> F  </i>
   <i type="logical" name="LADDER"> F  </i>
   <i type="logical" name="LRPAFORCE"> F  </i>
   <i type="logical" name="LFXC"> F  </i>
   <i type="logical" name="LHARTREE"> T  </i>
   <i type="int" name="IBSE">     0</i>
   <v type="int" name="KPOINT">    -1     0     0     0</v>
   <i type="logical" name="LTCTC"> F  </i>
   <i type="logical" name="LTCTE"> F  </i>
   <i type="logical" name="LTETE"> F  </i>
   <i type="logical" name="LTRIPLET"> F  </i>
   <i type="logical" name="LFXCEPS"> F  </i>
   <i type="logical" name="LFXHEG"> F  </i>
   <i type="int" name="NATURALO">     2</i>
   <i type="logical" name="LHOLEGF"> F  </i>
   <i type="logical" name="L2ORDER"> F  </i>
   <i type="logical" name="LDMP1"> F  </i>
   <i type="logical" name="LMP2LT"> F  </i>
   <i type="logical" name="LSMP2LT"> F  </i>
   <i type="logical" name="LGWLF"> F  </i>
   <i name="ENCUTGW">     -1.60000002</i>
   <i name="ENCUTGWSOFT">     -1.60000002</i>
   <i name="ENCUTLF">     -1.00000000</i>
   <i type="logical" name="LESF_SPLINES"> F  </i>
   <i type="int" name="LMAXMP2">    -1</i>
   <i name="SCISSOR">      0.00000000</i>
   <i type="int" name="NOMEGA">     0</i>
   <i type="int" name="NOMEGAR">     0</i>
   <i type="int" name="NBANDSGW">    -1</i>
   <i type="int" name="NBANDSO">    -1</i>
   <i type="int" name="NBANDSV">    -1</i>
   <i type="int" name="NELMGW">     1</i>
   <i type="int" name="NELMHF">     1</i>
   <i type="int" name="DIM">     3</i>
   <i type="int" name="IESPILON">     4</i>
   <i type="int" name="ANTIRES">     0</i>
   <i name="OMEGAMAX">    -30.00000000</i>
   <i name="OMEGAMIN">    -30.00000000</i>
   <i name="OMEGATL">   -200.00000000</i>
   <i type="int" name="OMEGAGRID">     0</i>
   <i name="CSHIFT">     -0.10000000</i>
   <i type="logical" name="LSELFENERGY"> F  </i>
   <i type="logical" name="LSPECTRAL"> F  </i>
   <i type="logical" name="LSPECTRALGW"> F  </i>
   <i type="logical" name="LSINGLES"> F  </i>
   <i type="logical" name="LFERMIGW"> F  </i>
   <i type="logical" name="ODDONLYGW"> F  </i>
   <i type="logical" name="EVENONLYGW"> F  </i>
   <i type="int" name="NKREDLFX">     1</i>
   <i type="int" name="NKREDLFY">     1</i>
   <i type="int" name="NKREDLFZ">     1</i>
   <i type="int" name="MAXMEM">  2800</i>
   <i type="int" name="TELESCOPE">     0</i>
   <i type="int" name="NTAUPAR">    -1</i>
   <i type="int" name="NOMEGAPAR">    -1</i>
   <i name="DAMP_NEWTON">      0.80000001</i>
   <i name="LAMBDA">      1.00000000</i>
  </separator>
  <separator name="External order field" >
   <i name="OFIELD_KAPPA">      0.00000000</i>
   <v name="OFIELD_K">      0.00000000      0.00000000      0.00000000</v>
   <i name="OFIELD_Q6_NEAR">      0.00000000</i>
   <i name="OFIELD_Q6_FAR">      0.00000000</i>
   <i name="OFIELD_A">      0.00000000</i>
  </separator>
  <separator name="optional k-points parameters" >
   <i type="int" name="KPOINTS_OPT_MODE">     1</i>
   <i type="logical" name="LKPOINTS_OPT"> F  </i>
  </separator>
 </parameters>
 <atominfo>
  <atoms>       4 </atoms>
  <types>       1 </types>
  <array name="atoms" >
   <dimension dim="1">ion</dimension>
   <field type="string">element</field>
   <field type="int">atomtype</field>
   <set>
    <rc><c>Cu</c><c>   1</c></rc>
    <rc><c>Cu</c><c>   1</c></rc>
    <rc><c>Cu</c><c>   1</c></rc>
    <rc><c>Cu</c><c>   1</c></rc>
   </set>
  </array>
  <array name="atomtypes" >
   <dimension dim="1">type</dimension>
   <field type="int">atomspertype</field>
   <field type="string">element</field>
   <field>mass</field>
   <field>valence</field>
   <field type="string">pseudopotential</field>
   <set>
    <rc><c>   4</c><c>Cu</c><c>     63.54600000</c><c>     11.00000000</c><c>  PAW_PBE Cu 22Jun2005                  </c></rc>
   </set>
  </array>
 </atominfo>
 <structure name="initialpos" >
  <crystal>
   <varray name="basis" >
    <v>       3.57743067       0.00000000       0.00000000 </v>
    <v>       0.00000000       3.57743067       0.00000000 </v>
    <v>       0.00000000       0.00000000       3.57743067 </v>
   </varray>
   <i name="volume">     45.78399426 </i>
   <varray name="rec_basis" >
    <v>       0.27953022      -0.00000000       0.00000000 </v>
    <v>       0.00000000       0.27953022       0.00000000 </v>
    <v>      -0.00000000      -0.00000000       0.27953022 </v>
   </varray>
  </crystal>
  <varray name="positions" >
   <v>       0.00000000       0.00000000       0.00000000 </v>
   <v>       0.00000000       0.50000000       0.50000000 </v>
   <v>       0.50000000       0.00000000       0.50000000 </v>
   <v>       0.50000000       0.50000000       0.00000000 </v>
  </varray>
 </structure>
 <calculation>
  <scstep>
   <time name="dav">    0.13    0.13</time>
   <time name="total">    0.16    0.16</time>
   <energy>
    <i name="alphaZ">    255.57509302 </i>
    <i name="ewald">  -4466.07994564 </i>
    <i name="hartreedc">   -175.91238606 </i>
    <i name="XCdc">    123.47130373 </i>
    <i name="pawpsdc"> 777615.05769107 </i>
    <i name="pawaedc">-777730.12809781 </i>
    <i name="eentropy">     -0.00000101 </i>
    <i name="bandstr">  -2112.08323281 </i>
    <i name="atom">   5563.88447798 </i>
    <i name="e_fr_energy">   -926.21509753 </i>
    <i name="e_wo_entrp">   -926.21509652 </i>
    <i name="e_0_energy">   -926.21509702 </i>
   </energy>
  </scstep>
  <scstep>
   <time name="dav">    0.08    0.08</time>
   <time name="total">    0.08    0.08</time>
   <energy>
    <i name="e_fr_energy">  -1224.91749328 </i>
    <i name="e_wo_entrp">  -1224.91748871 </i>
    <i name="e_0_energy">  -1224.91749100 </i>
   </energy>
  </scstep>
  <scstep>
   <time name="dav">    0.09    0.09</time>
   <time name="total">    0.09    0.09</time>
   <energy>
    <i name="e_fr_energy">  -1299.31681170 </i>
    <i name="e_wo_entrp">  -1299.31681170 </i>
    <i name="e_0_energy">  -1299.31681170 </i>
   </energy>
  </scstep>
  <scstep>
   <time name="dav">    0.08    0.08</time>
   <time name="total">    0.08    0.08</time>
   <energy>
    <i name="e_fr_energy">  -1306.79353688 </i>
    <i name="e_wo_entrp">  -1306.79353688 </i>
    <i name="e_0_energy">  -1306.79353688 </i>
   </energy>
  </scstep>
  <scstep>
   <time name="dav">    0.08    0.08</time>
   <time name="total">    0.09    0.09</time>
   <energy>
    <i name="e_fr_energy">  -1307.03803998 </i>
    <i name="e_wo_entrp">  -1307.03803998 </i>
    <i name="e_0_energy">  -1307.03803998 </i>
   </energy>
  </scstep>
  <scstep>
   <time name="dav">    0.06    0.06</time>
   <time name="total">    0.08    0.08</time>
   <energy>
    <i name="e_fr_energy">   -174.22483738 </i>
    <i name="e_wo_entrp">   -174.22214967 </i>
    <i name="e_0_energy">   -174.22349353 </i>
   </energy>
  </scstep>
  <scstep>
   <time name="dav">    0.06    0.06</time>
   <time name="total">    0.08    0.08</time>
   <energy>
    <i name="e_fr_energy">    -38.23499165 </i>
    <i name="e_wo_entrp">    -38.22647341 </i>
    <i name="e_0_energy">    -38.23073253 </i>
   </energy>
  </scstep>
  <scstep>
   <time name="dav">    0.09    0.09</time>
   <time name="total">    0.12    0.12</time>
   <energy>
    <i name="e_fr_energy">    -53.57919536 </i>
    <i name="e_wo_entrp">    -53.57869621 </i>
    <i name="e_0_energy">    -53.57894579 </i>
   </energy>
  </scstep>
  <scstep>
   <time name="dav">    0.09    0.09</time>
   <time name="total">    0.11    0.11</time>
   <energy>
    <i name="e_fr_energy">    -22.19102216 </i>
    <i name="e_wo_entrp">    -22.18497625 </i>
    <i name="e_0_energy">    -22.18799920 </i>
   </energy>
  </scstep>
  <scstep>
   <time name="dav">    0.08    0.08</time>
   <time name="total">    0.11    0.11</time>
   <energy>
    <i name="e_fr_energy">    -18.79256884 </i>
    <i name="e_wo_entrp">    -18.78571634 </i>
    <i name="e_0_energy">    -18.78914259 </i>
   </energy>
  </scstep>
  <scstep>
   <time name="dav">    0.09    0.09</time>
   <time name="total">    0.11    0.11</time>
   <energy>
    <i name="e_fr_energy">    -14.98220193 </i>
    <i name="e_wo_entrp">    -14.97406227 </i>
    <i name="e_0_energy">    -14.97813210 </i>
   </energy>
  </scstep>
  <scstep>
   <time name="dav">    0.09    0.09</time>
   <time name="total">    0.11    0.11</time>
   <energy>
    <i name="e_fr_energy">    -14.21843228 </i>
    <i name="e_wo_entrp">    -14.20165949 </i>
    <i name="e_0_energy">    -14.21004589 </i>
   </energy>
  </scstep>
  <scstep>
   <time name="dav">    0.08    0.08</time>
   <time name="total">    0.11    0.11</time>
   <energy>
    <i name="e_fr_energy">    -14.22750491 </i>
    <i name="e_wo_entrp">    -14.21539929 </i>
    <i name="e_0_energy">    -14.22145210 </i>
   </energy>
  </scstep>
  <scstep>
   <time name="dav">    0.08    0.08</time>
   <time name="total">    0.10    0.10</time>
   <energy>
    <i name="e_fr_energy">    -14.24608958 </i>
    <i name="e_wo_entrp">    -14.24029944 </i>
    <i name="e_0_energy">    -14.24319451 </i>
   </energy>
  </scstep>
  <scstep>
   <time name="dav">    0.08    0.08</time>
   <time name="total">    0.10    0.10</time>
   <energy>
    <i name="e_fr_energy">    -14.10815876 </i>
    <i name="e_wo_entrp">    -14.06915567 </i>
    <i name="e_0_energy">    -14.08865721 </i>
   </energy>
  </scstep>
  <scstep>
   <time name="dav">    0.09    0.09</time>
   <time name="total">    0.11    0.11</time>
   <energy>
    <i name="e_fr_energy">    -14.16112312 </i>
    <i name="e_wo_entrp">    -14.14477334 </i>
    <i name="e_0_energy">    -14.15294823 </i>
   </energy>
  </scstep>
  <scstep>
   <time name="dav">    0.08    0.08</time>
   <time name="total">    0.11    0.11</time>
   <energy>
    <i name="e_fr_energy">    -14.11636579 </i>
    <i name="e_wo_entrp">    -14.08879988 </i>
    <i name="e_0_energy">    -14.10258283 </i>
   </energy>
  </scstep>
  <scstep>
   <time name="dav">    0.08    0.08</time>
   <time name="total">    0.11    0.11</time>
   <energy>
    <i name="e_fr_energy">    -14.09764646 </i>
    <i name="e_wo_entrp">    -14.05822031 </i>
    <i name="e_0_energy">    -14.07793339 </i>
   </energy>
  </scstep>
  <scstep>
   <time name="dav">    0.08    0.08</time>
   <time name="total">    0.10    0.10</time>
   <energy>
    <i name="e_fr_energy">    -14.09309207 </i>
    <i name="e_wo_entrp">    -14.05188422 </i>
    <i name="e_0_energy">    -14.07248815 </i>
   </energy>
  </scstep>
  <scstep>
   <time name="dav">    0.08    0.08</time>
   <time name="total">    0.11    0.11</time>
   <energy>
    <i name="e_fr_energy">    -14.09269996 </i>
    <i name="e_wo_entrp">    -14.05156756 </i>
    <i name="e_0_energy">    -14.07213376 </i>
   </energy>
  </scstep>
  <scstep>
   <time name="dav">    0.08    0.08</time>
   <time name="total">    0.10    0.10</time>
   <energy>
    <i name="e_fr_energy">    -14.09301495 </i>
    <i name="e_wo_entrp">    -14.05218466 </i>
    <i name="e_0_energy">    -14.07259980 </i>
   </energy>
  </scstep>
  <scstep>
   <time name="dav">    0.08    0.08</time>
   <time name="total">    0.10    0.10</time>
   <energy>
    <i name="e_fr_energy">    -14.09250945 </i>
    <i name="e_wo_entrp">    -14.05122690 </i>
    <i name="e_0_energy">    -14.07186818 </i>
   </energy>
  </scstep>
  <scstep>
   <time name="dav">    0.07    0.07</time>
   <time name="total">    0.10    0.10</time>
   <energy>
    <i name="e_fr_energy">    -14.09238353 </i>
    <i name="e_wo_entrp">    -14.05106719 </i>
    <i name="e_0_energy">    -14.07172536 </i>
   </energy>
  </scstep>
  <scstep>
   <time name="dav">    0.08    0.08</time>
   <time name="total">    0.10    0.10</time>
   <energy>
    <i name="e_fr_energy">    -14.09237945 </i>
    <i name="e_wo_entrp">    -14.05106334 </i>
    <i name="e_0_energy">    -14.07172140 </i>
   </energy>
  </scstep>
  <scstep>
   <time name="dav">    0.04    0.04</time>
   <time name="total">    0.07    0.07</time>
   <energy>
    <i name="e_fr_energy">    -14.09231915 </i>
    <i name="e_wo_entrp">    -14.05095343 </i>
    <i name="e_0_energy">    -14.07163629 </i>
   </energy>
  </scstep>
  <scstep>
   <time name="dav">    0.05    0.05</time>
   <time name="total">    0.08    0.08</time>
   <energy>
    <i name="e_fr_energy">    -14.09228661 </i>
    <i name="e_wo_entrp">    -14.05090359 </i>
    <i name="e_0_energy">    -14.07159510 </i>
   </energy>
  </scstep>
  <scstep>
   <time name="dav">    0.04    0.04</time>
   <time name="total">    0.08    0.08</time>
   <energy>
    <i name="alphaZ">    255.57509302 </i>
    <i name="ewald">  -4466.07994564 </i>
    <i name="hartreedc">  -1319.14304771 </i>
    <i name="XCdc">    178.55100780 </i>
    <i name="pawpsdc">   5284.47876189 </i>
    <i name="pawaedc">  -5717.43240935 </i>
    <i name="eentropy">     -0.04138556 </i>
    <i name="bandstr">    206.11516635 </i>
    <i name="atom">   5563.88447798 </i>
    <i name="e_fr_energy">    -14.09228121 </i>
    <i name="e_wo_entrp">    -14.05089565 </i>
    <i name="e_0_energy">    -14.07158843 </i>
   </energy>
  </scstep>
  <structure>
   <crystal>
    <varray name="basis" >
     <v>       3.57743067       0.00000000       0.00000000 </v>
     <v>       0.00000000       3.57743067       0.00000000 </v>
     <v>       0.00000000       0.00000000       3.57743067 </v>
    </varray>
    <i name="volume">     45.78399426 </i>
    <varray name="rec_basis" >
     <v>       0.27953022      -0.00000000       0.00000000 </v>
     <v>       0.00000000       0.27953022       0.00000000 </v>
     <v>      -0.00000000      -0.00000000       0.27953022 </v>
    </varray>
   </crystal>
   <varray name="positions" >
    <v>       0.00000000       0.00000000       0.00000000 </v>
    <v>       0.00000000       0.50000000       0.50000000 </v>
    <v>       0.50000000       0.00000000       0.50000000 </v>
    <v>       0.50000000       0.50000000       0.00000000 </v>
   </varray>
  </structure>
  <varray name="forces" >
   <v>       0.00009058      -0.00001171       0.00002190 </v>
   <v>       0.00000750      -0.00000620      -0.00000873 </v>
   <v>      -0.00007997      -0.00000776      -0.00002230 </v>
   <v>      -0.00001811       0.00002567       0.00000913 </v>
  </varray>
  <varray name="stress" >
   <v>      64.43342837       0.00038453       0.00083779 </v>
   <v>       0.00038188      64.37818968      -0.00195153 </v>
   <v>       0.00083873      -0.00195133      64.29351711 </v>
  </varray>
  <energy>
   <i name="e_fr_energy">    -14.09228121 </i>
   <i name="e_wo_entrp">    -14.05089565 </i>
   <i name="e_0_energy">    -14.07158843 </i>
  </energy>
  <time name="totalsc">    3.61    3.81</time>
  <eigenvalues>
   <array>
    <dimension dim="1">band</dimension>
    <dimension dim="2">kpoint</dimension>
    <dimension dim="3">spin</dimension>
    <field>eigene</field>
    <field>occ</field>
    <set>
     <set comment="spin 1">
      <set comment="kpoint 1">
       <r>   -1.6264    1.0000 </r>
       <r>    2.7654    1.0000 </r>
       <r>    2.7660    1.0000 </r>
       <r>    2.7665    1.0000 </r>
       <r>    3.2112    1.0000 </r>
       <r>    3.2112    1.0000 </r>
       <r>    3.2112    1.0000 </r>
       <r>    4.6441    1.0000 </r>
       <r>    4.6441    1.0000 </r>
       <r>    4.6442    1.0000 </r>
       <r>    5.5001    1.0000 </r>
       <r>    5.5002    1.0000 </r>
       <r>    6.0681    1.0000 </r>
       <r>    6.0686    1.0000 </r>
       <r>    6.0688    1.0000 </r>
       <r>    6.2270    1.0000 </r>
       <r>    6.2274    1.0000 </r>
       <r>    6.2274    1.0000 </r>
       <r>    6.2280    1.0000 </r>
       <r>    6.2280    1.0000 </r>
       <r>    6.2284    1.0000 </r>
       <r>    9.4377    0.0000 </r>
       <r>    9.4377    0.0000 </r>
       <r>    9.4377    0.0000 </r>
       <r>   15.2236    0.0000 </r>
       <r>   15.2238    0.0000 </r>
      </set>
      <set comment="kpoint 2">
       <r>    1.1785    1.0000 </r>
       <r>    1.1786    1.0000 </r>
       <r>    3.5191    1.0000 </r>
       <r>    3.5195    1.0000 </r>
       <r>    3.9064    1.0000 </r>
       <r>    3.9070    1.0000 </r>
       <r>    4.1375    1.0000 </r>
       <r>    4.1376    1.0000 </r>
       <r>    4.1380    1.0000 </r>
       <r>    4.1380    1.0000 </r>
       <r>    5.0471    1.0000 </r>
       <r>    5.0476    1.0000 </r>
       <r>    5.3270    1.0000 </r>
       <r>    5.3271    1.0000 </r>
       <r>    5.3276    1.0000 </r>
       <r>    5.3276    1.0000 </r>
       <r>    5.4610    1.0000 </r>
       <r>    5.4615    1.0000 </r>
       <r>    5.7804    1.0000 </r>
       <r>    5.7809    1.0000 </r>
       <r>    6.2282    1.0000 </r>
       <r>    6.2288    1.0000 </r>
       <r>   14.2398    0.0000 </r>
       <r>   14.2398    0.0000 </r>
       <r>   14.2399    0.0000 </r>
       <r>   14.2399    0.0000 </r>
      </set>
      <set comment="kpoint 3">
       <r>    1.1785    1.0000 </r>
       <r>    1.1786    1.0000 </r>
       <r>    3.5191    1.0000 </r>
       <r>    3.5196    1.0000 </r>
       <r>    3.9064    1.0000 </r>
       <r>    3.9070    1.0000 </r>
       <r>    4.1375    1.0000 </r>
       <r>    4.1376    1.0000 </r>
       <r>    4.1380    1.0000 </r>
       <r>    4.1380    1.0000 </r>
       <r>    5.0471    1.0000 </r>
       <r>    5.0475    1.0000 </r>
       <r>    5.3271    1.0000 </r>
       <r>    5.3271    1.0000 </r>
       <r>    5.3276    1.0000 </r>
       <r>    5.3276    1.0000 </r>
       <r>    5.4610    1.0000 </r>
       <r>    5.4614    1.0000 </r>
       <r>    5.7804    1.0000 </r>
       <r>    5.7810    1.0000 </r>
       <r>    6.2282    1.0000 </r>
       <r>    6.2288    1.0000 </r>
       <r>   14.2398    0.0000 </r>
       <r>   14.2398    0.0000 </r>
       <r>   14.2398    0.0000 </r>
       <r>   14.2399    0.0000 </r>
      </set>
      <set comment="kpoint 4">
       <r>    1.1784    1.0000 </r>
       <r>    1.1787    1.0000 </r>
       <r>    3.5184    1.0000 </r>
       <r>    3.5203    1.0000 </r>
       <r>    3.9061    1.0000 </r>
       <r>    3.9073    1.0000 </r>
       <r>    4.1370    1.0000 </r>
       <r>    4.1370    1.0000 </r>
       <r>    4.1385    1.0000 </r>
       <r>    4.1385    1.0000 </r>
       <r>    5.0466    1.0000 </r>
       <r>    5.0480    1.0000 </r>
       <r>    5.3264    1.0000 </r>
       <r>    5.3264    1.0000 </r>
       <r>    5.3283    1.0000 </r>
       <r>    5.3283    1.0000 </r>
       <r>    5.4604    1.0000 </r>
       <r>    5.4619    1.0000 </r>
       <r>    5.7795    1.0000 </r>
       <r>    5.7820    1.0000 </r>
       <r>    6.2278    1.0000 </r>
       <r>    6.2292    1.0000 </r>
       <r>   14.2398    0.0000 </r>
       <r>   14.2398    0.0000 </r>
       <r>   14.2399    0.0000 </r>
       <r>   14.2399    0.0000 </r>
      </set>
      <set comment="kpoint 5">
       <r>    3.0479    1.0000 </r>
       <r>    3.0479    1.0000 </r>
       <r>    3.0483    1.0000 </r>
       <r>    3.0485    1.0000 </r>
       <r>    4.1371    1.0000 </r>
       <r>    4.1372    1.0000 </r>
       <r>    4.1387    1.0000 </r>
       <r>    4.1387    1.0000 </r>
       <r>    4.3504    1.0000 </r>
       <r>    4.3504    1.0000 </r>
       <r>    4.3515    1.0000 </r>
       <r>    4.3520    1.0000 </r>
       <r>    5.1643    1.0000 </r>
       <r>    5.1644    1.0000 </r>
       <r>    5.1662    1.0000 </r>
       <r>    5.1672    1.0000 </r>
       <r>    5.4906    1.0000 </r>
       <r>    5.4907    1.0000 </r>
       <r>    5.4925    1.0000 </r>
       <r>    5.4926    1.0000 </r>
       <r>    7.5117    0.4225 </r>
       <r>    7.5117    0.4223 </r>
       <r>    7.5127    0.4117 </r>
       <r>    7.5128    0.4101 </r>
       <r>   17.8229    0.0000 </r>
       <r>   17.8233    0.0000 </r>
      </set>
      <set comment="kpoint 6">
       <r>    3.0479    1.0000 </r>
       <r>    3.0480    1.0000 </r>
       <r>    3.0482    1.0000 </r>
       <r>    3.0484    1.0000 </r>
       <r>    4.1376    1.0000 </r>
       <r>    4.1378    1.0000 </r>
       <r>    4.1381    1.0000 </r>
       <r>    4.1383    1.0000 </r>
       <r>    4.3505    1.0000 </r>
       <r>    4.3507    1.0000 </r>
       <r>    4.3513    1.0000 </r>
       <r>    4.3520    1.0000 </r>
       <r>    5.1646    1.0000 </r>
       <r>    5.1646    1.0000 </r>
       <r>    5.1659    1.0000 </r>
       <r>    5.1668    1.0000 </r>
       <r>    5.4912    1.0000 </r>
       <r>    5.4914    1.0000 </r>
       <r>    5.4917    1.0000 </r>
       <r>    5.4921    1.0000 </r>
       <r>    7.5119    0.4199 </r>
       <r>    7.5121    0.4180 </r>
       <r>    7.5123    0.4159 </r>
       <r>    7.5126    0.4129 </r>
       <r>   17.8232    0.0000 </r>
       <r>   17.8233    0.0000 </r>
      </set>
      <set comment="kpoint 7">
       <r>    3.0479    1.0000 </r>
       <r>    3.0480    1.0000 </r>
       <r>    3.0482    1.0000 </r>
       <r>    3.0485    1.0000 </r>
       <r>    4.1376    1.0000 </r>
       <r>    4.1378    1.0000 </r>
       <r>    4.1380    1.0000 </r>
       <r>    4.1383    1.0000 </r>
       <r>    4.3505    1.0000 </r>
       <r>    4.3506    1.0000 </r>
       <r>    4.3513    1.0000 </r>
       <r>    4.3519    1.0000 </r>
       <r>    5.1646    1.0000 </r>
       <r>    5.1647    1.0000 </r>
       <r>    5.1658    1.0000 </r>
       <r>    5.1669    1.0000 </r>
       <r>    5.4912    1.0000 </r>
       <r>    5.4915    1.0000 </r>
       <r>    5.4917    1.0000 </r>
       <r>    5.4920    1.0000 </r>
       <r>    7.5120    0.4196 </r>
       <r>    7.5121    0.4182 </r>
       <r>    7.5123    0.4162 </r>
       <r>    7.5126    0.4128 </r>
       <r>   17.8231    0.0000 </r>
       <r>   17.8232    0.0000 </r>
      </set>
      <set comment="kpoint 8">
       <r>    2.5885    1.0000 </r>
       <r>    2.5886    1.0000 </r>
       <r>    2.5889    1.0000 </r>
       <r>    2.5889    1.0000 </r>
       <r>    4.6143    1.0000 </r>
       <r>    4.6144    1.0000 </r>
       <r>    4.6147    1.0000 </r>
       <r>    4.6147    1.0000 </r>
       <r>    4.6149    1.0000 </r>
       <r>    4.6152    1.0000 </r>
       <r>    4.6155    1.0000 </r>
       <r>    4.6156    1.0000 </r>
       <r>    6.0829    1.0000 </r>
       <r>    6.0829    1.0000 </r>
       <r>    6.0831    1.0000 </r>
       <r>    6.0835    1.0000 </r>
       <r>    6.0835    1.0000 </r>
       <r>    6.0835    1.0000 </r>
       <r>    6.0838    1.0000 </r>
       <r>    6.0838    1.0000 </r>
       <r>    6.8753    1.0000 </r>
       <r>    6.8755    1.0000 </r>
       <r>    6.8756    1.0000 </r>
       <r>    6.8756    1.0000 </r>
       <r>   11.7774    0.0000 </r>
       <r>   11.7775    0.0000 </r>
      </set>
     </set>
    </set>
   </array>
  </eigenvalues>
  <separator name="orbital magnetization" >
   <v name="MAGDIPOLOUT">      0.00000000      0.00000000      0.00000000</v>
  </separator>
  <dos>
   <i name="efermi">      7.50479276 </i>
   <total>
    <array>
     <dimension dim="1">gridpoints</dimension>
     <dimension dim="2">spin</dimension>
     <field>energy</field>
     <field>total</field>
     <field>integrated</field>
     <set>
      <set comment="spin 1">
       <r>    -2.5988     0.0000     0.0000 </r>
       <r>    -2.5275     0.0000     0.0000 </r>
       <r>    -2.4562     0.0000     0.0000 </r>
       <r>    -2.3849     0.0000     0.0000 </r>
       <r>    -2.3136     0.0000     0.0000 </r>
       <r>    -2.2423     0.0000     0.0000 </r>
       <r>    -2.1709     0.0000     0.0000 </r>
       <r>    -2.0996     0.0000     0.0000 </r>
       <r>    -2.0283     0.0000     0.0000 </r>
       <r>    -1.9570     0.0000     0.0000 </r>
       <r>    -1.8857     0.0000     0.0000 </r>
       <r>    -1.8144     0.0000     0.0000 </r>
       <r>    -1.7430     0.0017     0.0001 </r>
       <r>    -1.6717     0.3476     0.0249 </r>
       <r>    -1.6004     2.3443     0.1921 </r>
       <r>    -1.5291     0.8016     0.2493 </r>
       <r>    -1.4578     0.0104     0.2500 </r>
       <r>    -1.3865     0.0000     0.2500 </r>
       <r>    -1.3152     0.0000     0.2500 </r>
       <r>    -1.2438     0.0000     0.2500 </r>
       <r>    -1.1725     0.0000     0.2500 </r>
       <r>    -1.1012     0.0000     0.2500 </r>
       <r>    -1.0299     0.0000     0.2500 </r>
       <r>    -0.9586     0.0000     0.2500 </r>
       <r>    -0.8873     0.0000     0.2500 </r>
       <r>    -0.8159     0.0000     0.2500 </r>
       <r>    -0.7446     0.0000     0.2500 </r>
       <r>    -0.6733     0.0000     0.2500 </r>
       <r>    -0.6020     0.0000     0.2500 </r>
       <r>    -0.5307     0.0000     0.2500 </r>
       <r>    -0.4594     0.0000     0.2500 </r>
       <r>    -0.3881     0.0000     0.2500 </r>
       <r>    -0.3167     0.0000     0.2500 </r>
       <r>    -0.2454     0.0000     0.2500 </r>
       <r>    -0.1741     0.0000     0.2500 </r>
       <r>    -0.1028     0.0000     0.2500 </r>
       <r>    -0.0315     0.0000     0.2500 </r>
       <r>     0.0398     0.0000     0.2500 </r>
       <r>     0.1112     0.0000     0.2500 </r>
       <r>     0.1825     0.0000     0.2500 </r>
       <r>     0.2538     0.0000     0.2500 </r>
       <r>     0.3251     0.0000     0.2500 </r>
       <r>     0.3964     0.0000     0.2500 </r>
       <r>     0.4677     0.0000     0.2500 </r>
       <r>     0.5390     0.0000     0.2500 </r>
       <r>     0.6104     0.0000     0.2500 </r>
       <r>     0.6817     0.0000     0.2500 </r>
       <r>     0.7530     0.0000     0.2500 </r>
       <r>     0.8243     0.0000     0.2500 </r>
       <r>     0.8956     0.0000     0.2500 </r>
       <r>     0.9669     0.0000     0.2500 </r>
       <r>     1.0383     0.0008     0.2501 </r>
       <r>     1.1096     0.5365     0.2883 </r>
       <r>     1.1809    10.5357     1.0397 </r>
       <r>     1.2522     9.5691     1.7221 </r>
       <r>     1.3235     0.3909     1.7500 </r>
       <r>     1.3948     0.0004     1.7500 </r>
       <r>     1.4661     0.0000     1.7500 </r>
       <r>     1.5375     0.0000     1.7500 </r>
       <r>     1.6088     0.0000     1.7500 </r>
       <r>     1.6801     0.0000     1.7500 </r>
       <r>     1.7514     0.0000     1.7500 </r>
       <r>     1.8227     0.0000     1.7500 </r>
       <r>     1.8940     0.0000     1.7500 </r>
       <r>     1.9654     0.0000     1.7500 </r>
       <r>     2.0367     0.0000     1.7500 </r>
       <r>     2.1080     0.0000     1.7500 </r>
       <r>     2.1793     0.0000     1.7500 </r>
       <r>     2.2506     0.0000     1.7500 </r>
       <r>     2.3219     0.0000     1.7500 </r>
       <r>     2.3932     0.0000     1.7500 </r>
       <r>     2.4646     0.0031     1.7502 </r>
       <r>     2.5359     0.9429     1.8175 </r>
       <r>     2.6072     8.8586     2.4492 </r>
       <r>     2.6785     4.2099     2.7495 </r>
       <r>     2.7498     3.4118     2.9928 </r>
       <r>     2.8211     6.4875     3.4554 </r>
       <r>     2.8925     0.6234     3.4999 </r>
       <r>     2.9638     0.3599     3.5256 </r>
       <r>     3.0351    14.6221     4.5683 </r>
       <r>     3.1064    25.0133     6.3522 </r>
       <r>     3.1777     3.8743     6.6285 </r>
       <r>     3.2490     7.2186     7.1433 </r>
       <r>     3.3203     1.4861     7.2492 </r>
       <r>     3.3917     0.0138     7.2502 </r>
       <r>     3.4630     1.1627     7.3331 </r>
       <r>     3.5343    12.7935     8.2455 </r>
       <r>     3.6056     6.9192     8.7390 </r>
       <r>     3.6769     0.1546     8.7500 </r>
       <r>     3.7482     0.0002     8.7500 </r>
       <r>     3.8196     0.1443     8.7603 </r>
       <r>     3.8909     6.7399     9.2410 </r>
       <r>     3.9622    12.9238    10.1626 </r>
       <r>     4.0335     1.3549    10.2592 </r>
       <r>     4.1048    14.5965    11.3002 </r>
       <r>     4.1761    57.6682    15.4128 </r>
       <r>     4.2474    11.7285    16.2493 </r>
       <r>     4.3188     7.5974    16.7911 </r>
       <r>     4.3901    28.7982    18.8448 </r>
       <r>     4.4614     5.6436    19.2473 </r>
       <r>     4.5327     0.3280    19.2707 </r>
       <r>     4.6040    11.6897    20.1043 </r>
       <r>     4.6753    23.3703    21.7710 </r>
       <r>     4.7467     3.1887    21.9984 </r>
       <r>     4.8180     0.0224    22.0000 </r>
       <r>     4.8893     0.0001    22.0000 </r>
       <r>     4.9606     0.1490    22.0106 </r>
       <r>     5.0319     6.8267    22.4975 </r>
       <r>     5.1032    14.5071    23.5321 </r>
       <r>     5.1745    24.8232    25.3023 </r>
       <r>     5.2459    16.7540    26.4972 </r>
       <r>     5.3172    16.3149    27.6607 </r>
       <r>     5.3885    24.5282    29.4099 </r>
       <r>     5.4598    20.0852    30.8423 </r>
       <r>     5.5311    43.9006    33.9731 </r>
       <r>     5.6024     7.3383    34.4964 </r>
       <r>     5.6738     0.0765    34.5019 </r>
       <r>     5.7451     3.2749    34.7354 </r>
       <r>     5.8164    14.4435    35.7655 </r>
       <r>     5.8877     3.2626    35.9981 </r>
       <r>     5.9590     0.0424    36.0012 </r>
       <r>     6.0303     3.3280    36.2385 </r>
       <r>     6.1016    24.8981    38.0141 </r>
       <r>     6.1730    12.6448    38.9159 </r>
       <r>     6.2443    26.1244    40.7790 </r>
       <r>     6.3156    13.3352    41.7300 </r>
       <r>     6.3869     0.2807    41.7500 </r>
       <r>     6.4582     0.0001    41.7500 </r>
       <r>     6.5295     0.0000    41.7500 </r>
       <r>     6.6009     0.0000    41.7500 </r>
       <r>     6.6722     0.0000    41.7500 </r>
       <r>     6.7435     0.0013    41.7501 </r>
       <r>     6.8148     0.6007    41.7929 </r>
       <r>     6.8861     8.0597    42.3677 </r>
       <r>     6.9574     5.2165    42.7397 </r>
       <r>     7.0287     0.1438    42.7500 </r>
       <r>     7.1001     0.0001    42.7500 </r>
       <r>     7.1714     0.0000    42.7500 </r>
       <r>     7.2427     0.0000    42.7500 </r>
       <r>     7.3140     0.0000    42.7500 </r>
       <r>     7.3853     0.0070    42.7505 </r>
       <r>     7.4566     2.4303    42.9238 </r>
       <r>     7.5280    25.8200    44.7652 </r>
       <r>     7.5993    13.5185    45.7293 </r>
       <r>     7.6706     0.2907    45.7500 </r>
       <r>     7.7419     0.0002    45.7500 </r>
       <r>     7.8132     0.0000    45.7500 </r>
       <r>     7.8845     0.0000    45.7500 </r>
       <r>     7.9558     0.0000    45.7500 </r>
       <r>     8.0272     0.0000    45.7500 </r>
       <r>     8.0985     0.0000    45.7500 </r>
       <r>     8.1698     0.0000    45.7500 </r>
       <r>     8.2411     0.0000    45.7500 </r>
       <r>     8.3124     0.0000    45.7500 </r>
       <r>     8.3837     0.0000    45.7500 </r>
       <r>     8.4551     0.0000    45.7500 </r>
       <r>     8.5264     0.0000    45.7500 </r>
       <r>     8.5977     0.0000    45.7500 </r>
       <r>     8.6690     0.0000    45.7500 </r>
       <r>     8.7403     0.0000    45.7500 </r>
       <r>     8.8116     0.0000    45.7500 </r>
       <r>     8.8829     0.0000    45.7500 </r>
       <r>     8.9543     0.0000    45.7500 </r>
       <r>     9.0256     0.0000    45.7500 </r>
       <r>     9.0969     0.0000    45.7500 </r>
       <r>     9.1682     0.0000    45.7500 </r>
       <r>     9.2395     0.0000    45.7500 </r>
       <r>     9.3108     0.0017    45.7501 </r>
       <r>     9.3822     0.6081    45.7935 </r>
       <r>     9.4535     6.4566    46.2539 </r>
       <r>     9.5248     3.3776    46.4948 </r>
       <r>     9.5961     0.0725    46.5000 </r>
       <r>     9.6674     0.0000    46.5000 </r>
       <r>     9.7387     0.0000    46.5000 </r>
       <r>     9.8100     0.0000    46.5000 </r>
       <r>     9.8814     0.0000    46.5000 </r>
       <r>     9.9527     0.0000    46.5000 </r>
       <r>    10.0240     0.0000    46.5000 </r>
       <r>    10.0953     0.0000    46.5000 </r>
       <r>    10.1666     0.0000    46.5000 </r>
       <r>    10.2379     0.0000    46.5000 </r>
       <r>    10.3093     0.0000    46.5000 </r>
       <r>    10.3806     0.0000    46.5000 </r>
       <r>    10.4519     0.0000    46.5000 </r>
       <r>    10.5232     0.0000    46.5000 </r>
       <r>    10.5945     0.0000    46.5000 </r>
       <r>    10.6658     0.0000    46.5000 </r>
       <r>    10.7371     0.0000    46.5000 </r>
       <r>    10.8085     0.0000    46.5000 </r>
       <r>    10.8798     0.0000    46.5000 </r>
       <r>    10.9511     0.0000    46.5000 </r>
       <r>    11.0224     0.0000    46.5000 </r>
       <r>    11.0937     0.0000    46.5000 </r>
       <r>    11.1650     0.0000    46.5000 </r>
       <r>    11.2364     0.0000    46.5000 </r>
       <r>    11.3077     0.0000    46.5000 </r>
       <r>    11.3790     0.0000    46.5000 </r>
       <r>    11.4503     0.0000    46.5000 </r>
       <r>    11.5216     0.0000    46.5000 </r>
       <r>    11.5929     0.0000    46.5000 </r>
       <r>    11.6642     0.0048    46.5003 </r>
       <r>    11.7356     0.8227    46.5590 </r>
       <r>    11.8069     4.7628    46.8987 </r>
       <r>    11.8782     1.4054    46.9989 </r>
       <r>    11.9495     0.0154    47.0000 </r>
       <r>    12.0208     0.0000    47.0000 </r>
       <r>    12.0921     0.0000    47.0000 </r>
       <r>    12.1635     0.0000    47.0000 </r>
       <r>    12.2348     0.0000    47.0000 </r>
       <r>    12.3061     0.0000    47.0000 </r>
       <r>    12.3774     0.0000    47.0000 </r>
       <r>    12.4487     0.0000    47.0000 </r>
       <r>    12.5200     0.0000    47.0000 </r>
       <r>    12.5914     0.0000    47.0000 </r>
       <r>    12.6627     0.0000    47.0000 </r>
       <r>    12.7340     0.0000    47.0000 </r>
       <r>    12.8053     0.0000    47.0000 </r>
       <r>    12.8766     0.0000    47.0000 </r>
       <r>    12.9479     0.0000    47.0000 </r>
       <r>    13.0192     0.0000    47.0000 </r>
       <r>    13.0906     0.0000    47.0000 </r>
       <r>    13.1619     0.0000    47.0000 </r>
       <r>    13.2332     0.0000    47.0000 </r>
       <r>    13.3045     0.0000    47.0000 </r>
       <r>    13.3758     0.0000    47.0000 </r>
       <r>    13.4471     0.0000    47.0000 </r>
       <r>    13.5185     0.0000    47.0000 </r>
       <r>    13.5898     0.0000    47.0000 </r>
       <r>    13.6611     0.0000    47.0000 </r>
       <r>    13.7324     0.0000    47.0000 </r>
       <r>    13.8037     0.0000    47.0000 </r>
       <r>    13.8750     0.0000    47.0000 </r>
       <r>    13.9463     0.0000    47.0000 </r>
       <r>    14.0177     0.0000    47.0000 </r>
       <r>    14.0890     0.0004    47.0000 </r>
       <r>    14.1603     0.5139    47.0367 </r>
       <r>    14.2316    16.6460    48.2238 </r>
       <r>    14.3029    23.3418    49.8884 </r>
       <r>    14.3742     1.5616    49.9998 </r>
       <r>    14.4456     0.0030    50.0000 </r>
       <r>    14.5169     0.0000    50.0000 </r>
       <r>    14.5882     0.0000    50.0000 </r>
       <r>    14.6595     0.0000    50.0000 </r>
       <r>    14.7308     0.0000    50.0000 </r>
       <r>    14.8021     0.0000    50.0000 </r>
       <r>    14.8734     0.0000    50.0000 </r>
       <r>    14.9448     0.0000    50.0000 </r>
       <r>    15.0161     0.0000    50.0000 </r>
       <r>    15.0874     0.0004    50.0000 </r>
       <r>    15.1587     0.2314    50.0165 </r>
       <r>    15.2300     3.7733    50.2856 </r>
       <r>    15.3013     2.9077    50.4930 </r>
       <r>    15.3727     0.0982    50.5000 </r>
       <r>    15.4440     0.0001    50.5000 </r>
       <r>    15.5153     0.0000    50.5000 </r>
       <r>    15.5866     0.0000    50.5000 </r>
       <r>    15.6579     0.0000    50.5000 </r>
       <r>    15.7292     0.0000    50.5000 </r>
       <r>    15.8005     0.0000    50.5000 </r>
       <r>    15.8719     0.0000    50.5000 </r>
       <r>    15.9432     0.0000    50.5000 </r>
       <r>    16.0145     0.0000    50.5000 </r>
       <r>    16.0858     0.0000    50.5000 </r>
       <r>    16.1571     0.0000    50.5000 </r>
       <r>    16.2284     0.0000    50.5000 </r>
       <r>    16.2998     0.0000    50.5000 </r>
       <r>    16.3711     0.0000    50.5000 </r>
       <r>    16.4424     0.0000    50.5000 </r>
       <r>    16.5137     0.0000    50.5000 </r>
       <r>    16.5850     0.0000    50.5000 </r>
       <r>    16.6563     0.0000    50.5000 </r>
       <r>    16.7276     0.0000    50.5000 </r>
       <r>    16.7990     0.0000    50.5000 </r>
       <r>    16.8703     0.0000    50.5000 </r>
       <r>    16.9416     0.0000    50.5000 </r>
       <r>    17.0129     0.0000    50.5000 </r>
       <r>    17.0842     0.0000    50.5000 </r>
       <r>    17.1555     0.0000    50.5000 </r>
       <r>    17.2269     0.0000    50.5000 </r>
       <r>    17.2982     0.0000    50.5000 </r>
       <r>    17.3695     0.0000    50.5000 </r>
       <r>    17.4408     0.0000    50.5000 </r>
       <r>    17.5121     0.0000    50.5000 </r>
       <r>    17.5834     0.0000    50.5000 </r>
       <r>    17.6547     0.0000    50.5000 </r>
       <r>    17.7261     0.0633    50.5045 </r>
       <r>    17.7974     4.8342    50.8493 </r>
       <r>    17.8687    14.0546    51.8516 </r>
       <r>    17.9400     2.0711    51.9993 </r>
       <r>    18.0113     0.0100    52.0000 </r>
       <r>    18.0826     0.0000    52.0000 </r>
       <r>    18.1540     0.0000    52.0000 </r>
       <r>    18.2253     0.0000    52.0000 </r>
       <r>    18.2966     0.0000    52.0000 </r>
       <r>    18.3679     0.0000    52.0000 </r>
       <r>    18.4392     0.0000    52.0000 </r>
       <r>    18.5105     0.0000    52.0000 </r>
       <r>    18.5818     0.0000    52.0000 </r>
       <r>    18.6532     0.0000    52.0000 </r>
       <r>    18.7245     0.0000    52.0000 </r>
       <r>    18.7958     0.0000    52.0000 </r>
      </set>
     </set>
    </array>
   </total>
  </dos>
 </calculation>
 <structure name="finalpos" >
  <crystal>
   <varray name="basis" >
    <v>       3.57743067       0.00000000       0.00000000 </v>
    <v>       0.00000000       3.57743067       0.00000000 </v>
    <v>       0.00000000       0.00000000       3.57743067 </v>
   </varray>
   <i name="volume">     45.78399426 </i>
   <varray name="rec_basis" >
    <v>       0.27953022      -0.00000000       0.00000000 </v>
    <v>       0.00000000       0.27953022       0.00000000 </v>
    <v>      -0.00000000      -0.00000000       0.27953022 </v>
   </varray>
  </crystal>
  <varray name="positions" >
   <v>       0.00000000       0.00000000       0.00000000 </v>
   <v>       0.00000000       0.50000000       0.50000000 </v>
   <v>       0.50000000       0.00000000       0.50000000 </v>
   <v>       0.50000000       0.50000000       0.00000000 </v>
  </varray>
 </structure>
</modeling>
