PREC=Normal
ENCUT=450
IBRION=-1
ISPIN=1
NSW=0
ISIF=3
EDIFF=1E-5
EDIFFG=-5E-3
ALGO=Fast
ISTART=0
ICHARG=2
ISMEAR=0
SIGMA=0.05
LWAVE=.T.
LCHARG=.T.
LREAL=.F.
LPLANE=.TRUE.
NPAR=8