Ga48 O72                                
   1.00000000000000     
     0.0000000000000000   12.4439002804583403   -0.0012323124880834
     9.2779589343741637    0.0000000000000000    0.0000000000000000
     0.0000000000000000   -2.8039878967422656  -11.4621475665980483
   Ga   O 
    48    72
Direct
  0.6591771874592022  0.0000000000000000  0.1580472661258077
  0.6591771874592022  0.0000000000000000  0.6580472661258079
  0.6591771874592022  0.3333333333333357  0.1580472661258077
  0.6591771874592022  0.3333333333333357  0.6580472661258079
  0.6591771874592022  0.6666666666666643  0.1580472661258077
  0.6591771874592022  0.6666666666666643  0.6580472661258079
  0.8408228125407978  0.1666666666666643  0.3419527338741923
  0.8408228125407978  0.1666666666666643  0.8419527338741921
  0.8408228125407978  0.5000000000000000  0.3419527338741923
  0.8408228125407978  0.5000000000000000  0.8419527338741921
  0.8408228125407978  0.8333333333333357  0.3419527338741923
  0.8408228125407978  0.8333333333333357  0.8419527338741921
  0.5911751460672192  0.1666666666666643  0.3981505672875778
  0.5911751460672192  0.1666666666666643  0.8981505672875777
  0.5911751460672192  0.5000000000000000  0.3981505672875778
  0.5911751460672192  0.5000000000000000  0.8981505672875777
  0.5911751460672192  0.8333333333333357  0.3981505672875778
  0.5911751460672192  0.8333333333333357  0.8981505672875777
  0.9088248539327808  0.0000000000000000  0.1018494327124222
  0.9088248539327808 -0.0000000000000000  0.6018494327124223
  0.9088248539327808  0.3333333333333357  0.1018494327124222
  0.9088248539327808  0.3333333333333357  0.6018494327124223
  0.9088248539327808  0.6666666666666643  0.1018494327124222
  0.9088248539327808  0.6666666666666643  0.6018494327124223
  0.1591771874592023  0.1666666666666643  0.1580472661258077
  0.1591771874592023  0.1666666666666643  0.6580472661258079
  0.1591771874592023  0.5000000000000000  0.1580472661258077
  0.1591771874592023  0.5000000000000000  0.6580472661258079
  0.1591771874592023  0.8333333333333357  0.1580472661258077
  0.1591771874592023  0.8333333333333357  0.6580472661258079
  0.3408228125407977 -0.0000000000000000  0.3419527338741923
  0.3408228125407977  0.0000000000000000  0.8419527338741921
  0.3408228125407977  0.3333333333333357  0.3419527338741923
  0.3408228125407977  0.3333333333333357  0.8419527338741921
  0.3408228125407977  0.6666666666666643  0.3419527338741923
  0.3408228125407977  0.6666666666666643  0.8419527338741921
  0.0911751460672192 -0.0000000000000000  0.3981505672875778
  0.0911751460672192  0.0000000000000000  0.8981505672875777
  0.0911751460672192  0.3333333333333357  0.3981505672875778
  0.0911751460672192  0.3333333333333357  0.8981505672875777
  0.0911751460672192  0.6666666666666643  0.3981505672875778
  0.0911751460672192  0.6666666666666643  0.8981505672875777
  0.4088248539327808  0.1666666666666643  0.1018494327124222
  0.4088248539327808  0.1666666666666643  0.6018494327124223
  0.4088248539327808  0.5000000000000000  0.1018494327124222
  0.4088248539327808  0.5000000000000000  0.6018494327124223
  0.4088248539327808  0.8333333333333357  0.1018494327124222
  0.4088248539327808  0.8333333333333357  0.6018494327124223
  0.9966007501569478  0.1666666666666643  0.1279601931798763
  0.9966007501569478  0.1666666666666643  0.6279601931798761
  0.9966007501569478  0.5000000000000000  0.1279601931798763
  0.9966007501569478  0.5000000000000000  0.6279601931798761
  0.9966007501569478  0.8333333333333357  0.1279601931798763
  0.9966007501569478  0.8333333333333357  0.6279601931798761
  0.5033992498430522 -0.0000000000000000  0.3720398068201237
  0.5033992498430522  0.0000000000000000  0.8720398068201239
  0.5033992498430522  0.3333333333333357  0.3720398068201237
  0.5033992498430522  0.3333333333333357  0.8720398068201239
  0.5033992498430522  0.6666666666666643  0.3720398068201237
  0.5033992498430522  0.6666666666666643  0.8720398068201239
  0.6732712140273970  0.1666666666666643  0.2804121951422583
  0.6732712140273970  0.1666666666666643  0.7804121951422579
  0.6732712140273970  0.5000000000000000  0.2804121951422583
  0.6732712140273970  0.5000000000000000  0.7804121951422579
  0.6732712140273970  0.8333333333333357  0.2804121951422583
  0.6732712140273970  0.8333333333333357  0.7804121951422579
  0.8267287859726030 -0.0000000000000000  0.2195878048577418
  0.8267287859726030  0.0000000000000000  0.7195878048577421
  0.8267287859726030  0.3333333333333357  0.2195878048577418
  0.8267287859726030  0.3333333333333357  0.7195878048577421
  0.8267287859726030  0.6666666666666643  0.2195878048577418
  0.8267287859726030  0.6666666666666643  0.7195878048577421
  0.8329253952975327 -0.0000000000000000  0.4443022198111566
  0.8329253952975327 -0.0000000000000000  0.9443022198111566
  0.8329253952975327  0.3333333333333357  0.4443022198111566
  0.8329253952975327  0.3333333333333357  0.9443022198111566
  0.8329253952975327  0.6666666666666643  0.4443022198111566
  0.8329253952975327  0.6666666666666643  0.9443022198111566
  0.6670746047024602  0.1666666666666643  0.0556977801888433
  0.6670746047024602  0.1666666666666643  0.5556977801888434
  0.6670746047024602  0.5000000000000000  0.0556977801888433
  0.6670746047024602  0.5000000000000000  0.5556977801888434
  0.6670746047024602  0.8333333333333357  0.0556977801888433
  0.6670746047024602  0.8333333333333357  0.5556977801888434
  0.4966007501569480 -0.0000000000000000  0.1279601931798763
  0.4966007501569480 -0.0000000000000000  0.6279601931798761
  0.4966007501569480  0.3333333333333357  0.1279601931798763
  0.4966007501569480  0.3333333333333357  0.6279601931798761
  0.4966007501569480  0.6666666666666643  0.1279601931798763
  0.4966007501569480  0.6666666666666643  0.6279601931798761
  0.0033992498430520  0.1666666666666643  0.3720398068201237
  0.0033992498430520  0.1666666666666643  0.8720398068201239
  0.0033992498430520  0.5000000000000000  0.3720398068201237
  0.0033992498430520  0.5000000000000000  0.8720398068201239
  0.0033992498430520  0.8333333333333357  0.3720398068201237
  0.0033992498430520  0.8333333333333357  0.8720398068201239
  0.1732712140273969 -0.0000000000000000  0.2804121951422583
  0.1732712140273969 -0.0000000000000000  0.7804121951422579
  0.1732712140273969  0.3333333333333357  0.2804121951422583
  0.1732712140273969  0.3333333333333357  0.7804121951422579
  0.1732712140273969  0.6666666666666643  0.2804121951422583
  0.1732712140273969  0.6666666666666643  0.7804121951422579
  0.3267287859726031  0.1666666666666643  0.2195878048577418
  0.3267287859726031  0.1666666666666643  0.7195878048577421
  0.3267287859726031  0.5000000000000000  0.2195878048577418
  0.3267287859726031  0.5000000000000000  0.7195878048577421
  0.3267287859726031  0.8333333333333357  0.2195878048577418
  0.3267287859726031  0.8333333333333357  0.7195878048577421
  0.3329253952975326  0.1666666666666643  0.4443022198111566
  0.3329253952975326  0.1666666666666643  0.9443022198111566
  0.3329253952975326  0.5000000000000000  0.4443022198111566
  0.3329253952975326  0.5000000000000000  0.9443022198111566
  0.3329253952975326  0.8333333333333357  0.4443022198111566
  0.3329253952975326  0.8333333333333357  0.9443022198111566
  0.1670746047024602 -0.0000000000000000  0.0556977801888433
  0.1670746047024602  0.0000000000000000  0.5556977801888434
  0.1670746047024602  0.3333333333333357  0.0556977801888433
  0.1670746047024602  0.3333333333333357  0.5556977801888434
  0.1670746047024602  0.6666666666666643  0.0556977801888433
  0.1670746047024602  0.6666666666666643  0.5556977801888434
 
  0.00000000E+00  0.00000000E+00  0.00000000E+00
  0.00000000E+00  0.00000000E+00  0.00000000E+00
  0.00000000E+00  0.00000000E+00  0.00000000E+00
  0.00000000E+00  0.00000000E+00  0.00000000E+00
  0.00000000E+00  0.00000000E+00  0.00000000E+00
  0.00000000E+00  0.00000000E+00  0.00000000E+00
  0.00000000E+00  0.00000000E+00  0.00000000E+00
  0.00000000E+00  0.00000000E+00  0.00000000E+00
  0.00000000E+00  0.00000000E+00  0.00000000E+00
  0.00000000E+00  0.00000000E+00  0.00000000E+00
  0.00000000E+00  0.00000000E+00  0.00000000E+00
  0.00000000E+00  0.00000000E+00  0.00000000E+00
  0.00000000E+00  0.00000000E+00  0.00000000E+00
  0.00000000E+00  0.00000000E+00  0.00000000E+00
  0.00000000E+00  0.00000000E+00  0.00000000E+00
  0.00000000E+00  0.00000000E+00  0.00000000E+00
  0.00000000E+00  0.00000000E+00  0.00000000E+00
  0.00000000E+00  0.00000000E+00  0.00000000E+00
  0.00000000E+00  0.00000000E+00  0.00000000E+00
  0.00000000E+00  0.00000000E+00  0.00000000E+00
  0.00000000E+00  0.00000000E+00  0.00000000E+00
  0.00000000E+00  0.00000000E+00  0.00000000E+00
  0.00000000E+00  0.00000000E+00  0.00000000E+00
  0.00000000E+00  0.00000000E+00  0.00000000E+00
  0.00000000E+00  0.00000000E+00  0.00000000E+00
  0.00000000E+00  0.00000000E+00  0.00000000E+00
  0.00000000E+00  0.00000000E+00  0.00000000E+00
  0.00000000E+00  0.00000000E+00  0.00000000E+00
  0.00000000E+00  0.00000000E+00  0.00000000E+00
  0.00000000E+00  0.00000000E+00  0.00000000E+00
  0.00000000E+00  0.00000000E+00  0.00000000E+00
  0.00000000E+00  0.00000000E+00  0.00000000E+00
  0.00000000E+00  0.00000000E+00  0.00000000E+00
  0.00000000E+00  0.00000000E+00  0.00000000E+00
  0.00000000E+00  0.00000000E+00  0.00000000E+00
  0.00000000E+00  0.00000000E+00  0.00000000E+00
  0.00000000E+00  0.00000000E+00  0.00000000E+00
  0.00000000E+00  0.00000000E+00  0.00000000E+00
  0.00000000E+00  0.00000000E+00  0.00000000E+00
  0.00000000E+00  0.00000000E+00  0.00000000E+00
  0.00000000E+00  0.00000000E+00  0.00000000E+00
  0.00000000E+00  0.00000000E+00  0.00000000E+00
  0.00000000E+00  0.00000000E+00  0.00000000E+00
  0.00000000E+00  0.00000000E+00  0.00000000E+00
  0.00000000E+00  0.00000000E+00  0.00000000E+00
  0.00000000E+00  0.00000000E+00  0.00000000E+00
  0.00000000E+00  0.00000000E+00  0.00000000E+00
  0.00000000E+00  0.00000000E+00  0.00000000E+00
  0.00000000E+00  0.00000000E+00  0.00000000E+00
  0.00000000E+00  0.00000000E+00  0.00000000E+00
  0.00000000E+00  0.00000000E+00  0.00000000E+00
  0.00000000E+00  0.00000000E+00  0.00000000E+00
  0.00000000E+00  0.00000000E+00  0.00000000E+00
  0.00000000E+00  0.00000000E+00  0.00000000E+00
  0.00000000E+00  0.00000000E+00  0.00000000E+00
  0.00000000E+00  0.00000000E+00  0.00000000E+00
  0.00000000E+00  0.00000000E+00  0.00000000E+00
  0.00000000E+00  0.00000000E+00  0.00000000E+00
  0.00000000E+00  0.00000000E+00  0.00000000E+00
  0.00000000E+00  0.00000000E+00  0.00000000E+00
  0.00000000E+00  0.00000000E+00  0.00000000E+00
  0.00000000E+00  0.00000000E+00  0.00000000E+00
  0.00000000E+00  0.00000000E+00  0.00000000E+00
  0.00000000E+00  0.00000000E+00  0.00000000E+00
  0.00000000E+00  0.00000000E+00  0.00000000E+00
  0.00000000E+00  0.00000000E+00  0.00000000E+00
  0.00000000E+00  0.00000000E+00  0.00000000E+00
  0.00000000E+00  0.00000000E+00  0.00000000E+00
  0.00000000E+00  0.00000000E+00  0.00000000E+00
  0.00000000E+00  0.00000000E+00  0.00000000E+00
  0.00000000E+00  0.00000000E+00  0.00000000E+00
  0.00000000E+00  0.00000000E+00  0.00000000E+00
  0.00000000E+00  0.00000000E+00  0.00000000E+00
  0.00000000E+00  0.00000000E+00  0.00000000E+00
  0.00000000E+00  0.00000000E+00  0.00000000E+00
  0.00000000E+00  0.00000000E+00  0.00000000E+00
  0.00000000E+00  0.00000000E+00  0.00000000E+00
  0.00000000E+00  0.00000000E+00  0.00000000E+00
  0.00000000E+00  0.00000000E+00  0.00000000E+00
  0.00000000E+00  0.00000000E+00  0.00000000E+00
  0.00000000E+00  0.00000000E+00  0.00000000E+00
  0.00000000E+00  0.00000000E+00  0.00000000E+00
  0.00000000E+00  0.00000000E+00  0.00000000E+00
  0.00000000E+00  0.00000000E+00  0.00000000E+00
  0.00000000E+00  0.00000000E+00  0.00000000E+00
  0.00000000E+00  0.00000000E+00  0.00000000E+00
  0.00000000E+00  0.00000000E+00  0.00000000E+00
  0.00000000E+00  0.00000000E+00  0.00000000E+00
  0.00000000E+00  0.00000000E+00  0.00000000E+00
  0.00000000E+00  0.00000000E+00  0.00000000E+00
  0.00000000E+00  0.00000000E+00  0.00000000E+00
  0.00000000E+00  0.00000000E+00  0.00000000E+00
  0.00000000E+00  0.00000000E+00  0.00000000E+00
  0.00000000E+00  0.00000000E+00  0.00000000E+00
  0.00000000E+00  0.00000000E+00  0.00000000E+00
  0.00000000E+00  0.00000000E+00  0.00000000E+00
  0.00000000E+00  0.00000000E+00  0.00000000E+00
  0.00000000E+00  0.00000000E+00  0.00000000E+00
  0.00000000E+00  0.00000000E+00  0.00000000E+00
  0.00000000E+00  0.00000000E+00  0.00000000E+00
  0.00000000E+00  0.00000000E+00  0.00000000E+00
  0.00000000E+00  0.00000000E+00  0.00000000E+00
  0.00000000E+00  0.00000000E+00  0.00000000E+00
  0.00000000E+00  0.00000000E+00  0.00000000E+00
  0.00000000E+00  0.00000000E+00  0.00000000E+00
  0.00000000E+00  0.00000000E+00  0.00000000E+00
  0.00000000E+00  0.00000000E+00  0.00000000E+00
  0.00000000E+00  0.00000000E+00  0.00000000E+00
  0.00000000E+00  0.00000000E+00  0.00000000E+00
  0.00000000E+00  0.00000000E+00  0.00000000E+00
  0.00000000E+00  0.00000000E+00  0.00000000E+00
  0.00000000E+00  0.00000000E+00  0.00000000E+00
  0.00000000E+00  0.00000000E+00  0.00000000E+00
  0.00000000E+00  0.00000000E+00  0.00000000E+00
  0.00000000E+00  0.00000000E+00  0.00000000E+00
  0.00000000E+00  0.00000000E+00  0.00000000E+00
  0.00000000E+00  0.00000000E+00  0.00000000E+00
  0.00000000E+00  0.00000000E+00  0.00000000E+00
  0.00000000E+00  0.00000000E+00  0.00000000E+00
  0.00000000E+00  0.00000000E+00  0.00000000E+00
