Ga8 O12                                 
    1.000000000000000     
     0.0000000000000000   12.2804737091000007    0.0000000000000000
     9.1427011490000005    0.0000000000000000    0.0000000000000000
     0.0000000000000000   -2.7682616411000001  -11.3006974810000003
   Ga   O    Cu   N 
    47    71     1     1
Direct
  0.6609083865954943  0.9975487241567436  0.1542291194645813
  0.6606854229810679  0.0013358015102440  0.6565453427958658
  0.6593187828313347  0.3315500624485708  0.1575545363802533
  0.6592180028949031  0.3355458786997616  0.6582947266149546
  0.6588919871716499  0.6651477865770730  0.1567284545636980
  0.6592090566330882  0.6684249853269364  0.6570115208321070
  0.8419370681461373  0.1669753275753223  0.8423995681204204
  0.8397847747398899  0.5012093110059723  0.3463428297477549
  0.8418253489821836  0.4997979098321608  0.8451492168044368
  0.8403394529363624  0.8404963253101059  0.3423024492826698
  0.8424086069080801  0.8335818248468598  0.8411873804157040
  0.5984051739388576  0.1640079436630586  0.3984864651394986
  0.5907917305635024  0.1663039827443171  0.8971567030532555
  0.5918362429225539  0.4980278307837551  0.3981608486544488
  0.5908523453310295  0.4992728292520425  0.8985539258807336
  0.5928789935947947  0.8332759879157052  0.3962675222325984
  0.5894679485205856  0.8321643214236758  0.8949950463808420
  0.9106706162484386  0.9957099012046697  0.0998680864923571
  0.9054232735007730  0.0084997623247816  0.5927410643702871
  0.9086923013551527  0.3298693402036719  0.1054274987937518
  0.9081239953168421  0.3391270201485099  0.6019798359148822
  0.9090533080880405  0.6647104400085979  0.1037908517063286
  0.9093832574072493  0.6723926876009827  0.6015496478531190
  0.1595775821154035  0.1649837048563469  0.1579753339774825
  0.1580476760408942  0.1681435619912719  0.6561269893476052
  0.1591295426406063  0.4979551196699461  0.1585234368569104
  0.1586282939741892  0.5013758226293632  0.6565219906453308
  0.1608732047298034  0.8316655890485478  0.1573146369973770
  0.1575171997864899  0.8351982478305686  0.6564463139649632
  0.3431456059264448  0.9997507700597694  0.3440548853238283
  0.3405106415448600  0.0003505623421773  0.8431325609307194
  0.3431970844017016  0.3317354866760809  0.3445524197546206
  0.3405994123102687  0.3331623667638297  0.8431718492188125
  0.3426440428045723  0.6657033322192447  0.3440450985193735
  0.3401701687640184  0.6667869048590873  0.8430497547114939
  0.0907053338409298  0.9990243422086920  0.3975668865295248
  0.0914753315422487  0.9998406668207451  0.8976676007329871
  0.0885702468529956  0.3304970793234645  0.3980462054739462
  0.0919882505706795  0.3331223995212156  0.8987382240113391
  0.0911036421543301  0.6653214979416191  0.3977250809961603
  0.0922286531681067  0.6660146048411875  0.8990236201070232
  0.4097702717589371  0.1654146435586767  0.1027467055923665
  0.4100698173713155  0.1672921951604280  0.6031041900645988
  0.4076621313343551  0.4985018551104687  0.1019667137930753
  0.4094055918758173  0.5012946538474807  0.6032630037684683
  0.4100180665353719  0.8322235790511812  0.1020636144644413
  0.4086512101040256  0.8347263937714757  0.6026153871944544
  0.9971042060704107  0.1637169824386220  0.1289369053832701
  0.9967201999564210  0.1726311889623915  0.6303504699822398
  0.9965789938982397  0.4972713782938101  0.1286700414525370
  0.9973897344384852  0.5054753019850509  0.6299415999235265
  0.9992812459281808  0.8294657025440486  0.1254930722003067
  0.9956435610884569  0.8401570129443385  0.6273532532860457
  0.5054612096979909  0.0002661525884520  0.3735050682749304
  0.5028847329453896  0.9998362761620285  0.8711516672658419
  0.5060185450888852  0.3298290692054024  0.3737611756557015
  0.5030083601860369  0.3330160657768815  0.8727512776194146
  0.5045993079834759  0.6660008941510043  0.3736163195343494
  0.5023352201634950  0.6650405730030400  0.8711624151219013
  0.6689875087686161  0.1662152520939131  0.2738517913013041
  0.6731296210984112  0.1675116761978401  0.7814494706246009
  0.6705998805703715  0.5001430838872380  0.2791378475444617
  0.6731668025013562  0.5013047624516958  0.7824168286238660
  0.6684457517072602  0.8288525763911920  0.2754891548909200
  0.6728291912755111  0.8338478941426430  0.7796791683937485
  0.8243995225460807  0.9839963563794853  0.2080386272791799
  0.8287239102124957  0.0018478671217395  0.7178917458083660
  0.8279435755421005  0.3313731364860004  0.2234428629215444
  0.8280555442522299  0.3355003903100808  0.7217834126640952
  0.8274786649570913  0.6632209681093784  0.2199379334788816
  0.8279494584454525  0.6675630374223971  0.7195365419698305
  0.8341861995092472  0.9992219108073641  0.9433233639624845
  0.8229110149856851  0.3482499240840724  0.4519712390811179
  0.8340214963708519  0.3323744998381244  0.9477523019426073
  0.8315031927172782  0.6720752331600863  0.4455597550134272
  0.8340915421962620  0.6672504295315917  0.9461084348160043
  0.6683304765542033  0.1663905737690499  0.0524265417327996
  0.6651876031789570  0.1697418068541197  0.5571885797727631
  0.6685330927374551  0.4978459713951651  0.0544350187145213
  0.6644962242005832  0.5023086226466802  0.5560330802472322
  0.6642753063967248  0.8290724585267952  0.0506162452182295
  0.6681534014082260  0.8342726865243648  0.5538089749739612
  0.4966774864548995  0.9989557858036875  0.1253386765592452
  0.4970354797098437  0.0003198844904091  0.6281148925970186
  0.4956991745443773  0.3328766522276467  0.1256344987095730
  0.4961848145122403  0.3346639679119434  0.6298511698779947
  0.4950664992519833  0.6642580773937681  0.1254106509832056
  0.4961666570753920  0.6684084484161090  0.6284540035975326
  0.0021751769357508  0.1634489770634389  0.3764933148944323
  0.0048289114686426  0.1667629027071200  0.8746976287834940
  0.0035017210719133  0.4990672926817012  0.3742804586173705
  0.0047110747199284  0.4997440218646432  0.8744121566925500
  0.0048736690400233  0.8318973971219279  0.3710197265368436
  0.0052025581736359  0.8325919616934243  0.8729932276361936
  0.1740263285026344  0.9987257238181542  0.2811969406024915
  0.1728667811903932  0.0014148661726665  0.7807125761734071
  0.1727926856171536  0.3311170201812246  0.2823091182221802
  0.1729170578401522  0.3344335260147488  0.7811348604492494
  0.1740982860839395  0.6645151060165375  0.2814775763710742
  0.1725518996994708  0.6682703843690376  0.7808202229466303
  0.3282808990972583  0.1655423085616761  0.2200762198528778
  0.3272426969000222  0.1674635880320992  0.7193890684588169
  0.3280641576583250  0.4975730936597174  0.2206678126725663
  0.3268381139771961  0.5008347772539352  0.7194022216611629
  0.3288763610296215  0.8322776679567241  0.2198938598655786
  0.3268610157618070  0.8341659265033101  0.7194062413421349
  0.3331066110118783  0.1659670716770947  0.4466648237262518
  0.3320561814442513  0.1665013113013813  0.9460491485935449
  0.3339766020494537  0.4992071552218604  0.4464008894354876
  0.3309047397945264  0.4996371830960413  0.9452931705618397
  0.3329536466583676  0.8330530422538800  0.4458173955523748
  0.3319170364815704  0.8333077879058308  0.9456457079994607
  0.1687300042105804  0.9989488107224531  0.0545153644086156
  0.1686207370831241  0.0010608151933269  0.5544481927305966
  0.1686636180087859  0.3319788823444938  0.0555849662590475
  0.1681106091510784  0.3347618933621632  0.5542988263757493
  0.1701420038230452  0.6640466781869279  0.0553465436398852
  0.1681622747530938  0.6681164388476120  0.5544556329267039
  0.8380332309158902  0.1665225113361117  0.3401005530943380
  0.8168638189634763  0.0096119797827043  0.4374543294449893
 
  0.00000000E+00  0.00000000E+00  0.00000000E+00
  0.00000000E+00  0.00000000E+00  0.00000000E+00
  0.00000000E+00  0.00000000E+00  0.00000000E+00
  0.00000000E+00  0.00000000E+00  0.00000000E+00
  0.00000000E+00  0.00000000E+00  0.00000000E+00
  0.00000000E+00  0.00000000E+00  0.00000000E+00
  0.00000000E+00  0.00000000E+00  0.00000000E+00
  0.00000000E+00  0.00000000E+00  0.00000000E+00
  0.00000000E+00  0.00000000E+00  0.00000000E+00
  0.00000000E+00  0.00000000E+00  0.00000000E+00
  0.00000000E+00  0.00000000E+00  0.00000000E+00
  0.00000000E+00  0.00000000E+00  0.00000000E+00
  0.00000000E+00  0.00000000E+00  0.00000000E+00
  0.00000000E+00  0.00000000E+00  0.00000000E+00
  0.00000000E+00  0.00000000E+00  0.00000000E+00
  0.00000000E+00  0.00000000E+00  0.00000000E+00
  0.00000000E+00  0.00000000E+00  0.00000000E+00
  0.00000000E+00  0.00000000E+00  0.00000000E+00
  0.00000000E+00  0.00000000E+00  0.00000000E+00
  0.00000000E+00  0.00000000E+00  0.00000000E+00
  0.00000000E+00  0.00000000E+00  0.00000000E+00
  0.00000000E+00  0.00000000E+00  0.00000000E+00
  0.00000000E+00  0.00000000E+00  0.00000000E+00
  0.00000000E+00  0.00000000E+00  0.00000000E+00
  0.00000000E+00  0.00000000E+00  0.00000000E+00
  0.00000000E+00  0.00000000E+00  0.00000000E+00
  0.00000000E+00  0.00000000E+00  0.00000000E+00
  0.00000000E+00  0.00000000E+00  0.00000000E+00
  0.00000000E+00  0.00000000E+00  0.00000000E+00
  0.00000000E+00  0.00000000E+00  0.00000000E+00
  0.00000000E+00  0.00000000E+00  0.00000000E+00
  0.00000000E+00  0.00000000E+00  0.00000000E+00
  0.00000000E+00  0.00000000E+00  0.00000000E+00
  0.00000000E+00  0.00000000E+00  0.00000000E+00
  0.00000000E+00  0.00000000E+00  0.00000000E+00
  0.00000000E+00  0.00000000E+00  0.00000000E+00
  0.00000000E+00  0.00000000E+00  0.00000000E+00
  0.00000000E+00  0.00000000E+00  0.00000000E+00
  0.00000000E+00  0.00000000E+00  0.00000000E+00
  0.00000000E+00  0.00000000E+00  0.00000000E+00
  0.00000000E+00  0.00000000E+00  0.00000000E+00
  0.00000000E+00  0.00000000E+00  0.00000000E+00
  0.00000000E+00  0.00000000E+00  0.00000000E+00
  0.00000000E+00  0.00000000E+00  0.00000000E+00
  0.00000000E+00  0.00000000E+00  0.00000000E+00
  0.00000000E+00  0.00000000E+00  0.00000000E+00
  0.00000000E+00  0.00000000E+00  0.00000000E+00
  0.00000000E+00  0.00000000E+00  0.00000000E+00
  0.00000000E+00  0.00000000E+00  0.00000000E+00
  0.00000000E+00  0.00000000E+00  0.00000000E+00
  0.00000000E+00  0.00000000E+00  0.00000000E+00
  0.00000000E+00  0.00000000E+00  0.00000000E+00
  0.00000000E+00  0.00000000E+00  0.00000000E+00
  0.00000000E+00  0.00000000E+00  0.00000000E+00
  0.00000000E+00  0.00000000E+00  0.00000000E+00
  0.00000000E+00  0.00000000E+00  0.00000000E+00
  0.00000000E+00  0.00000000E+00  0.00000000E+00
  0.00000000E+00  0.00000000E+00  0.00000000E+00
  0.00000000E+00  0.00000000E+00  0.00000000E+00
  0.00000000E+00  0.00000000E+00  0.00000000E+00
  0.00000000E+00  0.00000000E+00  0.00000000E+00
  0.00000000E+00  0.00000000E+00  0.00000000E+00
  0.00000000E+00  0.00000000E+00  0.00000000E+00
  0.00000000E+00  0.00000000E+00  0.00000000E+00
  0.00000000E+00  0.00000000E+00  0.00000000E+00
  0.00000000E+00  0.00000000E+00  0.00000000E+00
  0.00000000E+00  0.00000000E+00  0.00000000E+00
  0.00000000E+00  0.00000000E+00  0.00000000E+00
  0.00000000E+00  0.00000000E+00  0.00000000E+00
  0.00000000E+00  0.00000000E+00  0.00000000E+00
  0.00000000E+00  0.00000000E+00  0.00000000E+00
  0.00000000E+00  0.00000000E+00  0.00000000E+00
  0.00000000E+00  0.00000000E+00  0.00000000E+00
  0.00000000E+00  0.00000000E+00  0.00000000E+00
  0.00000000E+00  0.00000000E+00  0.00000000E+00
  0.00000000E+00  0.00000000E+00  0.00000000E+00
  0.00000000E+00  0.00000000E+00  0.00000000E+00
  0.00000000E+00  0.00000000E+00  0.00000000E+00
  0.00000000E+00  0.00000000E+00  0.00000000E+00
  0.00000000E+00  0.00000000E+00  0.00000000E+00
  0.00000000E+00  0.00000000E+00  0.00000000E+00
  0.00000000E+00  0.00000000E+00  0.00000000E+00
  0.00000000E+00  0.00000000E+00  0.00000000E+00
  0.00000000E+00  0.00000000E+00  0.00000000E+00
  0.00000000E+00  0.00000000E+00  0.00000000E+00
  0.00000000E+00  0.00000000E+00  0.00000000E+00
  0.00000000E+00  0.00000000E+00  0.00000000E+00
  0.00000000E+00  0.00000000E+00  0.00000000E+00
  0.00000000E+00  0.00000000E+00  0.00000000E+00
  0.00000000E+00  0.00000000E+00  0.00000000E+00
  0.00000000E+00  0.00000000E+00  0.00000000E+00
  0.00000000E+00  0.00000000E+00  0.00000000E+00
  0.00000000E+00  0.00000000E+00  0.00000000E+00
  0.00000000E+00  0.00000000E+00  0.00000000E+00
  0.00000000E+00  0.00000000E+00  0.00000000E+00
  0.00000000E+00  0.00000000E+00  0.00000000E+00
  0.00000000E+00  0.00000000E+00  0.00000000E+00
  0.00000000E+00  0.00000000E+00  0.00000000E+00
  0.00000000E+00  0.00000000E+00  0.00000000E+00
  0.00000000E+00  0.00000000E+00  0.00000000E+00
  0.00000000E+00  0.00000000E+00  0.00000000E+00
  0.00000000E+00  0.00000000E+00  0.00000000E+00
  0.00000000E+00  0.00000000E+00  0.00000000E+00
  0.00000000E+00  0.00000000E+00  0.00000000E+00
  0.00000000E+00  0.00000000E+00  0.00000000E+00
  0.00000000E+00  0.00000000E+00  0.00000000E+00
  0.00000000E+00  0.00000000E+00  0.00000000E+00
  0.00000000E+00  0.00000000E+00  0.00000000E+00
  0.00000000E+00  0.00000000E+00  0.00000000E+00
  0.00000000E+00  0.00000000E+00  0.00000000E+00
  0.00000000E+00  0.00000000E+00  0.00000000E+00
  0.00000000E+00  0.00000000E+00  0.00000000E+00
  0.00000000E+00  0.00000000E+00  0.00000000E+00
  0.00000000E+00  0.00000000E+00  0.00000000E+00
  0.00000000E+00  0.00000000E+00  0.00000000E+00
  0.00000000E+00  0.00000000E+00  0.00000000E+00
  0.00000000E+00  0.00000000E+00  0.00000000E+00
  0.00000000E+00  0.00000000E+00  0.00000000E+00
  0.00000000E+00  0.00000000E+00  0.00000000E+00
  0.00000000E+00  0.00000000E+00  0.00000000E+00
