       N       E                     dE             d eps       ncg     rms          ort
DAV:   1    -0.184610287182E+05   -0.18461E+05   -0.54682E+05  5056   0.743E+03
DAV:   2    -0.623574064685E+05   -0.43896E+05   -0.42599E+05  5056   0.120E+03
DAV:   3    -0.668751381350E+05   -0.45177E+04   -0.40351E+04  5056   0.351E+02
DAV:   4    -0.674084077911E+05   -0.53327E+03   -0.45451E+03  5056   0.103E+02
DAV:   5    -0.373487130170E+05    0.30060E+05   -0.72276E+02  5056   0.533E+01
SDA:   6     0.191932137323E+05    0.56542E+05   -0.72276E+02  5056   0.128E+06 0.000E+00
CGA:   7     0.515282593021E+04   -0.14040E+05   -0.15852E+05  5056   0.358E+05-0.435E+04
CGA:   8     0.118051012615E+04   -0.39723E+04   -0.37948E+04  5056   0.559E+04 0.121E+04
CGA:   9     0.399016389671E+03   -0.78149E+03   -0.71615E+03  5056   0.456E+04-0.687E+02
CGA:  10     0.683865305234E+02   -0.33063E+03   -0.44487E+03  5056   0.868E+04-0.866E+03
CGA:  11    -0.510298314421E+02   -0.11942E+03   -0.38812E+03  5056   0.437E+04-0.141E+04
CGA:  12    -0.329154323082E+03   -0.27812E+03   -0.35707E+03  5056   0.200E+04-0.877E+02
CGA:  13    -0.588247640535E+03   -0.25909E+03   -0.26714E+03  5056   0.740E+03 0.491E+02
CGA:  14    -0.734629568499E+03   -0.14638E+03   -0.14562E+03  5056   0.424E+03 0.164E+02
CGA:  15    -0.829454205860E+03   -0.94825E+02   -0.94727E+02  5056   0.240E+03-0.102E+01
CGA:  16    -0.880060273402E+03   -0.50606E+02   -0.50611E+02  5056   0.135E+03-0.182E+01
CGA:  17    -0.910558580430E+03   -0.30498E+02   -0.33251E+02  5056   0.895E+02-0.260E+02
CGA:  18    -0.923794244913E+03   -0.13236E+02   -0.13235E+02  5056   0.504E+02 0.350E+00
CGA:  19    -0.933226955468E+03   -0.94327E+01   -0.94305E+01  5056   0.254E+02 0.183E+00
CGA:  20    -0.939012365576E+03   -0.57854E+01   -0.57905E+01  5056   0.165E+02-0.168E+00
CGA:  21    -0.942679402585E+03   -0.36670E+01   -0.36727E+01  5056   0.999E+01-0.131E+00
CGA:  22    -0.944710259527E+03   -0.20309E+01   -0.20320E+01  5056   0.576E+01-0.431E-01
CGA:  23    -0.945860697208E+03   -0.11504E+01   -0.11512E+01  5056   0.345E+01-0.187E-01
CGA:  24    -0.946535962161E+03   -0.67526E+00   -0.67528E+00  5056   0.194E+01 0.104E-01
CGA:  25    -0.946920123286E+03   -0.38416E+00   -0.38406E+00  5056   0.105E+01 0.106E-01
CGA:  26    -0.947149467892E+03   -0.22934E+00   -0.22911E+00  5056   0.639E+00 0.666E-02
CGA:  27    -0.947297286879E+03   -0.14782E+00   -0.14764E+00  5056   0.418E+00 0.370E-02
CGA:  28    -0.947386254363E+03   -0.88967E-01   -0.88919E-01  5056   0.258E+00 0.179E-02
CGA:  29    -0.947439103865E+03   -0.52850E-01   -0.52841E-01  5056   0.161E+00 0.547E-03
CGA:  30    -0.947471638618E+03   -0.32535E-01   -0.32534E-01  5056   0.928E-01 0.592E-04
CGA:  31    -0.947491108642E+03   -0.19470E-01   -0.19470E-01  5056   0.517E-01-0.184E-04
CGA:  32    -0.947502758508E+03   -0.11650E-01   -0.11650E-01  5056   0.299E-01-0.272E-04
CGA:  33    -0.947509941699E+03   -0.71832E-02   -0.71825E-02  5056   0.180E-01 0.117E-04
CGA:  34    -0.947514389700E+03   -0.44480E-02   -0.44473E-02  5056   0.117E-01 0.162E-04
CGA:  35    -0.947517143142E+03   -0.27534E-02   -0.27534E-02  5056   0.735E-02 0.373E-05
CGA:  36    -0.947518755230E+03   -0.16121E-02   -0.16122E-02  5056   0.456E-02-0.516E-05
SDA:  37    -0.947519734690E+03   -0.97946E-03   -0.97947E-03  5056   0.277E-02-0.586E-06
CGA:  38    -0.947520833560E+03   -0.10989E-02   -0.10942E-02  5056   0.761E-03 0.246E-04
CGA:  39    -0.947521158918E+03   -0.32536E-03   -0.32323E-03  5056   0.339E-03 0.102E-04
CGA:  40    -0.947521245650E+03   -0.86732E-04   -0.86737E-04  5056   0.139E-03-0.214E-06
CGA:  41    -0.947521278736E+03   -0.33086E-04   -0.33082E-04  5056   0.549E-04 0.313E-06
CGA:  42    -0.947521295390E+03   -0.16654E-04   -0.16488E-04  5056   0.159E-04 0.225E-05
CGA:  43    -0.947521300671E+03   -0.52810E-05   -0.52831E-05  5056   0.705E-05-0.228E-07
   1 F= -.94752130E+03 E0= -.94752130E+03  d E =-.148641E-15
