Ga8 O12                                 
    1.000000000000000     
     0.0000000000000000   12.2804737091000007    0.0000000000000000
     9.1427011490000005    0.0000000000000000    0.0000000000000000
     0.0000000000000000   -2.7682616411000001  -11.3006974810000003
   Ga   O    Fe
    47    72     1
Direct
  0.6597601030285674  0.0000000000000000  0.1569160774539000
  0.6585613622940514  0.0000000000000000  0.6561276321569380
  0.6601918475674609  0.3329712151567250  0.1578495950581100
  0.6579821009423412  0.3333052632152089  0.6562929109740026
  0.6601918475674609  0.6670287848432750  0.1578495950581100
  0.6579821009423412  0.6666947367847911  0.6562929109740026
  0.8441622135863511  0.1641479507637982  0.3438856146776033
  0.8399800791934240  0.1663521851389120  0.8431477853519098
  0.8429213579000034  0.5000000000000000  0.3434513781487709
  0.8397455395827080  0.5000000000000000  0.8426181831634594
  0.8441622135863511  0.8358520492362018  0.3438856146776033
  0.8399800791934240  0.8336478148610880  0.8431477853519098
  0.5916945218645608  0.1666464231690412  0.3971834346426206
  0.5910392614531474  0.1666383244649055  0.8978508844183679
  0.5899558127549227  0.5000000000000000  0.3970562254571490
  0.5916302120119354  0.5000000000000000  0.8986714492411281
  0.5916945218645608  0.8333535768309588  0.3971834346426206
  0.5910392614531474  0.8333616755350945  0.8978508844183679
  0.9101397029144209  0.0000000000000000  0.1029794919148230
  0.9092676112376452  0.0000000000000000  0.6022098760467500
  0.9084306239962956  0.3336478503699425  0.1011885436564910
  0.9083591950007204  0.3336921577445509  0.6030450993975052
  0.9084306239962956  0.6663521496300504  0.1011885436564910
  0.9083591950007204  0.6663078422554491  0.6030450993975052
  0.1584395981695437  0.1667866708873618  0.1548273783021799
  0.1574320133757823  0.1688613870173228  0.6596425160086881
  0.1586984407433008  0.5000000000000000  0.1568465008379718
  0.1585510004252413  0.5000000000000000  0.6559237419325754
  0.1584395981695437  0.8332133291126382  0.1548273783021799
  0.1574320133757823  0.8311386129826772  0.6596425160086881
  0.3412483952701280  0.0000000000000000  0.3406670903599291
  0.3408901676350311  0.0000000000000000  0.8435682597678564
  0.3400256697062929  0.3331387849111636  0.3429173834958164
  0.3413713262057385  0.3335895987917539  0.8436127191624578
  0.3400256697062929  0.6668612150888364  0.3429173834958164
  0.3413713262057385  0.6664104012082461  0.8436127191624578
  0.0894584803326595  0.0000000000000000  0.8972806765188324
  0.0912382687250144  0.3303414614506437  0.3975612426184938
  0.0902254667817530  0.3336353677510218  0.8977975018618878
  0.0912382687250144  0.6696585385493563  0.3975612426184938
  0.0902254667817530  0.6663646322489782  0.8977975018618878
  0.4099219851101807  0.1669308960350975  0.1024278539413288
  0.4075432978630786  0.1663506472675280  0.6013243792831346
  0.4093191604748796  0.5000000000000000  0.1026991885907265
  0.4082022512048269  0.5000000000000000  0.6021561069148973
  0.4099219851101807  0.8330691039649025  0.1024278539413288
  0.4075432978630786  0.8336493527324720  0.6013243792831346
  0.9960280357783446  0.1676511207336588  0.1258124644583418
  0.9954040364178525  0.1673985939534361  0.6294183734504912
  0.9961015374514162  0.5000000000000000  0.1261284712724446
  0.9961500411977440  0.5000000000000000  0.6283440743202249
  0.9960280357783446  0.8323488792663412  0.1258124644583418
  0.9954040364178525  0.8326014060465639  0.6294183734504912
  0.5037181815720260  0.0000000000000000  0.3731088569988472
  0.5035706582465878  0.0000000000000000  0.8725738636377542
  0.5028750914711111  0.3326120624065325  0.3730338821839752
  0.5038566543168415  0.3335609065874792  0.8727057863320269
  0.5028750914711111  0.6673879375934675  0.3730338821839752
  0.5038566543168415  0.6664390934125208  0.8727057863320269
  0.6738352852586615  0.1668633142422564  0.2808819395241358
  0.6716600778605866  0.1664708778253399  0.7799317156611991
  0.6738628244134901  0.5000000000000000  0.2817013702162470
  0.6710816610499037  0.5000000000000000  0.7796826220008626
  0.6738352852586615  0.8331366857577436  0.2808819395241358
  0.6716600778605866  0.8335291221746601  0.7799317156611991
  0.8279610179335393  0.0000000000000000  0.2195287756926660
  0.8269463654503539  0.0000000000000000  0.7193590089966690
  0.8294745902010234  0.3323848944369061  0.2205052394196869
  0.8262044840122513  0.3337455542296865  0.7192913622533652
  0.8294745902010234  0.6676151055630939  0.2205052394196869
  0.8262044840122513  0.6662544457703135  0.7192913622533652
  0.8308694134917118  0.0000000000000000  0.4463206236349677
  0.8319684500540419  0.0000000000000000  0.9462000516363815
  0.8358658021259231  0.3321047166753885  0.4452533539211316
  0.8305058538871890  0.3335645145184287  0.9450778361590508
  0.8358658021259231  0.6678952833246115  0.4452533539211316
  0.8305058538871890  0.6664354854815713  0.9450778361590508
  0.6680815443692083  0.1668266417012063  0.0544449870673773
  0.6676782013064440  0.1669673462844017  0.5539623342167985
  0.6689975663733634  0.5000000000000000  0.0553450752716955
  0.6674975282580675  0.5000000000000000  0.5535243712605364
  0.6680815443692083  0.8331733582987937  0.0544449870673773
  0.6676782013064440  0.8330326537155983  0.5539623342167985
  0.4970529570983047  0.0000000000000000  0.1279887181086963
  0.4954089413194609  0.0000000000000000  0.6258926060432870
  0.4972531359425716  0.3336757023054631  0.1280750626820293
  0.4951105696550542  0.3328144363031385  0.6260240176384926
  0.4972531359425716  0.6663242976945369  0.1280750626820293
  0.4951105696550542  0.6671855636968615  0.6260240176384926
  0.0089704144984353  0.1569861727114059  0.3743699776202760
  0.0026319474431205  0.1672016375368344  0.8728614476899565
  0.0055916360605792  0.5000000000000000  0.3727679977304703
  0.0025837396509445  0.5000000000000000  0.8727650398782032
  0.0089704144984353  0.8430138272885941  0.3743699776202760
  0.0026319474431205  0.8327983624631656  0.8728614476899565
  0.1692840093993198  0.0000000000000000  0.2734301503254244
  0.1725755668000488  0.0000000000000000  0.7821751231750369
  0.1722246785177433  0.3331970370907342  0.2797851658271924
  0.1725313231489025  0.3339843904278510  0.7812891353905727
  0.1722246785177433  0.6668029629092658  0.2797851658271924
  0.1725313231489025  0.6660156095721490  0.7812891353905727
  0.3278989755276598  0.1666186705631105  0.2193766973400528
  0.3265253777239039  0.1661019166941173  0.7189756617945235
  0.3274454602636112  0.5000000000000000  0.2195378249267250
  0.3270495278918020  0.5000000000000000  0.7195461316574665
  0.3278989755276598  0.8333813294368895  0.2193766973400528
  0.3265253777239039  0.8338980833058827  0.7189756617945235
  0.3277368222069228  0.1645831717156554  0.4447649057761467
  0.3333347500035870  0.1670582083282710  0.9458837208531676
  0.3314386887821996  0.5000000000000000  0.4454932185838913
  0.3327272061487534  0.5000000000000000  0.9460766062551258
  0.3277368222069228  0.8354168282843446  0.4447649057761467
  0.3333347500035870  0.8329417916717290  0.9458837208531676
  0.1686414460192438  0.0000000000000000  0.0523939579514661
  0.1593623133490993  0.0000000000000000  0.5578655280869569
  0.1682581878111264  0.3338019270554540  0.0538533843740936
  0.1671583792471125  0.3328666059579959  0.5546551397189532
  0.1682581878111264  0.6661980729445460  0.0538533843740936
  0.1671583792471125  0.6671333940420041  0.5546551397189532
  0.1054802873674987  0.0000000000000000  0.4015011854249764
 
  0.00000000E+00  0.00000000E+00  0.00000000E+00
  0.00000000E+00  0.00000000E+00  0.00000000E+00
  0.00000000E+00  0.00000000E+00  0.00000000E+00
  0.00000000E+00  0.00000000E+00  0.00000000E+00
  0.00000000E+00  0.00000000E+00  0.00000000E+00
  0.00000000E+00  0.00000000E+00  0.00000000E+00
  0.00000000E+00  0.00000000E+00  0.00000000E+00
  0.00000000E+00  0.00000000E+00  0.00000000E+00
  0.00000000E+00  0.00000000E+00  0.00000000E+00
  0.00000000E+00  0.00000000E+00  0.00000000E+00
  0.00000000E+00  0.00000000E+00  0.00000000E+00
  0.00000000E+00  0.00000000E+00  0.00000000E+00
  0.00000000E+00  0.00000000E+00  0.00000000E+00
  0.00000000E+00  0.00000000E+00  0.00000000E+00
  0.00000000E+00  0.00000000E+00  0.00000000E+00
  0.00000000E+00  0.00000000E+00  0.00000000E+00
  0.00000000E+00  0.00000000E+00  0.00000000E+00
  0.00000000E+00  0.00000000E+00  0.00000000E+00
  0.00000000E+00  0.00000000E+00  0.00000000E+00
  0.00000000E+00  0.00000000E+00  0.00000000E+00
  0.00000000E+00  0.00000000E+00  0.00000000E+00
  0.00000000E+00  0.00000000E+00  0.00000000E+00
  0.00000000E+00  0.00000000E+00  0.00000000E+00
  0.00000000E+00  0.00000000E+00  0.00000000E+00
  0.00000000E+00  0.00000000E+00  0.00000000E+00
  0.00000000E+00  0.00000000E+00  0.00000000E+00
  0.00000000E+00  0.00000000E+00  0.00000000E+00
  0.00000000E+00  0.00000000E+00  0.00000000E+00
  0.00000000E+00  0.00000000E+00  0.00000000E+00
  0.00000000E+00  0.00000000E+00  0.00000000E+00
  0.00000000E+00  0.00000000E+00  0.00000000E+00
  0.00000000E+00  0.00000000E+00  0.00000000E+00
  0.00000000E+00  0.00000000E+00  0.00000000E+00
  0.00000000E+00  0.00000000E+00  0.00000000E+00
  0.00000000E+00  0.00000000E+00  0.00000000E+00
  0.00000000E+00  0.00000000E+00  0.00000000E+00
  0.00000000E+00  0.00000000E+00  0.00000000E+00
  0.00000000E+00  0.00000000E+00  0.00000000E+00
  0.00000000E+00  0.00000000E+00  0.00000000E+00
  0.00000000E+00  0.00000000E+00  0.00000000E+00
  0.00000000E+00  0.00000000E+00  0.00000000E+00
  0.00000000E+00  0.00000000E+00  0.00000000E+00
  0.00000000E+00  0.00000000E+00  0.00000000E+00
  0.00000000E+00  0.00000000E+00  0.00000000E+00
  0.00000000E+00  0.00000000E+00  0.00000000E+00
  0.00000000E+00  0.00000000E+00  0.00000000E+00
  0.00000000E+00  0.00000000E+00  0.00000000E+00
  0.00000000E+00  0.00000000E+00  0.00000000E+00
  0.00000000E+00  0.00000000E+00  0.00000000E+00
  0.00000000E+00  0.00000000E+00  0.00000000E+00
  0.00000000E+00  0.00000000E+00  0.00000000E+00
  0.00000000E+00  0.00000000E+00  0.00000000E+00
  0.00000000E+00  0.00000000E+00  0.00000000E+00
  0.00000000E+00  0.00000000E+00  0.00000000E+00
  0.00000000E+00  0.00000000E+00  0.00000000E+00
  0.00000000E+00  0.00000000E+00  0.00000000E+00
  0.00000000E+00  0.00000000E+00  0.00000000E+00
  0.00000000E+00  0.00000000E+00  0.00000000E+00
  0.00000000E+00  0.00000000E+00  0.00000000E+00
  0.00000000E+00  0.00000000E+00  0.00000000E+00
  0.00000000E+00  0.00000000E+00  0.00000000E+00
  0.00000000E+00  0.00000000E+00  0.00000000E+00
  0.00000000E+00  0.00000000E+00  0.00000000E+00
  0.00000000E+00  0.00000000E+00  0.00000000E+00
  0.00000000E+00  0.00000000E+00  0.00000000E+00
  0.00000000E+00  0.00000000E+00  0.00000000E+00
  0.00000000E+00  0.00000000E+00  0.00000000E+00
  0.00000000E+00  0.00000000E+00  0.00000000E+00
  0.00000000E+00  0.00000000E+00  0.00000000E+00
  0.00000000E+00  0.00000000E+00  0.00000000E+00
  0.00000000E+00  0.00000000E+00  0.00000000E+00
  0.00000000E+00  0.00000000E+00  0.00000000E+00
  0.00000000E+00  0.00000000E+00  0.00000000E+00
  0.00000000E+00  0.00000000E+00  0.00000000E+00
  0.00000000E+00  0.00000000E+00  0.00000000E+00
  0.00000000E+00  0.00000000E+00  0.00000000E+00
  0.00000000E+00  0.00000000E+00  0.00000000E+00
  0.00000000E+00  0.00000000E+00  0.00000000E+00
  0.00000000E+00  0.00000000E+00  0.00000000E+00
  0.00000000E+00  0.00000000E+00  0.00000000E+00
  0.00000000E+00  0.00000000E+00  0.00000000E+00
  0.00000000E+00  0.00000000E+00  0.00000000E+00
  0.00000000E+00  0.00000000E+00  0.00000000E+00
  0.00000000E+00  0.00000000E+00  0.00000000E+00
  0.00000000E+00  0.00000000E+00  0.00000000E+00
  0.00000000E+00  0.00000000E+00  0.00000000E+00
  0.00000000E+00  0.00000000E+00  0.00000000E+00
  0.00000000E+00  0.00000000E+00  0.00000000E+00
  0.00000000E+00  0.00000000E+00  0.00000000E+00
  0.00000000E+00  0.00000000E+00  0.00000000E+00
  0.00000000E+00  0.00000000E+00  0.00000000E+00
  0.00000000E+00  0.00000000E+00  0.00000000E+00
  0.00000000E+00  0.00000000E+00  0.00000000E+00
  0.00000000E+00  0.00000000E+00  0.00000000E+00
  0.00000000E+00  0.00000000E+00  0.00000000E+00
  0.00000000E+00  0.00000000E+00  0.00000000E+00
  0.00000000E+00  0.00000000E+00  0.00000000E+00
  0.00000000E+00  0.00000000E+00  0.00000000E+00
  0.00000000E+00  0.00000000E+00  0.00000000E+00
  0.00000000E+00  0.00000000E+00  0.00000000E+00
  0.00000000E+00  0.00000000E+00  0.00000000E+00
  0.00000000E+00  0.00000000E+00  0.00000000E+00
  0.00000000E+00  0.00000000E+00  0.00000000E+00
  0.00000000E+00  0.00000000E+00  0.00000000E+00
  0.00000000E+00  0.00000000E+00  0.00000000E+00
  0.00000000E+00  0.00000000E+00  0.00000000E+00
  0.00000000E+00  0.00000000E+00  0.00000000E+00
  0.00000000E+00  0.00000000E+00  0.00000000E+00
  0.00000000E+00  0.00000000E+00  0.00000000E+00
  0.00000000E+00  0.00000000E+00  0.00000000E+00
  0.00000000E+00  0.00000000E+00  0.00000000E+00
  0.00000000E+00  0.00000000E+00  0.00000000E+00
  0.00000000E+00  0.00000000E+00  0.00000000E+00
  0.00000000E+00  0.00000000E+00  0.00000000E+00
  0.00000000E+00  0.00000000E+00  0.00000000E+00
  0.00000000E+00  0.00000000E+00  0.00000000E+00
  0.00000000E+00  0.00000000E+00  0.00000000E+00
  0.00000000E+00  0.00000000E+00  0.00000000E+00
  0.00000000E+00  0.00000000E+00  0.00000000E+00
  0.00000000E+00  0.00000000E+00  0.00000000E+00
