Ga48 O72                                
    1.000000000000000     
     0.0000000000000000   12.2804734172212839    0.0000000000000000
     9.1427020537309431    0.0000000000000000    0.0000000000000000
     0.0000000000000000   -2.7682617730220320  -11.3006977184464645
   Ga   O 
    48    72
Direct
  0.6590137024930907  0.0000000000000000  0.1565943773088207
  0.6590137024930907 -0.0000000000000000  0.6565943773088206
  0.6590137024930907  0.3333333333333357  0.1565943773088207
  0.6590137024930907  0.3333333333333357  0.6565943773088206
  0.6590137024930907  0.6666666666666643  0.1565943773088207
  0.6590137024930907  0.6666666666666643  0.6565943773088206
  0.8409862975069093  0.1666666666666643  0.3434056226911793
  0.8409862975069093  0.1666666666666643  0.8434056226911794
  0.8409862975069093  0.5000000000000000  0.3434056226911793
  0.8409862975069093  0.5000000000000000  0.8434056226911794
  0.8409862975069093  0.8333333333333357  0.3434056226911793
  0.8409862975069093  0.8333333333333357  0.8434056226911794
  0.5910885129515552  0.1666666666666643  0.3975780263627152
  0.5910885129515552  0.1666666666666643  0.8975780263627153
  0.5910885129515552  0.5000000000000000  0.3975780263627152
  0.5910885129515552  0.5000000000000000  0.8975780263627153
  0.5910885129515552  0.8333333333333357  0.3975780263627152
  0.5910885129515552  0.8333333333333357  0.8975780263627153
  0.9089114870484448 -0.0000000000000000  0.1024219736372847
  0.9089114870484448  0.0000000000000000  0.6024219736372847
  0.9089114870484448  0.3333333333333357  0.1024219736372847
  0.9089114870484448  0.3333333333333357  0.6024219736372847
  0.9089114870484448  0.6666666666666643  0.1024219736372847
  0.9089114870484448  0.6666666666666643  0.6024219736372847
  0.1590137024930905  0.1666666666666643  0.1565943773088207
  0.1590137024930905  0.1666666666666643  0.6565943773088206
  0.1590137024930905  0.5000000000000000  0.1565943773088207
  0.1590137024930905  0.5000000000000000  0.6565943773088206
  0.1590137024930905  0.8333333333333357  0.1565943773088207
  0.1590137024930905  0.8333333333333357  0.6565943773088206
  0.3409862975069096 -0.0000000000000000  0.3434056226911793
  0.3409862975069095  0.0000000000000000  0.8434056226911794
  0.3409862975069096  0.3333333333333357  0.3434056226911793
  0.3409862975069095  0.3333333333333357  0.8434056226911794
  0.3409862975069096  0.6666666666666643  0.3434056226911793
  0.3409862975069095  0.6666666666666643  0.8434056226911794
  0.0910885129515550  0.0000000000000000  0.3975780263627152
  0.0910885129515550  0.0000000000000000  0.8975780263627153
  0.0910885129515550  0.3333333333333357  0.3975780263627152
  0.0910885129515550  0.3333333333333357  0.8975780263627153
  0.0910885129515550  0.6666666666666643  0.3975780263627152
  0.0910885129515550  0.6666666666666643  0.8975780263627153
  0.4089114870484449  0.1666666666666643  0.1024219736372847
  0.4089114870484449  0.1666666666666643  0.6024219736372847
  0.4089114870484449  0.5000000000000000  0.1024219736372847
  0.4089114870484449  0.5000000000000000  0.6024219736372847
  0.4089114870484449  0.8333333333333357  0.1024219736372847
  0.4089114870484449  0.8333333333333357  0.6024219736372847
  0.9963653902154805  0.1666666666666643  0.1272277070092013
  0.9963653902154805  0.1666666666666643  0.6272277070092013
  0.9963653902154805  0.5000000000000000  0.1272277070092013
  0.9963653902154805  0.5000000000000000  0.6272277070092013
  0.9963653902154805  0.8333333333333357  0.1272277070092013
  0.9963653902154805  0.8333333333333357  0.6272277070092013
  0.5036346097845195 -0.0000000000000000  0.3727722929907987
  0.5036346097845195 -0.0000000000000000  0.8727722929907987
  0.5036346097845195  0.3333333333333357  0.3727722929907987
  0.5036346097845195  0.3333333333333357  0.8727722929907987
  0.5036346097845195  0.6666666666666643  0.3727722929907987
  0.5036346097845195  0.6666666666666643  0.8727722929907987
  0.6725370499767966  0.1666666666666643  0.2803961330532894
  0.6725370499767966  0.1666666666666643  0.7803961330532897
  0.6725370499767966  0.5000000000000000  0.2803961330532894
  0.6725370499767966  0.5000000000000000  0.7803961330532897
  0.6725370499767966  0.8333333333333357  0.2803961330532894
  0.6725370499767966  0.8333333333333357  0.7803961330532897
  0.8274629500232034  0.0000000000000000  0.2196038669467105
  0.8274629500232034 -0.0000000000000000  0.7196038669467103
  0.8274629500232034  0.3333333333333357  0.2196038669467105
  0.8274629500232034  0.3333333333333357  0.7196038669467103
  0.8274629500232034  0.6666666666666643  0.2196038669467105
  0.8274629500232034  0.6666666666666643  0.7196038669467103
  0.8320862628565756  0.0000000000000000  0.4458082309591361
  0.8320862628565756 -0.0000000000000000  0.9458082309591364
  0.8320862628565756  0.3333333333333357  0.4458082309591361
  0.8320862628565756  0.3333333333333357  0.9458082309591364
  0.8320862628565756  0.6666666666666643  0.4458082309591361
  0.8320862628565756  0.6666666666666643  0.9458082309591364
  0.6679137371434173  0.1666666666666643  0.0541917690408638
  0.6679137371434173  0.1666666666666643  0.5541917690408636
  0.6679137371434173  0.5000000000000000  0.0541917690408638
  0.6679137371434173  0.5000000000000000  0.5541917690408636
  0.6679137371434173  0.8333333333333357  0.0541917690408638
  0.6679137371434173  0.8333333333333357  0.5541917690408636
  0.4963653902154807 -0.0000000000000000  0.1272277070092013
  0.4963653902154807 -0.0000000000000000  0.6272277070092013
  0.4963653902154807  0.3333333333333357  0.1272277070092013
  0.4963653902154807  0.3333333333333357  0.6272277070092013
  0.4963653902154807  0.6666666666666643  0.1272277070092013
  0.4963653902154807  0.6666666666666643  0.6272277070092013
  0.0036346097845193  0.1666666666666643  0.3727722929907987
  0.0036346097845193  0.1666666666666643  0.8727722929907987
  0.0036346097845193  0.5000000000000000  0.3727722929907987
  0.0036346097845193  0.5000000000000000  0.8727722929907987
  0.0036346097845193  0.8333333333333357  0.3727722929907987
  0.0036346097845193  0.8333333333333357  0.8727722929907987
  0.1725370499767965 -0.0000000000000000  0.2803961330532894
  0.1725370499767965 -0.0000000000000000  0.7803961330532897
  0.1725370499767965  0.3333333333333357  0.2803961330532894
  0.1725370499767965  0.3333333333333357  0.7803961330532897
  0.1725370499767965  0.6666666666666643  0.2803961330532894
  0.1725370499767965  0.6666666666666643  0.7803961330532897
  0.3274629500232035  0.1666666666666643  0.2196038669467105
  0.3274629500232035  0.1666666666666643  0.7196038669467103
  0.3274629500232035  0.5000000000000000  0.2196038669467105
  0.3274629500232035  0.5000000000000000  0.7196038669467103
  0.3274629500232035  0.8333333333333357  0.2196038669467105
  0.3274629500232035  0.8333333333333357  0.7196038669467103
  0.3320862628565754  0.1666666666666643  0.4458082309591361
  0.3320862628565754  0.1666666666666643  0.9458082309591364
  0.3320862628565754  0.5000000000000000  0.4458082309591361
  0.3320862628565754  0.5000000000000000  0.9458082309591364
  0.3320862628565754  0.8333333333333357  0.4458082309591361
  0.3320862628565754  0.8333333333333357  0.9458082309591364
  0.1679137371434175 -0.0000000000000000  0.0541917690408638
  0.1679137371434175  0.0000000000000000  0.5541917690408636
  0.1679137371434175  0.3333333333333357  0.0541917690408638
  0.1679137371434175  0.3333333333333357  0.5541917690408636
  0.1679137371434175  0.6666666666666643  0.0541917690408638
  0.1679137371434175  0.6666666666666643  0.5541917690408636
 
  0.00000000E+00  0.00000000E+00  0.00000000E+00
  0.00000000E+00  0.00000000E+00  0.00000000E+00
  0.00000000E+00  0.00000000E+00  0.00000000E+00
  0.00000000E+00  0.00000000E+00  0.00000000E+00
  0.00000000E+00  0.00000000E+00  0.00000000E+00
  0.00000000E+00  0.00000000E+00  0.00000000E+00
  0.00000000E+00  0.00000000E+00  0.00000000E+00
  0.00000000E+00  0.00000000E+00  0.00000000E+00
  0.00000000E+00  0.00000000E+00  0.00000000E+00
  0.00000000E+00  0.00000000E+00  0.00000000E+00
  0.00000000E+00  0.00000000E+00  0.00000000E+00
  0.00000000E+00  0.00000000E+00  0.00000000E+00
  0.00000000E+00  0.00000000E+00  0.00000000E+00
  0.00000000E+00  0.00000000E+00  0.00000000E+00
  0.00000000E+00  0.00000000E+00  0.00000000E+00
  0.00000000E+00  0.00000000E+00  0.00000000E+00
  0.00000000E+00  0.00000000E+00  0.00000000E+00
  0.00000000E+00  0.00000000E+00  0.00000000E+00
  0.00000000E+00  0.00000000E+00  0.00000000E+00
  0.00000000E+00  0.00000000E+00  0.00000000E+00
  0.00000000E+00  0.00000000E+00  0.00000000E+00
  0.00000000E+00  0.00000000E+00  0.00000000E+00
  0.00000000E+00  0.00000000E+00  0.00000000E+00
  0.00000000E+00  0.00000000E+00  0.00000000E+00
  0.00000000E+00  0.00000000E+00  0.00000000E+00
  0.00000000E+00  0.00000000E+00  0.00000000E+00
  0.00000000E+00  0.00000000E+00  0.00000000E+00
  0.00000000E+00  0.00000000E+00  0.00000000E+00
  0.00000000E+00  0.00000000E+00  0.00000000E+00
  0.00000000E+00  0.00000000E+00  0.00000000E+00
  0.00000000E+00  0.00000000E+00  0.00000000E+00
  0.00000000E+00  0.00000000E+00  0.00000000E+00
  0.00000000E+00  0.00000000E+00  0.00000000E+00
  0.00000000E+00  0.00000000E+00  0.00000000E+00
  0.00000000E+00  0.00000000E+00  0.00000000E+00
  0.00000000E+00  0.00000000E+00  0.00000000E+00
  0.00000000E+00  0.00000000E+00  0.00000000E+00
  0.00000000E+00  0.00000000E+00  0.00000000E+00
  0.00000000E+00  0.00000000E+00  0.00000000E+00
  0.00000000E+00  0.00000000E+00  0.00000000E+00
  0.00000000E+00  0.00000000E+00  0.00000000E+00
  0.00000000E+00  0.00000000E+00  0.00000000E+00
  0.00000000E+00  0.00000000E+00  0.00000000E+00
  0.00000000E+00  0.00000000E+00  0.00000000E+00
  0.00000000E+00  0.00000000E+00  0.00000000E+00
  0.00000000E+00  0.00000000E+00  0.00000000E+00
  0.00000000E+00  0.00000000E+00  0.00000000E+00
  0.00000000E+00  0.00000000E+00  0.00000000E+00
  0.00000000E+00  0.00000000E+00  0.00000000E+00
  0.00000000E+00  0.00000000E+00  0.00000000E+00
  0.00000000E+00  0.00000000E+00  0.00000000E+00
  0.00000000E+00  0.00000000E+00  0.00000000E+00
  0.00000000E+00  0.00000000E+00  0.00000000E+00
  0.00000000E+00  0.00000000E+00  0.00000000E+00
  0.00000000E+00  0.00000000E+00  0.00000000E+00
  0.00000000E+00  0.00000000E+00  0.00000000E+00
  0.00000000E+00  0.00000000E+00  0.00000000E+00
  0.00000000E+00  0.00000000E+00  0.00000000E+00
  0.00000000E+00  0.00000000E+00  0.00000000E+00
  0.00000000E+00  0.00000000E+00  0.00000000E+00
  0.00000000E+00  0.00000000E+00  0.00000000E+00
  0.00000000E+00  0.00000000E+00  0.00000000E+00
  0.00000000E+00  0.00000000E+00  0.00000000E+00
  0.00000000E+00  0.00000000E+00  0.00000000E+00
  0.00000000E+00  0.00000000E+00  0.00000000E+00
  0.00000000E+00  0.00000000E+00  0.00000000E+00
  0.00000000E+00  0.00000000E+00  0.00000000E+00
  0.00000000E+00  0.00000000E+00  0.00000000E+00
  0.00000000E+00  0.00000000E+00  0.00000000E+00
  0.00000000E+00  0.00000000E+00  0.00000000E+00
  0.00000000E+00  0.00000000E+00  0.00000000E+00
  0.00000000E+00  0.00000000E+00  0.00000000E+00
  0.00000000E+00  0.00000000E+00  0.00000000E+00
  0.00000000E+00  0.00000000E+00  0.00000000E+00
  0.00000000E+00  0.00000000E+00  0.00000000E+00
  0.00000000E+00  0.00000000E+00  0.00000000E+00
  0.00000000E+00  0.00000000E+00  0.00000000E+00
  0.00000000E+00  0.00000000E+00  0.00000000E+00
  0.00000000E+00  0.00000000E+00  0.00000000E+00
  0.00000000E+00  0.00000000E+00  0.00000000E+00
  0.00000000E+00  0.00000000E+00  0.00000000E+00
  0.00000000E+00  0.00000000E+00  0.00000000E+00
  0.00000000E+00  0.00000000E+00  0.00000000E+00
  0.00000000E+00  0.00000000E+00  0.00000000E+00
  0.00000000E+00  0.00000000E+00  0.00000000E+00
  0.00000000E+00  0.00000000E+00  0.00000000E+00
  0.00000000E+00  0.00000000E+00  0.00000000E+00
  0.00000000E+00  0.00000000E+00  0.00000000E+00
  0.00000000E+00  0.00000000E+00  0.00000000E+00
  0.00000000E+00  0.00000000E+00  0.00000000E+00
  0.00000000E+00  0.00000000E+00  0.00000000E+00
  0.00000000E+00  0.00000000E+00  0.00000000E+00
  0.00000000E+00  0.00000000E+00  0.00000000E+00
  0.00000000E+00  0.00000000E+00  0.00000000E+00
  0.00000000E+00  0.00000000E+00  0.00000000E+00
  0.00000000E+00  0.00000000E+00  0.00000000E+00
  0.00000000E+00  0.00000000E+00  0.00000000E+00
  0.00000000E+00  0.00000000E+00  0.00000000E+00
  0.00000000E+00  0.00000000E+00  0.00000000E+00
  0.00000000E+00  0.00000000E+00  0.00000000E+00
  0.00000000E+00  0.00000000E+00  0.00000000E+00
  0.00000000E+00  0.00000000E+00  0.00000000E+00
  0.00000000E+00  0.00000000E+00  0.00000000E+00
  0.00000000E+00  0.00000000E+00  0.00000000E+00
  0.00000000E+00  0.00000000E+00  0.00000000E+00
  0.00000000E+00  0.00000000E+00  0.00000000E+00
  0.00000000E+00  0.00000000E+00  0.00000000E+00
  0.00000000E+00  0.00000000E+00  0.00000000E+00
  0.00000000E+00  0.00000000E+00  0.00000000E+00
  0.00000000E+00  0.00000000E+00  0.00000000E+00
  0.00000000E+00  0.00000000E+00  0.00000000E+00
  0.00000000E+00  0.00000000E+00  0.00000000E+00
  0.00000000E+00  0.00000000E+00  0.00000000E+00
  0.00000000E+00  0.00000000E+00  0.00000000E+00
  0.00000000E+00  0.00000000E+00  0.00000000E+00
  0.00000000E+00  0.00000000E+00  0.00000000E+00
  0.00000000E+00  0.00000000E+00  0.00000000E+00
  0.00000000E+00  0.00000000E+00  0.00000000E+00
  0.00000000E+00  0.00000000E+00  0.00000000E+00
  0.00000000E+00  0.00000000E+00  0.00000000E+00
