       N       E                     dE             d eps       ncg     rms          ort
DAV:   1    -0.183288376711E+05   -0.18329E+05   -0.54222E+05  5040   0.743E+03
DAV:   2    -0.620944183972E+05   -0.43766E+05   -0.42402E+05  5040   0.121E+03
DAV:   3    -0.667235461026E+05   -0.46291E+04   -0.41764E+04  5040   0.357E+02
DAV:   4    -0.672912049145E+05   -0.56766E+03   -0.48362E+03  5040   0.106E+02
DAV:   5    -0.373646922151E+05    0.29927E+05   -0.75771E+02  5040   0.547E+01
SDA:   6     0.206216114385E+05    0.57986E+05   -0.75771E+02  5040   0.120E+06 0.000E+00
CGA:   7     0.528954965863E+04   -0.15332E+05   -0.15759E+05  5040   0.252E+05 0.164E+05
CGA:   8     0.137526972305E+04   -0.39143E+04   -0.33324E+04  5040   0.798E+04-0.315E+04
CGA:   9     0.406441492392E+03   -0.96883E+03   -0.84878E+03  5040   0.461E+04-0.677E+03
CGA:  10     0.513577336294E+01   -0.40131E+03   -0.49175E+03  5040   0.376E+04 0.469E+02
CGA:  11    -0.420410411275E+03   -0.42555E+03   -0.47722E+03  5040   0.143E+04 0.126E+03
CGA:  12    -0.681258481179E+03   -0.26085E+03   -0.26187E+03  5040   0.537E+03 0.846E+02
CGA:  13    -0.793426631372E+03   -0.11217E+03   -0.11211E+03  5040   0.293E+03 0.929E+01
CGA:  14    -0.870490782793E+03   -0.77064E+02   -0.76116E+02  5040   0.164E+03 0.854E+01
CGA:  15    -0.904098106461E+03   -0.33607E+02   -0.33676E+02  5040   0.126E+03-0.584E+01
CGA:  16    -0.923387268727E+03   -0.19289E+02   -0.19873E+02  5040   0.679E+02 0.159E+02
CGA:  17    -0.933292132629E+03   -0.99049E+01   -0.10488E+02  5040   0.643E+02-0.214E+01
CGA:  18    -0.943236251967E+03   -0.99441E+01   -0.95633E+01  5040   0.240E+02-0.436E+01
CGA:  19    -0.947281699342E+03   -0.40454E+01   -0.40455E+01  5040   0.284E+02 0.792E-01
CGA:  20    -0.951469348398E+03   -0.41876E+01   -0.41581E+01  5040   0.126E+02-0.222E+00
CGA:  21    -0.953472229856E+03   -0.20029E+01   -0.20069E+01  5040   0.892E+01-0.816E-01
CGA:  22    -0.955252817802E+03   -0.17806E+01   -0.17848E+01  5040   0.553E+01-0.915E-01
CGA:  23    -0.956142500331E+03   -0.88968E+00   -0.88975E+00  5040   0.312E+01 0.646E-01
CGA:  24    -0.956775920147E+03   -0.63342E+00   -0.63252E+00  5040   0.238E+01 0.664E-01
CGA:  25    -0.957207782623E+03   -0.43186E+00   -0.43195E+00  5040   0.122E+01 0.344E-01
CGA:  26    -0.957452454334E+03   -0.24467E+00   -0.24489E+00  5040   0.101E+01-0.318E-02
CGA:  27    -0.957648145936E+03   -0.19569E+00   -0.19554E+00  5040   0.665E+00 0.930E-02
CGA:  28    -0.957750424249E+03   -0.10228E+00   -0.10238E+00  5040   0.424E+00 0.339E-02
CGA:  29    -0.957826661146E+03   -0.76237E-01   -0.76237E-01  5040   0.330E+00 0.881E-03
CGA:  30    -0.957875968804E+03   -0.49308E-01   -0.49318E-01  5040   0.181E+00 0.361E-03
CGA:  31    -0.957907722758E+03   -0.31754E-01   -0.31754E-01  5040   0.131E+00 0.548E-04
CGA:  32    -0.957931933670E+03   -0.24211E-01   -0.24210E-01  5040   0.784E-01 0.115E-03
CGA:  33    -0.957946214702E+03   -0.14281E-01   -0.14280E-01  5040   0.544E-01 0.139E-03
CGA:  34    -0.957958043602E+03   -0.11829E-01   -0.11829E-01  5040   0.402E-01 0.320E-05
CGA:  35    -0.957965031918E+03   -0.69883E-02   -0.69880E-02  5040   0.250E-01-0.335E-04
CGA:  36    -0.957969887371E+03   -0.48555E-02   -0.48560E-02  5040   0.204E-01-0.375E-04
SDA:  37    -0.957973286322E+03   -0.33990E-02   -0.33987E-02  5040   0.120E-01-0.137E-04
CGA:  38    -0.957977367501E+03   -0.40812E-02   -0.40736E-02  5040   0.604E-02 0.474E-04
CGA:  39    -0.957979286066E+03   -0.19186E-02   -0.19136E-02  5040   0.257E-02 0.384E-04
CGA:  40    -0.957980143363E+03   -0.85730E-03   -0.85740E-03  5040   0.838E-03-0.774E-06
CGA:  41    -0.957980441171E+03   -0.29781E-03   -0.29801E-03  5040   0.451E-03-0.126E-05
CGA:  42    -0.957980585712E+03   -0.14454E-03   -0.14362E-03  5040   0.167E-03 0.844E-05
CGA:  43    -0.957980664740E+03   -0.79028E-04   -0.78744E-04  5040   0.170E-03 0.119E-05
CGA:  44    -0.957980737666E+03   -0.72925E-04   -0.72764E-04  5040   0.148E-03 0.814E-06
CGA:  45    -0.957980801543E+03   -0.63877E-04   -0.63569E-04  5040   0.142E-03 0.162E-05
CGA:  46    -0.957980853377E+03   -0.51834E-04   -0.51946E-04  5040   0.104E-03-0.979E-06
CGA:  47    -0.957980885073E+03   -0.31696E-04   -0.31759E-04  5040   0.596E-04-0.117E-05
CGA:  48    -0.957980903072E+03   -0.17999E-04   -0.17999E-04  5040   0.300E-04 0.166E-07
CGA:  49    -0.957980912458E+03   -0.93865E-05   -0.94004E-05  5040   0.169E-04-0.252E-06
   1 F= -.95798091E+03 E0= -.95796773E+03  d E =-.263702E-01
