 running    4 mpi-ranks, on    1 nodes
 distrk:  each k-point on    1 cores,    4 groups
 distr:  one band on    1 cores,    1 groups
 OpenACC runtime initialized ...    4 GPUs detected
 vasp.6.4.2 20Jul23 (build Nov 12 2023 22:16:35) complex                         
 POSCAR found type information on POSCAR GaO Cu
 POSCAR found :  3 types and     120 ions
 scaLAPACK will be used selectively (only on CPU)
 LDA part: xc-table for Pade appr. of Perdew
 POSCAR, INCAR and KPOINTS ok, starting setup
 FFT: planning ... GRIDC
 FFT: planning ... GRID_SOFT
 FFT: planning ... GRID
 WAVECAR not read
 initial charge from wavefunction
 entering main loop
       N       E                     dE             d eps       ncg     rms          ort
DAV:   1    -0.183541780918E+05   -0.18354E+05   -0.54637E+05  5056   0.743E+03
DAV:   2    -0.622799045274E+05   -0.43926E+05   -0.42653E+05  5056   0.119E+03
DAV:   3    -0.667227612458E+05   -0.44429E+04   -0.39578E+04  5056   0.344E+02
DAV:   4    -0.672255838055E+05   -0.50282E+03   -0.42665E+03  5056   0.101E+02
DAV:   5    -0.371311436836E+05    0.30094E+05   -0.72282E+02  5056   0.519E+01
 gam= 0.000 g(H,U,f)=  0.643E+05 0.218E+05 0.249E+04 ort(H,U,f) = 0.000E+00 0.000E+00 0.000E+00
SDA:   6     0.153543327294E+05    0.52485E+05   -0.72282E+02  5056   0.886E+05 0.000E+00
 gam= 0.000 trial= 0.400  step= 0.290 mean= 0.400
 gam= 0.161 g(H,U,f)=  0.102E+05 0.306E+04 0.105E+04 ort(H,U,f) = 0.822E+04-0.180E+04-0.198E+04
CGA:   7     0.305290532379E+04   -0.12301E+05   -0.12861E+05  5056   0.143E+05 0.444E+04
 gam= 0.161 trial= 0.395  step= 0.220 mean= 0.395
 gam= 0.586 g(H,U,f)=  0.412E+04 0.345E+04 0.784E+03 ort(H,U,f) = 0.175E+04-0.237E+04-0.356E+03
CGA:   8     0.123384072489E+04   -0.18191E+04   -0.16476E+04  5056   0.836E+04-0.971E+03
 gam= 0.586 trial= 0.386  step= 0.170 mean= 0.386
 gam= 0.951 g(H,U,f)=  0.291E+04 0.443E+04 0.610E+03 ort(H,U,f) =-0.768E+02-0.103E+04-0.895E+02
CGA:   9     0.551298487806E+03   -0.68254E+03   -0.66372E+03  5056   0.795E+04-0.120E+04
 gam= 0.951 trial= 0.375  step= 0.156 mean= 0.375
 gam= 0.776 g(H,U,f)=  0.326E+04 0.279E+04 0.121E+03 ort(H,U,f) =-0.150E+04 0.110E+04 0.401E+02
CGA:  10     0.137086320773E+03   -0.41421E+03   -0.53288E+03  5056   0.617E+04-0.363E+03
 gam= 0.776 trial= 0.364  step= 0.188 mean= 0.364
 gam= 0.454 g(H,U,f)=  0.234E+04 0.458E+03 0.446E+01 ort(H,U,f) =-0.684E+03 0.332E+03 0.614E+01
CGA:  11    -0.230836819507E+03   -0.36792E+03   -0.55489E+03  5056   0.280E+04-0.346E+03
 gam= 0.454 trial= 0.355  step= 0.289 mean= 0.355
 gam= 0.329 g(H,U,f)=  0.813E+03 0.103E+03 0.652E+01 ort(H,U,f) =-0.100E+03 0.199E+03 0.211E+02
CGA:  12    -0.600663169978E+03   -0.36983E+03   -0.38162E+03  5056   0.923E+03 0.120E+03
 gam= 0.329 trial= 0.352  step= 0.352 mean= 0.352
 gam= 0.434 g(H,U,f)=  0.366E+03 0.208E+02 0.140E+02 ort(H,U,f) =-0.122E+02 0.395E+02 0.238E+02
CGA:  13    -0.770183919649E+03   -0.16952E+03   -0.16950E+03  5056   0.401E+03 0.511E+02
 gam= 0.434 trial= 0.352  step= 0.433 mean= 0.352
 gam= 0.502 g(H,U,f)=  0.185E+03 0.108E+02 0.522E+01 ort(H,U,f) = 0.182E+02 0.838E+01 0.155E+02
CGA:  14    -0.863566998670E+03   -0.93383E+02   -0.91470E+02  5056   0.201E+03 0.421E+02
 gam= 0.502 trial= 0.356  step= 0.428 mean= 0.356
 gam= 0.478 g(H,U,f)=  0.859E+02 0.102E+02 0.740E-01 ort(H,U,f) =-0.450E+01 0.915E+01 0.484E+00
CGA:  15    -0.911636629351E+03   -0.48070E+02   -0.47577E+02  5056   0.962E+02 0.514E+01
 gam= 0.478 trial= 0.360  step= 0.377 mean= 0.360
 gam= 0.772 g(H,U,f)=  0.535E+02 0.208E+02 0.295E-02 ort(H,U,f) = 0.302E+01-0.105E+02 0.779E-03
CGA:  16    -0.930126771529E+03   -0.18490E+02   -0.18617E+02  5056   0.743E+02-0.753E+01
 gam= 0.772 trial= 0.361  step= 0.265 mean= 0.361
 gam= 0.417 g(H,U,f)=  0.262E+02 0.466E+01 0.183E-01 ort(H,U,f) =-0.663E+01 0.779E+01-0.416E-01
CGA:  17    -0.938929675504E+03   -0.88029E+01   -0.90640E+01  5056   0.309E+02 0.112E+01
 gam= 0.417 trial= 0.356  step= 0.370 mean= 0.356
 gam= 0.646 g(H,U,f)=  0.160E+02 0.321E+01 0.766E+00 ort(H,U,f) =-0.359E+01 0.324E+01 0.673E+00
CGA:  18    -0.944735881999E+03   -0.58062E+01   -0.58008E+01  5056   0.200E+02 0.324E+00
 gam= 0.646 trial= 0.356  step= 0.310 mean= 0.356
 gam= 0.465 g(H,U,f)=  0.827E+01 0.103E+01 0.295E-08 ort(H,U,f) =-0.991E+00 0.208E+01 0.806E-08
CGA:  19    -0.947798884267E+03   -0.30630E+01   -0.31280E+01  5056   0.930E+01 0.109E+01
 gam= 0.465 trial= 0.354  step= 0.441 mean= 0.354
 gam= 0.537 g(H,U,f)=  0.443E+01 0.569E+00 0.422E-19 ort(H,U,f) =-0.665E+00 0.830E+00 0.186E-18
CGA:  20    -0.949973728903E+03   -0.21748E+01   -0.21627E+01  5056   0.500E+01 0.165E+00
 gam= 0.537 trial= 0.358  step= 0.394 mean= 0.358
 gam= 0.552 g(H,U,f)=  0.238E+01 0.375E+00 0.228E-13 ort(H,U,f) = 0.152E+00-0.153E+00 0.964E-13
CGA:  21    -0.950975879159E+03   -0.10022E+01   -0.10022E+01  5056   0.276E+01-0.135E-02
 gam= 0.552 trial= 0.360  step= 0.425 mean= 0.360
 gam= 0.578 g(H,U,f)=  0.137E+01 0.224E+00 0.590E-14 ort(H,U,f) = 0.181E-01-0.445E-02 0.274E-13
CGA:  22    -0.951562321750E+03   -0.58644E+00   -0.58577E+00  5056   0.159E+01 0.136E-01
 gam= 0.578 trial= 0.363  step= 0.374 mean= 0.363
 gam= 0.539 g(H,U,f)=  0.744E+00 0.116E+00 0.478E-12 ort(H,U,f) =-0.422E-01 0.471E-01 0.790E-12
CGA:  23    -0.951862025778E+03   -0.29970E+00   -0.29966E+00  5056   0.860E+00 0.498E-02
 gam= 0.539 trial= 0.364  step= 0.407 mean= 0.364
 gam= 0.509 g(H,U,f)=  0.351E+00 0.866E-01 0.390E-15 ort(H,U,f) =-0.955E-01 0.963E-01 0.115E-14
CGA:  24    -0.952037577271E+03   -0.17555E+00   -0.17553E+00  5056   0.438E+00 0.841E-03
 gam= 0.509 trial= 0.366  step= 0.476 mean= 0.366
 gam= 0.716 g(H,U,f)=  0.252E+00 0.615E-01 0.903E-11 ort(H,U,f) =-0.925E-01 0.943E-01 0.173E-10
CGA:  25    -0.952142112571E+03   -0.10454E+00   -0.10440E+00  5056   0.314E+00 0.182E-02
 gam= 0.716 trial= 0.372  step= 0.487 mean= 0.372
 gam= 0.684 g(H,U,f)=  0.182E+00 0.323E-01 0.129E-13 ort(H,U,f) =-0.662E-01 0.653E-01 0.508E-14
CGA:  26    -0.952218784011E+03   -0.76671E-01   -0.76744E-01  5056   0.214E+00-0.940E-03
 gam= 0.684 trial= 0.377  step= 0.495 mean= 0.377
 gam= 0.782 g(H,U,f)=  0.140E+00 0.279E-01 0.455E-20 ort(H,U,f) =-0.372E-01 0.365E-01 0.291E-21
CGA:  27    -0.952271639960E+03   -0.52856E-01   -0.52911E-01  5056   0.168E+00-0.694E-03
 gam= 0.782 trial= 0.383  step= 0.440 mean= 0.383
 gam= 0.778 g(H,U,f)=  0.109E+00 0.215E-01 0.188E-16 ort(H,U,f) =-0.380E-01 0.385E-01 0.271E-16
CGA:  28    -0.952308442803E+03   -0.36803E-01   -0.36782E-01  5056   0.130E+00 0.453E-03
 gam= 0.778 trial= 0.386  step= 0.475 mean= 0.386
 gam= 0.732 g(H,U,f)=  0.790E-01 0.165E-01 0.589E-16 ort(H,U,f) =-0.374E-01 0.370E-01-0.132E-15
CGA:  29    -0.952339446237E+03   -0.31003E-01   -0.31031E-01  5056   0.955E-01-0.422E-03
 gam= 0.732 trial= 0.391  step= 0.446 mean= 0.391
 gam= 0.738 g(H,U,f)=  0.560E-01 0.144E-01 0.192E-13 ort(H,U,f) =-0.284E-01 0.277E-01-0.213E-13
CGA:  30    -0.952360640390E+03   -0.21194E-01   -0.21226E-01  5056   0.705E-01-0.730E-03
 gam= 0.738 trial= 0.393  step= 0.527 mean= 0.393
 gam= 0.755 g(H,U,f)=  0.449E-01 0.828E-02 0.387E-18 ort(H,U,f) =-0.209E-01 0.210E-01-0.161E-17
CGA:  31    -0.952379083002E+03   -0.18443E-01   -0.18434E-01  5056   0.532E-01 0.865E-04
 gam= 0.755 trial= 0.400  step= 0.545 mean= 0.400
 gam= 0.828 g(H,U,f)=  0.394E-01 0.470E-02 0.147E-15 ort(H,U,f) =-0.118E-01 0.121E-01-0.280E-15
CGA:  32    -0.952393616726E+03   -0.14534E-01   -0.14508E-01  5056   0.441E-01 0.268E-03
 gam= 0.828 trial= 0.407  step= 0.479 mean= 0.407
 gam= 0.664 g(H,U,f)=  0.274E-01 0.186E-02 0.644E-14 ort(H,U,f) =-0.768E-02 0.759E-02-0.307E-14
CGA:  33    -0.952404224380E+03   -0.10608E-01   -0.10612E-01  5056   0.293E-01-0.866E-04
 gam= 0.664 trial= 0.411  step= 0.472 mean= 0.411
 gam= 0.721 g(H,U,f)=  0.196E-01 0.145E-02 0.599E-13 ort(H,U,f) =-0.218E-02 0.218E-02 0.357E-13
CGA:  34    -0.952411107406E+03   -0.68830E-02   -0.68837E-02  5056   0.211E-01-0.633E-05
 gam= 0.721 trial= 0.414  step= 0.390 mean= 0.414
 gam= 0.531 g(H,U,f)=  0.994E-02 0.126E-02 0.117E-16 ort(H,U,f) =-0.461E-04 0.880E-04 0.810E-16
CGA:  35    -0.952415220516E+03   -0.41131E-02   -0.41138E-02  5056   0.112E-01 0.419E-04
 gam= 0.531 trial= 0.413  step= 0.420 mean= 0.413
 gam= 0.553 g(H,U,f)=  0.511E-02 0.109E-02 0.553E-17 ort(H,U,f) =-0.393E-03 0.418E-03-0.298E-17
CGA:  36    -0.952417578231E+03   -0.23577E-02   -0.23576E-02  5056   0.620E-02 0.254E-04
 gam= 0.553 trial= 0.413  step= 0.423 mean= 0.413
 gam= 0.000 g(H,U,f)=  0.300E-02 0.592E-03 0.418E-16 ort(H,U,f) =-0.535E-03 0.561E-03-0.125E-15
SDA:  37    -0.952418893880E+03   -0.13156E-02   -0.13155E-02  5056   0.360E-02 0.260E-04
 gam= 0.000 trial= 0.414  step= 0.739 mean= 0.414
 gam= 0.465 g(H,U,f)=  0.119E-02 0.482E-03 0.991E-16 ort(H,U,f) =-0.250E-03 0.274E-03 0.128E-15
CGA:  38    -0.952420226445E+03   -0.13326E-02   -0.13287E-02  5056   0.167E-02 0.239E-04
 gam= 0.465 trial= 0.430  step= 0.497 mean= 0.430
 gam= 0.612 g(H,U,f)=  0.751E-03 0.271E-03 0.553E-17 ort(H,U,f) =-0.236E-03 0.240E-03 0.160E-16
CGA:  39    -0.952420644561E+03   -0.41812E-03   -0.41798E-03  5056   0.102E-02 0.406E-05
 gam= 0.612 trial= 0.433  step= 0.741 mean= 0.433
 gam= 0.459 g(H,U,f)=  0.342E-03 0.127E-03 0.199E-16 ort(H,U,f) =-0.279E-03 0.278E-03 0.132E-15
CGA:  40    -0.952421024127E+03   -0.37957E-03   -0.37963E-03  5056   0.469E-03-0.510E-06
 gam= 0.459 trial= 0.449  step= 0.898 mean= 0.449
 gam= 0.884 g(H,U,f)=  0.312E-03 0.103E-03 0.106E-22 ort(H,U,f) =-0.184E-03 0.189E-03-0.276E-22
CGA:  41    -0.952421235601E+03   -0.21147E-03   -0.21042E-03  5056   0.415E-03 0.472E-05
 gam= 0.884 trial= 0.471  step= 1.052 mean= 0.471
 gam= 1.088 g(H,U,f)=  0.322E-03 0.129E-03 0.484E-19 ort(H,U,f) =-0.180E-03 0.185E-03-0.439E-19
CGA:  42    -0.952421457155E+03   -0.22155E-03   -0.22022E-03  5056   0.451E-03 0.466E-05
 gam= 1.088 trial= 0.500  step= 0.914 mean= 0.500
 gam= 1.409 g(H,U,f)=  0.502E-03 0.134E-03 0.427E-15 ort(H,U,f) =-0.199E-03 0.206E-03-0.553E-17
CGA:  43    -0.952421667153E+03   -0.21000E-03   -0.20855E-03  5056   0.636E-03 0.701E-05
 gam= 1.409 trial= 0.521  step= 0.811 mean= 0.521
 gam= 0.885 g(H,U,f)=  0.471E-03 0.923E-04 0.491E-24 ort(H,U,f) =-0.248E-03 0.244E-03 0.110E-23
CGA:  44    -0.952421928525E+03   -0.26137E-03   -0.26196E-03  5056   0.563E-03-0.341E-05
 gam= 0.885 trial= 0.535  step= 0.772 mean= 0.535
 gam= 0.657 g(H,U,f)=  0.327E-03 0.424E-04 0.970E-19 ort(H,U,f) =-0.154E-03 0.152E-03 0.443E-18
CGA:  45    -0.952422144420E+03   -0.21589E-03   -0.21603E-03  5056   0.370E-03-0.181E-05
 gam= 0.657 trial= 0.547  step= 0.733 mean= 0.547
 gam= 0.557 g(H,U,f)=  0.176E-03 0.299E-04 0.262E-18 ort(H,U,f) =-0.682E-04 0.680E-04 0.170E-17
CGA:  46    -0.952422279579E+03   -0.13516E-03   -0.13517E-03  5056   0.206E-03-0.179E-06
 gam= 0.557 trial= 0.556  step= 0.646 mean= 0.556
 gam= 0.622 g(H,U,f)=  0.990E-04 0.292E-04 0.412E-17 ort(H,U,f) =-0.367E-04 0.363E-04 0.650E-17
CGA:  47    -0.952422346062E+03   -0.66482E-04   -0.66505E-04  5056   0.128E-03-0.387E-06
 gam= 0.622 trial= 0.561  step= 0.666 mean= 0.561
 gam= 0.723 g(H,U,f)=  0.684E-04 0.243E-04 0.104E-22 ort(H,U,f) =-0.320E-04 0.307E-04 0.859E-23
CGA:  48    -0.952422388580E+03   -0.42518E-04   -0.42582E-04  5056   0.927E-04-0.126E-05
 gam= 0.723 trial= 0.566  step= 0.725 mean= 0.566
 gam= 0.737 g(H,U,f)=  0.553E-04 0.130E-04 0.143E-20 ort(H,U,f) =-0.316E-04 0.297E-04 0.729E-20
CGA:  49    -0.952422421696E+03   -0.33117E-04   -0.33269E-04  5056   0.683E-04-0.189E-05
 gam= 0.737 trial= 0.574  step= 0.777 mean= 0.574
 gam= 0.828 g(H,U,f)=  0.478E-04 0.877E-05 0.116E-17 ort(H,U,f) =-0.246E-04 0.240E-04-0.660E-17
CGA:  50    -0.952422447629E+03   -0.25932E-04   -0.25988E-04  5056   0.566E-04-0.556E-06
 gam= 0.828 trial= 0.584  step= 0.672 mean= 0.584
 gam= 0.685 g(H,U,f)=  0.333E-04 0.542E-05 0.157E-18 ort(H,U,f) =-0.187E-04 0.191E-04 0.249E-18
CGA:  51    -0.952422466506E+03   -0.18878E-04   -0.18861E-04  5056   0.387E-04 0.386E-06
 gam= 0.685 trial= 0.589  step= 0.668 mean= 0.589
 gam= 0.631 g(H,U,f)=  0.198E-04 0.465E-05 0.420E-26 ort(H,U,f) =-0.103E-04 0.105E-04-0.116E-25
CGA:  52    -0.952422479549E+03   -0.13042E-04   -0.13031E-04  5056   0.245E-04 0.291E-06
 gam= 0.631 trial= 0.593  step= 0.751 mean= 0.593
 gam= 0.613 g(H,U,f)=  0.131E-04 0.193E-05 0.614E-22 ort(H,U,f) =-0.521E-05 0.552E-05-0.128E-22
CGA:  53    -0.952422488823E+03   -0.92739E-05   -0.92491E-05  5056   0.150E-04 0.309E-06
 gam= 0.613 trial= 0.601  step= 0.688 mean= 0.601
 final diagonalization
   1 F= -.95242249E+03 E0= -.95242249E+03  d E =-.128186E-15
 writing wavefunctions
Warning: ieee_invalid is signaling
Warning: ieee_divide_by_zero is signaling
Warning: ieee_underflow is signaling
Warning: ieee_inexact is signaling
FORTRAN STOP
Warning: ieee_invalid is signaling
Warning: ieee_divide_by_zero is signaling
Warning: ieee_underflow is signaling
Warning: ieee_inexact is signaling
FORTRAN STOP
Warning: ieee_invalid is signaling
Warning: ieee_divide_by_zero is signaling
Warning: ieee_underflow is signaling
Warning: ieee_inexact is signaling
FORTRAN STOP
Warning: ieee_invalid is signaling
Warning: ieee_divide_by_zero is signaling
Warning: ieee_underflow is signaling
Warning: ieee_inexact is signaling
FORTRAN STOP
