       N       E                     dE             d eps       ncg     rms          ort
DAV:   1    -0.183541780918E+05   -0.18354E+05   -0.54637E+05  5056   0.743E+03
DAV:   2    -0.622799045274E+05   -0.43926E+05   -0.42653E+05  5056   0.119E+03
DAV:   3    -0.667227612458E+05   -0.44429E+04   -0.39578E+04  5056   0.344E+02
DAV:   4    -0.672255838055E+05   -0.50282E+03   -0.42665E+03  5056   0.101E+02
DAV:   5    -0.371311436836E+05    0.30094E+05   -0.72282E+02  5056   0.519E+01
SDA:   6     0.153543327294E+05    0.52485E+05   -0.72282E+02  5056   0.886E+05 0.000E+00
CGA:   7     0.305290532379E+04   -0.12301E+05   -0.12861E+05  5056   0.143E+05 0.444E+04
CGA:   8     0.123384072489E+04   -0.18191E+04   -0.16476E+04  5056   0.836E+04-0.971E+03
CGA:   9     0.551298487806E+03   -0.68254E+03   -0.66372E+03  5056   0.795E+04-0.120E+04
CGA:  10     0.137086320773E+03   -0.41421E+03   -0.53288E+03  5056   0.617E+04-0.363E+03
CGA:  11    -0.230836819507E+03   -0.36792E+03   -0.55489E+03  5056   0.280E+04-0.346E+03
CGA:  12    -0.600663169978E+03   -0.36983E+03   -0.38162E+03  5056   0.923E+03 0.120E+03
CGA:  13    -0.770183919649E+03   -0.16952E+03   -0.16950E+03  5056   0.401E+03 0.511E+02
CGA:  14    -0.863566998670E+03   -0.93383E+02   -0.91470E+02  5056   0.201E+03 0.421E+02
CGA:  15    -0.911636629351E+03   -0.48070E+02   -0.47577E+02  5056   0.962E+02 0.514E+01
CGA:  16    -0.930126771529E+03   -0.18490E+02   -0.18617E+02  5056   0.743E+02-0.753E+01
CGA:  17    -0.938929675504E+03   -0.88029E+01   -0.90640E+01  5056   0.309E+02 0.112E+01
CGA:  18    -0.944735881999E+03   -0.58062E+01   -0.58008E+01  5056   0.200E+02 0.324E+00
CGA:  19    -0.947798884267E+03   -0.30630E+01   -0.31280E+01  5056   0.930E+01 0.109E+01
CGA:  20    -0.949973728903E+03   -0.21748E+01   -0.21627E+01  5056   0.500E+01 0.165E+00
CGA:  21    -0.950975879159E+03   -0.10022E+01   -0.10022E+01  5056   0.276E+01-0.135E-02
CGA:  22    -0.951562321750E+03   -0.58644E+00   -0.58577E+00  5056   0.159E+01 0.136E-01
CGA:  23    -0.951862025778E+03   -0.29970E+00   -0.29966E+00  5056   0.860E+00 0.498E-02
CGA:  24    -0.952037577271E+03   -0.17555E+00   -0.17553E+00  5056   0.438E+00 0.841E-03
CGA:  25    -0.952142112571E+03   -0.10454E+00   -0.10440E+00  5056   0.314E+00 0.182E-02
CGA:  26    -0.952218784011E+03   -0.76671E-01   -0.76744E-01  5056   0.214E+00-0.940E-03
CGA:  27    -0.952271639960E+03   -0.52856E-01   -0.52911E-01  5056   0.168E+00-0.694E-03
CGA:  28    -0.952308442803E+03   -0.36803E-01   -0.36782E-01  5056   0.130E+00 0.453E-03
CGA:  29    -0.952339446237E+03   -0.31003E-01   -0.31031E-01  5056   0.955E-01-0.422E-03
CGA:  30    -0.952360640390E+03   -0.21194E-01   -0.21226E-01  5056   0.705E-01-0.730E-03
CGA:  31    -0.952379083002E+03   -0.18443E-01   -0.18434E-01  5056   0.532E-01 0.865E-04
CGA:  32    -0.952393616726E+03   -0.14534E-01   -0.14508E-01  5056   0.441E-01 0.268E-03
CGA:  33    -0.952404224380E+03   -0.10608E-01   -0.10612E-01  5056   0.293E-01-0.866E-04
CGA:  34    -0.952411107406E+03   -0.68830E-02   -0.68837E-02  5056   0.211E-01-0.633E-05
CGA:  35    -0.952415220516E+03   -0.41131E-02   -0.41138E-02  5056   0.112E-01 0.419E-04
CGA:  36    -0.952417578231E+03   -0.23577E-02   -0.23576E-02  5056   0.620E-02 0.254E-04
SDA:  37    -0.952418893880E+03   -0.13156E-02   -0.13155E-02  5056   0.360E-02 0.260E-04
CGA:  38    -0.952420226445E+03   -0.13326E-02   -0.13287E-02  5056   0.167E-02 0.239E-04
CGA:  39    -0.952420644561E+03   -0.41812E-03   -0.41798E-03  5056   0.102E-02 0.406E-05
CGA:  40    -0.952421024127E+03   -0.37957E-03   -0.37963E-03  5056   0.469E-03-0.510E-06
CGA:  41    -0.952421235601E+03   -0.21147E-03   -0.21042E-03  5056   0.415E-03 0.472E-05
CGA:  42    -0.952421457155E+03   -0.22155E-03   -0.22022E-03  5056   0.451E-03 0.466E-05
CGA:  43    -0.952421667153E+03   -0.21000E-03   -0.20855E-03  5056   0.636E-03 0.701E-05
CGA:  44    -0.952421928525E+03   -0.26137E-03   -0.26196E-03  5056   0.563E-03-0.341E-05
CGA:  45    -0.952422144420E+03   -0.21589E-03   -0.21603E-03  5056   0.370E-03-0.181E-05
CGA:  46    -0.952422279579E+03   -0.13516E-03   -0.13517E-03  5056   0.206E-03-0.179E-06
CGA:  47    -0.952422346062E+03   -0.66482E-04   -0.66505E-04  5056   0.128E-03-0.387E-06
CGA:  48    -0.952422388580E+03   -0.42518E-04   -0.42582E-04  5056   0.927E-04-0.126E-05
CGA:  49    -0.952422421696E+03   -0.33117E-04   -0.33269E-04  5056   0.683E-04-0.189E-05
CGA:  50    -0.952422447629E+03   -0.25932E-04   -0.25988E-04  5056   0.566E-04-0.556E-06
CGA:  51    -0.952422466506E+03   -0.18878E-04   -0.18861E-04  5056   0.387E-04 0.386E-06
CGA:  52    -0.952422479549E+03   -0.13042E-04   -0.13031E-04  5056   0.245E-04 0.291E-06
CGA:  53    -0.952422488823E+03   -0.92739E-05   -0.92491E-05  5056   0.150E-04 0.309E-06
   1 F= -.95242249E+03 E0= -.95242249E+03  d E =-.128186E-15
