Ga8 O12                                 
    1.000000000000000     
     0.0000000000000000   12.2804737091000007    0.0000000000000000
     9.1427011490000005    0.0000000000000000    0.0000000000000000
     0.0000000000000000   -2.7682616411000001  -11.3006974810000003
   Ga   O    Cu
    47    72     1
Direct
  0.6606321830021313 -0.0000000000000000  0.1576394337617171
  0.6586138931894908 -0.0000000000000000  0.6562506887860111
  0.6602395062366515  0.3328275594818716  0.1578797259539535
  0.6576562675840918  0.3332972685685172  0.6564262740838291
  0.6602395062366515  0.6671724405181291  0.1578797259539535
  0.6576562675840918  0.6667027314314825  0.6564262740838291
  0.8463802803096646  0.1648292709958994  0.3442745579847123
  0.8397379527366530  0.1664405309557167  0.8432731790380561
  0.8431949413622510  0.5000000000000000  0.3432886127950769
  0.8392734753588457  0.5000000000000000  0.8426636749753934
  0.8463802803096646  0.8351707290041003  0.3442745579847123
  0.8397379527366530  0.8335594690442830  0.8432731790380561
  0.5927506087876814  0.1667934078923449  0.3970886370684547
  0.5908850361438335  0.1663840381231904  0.8980074301312581
  0.5901095655233050  0.5000000000000000  0.3968963162101600
  0.5909393754958310  0.5000000000000000  0.8984098098619087
  0.5927506087876814  0.8332065921076547  0.3970886370684547
  0.5908850361438335  0.8336159618768092  0.8980074301312581
  0.9103477175483515 -0.0000000000000000  0.1031048618846866
  0.9092832142382924 -0.0000000000000000  0.6020896263474567
  0.9084265060923231  0.3340069620602135  0.1013871690200866
  0.9073176598097944  0.3342592547492406  0.6025005289334066
  0.9084265060923231  0.6659930379397866  0.1013871690200866
  0.9073176598097944  0.6657407452507597  0.6025005289334066
  0.1578102785681549  0.1672692962349774  0.1543555081382907
  0.1560008012313249  0.1701378904367626  0.6598243965399264
  0.1593372150260754  0.5000000000000000  0.1574161721544903
  0.1585756942843277  0.5000000000000000  0.6561632091056493
  0.1578102785681549  0.8327307037650228  0.1543555081382907
  0.1560008012313249  0.8298621095632376  0.6598243965399264
  0.3426209015409445 -0.0000000000000000  0.3403290412616776
  0.3402715101877934 -0.0000000000000000  0.8430405788916020
  0.3404655724802724  0.3331741348432759  0.3429105786742254
  0.3411553761874015  0.3336788708673818  0.8437879178863447
  0.3404655724802724  0.6668258651567238  0.3429105786742254
  0.3411553761874015  0.6663211291326182  0.8437879178863447
  0.0889244883173746 -0.0000000000000000  0.8972902760716778
  0.0923598344456661  0.3320950780157021  0.3981645666309226
  0.0898105876390647  0.3337554998742018  0.8980620177724340
  0.0923598344456661  0.6679049219842979  0.3981645666309226
  0.0898105876390647  0.6662445001257979  0.8980620177724340
  0.4099200049407927  0.1664984414312670  0.1021362761923497
  0.4075361886275009  0.1662217688615566  0.6013188161903280
  0.4099350970217611  0.5000000000000000  0.1028164206905665
  0.4078701673598213  0.5000000000000000  0.6024520981297068
  0.4099200049407927  0.8335015585687329  0.1021362761923497
  0.4075361886275009  0.8337782311384432  0.6013188161903280
  0.9957611628590601  0.1679735130626031  0.1245518936591096
  0.9943986117632528  0.1682782808055064  0.6302652382578618
  0.9965077826174992  0.5000000000000000  0.1260324036221734
  0.9959070971012948  0.5000000000000000  0.6279453156094666
  0.9957611628590601  0.8320264869373972  0.1245518936591096
  0.9943986117632528  0.8317217191944940  0.6302652382578618
  0.5047661670408190 -0.0000000000000000  0.3729847454329892
  0.5031323134843153 -0.0000000000000000  0.8721897024958042
  0.5032352702533240  0.3323047740503730  0.3729272393338681
  0.5035200470755380  0.3331843283922910  0.8724926557911307
  0.5032352702533240  0.6676952259496273  0.3729272393338681
  0.5035200470755380  0.6668156716077088  0.8724926557911307
  0.6747479307198927  0.1666870731686734  0.2809065111725346
  0.6714712599679045  0.1664494705890238  0.7800423398428988
  0.6734216635215612  0.5000000000000000  0.2812736805738563
  0.6704952880543783  0.5000000000000000  0.7796406957592678
  0.6747479307198927  0.8333129268313266  0.2809065111725346
  0.6714712599679045  0.8335505294109757  0.7800423398428988
  0.8288331205654376 -0.0000000000000000  0.2197997491308204
  0.8268603829950558 -0.0000000000000000  0.7193845569935277
  0.8287591223291091  0.3333988024810100  0.2198372333328704
  0.8257620138920517  0.3341074312555447  0.7193742223026033
  0.8287591223291091  0.6666011975189903  0.2198372333328704
  0.8257620138920517  0.6658925687444552  0.7193742223026033
  0.8318723921669953 -0.0000000000000000  0.4461156745721260
  0.8318872241130446 -0.0000000000000000  0.9462255066901962
  0.8334111412992848  0.3328544459380903  0.4452138728022919
  0.8303256756582506  0.3337467386069645  0.9451791696766194
  0.8334111412992848  0.6671455540619099  0.4452138728022919
  0.8303256756582506  0.6662532613930350  0.9451791696766194
  0.6680514708002144  0.1666263201136378  0.0544226471631638
  0.6676156536363667  0.1669911243120962  0.5542098791191093
  0.6679559248224620  0.5000000000000000  0.0549696877285590
  0.6668138176608008  0.5000000000000000  0.5536243997490194
  0.6680514708002144  0.8333736798863625  0.0544226471631638
  0.6676156536363667  0.8330088756879035  0.5542098791191093
  0.4973674485241426 -0.0000000000000000  0.1279325139356242
  0.4954620356628426 -0.0000000000000000  0.6261014737351902
  0.4971829910018649  0.3331344437667836  0.1280845961125924
  0.4947776891737616  0.3327738187223175  0.6262085978437935
  0.4971829910018649  0.6668655562332162  0.1280845961125924
  0.4947776891737616  0.6672261812776830  0.6262085978437935
  0.0081598075830439  0.1662147609482679  0.3740791006431570
  0.0023688502887332  0.1673449080233396  0.8729668833581721
  0.0055551414694991  0.5000000000000000  0.3732313565567694
  0.0022600934165690  0.5000000000000000  0.8726259260751685
  0.0081598075830439  0.8337852390517319  0.3740791006431570
  0.0023688502887332  0.8326550919766605  0.8729668833581721
  0.1671333314148124 -0.0000000000000000  0.2696037105775992
  0.1722818186726178 -0.0000000000000000  0.7826989005650451
  0.1734434356088631  0.3338008126467109  0.2798298700128963
  0.1724096675310520  0.3341644546357155  0.7818113414325206
  0.1734434356088631  0.6661991873532894  0.2798298700128963
  0.1724096675310520  0.6658355453642849  0.7818113414325206
  0.3276283349102130  0.1655124500637801  0.2191021304469911
  0.3254925810426778  0.1651753999009135  0.7181202116973289
  0.3284208224283489  0.5000000000000000  0.2196670806515834
  0.3273887765164030  0.5000000000000000  0.7204086295778322
  0.3276283349102130  0.8344875499362194  0.2191021304469911
  0.3254925810426778  0.8348246000990867  0.7181202116973289
  0.3289037223705650  0.1639506922667762  0.4443794894046853
  0.3333380565338479  0.1670200843042476  0.9456104502627601
  0.3319573748945687  0.5000000000000000  0.4456279301713465
  0.3330052827964868  0.5000000000000000  0.9464067218927402
  0.3289037223705650  0.8360493077332235  0.4443794894046853
  0.3333380565338479  0.8329799156957522  0.9456104502627601
  0.1690286389316321 -0.0000000000000000  0.0517470050923201
  0.1555118357939296 -0.0000000000000000  0.5603323289049065
  0.1685650410053685  0.3340006949582066  0.0538167766038761
  0.1688124178480053  0.3335188481398350  0.5556174638913264
  0.1685650410053685  0.6659993050417933  0.0538167766038761
  0.1688124178480053  0.6664811518601655  0.5556174638913264
  0.1130559519316521 -0.0000000000000000  0.4026846941728080
 
  0.00000000E+00  0.00000000E+00  0.00000000E+00
  0.00000000E+00  0.00000000E+00  0.00000000E+00
  0.00000000E+00  0.00000000E+00  0.00000000E+00
  0.00000000E+00  0.00000000E+00  0.00000000E+00
  0.00000000E+00  0.00000000E+00  0.00000000E+00
  0.00000000E+00  0.00000000E+00  0.00000000E+00
  0.00000000E+00  0.00000000E+00  0.00000000E+00
  0.00000000E+00  0.00000000E+00  0.00000000E+00
  0.00000000E+00  0.00000000E+00  0.00000000E+00
  0.00000000E+00  0.00000000E+00  0.00000000E+00
  0.00000000E+00  0.00000000E+00  0.00000000E+00
  0.00000000E+00  0.00000000E+00  0.00000000E+00
  0.00000000E+00  0.00000000E+00  0.00000000E+00
  0.00000000E+00  0.00000000E+00  0.00000000E+00
  0.00000000E+00  0.00000000E+00  0.00000000E+00
  0.00000000E+00  0.00000000E+00  0.00000000E+00
  0.00000000E+00  0.00000000E+00  0.00000000E+00
  0.00000000E+00  0.00000000E+00  0.00000000E+00
  0.00000000E+00  0.00000000E+00  0.00000000E+00
  0.00000000E+00  0.00000000E+00  0.00000000E+00
  0.00000000E+00  0.00000000E+00  0.00000000E+00
  0.00000000E+00  0.00000000E+00  0.00000000E+00
  0.00000000E+00  0.00000000E+00  0.00000000E+00
  0.00000000E+00  0.00000000E+00  0.00000000E+00
  0.00000000E+00  0.00000000E+00  0.00000000E+00
  0.00000000E+00  0.00000000E+00  0.00000000E+00
  0.00000000E+00  0.00000000E+00  0.00000000E+00
  0.00000000E+00  0.00000000E+00  0.00000000E+00
  0.00000000E+00  0.00000000E+00  0.00000000E+00
  0.00000000E+00  0.00000000E+00  0.00000000E+00
  0.00000000E+00  0.00000000E+00  0.00000000E+00
  0.00000000E+00  0.00000000E+00  0.00000000E+00
  0.00000000E+00  0.00000000E+00  0.00000000E+00
  0.00000000E+00  0.00000000E+00  0.00000000E+00
  0.00000000E+00  0.00000000E+00  0.00000000E+00
  0.00000000E+00  0.00000000E+00  0.00000000E+00
  0.00000000E+00  0.00000000E+00  0.00000000E+00
  0.00000000E+00  0.00000000E+00  0.00000000E+00
  0.00000000E+00  0.00000000E+00  0.00000000E+00
  0.00000000E+00  0.00000000E+00  0.00000000E+00
  0.00000000E+00  0.00000000E+00  0.00000000E+00
  0.00000000E+00  0.00000000E+00  0.00000000E+00
  0.00000000E+00  0.00000000E+00  0.00000000E+00
  0.00000000E+00  0.00000000E+00  0.00000000E+00
  0.00000000E+00  0.00000000E+00  0.00000000E+00
  0.00000000E+00  0.00000000E+00  0.00000000E+00
  0.00000000E+00  0.00000000E+00  0.00000000E+00
  0.00000000E+00  0.00000000E+00  0.00000000E+00
  0.00000000E+00  0.00000000E+00  0.00000000E+00
  0.00000000E+00  0.00000000E+00  0.00000000E+00
  0.00000000E+00  0.00000000E+00  0.00000000E+00
  0.00000000E+00  0.00000000E+00  0.00000000E+00
  0.00000000E+00  0.00000000E+00  0.00000000E+00
  0.00000000E+00  0.00000000E+00  0.00000000E+00
  0.00000000E+00  0.00000000E+00  0.00000000E+00
  0.00000000E+00  0.00000000E+00  0.00000000E+00
  0.00000000E+00  0.00000000E+00  0.00000000E+00
  0.00000000E+00  0.00000000E+00  0.00000000E+00
  0.00000000E+00  0.00000000E+00  0.00000000E+00
  0.00000000E+00  0.00000000E+00  0.00000000E+00
  0.00000000E+00  0.00000000E+00  0.00000000E+00
  0.00000000E+00  0.00000000E+00  0.00000000E+00
  0.00000000E+00  0.00000000E+00  0.00000000E+00
  0.00000000E+00  0.00000000E+00  0.00000000E+00
  0.00000000E+00  0.00000000E+00  0.00000000E+00
  0.00000000E+00  0.00000000E+00  0.00000000E+00
  0.00000000E+00  0.00000000E+00  0.00000000E+00
  0.00000000E+00  0.00000000E+00  0.00000000E+00
  0.00000000E+00  0.00000000E+00  0.00000000E+00
  0.00000000E+00  0.00000000E+00  0.00000000E+00
  0.00000000E+00  0.00000000E+00  0.00000000E+00
  0.00000000E+00  0.00000000E+00  0.00000000E+00
  0.00000000E+00  0.00000000E+00  0.00000000E+00
  0.00000000E+00  0.00000000E+00  0.00000000E+00
  0.00000000E+00  0.00000000E+00  0.00000000E+00
  0.00000000E+00  0.00000000E+00  0.00000000E+00
  0.00000000E+00  0.00000000E+00  0.00000000E+00
  0.00000000E+00  0.00000000E+00  0.00000000E+00
  0.00000000E+00  0.00000000E+00  0.00000000E+00
  0.00000000E+00  0.00000000E+00  0.00000000E+00
  0.00000000E+00  0.00000000E+00  0.00000000E+00
  0.00000000E+00  0.00000000E+00  0.00000000E+00
  0.00000000E+00  0.00000000E+00  0.00000000E+00
  0.00000000E+00  0.00000000E+00  0.00000000E+00
  0.00000000E+00  0.00000000E+00  0.00000000E+00
  0.00000000E+00  0.00000000E+00  0.00000000E+00
  0.00000000E+00  0.00000000E+00  0.00000000E+00
  0.00000000E+00  0.00000000E+00  0.00000000E+00
  0.00000000E+00  0.00000000E+00  0.00000000E+00
  0.00000000E+00  0.00000000E+00  0.00000000E+00
  0.00000000E+00  0.00000000E+00  0.00000000E+00
  0.00000000E+00  0.00000000E+00  0.00000000E+00
  0.00000000E+00  0.00000000E+00  0.00000000E+00
  0.00000000E+00  0.00000000E+00  0.00000000E+00
  0.00000000E+00  0.00000000E+00  0.00000000E+00
  0.00000000E+00  0.00000000E+00  0.00000000E+00
  0.00000000E+00  0.00000000E+00  0.00000000E+00
  0.00000000E+00  0.00000000E+00  0.00000000E+00
  0.00000000E+00  0.00000000E+00  0.00000000E+00
  0.00000000E+00  0.00000000E+00  0.00000000E+00
  0.00000000E+00  0.00000000E+00  0.00000000E+00
  0.00000000E+00  0.00000000E+00  0.00000000E+00
  0.00000000E+00  0.00000000E+00  0.00000000E+00
  0.00000000E+00  0.00000000E+00  0.00000000E+00
  0.00000000E+00  0.00000000E+00  0.00000000E+00
  0.00000000E+00  0.00000000E+00  0.00000000E+00
  0.00000000E+00  0.00000000E+00  0.00000000E+00
  0.00000000E+00  0.00000000E+00  0.00000000E+00
  0.00000000E+00  0.00000000E+00  0.00000000E+00
  0.00000000E+00  0.00000000E+00  0.00000000E+00
  0.00000000E+00  0.00000000E+00  0.00000000E+00
  0.00000000E+00  0.00000000E+00  0.00000000E+00
  0.00000000E+00  0.00000000E+00  0.00000000E+00
  0.00000000E+00  0.00000000E+00  0.00000000E+00
  0.00000000E+00  0.00000000E+00  0.00000000E+00
  0.00000000E+00  0.00000000E+00  0.00000000E+00
  0.00000000E+00  0.00000000E+00  0.00000000E+00
  0.00000000E+00  0.00000000E+00  0.00000000E+00
  0.00000000E+00  0.00000000E+00  0.00000000E+00
  0.00000000E+00  0.00000000E+00  0.00000000E+00
