 vasp.6.4.2 20Jul23 (build Nov 12 2023 22:16:35) complex                         
 executed on              LinuxNV date 2025.05.09  08:25:37
 running    4 mpi-ranks, on    1 nodes
 distrk:  each k-point on    1 cores,    4 groups
 distr:  one band on NCORE=   1 cores,    1 groups
 OpenACC runtime initialized ...    4 GPUs detected


--------------------------------------------------------------------------------------------------------


 INCAR:
   PREC = Normal
   ENCUT = 450
   NELM = 500
   IBRION = -1
   ISPIN = 1
   NSW = 0
   ISIF = 2
   EDIFF = 1E-5
   EDIFFG = -5E-3
   ISTART = 1
   ICHARG = 1
   ISMEAR = 0
   SIGMA = 0.05
   LWAVE = .T.
   LCHARG = .T.
   LREAL = Auto
   LPLANE = .TRUE.
   NPAR = 1
   KPAR = 4
   NCORE = 1
   ALGO = All
   LHFCALC = .TRUE.
   HSE06 = .TRUE.
   HFSCREEN = 0.2
   TIME = 0.4
   AEXX = 0.32
   LMAXFOCK = 4
   PRECFOCK = Fast
   ICORELEVEL = 1

 POTCAR:    PAW_PBE Ga_d 06Jul2010                
 POTCAR:    PAW_PBE O 08Apr2002                   
 POTCAR:    PAW_PBE Ga_d 06Jul2010                
   SHA256 =  a60ddf36e14f00ea098d9e3914b3745f1b7105e68786148f49ae384e44b4226c Ga_d/POTCAR           
   COPYR  = (c) Copyright 06Jul2010 Georg Kresse                                                    
   COPYR  = This file is part of the software VASP. Any use, copying, and all other rights are regul
   COPYR  = If you do not have a valid VASP license, you may not use, copy or distribute this file. 
   VRHFIN =Ga: s2p1                                                                                 
   LEXCH  = PE                                                                                      
   EATOM  =  2148.8298 eV,  157.9345 Ry                                                             
                                                                                                    
   TITEL  = PAW_PBE Ga_d 06Jul2010                                                                  
   LULTRA =        F    use ultrasoft PP ?                                                          
   IUNSCR =        1    unscreen: 0-lin 1-nonlin 2-no                                               
   RPACOR =    1.700    partial core radius                                                         
   POMASS =   69.723; ZVAL   =   13.000    mass and valenz                                          
   RCORE  =    2.300    outmost cutoff radius                                                       
   RWIGS  =    2.300; RWIGS  =    1.217    wigner-seitz radius (au A)                               
   ENMAX  =  282.691; ENMIN  =  212.018 eV                                                          
   ICORE  =        3    local potential                                                             
   LCOR   =        T    correct aug charges                                                         
   LPAW   =        T    paw PP                                                                      
   EAUG   =  490.690                                                                                
   DEXC   =    0.000                                                                                
   RMAX   =    2.341    core radius for proj-oper                                                   
   RAUG   =    1.300    factor for augmentation sphere                                              
   RDEP   =    2.413    radius for radial grids                                                     
   RDEPT  =    1.856    core radius for aug-charge                                                  
                                                                                                    
   Atomic configuration                                                                             
    9 entries                                                                                       
     n  l   j            E        occ.                                                              
     1  0  0.50    -10228.7831   2.0000                                                             
     2  0  0.50     -1262.1604   2.0000                                                             
     2  1  1.50     -1098.6333   6.0000                                                             
     3  0  0.50      -148.1110   2.0000                                                             
     3  1  1.50       -98.8436   6.0000                                                             
     3  2  2.50       -19.1549  10.0000                                                             
     4  0  0.50        -8.9483   2.0000                                                             
     4  1  0.50        -2.5791   1.0000                                                             
     4  3  2.50        -2.7416   0.0000                                                             
   Description                                                                                      
     l       E           TYP  RCUT    TYP  RCUT                                                     
     2    -19.1549037     23  2.300                                                                 
     2     -5.4423304     23  2.300                                                                 
     0     -8.9483111     23  2.300                                                                 
     0     68.0291300     23  2.300                                                                 
     1     -2.5790802     23  2.100                                                                 
     1     81.6349560     23  2.300                                                                 
     3      6.8029130     23  2.300                                                                 
  local pseudopotential read in
  partial core-charges read in
  partial kinetic energy density read in
  atomic valenz-charges read in
  non local Contribution for L=            2  read in
    real space projection operators read in
  non local Contribution for L=            2  read in
    real space projection operators read in
  non local Contribution for L=            0  read in
    real space projection operators read in
  non local Contribution for L=            0  read in
    real space projection operators read in
  non local Contribution for L=            1  read in
    real space projection operators read in
  non local Contribution for L=            1  read in
    real space projection operators read in
    PAW grid and wavefunctions read in
 
   number of l-projection  operators is LMAX  =            6
   number of lm-projection operators is LMMAX =           18
 
 POTCAR:    PAW_PBE O 08Apr2002                   
   SHA256 =  818f92134a0a090dccd8ba1447fa70422a3b330e708bb4f08108d8ae51209ddf O/POTCAR              
   COPYR  = (c) Copyright 08Apr2002 Georg Kresse                                                    
   COPYR  = This file is part of the software VASP. Any use, copying, and all other rights are regul
   COPYR  = If you do not have a valid VASP license, you may not use, copy or distribute this file. 
   VRHFIN =O: s2p4                                                                                  
   LEXCH  = PE                                                                                      
   EATOM  =   432.3788 eV,   31.7789 Ry                                                             
                                                                                                    
   TITEL  = PAW_PBE O 08Apr2002                                                                     
   LULTRA =        F    use ultrasoft PP ?                                                          
   IUNSCR =        1    unscreen: 0-lin 1-nonlin 2-no                                               
   RPACOR =    1.200    partial core radius                                                         
   POMASS =   16.000; ZVAL   =    6.000    mass and valenz                                          
   RCORE  =    1.520    outmost cutoff radius                                                       
   RWIGS  =    1.550; RWIGS  =    0.820    wigner-seitz radius (au A)                               
   ENMAX  =  400.000; ENMIN  =  300.000 eV                                                          
   ICORE  =        2    local potential                                                             
   LCOR   =        T    correct aug charges                                                         
   LPAW   =        T    paw PP                                                                      
   EAUG   =  605.392                                                                                
   DEXC   =    0.000                                                                                
   RMAX   =    1.553    core radius for proj-oper                                                   
   RAUG   =    1.300    factor for augmentation sphere                                              
   RDEP   =    1.550    radius for radial grids                                                     
   RDEPT  =    1.329    core radius for aug-charge                                                  
                                                                                                    
   Atomic configuration                                                                             
    4 entries                                                                                       
     n  l   j            E        occ.                                                              
     1  0  0.50      -514.6923   2.0000                                                             
     2  0  0.50       -23.9615   2.0000                                                             
     2  1  0.50        -9.0305   4.0000                                                             
     3  2  1.50        -9.5241   0.0000                                                             
   Description                                                                                      
     l       E           TYP  RCUT    TYP  RCUT                                                     
     0    -23.9615318     23  1.200                                                                 
     0     -9.5240782     23  1.200                                                                 
     1     -9.0304911     23  1.520                                                                 
     1      8.1634956     23  1.520                                                                 
     2     -9.5240782      7  1.500                                                                 
  local pseudopotential read in
  partial core-charges read in
  partial kinetic energy density read in
  kinetic energy density of atom read in
  atomic valenz-charges read in
  non local Contribution for L=            0  read in
    real space projection operators read in
  non local Contribution for L=            0  read in
    real space projection operators read in
  non local Contribution for L=            1  read in
    real space projection operators read in
  non local Contribution for L=            1  read in
    real space projection operators read in
    PAW grid and wavefunctions read in
 
   number of l-projection  operators is LMAX  =            4
   number of lm-projection operators is LMMAX =            8
 
 Optimization of the real space projectors (new method)

 maximal supplied QI-value         = 16.25
 optimisation between [QCUT,QGAM] = [ 10.73, 21.61] = [ 32.22,130.83] Ry 
 Optimized for a Real-space Cutoff    1.42 Angstroem

   l    n(q)    QCUT    max X(q) W(low)/X(q) W(high)/X(q)  e(spline) 
   2      8    10.726     7.143    0.22E-03    0.16E-03    0.73E-07
   2      8    10.726     5.586    0.40E-03    0.26E-03    0.10E-06
   0      9    10.726    12.382    0.25E-04    0.21E-05    0.37E-07
   0      9    10.726     6.622    0.42E-04    0.48E-05    0.77E-07
   1      9    10.726     7.935    0.27E-03    0.13E-04    0.16E-06
   1      9    10.726     2.425    0.23E-03    0.15E-04    0.14E-06
 Optimization of the real space projectors (new method)

 maximal supplied QI-value         = 24.76
 optimisation between [QCUT,QGAM] = [ 10.64, 21.54] = [ 31.73,129.89] Ry 
 Optimized for a Real-space Cutoff    1.23 Angstroem

   l    n(q)    QCUT    max X(q) W(low)/X(q) W(high)/X(q)  e(spline) 
   0      8    10.645    20.381    0.38E-03    0.60E-03    0.15E-06
   0      8    10.645    15.268    0.40E-03    0.65E-03    0.17E-06
   1      7    10.645     5.964    0.30E-03    0.63E-03    0.18E-06
   1      7    10.645     5.382    0.24E-03    0.53E-03    0.16E-06
  PAW_PBE Ga_d 06Jul2010                :
 energy of atom  1       EATOM=-2148.8298
 kinetic energy error for atom=    0.0038 (will be added to EATOM!!)
  PAW_PBE O 08Apr2002                   :
 energy of atom  2       EATOM= -432.3788
 kinetic energy error for atom=    0.0389 (will be added to EATOM!!)
 
 
 POSCAR: Ga48 O72
  positions in direct lattice
  velocities in cartesian coordinates
 exchange correlation table for  LEXCH =        8
   RHO(1)=    0.500       N(1)  =     2000
   RHO(2)=  100.500       N(2)  =     4000
 


--------------------------------------------------------------------------------------------------------


 ion  position               nearest neighbor table
   1  0.659  0.000  0.157-  85 1.94  83 1.95  79 1.95  67 2.02  61 2.08  65 2.08
   2  0.659  0.000  0.657-  86 1.94  84 1.95  80 1.95  68 2.02  62 2.08  66 2.08
   3  0.659  0.333  0.157-  87 1.94  81 1.95  79 1.95  69 2.02  63 2.08  61 2.08
   4  0.659  0.333  0.657-  88 1.94  82 1.95  80 1.95  70 2.02  64 2.08  62 2.08
   5  0.659  0.667  0.157-  89 1.94  81 1.95  83 1.95  71 2.02  63 2.08  65 2.08
   6  0.659  0.667  0.657-  90 1.94  82 1.95  84 1.95  72 2.02  64 2.08  66 2.08
   7  0.841  0.167  0.343-  91 1.94  73 1.95  75 1.95  61 2.02  67 2.08  69 2.08
   8  0.841  0.167  0.843-  92 1.94  74 1.95  76 1.95  62 2.02  68 2.08  70 2.08
   9  0.841  0.500  0.343-  93 1.94  77 1.95  75 1.95  63 2.02  71 2.08  69 2.08
  10  0.841  0.500  0.843-  94 1.94  78 1.95  76 1.95  64 2.02  72 2.08  70 2.08
  11  0.841  0.833  0.343-  95 1.94  73 1.95  77 1.95  65 2.02  67 2.08  71 2.08
  12  0.841  0.833  0.843-  96 1.94  74 1.95  78 1.95  66 2.02  68 2.08  72 2.08
  13  0.591  0.167  0.398-  80 1.84  55 1.85  57 1.85  61 1.87
  14  0.591  0.167  0.898-  79 1.84  56 1.85  58 1.85  62 1.87
  15  0.591  0.500  0.398-  82 1.84  59 1.85  57 1.85  63 1.87
  16  0.591  0.500  0.898-  81 1.84  60 1.85  58 1.85  64 1.87
  17  0.591  0.833  0.398-  84 1.84  55 1.85  59 1.85  65 1.87
  18  0.591  0.833  0.898-  83 1.84  56 1.85  60 1.85  66 1.87
  19  0.909  0.000  0.102-  74 1.84  53 1.85  49 1.85  67 1.87
  20  0.909  0.000  0.602-  73 1.84  54 1.85  50 1.85  68 1.87
  21  0.909  0.333  0.102-  76 1.84  51 1.85  49 1.85  69 1.87
  22  0.909  0.333  0.602-  75 1.84  52 1.85  50 1.85  70 1.87
  23  0.909  0.667  0.102-  78 1.84  51 1.85  53 1.85  71 1.87
  24  0.909  0.667  0.602-  77 1.84  52 1.85  54 1.85  72 1.87
  25  0.159  0.167  0.157-  49 1.94 115 1.95 117 1.95 103 2.02  97 2.08  99 2.08
  26  0.159  0.167  0.657-  50 1.94 116 1.95 118 1.95 104 2.02  98 2.08 100 2.08
  27  0.159  0.500  0.157-  51 1.94 117 1.95 119 1.95 105 2.02 101 2.08  99 2.08
  28  0.159  0.500  0.657-  52 1.94 118 1.95 120 1.95 106 2.02 102 2.08 100 2.08
  29  0.159  0.833  0.157-  53 1.94 115 1.95 119 1.95 107 2.02  97 2.08 101 2.08
  30  0.159  0.833  0.657-  54 1.94 116 1.95 120 1.95 108 2.02  98 2.08 102 2.08
  31  0.341  0.000  0.343-  55 1.94 109 1.95 113 1.95  97 2.02 103 2.08 107 2.08
  32  0.341  0.000  0.843-  56 1.94 110 1.95 114 1.95  98 2.02 104 2.08 108 2.08
  33  0.341  0.333  0.343-  57 1.94 111 1.95 109 1.95  99 2.02 105 2.08 103 2.08
  34  0.341  0.333  0.843-  58 1.94 112 1.95 110 1.95 100 2.02 106 2.08 104 2.08
  35  0.341  0.667  0.343-  59 1.94 111 1.95 113 1.95 101 2.02 105 2.08 107 2.08
  36  0.341  0.667  0.843-  60 1.94 112 1.95 114 1.95 102 2.02 106 2.08 108 2.08
  37  0.091  0.000  0.398- 116 1.84  95 1.85  91 1.85  97 1.87
  38  0.091  0.000  0.898- 115 1.84  96 1.85  92 1.85  98 1.87
  39  0.091  0.333  0.398- 118 1.84  93 1.85  91 1.85  99 1.87
  40  0.091  0.333  0.898- 117 1.84  94 1.85  92 1.85 100 1.87
  41  0.091  0.667  0.398- 120 1.84  93 1.85  95 1.85 101 1.87
  42  0.091  0.667  0.898- 119 1.84  94 1.85  96 1.85 102 1.87
  43  0.409  0.167  0.102- 110 1.84  85 1.85  87 1.85 103 1.87
  44  0.409  0.167  0.602- 109 1.84  86 1.85  88 1.85 104 1.87
  45  0.409  0.500  0.102- 112 1.84  89 1.85  87 1.85 105 1.87
  46  0.409  0.500  0.602- 111 1.84  90 1.85  88 1.85 106 1.87
  47  0.409  0.833  0.102- 114 1.84  85 1.85  89 1.85 107 1.87
  48  0.409  0.833  0.602- 113 1.84  86 1.85  90 1.85 108 1.87
  49  0.996  0.167  0.127-  19 1.85  21 1.85  25 1.94
  50  0.996  0.167  0.627-  20 1.85  22 1.85  26 1.94
  51  0.996  0.500  0.127-  21 1.85  23 1.85  27 1.94
  52  0.996  0.500  0.627-  22 1.85  24 1.85  28 1.94
  53  0.996  0.833  0.127-  19 1.85  23 1.85  29 1.94
  54  0.996  0.833  0.627-  20 1.85  24 1.85  30 1.94
  55  0.504  0.000  0.373-  13 1.85  17 1.85  31 1.94
  56  0.504  0.000  0.873-  14 1.85  18 1.85  32 1.94
  57  0.504  0.333  0.373-  15 1.85  13 1.85  33 1.94
  58  0.504  0.333  0.873-  16 1.85  14 1.85  34 1.94
  59  0.504  0.667  0.373-  15 1.85  17 1.85  35 1.94
  60  0.504  0.667  0.873-  16 1.85  18 1.85  36 1.94
  61  0.673  0.167  0.280-  13 1.87   7 2.02   1 2.08   3 2.08
  62  0.673  0.167  0.780-  14 1.87   8 2.02   2 2.08   4 2.08
  63  0.673  0.500  0.280-  15 1.87   9 2.02   3 2.08   5 2.08
  64  0.673  0.500  0.780-  16 1.87  10 2.02   4 2.08   6 2.08
  65  0.673  0.833  0.280-  17 1.87  11 2.02   1 2.08   5 2.08
  66  0.673  0.833  0.780-  18 1.87  12 2.02   2 2.08   6 2.08
  67  0.827  0.000  0.220-  19 1.87   1 2.02  11 2.08   7 2.08
  68  0.827  0.000  0.720-  20 1.87   2 2.02  12 2.08   8 2.08
  69  0.827  0.333  0.220-  21 1.87   3 2.02   9 2.08   7 2.08
  70  0.827  0.333  0.720-  22 1.87   4 2.02  10 2.08   8 2.08
  71  0.827  0.667  0.220-  23 1.87   5 2.02   9 2.08  11 2.08
  72  0.827  0.667  0.720-  24 1.87   6 2.02  10 2.08  12 2.08
  73  0.832  0.000  0.446-  20 1.84  11 1.95   7 1.95
  74  0.832  0.000  0.946-  19 1.84  12 1.95   8 1.95
  75  0.832  0.333  0.446-  22 1.84   9 1.95   7 1.95
  76  0.832  0.333  0.946-  21 1.84  10 1.95   8 1.95
  77  0.832  0.667  0.446-  24 1.84   9 1.95  11 1.95
  78  0.832  0.667  0.946-  23 1.84  10 1.95  12 1.95
  79  0.668  0.167  0.054-  14 1.84   1 1.95   3 1.95
  80  0.668  0.167  0.554-  13 1.84   2 1.95   4 1.95
  81  0.668  0.500  0.054-  16 1.84   5 1.95   3 1.95
  82  0.668  0.500  0.554-  15 1.84   6 1.95   4 1.95
  83  0.668  0.833  0.054-  18 1.84   1 1.95   5 1.95
  84  0.668  0.833  0.554-  17 1.84   2 1.95   6 1.95
  85  0.496  0.000  0.127-  43 1.85  47 1.85   1 1.94
  86  0.496  0.000  0.627-  44 1.85  48 1.85   2 1.94
  87  0.496  0.333  0.127-  45 1.85  43 1.85   3 1.94
  88  0.496  0.333  0.627-  46 1.85  44 1.85   4 1.94
  89  0.496  0.667  0.127-  45 1.85  47 1.85   5 1.94
  90  0.496  0.667  0.627-  46 1.85  48 1.85   6 1.94
  91  0.004  0.167  0.373-  37 1.85  39 1.85   7 1.94
  92  0.004  0.167  0.873-  38 1.85  40 1.85   8 1.94
  93  0.004  0.500  0.373-  39 1.85  41 1.85   9 1.94
  94  0.004  0.500  0.873-  40 1.85  42 1.85  10 1.94
  95  0.004  0.833  0.373-  37 1.85  41 1.85  11 1.94
  96  0.004  0.833  0.873-  38 1.85  42 1.85  12 1.94
  97  0.173  0.000  0.280-  37 1.87  31 2.02  25 2.08  29 2.08
  98  0.173  0.000  0.780-  38 1.87  32 2.02  26 2.08  30 2.08
  99  0.173  0.333  0.280-  39 1.87  33 2.02  27 2.08  25 2.08
 100  0.173  0.333  0.780-  40 1.87  34 2.02  28 2.08  26 2.08
 101  0.173  0.667  0.280-  41 1.87  35 2.02  27 2.08  29 2.08
 102  0.173  0.667  0.780-  42 1.87  36 2.02  28 2.08  30 2.08
 103  0.327  0.167  0.220-  43 1.87  25 2.02  31 2.08  33 2.08
 104  0.327  0.167  0.720-  44 1.87  26 2.02  32 2.08  34 2.08
 105  0.327  0.500  0.220-  45 1.87  27 2.02  35 2.08  33 2.08
 106  0.327  0.500  0.720-  46 1.87  28 2.02  36 2.08  34 2.08
 107  0.327  0.833  0.220-  47 1.87  29 2.02  31 2.08  35 2.08
 108  0.327  0.833  0.720-  48 1.87  30 2.02  32 2.08  36 2.08
 109  0.332  0.167  0.446-  44 1.84  31 1.95  33 1.95
 110  0.332  0.167  0.946-  43 1.84  32 1.95  34 1.95
 111  0.332  0.500  0.446-  46 1.84  35 1.95  33 1.95
 112  0.332  0.500  0.946-  45 1.84  36 1.95  34 1.95
 113  0.332  0.833  0.446-  48 1.84  31 1.95  35 1.95
 114  0.332  0.833  0.946-  47 1.84  32 1.95  36 1.95
 115  0.168  0.000  0.054-  38 1.84  29 1.95  25 1.95
 116  0.168  0.000  0.554-  37 1.84  30 1.95  26 1.95
 117  0.168  0.333  0.054-  40 1.84  27 1.95  25 1.95
 118  0.168  0.333  0.554-  39 1.84  28 1.95  26 1.95
 119  0.168  0.667  0.054-  42 1.84  27 1.95  29 1.95
 120  0.168  0.667  0.554-  41 1.84  28 1.95  30 1.95
 
  LATTYP: Found a simple monoclinic cell.
 ALAT       =    11.6348202465
 B/A-ratio  =     0.7858051831
 C/A-ratio  =     1.0554931797
 COS(beta)  =    -0.2379290539
  
  Lattice vectors:
  
 A1 = (   0.0000000000,  -2.7682617730, -11.3006977184)
 A2 = (  -9.1427020537,   0.0000000000,   0.0000000000)
 A3 = (   0.0000000000,  12.2804734172,   0.0000000000)


Analysis of symmetry for initial positions (statically):
=====================================================================
 Subroutine PRICEL returns following result:
 
  LATTYP: Found a base centered monoclinic cell.
 ALAT       =    12.2804734172
 B/A-ratio  =     0.2481636699
 C/A-ratio  =     0.4737122036
 COS(beta)  =    -0.2379290539
  
  Lattice vectors:
  
 A1 = (  -1.5237836756,   6.1402367086,   0.0000000000)
 A2 = (   1.5237836756,   6.1402367086,   0.0000000000)
 A3 = (   0.0000000000,  -1.3841308865,  -5.6503488592)
 
  12 primitive cells build up your supercell.
 

 Routine SETGRP: Setting up the symmetry group for a 
 simple monoclinic supercell.


 Subroutine GETGRP returns: Found  4 space group operations
 (whereof  4 operations were pure point group operations)
 out of a pool of  4 trial point group operations.


The static configuration has the point symmetry C_2h.


Analysis of symmetry for dynamics (positions and initial velocities):
=====================================================================
 Subroutine PRICEL returns following result:
 
  LATTYP: Found a base centered monoclinic cell.
 ALAT       =    12.2804734172
 B/A-ratio  =     0.2481636699
 C/A-ratio  =     0.4737122036
 COS(beta)  =    -0.2379290539
  
  Lattice vectors:
  
 A1 = (  -1.5237836756,   6.1402367086,   0.0000000000)
 A2 = (   1.5237836756,   6.1402367086,   0.0000000000)
 A3 = (   0.0000000000,  -1.3841308865,  -5.6503488592)
 
  12 primitive cells build up your supercell.
 

 Routine SETGRP: Setting up the symmetry group for a 
 simple monoclinic supercell.


 Subroutine GETGRP returns: Found  4 space group operations
 (whereof  4 operations were pure point group operations)
 out of a pool of  4 trial point group operations.


The dynamic configuration has the point symmetry C_2h.


 Subroutine INISYM returns: Found  4 space group operations
 (whereof  4 operations are pure point group operations),
 and found    12 'primitive' translations


----------------------------------------------------------------------------------------

                                     Primitive cell                                     

  volume of cell :     105.7338

  direct lattice vectors                    reciprocal lattice vectors
    -1.523783676  6.140236709  0.000000000    -0.328130566  0.081430085 -0.019947423
     1.523783676  6.140236709  0.000000000     0.328130566  0.081430085 -0.019947423
     0.000000000 -1.384130887 -5.650348859     0.000000000  0.000000000 -0.176980223

  length of vectors
     6.326485875  6.326485875  5.817410123     0.338671562  0.338671562  0.176980223

  position of ions in fractional coordinates (direct lattice)
     0.659013702  0.659013702  0.313188755
     0.340986298  0.340986298  0.686811245
     0.091088513  0.091088513  0.795156053
     0.908911487  0.908911487  0.204843947
     0.496365390  0.496365390  0.254455414
     0.503634610  0.503634610  0.745544586
     0.172537050  0.172537050  0.560792266
     0.827462950  0.827462950  0.439207734
     0.832086263  0.832086263  0.891616462
     0.167913737  0.167913737  0.108383538

  ion indices of the primitive-cell ions
   primitive index   ion index
                 1           1
                 2           7
                 3          13
                 4          19
                 5          85
                 6          55
                 7          61
                 8          67
                 9          74
                10          79

----------------------------------------------------------------------------------------

 
 
 KPOINTS: Automatic mesh                          

Automatic generation of k-mesh.
 Grid dimensions read from file:
 generate k-points for:    2    2    2

 Generating k-lattice:

  Cartesian coordinates                     Fractional coordinates (reciprocal lattice)
     0.000000000  0.040715043 -0.009973711     0.500000000  0.000000000  0.000000000
     0.054688428 -0.000000000  0.000000000     0.000000000  0.500000000  0.000000000
     0.000000000  0.000000000 -0.044245056     0.000000000  0.000000000  0.500000000

  Length of vectors
     0.041918846  0.054688428  0.044245056

  Shift w.r.t. Gamma in fractional coordinates (k-lattice)
     0.000000000  0.000000000  0.000000000

 
 Subroutine IBZKPT returns following result:
 ===========================================
 
 Found      8 irreducible k-points:
 
 Following reciprocal coordinates:
            Coordinates               Weight
  0.000000  0.000000  0.000000      1.000000
  0.500000  0.000000  0.000000      1.000000
  0.000000  0.500000  0.000000      1.000000
  0.500000  0.500000  0.000000      1.000000
  0.000000  0.000000  0.500000      1.000000
  0.500000  0.000000  0.500000      1.000000
  0.000000  0.500000  0.500000      1.000000
  0.500000  0.500000  0.500000      1.000000
 
 Following cartesian coordinates:
            Coordinates               Weight
  0.000000  0.000000 -0.000000      1.000000
  0.000000  0.040715 -0.009974      1.000000
  0.054688  0.000000 -0.000000      1.000000
  0.054688  0.040715 -0.009974      1.000000
  0.000000  0.000000 -0.044245      1.000000
  0.000000  0.040715 -0.054219      1.000000
  0.054688  0.000000 -0.044245      1.000000
  0.054688  0.040715 -0.054219      1.000000
 
 
 Subroutine IBZKPT_HF returns following result:
 ==============================================
 
 Found      8 k-points in 1st BZ
 the following      8 k-points will be used (e.g. in the exchange kernel)
 Following reciprocal coordinates:   # in IRBZ
  0.000000  0.000000  0.000000    0.12500000   1 t-inv F
  0.500000  0.000000  0.000000    0.12500000   2 t-inv F
  0.000000  0.500000  0.000000    0.12500000   3 t-inv F
  0.500000  0.500000  0.000000    0.12500000   4 t-inv F
  0.000000  0.000000  0.500000    0.12500000   5 t-inv F
  0.500000  0.000000  0.500000    0.12500000   6 t-inv F
  0.000000  0.500000  0.500000    0.12500000   7 t-inv F
  0.500000  0.500000  0.500000    0.12500000   8 t-inv F


--------------------------------------------------------------------------------------------------------




 Dimension of arrays:
   k-points           NKPTS =      8   k-points in BZ     NKDIM =      8   number of bands    NBANDS=    633
   number of dos      NEDOS =    301   number of ions     NIONS =    120
   non local maximal  LDIM  =      6   non local SUM 2l+1 LMDIM =     18
   total plane-waves  NPLWV = 184320
   max r-space proj   IRMAX =   1800   max aug-charges    IRDMAX=   5704
   dimension x,y,z NGX =    64 NGY =   48 NGZ =   60
   dimension x,y,z NGXF=   128 NGYF=   96 NGZF=  120
   support grid    NGXF=   128 NGYF=   96 NGZF=  120
   ions per type =              48  72
   NGX,Y,Z   is equivalent  to a cutoff of   8.66,  8.73,  8.57 a.u.
   NGXF,Y,Z  is equivalent  to a cutoff of  17.33, 17.46, 17.15 a.u.

 SYSTEM =  unknown system                          
 POSCAR =  Ga48 O72                                

 Startparameter for this run:
   NWRITE =      2    write-flag & timer
   PREC   = normal    normal or accurate (medium, high low for compatibility)
   ISTART =      1    job   : 0-new  1-cont  2-samecut
   ICHARG =      1    charge: 1-file 2-atom 10-const
   ISPIN  =      1    spin polarized calculation?
   LNONCOLLINEAR =      F non collinear calculations
   LSORBIT =      F    spin-orbit coupling
   INIWAV =      1    electr: 0-lowe 1-rand  2-diag
   LASPH  =      F    aspherical Exc in radial PAW
 Electronic Relaxation 1
   ENCUT  =  450.0 eV  33.07 Ry    5.75 a.u.  21.24 15.81 20.12*2*pi/ulx,y,z
   ENINI  =  450.0     initial cutoff
   ENAUG  =  605.4 eV  augmentation charge cutoff
   NELM   =    500;   NELMIN=  2; NELMDL=  0     # of ELM steps 
   EDIFF  = 0.1E-04   stopping-criterion for ELM
   LREAL  =      T    real-space projection
   NLSPLINE    = F    spline interpolate recip. space projectors
   LCOMPAT=      F    compatible to vasp.4.4
   GGA_COMPAT  = T    GGA compatible to vasp.4.4-vasp.4.6
   LMAXPAW     = -100 max onsite density
   LMAXMIX     =    2 max onsite mixed and CHGCAR
   VOSKOWN=      0    Vosko Wilk Nusair interpolation
   ROPT   =   -0.00050  -0.00050
 Ionic relaxation
   EDIFFG = -.5E-02   stopping-criterion for IOM
   NSW    =      0    number of steps for IOM
   NBLOCK =      1;   KBLOCK =      1    inner block; outer block 
   IBRION =     -1    ionic relax: 0-MD 1-quasi-New 2-CG
   NFREE  =      0    steps in history (QN), initial steepest desc. (CG)
   ISIF   =      2    stress and relaxation
   IWAVPR =     10    prediction:  0-non 1-charg 2-wave 3-comb
   ISYM   =      3    0-nonsym 1-usesym 2-fastsym
   LCORR  =      T    Harris-Foulkes like correction to forces

   POTIM  = 0.5000    time-step for ionic-motion
   TEIN   =    0.0    initial temperature
   TEBEG  =    0.0;   TEEND  =   0.0 temperature during run
   SMASS  =  -3.00    Nose mass-parameter (am)
   estimated Nose-frequenzy (Omega)   =  0.10E-29 period in steps = 0.13E+47 mass=  -0.345E-26a.u.
   SCALEE = 1.0000    scale energy and forces
   NPACO  =    256;   APACO  = 10.0  distance and # of slots for P.C.
   PSTRESS=    0.0 pullay stress

  Mass of Ions in am
   POMASS =  69.72 16.00
  Ionic Valenz
   ZVAL   =  13.00  6.00
  Atomic Wigner-Seitz radii
   RWIGS  =  -1.00 -1.00
  virtual crystal weights 
   VCA    =   1.00  1.00
   NELECT =    1056.0000    total number of electrons
   NUPDOWN=      -1.0000    fix difference up-down

 DOS related values:
   EMIN   =  10.00;   EMAX   =-10.00  energy-range for DOS
   EFERMI =   0.00;   METHOD = LEGACY      
   ISMEAR =     0;   SIGMA  =   0.05  broadening in eV -4-tet -1-fermi 0-gaus

 Electronic relaxation 2 (details)
   IALGO  =     58    algorithm
   LDIAG  =      T    sub-space diagonalisation (order eigenvalues)
   LSUBROT=      F    optimize rotation matrix (better conditioning)
   TURBO    =      0    0=normal 1=particle mesh
   IRESTART =      0    0=no restart 2=restart with 2 vectors
   NREBOOT  =      0    no. of reboots
   NMIN     =      0    reboot dimension
   EREF     =   0.00    reference energy to select bands
   IMIX   =      4    mixing-type and parameters
     AMIX     =   0.40;   BMIX     =  1.00
     AMIX_MAG =   1.60;   BMIX_MAG =  1.00
     AMIN     =   0.10
     WC   =   100.;   INIMIX=   1;  MIXPRE=   1;  MAXMIX= -45

 Intra band minimization:
   WEIMIN = 0.0000     energy-eigenvalue tresh-hold
   EBREAK =  0.39E-08  absolut break condition
   DEPER  =   0.30     relativ break condition  

   TIME   =   0.40     timestep for ELM

  volume/ion in A,a.u.               =      10.57        71.35
  Fermi-wavevector in a.u.,A,eV,Ry     =   1.539919  2.910025 32.264175  2.371350
  Thomas-Fermi vector in A             =   2.646079
 
 Write flags
   LWAVE        =      T    write WAVECAR
   LDOWNSAMPLE  =      F    k-point downsampling of WAVECAR
   LCHARG       =      T    write CHGCAR
   LVTOT        =      F    write LOCPOT, total local potential
   LVHAR        =      F    write LOCPOT, Hartree potential only
   LELF         =      F    write electronic localiz. function (ELF)
   LORBIT       =      0    0 simple, 1 ext, 2 COOP (PROOUT), +10 PAW based schemes


 Dipole corrections
   LMONO  =      F    monopole corrections only (constant potential shift)
   LDIPOL =      F    correct potential (dipole corrections)
   IDIPOL =      0    1-x, 2-y, 3-z, 4-all directions 
   EPSILON=  1.0000000 bulk dielectric constant

 Core level calculations are selected ICORELEVEL =  1
 Exchange correlation treatment:
   GGA     =    --    GGA type
   LEXCH   =     8    internal setting for exchange type
   LIBXC   =     F    Libxc                    
   VOSKOWN =     0    Vosko Wilk Nusair interpolation
   EXXOEP  =     0    0=HF, 1=EXX-LHF (local Hartree Fock) 2=EXX OEP
   LHFCALC =     T    Hartree Fock is set to
   LSYMGRAD=     F    symmetrize gradient (conserves proper symmetry)
   PRECFOCK=fast      Normal, Fast or Accurate (Low or Medium for compatibility)
   LRHFCALC=     F    long range Hartree Fock
   LRSCOR  =     F    long range correlation only (use DFT for short range part)
   LTHOMAS =     F    Thomas Fermi screening in HF
   LMODELHF=     F    short range full HF, long range fraction AEXX
   FOCKCORR=     1    mode to apply convergence corrections
   LFOCKACE=     T    use Adeptively-Compressed-Exchange operator
   ENCUT4O =  -1.0   cutoff for four orbital integrals eV
   LMAXFOCK=     4    L truncation for augmentation on plane wave grid
   LMAXFOCKAE=  -1    L truncation for all-electron charge restoration on plane wave grid
   NMAXFOCKAE=   1    number of basis functions for all-electron charge restoration
   LFOCKAEDFT=     F  apply the AE augmentation even for DFT
   NKREDX  =     1    reduce k-point grid by
   NKREDY  =     1    reduce k-point grid by
   NKREDZ  =     1    reduce k-point grid by
   SHIFTRED=     F    shift reduced grid of Gamma
   HFKIDENT=     F    idential grid for each k-point
   ODDONLY =     F    use only odd q-grid points
   EVENONLY=     F    use only even q-grid points
   HFALPHA =   -1.0000 decay constant for conv. correction
   MCALPHA =    0.0000 extent of test-charge in conv. correction in multipole expansion
   AEXX    =    0.3200 exact exchange contribution
   HFSCREEN=    0.2000 screening length (either q_TF or 0.3 A-1)
   HFSCREENC=   0.2000 screening length for correlation (either q_TF or 0.3 A-1)
   HFRCUT  =    0.0000 spherical cutoff for potential kernel
   ALDAX   =    0.6800 LDA exchange part
   AGGAX   =    0.6800 GGA exchange part
   ALDAC   =    1.0000 LDA correlation
   AGGAC   =    1.0000 GGA correlation
   ENCUTFOCK=  -1.0 apply spherical cutoff to Coloumb kernel
   NBANDSGWLOW=     1    first orbital included in HF term
   NBLOCK_FOCK=    64    blocking factor in FOCK_ACC

 Linear response parameters
   LEPSILON=     F    determine dielectric tensor
   LRPA    =     F    only Hartree local field effects (RPA)
   LNABLA  =     F    use nabla operator in PAW spheres
   LVEL    =     F    velocity operator in full k-point grid
   CSHIFT  =0.1000    complex shift for real part using Kramers Kronig
   OMEGAMAX=  -1.0    maximum frequency
   DEG_THRESHOLD= 0.2000000E-02 threshold for treating states as degnerate
   RTIME   =   -0.100 relaxation time in fs
  (WPLASMAI=    0.000 imaginary part of plasma frequency in eV, 0.658/RTIME)
   DFIELD  = 0.0000000 0.0000000 0.0000000 field for delta impulse in time
 
  Optional k-point grid parameters
   LKPOINTS_OPT  =     F    use optional k-point grid
   KPOINTS_OPT_MODE=     1    mode for optional k-point grid
 
 Orbital magnetization related:
   ORBITALMAG=     F  switch on orbital magnetization
   LCHIMAG   =     F  perturbation theory with respect to B field
   DQ        =  0.001000  dq finite difference perturbation B field
   LLRAUG    =     F  two centre corrections for induced B field
   LBONE     =     F  B-component reconstruction in AE one-centre
   LVGVCALC  =     T  calculate vGv susceptibility
   LVGVAPPL  =     F  apply vGv susceptibility instead of pGv for G=0

 Random number generation:
   RANDOM_GENERATOR = DEFAULT
   PCG_SEED         = not used


--------------------------------------------------------------------------------------------------------


 Static calculation
 charge density and potential will be updated during run
 non-spin polarized calculation
 Conjugate gradient for all bands (Freysoldt, et al. PRB 79, 241103 (2009))
 preconditioned conjugated gradient                                        
 perform sub-space diagonalisation
    before iterative eigenvector-optimisation
 modified Broyden-mixing scheme, WC =      100.0
 initial mixing is a Kerker type mixing with AMIX =  0.4000 and BMIX =      1.0000
 Hartree-type preconditioning will be used
 using additional bands           105
 real space projection scheme for non local part
 use partial core corrections
 no Harris-corrections to forces 
 use gradient corrections 
 use of overlap-Matrix (Vanderbilt PP)
 Gauss-broadening in eV      SIGMA  =   0.05


--------------------------------------------------------------------------------------------------------


  energy-cutoff  :      450.00
  volume of cell :     1268.81
      direct lattice vectors                 reciprocal lattice vectors
     0.000000000 12.280473417  0.000000000     0.000000000  0.081430085 -0.019947423
     9.142702054  0.000000000  0.000000000     0.109376855 -0.000000000  0.000000000
     0.000000000 -2.768261773-11.300697718     0.000000000  0.000000000 -0.088490111

  length of vectors
    12.280473417  9.142702054 11.634820246     0.083837691  0.109376855  0.088490111


 
 old parameters found on file WAVECAR:
  energy-cutoff  :      450.00
  volume of cell :     1268.81
      direct lattice vectors                 reciprocal lattice vectors
     0.000000000 12.280473417  0.000000000     0.000000000  0.081430085 -0.019947423
     9.142702054  0.000000000  0.000000000     0.109376855 -0.000000000  0.000000000
     0.000000000 -2.768261773-11.300697718     0.000000000  0.000000000 -0.088490111

  length of vectors

 
 k-points in units of 2pi/SCALE and weight: Automatic mesh                          
   0.00000000  0.00000000 -0.00000000       0.125
   0.00000000  0.04071504 -0.00997371       0.125
   0.05468843  0.00000000 -0.00000000       0.125
   0.05468843  0.04071504 -0.00997371       0.125
   0.00000000  0.00000000 -0.04424506       0.125
   0.00000000  0.04071504 -0.05421877       0.125
   0.05468843  0.00000000 -0.04424506       0.125
   0.05468843  0.04071504 -0.05421877       0.125
 
 k-points in reciprocal lattice and weights: Automatic mesh                          
   0.00000000  0.00000000  0.00000000       0.125
   0.50000000  0.00000000  0.00000000       0.125
   0.00000000  0.50000000  0.00000000       0.125
   0.50000000  0.50000000  0.00000000       0.125
   0.00000000  0.00000000  0.50000000       0.125
   0.50000000  0.00000000  0.50000000       0.125
   0.00000000  0.50000000  0.50000000       0.125
   0.50000000  0.50000000  0.50000000       0.125
 
 position of ions in fractional coordinates (direct lattice) 
   0.65901370  0.00000000  0.15659438
   0.65901370  0.00000000  0.65659438
   0.65901370  0.33333333  0.15659438
   0.65901370  0.33333333  0.65659438
   0.65901370  0.66666667  0.15659438
   0.65901370  0.66666667  0.65659438
   0.84098630  0.16666667  0.34340562
   0.84098630  0.16666667  0.84340562
   0.84098630  0.50000000  0.34340562
   0.84098630  0.50000000  0.84340562
   0.84098630  0.83333333  0.34340562
   0.84098630  0.83333333  0.84340562
   0.59108851  0.16666667  0.39757803
   0.59108851  0.16666667  0.89757803
   0.59108851  0.50000000  0.39757803
   0.59108851  0.50000000  0.89757803
   0.59108851  0.83333333  0.39757803
   0.59108851  0.83333333  0.89757803
   0.90891149  0.00000000  0.10242197
   0.90891149  0.00000000  0.60242197
   0.90891149  0.33333333  0.10242197
   0.90891149  0.33333333  0.60242197
   0.90891149  0.66666667  0.10242197
   0.90891149  0.66666667  0.60242197
   0.15901370  0.16666667  0.15659438
   0.15901370  0.16666667  0.65659438
   0.15901370  0.50000000  0.15659438
   0.15901370  0.50000000  0.65659438
   0.15901370  0.83333333  0.15659438
   0.15901370  0.83333333  0.65659438
   0.34098630  0.00000000  0.34340562
   0.34098630  0.00000000  0.84340562
   0.34098630  0.33333333  0.34340562
   0.34098630  0.33333333  0.84340562
   0.34098630  0.66666667  0.34340562
   0.34098630  0.66666667  0.84340562
   0.09108851  0.00000000  0.39757803
   0.09108851  0.00000000  0.89757803
   0.09108851  0.33333333  0.39757803
   0.09108851  0.33333333  0.89757803
   0.09108851  0.66666667  0.39757803
   0.09108851  0.66666667  0.89757803
   0.40891149  0.16666667  0.10242197
   0.40891149  0.16666667  0.60242197
   0.40891149  0.50000000  0.10242197
   0.40891149  0.50000000  0.60242197
   0.40891149  0.83333333  0.10242197
   0.40891149  0.83333333  0.60242197
   0.99636539  0.16666667  0.12722771
   0.99636539  0.16666667  0.62722771
   0.99636539  0.50000000  0.12722771
   0.99636539  0.50000000  0.62722771
   0.99636539  0.83333333  0.12722771
   0.99636539  0.83333333  0.62722771
   0.50363461  0.00000000  0.37277229
   0.50363461  0.00000000  0.87277229
   0.50363461  0.33333333  0.37277229
   0.50363461  0.33333333  0.87277229
   0.50363461  0.66666667  0.37277229
   0.50363461  0.66666667  0.87277229
   0.67253705  0.16666667  0.28039613
   0.67253705  0.16666667  0.78039613
   0.67253705  0.50000000  0.28039613
   0.67253705  0.50000000  0.78039613
   0.67253705  0.83333333  0.28039613
   0.67253705  0.83333333  0.78039613
   0.82746295  0.00000000  0.21960387
   0.82746295  0.00000000  0.71960387
   0.82746295  0.33333333  0.21960387
   0.82746295  0.33333333  0.71960387
   0.82746295  0.66666667  0.21960387
   0.82746295  0.66666667  0.71960387
   0.83208626  0.00000000  0.44580823
   0.83208626  0.00000000  0.94580823
   0.83208626  0.33333333  0.44580823
   0.83208626  0.33333333  0.94580823
   0.83208626  0.66666667  0.44580823
   0.83208626  0.66666667  0.94580823
   0.66791374  0.16666667  0.05419177
   0.66791374  0.16666667  0.55419177
   0.66791374  0.50000000  0.05419177
   0.66791374  0.50000000  0.55419177
   0.66791374  0.83333333  0.05419177
   0.66791374  0.83333333  0.55419177
   0.49636539  0.00000000  0.12722771
   0.49636539  0.00000000  0.62722771
   0.49636539  0.33333333  0.12722771
   0.49636539  0.33333333  0.62722771
   0.49636539  0.66666667  0.12722771
   0.49636539  0.66666667  0.62722771
   0.00363461  0.16666667  0.37277229
   0.00363461  0.16666667  0.87277229
   0.00363461  0.50000000  0.37277229
   0.00363461  0.50000000  0.87277229
   0.00363461  0.83333333  0.37277229
   0.00363461  0.83333333  0.87277229
   0.17253705  0.00000000  0.28039613
   0.17253705  0.00000000  0.78039613
   0.17253705  0.33333333  0.28039613
   0.17253705  0.33333333  0.78039613
   0.17253705  0.66666667  0.28039613
   0.17253705  0.66666667  0.78039613
   0.32746295  0.16666667  0.21960387
   0.32746295  0.16666667  0.71960387
   0.32746295  0.50000000  0.21960387
   0.32746295  0.50000000  0.71960387
   0.32746295  0.83333333  0.21960387
   0.32746295  0.83333333  0.71960387
   0.33208626  0.16666667  0.44580823
   0.33208626  0.16666667  0.94580823
   0.33208626  0.50000000  0.44580823
   0.33208626  0.50000000  0.94580823
   0.33208626  0.83333333  0.44580823
   0.33208626  0.83333333  0.94580823
   0.16791374  0.00000000  0.05419177
   0.16791374  0.00000000  0.55419177
   0.16791374  0.33333333  0.05419177
   0.16791374  0.33333333  0.55419177
   0.16791374  0.66666667  0.05419177
   0.16791374  0.66666667  0.55419177
 
 position of ions in cartesian coordinates  (Angst):
   0.00000000  7.65950603 -1.76962572
   0.00000000  6.27537514 -7.41997458
   3.04756735  7.65950603 -1.76962572
   3.04756735  6.27537514 -7.41997458
   6.09513470  7.65950603 -1.76962572
   6.09513470  6.27537514 -7.41997458
   1.52378368  9.37707321 -3.88072314
   1.52378368  7.99294233 -9.53107200
   4.57135103  9.37707321 -3.88072314
   4.57135103  7.99294233 -9.53107200
   7.61891838  9.37707321 -3.88072314
   7.61891838  7.99294233 -9.53107200
   1.52378368  6.15824672 -4.49290910
   1.52378368  4.77411583-10.14325795
   4.57135103  6.15824672 -4.49290910
   4.57135103  4.77411583-10.14325795
   7.61891838  6.15824672 -4.49290910
   7.61891838  4.77411583-10.14325795
   0.00000000 10.87833252 -1.15743976
   0.00000000  9.49420163 -6.80778862
   3.04756735 10.87833252 -1.15743976
   3.04756735  9.49420163 -6.80778862
   6.09513470 10.87833252 -1.15743976
   6.09513470  9.49420163 -6.80778862
   1.52378368  1.51926932 -1.76962572
   1.52378368  0.13513843 -7.41997458
   4.57135103  1.51926932 -1.76962572
   4.57135103  0.13513843 -7.41997458
   7.61891838  1.51926932 -1.76962572
   7.61891838  0.13513843 -7.41997458
   0.00000000  3.23683650 -3.88072314
   0.00000000  1.85270562 -9.53107200
   3.04756735  3.23683650 -3.88072314
   3.04756735  1.85270562 -9.53107200
   6.09513470  3.23683650 -3.88072314
   6.09513470  1.85270562 -9.53107200
   0.00000000  0.01801001 -4.49290910
   0.00000000 -1.36612088-10.14325795
   3.04756735  0.01801001 -4.49290910
   3.04756735 -1.36612088-10.14325795
   6.09513470  0.01801001 -4.49290910
   6.09513470 -1.36612088-10.14325795
   1.52378368  4.73809581 -1.15743976
   1.52378368  3.35396493 -6.80778862
   4.57135103  4.73809581 -1.15743976
   4.57135103  3.35396493 -6.80778862
   7.61891838  4.73809581 -1.15743976
   7.61891838  3.35396493 -6.80778862
   1.52378368 11.88363909 -1.43776186
   1.52378368 10.49950820 -7.08811072
   4.57135103 11.88363909 -1.43776186
   4.57135103 10.49950820 -7.08811072
   7.61891838 11.88363909 -1.43776186
   7.61891838 10.49950820 -7.08811072
   0.00000000  5.15294015 -4.21258700
   0.00000000  3.76880926 -9.86293586
   3.04756735  5.15294015 -4.21258700
   3.04756735  3.76880926 -9.86293586
   6.09513470  5.15294015 -4.21258700
   6.09513470  3.76880926 -9.86293586
   1.52378368  7.48286347 -3.16867194
   1.52378368  6.09873258 -8.81902080
   4.57135103  7.48286347 -3.16867194
   4.57135103  6.09873258 -8.81902080
   7.61891838  7.48286347 -3.16867194
   7.61891838  6.09873258 -8.81902080
   0.00000000  9.55371577 -2.48167692
   0.00000000  8.16958488 -8.13202578
   3.04756735  9.55371577 -2.48167692
   3.04756735  8.16958488 -8.13202578
   6.09513470  9.55371577 -2.48167692
   6.09513470  8.16958488 -8.13202578
   0.00000000  8.98429935 -5.03794406
   0.00000000  7.60016846-10.68829292
   3.04756735  8.98429935 -5.03794406
   3.04756735  7.60016846-10.68829292
   6.09513470  8.98429935 -5.03794406
   6.09513470  7.60016846-10.68829292
   1.52378368  8.05227989 -0.61240480
   1.52378368  6.66814900 -6.26275366
   4.57135103  8.05227989 -0.61240480
   4.57135103  6.66814900 -6.26275366
   7.61891838  8.05227989 -0.61240480
   7.61891838  6.66814900 -6.26275366
   0.00000000  5.74340238 -1.43776186
   0.00000000  4.35927150 -7.08811072
   3.04756735  5.74340238 -1.43776186
   3.04756735  4.35927150 -7.08811072
   6.09513470  5.74340238 -1.43776186
   6.09513470  4.35927150 -7.08811072
   1.52378368 -0.98729656 -4.21258700
   1.52378368 -2.37142745 -9.86293586
   4.57135103 -0.98729656 -4.21258700
   4.57135103 -2.37142745 -9.86293586
   7.61891838 -0.98729656 -4.21258700
   7.61891838 -2.37142745 -9.86293586
   0.00000000  1.34262676 -3.16867194
   0.00000000 -0.04150413 -8.81902080
   3.04756735  1.34262676 -3.16867194
   3.04756735 -0.04150413 -8.81902080
   6.09513470  1.34262676 -3.16867194
   6.09513470 -0.04150413 -8.81902080
   1.52378368  3.41347906 -2.48167692
   1.52378368  2.02934818 -8.13202578
   4.57135103  3.41347906 -2.48167692
   4.57135103  2.02934818 -8.13202578
   7.61891838  3.41347906 -2.48167692
   7.61891838  2.02934818 -8.13202578
   1.52378368  2.84406264 -5.03794406
   1.52378368  1.45993175-10.68829292
   4.57135103  2.84406264 -5.03794406
   4.57135103  1.45993175-10.68829292
   7.61891838  2.84406264 -5.03794406
   7.61891838  1.45993175-10.68829292
   0.00000000  1.91204318 -0.61240480
   0.00000000  0.52791230 -6.26275366
   3.04756735  1.91204318 -0.61240480
   3.04756735  0.52791230 -6.26275366
   6.09513470  1.91204318 -0.61240480
   6.09513470  0.52791230 -6.26275366
 


--------------------------------------------------------------------------------------------------------


 k-point   1 :   0.0000 0.0000 0.0000  plane waves:   27533
 k-point   2 :   0.5000 0.0000 0.0000  plane waves:   27522
 k-point   3 :   0.0000 0.5000 0.0000  plane waves:   27488
 k-point   4 :   0.5000 0.5000 0.0000  plane waves:   27488
 k-point   5 :   0.0000 0.0000 0.5000  plane waves:   27482
 k-point   6 :   0.5000 0.0000 0.5000  plane waves:   27476
 k-point   7 :   0.0000 0.5000 0.5000  plane waves:   27468
 k-point   8 :   0.5000 0.5000 0.5000  plane waves:   27564

 maximum and minimum number of plane-waves per node :     27564    27468

 maximum number of plane-waves:     27564
 maximum index in each direction: 
   IXMAX=   21   IYMAX=   15   IZMAX=   20
   IXMIN=  -21   IYMIN=  -16   IZMIN=  -20


 serial   3D FFT for wavefunctions
 parallel 3D FFT for charge:
    minimum data exchange during FFTs selected (reduces bandwidth)


 FFT grid for exact exchange (Hartree Fock) 
  NGX = 48; NGY = 36; NGZ = 48

 
 Radii for the augmentation spheres in the non-local exchange
 for species   1 augmentation radius   1.392 (default was   1.031)
       energy cutoff for augmentation   1800.0
 for species   2 augmentation radius   0.974 (default was   0.722)
       energy cutoff for augmentation   1800.0
 Maximum index for augmentation-charges in exchange           742
  SETUP_FOCK is finished

 total amount of memory used by VASP MPI-rank0  7256996. kBytes
=======================================================================

   base      :      30000. kBytes
   nonlr-proj:      32949. kBytes
   fftplans  :      51012. kBytes
   grid      :      90980. kBytes
   one-center:       1866. kBytes
   HF        :        129. kBytes
   wavefun   :    7050060. kBytes
 
     INWAV:  cpu time      3.4587: real time      4.0384
 Broyden mixing: mesh for mixing (old mesh)
   NGX = 43   NGY = 31   NGZ = 41
  (NGX  =128   NGY  = 96   NGZ  =120)
  gives a total of  54653 points

 initial charge density was supplied:
 number of electron    1055.9998555 magnetization 
 charge density for first step will be calculated from the start-wavefunctions


--------------------------------------------------------------------------------------------------------


 Maximum index for non-local projection operator          1707
 Maximum index for augmentation-charges          5340 (set IRDMAX)


--------------------------------------------------------------------------------------------------------


 initial charge from wavefunction
 First call to EWALD:  gamma=   0.164
 Maximum number of real-space cells 3x 3x 3
 Maximum number of reciprocal cells 3x 2x 3

    FEWALD:  cpu time      0.0944: real time      0.0944


--------------------------------------- Ionic step        1  -------------------------------------------




--------------------------------------- Iteration      1(   1)  ---------------------------------------


    POTLOK:  cpu time      1.5352: real time      1.5349
    SETDIJ:  cpu time      0.4225: real time      0.4224
    TRIAL :  cpu time    231.6348: real time    231.6342
    CORREC:  cpu time    233.5083: real time    233.4893
    CHARGE:  cpu time      0.2099: real time      0.2099
    --------------------------------------------
      LOOP:  cpu time    468.2596: real time    468.2418

 eigenvalue-minimisations  :     0
 total energy-change (2. order) :-0.9583200E+03  (-0.9906967E-06)
 number of electron    1055.9998555 magnetization 
 augmentation part      460.7391525 magnetization 

 Free energy of the ion-electron system (eV)
  ---------------------------------------------------
  alpha Z        PSCENC =      5537.53060054
  Ewald energy   TEWEN  =    -88891.37402132
  -Hartree energ DENC   =    -33872.44317969
  -exchange      EXHF   =      3894.08921657
  -V(xc)+E(xc)   XCENC  =      2918.08600522
  PAW double counting   =    121362.33481464  -136934.73679604
  entropy T*S    EENTRO =        -0.00000000
  eigenvalues    EBANDS =     -8873.17782719
  atomic energy  EATOM  =    133901.37115015
  ---------------------------------------------------
  free energy    TOTEN  =      -958.32003712 eV

  energy without entropy =     -958.32003712  energy(sigma->0) =     -958.32003712
  exchange ACFDT corr.  =         0.00000000  see jH, gK, PRB 81, 115126


--------------------------------------------------------------------------------------------------------




--------------------------------------- Iteration      1(   2)  ---------------------------------------


    POTLOK:  cpu time      1.5072: real time      1.5073
    SETDIJ:  cpu time      0.4214: real time      0.4213
    TRIAL :  cpu time    231.7452: real time    231.7537
    CORREC:  cpu time    233.6599: real time    233.6603
    EDDIAG:  cpu time    229.5872: real time    229.5782
    CHARGE:  cpu time      0.2534: real time      0.2533
    --------------------------------------------
      LOOP:  cpu time    698.0717: real time    698.0720

 eigenvalue-minimisations  :     0
 total energy-change (2. order) :-0.9905561E-06  (-0.2094240E-06)
 number of electron    1055.9998555 magnetization 
 augmentation part      460.7392607 magnetization 

 Free energy of the ion-electron system (eV)
  ---------------------------------------------------
  alpha Z        PSCENC =      5537.53060054
  Ewald energy   TEWEN  =    -88891.37402132
  -Hartree energ DENC   =    -33872.42933516
  -exchange      EXHF   =      3894.08971188
  -V(xc)+E(xc)   XCENC  =      2918.08595379
  PAW double counting   =    121362.26929670  -136934.65988642
  entropy T*S    EENTRO =        -0.00000000
  eigenvalues    EBANDS =     -8873.21432618
  atomic energy  EATOM  =    133901.37115015
  ---------------------------------------------------
  free energy    TOTEN  =      -958.32003811 eV

  energy without entropy =     -958.32003811  energy(sigma->0) =     -958.32003811
  exchange ACFDT corr.  =         0.00000000  see jH, gK, PRB 81, 115126


--------------------------------------------------------------------------------------------------------


  average scaling for gradient   0.9243


 the core state eigenenergies are
   1-  1s -10216.4679  2s  -1249.7360  2p  -1086.1890  3s   -136.8821  3p    -87.6698
     
   2-  1s -10216.4679  2s  -1249.7360  2p  -1086.1889  3s   -136.8820  3p    -87.6698
     
   3-  1s -10216.4679  2s  -1249.7360  2p  -1086.1890  3s   -136.8821  3p    -87.6698
     
   4-  1s -10216.4679  2s  -1249.7360  2p  -1086.1889  3s   -136.8820  3p    -87.6698
     
   5-  1s -10216.4679  2s  -1249.7360  2p  -1086.1890  3s   -136.8821  3p    -87.6698
     
   6-  1s -10216.4679  2s  -1249.7360  2p  -1086.1889  3s   -136.8820  3p    -87.6698
     
   7-  1s -10216.4679  2s  -1249.7360  2p  -1086.1890  3s   -136.8821  3p    -87.6698
     
   8-  1s -10216.4679  2s  -1249.7360  2p  -1086.1890  3s   -136.8821  3p    -87.6698
     
   9-  1s -10216.4679  2s  -1249.7360  2p  -1086.1890  3s   -136.8821  3p    -87.6698
     
  10-  1s -10216.4679  2s  -1249.7360  2p  -1086.1890  3s   -136.8820  3p    -87.6698
     
  11-  1s -10216.4679  2s  -1249.7360  2p  -1086.1890  3s   -136.8820  3p    -87.6698
     
  12-  1s -10216.4679  2s  -1249.7360  2p  -1086.1890  3s   -136.8821  3p    -87.6698
     
  13-  1s -10216.4907  2s  -1249.8625  2p  -1086.3051  3s   -136.9693  3p    -87.7557
     
  14-  1s -10216.4907  2s  -1249.8625  2p  -1086.3051  3s   -136.9693  3p    -87.7558
     
  15-  1s -10216.4907  2s  -1249.8625  2p  -1086.3051  3s   -136.9693  3p    -87.7557
     
  16-  1s -10216.4907  2s  -1249.8625  2p  -1086.3051  3s   -136.9693  3p    -87.7558
     
  17-  1s -10216.4907  2s  -1249.8625  2p  -1086.3051  3s   -136.9693  3p    -87.7557
     
  18-  1s -10216.4907  2s  -1249.8625  2p  -1086.3051  3s   -136.9693  3p    -87.7558
     
  19-  1s -10216.4907  2s  -1249.8625  2p  -1086.3051  3s   -136.9693  3p    -87.7557
     
  20-  1s -10216.4907  2s  -1249.8625  2p  -1086.3051  3s   -136.9693  3p    -87.7557
     
  21-  1s -10216.4907  2s  -1249.8625  2p  -1086.3051  3s   -136.9693  3p    -87.7557
     
  22-  1s -10216.4907  2s  -1249.8625  2p  -1086.3051  3s   -136.9693  3p    -87.7557
     
  23-  1s -10216.4907  2s  -1249.8625  2p  -1086.3051  3s   -136.9693  3p    -87.7557
     
  24-  1s -10216.4907  2s  -1249.8625  2p  -1086.3051  3s   -136.9693  3p    -87.7557
     
  25-  1s -10216.4679  2s  -1249.7360  2p  -1086.1890  3s   -136.8821  3p    -87.6698
     
  26-  1s -10216.4679  2s  -1249.7360  2p  -1086.1890  3s   -136.8821  3p    -87.6698
     
  27-  1s -10216.4679  2s  -1249.7360  2p  -1086.1890  3s   -136.8821  3p    -87.6698
     
  28-  1s -10216.4679  2s  -1249.7360  2p  -1086.1890  3s   -136.8821  3p    -87.6698
     
  29-  1s -10216.4679  2s  -1249.7360  2p  -1086.1890  3s   -136.8821  3p    -87.6698
     
  30-  1s -10216.4679  2s  -1249.7360  2p  -1086.1890  3s   -136.8820  3p    -87.6698
     
  31-  1s -10216.4679  2s  -1249.7360  2p  -1086.1890  3s   -136.8820  3p    -87.6698
     
  32-  1s -10216.4679  2s  -1249.7360  2p  -1086.1890  3s   -136.8821  3p    -87.6698
     
  33-  1s -10216.4679  2s  -1249.7360  2p  -1086.1889  3s   -136.8820  3p    -87.6698
     
  34-  1s -10216.4679  2s  -1249.7360  2p  -1086.1890  3s   -136.8821  3p    -87.6698
     
  35-  1s -10216.4679  2s  -1249.7360  2p  -1086.1889  3s   -136.8820  3p    -87.6698
     
  36-  1s -10216.4679  2s  -1249.7360  2p  -1086.1890  3s   -136.8821  3p    -87.6698
     
  37-  1s -10216.4907  2s  -1249.8625  2p  -1086.3051  3s   -136.9693  3p    -87.7557
     
  38-  1s -10216.4907  2s  -1249.8625  2p  -1086.3051  3s   -136.9693  3p    -87.7557
     
  39-  1s -10216.4907  2s  -1249.8625  2p  -1086.3051  3s   -136.9693  3p    -87.7557
     
  40-  1s -10216.4907  2s  -1249.8625  2p  -1086.3051  3s   -136.9693  3p    -87.7557
     
  41-  1s -10216.4907  2s  -1249.8625  2p  -1086.3051  3s   -136.9693  3p    -87.7557
     
  42-  1s -10216.4907  2s  -1249.8625  2p  -1086.3051  3s   -136.9693  3p    -87.7557
     
  43-  1s -10216.4907  2s  -1249.8625  2p  -1086.3051  3s   -136.9693  3p    -87.7558
     
  44-  1s -10216.4907  2s  -1249.8625  2p  -1086.3051  3s   -136.9693  3p    -87.7557
     
  45-  1s -10216.4907  2s  -1249.8625  2p  -1086.3051  3s   -136.9693  3p    -87.7558
     
  46-  1s -10216.4907  2s  -1249.8625  2p  -1086.3051  3s   -136.9693  3p    -87.7557
     
  47-  1s -10216.4907  2s  -1249.8625  2p  -1086.3051  3s   -136.9693  3p    -87.7558
     
  48-  1s -10216.4907  2s  -1249.8625  2p  -1086.3051  3s   -136.9693  3p    -87.7557
     
  49-  1s   -500.4683
  50-  1s   -500.4684
  51-  1s   -500.4682
  52-  1s   -500.4684
  53-  1s   -500.4683
  54-  1s   -500.4684
  55-  1s   -500.4683
  56-  1s   -500.4684
  57-  1s   -500.4683
  58-  1s   -500.4682
  59-  1s   -500.4684
  60-  1s   -500.4684
  61-  1s   -500.6477
  62-  1s   -500.6476
  63-  1s   -500.6476
  64-  1s   -500.6476
  65-  1s   -500.6477
  66-  1s   -500.6476
  67-  1s   -500.6477
  68-  1s   -500.6476
  69-  1s   -500.6477
  70-  1s   -500.6476
  71-  1s   -500.6477
  72-  1s   -500.6476
  73-  1s   -500.2151
  74-  1s   -500.2153
  75-  1s   -500.2151
  76-  1s   -500.2152
  77-  1s   -500.2151
  78-  1s   -500.2152
  79-  1s   -500.2151
  80-  1s   -500.2150
  81-  1s   -500.2152
  82-  1s   -500.2150
  83-  1s   -500.2151
  84-  1s   -500.2150
  85-  1s   -500.4683
  86-  1s   -500.4682
  87-  1s   -500.4684
  88-  1s   -500.4683
  89-  1s   -500.4683
  90-  1s   -500.4684
  91-  1s   -500.4684
  92-  1s   -500.4683
  93-  1s   -500.4684
  94-  1s   -500.4682
  95-  1s   -500.4684
  96-  1s   -500.4683
  97-  1s   -500.6476
  98-  1s   -500.6477
  99-  1s   -500.6476
 100-  1s   -500.6477
 101-  1s   -500.6476
 102-  1s   -500.6477
 103-  1s   -500.6476
 104-  1s   -500.6477
 105-  1s   -500.6476
 106-  1s   -500.6477
 107-  1s   -500.6477
 108-  1s   -500.6477
 109-  1s   -500.2150
 110-  1s   -500.2152
 111-  1s   -500.2150
 112-  1s   -500.2152
 113-  1s   -500.2150
 114-  1s   -500.2151
 115-  1s   -500.2153
 116-  1s   -500.2151
 117-  1s   -500.2152
 118-  1s   -500.2151
 119-  1s   -500.2152
 120-  1s   -500.2151
 
 E-fermi :   2.4134     XC(G=0):  -8.8567     alpha+bet :-12.5468

 Fermi energy:         2.4134008403

 k-point     1 :       0.0000    0.0000    0.0000
  band No.  band energies     occupation 
      1     -18.6579      2.00000
      2     -18.3794      2.00000
      3     -18.3127      2.00000
      4     -18.2496      2.00000
      5     -18.1195      2.00000
      6     -17.9634      2.00000
      7     -17.9634      2.00000
      8     -17.9001      2.00000
      9     -17.8204      2.00000
     10     -17.7861      2.00000
     11     -17.7861      2.00000
     12     -17.7007      2.00000
     13     -17.7007      2.00000
     14     -17.6757      2.00000
     15     -17.6757      2.00000
     16     -17.6737      2.00000
     17     -17.6737      2.00000
     18     -17.6416      2.00000
     19     -17.5138      2.00000
     20     -17.5138      2.00000
     21     -17.5024      2.00000
     22     -17.4951      2.00000
     23     -17.4943      2.00000
     24     -17.4896      2.00000
     25     -17.4896      2.00000
     26     -17.4803      2.00000
     27     -17.3642      2.00000
     28     -17.3642      2.00000
     29     -17.3543      2.00000
     30     -17.3344      2.00000
     31     -17.3344      2.00000
     32     -17.3194      2.00000
     33     -17.3057      2.00000
     34     -17.3057      2.00000
     35     -17.2698      2.00000
     36     -17.2698      2.00000
     37     -17.2522      2.00000
     38     -17.2522      2.00000
     39     -17.2374      2.00000
     40     -17.1538      2.00000
     41     -17.1538      2.00000
     42     -17.1519      2.00000
     43     -17.1519      2.00000
     44     -17.1448      2.00000
     45     -17.1407      2.00000
     46     -17.1407      2.00000
     47     -17.1195      2.00000
     48     -17.1195      2.00000
     49     -17.0517      2.00000
     50     -17.0109      2.00000
     51     -17.0108      2.00000
     52     -16.9959      2.00000
     53     -16.9784      2.00000
     54     -16.9784      2.00000
     55     -16.9014      2.00000
     56     -16.9014      2.00000
     57     -16.8966      2.00000
     58     -16.8965      2.00000
     59     -16.8846      2.00000
     60     -16.8846      2.00000
     61     -16.8774      2.00000
     62     -16.8774      2.00000
     63     -16.8711      2.00000
     64     -16.8711      2.00000
     65     -16.8642      2.00000
     66     -16.8638      2.00000
     67     -16.8638      2.00000
     68     -16.8615      2.00000
     69     -16.8472      2.00000
     70     -16.8466      2.00000
     71     -16.7841      2.00000
     72     -16.7532      2.00000
     73     -13.0305      2.00000
     74     -13.0287      2.00000
     75     -13.0213      2.00000
     76     -12.9913      2.00000
     77     -12.9875      2.00000
     78     -12.9868      2.00000
     79     -12.9844      2.00000
     80     -12.9814      2.00000
     81     -12.9799      2.00000
     82     -12.9795      2.00000
     83     -12.9760      2.00000
     84     -12.9757      2.00000
     85     -12.9706      2.00000
     86     -12.9601      2.00000
     87     -12.9347      2.00000
     88     -12.9347      2.00000
     89     -12.9325      2.00000
     90     -12.9209      2.00000
     91     -12.9209      2.00000
     92     -12.9158      2.00000
     93     -12.9158      2.00000
     94     -12.9143      2.00000
     95     -12.9143      2.00000
     96     -12.9119      2.00000
     97     -12.9119      2.00000
     98     -12.9084      2.00000
     99     -12.9084      2.00000
    100     -12.9067      2.00000
    101     -12.9067      2.00000
    102     -12.9050      2.00000
    103     -12.9050      2.00000
    104     -12.8941      2.00000
    105     -12.8941      2.00000
    106     -12.8916      2.00000
    107     -12.8896      2.00000
    108     -12.8869      2.00000
    109     -12.8869      2.00000
    110     -12.8867      2.00000
    111     -12.8867      2.00000
    112     -12.8812      2.00000
    113     -12.8812      2.00000
    114     -12.8780      2.00000
    115     -12.8772      2.00000
    116     -12.8772      2.00000
    117     -12.8767      2.00000
    118     -12.8743      2.00000
    119     -12.8743      2.00000
    120     -12.8716      2.00000
    121     -12.8679      2.00000
    122     -12.8663      2.00000
    123     -12.8663      2.00000
    124     -12.8661      2.00000
    125     -12.8661      2.00000
    126     -12.8647      2.00000
    127     -12.8647      2.00000
    128     -12.8590      2.00000
    129     -12.8503      2.00000
    130     -12.8470      2.00000
    131     -12.8462      2.00000
    132     -12.8417      2.00000
    133     -12.8246      2.00000
    134     -12.8246      2.00000
    135     -12.8174      2.00000
    136     -12.8123      2.00000
    137     -12.8010      2.00000
    138     -12.7980      2.00000
    139     -12.7899      2.00000
    140     -12.7865      2.00000
    141     -12.7827      2.00000
    142     -12.7699      2.00000
    143     -12.7699      2.00000
    144     -12.7677      2.00000
    145     -12.7677      2.00000
    146     -12.7656      2.00000
    147     -12.7656      2.00000
    148     -12.7641      2.00000
    149     -12.7641      2.00000
    150     -12.7603      2.00000
    151     -12.7603      2.00000
    152     -12.7570      2.00000
    153     -12.7570      2.00000
    154     -12.7472      2.00000
    155     -12.7472      2.00000
    156     -12.7447      2.00000
    157     -12.7447      2.00000
    158     -12.7421      2.00000
    159     -12.7413      2.00000
    160     -12.7413      2.00000
    161     -12.7413      2.00000
    162     -12.7413      2.00000
    163     -12.7406      2.00000
    164     -12.7406      2.00000
    165     -12.7376      2.00000
    166     -12.7336      2.00000
    167     -12.7313      2.00000
    168     -12.7310      2.00000
    169     -12.7310      2.00000
    170     -12.7296      2.00000
    171     -12.7296      2.00000
    172     -12.7274      2.00000
    173     -12.7274      2.00000
    174     -12.7256      2.00000
    175     -12.7256      2.00000
    176     -12.7229      2.00000
    177     -12.7229      2.00000
    178     -12.7126      2.00000
    179     -12.7113      2.00000
    180     -12.7113      2.00000
    181     -12.7103      2.00000
    182     -12.7103      2.00000
    183     -12.7090      2.00000
    184     -12.7090      2.00000
    185     -12.6990      2.00000
    186     -12.6990      2.00000
    187     -12.6837      2.00000
    188     -12.6837      2.00000
    189     -12.6815      2.00000
    190     -12.6815      2.00000
    191     -12.6763      2.00000
    192     -12.6763      2.00000
    193     -12.6685      2.00000
    194     -12.6618      2.00000
    195     -12.6618      2.00000
    196     -12.6492      2.00000
    197     -12.6488      2.00000
    198     -12.6479      2.00000
    199     -12.6478      2.00000
    200     -12.6323      2.00000
    201     -12.6259      2.00000
    202     -12.6259      2.00000
    203     -12.6244      2.00000
    204     -12.6235      2.00000
    205     -12.6235      2.00000
    206     -12.6233      2.00000
    207     -12.6228      2.00000
    208     -12.6202      2.00000
    209     -12.6197      2.00000
    210     -12.6171      2.00000
    211     -12.6123      2.00000
    212     -12.6119      2.00000
    213     -12.6114      2.00000
    214     -12.6114      2.00000
    215     -12.6092      2.00000
    216     -12.6092      2.00000
    217     -12.6075      2.00000
    218     -12.5982      2.00000
    219     -12.5982      2.00000
    220     -12.5890      2.00000
    221     -12.5890      2.00000
    222     -12.5887      2.00000
    223     -12.5869      2.00000
    224     -12.5772      2.00000
    225     -12.5772      2.00000
    226     -12.5767      2.00000
    227     -12.5767      2.00000
    228     -12.5766      2.00000
    229     -12.5766      2.00000
    230     -12.5738      2.00000
    231     -12.5738      2.00000
    232     -12.5645      2.00000
    233     -12.5645      2.00000
    234     -12.5639      2.00000
    235     -12.5639      2.00000
    236     -12.5622      2.00000
    237     -12.5622      2.00000
    238     -12.5602      2.00000
    239     -12.5596      2.00000
    240     -12.5596      2.00000
    241     -12.5575      2.00000
    242     -12.5551      2.00000
    243     -12.5541      2.00000
    244     -12.5541      2.00000
    245     -12.5533      2.00000
    246     -12.5434      2.00000
    247     -12.5404      2.00000
    248     -12.5404      2.00000
    249     -12.5271      2.00000
    250     -12.5252      2.00000
    251     -12.5252      2.00000
    252     -12.5132      2.00000
    253     -12.5132      2.00000
    254     -12.5098      2.00000
    255     -12.5077      2.00000
    256     -12.5076      2.00000
    257     -12.5064      2.00000
    258     -12.5053      2.00000
    259     -12.4988      2.00000
    260     -12.4988      2.00000
    261     -12.4986      2.00000
    262     -12.4986      2.00000
    263     -12.4983      2.00000
    264     -12.4798      2.00000
    265     -12.4798      2.00000
    266     -12.4467      2.00000
    267     -12.4267      2.00000
    268     -12.4191      2.00000
    269     -12.4190      2.00000
    270     -12.3846      2.00000
    271     -12.3802      2.00000
    272     -12.3582      2.00000
    273     -12.3582      2.00000
    274     -12.3509      2.00000
    275     -12.3138      2.00000
    276     -12.2722      2.00000
    277     -12.2466      2.00000
    278     -12.2466      2.00000
    279     -12.2156      2.00000
    280     -12.1953      2.00000
    281     -12.1953      2.00000
    282     -12.1805      2.00000
    283     -12.1805      2.00000
    284     -12.1714      2.00000
    285     -12.1714      2.00000
    286     -12.1425      2.00000
    287     -12.1172      2.00000
    288     -12.1172      2.00000
    289     -12.0814      2.00000
    290     -12.0814      2.00000
    291     -11.9256      2.00000
    292     -11.9256      2.00000
    293     -11.9215      2.00000
    294     -11.9215      2.00000
    295     -11.8837      2.00000
    296     -11.8769      2.00000
    297     -11.8768      2.00000
    298     -11.8651      2.00000
    299     -11.8651      2.00000
    300     -11.8615      2.00000
    301     -11.8615      2.00000
    302     -11.8521      2.00000
    303     -11.8018      2.00000
    304     -11.8018      2.00000
    305     -11.7838      2.00000
    306     -11.7838      2.00000
    307     -11.7691      2.00000
    308     -11.7691      2.00000
    309     -11.7013      2.00000
    310     -11.6886      2.00000
    311     -11.6886      2.00000
    312     -11.5516      2.00000
    313      -5.1360      2.00000
    314      -5.1250      2.00000
    315      -4.8282      2.00000
    316      -4.8282      2.00000
    317      -4.5009      2.00000
    318      -4.5009      2.00000
    319      -4.4177      2.00000
    320      -4.4177      2.00000
    321      -4.3753      2.00000
    322      -4.3753      2.00000
    323      -4.3144      2.00000
    324      -4.1978      2.00000
    325      -4.1978      2.00000
    326      -4.1940      2.00000
    327      -4.1940      2.00000
    328      -4.1901      2.00000
    329      -4.1901      2.00000
    330      -4.1584      2.00000
    331      -4.0271      2.00000
    332      -3.9785      2.00000
    333      -3.8500      2.00000
    334      -3.8499      2.00000
    335      -3.7238      2.00000
    336      -3.7146      2.00000
    337      -3.7146      2.00000
    338      -3.7093      2.00000
    339      -3.7093      2.00000
    340      -3.5618      2.00000
    341      -3.5618      2.00000
    342      -3.4960      2.00000
    343      -3.4911      2.00000
    344      -3.4911      2.00000
    345      -3.4621      2.00000
    346      -3.4621      2.00000
    347      -3.1936      2.00000
    348      -3.1744      2.00000
    349      -3.1744      2.00000
    350      -3.1386      2.00000
    351      -3.1317      2.00000
    352      -3.1317      2.00000
    353      -3.1310      2.00000
    354      -3.1310      2.00000
    355      -2.8388      2.00000
    356      -2.8192      2.00000
    357      -2.7133      2.00000
    358      -2.7133      2.00000
    359      -2.5890      2.00000
    360      -2.4650      2.00000
    361      -2.4650      2.00000
    362      -2.4583      2.00000
    363      -2.4583      2.00000
    364      -2.3473      2.00000
    365      -2.3473      2.00000
    366      -2.2879      2.00000
    367      -2.2879      2.00000
    368      -2.2698      2.00000
    369      -2.2601      2.00000
    370      -2.2252      2.00000
    371      -2.2252      2.00000
    372      -2.2016      2.00000
    373      -1.9648      2.00000
    374      -1.9648      2.00000
    375      -1.9504      2.00000
    376      -1.9504      2.00000
    377      -1.8384      2.00000
    378      -1.8384      2.00000
    379      -1.7441      2.00000
    380      -1.7441      2.00000
    381      -1.6538      2.00000
    382      -1.6538      2.00000
    383      -1.6412      2.00000
    384      -1.6179      2.00000
    385      -1.5760      2.00000
    386      -1.5760      2.00000
    387      -1.5759      2.00000
    388      -1.5759      2.00000
    389      -1.4605      2.00000
    390      -1.4605      2.00000
    391      -1.3383      2.00000
    392      -1.3383      2.00000
    393      -1.1953      2.00000
    394      -1.1953      2.00000
    395      -1.1665      2.00000
    396      -1.1104      2.00000
    397      -1.1104      2.00000
    398      -1.0672      2.00000
    399      -1.0495      2.00000
    400      -0.9676      2.00000
    401      -0.9676      2.00000
    402      -0.9332      2.00000
    403      -0.8704      2.00000
    404      -0.8704      2.00000
    405      -0.8578      2.00000
    406      -0.8578      2.00000
    407      -0.6842      2.00000
    408      -0.6019      2.00000
    409      -0.5971      2.00000
    410      -0.5971      2.00000
    411      -0.5935      2.00000
    412      -0.5705      2.00000
    413      -0.5705      2.00000
    414      -0.5256      2.00000
    415      -0.5107      2.00000
    416      -0.5107      2.00000
    417      -0.4758      2.00000
    418      -0.4232      2.00000
    419      -0.3801      2.00000
    420      -0.2670      2.00000
    421      -0.2594      2.00000
    422      -0.2594      2.00000
    423      -0.2540      2.00000
    424      -0.2535      2.00000
    425      -0.2535      2.00000
    426      -0.2231      2.00000
    427      -0.2231      2.00000
    428      -0.2134      2.00000
    429      -0.2134      2.00000
    430      -0.1629      2.00000
    431      -0.1628      2.00000
    432      -0.1173      2.00000
    433      -0.0837      2.00000
    434      -0.0786      2.00000
    435      -0.0575      2.00000
    436      -0.0575      2.00000
    437      -0.0040      2.00000
    438      -0.0040      2.00000
    439       0.0355      2.00000
    440       0.0658      2.00000
    441       0.0941      2.00000
    442       0.0941      2.00000
    443       0.1164      2.00000
    444       0.1311      2.00000
    445       0.1501      2.00000
    446       0.2391      2.00000
    447       0.2885      2.00000
    448       0.3700      2.00000
    449       0.4240      2.00000
    450       0.4241      2.00000
    451       0.4415      2.00000
    452       0.5555      2.00000
    453       0.5555      2.00000
    454       0.5805      2.00000
    455       0.6290      2.00000
    456       0.6290      2.00000
    457       0.6382      2.00000
    458       0.6753      2.00000
    459       0.6764      2.00000
    460       0.6823      2.00000
    461       0.7267      2.00000
    462       0.7279      2.00000
    463       0.7279      2.00000
    464       0.8174      2.00000
    465       0.8174      2.00000
    466       0.8221      2.00000
    467       0.8222      2.00000
    468       0.8870      2.00000
    469       0.8870      2.00000
    470       0.8923      2.00000
    471       0.8923      2.00000
    472       0.9319      2.00000
    473       0.9319      2.00000
    474       0.9457      2.00000
    475       0.9457      2.00000
    476       0.9521      2.00000
    477       0.9700      2.00000
    478       0.9725      2.00000
    479       0.9725      2.00000
    480       1.0080      2.00000
    481       1.1865      2.00000
    482       1.1865      2.00000
    483       1.2325      2.00000
    484       1.2325      2.00000
    485       1.2437      2.00000
    486       1.2437      2.00000
    487       1.2858      2.00000
    488       1.2858      2.00000
    489       1.3073      2.00000
    490       1.3109      2.00000
    491       1.3625      2.00000
    492       1.3669      2.00000
    493       1.3669      2.00000
    494       1.3767      2.00000
    495       1.3767      2.00000
    496       1.3783      2.00000
    497       1.3783      2.00000
    498       1.4674      2.00000
    499       1.4882      2.00000
    500       1.5078      2.00000
    501       1.5166      2.00000
    502       1.5207      2.00000
    503       1.5384      2.00000
    504       1.5588      2.00000
    505       1.5588      2.00000
    506       1.5589      2.00000
    507       1.5629      2.00000
    508       1.6005      2.00000
    509       1.6005      2.00000
    510       1.6059      2.00000
    511       1.6059      2.00000
    512       1.6196      2.00000
    513       1.6373      2.00000
    514       1.7088      2.00000
    515       1.7285      2.00000
    516       1.7285      2.00000
    517       1.7542      2.00000
    518       1.7542      2.00000
    519       1.7597      2.00000
    520       1.8012      2.00000
    521       1.8757      2.00000
    522       1.8792      2.00000
    523       1.9268      2.00000
    524       1.9268      2.00000
    525       1.9752      2.00000
    526       1.9752      2.00000
    527       2.0937      2.00000
    528       2.0938      2.00000
    529       6.7428      0.00000
    530       8.9992      0.00000
    531       9.2217      0.00000
    532       9.2499      0.00000
    533       9.3418      0.00000
    534       9.6895      0.00000
    535       9.8143      0.00000
    536      10.2698      0.00000
    537      10.2828      0.00000
    538      10.2831      0.00000
    539      10.2935      0.00000
    540      10.4195      0.00000
    541      10.4195      0.00000
    542      10.5821      0.00000
    543      10.5826      0.00000
    544      10.7918      0.00000
    545      10.7920      0.00000
    546      10.8593      0.00000
    547      10.8595      0.00000
    548      10.8747      0.00000
    549      10.8937      0.00000
    550      10.8938      0.00000
    551      10.9687      0.00000
    552      10.9690      0.00000
    553      11.1641      0.00000
    554      11.1966      0.00000
    555      11.2541      0.00000
    556      11.3619      0.00000
    557      11.3621      0.00000
    558      11.4361      0.00000
    559      11.4557      0.00000
    560      11.5293      0.00000
    561      11.5311      0.00000
    562      11.5591      0.00000
    563      11.7520      0.00000
    564      11.7520      0.00000
    565      11.9043      0.00000
    566      12.1051      0.00000
    567      12.1089      0.00000
    568      12.1824      0.00000
    569      12.1841      0.00000
    570      12.3477      0.00000
    571      12.3496      0.00000
    572      12.3784      0.00000
    573      12.4529      0.00000
    574      12.4544      0.00000
    575      12.4696      0.00000
    576      12.5822      0.00000
    577      12.6872      0.00000
    578      12.9363      0.00000
    579      13.1501      0.00000
    580      13.1534      0.00000
    581      13.1850      0.00000
    582      13.1884      0.00000
    583      13.2226      0.00000
    584      13.4231      0.00000
    585      13.7221      0.00000
    586      13.7612      0.00000
    587      13.9079      0.00000
    588      13.9521      0.00000
    589      14.0345      0.00000
    590      14.0603      0.00000
    591      14.0912      0.00000
    592      14.1034      0.00000
    593      14.1486      0.00000
    594      14.1631      0.00000
    595      14.3563      0.00000
    596      14.4512      0.00000
    597      14.5050      0.00000
    598      14.5360      0.00000
    599      14.9015      0.00000
    600      15.0657      0.00000
    601      15.0855      0.00000
    602      15.1043      0.00000
    603      15.1093      0.00000
    604      15.1743      0.00000
    605      15.1963      0.00000
    606      15.2997      0.00000
    607      15.4515      0.00000
    608      15.4625      0.00000
    609      15.9365      0.00000
    610      15.9683      0.00000
    611      16.0102      0.00000
    612      16.1300      0.00000
    613      16.1388      0.00000
    614      16.1811      0.00000
    615      16.2850      0.00000
    616      16.3515      0.00000
    617      16.5109      0.00000
    618      16.5460      0.00000
    619      16.5802      0.00000
    620      16.7314      0.00000
    621      16.8509      0.00000
    622      17.0204      0.00000
    623      17.1247      0.00000
    624      17.2239      0.00000
    625      17.2754      0.00000
    626      17.3987      0.00000
    627      17.5730      0.00000
    628      17.6584      0.00000
    629      17.7204      0.00000
    630      17.9022      0.00000
    631      18.1817      0.00000
    632      18.4179      0.00000
    633      18.4924      0.00000

 k-point     2 :       0.5000    0.0000    0.0000
  band No.  band energies     occupation 
      1     -18.5447      2.00000
      2     -18.5447      2.00000
      3     -18.3250      2.00000
      4     -18.3250      2.00000
      5     -17.8860      2.00000
      6     -17.8860      2.00000
      7     -17.8860      2.00000
      8     -17.8859      2.00000
      9     -17.8351      2.00000
     10     -17.8351      2.00000
     11     -17.7954      2.00000
     12     -17.7954      2.00000
     13     -17.7418      2.00000
     14     -17.7418      2.00000
     15     -17.7418      2.00000
     16     -17.7418      2.00000
     17     -17.6048      2.00000
     18     -17.6048      2.00000
     19     -17.4902      2.00000
     20     -17.4902      2.00000
     21     -17.4850      2.00000
     22     -17.4850      2.00000
     23     -17.4850      2.00000
     24     -17.4850      2.00000
     25     -17.4585      2.00000
     26     -17.4585      2.00000
     27     -17.4585      2.00000
     28     -17.4585      2.00000
     29     -17.3309      2.00000
     30     -17.3309      2.00000
     31     -17.3309      2.00000
     32     -17.3309      2.00000
     33     -17.2791      2.00000
     34     -17.2791      2.00000
     35     -17.2791      2.00000
     36     -17.2791      2.00000
     37     -17.2489      2.00000
     38     -17.2489      2.00000
     39     -17.2024      2.00000
     40     -17.2024      2.00000
     41     -17.1374      2.00000
     42     -17.1374      2.00000
     43     -17.1374      2.00000
     44     -17.1374      2.00000
     45     -17.1267      2.00000
     46     -17.1267      2.00000
     47     -17.1267      2.00000
     48     -17.1267      2.00000
     49     -17.0326      2.00000
     50     -17.0326      2.00000
     51     -16.9970      2.00000
     52     -16.9970      2.00000
     53     -16.9970      2.00000
     54     -16.9970      2.00000
     55     -16.8997      2.00000
     56     -16.8997      2.00000
     57     -16.8997      2.00000
     58     -16.8997      2.00000
     59     -16.8769      2.00000
     60     -16.8769      2.00000
     61     -16.8769      2.00000
     62     -16.8769      2.00000
     63     -16.8702      2.00000
     64     -16.8702      2.00000
     65     -16.8702      2.00000
     66     -16.8702      2.00000
     67     -16.8664      2.00000
     68     -16.8663      2.00000
     69     -16.8448      2.00000
     70     -16.8448      2.00000
     71     -16.7673      2.00000
     72     -16.7673      2.00000
     73     -13.0318      2.00000
     74     -13.0318      2.00000
     75     -12.9883      2.00000
     76     -12.9883      2.00000
     77     -12.9882      2.00000
     78     -12.9882      2.00000
     79     -12.9842      2.00000
     80     -12.9842      2.00000
     81     -12.9836      2.00000
     82     -12.9836      2.00000
     83     -12.9756      2.00000
     84     -12.9756      2.00000
     85     -12.9715      2.00000
     86     -12.9715      2.00000
     87     -12.9318      2.00000
     88     -12.9318      2.00000
     89     -12.9318      2.00000
     90     -12.9318      2.00000
     91     -12.9207      2.00000
     92     -12.9207      2.00000
     93     -12.9207      2.00000
     94     -12.9207      2.00000
     95     -12.9120      2.00000
     96     -12.9120      2.00000
     97     -12.9120      2.00000
     98     -12.9120      2.00000
     99     -12.9052      2.00000
    100     -12.9052      2.00000
    101     -12.9052      2.00000
    102     -12.9052      2.00000
    103     -12.9027      2.00000
    104     -12.9027      2.00000
    105     -12.8906      2.00000
    106     -12.8906      2.00000
    107     -12.8906      2.00000
    108     -12.8906      2.00000
    109     -12.8782      2.00000
    110     -12.8782      2.00000
    111     -12.8754      2.00000
    112     -12.8754      2.00000
    113     -12.8754      2.00000
    114     -12.8754      2.00000
    115     -12.8745      2.00000
    116     -12.8745      2.00000
    117     -12.8745      2.00000
    118     -12.8745      2.00000
    119     -12.8742      2.00000
    120     -12.8742      2.00000
    121     -12.8670      2.00000
    122     -12.8670      2.00000
    123     -12.8656      2.00000
    124     -12.8656      2.00000
    125     -12.8656      2.00000
    126     -12.8656      2.00000
    127     -12.8486      2.00000
    128     -12.8486      2.00000
    129     -12.8449      2.00000
    130     -12.8449      2.00000
    131     -12.8449      2.00000
    132     -12.8449      2.00000
    133     -12.8439      2.00000
    134     -12.8439      2.00000
    135     -12.8148      2.00000
    136     -12.8148      2.00000
    137     -12.7983      2.00000
    138     -12.7983      2.00000
    139     -12.7827      2.00000
    140     -12.7827      2.00000
    141     -12.7704      2.00000
    142     -12.7704      2.00000
    143     -12.7704      2.00000
    144     -12.7704      2.00000
    145     -12.7685      2.00000
    146     -12.7685      2.00000
    147     -12.7632      2.00000
    148     -12.7632      2.00000
    149     -12.7632      2.00000
    150     -12.7632      2.00000
    151     -12.7601      2.00000
    152     -12.7601      2.00000
    153     -12.7601      2.00000
    154     -12.7601      2.00000
    155     -12.7445      2.00000
    156     -12.7445      2.00000
    157     -12.7445      2.00000
    158     -12.7445      2.00000
    159     -12.7438      2.00000
    160     -12.7438      2.00000
    161     -12.7438      2.00000
    162     -12.7438      2.00000
    163     -12.7391      2.00000
    164     -12.7391      2.00000
    165     -12.7356      2.00000
    166     -12.7356      2.00000
    167     -12.7356      2.00000
    168     -12.7356      2.00000
    169     -12.7308      2.00000
    170     -12.7308      2.00000
    171     -12.7308      2.00000
    172     -12.7308      2.00000
    173     -12.7172      2.00000
    174     -12.7172      2.00000
    175     -12.7172      2.00000
    176     -12.7172      2.00000
    177     -12.7132      2.00000
    178     -12.7132      2.00000
    179     -12.7132      2.00000
    180     -12.7132      2.00000
    181     -12.6932      2.00000
    182     -12.6932      2.00000
    183     -12.6909      2.00000
    184     -12.6909      2.00000
    185     -12.6909      2.00000
    186     -12.6909      2.00000
    187     -12.6863      2.00000
    188     -12.6863      2.00000
    189     -12.6787      2.00000
    190     -12.6787      2.00000
    191     -12.6787      2.00000
    192     -12.6787      2.00000
    193     -12.6755      2.00000
    194     -12.6755      2.00000
    195     -12.6755      2.00000
    196     -12.6755      2.00000
    197     -12.6490      2.00000
    198     -12.6490      2.00000
    199     -12.6478      2.00000
    200     -12.6478      2.00000
    201     -12.6338      2.00000
    202     -12.6338      2.00000
    203     -12.6235      2.00000
    204     -12.6235      2.00000
    205     -12.6235      2.00000
    206     -12.6235      2.00000
    207     -12.6223      2.00000
    208     -12.6223      2.00000
    209     -12.6179      2.00000
    210     -12.6179      2.00000
    211     -12.6067      2.00000
    212     -12.6067      2.00000
    213     -12.6067      2.00000
    214     -12.6067      2.00000
    215     -12.6032      2.00000
    216     -12.6032      2.00000
    217     -12.5937      2.00000
    218     -12.5937      2.00000
    219     -12.5913      2.00000
    220     -12.5913      2.00000
    221     -12.5904      2.00000
    222     -12.5904      2.00000
    223     -12.5904      2.00000
    224     -12.5904      2.00000
    225     -12.5794      2.00000
    226     -12.5794      2.00000
    227     -12.5794      2.00000
    228     -12.5794      2.00000
    229     -12.5711      2.00000
    230     -12.5711      2.00000
    231     -12.5711      2.00000
    232     -12.5711      2.00000
    233     -12.5687      2.00000
    234     -12.5687      2.00000
    235     -12.5687      2.00000
    236     -12.5687      2.00000
    237     -12.5612      2.00000
    238     -12.5612      2.00000
    239     -12.5612      2.00000
    240     -12.5612      2.00000
    241     -12.5567      2.00000
    242     -12.5567      2.00000
    243     -12.5563      2.00000
    244     -12.5563      2.00000
    245     -12.5456      2.00000
    246     -12.5456      2.00000
    247     -12.5456      2.00000
    248     -12.5456      2.00000
    249     -12.5245      2.00000
    250     -12.5245      2.00000
    251     -12.5118      2.00000
    252     -12.5118      2.00000
    253     -12.5118      2.00000
    254     -12.5118      2.00000
    255     -12.5081      2.00000
    256     -12.5081      2.00000
    257     -12.5064      2.00000
    258     -12.5064      2.00000
    259     -12.4942      2.00000
    260     -12.4942      2.00000
    261     -12.4814      2.00000
    262     -12.4814      2.00000
    263     -12.4814      2.00000
    264     -12.4814      2.00000
    265     -12.4706      2.00000
    266     -12.4706      2.00000
    267     -12.4706      2.00000
    268     -12.4706      2.00000
    269     -12.3920      2.00000
    270     -12.3920      2.00000
    271     -12.3920      2.00000
    272     -12.3920      2.00000
    273     -12.3826      2.00000
    274     -12.3826      2.00000
    275     -12.3824      2.00000
    276     -12.3824      2.00000
    277     -12.3482      2.00000
    278     -12.3482      2.00000
    279     -12.1513      2.00000
    280     -12.1513      2.00000
    281     -12.1513      2.00000
    282     -12.1513      2.00000
    283     -12.1197      2.00000
    284     -12.1197      2.00000
    285     -12.1197      2.00000
    286     -12.1197      2.00000
    287     -12.0679      2.00000
    288     -12.0679      2.00000
    289     -11.9831      2.00000
    290     -11.9831      2.00000
    291     -11.9831      2.00000
    292     -11.9831      2.00000
    293     -11.9007      2.00000
    294     -11.9007      2.00000
    295     -11.9007      2.00000
    296     -11.9007      2.00000
    297     -11.8764      2.00000
    298     -11.8764      2.00000
    299     -11.8764      2.00000
    300     -11.8764      2.00000
    301     -11.7777      2.00000
    302     -11.7777      2.00000
    303     -11.7777      2.00000
    304     -11.7777      2.00000
    305     -11.7567      2.00000
    306     -11.7567      2.00000
    307     -11.7543      2.00000
    308     -11.7543      2.00000
    309     -11.7409      2.00000
    310     -11.7409      2.00000
    311     -11.7409      2.00000
    312     -11.7409      2.00000
    313      -5.1218      2.00000
    314      -5.1218      2.00000
    315      -4.6763      2.00000
    316      -4.6763      2.00000
    317      -4.6763      2.00000
    318      -4.6763      2.00000
    319      -4.2913      2.00000
    320      -4.2913      2.00000
    321      -4.2913      2.00000
    322      -4.2913      2.00000
    323      -4.2011      2.00000
    324      -4.2011      2.00000
    325      -4.2011      2.00000
    326      -4.2011      2.00000
    327      -4.1787      2.00000
    328      -4.1787      2.00000
    329      -4.0920      2.00000
    330      -4.0920      2.00000
    331      -4.0920      2.00000
    332      -4.0920      2.00000
    333      -4.0821      2.00000
    334      -4.0821      2.00000
    335      -3.9989      2.00000
    336      -3.9989      2.00000
    337      -3.9989      2.00000
    338      -3.9989      2.00000
    339      -3.6072      2.00000
    340      -3.6072      2.00000
    341      -3.3778      2.00000
    342      -3.3778      2.00000
    343      -3.3778      2.00000
    344      -3.3778      2.00000
    345      -3.1703      2.00000
    346      -3.1703      2.00000
    347      -3.1703      2.00000
    348      -3.1703      2.00000
    349      -3.1253      2.00000
    350      -3.1253      2.00000
    351      -3.0493      2.00000
    352      -3.0493      2.00000
    353      -3.0493      2.00000
    354      -3.0493      2.00000
    355      -2.9968      2.00000
    356      -2.9968      2.00000
    357      -2.6275      2.00000
    358      -2.6275      2.00000
    359      -2.6275      2.00000
    360      -2.6275      2.00000
    361      -2.5454      2.00000
    362      -2.5454      2.00000
    363      -2.4745      2.00000
    364      -2.4745      2.00000
    365      -2.4745      2.00000
    366      -2.4745      2.00000
    367      -2.1942      2.00000
    368      -2.1942      2.00000
    369      -2.1942      2.00000
    370      -2.1942      2.00000
    371      -2.0572      2.00000
    372      -2.0571      2.00000
    373      -2.0571      2.00000
    374      -2.0571      2.00000
    375      -1.9008      2.00000
    376      -1.9008      2.00000
    377      -1.7546      2.00000
    378      -1.7546      2.00000
    379      -1.7546      2.00000
    380      -1.7546      2.00000
    381      -1.6195      2.00000
    382      -1.6195      2.00000
    383      -1.6195      2.00000
    384      -1.6195      2.00000
    385      -1.3851      2.00000
    386      -1.3851      2.00000
    387      -1.3851      2.00000
    388      -1.3851      2.00000
    389      -1.3815      2.00000
    390      -1.3815      2.00000
    391      -1.3815      2.00000
    392      -1.3815      2.00000
    393      -1.2240      2.00000
    394      -1.2239      2.00000
    395      -1.2025      2.00000
    396      -1.2025      2.00000
    397      -1.0440      2.00000
    398      -1.0440      2.00000
    399      -1.0440      2.00000
    400      -1.0440      2.00000
    401      -0.9199      2.00000
    402      -0.9199      2.00000
    403      -0.9163      2.00000
    404      -0.9163      2.00000
    405      -0.8618      2.00000
    406      -0.8618      2.00000
    407      -0.8618      2.00000
    408      -0.8618      2.00000
    409      -0.7529      2.00000
    410      -0.7529      2.00000
    411      -0.6779      2.00000
    412      -0.6779      2.00000
    413      -0.6686      2.00000
    414      -0.6686      2.00000
    415      -0.6686      2.00000
    416      -0.6686      2.00000
    417      -0.5309      2.00000
    418      -0.5309      2.00000
    419      -0.5117      2.00000
    420      -0.5117      2.00000
    421      -0.5117      2.00000
    422      -0.5117      2.00000
    423      -0.1854      2.00000
    424      -0.1854      2.00000
    425      -0.1854      2.00000
    426      -0.1854      2.00000
    427      -0.1674      2.00000
    428      -0.1674      2.00000
    429      -0.1482      2.00000
    430      -0.1482      2.00000
    431      -0.1482      2.00000
    432      -0.1482      2.00000
    433       0.0052      2.00000
    434       0.0052      2.00000
    435       0.0536      2.00000
    436       0.0536      2.00000
    437       0.0890      2.00000
    438       0.0890      2.00000
    439       0.1444      2.00000
    440       0.1444      2.00000
    441       0.1444      2.00000
    442       0.1444      2.00000
    443       0.1687      2.00000
    444       0.1687      2.00000
    445       0.1687      2.00000
    446       0.1687      2.00000
    447       0.2141      2.00000
    448       0.2142      2.00000
    449       0.3081      2.00000
    450       0.3081      2.00000
    451       0.6142      2.00000
    452       0.6142      2.00000
    453       0.6142      2.00000
    454       0.6142      2.00000
    455       0.6754      2.00000
    456       0.6754      2.00000
    457       0.6806      2.00000
    458       0.6806      2.00000
    459       0.6806      2.00000
    460       0.6806      2.00000
    461       0.8055      2.00000
    462       0.8055      2.00000
    463       0.8055      2.00000
    464       0.8055      2.00000
    465       0.8458      2.00000
    466       0.8458      2.00000
    467       0.8637      2.00000
    468       0.8637      2.00000
    469       0.9485      2.00000
    470       0.9485      2.00000
    471       1.0321      2.00000
    472       1.0321      2.00000
    473       1.0321      2.00000
    474       1.0321      2.00000
    475       1.1137      2.00000
    476       1.1137      2.00000
    477       1.1137      2.00000
    478       1.1137      2.00000
    479       1.1423      2.00000
    480       1.1423      2.00000
    481       1.2279      2.00000
    482       1.2279      2.00000
    483       1.2279      2.00000
    484       1.2279      2.00000
    485       1.2458      2.00000
    486       1.2458      2.00000
    487       1.2615      2.00000
    488       1.2615      2.00000
    489       1.2615      2.00000
    490       1.2615      2.00000
    491       1.3463      2.00000
    492       1.3463      2.00000
    493       1.3746      2.00000
    494       1.3746      2.00000
    495       1.3746      2.00000
    496       1.3746      2.00000
    497       1.3983      2.00000
    498       1.3983      2.00000
    499       1.3983      2.00000
    500       1.3983      2.00000
    501       1.4604      2.00000
    502       1.4604      2.00000
    503       1.5021      2.00000
    504       1.5021      2.00000
    505       1.5027      2.00000
    506       1.5027      2.00000
    507       1.5267      2.00000
    508       1.5267      2.00000
    509       1.5395      2.00000
    510       1.5395      2.00000
    511       1.5579      2.00000
    512       1.5579      2.00000
    513       1.5579      2.00000
    514       1.5579      2.00000
    515       1.7043      2.00000
    516       1.7043      2.00000
    517       1.7043      2.00000
    518       1.7043      2.00000
    519       1.7126      2.00000
    520       1.7126      2.00000
    521       1.9522      2.00000
    522       1.9522      2.00000
    523       1.9522      2.00000
    524       1.9522      2.00000
    525       1.9983      2.00000
    526       1.9983      2.00000
    527       2.0032      2.00000
    528       2.0032      2.00000
    529       7.5652      0.00000
    530       7.5652      0.00000
    531       9.2842      0.00000
    532       9.2842      0.00000
    533       9.7606      0.00000
    534       9.7606      0.00000
    535      10.0727      0.00000
    536      10.0727      0.00000
    537      10.3077      0.00000
    538      10.3078      0.00000
    539      10.3079      0.00000
    540      10.3079      0.00000
    541      10.6535      0.00000
    542      10.6536      0.00000
    543      10.6536      0.00000
    544      10.6540      0.00000
    545      10.7815      0.00000
    546      10.7825      0.00000
    547      10.8983      0.00000
    548      10.8988      0.00000
    549      10.9104      0.00000
    550      10.9106      0.00000
    551      10.9106      0.00000
    552      10.9106      0.00000
    553      11.2708      0.00000
    554      11.2708      0.00000
    555      11.2708      0.00000
    556      11.2709      0.00000
    557      11.3396      0.00000
    558      11.3410      0.00000
    559      11.4327      0.00000
    560      11.4330      0.00000
    561      11.4331      0.00000
    562      11.4332      0.00000
    563      11.6022      0.00000
    564      11.6034      0.00000
    565      12.1166      0.00000
    566      12.1325      0.00000
    567      12.4316      0.00000
    568      12.4497      0.00000
    569      12.5244      0.00000
    570      12.5253      0.00000
    571      12.5272      0.00000
    572      12.5309      0.00000
    573      12.5619      0.00000
    574      12.5625      0.00000
    575      12.5634      0.00000
    576      12.5652      0.00000
    577      12.5714      0.00000
    578      12.7498      0.00000
    579      12.8468      0.00000
    580      12.8654      0.00000
    581      12.8730      0.00000
    582      12.8748      0.00000
    583      13.1848      0.00000
    584      13.2320      0.00000
    585      13.9951      0.00000
    586      14.0126      0.00000
    587      14.0452      0.00000
    588      14.0862      0.00000
    589      14.1128      0.00000
    590      14.1261      0.00000
    591      14.1539      0.00000
    592      14.1595      0.00000
    593      14.1778      0.00000
    594      14.1851      0.00000
    595      14.2346      0.00000
    596      14.2452      0.00000
    597      14.2971      0.00000
    598      14.3832      0.00000
    599      14.3918      0.00000
    600      14.5368      0.00000
    601      14.7804      0.00000
    602      14.8298      0.00000
    603      14.8655      0.00000
    604      15.0030      0.00000
    605      15.4239      0.00000
    606      15.4596      0.00000
    607      15.5007      0.00000
    608      15.5956      0.00000
    609      15.6262      0.00000
    610      15.7058      0.00000
    611      15.8455      0.00000
    612      15.9586      0.00000
    613      16.0447      0.00000
    614      16.0867      0.00000
    615      16.1398      0.00000
    616      16.2011      0.00000
    617      16.3287      0.00000
    618      16.4370      0.00000
    619      16.4831      0.00000
    620      16.6111      0.00000
    621      16.7000      0.00000
    622      16.7483      0.00000
    623      16.8640      0.00000
    624      16.9085      0.00000
    625      17.0486      0.00000
    626      17.0614      0.00000
    627      17.1982      0.00000
    628      17.3388      0.00000
    629      17.6289      0.00000
    630      17.7065      0.00000
    631      17.8127      0.00000
    632      18.2808      0.00000
    633      18.5046      0.00000

 k-point     3 :       0.0000    0.5000    0.0000
  band No.  band energies     occupation 
      1     -18.4546      2.00000
      2     -18.4546      2.00000
      3     -18.2023      2.00000
      4     -18.2022      2.00000
      5     -18.1301      2.00000
      6     -18.1301      2.00000
      7     -18.0754      2.00000
      8     -18.0754      2.00000
      9     -17.9762      2.00000
     10     -17.9761      2.00000
     11     -17.7729      2.00000
     12     -17.7729      2.00000
     13     -17.7120      2.00000
     14     -17.7120      2.00000
     15     -17.5566      2.00000
     16     -17.5566      2.00000
     17     -17.5519      2.00000
     18     -17.5519      2.00000
     19     -17.4398      2.00000
     20     -17.4398      2.00000
     21     -17.4371      2.00000
     22     -17.4371      2.00000
     23     -17.4315      2.00000
     24     -17.4315      2.00000
     25     -17.4157      2.00000
     26     -17.4157      2.00000
     27     -17.4072      2.00000
     28     -17.4072      2.00000
     29     -17.4045      2.00000
     30     -17.4045      2.00000
     31     -17.3441      2.00000
     32     -17.3441      2.00000
     33     -17.2756      2.00000
     34     -17.2756      2.00000
     35     -17.2658      2.00000
     36     -17.2658      2.00000
     37     -17.2243      2.00000
     38     -17.2243      2.00000
     39     -17.2194      2.00000
     40     -17.2194      2.00000
     41     -17.2046      2.00000
     42     -17.2046      2.00000
     43     -17.1740      2.00000
     44     -17.1740      2.00000
     45     -17.1540      2.00000
     46     -17.1540      2.00000
     47     -17.1258      2.00000
     48     -17.1258      2.00000
     49     -17.0748      2.00000
     50     -17.0748      2.00000
     51     -17.0071      2.00000
     52     -17.0071      2.00000
     53     -16.9205      2.00000
     54     -16.9205      2.00000
     55     -16.9055      2.00000
     56     -16.9055      2.00000
     57     -16.8937      2.00000
     58     -16.8936      2.00000
     59     -16.8845      2.00000
     60     -16.8845      2.00000
     61     -16.8791      2.00000
     62     -16.8791      2.00000
     63     -16.8764      2.00000
     64     -16.8764      2.00000
     65     -16.8672      2.00000
     66     -16.8672      2.00000
     67     -16.8585      2.00000
     68     -16.8585      2.00000
     69     -16.8171      2.00000
     70     -16.8171      2.00000
     71     -16.7885      2.00000
     72     -16.7885      2.00000
     73     -13.0170      2.00000
     74     -13.0170      2.00000
     75     -12.9957      2.00000
     76     -12.9957      2.00000
     77     -12.9922      2.00000
     78     -12.9922      2.00000
     79     -12.9722      2.00000
     80     -12.9722      2.00000
     81     -12.9667      2.00000
     82     -12.9667      2.00000
     83     -12.9665      2.00000
     84     -12.9665      2.00000
     85     -12.9629      2.00000
     86     -12.9629      2.00000
     87     -12.9522      2.00000
     88     -12.9522      2.00000
     89     -12.9401      2.00000
     90     -12.9401      2.00000
     91     -12.9340      2.00000
     92     -12.9340      2.00000
     93     -12.9327      2.00000
     94     -12.9327      2.00000
     95     -12.9325      2.00000
     96     -12.9325      2.00000
     97     -12.9207      2.00000
     98     -12.9207      2.00000
     99     -12.9120      2.00000
    100     -12.9120      2.00000
    101     -12.9037      2.00000
    102     -12.9037      2.00000
    103     -12.9000      2.00000
    104     -12.9000      2.00000
    105     -12.8974      2.00000
    106     -12.8974      2.00000
    107     -12.8910      2.00000
    108     -12.8910      2.00000
    109     -12.8902      2.00000
    110     -12.8902      2.00000
    111     -12.8883      2.00000
    112     -12.8883      2.00000
    113     -12.8859      2.00000
    114     -12.8859      2.00000
    115     -12.8838      2.00000
    116     -12.8838      2.00000
    117     -12.8830      2.00000
    118     -12.8830      2.00000
    119     -12.8777      2.00000
    120     -12.8777      2.00000
    121     -12.8601      2.00000
    122     -12.8601      2.00000
    123     -12.8548      2.00000
    124     -12.8548      2.00000
    125     -12.8490      2.00000
    126     -12.8490      2.00000
    127     -12.8468      2.00000
    128     -12.8468      2.00000
    129     -12.8463      2.00000
    130     -12.8463      2.00000
    131     -12.8340      2.00000
    132     -12.8340      2.00000
    133     -12.8284      2.00000
    134     -12.8284      2.00000
    135     -12.8283      2.00000
    136     -12.8283      2.00000
    137     -12.7921      2.00000
    138     -12.7921      2.00000
    139     -12.7917      2.00000
    140     -12.7917      2.00000
    141     -12.7842      2.00000
    142     -12.7842      2.00000
    143     -12.7776      2.00000
    144     -12.7776      2.00000
    145     -12.7774      2.00000
    146     -12.7774      2.00000
    147     -12.7739      2.00000
    148     -12.7739      2.00000
    149     -12.7728      2.00000
    150     -12.7728      2.00000
    151     -12.7720      2.00000
    152     -12.7720      2.00000
    153     -12.7701      2.00000
    154     -12.7701      2.00000
    155     -12.7654      2.00000
    156     -12.7654      2.00000
    157     -12.7613      2.00000
    158     -12.7613      2.00000
    159     -12.7535      2.00000
    160     -12.7535      2.00000
    161     -12.7411      2.00000
    162     -12.7411      2.00000
    163     -12.7394      2.00000
    164     -12.7394      2.00000
    165     -12.7360      2.00000
    166     -12.7360      2.00000
    167     -12.7255      2.00000
    168     -12.7255      2.00000
    169     -12.7188      2.00000
    170     -12.7188      2.00000
    171     -12.7073      2.00000
    172     -12.7073      2.00000
    173     -12.7059      2.00000
    174     -12.7059      2.00000
    175     -12.7048      2.00000
    176     -12.7048      2.00000
    177     -12.7030      2.00000
    178     -12.7030      2.00000
    179     -12.7013      2.00000
    180     -12.7013      2.00000
    181     -12.6988      2.00000
    182     -12.6988      2.00000
    183     -12.6912      2.00000
    184     -12.6912      2.00000
    185     -12.6884      2.00000
    186     -12.6884      2.00000
    187     -12.6882      2.00000
    188     -12.6882      2.00000
    189     -12.6860      2.00000
    190     -12.6860      2.00000
    191     -12.6843      2.00000
    192     -12.6843      2.00000
    193     -12.6839      2.00000
    194     -12.6839      2.00000
    195     -12.6822      2.00000
    196     -12.6822      2.00000
    197     -12.6771      2.00000
    198     -12.6771      2.00000
    199     -12.6714      2.00000
    200     -12.6714      2.00000
    201     -12.6682      2.00000
    202     -12.6682      2.00000
    203     -12.6670      2.00000
    204     -12.6670      2.00000
    205     -12.6365      2.00000
    206     -12.6365      2.00000
    207     -12.6163      2.00000
    208     -12.6163      2.00000
    209     -12.6081      2.00000
    210     -12.6081      2.00000
    211     -12.6054      2.00000
    212     -12.6054      2.00000
    213     -12.6029      2.00000
    214     -12.6029      2.00000
    215     -12.5990      2.00000
    216     -12.5990      2.00000
    217     -12.5933      2.00000
    218     -12.5933      2.00000
    219     -12.5925      2.00000
    220     -12.5925      2.00000
    221     -12.5809      2.00000
    222     -12.5809      2.00000
    223     -12.5742      2.00000
    224     -12.5742      2.00000
    225     -12.5730      2.00000
    226     -12.5730      2.00000
    227     -12.5724      2.00000
    228     -12.5724      2.00000
    229     -12.5636      2.00000
    230     -12.5636      2.00000
    231     -12.5588      2.00000
    232     -12.5588      2.00000
    233     -12.5583      2.00000
    234     -12.5583      2.00000
    235     -12.5529      2.00000
    236     -12.5529      2.00000
    237     -12.5514      2.00000
    238     -12.5514      2.00000
    239     -12.5488      2.00000
    240     -12.5488      2.00000
    241     -12.5475      2.00000
    242     -12.5475      2.00000
    243     -12.5337      2.00000
    244     -12.5337      2.00000
    245     -12.5294      2.00000
    246     -12.5294      2.00000
    247     -12.5233      2.00000
    248     -12.5233      2.00000
    249     -12.5195      2.00000
    250     -12.5195      2.00000
    251     -12.5180      2.00000
    252     -12.5180      2.00000
    253     -12.5171      2.00000
    254     -12.5171      2.00000
    255     -12.5167      2.00000
    256     -12.5167      2.00000
    257     -12.5073      2.00000
    258     -12.5073      2.00000
    259     -12.4922      2.00000
    260     -12.4922      2.00000
    261     -12.4919      2.00000
    262     -12.4919      2.00000
    263     -12.4913      2.00000
    264     -12.4912      2.00000
    265     -12.3641      2.00000
    266     -12.3641      2.00000
    267     -12.3635      2.00000
    268     -12.3635      2.00000
    269     -12.3466      2.00000
    270     -12.3466      2.00000
    271     -12.3382      2.00000
    272     -12.3382      2.00000
    273     -12.3245      2.00000
    274     -12.3245      2.00000
    275     -12.3103      2.00000
    276     -12.3103      2.00000
    277     -12.2769      2.00000
    278     -12.2769      2.00000
    279     -12.2633      2.00000
    280     -12.2633      2.00000
    281     -12.2181      2.00000
    282     -12.2181      2.00000
    283     -12.1557      2.00000
    284     -12.1557      2.00000
    285     -12.1544      2.00000
    286     -12.1544      2.00000
    287     -12.1341      2.00000
    288     -12.1341      2.00000
    289     -12.0780      2.00000
    290     -12.0780      2.00000
    291     -12.0636      2.00000
    292     -12.0636      2.00000
    293     -12.0302      2.00000
    294     -12.0302      2.00000
    295     -11.9770      2.00000
    296     -11.9770      2.00000
    297     -11.8635      2.00000
    298     -11.8635      2.00000
    299     -11.8633      2.00000
    300     -11.8633      2.00000
    301     -11.8280      2.00000
    302     -11.8280      2.00000
    303     -11.7910      2.00000
    304     -11.7910      2.00000
    305     -11.7252      2.00000
    306     -11.7252      2.00000
    307     -11.6734      2.00000
    308     -11.6733      2.00000
    309     -11.6423      2.00000
    310     -11.6423      2.00000
    311     -11.6233      2.00000
    312     -11.6233      2.00000
    313      -4.9714      2.00000
    314      -4.9714      2.00000
    315      -4.9197      2.00000
    316      -4.9197      2.00000
    317      -4.8071      2.00000
    318      -4.8071      2.00000
    319      -4.7193      2.00000
    320      -4.7193      2.00000
    321      -4.4852      2.00000
    322      -4.4852      2.00000
    323      -4.4694      2.00000
    324      -4.4694      2.00000
    325      -4.2196      2.00000
    326      -4.2196      2.00000
    327      -4.1827      2.00000
    328      -4.1827      2.00000
    329      -4.1021      2.00000
    330      -4.1021      2.00000
    331      -3.9937      2.00000
    332      -3.9937      2.00000
    333      -3.9340      2.00000
    334      -3.9340      2.00000
    335      -3.8911      2.00000
    336      -3.8911      2.00000
    337      -3.8470      2.00000
    338      -3.8470      2.00000
    339      -3.5594      2.00000
    340      -3.5594      2.00000
    341      -3.5401      2.00000
    342      -3.5401      2.00000
    343      -3.4750      2.00000
    344      -3.4750      2.00000
    345      -3.4397      2.00000
    346      -3.4397      2.00000
    347      -3.2297      2.00000
    348      -3.2296      2.00000
    349      -2.9882      2.00000
    350      -2.9882      2.00000
    351      -2.8895      2.00000
    352      -2.8895      2.00000
    353      -2.8438      2.00000
    354      -2.8438      2.00000
    355      -2.7901      2.00000
    356      -2.7901      2.00000
    357      -2.7386      2.00000
    358      -2.7386      2.00000
    359      -2.6089      2.00000
    360      -2.6089      2.00000
    361      -2.4532      2.00000
    362      -2.4532      2.00000
    363      -2.1595      2.00000
    364      -2.1595      2.00000
    365      -2.1450      2.00000
    366      -2.1450      2.00000
    367      -1.9984      2.00000
    368      -1.9984      2.00000
    369      -1.9041      2.00000
    370      -1.9041      2.00000
    371      -1.8201      2.00000
    372      -1.8201      2.00000
    373      -1.7821      2.00000
    374      -1.7821      2.00000
    375      -1.7493      2.00000
    376      -1.7493      2.00000
    377      -1.7279      2.00000
    378      -1.7279      2.00000
    379      -1.7109      2.00000
    380      -1.7109      2.00000
    381      -1.6979      2.00000
    382      -1.6979      2.00000
    383      -1.5490      2.00000
    384      -1.5490      2.00000
    385      -1.4315      2.00000
    386      -1.4315      2.00000
    387      -1.4039      2.00000
    388      -1.4039      2.00000
    389      -1.3938      2.00000
    390      -1.3938      2.00000
    391      -1.3385      2.00000
    392      -1.3385      2.00000
    393      -1.3218      2.00000
    394      -1.3218      2.00000
    395      -1.2857      2.00000
    396      -1.2857      2.00000
    397      -1.1399      2.00000
    398      -1.1399      2.00000
    399      -0.9320      2.00000
    400      -0.9320      2.00000
    401      -0.9007      2.00000
    402      -0.9007      2.00000
    403      -0.8745      2.00000
    404      -0.8745      2.00000
    405      -0.8538      2.00000
    406      -0.8538      2.00000
    407      -0.8142      2.00000
    408      -0.8142      2.00000
    409      -0.7519      2.00000
    410      -0.7519      2.00000
    411      -0.7232      2.00000
    412      -0.7232      2.00000
    413      -0.6849      2.00000
    414      -0.6849      2.00000
    415      -0.6419      2.00000
    416      -0.6419      2.00000
    417      -0.4788      2.00000
    418      -0.4788      2.00000
    419      -0.4412      2.00000
    420      -0.4412      2.00000
    421      -0.4354      2.00000
    422      -0.4354      2.00000
    423      -0.2508      2.00000
    424      -0.2508      2.00000
    425      -0.2445      2.00000
    426      -0.2445      2.00000
    427      -0.2340      2.00000
    428      -0.2340      2.00000
    429      -0.2247      2.00000
    430      -0.2247      2.00000
    431      -0.1096      2.00000
    432      -0.1096      2.00000
    433      -0.0620      2.00000
    434      -0.0620      2.00000
    435      -0.0316      2.00000
    436      -0.0316      2.00000
    437      -0.0247      2.00000
    438      -0.0247      2.00000
    439       0.0521      2.00000
    440       0.0521      2.00000
    441       0.1562      2.00000
    442       0.1562      2.00000
    443       0.1847      2.00000
    444       0.1848      2.00000
    445       0.2192      2.00000
    446       0.2192      2.00000
    447       0.3722      2.00000
    448       0.3722      2.00000
    449       0.4115      2.00000
    450       0.4115      2.00000
    451       0.4282      2.00000
    452       0.4282      2.00000
    453       0.5033      2.00000
    454       0.5033      2.00000
    455       0.5135      2.00000
    456       0.5135      2.00000
    457       0.5395      2.00000
    458       0.5395      2.00000
    459       0.5936      2.00000
    460       0.5936      2.00000
    461       0.6040      2.00000
    462       0.6040      2.00000
    463       0.6338      2.00000
    464       0.6338      2.00000
    465       0.7914      2.00000
    466       0.7914      2.00000
    467       0.8151      2.00000
    468       0.8151      2.00000
    469       0.9022      2.00000
    470       0.9022      2.00000
    471       0.9730      2.00000
    472       0.9730      2.00000
    473       0.9922      2.00000
    474       0.9922      2.00000
    475       1.0061      2.00000
    476       1.0061      2.00000
    477       1.0343      2.00000
    478       1.0343      2.00000
    479       1.1695      2.00000
    480       1.1695      2.00000
    481       1.1883      2.00000
    482       1.1883      2.00000
    483       1.1913      2.00000
    484       1.1913      2.00000
    485       1.1990      2.00000
    486       1.1990      2.00000
    487       1.2082      2.00000
    488       1.2082      2.00000
    489       1.2315      2.00000
    490       1.2315      2.00000
    491       1.2939      2.00000
    492       1.2939      2.00000
    493       1.3044      2.00000
    494       1.3044      2.00000
    495       1.3555      2.00000
    496       1.3555      2.00000
    497       1.4184      2.00000
    498       1.4184      2.00000
    499       1.4274      2.00000
    500       1.4274      2.00000
    501       1.4553      2.00000
    502       1.4553      2.00000
    503       1.4803      2.00000
    504       1.4803      2.00000
    505       1.4853      2.00000
    506       1.4853      2.00000
    507       1.4883      2.00000
    508       1.4883      2.00000
    509       1.5807      2.00000
    510       1.5807      2.00000
    511       1.5856      2.00000
    512       1.5857      2.00000
    513       1.5928      2.00000
    514       1.5928      2.00000
    515       1.6196      2.00000
    516       1.6196      2.00000
    517       1.6754      2.00000
    518       1.6754      2.00000
    519       1.7646      2.00000
    520       1.7646      2.00000
    521       1.8494      2.00000
    522       1.8494      2.00000
    523       1.9210      2.00000
    524       1.9210      2.00000
    525       2.0804      2.00000
    526       2.0804      2.00000
    527       2.0950      2.00000
    528       2.0950      2.00000
    529       8.0332      0.00000
    530       8.0332      0.00000
    531       9.5079      0.00000
    532       9.5079      0.00000
    533       9.7048      0.00000
    534       9.7048      0.00000
    535       9.8676      0.00000
    536       9.8676      0.00000
    537       9.9915      0.00000
    538       9.9916      0.00000
    539      10.3137      0.00000
    540      10.3139      0.00000
    541      10.4595      0.00000
    542      10.4595      0.00000
    543      10.4602      0.00000
    544      10.4602      0.00000
    545      10.7733      0.00000
    546      10.7733      0.00000
    547      11.2604      0.00000
    548      11.2604      0.00000
    549      11.3824      0.00000
    550      11.3861      0.00000
    551      11.4769      0.00000
    552      11.4787      0.00000
    553      11.5758      0.00000
    554      11.5807      0.00000
    555      11.5952      0.00000
    556      11.5953      0.00000
    557      11.6040      0.00000
    558      11.6044      0.00000
    559      11.6170      0.00000
    560      11.6184      0.00000
    561      11.8308      0.00000
    562      11.8311      0.00000
    563      11.8703      0.00000
    564      11.8704      0.00000
    565      11.9331      0.00000
    566      11.9338      0.00000
    567      12.1973      0.00000
    568      12.1974      0.00000
    569      12.3023      0.00000
    570      12.3071      0.00000
    571      12.5236      0.00000
    572      12.5276      0.00000
    573      12.5938      0.00000
    574      12.5943      0.00000
    575      12.5947      0.00000
    576      12.6387      0.00000
    577      12.7021      0.00000
    578      12.7088      0.00000
    579      12.9524      0.00000
    580      12.9565      0.00000
    581      13.1889      0.00000
    582      13.2028      0.00000
    583      13.2634      0.00000
    584      13.2648      0.00000
    585      13.2947      0.00000
    586      13.3735      0.00000
    587      13.4496      0.00000
    588      13.5041      0.00000
    589      13.5320      0.00000
    590      13.6699      0.00000
    591      13.7151      0.00000
    592      13.7862      0.00000
    593      13.8966      0.00000
    594      14.0526      0.00000
    595      14.1899      0.00000
    596      14.2692      0.00000
    597      14.7034      0.00000
    598      14.8225      0.00000
    599      14.8978      0.00000
    600      14.9853      0.00000
    601      15.0584      0.00000
    602      15.1032      0.00000
    603      15.1325      0.00000
    604      15.2228      0.00000
    605      15.3138      0.00000
    606      15.3648      0.00000
    607      15.4460      0.00000
    608      15.4743      0.00000
    609      15.5453      0.00000
    610      15.5717      0.00000
    611      15.6494      0.00000
    612      15.6806      0.00000
    613      15.7913      0.00000
    614      15.8768      0.00000
    615      15.9701      0.00000
    616      16.0448      0.00000
    617      16.0748      0.00000
    618      16.1950      0.00000
    619      16.3605      0.00000
    620      16.4222      0.00000
    621      16.5322      0.00000
    622      16.5646      0.00000
    623      16.6737      0.00000
    624      16.7716      0.00000
    625      16.8362      0.00000
    626      17.0114      0.00000
    627      17.1931      0.00000
    628      17.2953      0.00000
    629      17.5031      0.00000
    630      17.6022      0.00000
    631      17.6456      0.00000
    632      17.8569      0.00000
    633      18.1182      0.00000

 k-point     4 :       0.5000    0.5000    0.0000
  band No.  band energies     occupation 
      1     -18.3495      2.00000
      2     -18.3495      2.00000
      3     -18.3495      2.00000
      4     -18.3495      2.00000
      5     -18.1494      2.00000
      6     -18.1494      2.00000
      7     -18.1494      2.00000
      8     -18.1494      2.00000
      9     -17.7184      2.00000
     10     -17.7184      2.00000
     11     -17.7183      2.00000
     12     -17.7183      2.00000
     13     -17.6820      2.00000
     14     -17.6820      2.00000
     15     -17.6820      2.00000
     16     -17.6820      2.00000
     17     -17.5548      2.00000
     18     -17.5548      2.00000
     19     -17.5147      2.00000
     20     -17.5147      2.00000
     21     -17.5147      2.00000
     22     -17.5147      2.00000
     23     -17.4376      2.00000
     24     -17.4376      2.00000
     25     -17.4168      2.00000
     26     -17.4168      2.00000
     27     -17.4168      2.00000
     28     -17.4168      2.00000
     29     -17.4102      2.00000
     30     -17.4102      2.00000
     31     -17.3584      2.00000
     32     -17.3584      2.00000
     33     -17.2560      2.00000
     34     -17.2560      2.00000
     35     -17.2156      2.00000
     36     -17.2156      2.00000
     37     -17.2123      2.00000
     38     -17.2123      2.00000
     39     -17.1683      2.00000
     40     -17.1683      2.00000
     41     -17.1683      2.00000
     42     -17.1682      2.00000
     43     -17.1632      2.00000
     44     -17.1632      2.00000
     45     -17.1632      2.00000
     46     -17.1632      2.00000
     47     -17.1612      2.00000
     48     -17.1612      2.00000
     49     -17.0533      2.00000
     50     -17.0533      2.00000
     51     -17.0533      2.00000
     52     -17.0533      2.00000
     53     -16.9206      2.00000
     54     -16.9206      2.00000
     55     -16.9053      2.00000
     56     -16.9053      2.00000
     57     -16.8927      2.00000
     58     -16.8927      2.00000
     59     -16.8848      2.00000
     60     -16.8848      2.00000
     61     -16.8818      2.00000
     62     -16.8818      2.00000
     63     -16.8818      2.00000
     64     -16.8818      2.00000
     65     -16.8607      2.00000
     66     -16.8607      2.00000
     67     -16.8607      2.00000
     68     -16.8606      2.00000
     69     -16.8014      2.00000
     70     -16.8014      2.00000
     71     -16.8014      2.00000
     72     -16.8014      2.00000
     73     -13.0075      2.00000
     74     -13.0075      2.00000
     75     -13.0075      2.00000
     76     -13.0075      2.00000
     77     -12.9823      2.00000
     78     -12.9823      2.00000
     79     -12.9823      2.00000
     80     -12.9823      2.00000
     81     -12.9670      2.00000
     82     -12.9670      2.00000
     83     -12.9670      2.00000
     84     -12.9670      2.00000
     85     -12.9584      2.00000
     86     -12.9584      2.00000
     87     -12.9584      2.00000
     88     -12.9584      2.00000
     89     -12.9344      2.00000
     90     -12.9344      2.00000
     91     -12.9344      2.00000
     92     -12.9344      2.00000
     93     -12.9256      2.00000
     94     -12.9256      2.00000
     95     -12.9256      2.00000
     96     -12.9256      2.00000
     97     -12.9250      2.00000
     98     -12.9250      2.00000
     99     -12.9250      2.00000
    100     -12.9250      2.00000
    101     -12.9119      2.00000
    102     -12.9119      2.00000
    103     -12.8979      2.00000
    104     -12.8979      2.00000
    105     -12.8979      2.00000
    106     -12.8979      2.00000
    107     -12.8966      2.00000
    108     -12.8966      2.00000
    109     -12.8919      2.00000
    110     -12.8919      2.00000
    111     -12.8831      2.00000
    112     -12.8831      2.00000
    113     -12.8819      2.00000
    114     -12.8819      2.00000
    115     -12.8818      2.00000
    116     -12.8818      2.00000
    117     -12.8803      2.00000
    118     -12.8803      2.00000
    119     -12.8803      2.00000
    120     -12.8803      2.00000
    121     -12.8529      2.00000
    122     -12.8529      2.00000
    123     -12.8529      2.00000
    124     -12.8529      2.00000
    125     -12.8495      2.00000
    126     -12.8495      2.00000
    127     -12.8489      2.00000
    128     -12.8489      2.00000
    129     -12.8361      2.00000
    130     -12.8361      2.00000
    131     -12.8361      2.00000
    132     -12.8361      2.00000
    133     -12.8306      2.00000
    134     -12.8305      2.00000
    135     -12.8305      2.00000
    136     -12.8305      2.00000
    137     -12.7916      2.00000
    138     -12.7916      2.00000
    139     -12.7857      2.00000
    140     -12.7857      2.00000
    141     -12.7794      2.00000
    142     -12.7794      2.00000
    143     -12.7737      2.00000
    144     -12.7737      2.00000
    145     -12.7737      2.00000
    146     -12.7737      2.00000
    147     -12.7710      2.00000
    148     -12.7710      2.00000
    149     -12.7710      2.00000
    150     -12.7710      2.00000
    151     -12.7570      2.00000
    152     -12.7570      2.00000
    153     -12.7556      2.00000
    154     -12.7556      2.00000
    155     -12.7556      2.00000
    156     -12.7556      2.00000
    157     -12.7518      2.00000
    158     -12.7518      2.00000
    159     -12.7384      2.00000
    160     -12.7384      2.00000
    161     -12.7384      2.00000
    162     -12.7384      2.00000
    163     -12.7358      2.00000
    164     -12.7358      2.00000
    165     -12.7354      2.00000
    166     -12.7354      2.00000
    167     -12.7354      2.00000
    168     -12.7354      2.00000
    169     -12.7351      2.00000
    170     -12.7351      2.00000
    171     -12.7102      2.00000
    172     -12.7102      2.00000
    173     -12.7102      2.00000
    174     -12.7102      2.00000
    175     -12.7065      2.00000
    176     -12.7065      2.00000
    177     -12.7003      2.00000
    178     -12.7003      2.00000
    179     -12.7003      2.00000
    180     -12.7003      2.00000
    181     -12.7001      2.00000
    182     -12.7001      2.00000
    183     -12.6989      2.00000
    184     -12.6989      2.00000
    185     -12.6989      2.00000
    186     -12.6989      2.00000
    187     -12.6983      2.00000
    188     -12.6983      2.00000
    189     -12.6894      2.00000
    190     -12.6894      2.00000
    191     -12.6894      2.00000
    192     -12.6894      2.00000
    193     -12.6812      2.00000
    194     -12.6812      2.00000
    195     -12.6685      2.00000
    196     -12.6685      2.00000
    197     -12.6587      2.00000
    198     -12.6587      2.00000
    199     -12.6587      2.00000
    200     -12.6587      2.00000
    201     -12.6514      2.00000
    202     -12.6514      2.00000
    203     -12.6514      2.00000
    204     -12.6514      2.00000
    205     -12.6473      2.00000
    206     -12.6473      2.00000
    207     -12.6473      2.00000
    208     -12.6473      2.00000
    209     -12.6052      2.00000
    210     -12.6052      2.00000
    211     -12.6052      2.00000
    212     -12.6052      2.00000
    213     -12.5980      2.00000
    214     -12.5980      2.00000
    215     -12.5980      2.00000
    216     -12.5980      2.00000
    217     -12.5923      2.00000
    218     -12.5923      2.00000
    219     -12.5923      2.00000
    220     -12.5923      2.00000
    221     -12.5828      2.00000
    222     -12.5828      2.00000
    223     -12.5828      2.00000
    224     -12.5828      2.00000
    225     -12.5815      2.00000
    226     -12.5815      2.00000
    227     -12.5749      2.00000
    228     -12.5749      2.00000
    229     -12.5738      2.00000
    230     -12.5738      2.00000
    231     -12.5630      2.00000
    232     -12.5630      2.00000
    233     -12.5566      2.00000
    234     -12.5566      2.00000
    235     -12.5546      2.00000
    236     -12.5546      2.00000
    237     -12.5546      2.00000
    238     -12.5546      2.00000
    239     -12.5539      2.00000
    240     -12.5539      2.00000
    241     -12.5539      2.00000
    242     -12.5539      2.00000
    243     -12.5316      2.00000
    244     -12.5316      2.00000
    245     -12.5316      2.00000
    246     -12.5316      2.00000
    247     -12.5261      2.00000
    248     -12.5261      2.00000
    249     -12.5206      2.00000
    250     -12.5206      2.00000
    251     -12.5190      2.00000
    252     -12.5190      2.00000
    253     -12.5073      2.00000
    254     -12.5073      2.00000
    255     -12.5045      2.00000
    256     -12.5045      2.00000
    257     -12.5045      2.00000
    258     -12.5045      2.00000
    259     -12.4959      2.00000
    260     -12.4959      2.00000
    261     -12.4959      2.00000
    262     -12.4959      2.00000
    263     -12.4956      2.00000
    264     -12.4956      2.00000
    265     -12.4929      2.00000
    266     -12.4929      2.00000
    267     -12.4880      2.00000
    268     -12.4880      2.00000
    269     -12.3273      2.00000
    270     -12.3273      2.00000
    271     -12.3273      2.00000
    272     -12.3273      2.00000
    273     -12.2959      2.00000
    274     -12.2959      2.00000
    275     -12.2959      2.00000
    276     -12.2959      2.00000
    277     -12.2513      2.00000
    278     -12.2513      2.00000
    279     -12.2513      2.00000
    280     -12.2513      2.00000
    281     -12.1976      2.00000
    282     -12.1976      2.00000
    283     -12.1976      2.00000
    284     -12.1976      2.00000
    285     -12.1320      2.00000
    286     -12.1320      2.00000
    287     -12.0824      2.00000
    288     -12.0824      2.00000
    289     -12.0618      2.00000
    290     -12.0618      2.00000
    291     -11.9871      2.00000
    292     -11.9871      2.00000
    293     -11.9871      2.00000
    294     -11.9871      2.00000
    295     -11.9800      2.00000
    296     -11.9800      2.00000
    297     -11.8502      2.00000
    298     -11.8502      2.00000
    299     -11.8388      2.00000
    300     -11.8388      2.00000
    301     -11.7855      2.00000
    302     -11.7855      2.00000
    303     -11.7855      2.00000
    304     -11.7855      2.00000
    305     -11.7568      2.00000
    306     -11.7568      2.00000
    307     -11.7568      2.00000
    308     -11.7568      2.00000
    309     -11.6711      2.00000
    310     -11.6711      2.00000
    311     -11.6437      2.00000
    312     -11.6437      2.00000
    313      -4.9749      2.00000
    314      -4.9749      2.00000
    315      -4.9439      2.00000
    316      -4.9438      2.00000
    317      -4.9438      2.00000
    318      -4.9438      2.00000
    319      -4.6273      2.00000
    320      -4.6273      2.00000
    321      -4.4607      2.00000
    322      -4.4607      2.00000
    323      -4.2466      2.00000
    324      -4.2466      2.00000
    325      -4.2048      2.00000
    326      -4.2048      2.00000
    327      -4.1096      2.00000
    328      -4.1096      2.00000
    329      -4.1096      2.00000
    330      -4.1096      2.00000
    331      -3.9902      2.00000
    332      -3.9902      2.00000
    333      -3.9902      2.00000
    334      -3.9902      2.00000
    335      -3.8876      2.00000
    336      -3.8876      2.00000
    337      -3.8356      2.00000
    338      -3.8356      2.00000
    339      -3.7061      2.00000
    340      -3.7061      2.00000
    341      -3.6351      2.00000
    342      -3.6351      2.00000
    343      -3.6351      2.00000
    344      -3.6351      2.00000
    345      -3.2685      2.00000
    346      -3.2685      2.00000
    347      -3.2685      2.00000
    348      -3.2685      2.00000
    349      -3.0465      2.00000
    350      -3.0465      2.00000
    351      -2.9077      2.00000
    352      -2.9077      2.00000
    353      -2.9077      2.00000
    354      -2.9077      2.00000
    355      -2.7872      2.00000
    356      -2.7872      2.00000
    357      -2.5807      2.00000
    358      -2.5807      2.00000
    359      -2.5775      2.00000
    360      -2.5775      2.00000
    361      -2.5775      2.00000
    362      -2.5775      2.00000
    363      -2.2283      2.00000
    364      -2.2283      2.00000
    365      -2.1227      2.00000
    366      -2.1227      2.00000
    367      -2.1227      2.00000
    368      -2.1227      2.00000
    369      -1.7731      2.00000
    370      -1.7731      2.00000
    371      -1.7731      2.00000
    372      -1.7731      2.00000
    373      -1.7649      2.00000
    374      -1.7649      2.00000
    375      -1.7367      2.00000
    376      -1.7367      2.00000
    377      -1.7367      2.00000
    378      -1.7367      2.00000
    379      -1.5948      2.00000
    380      -1.5948      2.00000
    381      -1.5948      2.00000
    382      -1.5948      2.00000
    383      -1.5643      2.00000
    384      -1.5643      2.00000
    385      -1.5235      2.00000
    386      -1.5235      2.00000
    387      -1.3374      2.00000
    388      -1.3374      2.00000
    389      -1.3374      2.00000
    390      -1.3374      2.00000
    391      -1.3144      2.00000
    392      -1.3144      2.00000
    393      -1.2400      2.00000
    394      -1.2400      2.00000
    395      -1.2400      2.00000
    396      -1.2400      2.00000
    397      -1.0986      2.00000
    398      -1.0986      2.00000
    399      -1.0108      2.00000
    400      -1.0108      2.00000
    401      -0.9351      2.00000
    402      -0.9351      2.00000
    403      -0.9350      2.00000
    404      -0.9350      2.00000
    405      -0.7945      2.00000
    406      -0.7945      2.00000
    407      -0.7945      2.00000
    408      -0.7945      2.00000
    409      -0.7617      2.00000
    410      -0.7617      2.00000
    411      -0.6440      2.00000
    412      -0.6440      2.00000
    413      -0.5622      2.00000
    414      -0.5622      2.00000
    415      -0.5622      2.00000
    416      -0.5622      2.00000
    417      -0.5324      2.00000
    418      -0.5324      2.00000
    419      -0.5324      2.00000
    420      -0.5324      2.00000
    421      -0.4319      2.00000
    422      -0.4319      2.00000
    423      -0.4319      2.00000
    424      -0.4319      2.00000
    425      -0.4164      2.00000
    426      -0.4164      2.00000
    427      -0.4164      2.00000
    428      -0.4164      2.00000
    429      -0.3148      2.00000
    430      -0.3148      2.00000
    431      -0.1712      2.00000
    432      -0.1712      2.00000
    433      -0.0210      2.00000
    434      -0.0210      2.00000
    435       0.0092      2.00000
    436       0.0092      2.00000
    437       0.0092      2.00000
    438       0.0092      2.00000
    439       0.0424      2.00000
    440       0.0424      2.00000
    441       0.0424      2.00000
    442       0.0424      2.00000
    443       0.2370      2.00000
    444       0.2370      2.00000
    445       0.4135      2.00000
    446       0.4135      2.00000
    447       0.4135      2.00000
    448       0.4135      2.00000
    449       0.4303      2.00000
    450       0.4303      2.00000
    451       0.4303      2.00000
    452       0.4303      2.00000
    453       0.4456      2.00000
    454       0.4456      2.00000
    455       0.5534      2.00000
    456       0.5534      2.00000
    457       0.5534      2.00000
    458       0.5534      2.00000
    459       0.7516      2.00000
    460       0.7516      2.00000
    461       0.7894      2.00000
    462       0.7894      2.00000
    463       0.7895      2.00000
    464       0.7895      2.00000
    465       0.7927      2.00000
    466       0.7927      2.00000
    467       0.7999      2.00000
    468       0.7999      2.00000
    469       0.7999      2.00000
    470       0.7999      2.00000
    471       0.8423      2.00000
    472       0.8423      2.00000
    473       0.9299      2.00000
    474       0.9300      2.00000
    475       0.9859      2.00000
    476       0.9859      2.00000
    477       1.0058      2.00000
    478       1.0058      2.00000
    479       1.0058      2.00000
    480       1.0058      2.00000
    481       1.1961      2.00000
    482       1.1961      2.00000
    483       1.1961      2.00000
    484       1.1961      2.00000
    485       1.2169      2.00000
    486       1.2170      2.00000
    487       1.2170      2.00000
    488       1.2170      2.00000
    489       1.2505      2.00000
    490       1.2505      2.00000
    491       1.2505      2.00000
    492       1.2505      2.00000
    493       1.3245      2.00000
    494       1.3245      2.00000
    495       1.3522      2.00000
    496       1.3522      2.00000
    497       1.3522      2.00000
    498       1.3522      2.00000
    499       1.3597      2.00000
    500       1.3597      2.00000
    501       1.3597      2.00000
    502       1.3597      2.00000
    503       1.3789      2.00000
    504       1.3789      2.00000
    505       1.4136      2.00000
    506       1.4136      2.00000
    507       1.4311      2.00000
    508       1.4311      2.00000
    509       1.5868      2.00000
    510       1.5868      2.00000
    511       1.5868      2.00000
    512       1.5869      2.00000
    513       1.6740      2.00000
    514       1.6740      2.00000
    515       1.7679      2.00000
    516       1.7679      2.00000
    517       1.7679      2.00000
    518       1.7679      2.00000
    519       1.8510      2.00000
    520       1.8510      2.00000
    521       1.9930      2.00000
    522       1.9930      2.00000
    523       1.9930      2.00000
    524       1.9930      2.00000
    525       2.0129      2.00000
    526       2.0129      2.00000
    527       2.0129      2.00000
    528       2.0129      2.00000
    529       8.4981      0.00000
    530       8.4981      0.00000
    531       8.4981      0.00000
    532       8.4981      0.00000
    533       9.9362      0.00000
    534       9.9362      0.00000
    535       9.9362      0.00000
    536       9.9362      0.00000
    537      10.1622      0.00000
    538      10.1625      0.00000
    539      10.4443      0.00000
    540      10.4443      0.00000
    541      10.4443      0.00000
    542      10.4443      0.00000
    543      10.5267      0.00000
    544      10.5267      0.00000
    545      10.5267      0.00000
    546      10.5268      0.00000
    547      11.1742      0.00000
    548      11.1742      0.00000
    549      11.5942      0.00000
    550      11.5969      0.00000
    551      11.6012      0.00000
    552      11.6078      0.00000
    553      11.6079      0.00000
    554      11.6087      0.00000
    555      11.6101      0.00000
    556      11.6136      0.00000
    557      11.6415      0.00000
    558      11.6427      0.00000
    559      11.6445      0.00000
    560      11.6452      0.00000
    561      11.8900      0.00000
    562      11.8951      0.00000
    563      11.8960      0.00000
    564      11.9006      0.00000
    565      12.0085      0.00000
    566      12.0100      0.00000
    567      12.2066      0.00000
    568      12.2118      0.00000
    569      12.2965      0.00000
    570      12.2977      0.00000
    571      12.2989      0.00000
    572      12.3011      0.00000
    573      12.6439      0.00000
    574      12.6477      0.00000
    575      12.6826      0.00000
    576      12.7010      0.00000
    577      12.7935      0.00000
    578      12.8022      0.00000
    579      13.1399      0.00000
    580      13.1835      0.00000
    581      13.2170      0.00000
    582      13.2709      0.00000
    583      13.3652      0.00000
    584      13.3672      0.00000
    585      13.3746      0.00000
    586      13.3980      0.00000
    587      13.4693      0.00000
    588      13.4912      0.00000
    589      13.5385      0.00000
    590      13.5955      0.00000
    591      13.6328      0.00000
    592      13.7223      0.00000
    593      13.7620      0.00000
    594      13.8072      0.00000
    595      13.9029      0.00000
    596      13.9036      0.00000
    597      14.0274      0.00000
    598      14.0564      0.00000
    599      14.2501      0.00000
    600      14.3867      0.00000
    601      14.7188      0.00000
    602      14.7743      0.00000
    603      14.8287      0.00000
    604      14.8836      0.00000
    605      14.9828      0.00000
    606      15.2177      0.00000
    607      15.4593      0.00000
    608      15.5197      0.00000
    609      15.5416      0.00000
    610      15.5632      0.00000
    611      15.5953      0.00000
    612      15.6739      0.00000
    613      15.7008      0.00000
    614      15.7589      0.00000
    615      15.8285      0.00000
    616      15.9796      0.00000
    617      16.0528      0.00000
    618      16.0753      0.00000
    619      16.1376      0.00000
    620      16.2666      0.00000
    621      16.3054      0.00000
    622      16.4198      0.00000
    623      16.5365      0.00000
    624      16.5759      0.00000
    625      16.6681      0.00000
    626      16.7316      0.00000
    627      16.8705      0.00000
    628      16.9568      0.00000
    629      17.1128      0.00000
    630      17.4521      0.00000
    631      17.5587      0.00000
    632      17.6863      0.00000
    633      17.8552      0.00000

 k-point     5 :       0.0000    0.0000    0.5000
  band No.  band energies     occupation 
      1     -18.5484      2.00000
      2     -18.5484      2.00000
      3     -18.2929      2.00000
      4     -18.2929      2.00000
      5     -17.9839      2.00000
      6     -17.9839      2.00000
      7     -17.8927      2.00000
      8     -17.8927      2.00000
      9     -17.8927      2.00000
     10     -17.8927      2.00000
     11     -17.7034      2.00000
     12     -17.7033      2.00000
     13     -17.7033      2.00000
     14     -17.7033      2.00000
     15     -17.6832      2.00000
     16     -17.6832      2.00000
     17     -17.5800      2.00000
     18     -17.5800      2.00000
     19     -17.5800      2.00000
     20     -17.5800      2.00000
     21     -17.5583      2.00000
     22     -17.5583      2.00000
     23     -17.4906      2.00000
     24     -17.4906      2.00000
     25     -17.4010      2.00000
     26     -17.4010      2.00000
     27     -17.4010      2.00000
     28     -17.4010      2.00000
     29     -17.3015      2.00000
     30     -17.3015      2.00000
     31     -17.3014      2.00000
     32     -17.3014      2.00000
     33     -17.2948      2.00000
     34     -17.2948      2.00000
     35     -17.2948      2.00000
     36     -17.2948      2.00000
     37     -17.2913      2.00000
     38     -17.2913      2.00000
     39     -17.1841      2.00000
     40     -17.1841      2.00000
     41     -17.1451      2.00000
     42     -17.1451      2.00000
     43     -17.1451      2.00000
     44     -17.1451      2.00000
     45     -17.1275      2.00000
     46     -17.1275      2.00000
     47     -17.1275      2.00000
     48     -17.1275      2.00000
     49     -17.0159      2.00000
     50     -17.0159      2.00000
     51     -16.9639      2.00000
     52     -16.9639      2.00000
     53     -16.9639      2.00000
     54     -16.9639      2.00000
     55     -16.9540      2.00000
     56     -16.9540      2.00000
     57     -16.9524      2.00000
     58     -16.9524      2.00000
     59     -16.9524      2.00000
     60     -16.9523      2.00000
     61     -16.8690      2.00000
     62     -16.8690      2.00000
     63     -16.8690      2.00000
     64     -16.8690      2.00000
     65     -16.8577      2.00000
     66     -16.8576      2.00000
     67     -16.8576      2.00000
     68     -16.8576      2.00000
     69     -16.7891      2.00000
     70     -16.7891      2.00000
     71     -16.7651      2.00000
     72     -16.7651      2.00000
     73     -13.0247      2.00000
     74     -13.0246      2.00000
     75     -13.0119      2.00000
     76     -13.0118      2.00000
     77     -12.9897      2.00000
     78     -12.9897      2.00000
     79     -12.9829      2.00000
     80     -12.9829      2.00000
     81     -12.9816      2.00000
     82     -12.9816      2.00000
     83     -12.9783      2.00000
     84     -12.9783      2.00000
     85     -12.9486      2.00000
     86     -12.9486      2.00000
     87     -12.9291      2.00000
     88     -12.9291      2.00000
     89     -12.9291      2.00000
     90     -12.9291      2.00000
     91     -12.9176      2.00000
     92     -12.9176      2.00000
     93     -12.9176      2.00000
     94     -12.9176      2.00000
     95     -12.9071      2.00000
     96     -12.9071      2.00000
     97     -12.9071      2.00000
     98     -12.9071      2.00000
     99     -12.8944      2.00000
    100     -12.8944      2.00000
    101     -12.8944      2.00000
    102     -12.8944      2.00000
    103     -12.8913      2.00000
    104     -12.8913      2.00000
    105     -12.8913      2.00000
    106     -12.8913      2.00000
    107     -12.8896      2.00000
    108     -12.8896      2.00000
    109     -12.8853      2.00000
    110     -12.8853      2.00000
    111     -12.8853      2.00000
    112     -12.8853      2.00000
    113     -12.8777      2.00000
    114     -12.8777      2.00000
    115     -12.8777      2.00000
    116     -12.8777      2.00000
    117     -12.8734      2.00000
    118     -12.8734      2.00000
    119     -12.8720      2.00000
    120     -12.8720      2.00000
    121     -12.8720      2.00000
    122     -12.8720      2.00000
    123     -12.8626      2.00000
    124     -12.8626      2.00000
    125     -12.8600      2.00000
    126     -12.8600      2.00000
    127     -12.8592      2.00000
    128     -12.8592      2.00000
    129     -12.8349      2.00000
    130     -12.8349      2.00000
    131     -12.8332      2.00000
    132     -12.8331      2.00000
    133     -12.8302      2.00000
    134     -12.8302      2.00000
    135     -12.8217      2.00000
    136     -12.8217      2.00000
    137     -12.8217      2.00000
    138     -12.8217      2.00000
    139     -12.8056      2.00000
    140     -12.8056      2.00000
    141     -12.7877      2.00000
    142     -12.7877      2.00000
    143     -12.7877      2.00000
    144     -12.7877      2.00000
    145     -12.7794      2.00000
    146     -12.7794      2.00000
    147     -12.7683      2.00000
    148     -12.7683      2.00000
    149     -12.7683      2.00000
    150     -12.7683      2.00000
    151     -12.7580      2.00000
    152     -12.7580      2.00000
    153     -12.7580      2.00000
    154     -12.7580      2.00000
    155     -12.7425      2.00000
    156     -12.7425      2.00000
    157     -12.7425      2.00000
    158     -12.7425      2.00000
    159     -12.7417      2.00000
    160     -12.7417      2.00000
    161     -12.7416      2.00000
    162     -12.7416      2.00000
    163     -12.7390      2.00000
    164     -12.7390      2.00000
    165     -12.7390      2.00000
    166     -12.7390      2.00000
    167     -12.7389      2.00000
    168     -12.7389      2.00000
    169     -12.7389      2.00000
    170     -12.7389      2.00000
    171     -12.7310      2.00000
    172     -12.7310      2.00000
    173     -12.7265      2.00000
    174     -12.7265      2.00000
    175     -12.7247      2.00000
    176     -12.7247      2.00000
    177     -12.7247      2.00000
    178     -12.7247      2.00000
    179     -12.7186      2.00000
    180     -12.7186      2.00000
    181     -12.7186      2.00000
    182     -12.7186      2.00000
    183     -12.6905      2.00000
    184     -12.6905      2.00000
    185     -12.6905      2.00000
    186     -12.6905      2.00000
    187     -12.6769      2.00000
    188     -12.6769      2.00000
    189     -12.6769      2.00000
    190     -12.6769      2.00000
    191     -12.6744      2.00000
    192     -12.6744      2.00000
    193     -12.6744      2.00000
    194     -12.6744      2.00000
    195     -12.6560      2.00000
    196     -12.6560      2.00000
    197     -12.6560      2.00000
    198     -12.6560      2.00000
    199     -12.6403      2.00000
    200     -12.6403      2.00000
    201     -12.6347      2.00000
    202     -12.6347      2.00000
    203     -12.6347      2.00000
    204     -12.6347      2.00000
    205     -12.6324      2.00000
    206     -12.6324      2.00000
    207     -12.6317      2.00000
    208     -12.6317      2.00000
    209     -12.6270      2.00000
    210     -12.6270      2.00000
    211     -12.6097      2.00000
    212     -12.6097      2.00000
    213     -12.6034      2.00000
    214     -12.6034      2.00000
    215     -12.5956      2.00000
    216     -12.5956      2.00000
    217     -12.5956      2.00000
    218     -12.5956      2.00000
    219     -12.5914      2.00000
    220     -12.5914      2.00000
    221     -12.5914      2.00000
    222     -12.5914      2.00000
    223     -12.5803      2.00000
    224     -12.5803      2.00000
    225     -12.5803      2.00000
    226     -12.5803      2.00000
    227     -12.5777      2.00000
    228     -12.5777      2.00000
    229     -12.5722      2.00000
    230     -12.5722      2.00000
    231     -12.5722      2.00000
    232     -12.5722      2.00000
    233     -12.5659      2.00000
    234     -12.5659      2.00000
    235     -12.5659      2.00000
    236     -12.5659      2.00000
    237     -12.5631      2.00000
    238     -12.5631      2.00000
    239     -12.5631      2.00000
    240     -12.5631      2.00000
    241     -12.5588      2.00000
    242     -12.5588      2.00000
    243     -12.5542      2.00000
    244     -12.5542      2.00000
    245     -12.5479      2.00000
    246     -12.5479      2.00000
    247     -12.5479      2.00000
    248     -12.5479      2.00000
    249     -12.5410      2.00000
    250     -12.5410      2.00000
    251     -12.5410      2.00000
    252     -12.5410      2.00000
    253     -12.5228      2.00000
    254     -12.5228      2.00000
    255     -12.5136      2.00000
    256     -12.5136      2.00000
    257     -12.5136      2.00000
    258     -12.5136      2.00000
    259     -12.5085      2.00000
    260     -12.5085      2.00000
    261     -12.5059      2.00000
    262     -12.5059      2.00000
    263     -12.4801      2.00000
    264     -12.4801      2.00000
    265     -12.4093      2.00000
    266     -12.4093      2.00000
    267     -12.3842      2.00000
    268     -12.3842      2.00000
    269     -12.3842      2.00000
    270     -12.3842      2.00000
    271     -12.3277      2.00000
    272     -12.3277      2.00000
    273     -12.2990      2.00000
    274     -12.2989      2.00000
    275     -12.2688      2.00000
    276     -12.2688      2.00000
    277     -12.2688      2.00000
    278     -12.2688      2.00000
    279     -12.1891      2.00000
    280     -12.1891      2.00000
    281     -12.1891      2.00000
    282     -12.1891      2.00000
    283     -12.1459      2.00000
    284     -12.1459      2.00000
    285     -12.1459      2.00000
    286     -12.1459      2.00000
    287     -12.0990      2.00000
    288     -12.0990      2.00000
    289     -12.0572      2.00000
    290     -12.0572      2.00000
    291     -12.0572      2.00000
    292     -12.0572      2.00000
    293     -11.9569      2.00000
    294     -11.9569      2.00000
    295     -11.9390      2.00000
    296     -11.9390      2.00000
    297     -11.9390      2.00000
    298     -11.9390      2.00000
    299     -11.8078      2.00000
    300     -11.8078      2.00000
    301     -11.8078      2.00000
    302     -11.8078      2.00000
    303     -11.7939      2.00000
    304     -11.7939      2.00000
    305     -11.7939      2.00000
    306     -11.7939      2.00000
    307     -11.7282      2.00000
    308     -11.7282      2.00000
    309     -11.7282      2.00000
    310     -11.7282      2.00000
    311     -11.5997      2.00000
    312     -11.5997      2.00000
    313      -4.8363      2.00000
    314      -4.8363      2.00000
    315      -4.6496      2.00000
    316      -4.6496      2.00000
    317      -4.5876      2.00000
    318      -4.5876      2.00000
    319      -4.5876      2.00000
    320      -4.5876      2.00000
    321      -4.3493      2.00000
    322      -4.3493      2.00000
    323      -4.3493      2.00000
    324      -4.3493      2.00000
    325      -4.1495      2.00000
    326      -4.1495      2.00000
    327      -4.1495      2.00000
    328      -4.1495      2.00000
    329      -4.0762      2.00000
    330      -4.0762      2.00000
    331      -4.0762      2.00000
    332      -4.0762      2.00000
    333      -4.0211      2.00000
    334      -4.0211      2.00000
    335      -3.7700      2.00000
    336      -3.7700      2.00000
    337      -3.7699      2.00000
    338      -3.7699      2.00000
    339      -3.7274      2.00000
    340      -3.7274      2.00000
    341      -3.7177      2.00000
    342      -3.7177      2.00000
    343      -3.7177      2.00000
    344      -3.7177      2.00000
    345      -3.3825      2.00000
    346      -3.3825      2.00000
    347      -3.3825      2.00000
    348      -3.3825      2.00000
    349      -3.1409      2.00000
    350      -3.1409      2.00000
    351      -2.9233      2.00000
    352      -2.9233      2.00000
    353      -2.9233      2.00000
    354      -2.9233      2.00000
    355      -2.7470      2.00000
    356      -2.7470      2.00000
    357      -2.6147      2.00000
    358      -2.6147      2.00000
    359      -2.6147      2.00000
    360      -2.6147      2.00000
    361      -2.4579      2.00000
    362      -2.4579      2.00000
    363      -2.4578      2.00000
    364      -2.4578      2.00000
    365      -2.1837      2.00000
    366      -2.1837      2.00000
    367      -2.1837      2.00000
    368      -2.1837      2.00000
    369      -2.1790      2.00000
    370      -2.1790      2.00000
    371      -2.1650      2.00000
    372      -2.1650      2.00000
    373      -2.1411      2.00000
    374      -2.1411      2.00000
    375      -2.1411      2.00000
    376      -2.1411      2.00000
    377      -1.8926      2.00000
    378      -1.8926      2.00000
    379      -1.8926      2.00000
    380      -1.8926      2.00000
    381      -1.6449      2.00000
    382      -1.6449      2.00000
    383      -1.6449      2.00000
    384      -1.6449      2.00000
    385      -1.4574      2.00000
    386      -1.4574      2.00000
    387      -1.4203      2.00000
    388      -1.4203      2.00000
    389      -1.3057      2.00000
    390      -1.3057      2.00000
    391      -1.3057      2.00000
    392      -1.3057      2.00000
    393      -1.1779      2.00000
    394      -1.1779      2.00000
    395      -1.1779      2.00000
    396      -1.1779      2.00000
    397      -1.0775      2.00000
    398      -1.0775      2.00000
    399      -1.0775      2.00000
    400      -1.0775      2.00000
    401      -0.9095      2.00000
    402      -0.9095      2.00000
    403      -0.9044      2.00000
    404      -0.9044      2.00000
    405      -0.8058      2.00000
    406      -0.8058      2.00000
    407      -0.8058      2.00000
    408      -0.8058      2.00000
    409      -0.6164      2.00000
    410      -0.6163      2.00000
    411      -0.6163      2.00000
    412      -0.6163      2.00000
    413      -0.5330      2.00000
    414      -0.5330      2.00000
    415      -0.5176      2.00000
    416      -0.5176      2.00000
    417      -0.5176      2.00000
    418      -0.5176      2.00000
    419      -0.3487      2.00000
    420      -0.3487      2.00000
    421      -0.2612      2.00000
    422      -0.2612      2.00000
    423      -0.2263      2.00000
    424      -0.2263      2.00000
    425      -0.1117      2.00000
    426      -0.1117      2.00000
    427      -0.1117      2.00000
    428      -0.1117      2.00000
    429      -0.0729      2.00000
    430      -0.0729      2.00000
    431      -0.0729      2.00000
    432      -0.0729      2.00000
    433      -0.0373      2.00000
    434      -0.0373      2.00000
    435       0.0685      2.00000
    436       0.0685      2.00000
    437       0.0997      2.00000
    438       0.0997      2.00000
    439       0.1411      2.00000
    440       0.1411      2.00000
    441       0.1645      2.00000
    442       0.1645      2.00000
    443       0.1645      2.00000
    444       0.1645      2.00000
    445       0.2812      2.00000
    446       0.2812      2.00000
    447       0.2812      2.00000
    448       0.2812      2.00000
    449       0.2899      2.00000
    450       0.2899      2.00000
    451       0.4241      2.00000
    452       0.4241      2.00000
    453       0.5778      2.00000
    454       0.5778      2.00000
    455       0.5778      2.00000
    456       0.5778      2.00000
    457       0.5923      2.00000
    458       0.5923      2.00000
    459       0.6872      2.00000
    460       0.6872      2.00000
    461       0.6872      2.00000
    462       0.6872      2.00000
    463       0.7215      2.00000
    464       0.7215      2.00000
    465       0.7215      2.00000
    466       0.7215      2.00000
    467       0.9056      2.00000
    468       0.9056      2.00000
    469       0.9596      2.00000
    470       0.9596      2.00000
    471       0.9596      2.00000
    472       0.9596      2.00000
    473       0.9990      2.00000
    474       0.9990      2.00000
    475       1.0573      2.00000
    476       1.0573      2.00000
    477       1.0573      2.00000
    478       1.0573      2.00000
    479       1.1147      2.00000
    480       1.1147      2.00000
    481       1.1191      2.00000
    482       1.1191      2.00000
    483       1.1191      2.00000
    484       1.1191      2.00000
    485       1.1976      2.00000
    486       1.1976      2.00000
    487       1.1976      2.00000
    488       1.1976      2.00000
    489       1.2358      2.00000
    490       1.2359      2.00000
    491       1.3362      2.00000
    492       1.3363      2.00000
    493       1.4434      2.00000
    494       1.4434      2.00000
    495       1.4434      2.00000
    496       1.4434      2.00000
    497       1.4758      2.00000
    498       1.4758      2.00000
    499       1.5015      2.00000
    500       1.5015      2.00000
    501       1.5015      2.00000
    502       1.5015      2.00000
    503       1.5372      2.00000
    504       1.5373      2.00000
    505       1.5373      2.00000
    506       1.5373      2.00000
    507       1.5396      2.00000
    508       1.5396      2.00000
    509       1.5755      2.00000
    510       1.5755      2.00000
    511       1.6056      2.00000
    512       1.6056      2.00000
    513       1.6179      2.00000
    514       1.6180      2.00000
    515       1.6804      2.00000
    516       1.6804      2.00000
    517       1.7194      2.00000
    518       1.7194      2.00000
    519       1.7194      2.00000
    520       1.7194      2.00000
    521       1.8399      2.00000
    522       1.8399      2.00000
    523       1.8399      2.00000
    524       1.8399      2.00000
    525       1.8721      2.00000
    526       1.8721      2.00000
    527       1.9862      2.00000
    528       1.9862      2.00000
    529       7.6464      0.00000
    530       7.6464      0.00000
    531       9.1355      0.00000
    532       9.1355      0.00000
    533       9.8569      0.00000
    534       9.8569      0.00000
    535      10.4684      0.00000
    536      10.4684      0.00000
    537      10.5958      0.00000
    538      10.5959      0.00000
    539      10.5960      0.00000
    540      10.5962      0.00000
    541      10.6452      0.00000
    542      10.6467      0.00000
    543      10.8404      0.00000
    544      10.8406      0.00000
    545      10.8689      0.00000
    546      10.8690      0.00000
    547      10.8691      0.00000
    548      10.8692      0.00000
    549      10.9003      0.00000
    550      10.9004      0.00000
    551      10.9005      0.00000
    552      10.9007      0.00000
    553      11.0903      0.00000
    554      11.0904      0.00000
    555      11.0905      0.00000
    556      11.0909      0.00000
    557      11.1842      0.00000
    558      11.1848      0.00000
    559      11.3714      0.00000
    560      11.3716      0.00000
    561      11.3718      0.00000
    562      11.3723      0.00000
    563      11.5345      0.00000
    564      11.5402      0.00000
    565      11.8192      0.00000
    566      11.8274      0.00000
    567      12.2135      0.00000
    568      12.2825      0.00000
    569      12.2869      0.00000
    570      12.2930      0.00000
    571      12.2941      0.00000
    572      12.2948      0.00000
    573      12.3406      0.00000
    574      12.3425      0.00000
    575      12.3435      0.00000
    576      12.3535      0.00000
    577      12.5982      0.00000
    578      12.6002      0.00000
    579      12.6057      0.00000
    580      12.6199      0.00000
    581      13.4934      0.00000
    582      13.5448      0.00000
    583      13.7332      0.00000
    584      13.7532      0.00000
    585      13.7734      0.00000
    586      13.8002      0.00000
    587      13.8253      0.00000
    588      13.8943      0.00000
    589      13.8949      0.00000
    590      13.9017      0.00000
    591      13.9208      0.00000
    592      13.9751      0.00000
    593      14.8772      0.00000
    594      14.9531      0.00000
    595      14.9791      0.00000
    596      15.0188      0.00000
    597      15.0260      0.00000
    598      15.0581      0.00000
    599      15.0798      0.00000
    600      15.0947      0.00000
    601      15.1035      0.00000
    602      15.1085      0.00000
    603      15.1457      0.00000
    604      15.2027      0.00000
    605      15.2388      0.00000
    606      15.3116      0.00000
    607      15.3925      0.00000
    608      15.4547      0.00000
    609      15.5216      0.00000
    610      15.5426      0.00000
    611      15.5979      0.00000
    612      15.7071      0.00000
    613      15.7961      0.00000
    614      15.9463      0.00000
    615      15.9687      0.00000
    616      16.1961      0.00000
    617      16.3415      0.00000
    618      16.4164      0.00000
    619      16.4806      0.00000
    620      16.4850      0.00000
    621      16.6390      0.00000
    622      16.7658      0.00000
    623      16.9486      0.00000
    624      17.0701      0.00000
    625      17.2012      0.00000
    626      17.3716      0.00000
    627      17.4185      0.00000
    628      17.5166      0.00000
    629      17.6745      0.00000
    630      17.8009      0.00000
    631      17.9750      0.00000
    632      18.0601      0.00000
    633      18.3264      0.00000

 k-point     6 :       0.5000    0.0000    0.5000
  band No.  band energies     occupation 
      1     -18.4986      2.00000
      2     -18.4986      2.00000
      3     -18.3958      2.00000
      4     -18.3958      2.00000
      5     -17.8909      2.00000
      6     -17.8908      2.00000
      7     -17.8545      2.00000
      8     -17.8545      2.00000
      9     -17.8545      2.00000
     10     -17.8545      2.00000
     11     -17.7913      2.00000
     12     -17.7913      2.00000
     13     -17.7913      2.00000
     14     -17.7913      2.00000
     15     -17.6460      2.00000
     16     -17.6460      2.00000
     17     -17.5779      2.00000
     18     -17.5779      2.00000
     19     -17.5720      2.00000
     20     -17.5720      2.00000
     21     -17.5060      2.00000
     22     -17.5059      2.00000
     23     -17.5059      2.00000
     24     -17.5059      2.00000
     25     -17.3808      2.00000
     26     -17.3808      2.00000
     27     -17.3808      2.00000
     28     -17.3807      2.00000
     29     -17.3350      2.00000
     30     -17.3350      2.00000
     31     -17.3350      2.00000
     32     -17.3350      2.00000
     33     -17.3174      2.00000
     34     -17.3174      2.00000
     35     -17.3174      2.00000
     36     -17.3174      2.00000
     37     -17.2746      2.00000
     38     -17.2746      2.00000
     39     -17.1807      2.00000
     40     -17.1806      2.00000
     41     -17.1333      2.00000
     42     -17.1333      2.00000
     43     -17.1333      2.00000
     44     -17.1333      2.00000
     45     -17.1254      2.00000
     46     -17.1254      2.00000
     47     -17.1254      2.00000
     48     -17.1254      2.00000
     49     -17.0059      2.00000
     50     -17.0059      2.00000
     51     -16.9744      2.00000
     52     -16.9744      2.00000
     53     -16.9744      2.00000
     54     -16.9744      2.00000
     55     -16.9623      2.00000
     56     -16.9623      2.00000
     57     -16.9450      2.00000
     58     -16.9450      2.00000
     59     -16.9450      2.00000
     60     -16.9450      2.00000
     61     -16.8651      2.00000
     62     -16.8651      2.00000
     63     -16.8651      2.00000
     64     -16.8651      2.00000
     65     -16.8608      2.00000
     66     -16.8608      2.00000
     67     -16.8608      2.00000
     68     -16.8608      2.00000
     69     -16.7810      2.00000
     70     -16.7810      2.00000
     71     -16.7716      2.00000
     72     -16.7716      2.00000
     73     -13.0286      2.00000
     74     -13.0286      2.00000
     75     -13.0065      2.00000
     76     -13.0065      2.00000
     77     -12.9867      2.00000
     78     -12.9867      2.00000
     79     -12.9854      2.00000
     80     -12.9854      2.00000
     81     -12.9828      2.00000
     82     -12.9828      2.00000
     83     -12.9776      2.00000
     84     -12.9776      2.00000
     85     -12.9310      2.00000
     86     -12.9310      2.00000
     87     -12.9310      2.00000
     88     -12.9310      2.00000
     89     -12.9231      2.00000
     90     -12.9231      2.00000
     91     -12.9231      2.00000
     92     -12.9231      2.00000
     93     -12.9115      2.00000
     94     -12.9115      2.00000
     95     -12.9114      2.00000
     96     -12.9114      2.00000
     97     -12.9074      2.00000
     98     -12.9074      2.00000
     99     -12.9074      2.00000
    100     -12.9074      2.00000
    101     -12.8987      2.00000
    102     -12.8987      2.00000
    103     -12.8987      2.00000
    104     -12.8987      2.00000
    105     -12.8886      2.00000
    106     -12.8886      2.00000
    107     -12.8886      2.00000
    108     -12.8886      2.00000
    109     -12.8836      2.00000
    110     -12.8836      2.00000
    111     -12.8836      2.00000
    112     -12.8836      2.00000
    113     -12.8767      2.00000
    114     -12.8767      2.00000
    115     -12.8721      2.00000
    116     -12.8721      2.00000
    117     -12.8721      2.00000
    118     -12.8721      2.00000
    119     -12.8720      2.00000
    120     -12.8720      2.00000
    121     -12.8720      2.00000
    122     -12.8720      2.00000
    123     -12.8625      2.00000
    124     -12.8625      2.00000
    125     -12.8623      2.00000
    126     -12.8622      2.00000
    127     -12.8569      2.00000
    128     -12.8569      2.00000
    129     -12.8329      2.00000
    130     -12.8329      2.00000
    131     -12.8321      2.00000
    132     -12.8321      2.00000
    133     -12.8192      2.00000
    134     -12.8192      2.00000
    135     -12.8159      2.00000
    136     -12.8159      2.00000
    137     -12.8159      2.00000
    138     -12.8159      2.00000
    139     -12.8133      2.00000
    140     -12.8133      2.00000
    141     -12.7950      2.00000
    142     -12.7950      2.00000
    143     -12.7950      2.00000
    144     -12.7950      2.00000
    145     -12.7643      2.00000
    146     -12.7643      2.00000
    147     -12.7643      2.00000
    148     -12.7643      2.00000
    149     -12.7610      2.00000
    150     -12.7610      2.00000
    151     -12.7607      2.00000
    152     -12.7607      2.00000
    153     -12.7606      2.00000
    154     -12.7606      2.00000
    155     -12.7606      2.00000
    156     -12.7606      2.00000
    157     -12.7467      2.00000
    158     -12.7467      2.00000
    159     -12.7467      2.00000
    160     -12.7467      2.00000
    161     -12.7416      2.00000
    162     -12.7416      2.00000
    163     -12.7416      2.00000
    164     -12.7416      2.00000
    165     -12.7384      2.00000
    166     -12.7384      2.00000
    167     -12.7384      2.00000
    168     -12.7384      2.00000
    169     -12.7332      2.00000
    170     -12.7332      2.00000
    171     -12.7332      2.00000
    172     -12.7332      2.00000
    173     -12.7218      2.00000
    174     -12.7218      2.00000
    175     -12.7218      2.00000
    176     -12.7218      2.00000
    177     -12.7159      2.00000
    178     -12.7159      2.00000
    179     -12.7159      2.00000
    180     -12.7159      2.00000
    181     -12.7049      2.00000
    182     -12.7049      2.00000
    183     -12.6922      2.00000
    184     -12.6922      2.00000
    185     -12.6922      2.00000
    186     -12.6922      2.00000
    187     -12.6767      2.00000
    188     -12.6767      2.00000
    189     -12.6767      2.00000
    190     -12.6767      2.00000
    191     -12.6633      2.00000
    192     -12.6633      2.00000
    193     -12.6633      2.00000
    194     -12.6633      2.00000
    195     -12.6623      2.00000
    196     -12.6623      2.00000
    197     -12.6588      2.00000
    198     -12.6588      2.00000
    199     -12.6587      2.00000
    200     -12.6587      2.00000
    201     -12.6353      2.00000
    202     -12.6353      2.00000
    203     -12.6338      2.00000
    204     -12.6338      2.00000
    205     -12.6336      2.00000
    206     -12.6336      2.00000
    207     -12.6329      2.00000
    208     -12.6329      2.00000
    209     -12.6315      2.00000
    210     -12.6315      2.00000
    211     -12.6176      2.00000
    212     -12.6176      2.00000
    213     -12.5972      2.00000
    214     -12.5972      2.00000
    215     -12.5972      2.00000
    216     -12.5972      2.00000
    217     -12.5971      2.00000
    218     -12.5971      2.00000
    219     -12.5890      2.00000
    220     -12.5890      2.00000
    221     -12.5890      2.00000
    222     -12.5890      2.00000
    223     -12.5889      2.00000
    224     -12.5889      2.00000
    225     -12.5763      2.00000
    226     -12.5763      2.00000
    227     -12.5763      2.00000
    228     -12.5763      2.00000
    229     -12.5714      2.00000
    230     -12.5714      2.00000
    231     -12.5714      2.00000
    232     -12.5714      2.00000
    233     -12.5659      2.00000
    234     -12.5659      2.00000
    235     -12.5659      2.00000
    236     -12.5659      2.00000
    237     -12.5638      2.00000
    238     -12.5638      2.00000
    239     -12.5638      2.00000
    240     -12.5638      2.00000
    241     -12.5576      2.00000
    242     -12.5576      2.00000
    243     -12.5554      2.00000
    244     -12.5554      2.00000
    245     -12.5537      2.00000
    246     -12.5537      2.00000
    247     -12.5537      2.00000
    248     -12.5537      2.00000
    249     -12.5410      2.00000
    250     -12.5410      2.00000
    251     -12.5352      2.00000
    252     -12.5352      2.00000
    253     -12.5352      2.00000
    254     -12.5352      2.00000
    255     -12.5074      2.00000
    256     -12.5074      2.00000
    257     -12.5070      2.00000
    258     -12.5070      2.00000
    259     -12.5059      2.00000
    260     -12.5059      2.00000
    261     -12.4943      2.00000
    262     -12.4943      2.00000
    263     -12.4943      2.00000
    264     -12.4943      2.00000
    265     -12.4251      2.00000
    266     -12.4251      2.00000
    267     -12.4251      2.00000
    268     -12.4251      2.00000
    269     -12.4085      2.00000
    270     -12.4085      2.00000
    271     -12.3593      2.00000
    272     -12.3593      2.00000
    273     -12.2930      2.00000
    274     -12.2930      2.00000
    275     -12.2930      2.00000
    276     -12.2930      2.00000
    277     -12.2649      2.00000
    278     -12.2649      2.00000
    279     -12.2282      2.00000
    280     -12.2282      2.00000
    281     -12.2282      2.00000
    282     -12.2282      2.00000
    283     -12.1449      2.00000
    284     -12.1449      2.00000
    285     -12.1449      2.00000
    286     -12.1449      2.00000
    287     -12.0367      2.00000
    288     -12.0367      2.00000
    289     -11.9383      2.00000
    290     -11.9383      2.00000
    291     -11.9383      2.00000
    292     -11.9383      2.00000
    293     -11.9201      2.00000
    294     -11.9201      2.00000
    295     -11.9201      2.00000
    296     -11.9201      2.00000
    297     -11.8879      2.00000
    298     -11.8879      2.00000
    299     -11.8492      2.00000
    300     -11.8492      2.00000
    301     -11.8492      2.00000
    302     -11.8492      2.00000
    303     -11.8312      2.00000
    304     -11.8312      2.00000
    305     -11.8312      2.00000
    306     -11.8312      2.00000
    307     -11.7206      2.00000
    308     -11.7206      2.00000
    309     -11.7206      2.00000
    310     -11.7206      2.00000
    311     -11.6797      2.00000
    312     -11.6797      2.00000
    313      -4.9410      2.00000
    314      -4.9410      2.00000
    315      -4.5009      2.00000
    316      -4.5008      2.00000
    317      -4.4707      2.00000
    318      -4.4707      2.00000
    319      -4.4707      2.00000
    320      -4.4707      2.00000
    321      -4.3910      2.00000
    322      -4.3910      2.00000
    323      -4.3910      2.00000
    324      -4.3910      2.00000
    325      -4.2127      2.00000
    326      -4.2127      2.00000
    327      -4.2126      2.00000
    328      -4.2126      2.00000
    329      -4.0695      2.00000
    330      -4.0695      2.00000
    331      -4.0695      2.00000
    332      -4.0695      2.00000
    333      -3.9533      2.00000
    334      -3.9533      2.00000
    335      -3.9533      2.00000
    336      -3.9533      2.00000
    337      -3.9081      2.00000
    338      -3.9081      2.00000
    339      -3.7598      2.00000
    340      -3.7598      2.00000
    341      -3.7329      2.00000
    342      -3.7329      2.00000
    343      -3.7329      2.00000
    344      -3.7329      2.00000
    345      -3.2456      2.00000
    346      -3.2456      2.00000
    347      -3.0692      2.00000
    348      -3.0692      2.00000
    349      -3.0513      2.00000
    350      -3.0513      2.00000
    351      -3.0513      2.00000
    352      -3.0513      2.00000
    353      -3.0061      2.00000
    354      -3.0061      2.00000
    355      -3.0061      2.00000
    356      -3.0061      2.00000
    357      -2.7114      2.00000
    358      -2.7114      2.00000
    359      -2.7114      2.00000
    360      -2.7114      2.00000
    361      -2.4149      2.00000
    362      -2.4149      2.00000
    363      -2.4149      2.00000
    364      -2.4149      2.00000
    365      -2.2472      2.00000
    366      -2.2472      2.00000
    367      -2.2472      2.00000
    368      -2.2472      2.00000
    369      -2.0938      2.00000
    370      -2.0938      2.00000
    371      -2.0031      2.00000
    372      -2.0031      2.00000
    373      -2.0031      2.00000
    374      -2.0031      2.00000
    375      -1.7283      2.00000
    376      -1.7283      2.00000
    377      -1.6921      2.00000
    378      -1.6921      2.00000
    379      -1.6921      2.00000
    380      -1.6921      2.00000
    381      -1.6910      2.00000
    382      -1.6910      2.00000
    383      -1.6910      2.00000
    384      -1.6910      2.00000
    385      -1.5848      2.00000
    386      -1.5848      2.00000
    387      -1.4843      2.00000
    388      -1.4843      2.00000
    389      -1.4843      2.00000
    390      -1.4843      2.00000
    391      -1.3292      2.00000
    392      -1.3292      2.00000
    393      -1.3292      2.00000
    394      -1.3292      2.00000
    395      -1.2546      2.00000
    396      -1.2546      2.00000
    397      -1.2546      2.00000
    398      -1.2546      2.00000
    399      -1.1375      2.00000
    400      -1.1375      2.00000
    401      -0.9286      2.00000
    402      -0.9286      2.00000
    403      -0.9258      2.00000
    404      -0.9258      2.00000
    405      -0.8462      2.00000
    406      -0.8462      2.00000
    407      -0.8365      2.00000
    408      -0.8365      2.00000
    409      -0.8365      2.00000
    410      -0.8365      2.00000
    411      -0.6808      2.00000
    412      -0.6808      2.00000
    413      -0.4390      2.00000
    414      -0.4390      2.00000
    415      -0.4390      2.00000
    416      -0.4390      2.00000
    417      -0.2867      2.00000
    418      -0.2866      2.00000
    419      -0.2866      2.00000
    420      -0.2866      2.00000
    421      -0.2276      2.00000
    422      -0.2276      2.00000
    423      -0.1688      2.00000
    424      -0.1688      2.00000
    425      -0.1688      2.00000
    426      -0.1688      2.00000
    427      -0.1643      2.00000
    428      -0.1643      2.00000
    429      -0.0784      2.00000
    430      -0.0784      2.00000
    431      -0.0431      2.00000
    432      -0.0431      2.00000
    433      -0.0431      2.00000
    434      -0.0430      2.00000
    435       0.1162      2.00000
    436       0.1162      2.00000
    437       0.1464      2.00000
    438       0.1464      2.00000
    439       0.1659      2.00000
    440       0.1659      2.00000
    441       0.1659      2.00000
    442       0.1659      2.00000
    443       0.2393      2.00000
    444       0.2393      2.00000
    445       0.3183      2.00000
    446       0.3183      2.00000
    447       0.3183      2.00000
    448       0.3183      2.00000
    449       0.3543      2.00000
    450       0.3543      2.00000
    451       0.4503      2.00000
    452       0.4503      2.00000
    453       0.5639      2.00000
    454       0.5639      2.00000
    455       0.5639      2.00000
    456       0.5639      2.00000
    457       0.6548      2.00000
    458       0.6548      2.00000
    459       0.6548      2.00000
    460       0.6548      2.00000
    461       0.6714      2.00000
    462       0.6714      2.00000
    463       0.6714      2.00000
    464       0.6714      2.00000
    465       0.7720      2.00000
    466       0.7720      2.00000
    467       0.8111      2.00000
    468       0.8111      2.00000
    469       0.8585      2.00000
    470       0.8585      2.00000
    471       0.8585      2.00000
    472       0.8585      2.00000
    473       1.0296      2.00000
    474       1.0296      2.00000
    475       1.0347      2.00000
    476       1.0347      2.00000
    477       1.0348      2.00000
    478       1.0348      2.00000
    479       1.1234      2.00000
    480       1.1234      2.00000
    481       1.1433      2.00000
    482       1.1433      2.00000
    483       1.1563      2.00000
    484       1.1563      2.00000
    485       1.1563      2.00000
    486       1.1564      2.00000
    487       1.2691      2.00000
    488       1.2691      2.00000
    489       1.2691      2.00000
    490       1.2691      2.00000
    491       1.3050      2.00000
    492       1.3050      2.00000
    493       1.3925      2.00000
    494       1.3925      2.00000
    495       1.3925      2.00000
    496       1.3925      2.00000
    497       1.4141      2.00000
    498       1.4141      2.00000
    499       1.4667      2.00000
    500       1.4667      2.00000
    501       1.4667      2.00000
    502       1.4667      2.00000
    503       1.4824      2.00000
    504       1.4825      2.00000
    505       1.5118      2.00000
    506       1.5119      2.00000
    507       1.6000      2.00000
    508       1.6000      2.00000
    509       1.6000      2.00000
    510       1.6001      2.00000
    511       1.6181      2.00000
    512       1.6181      2.00000
    513       1.6258      2.00000
    514       1.6259      2.00000
    515       1.6600      2.00000
    516       1.6600      2.00000
    517       1.7820      2.00000
    518       1.7820      2.00000
    519       1.7820      2.00000
    520       1.7820      2.00000
    521       1.7854      2.00000
    522       1.7854      2.00000
    523       1.7854      2.00000
    524       1.7854      2.00000
    525       1.9911      2.00000
    526       1.9911      2.00000
    527       2.0200      2.00000
    528       2.0200      2.00000
    529       7.9465      0.00000
    530       7.9465      0.00000
    531       8.5028      0.00000
    532       8.5028      0.00000
    533      10.2640      0.00000
    534      10.2640      0.00000
    535      10.3902      0.00000
    536      10.3902      0.00000
    537      10.6597      0.00000
    538      10.6598      0.00000
    539      10.6598      0.00000
    540      10.6599      0.00000
    541      10.6611      0.00000
    542      10.6611      0.00000
    543      10.6611      0.00000
    544      10.6612      0.00000
    545      10.7214      0.00000
    546      10.7217      0.00000
    547      10.7857      0.00000
    548      10.7857      0.00000
    549      10.7858      0.00000
    550      10.7858      0.00000
    551      10.9890      0.00000
    552      10.9912      0.00000
    553      11.1081      0.00000
    554      11.1094      0.00000
    555      11.2192      0.00000
    556      11.2193      0.00000
    557      11.2194      0.00000
    558      11.2195      0.00000
    559      11.3656      0.00000
    560      11.3664      0.00000
    561      11.6665      0.00000
    562      11.6666      0.00000
    563      11.6667      0.00000
    564      11.6669      0.00000
    565      11.7190      0.00000
    566      11.7219      0.00000
    567      12.0132      0.00000
    568      12.0136      0.00000
    569      12.0143      0.00000
    570      12.0172      0.00000
    571      12.5107      0.00000
    572      12.5354      0.00000
    573      12.6107      0.00000
    574      12.6124      0.00000
    575      12.6148      0.00000
    576      12.6177      0.00000
    577      12.7187      0.00000
    578      12.7211      0.00000
    579      12.7240      0.00000
    580      12.7316      0.00000
    581      12.9667      0.00000
    582      13.0995      0.00000
    583      13.5438      0.00000
    584      13.5812      0.00000
    585      13.6033      0.00000
    586      13.6161      0.00000
    587      13.8516      0.00000
    588      13.9003      0.00000
    589      13.9197      0.00000
    590      13.9625      0.00000
    591      13.9646      0.00000
    592      14.0173      0.00000
    593      14.1422      0.00000
    594      14.1578      0.00000
    595      14.1943      0.00000
    596      14.2309      0.00000
    597      14.5305      0.00000
    598      14.5450      0.00000
    599      14.6233      0.00000
    600      14.7014      0.00000
    601      14.8129      0.00000
    602      15.1144      0.00000
    603      15.3424      0.00000
    604      15.3775      0.00000
    605      15.4315      0.00000
    606      15.5698      0.00000
    607      15.6493      0.00000
    608      15.7060      0.00000
    609      15.8099      0.00000
    610      15.8851      0.00000
    611      15.9452      0.00000
    612      15.9953      0.00000
    613      16.0106      0.00000
    614      16.1338      0.00000
    615      16.1521      0.00000
    616      16.2476      0.00000
    617      16.2969      0.00000
    618      16.3153      0.00000
    619      16.4494      0.00000
    620      16.5671      0.00000
    621      16.6985      0.00000
    622      16.7815      0.00000
    623      16.8547      0.00000
    624      16.9982      0.00000
    625      17.0671      0.00000
    626      17.2041      0.00000
    627      17.4213      0.00000
    628      17.4614      0.00000
    629      17.6388      0.00000
    630      17.8160      0.00000
    631      18.0680      0.00000
    632      18.2895      0.00000
    633      18.6335      0.00000

 k-point     7 :       0.0000    0.5000    0.5000
  band No.  band energies     occupation 
      1     -18.3548      2.00000
      2     -18.3548      2.00000
      3     -18.3548      2.00000
      4     -18.3548      2.00000
      5     -18.1144      2.00000
      6     -18.1144      2.00000
      7     -18.1144      2.00000
      8     -18.1144      2.00000
      9     -17.8545      2.00000
     10     -17.8545      2.00000
     11     -17.8545      2.00000
     12     -17.8545      2.00000
     13     -17.5859      2.00000
     14     -17.5859      2.00000
     15     -17.5859      2.00000
     16     -17.5859      2.00000
     17     -17.5167      2.00000
     18     -17.5167      2.00000
     19     -17.5167      2.00000
     20     -17.5167      2.00000
     21     -17.4738      2.00000
     22     -17.4738      2.00000
     23     -17.4738      2.00000
     24     -17.4738      2.00000
     25     -17.4191      2.00000
     26     -17.4191      2.00000
     27     -17.4191      2.00000
     28     -17.4191      2.00000
     29     -17.3556      2.00000
     30     -17.3556      2.00000
     31     -17.3555      2.00000
     32     -17.3555      2.00000
     33     -17.2541      2.00000
     34     -17.2541      2.00000
     35     -17.2541      2.00000
     36     -17.2541      2.00000
     37     -17.2198      2.00000
     38     -17.2198      2.00000
     39     -17.2198      2.00000
     40     -17.2198      2.00000
     41     -17.1774      2.00000
     42     -17.1774      2.00000
     43     -17.1774      2.00000
     44     -17.1774      2.00000
     45     -17.1279      2.00000
     46     -17.1279      2.00000
     47     -17.1279      2.00000
     48     -17.1278      2.00000
     49     -17.0310      2.00000
     50     -17.0310      2.00000
     51     -17.0310      2.00000
     52     -17.0310      2.00000
     53     -16.9652      2.00000
     54     -16.9652      2.00000
     55     -16.9652      2.00000
     56     -16.9652      2.00000
     57     -16.9063      2.00000
     58     -16.9062      2.00000
     59     -16.9062      2.00000
     60     -16.9062      2.00000
     61     -16.8945      2.00000
     62     -16.8945      2.00000
     63     -16.8944      2.00000
     64     -16.8944      2.00000
     65     -16.8176      2.00000
     66     -16.8175      2.00000
     67     -16.8175      2.00000
     68     -16.8175      2.00000
     69     -16.7956      2.00000
     70     -16.7956      2.00000
     71     -16.7956      2.00000
     72     -16.7956      2.00000
     73     -13.0090      2.00000
     74     -13.0090      2.00000
     75     -13.0089      2.00000
     76     -13.0089      2.00000
     77     -12.9776      2.00000
     78     -12.9776      2.00000
     79     -12.9776      2.00000
     80     -12.9776      2.00000
     81     -12.9676      2.00000
     82     -12.9676      2.00000
     83     -12.9676      2.00000
     84     -12.9676      2.00000
     85     -12.9624      2.00000
     86     -12.9624      2.00000
     87     -12.9623      2.00000
     88     -12.9623      2.00000
     89     -12.9395      2.00000
     90     -12.9395      2.00000
     91     -12.9395      2.00000
     92     -12.9395      2.00000
     93     -12.9351      2.00000
     94     -12.9351      2.00000
     95     -12.9351      2.00000
     96     -12.9351      2.00000
     97     -12.9014      2.00000
     98     -12.9014      2.00000
     99     -12.9014      2.00000
    100     -12.9014      2.00000
    101     -12.8994      2.00000
    102     -12.8994      2.00000
    103     -12.8994      2.00000
    104     -12.8994      2.00000
    105     -12.8991      2.00000
    106     -12.8991      2.00000
    107     -12.8991      2.00000
    108     -12.8991      2.00000
    109     -12.8795      2.00000
    110     -12.8795      2.00000
    111     -12.8795      2.00000
    112     -12.8794      2.00000
    113     -12.8748      2.00000
    114     -12.8748      2.00000
    115     -12.8748      2.00000
    116     -12.8748      2.00000
    117     -12.8691      2.00000
    118     -12.8691      2.00000
    119     -12.8691      2.00000
    120     -12.8691      2.00000
    121     -12.8684      2.00000
    122     -12.8684      2.00000
    123     -12.8684      2.00000
    124     -12.8684      2.00000
    125     -12.8585      2.00000
    126     -12.8585      2.00000
    127     -12.8585      2.00000
    128     -12.8585      2.00000
    129     -12.8446      2.00000
    130     -12.8446      2.00000
    131     -12.8446      2.00000
    132     -12.8446      2.00000
    133     -12.8371      2.00000
    134     -12.8371      2.00000
    135     -12.8371      2.00000
    136     -12.8371      2.00000
    137     -12.8074      2.00000
    138     -12.8074      2.00000
    139     -12.8074      2.00000
    140     -12.8074      2.00000
    141     -12.7776      2.00000
    142     -12.7776      2.00000
    143     -12.7776      2.00000
    144     -12.7776      2.00000
    145     -12.7718      2.00000
    146     -12.7718      2.00000
    147     -12.7718      2.00000
    148     -12.7718      2.00000
    149     -12.7649      2.00000
    150     -12.7649      2.00000
    151     -12.7649      2.00000
    152     -12.7649      2.00000
    153     -12.7621      2.00000
    154     -12.7621      2.00000
    155     -12.7621      2.00000
    156     -12.7621      2.00000
    157     -12.7438      2.00000
    158     -12.7438      2.00000
    159     -12.7438      2.00000
    160     -12.7438      2.00000
    161     -12.7430      2.00000
    162     -12.7430      2.00000
    163     -12.7430      2.00000
    164     -12.7430      2.00000
    165     -12.7426      2.00000
    166     -12.7426      2.00000
    167     -12.7426      2.00000
    168     -12.7426      2.00000
    169     -12.7183      2.00000
    170     -12.7183      2.00000
    171     -12.7183      2.00000
    172     -12.7183      2.00000
    173     -12.7046      2.00000
    174     -12.7046      2.00000
    175     -12.7046      2.00000
    176     -12.7046      2.00000
    177     -12.7011      2.00000
    178     -12.7011      2.00000
    179     -12.7011      2.00000
    180     -12.7011      2.00000
    181     -12.6967      2.00000
    182     -12.6967      2.00000
    183     -12.6967      2.00000
    184     -12.6967      2.00000
    185     -12.6963      2.00000
    186     -12.6963      2.00000
    187     -12.6963      2.00000
    188     -12.6963      2.00000
    189     -12.6795      2.00000
    190     -12.6795      2.00000
    191     -12.6795      2.00000
    192     -12.6795      2.00000
    193     -12.6759      2.00000
    194     -12.6759      2.00000
    195     -12.6758      2.00000
    196     -12.6758      2.00000
    197     -12.6740      2.00000
    198     -12.6740      2.00000
    199     -12.6740      2.00000
    200     -12.6740      2.00000
    201     -12.6724      2.00000
    202     -12.6723      2.00000
    203     -12.6723      2.00000
    204     -12.6723      2.00000
    205     -12.6207      2.00000
    206     -12.6207      2.00000
    207     -12.6207      2.00000
    208     -12.6207      2.00000
    209     -12.6147      2.00000
    210     -12.6147      2.00000
    211     -12.6147      2.00000
    212     -12.6147      2.00000
    213     -12.5975      2.00000
    214     -12.5975      2.00000
    215     -12.5975      2.00000
    216     -12.5975      2.00000
    217     -12.5884      2.00000
    218     -12.5884      2.00000
    219     -12.5884      2.00000
    220     -12.5884      2.00000
    221     -12.5827      2.00000
    222     -12.5827      2.00000
    223     -12.5827      2.00000
    224     -12.5827      2.00000
    225     -12.5626      2.00000
    226     -12.5626      2.00000
    227     -12.5626      2.00000
    228     -12.5626      2.00000
    229     -12.5584      2.00000
    230     -12.5584      2.00000
    231     -12.5584      2.00000
    232     -12.5584      2.00000
    233     -12.5577      2.00000
    234     -12.5577      2.00000
    235     -12.5577      2.00000
    236     -12.5577      2.00000
    237     -12.5457      2.00000
    238     -12.5457      2.00000
    239     -12.5457      2.00000
    240     -12.5457      2.00000
    241     -12.5363      2.00000
    242     -12.5363      2.00000
    243     -12.5363      2.00000
    244     -12.5363      2.00000
    245     -12.5217      2.00000
    246     -12.5217      2.00000
    247     -12.5217      2.00000
    248     -12.5217      2.00000
    249     -12.5187      2.00000
    250     -12.5187      2.00000
    251     -12.5187      2.00000
    252     -12.5187      2.00000
    253     -12.5066      2.00000
    254     -12.5066      2.00000
    255     -12.5066      2.00000
    256     -12.5066      2.00000
    257     -12.4943      2.00000
    258     -12.4943      2.00000
    259     -12.4943      2.00000
    260     -12.4943      2.00000
    261     -12.4888      2.00000
    262     -12.4888      2.00000
    263     -12.4888      2.00000
    264     -12.4888      2.00000
    265     -12.4722      2.00000
    266     -12.4722      2.00000
    267     -12.4722      2.00000
    268     -12.4722      2.00000
    269     -12.3291      2.00000
    270     -12.3291      2.00000
    271     -12.3291      2.00000
    272     -12.3291      2.00000
    273     -12.2966      2.00000
    274     -12.2966      2.00000
    275     -12.2966      2.00000
    276     -12.2966      2.00000
    277     -12.2887      2.00000
    278     -12.2887      2.00000
    279     -12.2886      2.00000
    280     -12.2886      2.00000
    281     -12.1925      2.00000
    282     -12.1925      2.00000
    283     -12.1925      2.00000
    284     -12.1925      2.00000
    285     -12.1170      2.00000
    286     -12.1170      2.00000
    287     -12.1170      2.00000
    288     -12.1170      2.00000
    289     -12.0064      2.00000
    290     -12.0064      2.00000
    291     -12.0064      2.00000
    292     -12.0063      2.00000
    293     -11.9733      2.00000
    294     -11.9733      2.00000
    295     -11.9733      2.00000
    296     -11.9733      2.00000
    297     -11.9234      2.00000
    298     -11.9234      2.00000
    299     -11.9234      2.00000
    300     -11.9234      2.00000
    301     -11.7564      2.00000
    302     -11.7564      2.00000
    303     -11.7564      2.00000
    304     -11.7564      2.00000
    305     -11.7435      2.00000
    306     -11.7435      2.00000
    307     -11.7435      2.00000
    308     -11.7435      2.00000
    309     -11.6496      2.00000
    310     -11.6496      2.00000
    311     -11.6496      2.00000
    312     -11.6496      2.00000
    313      -4.6918      2.00000
    314      -4.6918      2.00000
    315      -4.6918      2.00000
    316      -4.6918      2.00000
    317      -4.6913      2.00000
    318      -4.6912      2.00000
    319      -4.6912      2.00000
    320      -4.6912      2.00000
    321      -4.4718      2.00000
    322      -4.4717      2.00000
    323      -4.4717      2.00000
    324      -4.4717      2.00000
    325      -4.4520      2.00000
    326      -4.4520      2.00000
    327      -4.4520      2.00000
    328      -4.4520      2.00000
    329      -4.2232      2.00000
    330      -4.2232      2.00000
    331      -4.2232      2.00000
    332      -4.2232      2.00000
    333      -3.9089      2.00000
    334      -3.9089      2.00000
    335      -3.9089      2.00000
    336      -3.9089      2.00000
    337      -3.6948      2.00000
    338      -3.6948      2.00000
    339      -3.6948      2.00000
    340      -3.6948      2.00000
    341      -3.6086      2.00000
    342      -3.6086      2.00000
    343      -3.6086      2.00000
    344      -3.6086      2.00000
    345      -3.3851      2.00000
    346      -3.3850      2.00000
    347      -3.3850      2.00000
    348      -3.3850      2.00000
    349      -2.8611      2.00000
    350      -2.8611      2.00000
    351      -2.8611      2.00000
    352      -2.8611      2.00000
    353      -2.8446      2.00000
    354      -2.8446      2.00000
    355      -2.8446      2.00000
    356      -2.8446      2.00000
    357      -2.4047      2.00000
    358      -2.4047      2.00000
    359      -2.4047      2.00000
    360      -2.4047      2.00000
    361      -2.3421      2.00000
    362      -2.3421      2.00000
    363      -2.3421      2.00000
    364      -2.3421      2.00000
    365      -2.2203      2.00000
    366      -2.2203      2.00000
    367      -2.2203      2.00000
    368      -2.2203      2.00000
    369      -1.8723      2.00000
    370      -1.8723      2.00000
    371      -1.8723      2.00000
    372      -1.8723      2.00000
    373      -1.7514      2.00000
    374      -1.7514      2.00000
    375      -1.7513      2.00000
    376      -1.7513      2.00000
    377      -1.7162      2.00000
    378      -1.7162      2.00000
    379      -1.7162      2.00000
    380      -1.7162      2.00000
    381      -1.7079      2.00000
    382      -1.7079      2.00000
    383      -1.7079      2.00000
    384      -1.7079      2.00000
    385      -1.4516      2.00000
    386      -1.4516      2.00000
    387      -1.4516      2.00000
    388      -1.4516      2.00000
    389      -1.2496      2.00000
    390      -1.2496      2.00000
    391      -1.2496      2.00000
    392      -1.2496      2.00000
    393      -1.2211      2.00000
    394      -1.2211      2.00000
    395      -1.2211      2.00000
    396      -1.2211      2.00000
    397      -1.1340      2.00000
    398      -1.1340      2.00000
    399      -1.1340      2.00000
    400      -1.1340      2.00000
    401      -0.8617      2.00000
    402      -0.8617      2.00000
    403      -0.8617      2.00000
    404      -0.8617      2.00000
    405      -0.8478      2.00000
    406      -0.8478      2.00000
    407      -0.8478      2.00000
    408      -0.8478      2.00000
    409      -0.5872      2.00000
    410      -0.5872      2.00000
    411      -0.5872      2.00000
    412      -0.5872      2.00000
    413      -0.5682      2.00000
    414      -0.5682      2.00000
    415      -0.5682      2.00000
    416      -0.5682      2.00000
    417      -0.5529      2.00000
    418      -0.5529      2.00000
    419      -0.5529      2.00000
    420      -0.5529      2.00000
    421      -0.5027      2.00000
    422      -0.5027      2.00000
    423      -0.5027      2.00000
    424      -0.5027      2.00000
    425      -0.3511      2.00000
    426      -0.3511      2.00000
    427      -0.3511      2.00000
    428      -0.3511      2.00000
    429       0.0391      2.00000
    430       0.0391      2.00000
    431       0.0392      2.00000
    432       0.0392      2.00000
    433       0.1276      2.00000
    434       0.1276      2.00000
    435       0.1276      2.00000
    436       0.1276      2.00000
    437       0.2527      2.00000
    438       0.2527      2.00000
    439       0.2527      2.00000
    440       0.2527      2.00000
    441       0.2555      2.00000
    442       0.2555      2.00000
    443       0.2555      2.00000
    444       0.2555      2.00000
    445       0.3807      2.00000
    446       0.3807      2.00000
    447       0.3807      2.00000
    448       0.3807      2.00000
    449       0.3902      2.00000
    450       0.3902      2.00000
    451       0.3902      2.00000
    452       0.3902      2.00000
    453       0.4885      2.00000
    454       0.4885      2.00000
    455       0.4885      2.00000
    456       0.4885      2.00000
    457       0.6010      2.00000
    458       0.6010      2.00000
    459       0.6010      2.00000
    460       0.6010      2.00000
    461       0.6481      2.00000
    462       0.6481      2.00000
    463       0.6481      2.00000
    464       0.6481      2.00000
    465       0.6742      2.00000
    466       0.6742      2.00000
    467       0.6742      2.00000
    468       0.6742      2.00000
    469       0.8296      2.00000
    470       0.8296      2.00000
    471       0.8296      2.00000
    472       0.8296      2.00000
    473       0.8483      2.00000
    474       0.8483      2.00000
    475       0.8483      2.00000
    476       0.8484      2.00000
    477       0.9247      2.00000
    478       0.9247      2.00000
    479       0.9247      2.00000
    480       0.9247      2.00000
    481       1.1648      2.00000
    482       1.1648      2.00000
    483       1.1648      2.00000
    484       1.1648      2.00000
    485       1.1979      2.00000
    486       1.1979      2.00000
    487       1.1980      2.00000
    488       1.1980      2.00000
    489       1.2029      2.00000
    490       1.2029      2.00000
    491       1.2030      2.00000
    492       1.2030      2.00000
    493       1.3323      2.00000
    494       1.3324      2.00000
    495       1.3324      2.00000
    496       1.3324      2.00000
    497       1.3848      2.00000
    498       1.3848      2.00000
    499       1.3848      2.00000
    500       1.3848      2.00000
    501       1.5105      2.00000
    502       1.5105      2.00000
    503       1.5105      2.00000
    504       1.5105      2.00000
    505       1.5260      2.00000
    506       1.5260      2.00000
    507       1.5260      2.00000
    508       1.5260      2.00000
    509       1.6305      2.00000
    510       1.6305      2.00000
    511       1.6306      2.00000
    512       1.6306      2.00000
    513       1.6827      2.00000
    514       1.6827      2.00000
    515       1.6827      2.00000
    516       1.6827      2.00000
    517       1.7078      2.00000
    518       1.7078      2.00000
    519       1.7078      2.00000
    520       1.7078      2.00000
    521       1.7736      2.00000
    522       1.7736      2.00000
    523       1.7736      2.00000
    524       1.7736      2.00000
    525       2.0508      2.00000
    526       2.0508      2.00000
    527       2.0509      2.00000
    528       2.0509      2.00000
    529       8.6883      0.00000
    530       8.6883      0.00000
    531       8.6883      0.00000
    532       8.6883      0.00000
    533       9.7705      0.00000
    534       9.7705      0.00000
    535       9.7705      0.00000
    536       9.7705      0.00000
    537      10.3798      0.00000
    538      10.3798      0.00000
    539      10.3798      0.00000
    540      10.3799      0.00000
    541      10.6713      0.00000
    542      10.6714      0.00000
    543      10.6722      0.00000
    544      10.6729      0.00000
    545      10.8419      0.00000
    546      10.8419      0.00000
    547      10.8419      0.00000
    548      10.8419      0.00000
    549      11.2773      0.00000
    550      11.2774      0.00000
    551      11.2775      0.00000
    552      11.2777      0.00000
    553      11.7294      0.00000
    554      11.7389      0.00000
    555      11.7389      0.00000
    556      11.7390      0.00000
    557      11.7395      0.00000
    558      11.7397      0.00000
    559      11.7460      0.00000
    560      11.7504      0.00000
    561      11.9141      0.00000
    562      11.9145      0.00000
    563      11.9152      0.00000
    564      11.9166      0.00000
    565      11.9929      0.00000
    566      11.9955      0.00000
    567      11.9978      0.00000
    568      12.0029      0.00000
    569      12.4097      0.00000
    570      12.4128      0.00000
    571      12.4177      0.00000
    572      12.4246      0.00000
    573      12.5269      0.00000
    574      12.5287      0.00000
    575      12.5311      0.00000
    576      12.5343      0.00000
    577      12.5716      0.00000
    578      12.5778      0.00000
    579      12.5790      0.00000
    580      12.5926      0.00000
    581      12.8086      0.00000
    582      12.8153      0.00000
    583      12.8708      0.00000
    584      12.9081      0.00000
    585      13.3140      0.00000
    586      13.3983      0.00000
    587      13.4564      0.00000
    588      13.5564      0.00000
    589      14.0432      0.00000
    590      14.0745      0.00000
    591      14.1029      0.00000
    592      14.1772      0.00000
    593      14.2092      0.00000
    594      14.2453      0.00000
    595      14.2527      0.00000
    596      14.4510      0.00000
    597      14.4919      0.00000
    598      14.5597      0.00000
    599      14.5699      0.00000
    600      14.7029      0.00000
    601      14.7462      0.00000
    602      14.8204      0.00000
    603      14.8252      0.00000
    604      14.9401      0.00000
    605      14.9747      0.00000
    606      15.0945      0.00000
    607      15.1202      0.00000
    608      15.2312      0.00000
    609      15.5081      0.00000
    610      15.5381      0.00000
    611      15.5403      0.00000
    612      15.5410      0.00000
    613      15.5967      0.00000
    614      15.6328      0.00000
    615      15.6467      0.00000
    616      15.7332      0.00000
    617      15.8460      0.00000
    618      15.9244      0.00000
    619      16.1287      0.00000
    620      16.1831      0.00000
    621      16.3468      0.00000
    622      16.3654      0.00000
    623      16.4604      0.00000
    624      16.5091      0.00000
    625      16.5859      0.00000
    626      16.6218      0.00000
    627      16.6933      0.00000
    628      16.7783      0.00000
    629      16.7839      0.00000
    630      16.9316      0.00000
    631      17.0040      0.00000
    632      17.0166      0.00000
    633      17.5640      0.00000

 k-point     8 :       0.5000    0.5000    0.5000
  band No.  band energies     occupation 
      1     -18.3076      2.00000
      2     -18.3076      2.00000
      3     -18.3075      2.00000
      4     -18.3075      2.00000
      5     -18.2144      2.00000
      6     -18.2144      2.00000
      7     -18.2144      2.00000
      8     -18.2144      2.00000
      9     -17.7639      2.00000
     10     -17.7639      2.00000
     11     -17.7639      2.00000
     12     -17.7639      2.00000
     13     -17.5550      2.00000
     14     -17.5550      2.00000
     15     -17.5550      2.00000
     16     -17.5550      2.00000
     17     -17.5153      2.00000
     18     -17.5153      2.00000
     19     -17.5153      2.00000
     20     -17.5153      2.00000
     21     -17.4922      2.00000
     22     -17.4922      2.00000
     23     -17.4922      2.00000
     24     -17.4922      2.00000
     25     -17.4911      2.00000
     26     -17.4911      2.00000
     27     -17.4911      2.00000
     28     -17.4910      2.00000
     29     -17.3633      2.00000
     30     -17.3633      2.00000
     31     -17.3633      2.00000
     32     -17.3633      2.00000
     33     -17.2413      2.00000
     34     -17.2413      2.00000
     35     -17.2412      2.00000
     36     -17.2412      2.00000
     37     -17.1925      2.00000
     38     -17.1925      2.00000
     39     -17.1925      2.00000
     40     -17.1925      2.00000
     41     -17.1845      2.00000
     42     -17.1845      2.00000
     43     -17.1845      2.00000
     44     -17.1845      2.00000
     45     -17.1391      2.00000
     46     -17.1391      2.00000
     47     -17.1391      2.00000
     48     -17.1390      2.00000
     49     -17.0230      2.00000
     50     -17.0230      2.00000
     51     -17.0230      2.00000
     52     -17.0230      2.00000
     53     -16.9702      2.00000
     54     -16.9702      2.00000
     55     -16.9702      2.00000
     56     -16.9702      2.00000
     57     -16.9060      2.00000
     58     -16.9060      2.00000
     59     -16.9060      2.00000
     60     -16.9060      2.00000
     61     -16.8949      2.00000
     62     -16.8948      2.00000
     63     -16.8948      2.00000
     64     -16.8948      2.00000
     65     -16.8093      2.00000
     66     -16.8093      2.00000
     67     -16.8093      2.00000
     68     -16.8093      2.00000
     69     -16.8021      2.00000
     70     -16.8021      2.00000
     71     -16.8021      2.00000
     72     -16.8021      2.00000
     73     -13.0045      2.00000
     74     -13.0045      2.00000
     75     -13.0045      2.00000
     76     -13.0045      2.00000
     77     -12.9877      2.00000
     78     -12.9877      2.00000
     79     -12.9877      2.00000
     80     -12.9877      2.00000
     81     -12.9615      2.00000
     82     -12.9615      2.00000
     83     -12.9615      2.00000
     84     -12.9615      2.00000
     85     -12.9606      2.00000
     86     -12.9606      2.00000
     87     -12.9606      2.00000
     88     -12.9606      2.00000
     89     -12.9427      2.00000
     90     -12.9427      2.00000
     91     -12.9427      2.00000
     92     -12.9427      2.00000
     93     -12.9339      2.00000
     94     -12.9339      2.00000
     95     -12.9339      2.00000
     96     -12.9339      2.00000
     97     -12.9019      2.00000
     98     -12.9019      2.00000
     99     -12.9019      2.00000
    100     -12.9019      2.00000
    101     -12.9006      2.00000
    102     -12.9006      2.00000
    103     -12.9006      2.00000
    104     -12.9006      2.00000
    105     -12.8974      2.00000
    106     -12.8974      2.00000
    107     -12.8974      2.00000
    108     -12.8974      2.00000
    109     -12.8883      2.00000
    110     -12.8883      2.00000
    111     -12.8883      2.00000
    112     -12.8883      2.00000
    113     -12.8701      2.00000
    114     -12.8701      2.00000
    115     -12.8701      2.00000
    116     -12.8701      2.00000
    117     -12.8689      2.00000
    118     -12.8689      2.00000
    119     -12.8689      2.00000
    120     -12.8689      2.00000
    121     -12.8684      2.00000
    122     -12.8684      2.00000
    123     -12.8684      2.00000
    124     -12.8684      2.00000
    125     -12.8623      2.00000
    126     -12.8623      2.00000
    127     -12.8623      2.00000
    128     -12.8623      2.00000
    129     -12.8435      2.00000
    130     -12.8435      2.00000
    131     -12.8435      2.00000
    132     -12.8435      2.00000
    133     -12.8290      2.00000
    134     -12.8290      2.00000
    135     -12.8290      2.00000
    136     -12.8290      2.00000
    137     -12.7930      2.00000
    138     -12.7930      2.00000
    139     -12.7930      2.00000
    140     -12.7930      2.00000
    141     -12.7817      2.00000
    142     -12.7817      2.00000
    143     -12.7816      2.00000
    144     -12.7816      2.00000
    145     -12.7660      2.00000
    146     -12.7660      2.00000
    147     -12.7660      2.00000
    148     -12.7660      2.00000
    149     -12.7561      2.00000
    150     -12.7561      2.00000
    151     -12.7561      2.00000
    152     -12.7561      2.00000
    153     -12.7551      2.00000
    154     -12.7551      2.00000
    155     -12.7551      2.00000
    156     -12.7551      2.00000
    157     -12.7439      2.00000
    158     -12.7439      2.00000
    159     -12.7439      2.00000
    160     -12.7439      2.00000
    161     -12.7405      2.00000
    162     -12.7405      2.00000
    163     -12.7405      2.00000
    164     -12.7405      2.00000
    165     -12.7347      2.00000
    166     -12.7347      2.00000
    167     -12.7347      2.00000
    168     -12.7347      2.00000
    169     -12.7314      2.00000
    170     -12.7314      2.00000
    171     -12.7313      2.00000
    172     -12.7313      2.00000
    173     -12.7045      2.00000
    174     -12.7045      2.00000
    175     -12.7045      2.00000
    176     -12.7045      2.00000
    177     -12.7033      2.00000
    178     -12.7033      2.00000
    179     -12.7033      2.00000
    180     -12.7033      2.00000
    181     -12.6993      2.00000
    182     -12.6993      2.00000
    183     -12.6993      2.00000
    184     -12.6993      2.00000
    185     -12.6907      2.00000
    186     -12.6907      2.00000
    187     -12.6907      2.00000
    188     -12.6907      2.00000
    189     -12.6822      2.00000
    190     -12.6822      2.00000
    191     -12.6822      2.00000
    192     -12.6822      2.00000
    193     -12.6746      2.00000
    194     -12.6746      2.00000
    195     -12.6746      2.00000
    196     -12.6746      2.00000
    197     -12.6726      2.00000
    198     -12.6726      2.00000
    199     -12.6726      2.00000
    200     -12.6726      2.00000
    201     -12.6501      2.00000
    202     -12.6501      2.00000
    203     -12.6501      2.00000
    204     -12.6501      2.00000
    205     -12.6393      2.00000
    206     -12.6393      2.00000
    207     -12.6393      2.00000
    208     -12.6393      2.00000
    209     -12.6181      2.00000
    210     -12.6181      2.00000
    211     -12.6181      2.00000
    212     -12.6181      2.00000
    213     -12.5935      2.00000
    214     -12.5935      2.00000
    215     -12.5935      2.00000
    216     -12.5935      2.00000
    217     -12.5810      2.00000
    218     -12.5810      2.00000
    219     -12.5810      2.00000
    220     -12.5810      2.00000
    221     -12.5790      2.00000
    222     -12.5790      2.00000
    223     -12.5790      2.00000
    224     -12.5790      2.00000
    225     -12.5782      2.00000
    226     -12.5782      2.00000
    227     -12.5782      2.00000
    228     -12.5782      2.00000
    229     -12.5606      2.00000
    230     -12.5606      2.00000
    231     -12.5606      2.00000
    232     -12.5606      2.00000
    233     -12.5605      2.00000
    234     -12.5605      2.00000
    235     -12.5605      2.00000
    236     -12.5605      2.00000
    237     -12.5522      2.00000
    238     -12.5522      2.00000
    239     -12.5521      2.00000
    240     -12.5521      2.00000
    241     -12.5411      2.00000
    242     -12.5411      2.00000
    243     -12.5411      2.00000
    244     -12.5411      2.00000
    245     -12.5227      2.00000
    246     -12.5227      2.00000
    247     -12.5227      2.00000
    248     -12.5227      2.00000
    249     -12.5132      2.00000
    250     -12.5132      2.00000
    251     -12.5132      2.00000
    252     -12.5132      2.00000
    253     -12.5127      2.00000
    254     -12.5127      2.00000
    255     -12.5127      2.00000
    256     -12.5127      2.00000
    257     -12.5026      2.00000
    258     -12.5026      2.00000
    259     -12.5026      2.00000
    260     -12.5026      2.00000
    261     -12.4972      2.00000
    262     -12.4972      2.00000
    263     -12.4972      2.00000
    264     -12.4972      2.00000
    265     -12.4781      2.00000
    266     -12.4781      2.00000
    267     -12.4781      2.00000
    268     -12.4781      2.00000
    269     -12.4391      2.00000
    270     -12.4391      2.00000
    271     -12.4391      2.00000
    272     -12.4391      2.00000
    273     -12.3224      2.00000
    274     -12.3224      2.00000
    275     -12.3224      2.00000
    276     -12.3224      2.00000
    277     -12.2095      2.00000
    278     -12.2095      2.00000
    279     -12.2095      2.00000
    280     -12.2095      2.00000
    281     -12.1347      2.00000
    282     -12.1347      2.00000
    283     -12.1347      2.00000
    284     -12.1347      2.00000
    285     -12.1172      2.00000
    286     -12.1172      2.00000
    287     -12.1172      2.00000
    288     -12.1172      2.00000
    289     -12.0050      2.00000
    290     -12.0049      2.00000
    291     -12.0049      2.00000
    292     -12.0049      2.00000
    293     -11.9375      2.00000
    294     -11.9375      2.00000
    295     -11.9375      2.00000
    296     -11.9375      2.00000
    297     -11.8737      2.00000
    298     -11.8737      2.00000
    299     -11.8737      2.00000
    300     -11.8737      2.00000
    301     -11.7667      2.00000
    302     -11.7666      2.00000
    303     -11.7666      2.00000
    304     -11.7666      2.00000
    305     -11.7343      2.00000
    306     -11.7343      2.00000
    307     -11.7343      2.00000
    308     -11.7343      2.00000
    309     -11.7283      2.00000
    310     -11.7283      2.00000
    311     -11.7283      2.00000
    312     -11.7283      2.00000
    313      -4.7830      2.00000
    314      -4.7830      2.00000
    315      -4.7830      2.00000
    316      -4.7830      2.00000
    317      -4.7470      2.00000
    318      -4.7470      2.00000
    319      -4.7470      2.00000
    320      -4.7470      2.00000
    321      -4.4100      2.00000
    322      -4.4100      2.00000
    323      -4.4100      2.00000
    324      -4.4100      2.00000
    325      -4.3735      2.00000
    326      -4.3735      2.00000
    327      -4.3735      2.00000
    328      -4.3735      2.00000
    329      -4.0906      2.00000
    330      -4.0906      2.00000
    331      -4.0906      2.00000
    332      -4.0906      2.00000
    333      -3.7451      2.00000
    334      -3.7451      2.00000
    335      -3.7451      2.00000
    336      -3.7451      2.00000
    337      -3.7352      2.00000
    338      -3.7352      2.00000
    339      -3.7352      2.00000
    340      -3.7352      2.00000
    341      -3.7031      2.00000
    342      -3.7031      2.00000
    343      -3.7031      2.00000
    344      -3.7031      2.00000
    345      -3.4250      2.00000
    346      -3.4250      2.00000
    347      -3.4250      2.00000
    348      -3.4250      2.00000
    349      -3.1865      2.00000
    350      -3.1865      2.00000
    351      -3.1865      2.00000
    352      -3.1865      2.00000
    353      -2.8861      2.00000
    354      -2.8861      2.00000
    355      -2.8861      2.00000
    356      -2.8861      2.00000
    357      -2.5133      2.00000
    358      -2.5133      2.00000
    359      -2.5133      2.00000
    360      -2.5133      2.00000
    361      -2.2755      2.00000
    362      -2.2755      2.00000
    363      -2.2754      2.00000
    364      -2.2754      2.00000
    365      -1.9455      2.00000
    366      -1.9455      2.00000
    367      -1.9455      2.00000
    368      -1.9454      2.00000
    369      -1.8315      2.00000
    370      -1.8315      2.00000
    371      -1.8315      2.00000
    372      -1.8315      2.00000
    373      -1.7952      2.00000
    374      -1.7952      2.00000
    375      -1.7952      2.00000
    376      -1.7952      2.00000
    377      -1.6191      2.00000
    378      -1.6191      2.00000
    379      -1.6191      2.00000
    380      -1.6191      2.00000
    381      -1.5617      2.00000
    382      -1.5617      2.00000
    383      -1.5617      2.00000
    384      -1.5617      2.00000
    385      -1.4735      2.00000
    386      -1.4735      2.00000
    387      -1.4735      2.00000
    388      -1.4735      2.00000
    389      -1.3475      2.00000
    390      -1.3475      2.00000
    391      -1.3475      2.00000
    392      -1.3475      2.00000
    393      -1.2578      2.00000
    394      -1.2578      2.00000
    395      -1.2578      2.00000
    396      -1.2578      2.00000
    397      -0.9928      2.00000
    398      -0.9928      2.00000
    399      -0.9928      2.00000
    400      -0.9928      2.00000
    401      -0.8151      2.00000
    402      -0.8151      2.00000
    403      -0.8151      2.00000
    404      -0.8151      2.00000
    405      -0.7672      2.00000
    406      -0.7672      2.00000
    407      -0.7672      2.00000
    408      -0.7672      2.00000
    409      -0.7150      2.00000
    410      -0.7150      2.00000
    411      -0.7150      2.00000
    412      -0.7150      2.00000
    413      -0.6718      2.00000
    414      -0.6718      2.00000
    415      -0.6717      2.00000
    416      -0.6717      2.00000
    417      -0.5770      2.00000
    418      -0.5770      2.00000
    419      -0.5770      2.00000
    420      -0.5770      2.00000
    421      -0.3853      2.00000
    422      -0.3853      2.00000
    423      -0.3853      2.00000
    424      -0.3853      2.00000
    425      -0.3175      2.00000
    426      -0.3175      2.00000
    427      -0.3175      2.00000
    428      -0.3175      2.00000
    429      -0.1811      2.00000
    430      -0.1811      2.00000
    431      -0.1811      2.00000
    432      -0.1811      2.00000
    433      -0.0171      2.00000
    434      -0.0171      2.00000
    435      -0.0171      2.00000
    436      -0.0171      2.00000
    437       0.0788      2.00000
    438       0.0788      2.00000
    439       0.0788      2.00000
    440       0.0788      2.00000
    441       0.1816      2.00000
    442       0.1816      2.00000
    443       0.1816      2.00000
    444       0.1816      2.00000
    445       0.2531      2.00000
    446       0.2532      2.00000
    447       0.2532      2.00000
    448       0.2532      2.00000
    449       0.5232      2.00000
    450       0.5232      2.00000
    451       0.5232      2.00000
    452       0.5233      2.00000
    453       0.5437      2.00000
    454       0.5438      2.00000
    455       0.5438      2.00000
    456       0.5438      2.00000
    457       0.5979      2.00000
    458       0.5979      2.00000
    459       0.5979      2.00000
    460       0.5979      2.00000
    461       0.6724      2.00000
    462       0.6724      2.00000
    463       0.6724      2.00000
    464       0.6725      2.00000
    465       0.8189      2.00000
    466       0.8189      2.00000
    467       0.8189      2.00000
    468       0.8189      2.00000
    469       0.9121      2.00000
    470       0.9121      2.00000
    471       0.9121      2.00000
    472       0.9121      2.00000
    473       0.9581      2.00000
    474       0.9581      2.00000
    475       0.9581      2.00000
    476       0.9581      2.00000
    477       1.1079      2.00000
    478       1.1079      2.00000
    479       1.1079      2.00000
    480       1.1079      2.00000
    481       1.1304      2.00000
    482       1.1304      2.00000
    483       1.1304      2.00000
    484       1.1304      2.00000
    485       1.2017      2.00000
    486       1.2017      2.00000
    487       1.2017      2.00000
    488       1.2017      2.00000
    489       1.2440      2.00000
    490       1.2440      2.00000
    491       1.2441      2.00000
    492       1.2441      2.00000
    493       1.2546      2.00000
    494       1.2547      2.00000
    495       1.2547      2.00000
    496       1.2547      2.00000
    497       1.3706      2.00000
    498       1.3706      2.00000
    499       1.3706      2.00000
    500       1.3707      2.00000
    501       1.4439      2.00000
    502       1.4439      2.00000
    503       1.4439      2.00000
    504       1.4439      2.00000
    505       1.5361      2.00000
    506       1.5362      2.00000
    507       1.5362      2.00000
    508       1.5362      2.00000
    509       1.6087      2.00000
    510       1.6087      2.00000
    511       1.6088      2.00000
    512       1.6088      2.00000
    513       1.6130      2.00000
    514       1.6130      2.00000
    515       1.6130      2.00000
    516       1.6130      2.00000
    517       1.6146      2.00000
    518       1.6146      2.00000
    519       1.6146      2.00000
    520       1.6146      2.00000
    521       1.9360      2.00000
    522       1.9360      2.00000
    523       1.9360      2.00000
    524       1.9360      2.00000
    525       1.9906      2.00000
    526       1.9906      2.00000
    527       1.9906      2.00000
    528       1.9906      2.00000
    529       8.8936      0.00000
    530       8.8936      0.00000
    531       8.8936      0.00000
    532       8.8936      0.00000
    533       9.2876      0.00000
    534       9.2876      0.00000
    535       9.2876      0.00000
    536       9.2876      0.00000
    537      10.6067      0.00000
    538      10.6070      0.00000
    539      10.6072      0.00000
    540      10.6073      0.00000
    541      10.7380      0.00000
    542      10.7380      0.00000
    543      10.7380      0.00000
    544      10.7381      0.00000
    545      10.8815      0.00000
    546      10.8816      0.00000
    547      10.8816      0.00000
    548      10.8817      0.00000
    549      11.1529      0.00000
    550      11.1530      0.00000
    551      11.1531      0.00000
    552      11.1533      0.00000
    553      11.7763      0.00000
    554      11.7767      0.00000
    555      11.7777      0.00000
    556      11.7780      0.00000
    557      11.8708      0.00000
    558      11.8711      0.00000
    559      11.8725      0.00000
    560      11.8747      0.00000
    561      11.9606      0.00000
    562      11.9624      0.00000
    563      11.9720      0.00000
    564      11.9789      0.00000
    565      12.2344      0.00000
    566      12.2364      0.00000
    567      12.2382      0.00000
    568      12.2393      0.00000
    569      12.3273      0.00000
    570      12.3275      0.00000
    571      12.3277      0.00000
    572      12.3284      0.00000
    573      12.4448      0.00000
    574      12.4488      0.00000
    575      12.4506      0.00000
    576      12.4529      0.00000
    577      12.5834      0.00000
    578      12.6193      0.00000
    579      12.6396      0.00000
    580      12.6472      0.00000
    581      12.6815      0.00000
    582      12.6857      0.00000
    583      12.7508      0.00000
    584      12.8194      0.00000
    585      13.5951      0.00000
    586      13.5976      0.00000
    587      13.6060      0.00000
    588      13.6165      0.00000
    589      13.6238      0.00000
    590      13.6510      0.00000
    591      13.6572      0.00000
    592      13.7291      0.00000
    593      13.8224      0.00000
    594      13.8613      0.00000
    595      13.9541      0.00000
    596      14.0210      0.00000
    597      14.0984      0.00000
    598      14.1430      0.00000
    599      14.3343      0.00000
    600      14.4229      0.00000
    601      14.6679      0.00000
    602      14.7342      0.00000
    603      14.8058      0.00000
    604      15.1572      0.00000
    605      15.1890      0.00000
    606      15.2602      0.00000
    607      15.3268      0.00000
    608      15.4029      0.00000
    609      15.4809      0.00000
    610      15.5428      0.00000
    611      15.5563      0.00000
    612      15.6160      0.00000
    613      15.6207      0.00000
    614      15.6876      0.00000
    615      15.7159      0.00000
    616      15.9519      0.00000
    617      16.0122      0.00000
    618      16.1117      0.00000
    619      16.2346      0.00000
    620      16.3176      0.00000
    621      16.3910      0.00000
    622      16.4435      0.00000
    623      16.6478      0.00000
    624      16.7197      0.00000
    625      16.8077      0.00000
    626      16.8354      0.00000
    627      16.9252      0.00000
    628      16.9775      0.00000
    629      17.0823      0.00000
    630      17.1854      0.00000
    631      17.3544      0.00000
    632      17.4784      0.00000
    633      17.5309      0.00000


--------------------------------------------------------------------------------------------------------


 soft charge-density along one line, spin component            1
         0         1         2         3         4         5         6         7         8         9
 total charge-density along one line
 
 pseudopotential strength for first ion, spin component:            1
 -8.816  -0.000   0.000  -0.005  -0.000  -1.341   0.000  -0.000
 -0.000  -8.845  -0.003  -0.000   0.003   0.000  -1.324   0.003
  0.000  -0.003  -8.852  -0.000  -0.004  -0.000   0.003  -1.321
 -0.005  -0.000  -0.000  -8.842  -0.000   0.005   0.000   0.000
 -0.000   0.003  -0.004  -0.000  -8.821   0.000   0.001   0.005
 -1.341   0.000  -0.000   0.005   0.000   5.922  -0.000   0.000
  0.000  -1.324   0.003   0.000   0.001  -0.000   5.911  -0.003
 -0.000   0.003  -1.321   0.000   0.005   0.000  -0.003   5.911
  0.005   0.000   0.000  -1.319   0.000  -0.005  -0.000  -0.000
  0.000   0.001   0.005   0.000  -1.333  -0.000  -0.002  -0.005
 -0.000  -0.000  -0.002   0.000   0.000  -0.000  -0.000   0.002
 -0.000  -0.000   0.004  -0.000  -0.000   0.000   0.000  -0.001
 -0.000  -0.005   0.001  -0.000   0.002   0.000   0.001  -0.000
 -0.000   0.000  -0.006  -0.000   0.001  -0.000  -0.001   0.002
  0.001  -0.000   0.000  -0.003  -0.000  -0.001  -0.000  -0.000
  0.000   0.005  -0.002   0.000  -0.005  -0.000   0.002   0.001
  0.000  -0.002   0.007   0.000  -0.004   0.000   0.002   0.002
 -0.004   0.000  -0.000  -0.003   0.000   0.004   0.000   0.000
 total augmentation occupancy for first ion, spin component:            1
  1.992   0.000  -0.000   0.000  -0.000  -0.005   0.000   0.000   0.006  -0.000   0.000  -0.000  -0.000  -0.000   0.004   0.000
  0.000   1.991   0.000   0.000   0.002   0.000  -0.003   0.004   0.000   0.012  -0.001  -0.001   0.000   0.004  -0.000   0.001
 -0.000   0.000   1.992   0.000   0.001  -0.000   0.004  -0.004   0.000   0.009   0.000  -0.001   0.004  -0.001   0.000   0.001
  0.000   0.000   0.000   1.995   0.000   0.006   0.000  -0.000   0.021  -0.000  -0.000   0.000   0.000  -0.000   0.012  -0.000
 -0.000   0.002   0.001   0.000   1.995  -0.000   0.012   0.009   0.000   0.019   0.001   0.000   0.008   0.006  -0.000   0.001
 -0.005   0.000  -0.000   0.006  -0.000   0.052  -0.000   0.000   0.037  -0.000  -0.000   0.000  -0.000   0.000   0.040  -0.000
  0.000  -0.003   0.004   0.000   0.012  -0.000   0.069   0.021  -0.000   0.059  -0.012  -0.001  -0.001   0.033   0.000  -0.000
  0.000   0.004  -0.004  -0.000   0.009   0.000   0.021   0.057  -0.000   0.052  -0.024  -0.002   0.030  -0.009   0.000   0.001
  0.006   0.000   0.000   0.021   0.000   0.037  -0.000  -0.000   0.194  -0.000  -0.000   0.000  -0.000  -0.000   0.082   0.000
 -0.000   0.012   0.009  -0.000   0.019  -0.000   0.059   0.052  -0.000   0.172   0.009   0.000   0.056   0.046  -0.000   0.002
  0.000  -0.001   0.000  -0.000   0.001  -0.000  -0.012  -0.024  -0.000   0.009   0.995   0.054   0.001   0.060   0.000  -0.000
 -0.000  -0.001  -0.001   0.000   0.000   0.000  -0.001  -0.002   0.000   0.000   0.054   0.004  -0.000   0.003   0.000  -0.000
 -0.000   0.000   0.004   0.000   0.008  -0.000  -0.001   0.030  -0.000   0.056   0.001  -0.000   0.822  -0.020  -0.000   0.027
 -0.000   0.004  -0.001  -0.000   0.006   0.000   0.033  -0.009  -0.000   0.046   0.060   0.003  -0.020   0.755  -0.000  -0.001
  0.004  -0.000   0.000   0.012  -0.000   0.040   0.000   0.000   0.082  -0.000   0.000   0.000  -0.000  -0.000   0.849   0.000
  0.000   0.001   0.001  -0.000   0.001  -0.000  -0.000   0.001   0.000   0.002  -0.000  -0.000   0.027  -0.001   0.000   0.001
 -0.000   0.001   0.000  -0.000   0.001   0.000   0.001  -0.000   0.000   0.001   0.002   0.000  -0.001   0.024  -0.000  -0.000
  0.001  -0.000  -0.000   0.002  -0.000   0.001   0.000   0.000   0.002  -0.000   0.000   0.000   0.000  -0.000   0.028   0.000


------------------------ aborting loop because EDIFF is reached ----------------------------------------


    FORLOC:  cpu time      0.0081: real time      0.0081
    FORHF :  cpu time    571.5330: real time    571.5245
    FORNL :  cpu time      1.0218: real time      1.0216
    STRESS:  cpu time      3.1331: real time      3.1324
    FORCOR:  cpu time      1.4727: real time      1.4724
    OFIELD:  cpu time      0.0018: real time      0.0018

  FORCE on cell =-STRESS in cart. coord.  units (eV):
  Direction    XX          YY          ZZ          XY          YZ          ZX
  --------------------------------------------------------------------------------------
  Alpha Z  5537.53060  5537.53060  5537.53060
  Ewald  -25109.95125-32374.48089-31407.74330     0.00000 -1721.48064     0.00000
  Hartree 14112.48825  9560.45304 10199.49920    -0.00001 -1177.37527     0.00000
  E(xc)   -4104.20281 -4107.25446 -4106.44493    -0.00000    -0.47163    -0.00000
  Local   -5948.13839  5708.83045  4071.48764     0.00003  2864.00601     0.00000
  n-local  5978.55908  5920.59177  5940.04010    -0.00000    -7.87057     0.00000
  augment  5513.21383  5536.38460  5544.26082    -0.00000     6.11287     0.00000
  Kinetic 12432.26275 12636.93202 12638.16809    -0.00001    37.86925     0.00001
  Fock    -8452.41920 -8457.06016 -8452.55381    -0.00000     0.62652     0.00000
  -------------------------------------------------------------------------------------
  Total     -40.65713   -38.07304   -35.75561     0.00000     1.41654     0.00000
  in kB     -51.33959   -48.07654   -45.15021     0.00000     1.78873     0.00000
  external pressure =      -48.19 kB  Pullay stress =        0.00 kB


 VOLUME and BASIS-vectors are now :
 -----------------------------------------------------------------------------
  energy-cutoff  :      450.00
  volume of cell :     1268.81
      direct lattice vectors                 reciprocal lattice vectors
     0.000000000 12.280473417  0.000000000     0.000000000  0.081430085 -0.019947423
     9.142702054  0.000000000  0.000000000     0.109376855 -0.000000000  0.000000000
     0.000000000 -2.768261773-11.300697718     0.000000000  0.000000000 -0.088490111

  length of vectors
    12.280473417  9.142702054 11.634820246     0.083837691  0.109376855  0.088490111


 FORCES acting on ions:
    Electron-Ion                     Ewald-Force                    Non-Local-Force
 -----------------------------------------------------------------------------------------------
   -.164E-04 0.429E+02 -.834E+02   -.191E-13 -.424E+02 0.879E+02   0.318E-21 -.377E+00 -.421E+01
   -.417E-04 0.429E+02 -.834E+02   0.204E-13 -.424E+02 0.879E+02   -.847E-21 -.377E+00 -.421E+01
   0.378E-05 0.429E+02 -.834E+02   -.658E-10 -.424E+02 0.879E+02   0.953E-21 -.377E+00 -.421E+01
   0.546E-04 0.429E+02 -.834E+02   -.658E-10 -.424E+02 0.879E+02   0.146E-21 -.377E+00 -.421E+01
   0.108E-04 0.429E+02 -.834E+02   0.657E-10 -.424E+02 0.879E+02   0.335E-21 -.377E+00 -.421E+01
   -.181E-04 0.429E+02 -.834E+02   0.657E-10 -.424E+02 0.879E+02   0.424E-21 -.377E+00 -.421E+01
   -.314E-04 -.429E+02 0.834E+02   0.661E-10 0.424E+02 -.879E+02   0.000E+00 0.377E+00 0.421E+01
   0.769E-04 -.429E+02 0.834E+02   0.661E-10 0.424E+02 -.879E+02   0.212E-21 0.377E+00 0.421E+01
   -.195E-05 -.429E+02 0.834E+02   0.195E-13 0.424E+02 -.879E+02   -.741E-21 0.377E+00 0.421E+01
   -.156E-04 -.429E+02 0.834E+02   0.480E-13 0.424E+02 -.879E+02   -.529E-22 0.377E+00 0.421E+01
   0.254E-04 -.429E+02 0.834E+02   -.660E-10 0.424E+02 -.879E+02   0.847E-21 0.377E+00 0.421E+01
   -.642E-04 -.429E+02 0.834E+02   -.660E-10 0.424E+02 -.879E+02   0.635E-21 0.377E+00 0.421E+01
   -.261E-06 -.464E+02 0.295E+02   0.657E-10 0.442E+02 -.312E+02   -.635E-21 0.189E+01 0.160E+01
   0.476E-04 -.464E+02 0.295E+02   0.656E-10 0.442E+02 -.312E+02   -.265E-21 0.189E+01 0.160E+01
   -.958E-05 -.464E+02 0.295E+02   -.533E-14 0.442E+02 -.312E+02   0.000E+00 0.189E+01 0.160E+01
   -.465E-04 -.464E+02 0.295E+02   0.409E-13 0.442E+02 -.312E+02   0.106E-21 0.189E+01 0.160E+01
   0.176E-04 -.464E+02 0.295E+02   -.657E-10 0.442E+02 -.312E+02   0.159E-21 0.189E+01 0.160E+01
   0.537E-05 -.464E+02 0.295E+02   -.656E-10 0.442E+02 -.312E+02   -.222E-21 0.189E+01 0.160E+01
   -.711E-06 0.464E+02 -.295E+02   0.275E-13 -.442E+02 0.312E+02   -.106E-21 -.189E+01 -.160E+01
   -.144E-04 0.464E+02 -.295E+02   0.533E-13 -.442E+02 0.312E+02   -.132E-21 -.189E+01 -.160E+01
   0.463E-04 0.464E+02 -.295E+02   -.657E-10 -.442E+02 0.312E+02   0.318E-21 -.189E+01 -.160E+01
   0.319E-04 0.464E+02 -.295E+02   -.657E-10 -.442E+02 0.312E+02   -.529E-22 -.189E+01 -.160E+01
   -.484E-04 0.464E+02 -.295E+02   0.655E-10 -.442E+02 0.312E+02   -.106E-21 -.189E+01 -.160E+01
   -.232E-04 0.464E+02 -.295E+02   0.656E-10 -.442E+02 0.312E+02   0.450E-21 -.189E+01 -.160E+01
   0.759E-04 0.429E+02 -.834E+02   0.658E-10 -.424E+02 0.879E+02   0.318E-21 -.377E+00 -.421E+01
   -.677E-05 0.429E+02 -.834E+02   0.658E-10 -.424E+02 0.879E+02   -.331E-22 -.377E+00 -.421E+01
   0.434E-05 0.429E+02 -.834E+02   -.480E-13 -.424E+02 0.879E+02   -.424E-21 -.377E+00 -.421E+01
   -.151E-04 0.429E+02 -.834E+02   -.114E-12 -.424E+02 0.879E+02   0.146E-21 -.377E+00 -.421E+01
   -.767E-04 0.429E+02 -.834E+02   -.659E-10 -.424E+02 0.879E+02   0.900E-21 -.377E+00 -.421E+01
   0.244E-04 0.429E+02 -.834E+02   -.658E-10 -.424E+02 0.879E+02   0.993E-21 -.377E+00 -.421E+01
   0.910E-05 -.429E+02 0.834E+02   0.462E-13 0.424E+02 -.879E+02   -.424E-21 0.377E+00 0.421E+01
   -.227E-04 -.429E+02 0.834E+02   0.320E-13 0.424E+02 -.879E+02   -.635E-21 0.377E+00 0.421E+01
   0.424E-04 -.429E+02 0.834E+02   -.660E-10 0.424E+02 -.879E+02   -.106E-21 0.377E+00 0.421E+01
   0.230E-04 -.429E+02 0.834E+02   -.660E-10 0.424E+02 -.879E+02   -.318E-21 0.377E+00 0.421E+01
   -.414E-04 -.429E+02 0.834E+02   0.660E-10 0.424E+02 -.879E+02   0.424E-21 0.377E+00 0.421E+01
   0.686E-05 -.429E+02 0.834E+02   0.660E-10 0.424E+02 -.879E+02   0.212E-21 0.377E+00 0.421E+01
   0.381E-05 -.464E+02 0.295E+02   0.355E-13 0.442E+02 -.312E+02   0.212E-21 0.189E+01 0.160E+01
   -.681E-05 -.464E+02 0.295E+02   0.711E-14 0.442E+02 -.312E+02   0.106E-21 0.189E+01 0.160E+01
   0.191E-04 -.464E+02 0.295E+02   -.655E-10 0.442E+02 -.312E+02   0.000E+00 0.189E+01 0.160E+01
   0.608E-04 -.464E+02 0.295E+02   -.656E-10 0.442E+02 -.312E+02   -.285E-21 0.189E+01 0.160E+01
   -.267E-04 -.464E+02 0.295E+02   0.656E-10 0.442E+02 -.312E+02   -.212E-21 0.189E+01 0.160E+01
   -.497E-04 -.464E+02 0.295E+02   0.656E-10 0.442E+02 -.312E+02   0.212E-21 0.189E+01 0.160E+01
   -.256E-04 0.464E+02 -.295E+02   0.657E-10 -.442E+02 0.312E+02   0.318E-21 -.189E+01 -.160E+01
   -.500E-04 0.464E+02 -.295E+02   0.656E-10 -.442E+02 0.312E+02   0.424E-21 -.189E+01 -.160E+01
   0.227E-04 0.464E+02 -.295E+02   -.103E-12 -.442E+02 0.312E+02   0.106E-21 -.189E+01 -.160E+01
   -.230E-04 0.464E+02 -.295E+02   -.213E-13 -.442E+02 0.312E+02   -.424E-21 -.189E+01 -.160E+01
   0.518E-05 0.464E+02 -.295E+02   -.657E-10 -.442E+02 0.312E+02   0.424E-21 -.189E+01 -.160E+01
   0.802E-04 0.464E+02 -.295E+02   -.657E-10 -.442E+02 0.312E+02   0.159E-21 -.189E+01 -.160E+01
   0.733E-04 -.177E+02 0.146E+02   0.388E-10 0.250E+02 -.183E+02   -.397E-22 -.631E+01 0.324E+01
   -.142E-04 -.177E+02 0.146E+02   0.388E-10 0.250E+02 -.183E+02   0.000E+00 -.631E+01 0.324E+01
   0.544E-06 -.177E+02 0.146E+02   -.480E-13 0.250E+02 -.183E+02   0.414E-23 -.631E+01 0.324E+01
   0.724E-06 -.177E+02 0.146E+02   0.320E-13 0.250E+02 -.183E+02   0.397E-22 -.631E+01 0.324E+01
   -.730E-04 -.177E+02 0.146E+02   -.388E-10 0.250E+02 -.183E+02   0.159E-21 -.631E+01 0.324E+01
   0.173E-04 -.177E+02 0.146E+02   -.388E-10 0.250E+02 -.183E+02   0.172E-21 -.631E+01 0.324E+01
   0.932E-05 0.177E+02 -.146E+02   -.697E-13 -.250E+02 0.183E+02   -.212E-21 0.631E+01 -.324E+01
   0.255E-04 0.177E+02 -.146E+02   -.857E-13 -.250E+02 0.183E+02   -.794E-22 0.631E+01 -.324E+01
   -.101E-04 0.177E+02 -.146E+02   -.388E-10 -.250E+02 0.183E+02   0.172E-21 0.631E+01 -.324E+01
   0.519E-05 0.177E+02 -.146E+02   -.389E-10 -.250E+02 0.183E+02   0.172E-21 0.631E+01 -.324E+01
   -.202E-05 0.177E+02 -.146E+02   0.387E-10 -.250E+02 0.183E+02   -.106E-21 0.631E+01 -.324E+01
   -.362E-04 0.177E+02 -.146E+02   0.387E-10 -.250E+02 0.183E+02   -.596E-22 0.631E+01 -.324E+01
   -.209E-04 0.660E+02 0.376E+02   0.293E-10 -.640E+02 -.329E+02   -.146E-21 -.173E+01 -.403E+01
   0.220E-04 0.660E+02 0.376E+02   0.293E-10 -.640E+02 -.329E+02   0.106E-21 -.173E+01 -.403E+01
   0.113E-04 0.660E+02 0.376E+02   0.295E-13 -.640E+02 -.329E+02   -.860E-22 -.173E+01 -.403E+01
   -.147E-04 0.660E+02 0.376E+02   0.295E-13 -.640E+02 -.329E+02   -.529E-22 -.173E+01 -.403E+01
   0.662E-05 0.660E+02 0.376E+02   -.292E-10 -.640E+02 -.329E+02   -.265E-22 -.173E+01 -.403E+01
   -.388E-05 0.660E+02 0.376E+02   -.292E-10 -.640E+02 -.329E+02   0.331E-22 -.173E+01 -.403E+01
   0.300E-05 -.660E+02 -.376E+02   -.577E-14 0.640E+02 0.329E+02   -.265E-22 0.173E+01 0.403E+01
   -.107E-04 -.660E+02 -.376E+02   0.666E-14 0.640E+02 0.329E+02   -.132E-22 0.173E+01 0.403E+01
   -.129E-04 -.660E+02 -.376E+02   -.292E-10 0.640E+02 0.329E+02   0.265E-22 0.173E+01 0.403E+01
   0.358E-04 -.660E+02 -.376E+02   -.292E-10 0.640E+02 0.329E+02   0.463E-22 0.173E+01 0.403E+01
   0.114E-04 -.660E+02 -.376E+02   0.293E-10 0.640E+02 0.329E+02   -.662E-22 0.173E+01 0.403E+01
   -.240E-04 -.660E+02 -.376E+02   0.293E-10 0.640E+02 0.329E+02   -.496E-22 0.173E+01 0.403E+01
   0.841E-06 0.121E+03 0.632E+02   0.320E-13 -.134E+03 -.597E+02   -.165E-21 0.109E+02 -.300E+01
   0.115E-04 0.121E+03 0.632E+02   -.444E-14 -.134E+03 -.597E+02   -.318E-21 0.109E+02 -.300E+01
   -.623E-05 0.121E+03 0.632E+02   -.330E-10 -.134E+03 -.597E+02   0.529E-22 0.109E+02 -.300E+01
   0.220E-04 0.121E+03 0.632E+02   -.330E-10 -.134E+03 -.597E+02   -.106E-21 0.109E+02 -.300E+01
   0.966E-05 0.121E+03 0.632E+02   0.330E-10 -.134E+03 -.597E+02   -.529E-22 0.109E+02 -.300E+01
   -.256E-04 0.121E+03 0.632E+02   0.330E-10 -.134E+03 -.597E+02   0.678E-22 0.109E+02 -.300E+01
   0.128E-04 -.121E+03 -.632E+02   0.328E-10 0.134E+03 0.597E+02   -.291E-21 -.109E+02 0.300E+01
   -.125E-04 -.121E+03 -.632E+02   0.328E-10 0.134E+03 0.597E+02   0.159E-21 -.109E+02 0.300E+01
   0.999E-05 -.121E+03 -.632E+02   0.606E-13 0.134E+03 0.597E+02   -.582E-21 -.109E+02 0.300E+01
   0.107E-04 -.121E+03 -.632E+02   0.608E-13 0.134E+03 0.597E+02   -.529E-22 -.109E+02 0.300E+01
   -.171E-04 -.121E+03 -.632E+02   -.327E-10 0.134E+03 0.597E+02   -.278E-21 -.109E+02 0.300E+01
   0.849E-06 -.121E+03 -.632E+02   -.327E-10 0.134E+03 0.597E+02   0.159E-21 -.109E+02 0.300E+01
   -.146E-04 -.177E+02 0.146E+02   -.295E-13 0.250E+02 -.183E+02   -.212E-21 -.631E+01 0.324E+01
   0.685E-05 -.177E+02 0.146E+02   -.666E-13 0.250E+02 -.183E+02   0.000E+00 -.631E+01 0.324E+01
   0.219E-04 -.177E+02 0.146E+02   -.388E-10 0.250E+02 -.183E+02   0.119E-21 -.631E+01 0.324E+01
   -.879E-05 -.177E+02 0.146E+02   -.389E-10 0.250E+02 -.183E+02   -.529E-22 -.631E+01 0.324E+01
   -.469E-05 -.177E+02 0.146E+02   0.388E-10 0.250E+02 -.183E+02   -.265E-22 -.631E+01 0.324E+01
   0.314E-05 -.177E+02 0.146E+02   0.388E-10 0.250E+02 -.183E+02   -.212E-21 -.631E+01 0.324E+01
   -.502E-05 0.177E+02 -.146E+02   0.388E-10 -.250E+02 0.183E+02   0.000E+00 0.631E+01 -.324E+01
   0.812E-04 0.177E+02 -.146E+02   0.387E-10 -.250E+02 0.183E+02   0.662E-23 0.631E+01 -.324E+01
   -.786E-05 0.177E+02 -.146E+02   -.746E-13 -.250E+02 0.183E+02   0.397E-22 0.631E+01 -.324E+01
   -.115E-04 0.177E+02 -.146E+02   -.462E-13 -.250E+02 0.183E+02   0.794E-22 0.631E+01 -.324E+01
   0.170E-04 0.177E+02 -.146E+02   -.389E-10 -.250E+02 0.183E+02   -.159E-21 0.631E+01 -.324E+01
   -.700E-04 0.177E+02 -.146E+02   -.388E-10 -.250E+02 0.183E+02   -.397E-22 0.631E+01 -.324E+01
   0.706E-05 0.660E+02 0.376E+02   0.373E-13 -.640E+02 -.329E+02   -.794E-22 -.173E+01 -.403E+01
   -.222E-05 0.660E+02 0.376E+02   0.515E-13 -.640E+02 -.329E+02   0.397E-22 -.173E+01 -.403E+01
   0.326E-04 0.660E+02 0.376E+02   -.291E-10 -.640E+02 -.329E+02   -.106E-21 -.173E+01 -.403E+01
   -.904E-05 0.660E+02 0.376E+02   -.292E-10 -.640E+02 -.329E+02   0.185E-21 -.173E+01 -.403E+01
   -.329E-04 0.660E+02 0.376E+02   0.293E-10 -.640E+02 -.329E+02   -.529E-22 -.173E+01 -.403E+01
   0.111E-04 0.660E+02 0.376E+02   0.293E-10 -.640E+02 -.329E+02   0.139E-21 -.173E+01 -.403E+01
   0.945E-05 -.660E+02 -.376E+02   0.293E-10 0.640E+02 0.329E+02   -.529E-22 0.173E+01 0.403E+01
   0.148E-05 -.660E+02 -.376E+02   0.293E-10 0.640E+02 0.329E+02   0.726E-22 0.173E+01 0.403E+01
   -.163E-05 -.660E+02 -.376E+02   0.391E-13 0.640E+02 0.329E+02   -.106E-21 0.173E+01 0.403E+01
   -.199E-04 -.660E+02 -.376E+02   0.391E-13 0.640E+02 0.329E+02   0.182E-22 0.173E+01 0.403E+01
   -.987E-05 -.660E+02 -.376E+02   -.292E-10 0.640E+02 0.329E+02   -.397E-22 0.173E+01 0.403E+01
   0.165E-04 -.660E+02 -.376E+02   -.292E-10 0.640E+02 0.329E+02   -.129E-21 0.173E+01 0.403E+01
   -.424E-05 0.121E+03 0.632E+02   0.330E-10 -.134E+03 -.597E+02   -.185E-21 0.109E+02 -.300E+01
   0.182E-04 0.121E+03 0.632E+02   0.330E-10 -.134E+03 -.597E+02   -.212E-21 0.109E+02 -.300E+01
   -.648E-05 0.121E+03 0.632E+02   -.142E-13 -.134E+03 -.597E+02   0.238E-21 0.109E+02 -.300E+01
   0.967E-05 0.121E+03 0.632E+02   0.142E-13 -.134E+03 -.597E+02   0.596E-22 0.109E+02 -.300E+01
   0.937E-05 0.121E+03 0.632E+02   -.330E-10 -.134E+03 -.597E+02   0.529E-22 0.109E+02 -.300E+01
   -.188E-04 0.121E+03 0.632E+02   -.330E-10 -.134E+03 -.597E+02   -.165E-21 0.109E+02 -.300E+01
   -.234E-04 -.121E+03 -.632E+02   0.488E-13 0.134E+03 0.597E+02   -.529E-22 -.109E+02 0.300E+01
   -.121E-05 -.121E+03 -.632E+02   0.639E-13 0.134E+03 0.597E+02   0.265E-22 -.109E+02 0.300E+01
   0.126E-04 -.121E+03 -.632E+02   -.327E-10 0.134E+03 0.597E+02   0.106E-21 -.109E+02 0.300E+01
   -.107E-04 -.121E+03 -.632E+02   -.327E-10 0.134E+03 0.597E+02   0.265E-21 -.109E+02 0.300E+01
   -.198E-04 -.121E+03 -.632E+02   0.328E-10 0.134E+03 0.597E+02   -.265E-21 -.109E+02 0.300E+01
   0.141E-04 -.121E+03 -.632E+02   0.328E-10 0.134E+03 0.597E+02   0.265E-22 -.109E+02 0.300E+01
 -----------------------------------------------------------------------------------------------
   0.273E-04 0.866E-04 0.147E-03   -.438E-13 -.568E-13 -.279E-11   0.172E-20 0.160E-13 0.364E-13
 
 
 POSITION                                       TOTAL-FORCE (eV/Angst)
 -----------------------------------------------------------------------------------
      0.00000      7.65951     -1.76963         0.000000      0.071902      0.004999
      0.00000      6.27538     -7.41997        -0.000000      0.071902      0.004999
      3.04757      7.65951     -1.76963         0.000000      0.071902      0.004999
      3.04757      6.27538     -7.41997        -0.000000      0.071902      0.004999
      6.09513      7.65951     -1.76963        -0.000000      0.071902      0.004999
      6.09513      6.27538     -7.41997         0.000000      0.071902      0.004999
      1.52378      9.37707     -3.88072         0.000000     -0.071902     -0.004999
      1.52378      7.99294     -9.53107        -0.000000     -0.071902     -0.004999
      4.57135      9.37707     -3.88072         0.000000     -0.071902     -0.004999
      4.57135      7.99294     -9.53107         0.000000     -0.071902     -0.004999
      7.61892      9.37707     -3.88072        -0.000000     -0.071902     -0.004999
      7.61892      7.99294     -9.53107         0.000000     -0.071902     -0.004999
      1.52378      6.15825     -4.49291        -0.000000     -0.022932      0.009522
      1.52378      4.77412    -10.14326         0.000000     -0.022932      0.009522
      4.57135      6.15825     -4.49291         0.000000     -0.022932      0.009522
      4.57135      4.77412    -10.14326        -0.000000     -0.022932      0.009522
      7.61892      6.15825     -4.49291        -0.000000     -0.022932      0.009522
      7.61892      4.77412    -10.14326        -0.000000     -0.022932      0.009522
      0.00000     10.87833     -1.15744        -0.000000      0.022932     -0.009522
      0.00000      9.49420     -6.80779         0.000000      0.022932     -0.009522
      3.04757     10.87833     -1.15744        -0.000000      0.022932     -0.009522
      3.04757      9.49420     -6.80779        -0.000000      0.022932     -0.009522
      6.09513     10.87833     -1.15744        -0.000000      0.022932     -0.009522
      6.09513      9.49420     -6.80779        -0.000000      0.022932     -0.009522
      1.52378      1.51927     -1.76963         0.000000      0.071902      0.004999
      1.52378      0.13514     -7.41997         0.000000      0.071902      0.004999
      4.57135      1.51927     -1.76963        -0.000000      0.071902      0.004999
      4.57135      0.13514     -7.41997         0.000000      0.071902      0.004999
      7.61892      1.51927     -1.76963         0.000000      0.071902      0.004999
      7.61892      0.13514     -7.41997         0.000000      0.071902      0.004999
      0.00000      3.23684     -3.88072        -0.000000     -0.071902     -0.004999
      0.00000      1.85271     -9.53107        -0.000000     -0.071902     -0.004999
      3.04757      3.23684     -3.88072        -0.000000     -0.071902     -0.004999
      3.04757      1.85271     -9.53107        -0.000000     -0.071902     -0.004999
      6.09513      3.23684     -3.88072        -0.000000     -0.071902     -0.004999
      6.09513      1.85271     -9.53107        -0.000000     -0.071902     -0.004999
      0.00000      0.01801     -4.49291        -0.000000     -0.022932      0.009522
      0.00000     -1.36612    -10.14326         0.000000     -0.022932      0.009522
      3.04757      0.01801     -4.49291        -0.000000     -0.022932      0.009522
      3.04757     -1.36612    -10.14326        -0.000000     -0.022932      0.009522
      6.09513      0.01801     -4.49291         0.000000     -0.022932      0.009522
      6.09513     -1.36612    -10.14326        -0.000000     -0.022932      0.009522
      1.52378      4.73810     -1.15744         0.000000      0.022932     -0.009522
      1.52378      3.35396     -6.80779        -0.000000      0.022932     -0.009522
      4.57135      4.73810     -1.15744         0.000000      0.022932     -0.009522
      4.57135      3.35396     -6.80779         0.000000      0.022932     -0.009522
      7.61892      4.73810     -1.15744        -0.000000      0.022932     -0.009522
      7.61892      3.35396     -6.80779        -0.000000      0.022932     -0.009522
      1.52378     11.88364     -1.43776        -0.000000     -0.170535      0.114146
      1.52378     10.49951     -7.08811        -0.000000     -0.170535      0.114146
      4.57135     11.88364     -1.43776         0.000000     -0.170535      0.114146
      4.57135     10.49951     -7.08811         0.000000     -0.170535      0.114146
      7.61892     11.88364     -1.43776         0.000000     -0.170535      0.114146
      7.61892     10.49951     -7.08811         0.000000     -0.170535      0.114146
      0.00000      5.15294     -4.21259         0.000000      0.170535     -0.114146
      0.00000      3.76881     -9.86294        -0.000000      0.170535     -0.114146
      3.04757      5.15294     -4.21259         0.000000      0.170535     -0.114146
      3.04757      3.76881     -9.86294        -0.000000      0.170535     -0.114146
      6.09513      5.15294     -4.21259         0.000000      0.170535     -0.114146
      6.09513      3.76881     -9.86294        -0.000000      0.170535     -0.114146
      1.52378      7.48286     -3.16867        -0.000000     -0.038768     -0.112820
      1.52378      6.09873     -8.81902         0.000000     -0.038768     -0.112820
      4.57135      7.48286     -3.16867        -0.000000     -0.038768     -0.112820
      4.57135      6.09873     -8.81902        -0.000000     -0.038768     -0.112820
      7.61892      7.48286     -3.16867        -0.000000     -0.038768     -0.112820
      7.61892      6.09873     -8.81902        -0.000000     -0.038768     -0.112820
      0.00000      9.55372     -2.48168        -0.000000      0.038768      0.112820
      0.00000      8.16958     -8.13203        -0.000000      0.038768      0.112820
      3.04757      9.55372     -2.48168        -0.000000      0.038768      0.112820
      3.04757      8.16958     -8.13203        -0.000000      0.038768      0.112820
      6.09513      9.55372     -2.48168        -0.000000      0.038768      0.112820
      6.09513      8.16958     -8.13203         0.000000      0.038768      0.112820
      0.00000      8.98430     -5.03794         0.000000      0.399601     -0.074080
      0.00000      7.60017    -10.68829         0.000000      0.399601     -0.074080
      3.04757      8.98430     -5.03794         0.000000      0.399601     -0.074080
      3.04757      7.60017    -10.68829         0.000000      0.399601     -0.074080
      6.09513      8.98430     -5.03794         0.000000      0.399601     -0.074080
      6.09513      7.60017    -10.68829        -0.000000      0.399601     -0.074080
      1.52378      8.05228     -0.61240        -0.000000     -0.399601      0.074080
      1.52378      6.66815     -6.26275        -0.000000     -0.399601      0.074080
      4.57135      8.05228     -0.61240        -0.000000     -0.399601      0.074080
      4.57135      6.66815     -6.26275         0.000000     -0.399601      0.074080
      7.61892      8.05228     -0.61240        -0.000000     -0.399601      0.074080
      7.61892      6.66815     -6.26275        -0.000000     -0.399601      0.074080
      0.00000      5.74340     -1.43776        -0.000000     -0.170535      0.114146
      0.00000      4.35927     -7.08811         0.000000     -0.170535      0.114146
      3.04757      5.74340     -1.43776        -0.000000     -0.170535      0.114146
      3.04757      4.35927     -7.08811         0.000000     -0.170535      0.114146
      6.09513      5.74340     -1.43776         0.000000     -0.170535      0.114146
      6.09513      4.35927     -7.08811        -0.000000     -0.170535      0.114146
      1.52378     -0.98730     -4.21259        -0.000000      0.170535     -0.114146
      1.52378     -2.37143     -9.86294         0.000000      0.170535     -0.114146
      4.57135     -0.98730     -4.21259        -0.000000      0.170535     -0.114146
      4.57135     -2.37143     -9.86294        -0.000000      0.170535     -0.114146
      7.61892     -0.98730     -4.21259        -0.000000      0.170535     -0.114146
      7.61892     -2.37143     -9.86294        -0.000000      0.170535     -0.114146
      0.00000      1.34263     -3.16867        -0.000000     -0.038768     -0.112820
      0.00000     -0.04150     -8.81902        -0.000000     -0.038768     -0.112820
      3.04757      1.34263     -3.16867         0.000000     -0.038768     -0.112820
      3.04757     -0.04150     -8.81902         0.000000     -0.038768     -0.112820
      6.09513      1.34263     -3.16867         0.000000     -0.038768     -0.112820
      6.09513     -0.04150     -8.81902        -0.000000     -0.038768     -0.112820
      1.52378      3.41348     -2.48168        -0.000000      0.038768      0.112820
      1.52378      2.02935     -8.13203        -0.000000      0.038768      0.112820
      4.57135      3.41348     -2.48168         0.000000      0.038768      0.112820
      4.57135      2.02935     -8.13203         0.000000      0.038768      0.112820
      7.61892      3.41348     -2.48168        -0.000000      0.038768      0.112820
      7.61892      2.02935     -8.13203        -0.000000      0.038768      0.112820
      1.52378      2.84406     -5.03794         0.000000      0.399601     -0.074080
      1.52378      1.45993    -10.68829        -0.000000      0.399601     -0.074080
      4.57135      2.84406     -5.03794         0.000000      0.399601     -0.074080
      4.57135      1.45993    -10.68829         0.000000      0.399601     -0.074080
      7.61892      2.84406     -5.03794        -0.000000      0.399601     -0.074080
      7.61892      1.45993    -10.68829         0.000000      0.399601     -0.074080
      0.00000      1.91204     -0.61240        -0.000000     -0.399601      0.074080
      0.00000      0.52791     -6.26275         0.000000     -0.399601      0.074080
      3.04757      1.91204     -0.61240        -0.000000     -0.399601      0.074080
      3.04757      0.52791     -6.26275        -0.000000     -0.399601      0.074080
      6.09513      1.91204     -0.61240        -0.000000     -0.399601      0.074080
      6.09513      0.52791     -6.26275         0.000000     -0.399601      0.074080
 -----------------------------------------------------------------------------------
    total drift:                                0.000027      0.000087      0.000147


--------------------------------------------------------------------------------------------------------



  FREE ENERGIE OF THE ION-ELECTRON SYSTEM (eV)
  ---------------------------------------------------
  free  energy   TOTEN  =      -958.32003811 eV

  energy  without entropy=     -958.32003811  energy(sigma->0) =     -958.32003811
 


--------------------------------------------------------------------------------------------------------


    POTLOK:  cpu time      1.9475: real time      1.9579


--------------------------------------------------------------------------------------------------------


 writing wavefunctions
     LOOP+:  cpu time   1749.4057: real time   1751.8057
    4ORBIT:  cpu time      0.0000: real time      0.0000

 total amount of memory used by VASP MPI-rank0  7500360. kBytes
=======================================================================

   base      :      30000. kBytes
   nonlr-proj:      47043. kBytes
   fftplans  :      51012. kBytes
   grid      :      90980. kBytes
   one-center:       1866. kBytes
   HF        :        129. kBytes
   wavefun   :    7050060. kBytes
   fock_wrk  :     229270. kBytes
 
  
  
 General timing and accounting informations for this job:
 ========================================================
  
                  Total CPU time used (sec):     1778.967
                            User time (sec):     1774.757
                          System time (sec):        4.210
                         Elapsed time (sec):     1785.151
  
                   Maximum memory used (kb):    12820800.
                   Average memory used (kb):          N/A
  
                          Minor page faults:       860391
                          Major page faults:            6
                 Voluntary context switches:        80302
