Ga48 O72                                
    1.000000000000000     
     0.0000000000000000   12.2804734172212839    0.0000000000000000
     9.1427020537309431    0.0000000000000000    0.0000000000000000
     0.0000000000000000   -2.7682617730220320  -11.3006977184464645
   Ga   O    N 
    48    71     1
Direct
  0.6596698596677654 -0.0003420718170598  0.1565254009897542
  0.6594713544340847 -0.0000576852989965  0.6569518483893154
  0.6596698596677654  0.3336754051503953  0.1565254009897542
  0.6594713544340847  0.3333910186323322  0.6569518483893154
  0.6588513875373949  0.6666666666666643  0.1564964113170883
  0.6588848798582397  0.6666666666666643  0.6572511364886007
  0.8446970533082419  0.1666666666666643  0.3465162425514687
  0.8417271557681735  0.1666666666666643  0.8442136930033471
  0.8411134118820022  0.4998637857235097  0.3431088860639272
  0.8415097010513892  0.4997035334881261  0.8437793225423235
  0.8411134118820022  0.8334695476098259  0.3431088860639272
  0.8415097010513892  0.8336297998452095  0.8437793225423235
  0.5929438191850765  0.1666666666666643  0.3971423847777761
  0.5908449497087257  0.1666666666666643  0.8975613765628714
  0.5918670713456764  0.4997195706203877  0.3977179322308093
  0.5901405632478436  0.5000004851104617  0.8970427774623032
  0.5918670713456764  0.8336137627129481  0.3977179322308093
  0.5901405632478436  0.8333328482228745  0.8970427774623032
  0.9095393680171961  0.0000869468189765  0.1039769600029160
  0.9081084517445687 -0.0000026481962619  0.6004160990326812
  0.9095393680171961  0.3332463865143592  0.1039769600029160
  0.9081084517445687  0.3333359815295976  0.6004160990326812
  0.9096491688846524  0.6666666666666643  0.1031586355298820
  0.9085680757783517  0.6666666666666643  0.6015185382248691
  0.1591235502371355  0.1666666666666643  0.1591982577973886
  0.1581775102503711  0.1666666666666643  0.6521815551604426
  0.1600625744342518  0.4993309674136837  0.1579045618461140
  0.1589938482345501  0.4994128391806102  0.6557867970458862
  0.1600625744342518  0.8340023659196520  0.1579045618461140
  0.1589938482345501  0.8339204941527256  0.6557867970458862
  0.3411410156783592 -0.0001768926608620  0.3439149042048262
  0.3400212267793482  0.0002485423757504  0.8427367026893442
  0.3411410156783592  0.3335102259941975  0.3439149042048262
  0.3400212267793482  0.3330847909575853  0.8427367026893442
  0.3423202985415920  0.6666666666666643  0.3432939333683231
  0.3403868460232136  0.6666666666666643  0.8432204907867261
  0.0858953435261427  0.0046157595174131  0.3962316182598403
  0.0916703430682027  0.0003871545980137  0.8981238847173351
  0.0858953435261427  0.3287175738159227  0.3962316182598403
  0.0916703430682027  0.3329461787353221  0.8981238847173351
  0.0917977892571071  0.6666666666666643  0.3980403004235786
  0.0915761375849665  0.6666666666666643  0.8983457635864162
  0.4087396589707417  0.1666666666666643  0.1024695441215818
  0.4091963089104074  0.1666666666666643  0.6027423395331708
  0.4094545096899451  0.4997418647332378  0.1022721614389848
  0.4090652071638616  0.4999182928241853  0.6029210463972962
  0.4094545096899451  0.8335914686000977  0.1022721614389848
  0.4090652071638616  0.8334150405091503  0.6029210463972962
  0.9964775552840147  0.1666666666666643  0.1201449261401423
  0.9956361268123721  0.1666666666666643  0.6299190251190968
  0.9972021970746526  0.5001410139787028  0.1271601992570211
  0.9961291361096350  0.4999617199617351  0.6271884848942084
  0.9972021970746526  0.8331923193546329  0.1271601992570211
  0.9961291361096350  0.8333716133716009  0.6271884848942084
  0.5044961346059930  0.0004589692504772  0.3728247335912350
  0.5030568716495504  0.0003005640041368  0.8723906974814885
  0.5044961346059930  0.3328743640828585  0.3728247335912350
  0.5030568716495504  0.3330327693291991  0.8723906974814885
  0.5046649325896055  0.6666666666666643  0.3731437710545495
  0.5028725624342266  0.6666666666666643  0.8719597844099806
  0.6745291464049368  0.1666666666666643  0.2803088909371296
  0.6729333060022773  0.1666666666666643  0.7809902200744592
  0.6712981447087933  0.5012736609515566  0.2794210433067352
  0.6727123156801782  0.5001428382833142  0.7809795457977606
  0.6712981447087933  0.8320596723817791  0.2794210433067352
  0.6727123156801782  0.8331904950500214  0.7809795457977606
  0.8248495233743208 -0.0054264532676041  0.2170135005121002
  0.8275698297319133 -0.0003681544964850  0.7195665706290414
  0.8248495233743208  0.3387597866009397  0.2170135005121002
  0.8275698297319133  0.3337014878298208  0.7195665706290414
  0.8268944048359181  0.6666666666666643  0.2188610657726219
  0.8275700983950929  0.6666666666666643  0.7195854353597388
  0.8246125799828519 -0.0038670365620160  0.4465806050699884
  0.8326269130248011 -0.0003429480622161  0.9462809977281097
  0.8246125799828519  0.3372003698953515  0.4465806050699884
  0.8326269130248011  0.3336762813955518  0.9462809977281097
  0.8301547231261464  0.6666666666666643  0.4455450997118611
  0.8330973683766487  0.6666666666666643  0.9461176384049595
  0.6676852534413705  0.1666666666666643  0.0537347281148325
  0.6669884725709113  0.1666666666666643  0.5548204751461151
  0.6661668138563764  0.5006474325218533  0.0531418579331609
  0.6664851771398014  0.5004991772765066  0.5549949169624505
  0.6661668138563764  0.8326859008114824  0.0531418579331609
  0.6664851771398014  0.8328341560568291  0.5549949169624505
  0.4966806674807460  0.0004286146450249  0.1268928342283581
  0.4966708912995587 -0.0000005824844376  0.6284303347583358
  0.4966806674807460  0.3329047186883107  0.1268928342283581
  0.4966708912995587  0.3333339158177736  0.6284303347583358
  0.4961246002576700  0.6666666666666643  0.1263359759051804
  0.4963678053792449  0.6666666666666643  0.6286677659985505
  0.0039074947760153  0.1666666666666643  0.8722390381995333
  0.0033981812761879  0.5021589585236403  0.3736882751912750
  0.0041693739532887  0.4999329203595266  0.8730704384600556
  0.0033981812761879  0.8311743748096954  0.3736882751912750
  0.0041693739532887  0.8334004129738093  0.8730704384600556
  0.1744101807906910 -0.0023770469581318  0.2808517890041309
  0.1724518826452286  0.0000474364288854  0.7803069782657709
  0.1744101807906910  0.3357103802914674  0.2808517890041309
  0.1724518826452286  0.3332858969044502  0.7803069782657709
  0.1739422904900410  0.6666666666666643  0.2811768555761754
  0.1724215792289470  0.6666666666666643  0.7805306856089327
  0.3283267768469610  0.1666666666666643  0.2200569846457884
  0.3272974485261573  0.1666666666666643  0.7194122280352417
  0.3290749840370440  0.5006415308937014  0.2198206879307753
  0.3280258797706135  0.5003058439454258  0.7203068375363719
  0.3290749840370440  0.8326918024396343  0.2198206879307753
  0.3280258797706135  0.8330274893879099  0.7203068375363719
  0.3338611810860211  0.1666666666666643  0.4461763752656940
  0.3322046536092079  0.1666666666666643  0.9457639896807720
  0.3344719942539454  0.5005761337076766  0.4461461859154823
  0.3321922818328920  0.4998141744952762  0.9458483809303883
  0.3344719942539454  0.8327571996256591  0.4461461859154823
  0.3321922818328920  0.8335191588380595  0.9458483809303883
  0.1690436965715899  0.0002826891656426  0.0545293489429490
  0.1702973574195895 -0.0023723363825712  0.5540096230789814
  0.1690436965715899  0.3330506441676928  0.0545293489429490
  0.1702973574195895  0.3357056697159068  0.5540096230789814
  0.1684950700324438  0.6666666666666643  0.0549362453674405
  0.1692228421318416  0.6666666666666643  0.5547961475714793
 -0.0007939989134090  0.1666666666666643  0.3697145032265322
 
  0.00000000E+00  0.00000000E+00  0.00000000E+00
  0.00000000E+00  0.00000000E+00  0.00000000E+00
  0.00000000E+00  0.00000000E+00  0.00000000E+00
  0.00000000E+00  0.00000000E+00  0.00000000E+00
  0.00000000E+00  0.00000000E+00  0.00000000E+00
  0.00000000E+00  0.00000000E+00  0.00000000E+00
  0.00000000E+00  0.00000000E+00  0.00000000E+00
  0.00000000E+00  0.00000000E+00  0.00000000E+00
  0.00000000E+00  0.00000000E+00  0.00000000E+00
  0.00000000E+00  0.00000000E+00  0.00000000E+00
  0.00000000E+00  0.00000000E+00  0.00000000E+00
  0.00000000E+00  0.00000000E+00  0.00000000E+00
  0.00000000E+00  0.00000000E+00  0.00000000E+00
  0.00000000E+00  0.00000000E+00  0.00000000E+00
  0.00000000E+00  0.00000000E+00  0.00000000E+00
  0.00000000E+00  0.00000000E+00  0.00000000E+00
  0.00000000E+00  0.00000000E+00  0.00000000E+00
  0.00000000E+00  0.00000000E+00  0.00000000E+00
  0.00000000E+00  0.00000000E+00  0.00000000E+00
  0.00000000E+00  0.00000000E+00  0.00000000E+00
  0.00000000E+00  0.00000000E+00  0.00000000E+00
  0.00000000E+00  0.00000000E+00  0.00000000E+00
  0.00000000E+00  0.00000000E+00  0.00000000E+00
  0.00000000E+00  0.00000000E+00  0.00000000E+00
  0.00000000E+00  0.00000000E+00  0.00000000E+00
  0.00000000E+00  0.00000000E+00  0.00000000E+00
  0.00000000E+00  0.00000000E+00  0.00000000E+00
  0.00000000E+00  0.00000000E+00  0.00000000E+00
  0.00000000E+00  0.00000000E+00  0.00000000E+00
  0.00000000E+00  0.00000000E+00  0.00000000E+00
  0.00000000E+00  0.00000000E+00  0.00000000E+00
  0.00000000E+00  0.00000000E+00  0.00000000E+00
  0.00000000E+00  0.00000000E+00  0.00000000E+00
  0.00000000E+00  0.00000000E+00  0.00000000E+00
  0.00000000E+00  0.00000000E+00  0.00000000E+00
  0.00000000E+00  0.00000000E+00  0.00000000E+00
  0.00000000E+00  0.00000000E+00  0.00000000E+00
  0.00000000E+00  0.00000000E+00  0.00000000E+00
  0.00000000E+00  0.00000000E+00  0.00000000E+00
  0.00000000E+00  0.00000000E+00  0.00000000E+00
  0.00000000E+00  0.00000000E+00  0.00000000E+00
  0.00000000E+00  0.00000000E+00  0.00000000E+00
  0.00000000E+00  0.00000000E+00  0.00000000E+00
  0.00000000E+00  0.00000000E+00  0.00000000E+00
  0.00000000E+00  0.00000000E+00  0.00000000E+00
  0.00000000E+00  0.00000000E+00  0.00000000E+00
  0.00000000E+00  0.00000000E+00  0.00000000E+00
  0.00000000E+00  0.00000000E+00  0.00000000E+00
  0.00000000E+00  0.00000000E+00  0.00000000E+00
  0.00000000E+00  0.00000000E+00  0.00000000E+00
  0.00000000E+00  0.00000000E+00  0.00000000E+00
  0.00000000E+00  0.00000000E+00  0.00000000E+00
  0.00000000E+00  0.00000000E+00  0.00000000E+00
  0.00000000E+00  0.00000000E+00  0.00000000E+00
  0.00000000E+00  0.00000000E+00  0.00000000E+00
  0.00000000E+00  0.00000000E+00  0.00000000E+00
  0.00000000E+00  0.00000000E+00  0.00000000E+00
  0.00000000E+00  0.00000000E+00  0.00000000E+00
  0.00000000E+00  0.00000000E+00  0.00000000E+00
  0.00000000E+00  0.00000000E+00  0.00000000E+00
  0.00000000E+00  0.00000000E+00  0.00000000E+00
  0.00000000E+00  0.00000000E+00  0.00000000E+00
  0.00000000E+00  0.00000000E+00  0.00000000E+00
  0.00000000E+00  0.00000000E+00  0.00000000E+00
  0.00000000E+00  0.00000000E+00  0.00000000E+00
  0.00000000E+00  0.00000000E+00  0.00000000E+00
  0.00000000E+00  0.00000000E+00  0.00000000E+00
  0.00000000E+00  0.00000000E+00  0.00000000E+00
  0.00000000E+00  0.00000000E+00  0.00000000E+00
  0.00000000E+00  0.00000000E+00  0.00000000E+00
  0.00000000E+00  0.00000000E+00  0.00000000E+00
  0.00000000E+00  0.00000000E+00  0.00000000E+00
  0.00000000E+00  0.00000000E+00  0.00000000E+00
  0.00000000E+00  0.00000000E+00  0.00000000E+00
  0.00000000E+00  0.00000000E+00  0.00000000E+00
  0.00000000E+00  0.00000000E+00  0.00000000E+00
  0.00000000E+00  0.00000000E+00  0.00000000E+00
  0.00000000E+00  0.00000000E+00  0.00000000E+00
  0.00000000E+00  0.00000000E+00  0.00000000E+00
  0.00000000E+00  0.00000000E+00  0.00000000E+00
  0.00000000E+00  0.00000000E+00  0.00000000E+00
  0.00000000E+00  0.00000000E+00  0.00000000E+00
  0.00000000E+00  0.00000000E+00  0.00000000E+00
  0.00000000E+00  0.00000000E+00  0.00000000E+00
  0.00000000E+00  0.00000000E+00  0.00000000E+00
  0.00000000E+00  0.00000000E+00  0.00000000E+00
  0.00000000E+00  0.00000000E+00  0.00000000E+00
  0.00000000E+00  0.00000000E+00  0.00000000E+00
  0.00000000E+00  0.00000000E+00  0.00000000E+00
  0.00000000E+00  0.00000000E+00  0.00000000E+00
  0.00000000E+00  0.00000000E+00  0.00000000E+00
  0.00000000E+00  0.00000000E+00  0.00000000E+00
  0.00000000E+00  0.00000000E+00  0.00000000E+00
  0.00000000E+00  0.00000000E+00  0.00000000E+00
  0.00000000E+00  0.00000000E+00  0.00000000E+00
  0.00000000E+00  0.00000000E+00  0.00000000E+00
  0.00000000E+00  0.00000000E+00  0.00000000E+00
  0.00000000E+00  0.00000000E+00  0.00000000E+00
  0.00000000E+00  0.00000000E+00  0.00000000E+00
  0.00000000E+00  0.00000000E+00  0.00000000E+00
  0.00000000E+00  0.00000000E+00  0.00000000E+00
  0.00000000E+00  0.00000000E+00  0.00000000E+00
  0.00000000E+00  0.00000000E+00  0.00000000E+00
  0.00000000E+00  0.00000000E+00  0.00000000E+00
  0.00000000E+00  0.00000000E+00  0.00000000E+00
  0.00000000E+00  0.00000000E+00  0.00000000E+00
  0.00000000E+00  0.00000000E+00  0.00000000E+00
  0.00000000E+00  0.00000000E+00  0.00000000E+00
  0.00000000E+00  0.00000000E+00  0.00000000E+00
  0.00000000E+00  0.00000000E+00  0.00000000E+00
  0.00000000E+00  0.00000000E+00  0.00000000E+00
  0.00000000E+00  0.00000000E+00  0.00000000E+00
  0.00000000E+00  0.00000000E+00  0.00000000E+00
  0.00000000E+00  0.00000000E+00  0.00000000E+00
  0.00000000E+00  0.00000000E+00  0.00000000E+00
  0.00000000E+00  0.00000000E+00  0.00000000E+00
  0.00000000E+00  0.00000000E+00  0.00000000E+00
  0.00000000E+00  0.00000000E+00  0.00000000E+00
  0.00000000E+00  0.00000000E+00  0.00000000E+00
  0.00000000E+00  0.00000000E+00  0.00000000E+00
