Ga48 O72                                
    1.000000000000000     
     0.0000000000000000   12.2804734172212839    0.0000000000000000
     9.1427020537309431    0.0000000000000000    0.0000000000000000
     0.0000000000000000   -2.7682617730220320  -11.3006977184464645
   Ga   O    P 
    47    71     1
Direct
  0.6561870076317979 -0.0026828455402197  0.1551252548936976
  0.6602753562097345  0.0017868244456494  0.6568547515991566
  0.6569436734155245  0.3322089190164592  0.1569658309275486
  0.6593490678343201  0.3353782054031590  0.6570470768263191
  0.6589192198515109  0.6657695713375247  0.1580920006688184
  0.6598385046082653  0.6682711255600341  0.6567206182912609
  0.8334896078868891  0.1564200630575582  0.3408375011536018
  0.8412786337232478  0.1682111762003898  0.8438615328091564
  0.8469425393805765  0.4942078767970410  0.3426467297460724
  0.8407170385182802  0.5019080974164861  0.8435531837402253
  0.8461933098293025  0.8289917735993800  0.3441642911007757
  0.8417242420257091  0.8356743192938031  0.8441042393027587
  0.5883555260829635  0.1673245540568013  0.3983100944505480
  0.5901153612157508  0.1673634328892417  0.8973430047132114
  0.5913812742590182  0.5023240506440998  0.3971210357621469
  0.5887770474019777  0.5013159980161228  0.8968572197311863
  0.5925733028573278  0.8350071755138000  0.3973312955946949
  0.5909095386189166  0.8342786620380035  0.8973948053297655
  0.9100513751516891  0.0021002075744526  0.1045428845549762
  0.9086425153802367  0.0008705723228695  0.6015428070088242
  0.9090296856645280  0.3358668651729277  0.1030789545753100
  0.9093899808218403  0.3345064216090991  0.6026145661830350
  0.9078613964241103  0.6669534501017261  0.1015832910050503
  0.9078497865049622  0.6662964753789724  0.6013269813200303
  0.1580405676425257  0.1736670164246751  0.1579969289947363
  0.1587008679350741  0.1741753836213591  0.6555581727056823
  0.1600461110427820  0.5022466885535389  0.1570632782010939
  0.1592231827545604  0.5047242650917367  0.6557922493848856
  0.1549234406042085  0.8300074239628176  0.1563265515686914
  0.1551017942534974  0.8351022780408894  0.6488492907313729
  0.3393084964121934  0.0034249682320166  0.3477972713725994
  0.3395840988892370  0.0013888281075499  0.8400460049459788
  0.3416790299232202  0.3380405741621193  0.3434291743703767
  0.3394500701633047  0.3355819875311107  0.8442762071296422
  0.3404657186577899  0.6698135922834149  0.3441885027547376
  0.3388488494312338  0.6687037619481017  0.8426889751522245
  0.0926599955056318  0.0017884821958357  0.8974765196186568
  0.0987593912086916  0.3115587023447453  0.4006559345308682
  0.0906601312164471  0.3358627441985559  0.8975000705479028
  0.0876025710872242  0.6643307820000445  0.3951839988688484
  0.0909529497938436  0.6680669000920658  0.8961886240649291
  0.4057642035671134  0.1658059529433415  0.1019855359580195
  0.4111433547310413  0.1700779676754637  0.6035849468163769
  0.4094108229695441  0.5018122325703191  0.1021797483609606
  0.4083804028250270  0.5029091449135312  0.6032151496713448
  0.4042110798521514  0.8348075214327085  0.1022757601688840
  0.4111734391572767  0.8357343619227171  0.6023303417784152
  0.9966526351270235  0.1697889608675966  0.1388852659895648
  0.9964762541958312  0.1678234474258232  0.6227711162480268
  0.9965731301933207  0.5017570589120494  0.1255758177386777
  0.9963895565885623  0.5008352174024193  0.6277886299427446
  0.9948552729326178  0.8337009748648412  0.1267978278441695
  0.9949809818156531  0.8337535330775699  0.6270890461216151
  0.5026517528666746 -0.0000875087197156  0.3729143880663908
  0.5024154137984905  0.0004555321138130  0.8720872623725774
  0.5032916442830528  0.3356013124685424  0.3719777936713216
  0.5016962961608212  0.3335619498106079  0.8721372884754869
  0.5036891478393886  0.6692327176483240  0.3721710478154453
  0.5016129251282508  0.6691359211511437  0.8718686728785601
  0.6690380215183148  0.1651248586598016  0.2800293956235243
  0.6729312911679216  0.1686821469281817  0.7811860163690403
  0.6739090610914048  0.4965316216326203  0.2808601695241570
  0.6723844829217737  0.5016657319187825  0.7810440715026096
  0.6741451309050703  0.8316169077712301  0.2803981121173080
  0.6733898679045325  0.8359682164481498  0.7810842337052388
  0.8247913509160187 -0.0011249908498933  0.2182887519247083
  0.8284374269204022  0.0026443743897565  0.7199928526680791
  0.8282909141096879  0.3266751232542845  0.2205402185080961
  0.8278052842776125  0.3347844706680826  0.7194704382173956
  0.8276405761412510  0.6618435746496998  0.2188691896605959
  0.8276321633456405  0.6686068804106089  0.7196313244312572
  0.8274696213616607 -0.0043454898432857  0.4463945847817101
  0.8344050558213847  0.0026318810525317  0.9474199179295186
  0.8404269112514215  0.3235094540486189  0.4435618159681771
  0.8332838948727519  0.3345142898358558  0.9463776834741049
  0.8325757223233098  0.6602226102654758  0.4446319831403441
  0.8315188100904922  0.6685200674956099  0.9451990149601036
  0.6656269145950148  0.1660308587172499  0.0542714008076956
  0.6678453570951483  0.1689796262519832  0.5541225668052929
  0.6650221713812684  0.4990174133731372  0.0540940299383706
  0.6690541552907117  0.5010263964537732  0.5538702619393775
  0.6677796106381878  0.8319578861440123  0.0538084444240407
  0.6684771187599726  0.8347043998118330  0.5545194809517013
  0.4938066468934260 -0.0005373244959045  0.1266722933332164
  0.4978951809239278  0.0027707228308941  0.6281546287461557
  0.4936520676672072  0.3322125462261927  0.1267788429932596
  0.4971216224693661  0.3370540319259387  0.6286982752812770
  0.4948069467926451  0.6703703962858125  0.1273236312726190
  0.4973449481417187  0.6687963418950200  0.6282341347870338
  0.0044641766213202  0.1680395606536436  0.8736695945497880
  0.0095102432960438  0.4866237784954741  0.3735821844319443
  0.0030114051745233  0.5020223473816814  0.8721062307399651
  0.0050379620571288  0.8329802416950026  0.3736441142702472
  0.0046385826630415  0.8356695250114409  0.8730321631043927
  0.1565343311407874  0.0120386676420548  0.3009071670031622
  0.1689258848437634  0.0024701032032121  0.7724504815826739
  0.1770537944612637  0.3404302550446337  0.2773213004032771
  0.1725746697866830  0.3357346763188860  0.7815133000777083
  0.1724230355827796  0.6688683573599311  0.2794653384886208
  0.1717665036369284  0.6695559359395691  0.7786308277672583
  0.3242184220686885  0.1622151243378475  0.2204583895117651
  0.3256630541182138  0.1651232078378378  0.7170418100859977
  0.3292951257042701  0.5051090008236809  0.2195928804301903
  0.3286032898420614  0.5039969074779379  0.7215174877943386
  0.3209951174215711  0.8420972313516499  0.2204071298263483
  0.3225361780779970  0.8403712962645228  0.7131509694978801
  0.3354665420414493  0.1713116218194657  0.4470755622998268
  0.3288683286518333  0.1659225106284221  0.9445592773706103
  0.3335742339855802  0.5036998140700198  0.4464098442007235
  0.3313968652961430  0.5022479023357144  0.9461793005810436
  0.3326909306843360  0.8361934161730218  0.4466175477014716
  0.3282980575892521  0.8363899830403838  0.9439337926118855
  0.1618222501433204  0.0022681658003297  0.0592208981735370
  0.1457989507407194  0.0122205807002306  0.5278373009963426
  0.1682215316833000  0.3353225041489667  0.0532032871235086
  0.1753102924783240  0.3403325040860511  0.5595225383870484
  0.1681960949186425  0.6679789728192150  0.0528896027703412
  0.1680069340058117  0.6690466465417887  0.5521245225911386
  0.0719439118431055  0.0477204876642758  0.3913410436909770
 
  0.00000000E+00  0.00000000E+00  0.00000000E+00
  0.00000000E+00  0.00000000E+00  0.00000000E+00
  0.00000000E+00  0.00000000E+00  0.00000000E+00
  0.00000000E+00  0.00000000E+00  0.00000000E+00
  0.00000000E+00  0.00000000E+00  0.00000000E+00
  0.00000000E+00  0.00000000E+00  0.00000000E+00
  0.00000000E+00  0.00000000E+00  0.00000000E+00
  0.00000000E+00  0.00000000E+00  0.00000000E+00
  0.00000000E+00  0.00000000E+00  0.00000000E+00
  0.00000000E+00  0.00000000E+00  0.00000000E+00
  0.00000000E+00  0.00000000E+00  0.00000000E+00
  0.00000000E+00  0.00000000E+00  0.00000000E+00
  0.00000000E+00  0.00000000E+00  0.00000000E+00
  0.00000000E+00  0.00000000E+00  0.00000000E+00
  0.00000000E+00  0.00000000E+00  0.00000000E+00
  0.00000000E+00  0.00000000E+00  0.00000000E+00
  0.00000000E+00  0.00000000E+00  0.00000000E+00
  0.00000000E+00  0.00000000E+00  0.00000000E+00
  0.00000000E+00  0.00000000E+00  0.00000000E+00
  0.00000000E+00  0.00000000E+00  0.00000000E+00
  0.00000000E+00  0.00000000E+00  0.00000000E+00
  0.00000000E+00  0.00000000E+00  0.00000000E+00
  0.00000000E+00  0.00000000E+00  0.00000000E+00
  0.00000000E+00  0.00000000E+00  0.00000000E+00
  0.00000000E+00  0.00000000E+00  0.00000000E+00
  0.00000000E+00  0.00000000E+00  0.00000000E+00
  0.00000000E+00  0.00000000E+00  0.00000000E+00
  0.00000000E+00  0.00000000E+00  0.00000000E+00
  0.00000000E+00  0.00000000E+00  0.00000000E+00
  0.00000000E+00  0.00000000E+00  0.00000000E+00
  0.00000000E+00  0.00000000E+00  0.00000000E+00
  0.00000000E+00  0.00000000E+00  0.00000000E+00
  0.00000000E+00  0.00000000E+00  0.00000000E+00
  0.00000000E+00  0.00000000E+00  0.00000000E+00
  0.00000000E+00  0.00000000E+00  0.00000000E+00
  0.00000000E+00  0.00000000E+00  0.00000000E+00
  0.00000000E+00  0.00000000E+00  0.00000000E+00
  0.00000000E+00  0.00000000E+00  0.00000000E+00
  0.00000000E+00  0.00000000E+00  0.00000000E+00
  0.00000000E+00  0.00000000E+00  0.00000000E+00
  0.00000000E+00  0.00000000E+00  0.00000000E+00
  0.00000000E+00  0.00000000E+00  0.00000000E+00
  0.00000000E+00  0.00000000E+00  0.00000000E+00
  0.00000000E+00  0.00000000E+00  0.00000000E+00
  0.00000000E+00  0.00000000E+00  0.00000000E+00
  0.00000000E+00  0.00000000E+00  0.00000000E+00
  0.00000000E+00  0.00000000E+00  0.00000000E+00
  0.00000000E+00  0.00000000E+00  0.00000000E+00
  0.00000000E+00  0.00000000E+00  0.00000000E+00
  0.00000000E+00  0.00000000E+00  0.00000000E+00
  0.00000000E+00  0.00000000E+00  0.00000000E+00
  0.00000000E+00  0.00000000E+00  0.00000000E+00
  0.00000000E+00  0.00000000E+00  0.00000000E+00
  0.00000000E+00  0.00000000E+00  0.00000000E+00
  0.00000000E+00  0.00000000E+00  0.00000000E+00
  0.00000000E+00  0.00000000E+00  0.00000000E+00
  0.00000000E+00  0.00000000E+00  0.00000000E+00
  0.00000000E+00  0.00000000E+00  0.00000000E+00
  0.00000000E+00  0.00000000E+00  0.00000000E+00
  0.00000000E+00  0.00000000E+00  0.00000000E+00
  0.00000000E+00  0.00000000E+00  0.00000000E+00
  0.00000000E+00  0.00000000E+00  0.00000000E+00
  0.00000000E+00  0.00000000E+00  0.00000000E+00
  0.00000000E+00  0.00000000E+00  0.00000000E+00
  0.00000000E+00  0.00000000E+00  0.00000000E+00
  0.00000000E+00  0.00000000E+00  0.00000000E+00
  0.00000000E+00  0.00000000E+00  0.00000000E+00
  0.00000000E+00  0.00000000E+00  0.00000000E+00
  0.00000000E+00  0.00000000E+00  0.00000000E+00
  0.00000000E+00  0.00000000E+00  0.00000000E+00
  0.00000000E+00  0.00000000E+00  0.00000000E+00
  0.00000000E+00  0.00000000E+00  0.00000000E+00
  0.00000000E+00  0.00000000E+00  0.00000000E+00
  0.00000000E+00  0.00000000E+00  0.00000000E+00
  0.00000000E+00  0.00000000E+00  0.00000000E+00
  0.00000000E+00  0.00000000E+00  0.00000000E+00
  0.00000000E+00  0.00000000E+00  0.00000000E+00
  0.00000000E+00  0.00000000E+00  0.00000000E+00
  0.00000000E+00  0.00000000E+00  0.00000000E+00
  0.00000000E+00  0.00000000E+00  0.00000000E+00
  0.00000000E+00  0.00000000E+00  0.00000000E+00
  0.00000000E+00  0.00000000E+00  0.00000000E+00
  0.00000000E+00  0.00000000E+00  0.00000000E+00
  0.00000000E+00  0.00000000E+00  0.00000000E+00
  0.00000000E+00  0.00000000E+00  0.00000000E+00
  0.00000000E+00  0.00000000E+00  0.00000000E+00
  0.00000000E+00  0.00000000E+00  0.00000000E+00
  0.00000000E+00  0.00000000E+00  0.00000000E+00
  0.00000000E+00  0.00000000E+00  0.00000000E+00
  0.00000000E+00  0.00000000E+00  0.00000000E+00
  0.00000000E+00  0.00000000E+00  0.00000000E+00
  0.00000000E+00  0.00000000E+00  0.00000000E+00
  0.00000000E+00  0.00000000E+00  0.00000000E+00
  0.00000000E+00  0.00000000E+00  0.00000000E+00
  0.00000000E+00  0.00000000E+00  0.00000000E+00
  0.00000000E+00  0.00000000E+00  0.00000000E+00
  0.00000000E+00  0.00000000E+00  0.00000000E+00
  0.00000000E+00  0.00000000E+00  0.00000000E+00
  0.00000000E+00  0.00000000E+00  0.00000000E+00
  0.00000000E+00  0.00000000E+00  0.00000000E+00
  0.00000000E+00  0.00000000E+00  0.00000000E+00
  0.00000000E+00  0.00000000E+00  0.00000000E+00
  0.00000000E+00  0.00000000E+00  0.00000000E+00
  0.00000000E+00  0.00000000E+00  0.00000000E+00
  0.00000000E+00  0.00000000E+00  0.00000000E+00
  0.00000000E+00  0.00000000E+00  0.00000000E+00
  0.00000000E+00  0.00000000E+00  0.00000000E+00
  0.00000000E+00  0.00000000E+00  0.00000000E+00
  0.00000000E+00  0.00000000E+00  0.00000000E+00
  0.00000000E+00  0.00000000E+00  0.00000000E+00
  0.00000000E+00  0.00000000E+00  0.00000000E+00
  0.00000000E+00  0.00000000E+00  0.00000000E+00
  0.00000000E+00  0.00000000E+00  0.00000000E+00
  0.00000000E+00  0.00000000E+00  0.00000000E+00
  0.00000000E+00  0.00000000E+00  0.00000000E+00
  0.00000000E+00  0.00000000E+00  0.00000000E+00
  0.00000000E+00  0.00000000E+00  0.00000000E+00
  0.00000000E+00  0.00000000E+00  0.00000000E+00
  0.00000000E+00  0.00000000E+00  0.00000000E+00
