       N       E                     dE             d eps       ncg     rms          ort
DAV:   1    -0.183749236588E+05   -0.18375E+05   -0.54602E+05  5056   0.743E+03
DAV:   2    -0.622965992871E+05   -0.43922E+05   -0.42622E+05  5056   0.120E+03
DAV:   3    -0.668296762260E+05   -0.45331E+04   -0.40542E+04  5056   0.351E+02
DAV:   4    -0.673785842565E+05   -0.54891E+03   -0.45935E+03  5056   0.104E+02
DAV:   5    -0.373231215139E+05    0.30055E+05   -0.72988E+02  5056   0.537E+01
SDA:   6     0.202315157487E+05    0.57555E+05   -0.72988E+02  5056   0.148E+06 0.000E+00
CGA:   7     0.541076836400E+04   -0.14821E+05   -0.17740E+05  5056   0.239E+05 0.215E+05
CGA:   8     0.165425761149E+04   -0.37565E+04   -0.29558E+04  5056   0.118E+05-0.430E+04
CGA:   9     0.767612446818E+03   -0.88665E+03   -0.94107E+03  5056   0.830E+04 0.152E+04
CGA:  10     0.274566526295E+03   -0.49305E+03   -0.65269E+03  5056   0.516E+04-0.143E+04
CGA:  11    -0.274914704389E+03   -0.54948E+03   -0.55411E+03  5056   0.215E+04-0.152E+03
CGA:  12    -0.612345087114E+03   -0.33743E+03   -0.34283E+03  5056   0.761E+03 0.157E+03
CGA:  13    -0.782780288283E+03   -0.17044E+03   -0.16939E+03  5056   0.309E+03 0.195E+02
CGA:  14    -0.861669697827E+03   -0.78889E+02   -0.77689E+02  5056   0.182E+03 0.438E+01
CGA:  15    -0.906867551262E+03   -0.45198E+02   -0.46319E+02  5056   0.103E+03-0.149E+02
CGA:  16    -0.926980761553E+03   -0.20113E+02   -0.19918E+02  5056   0.529E+02 0.473E+00
CGA:  17    -0.937201932952E+03   -0.10221E+02   -0.10195E+02  5056   0.231E+02 0.292E+01
CGA:  18    -0.942727744175E+03   -0.55258E+01   -0.55292E+01  5056   0.103E+02-0.110E+00
CGA:  19    -0.945331204154E+03   -0.26035E+01   -0.26047E+01  5056   0.532E+01-0.283E-01
CGA:  20    -0.946651820579E+03   -0.13206E+01   -0.13230E+01  5056   0.261E+01-0.335E-01
CGA:  21    -0.947299148701E+03   -0.64733E+00   -0.64805E+00  5056   0.140E+01-0.925E-02
CGA:  22    -0.947628223485E+03   -0.32907E+00   -0.32911E+00  5056   0.663E+00 0.226E-03
CGA:  23    -0.947780760596E+03   -0.15254E+00   -0.15249E+00  5056   0.291E+00 0.991E-03
CGA:  24    -0.947859200492E+03   -0.78440E-01   -0.78392E-01  5056   0.160E+00 0.511E-03
CGA:  25    -0.947901757281E+03   -0.42557E-01   -0.42547E-01  5056   0.887E-01 0.109E-03
CGA:  26    -0.947922681934E+03   -0.20925E-01   -0.20930E-01  5056   0.471E-01-0.170E-03
CGA:  27    -0.947933750206E+03   -0.11068E-01   -0.11073E-01  5056   0.239E-01-0.167E-03
CGA:  28    -0.947939167414E+03   -0.54172E-02   -0.54179E-02  5056   0.111E-01-0.372E-04
CGA:  29    -0.947941877802E+03   -0.27104E-02   -0.27101E-02  5056   0.552E-02 0.100E-04
CGA:  30    -0.947943396638E+03   -0.15188E-02   -0.15189E-02  5056   0.284E-02-0.141E-05
CGA:  31    -0.947944171192E+03   -0.77455E-03   -0.77545E-03  5056   0.158E-02-0.156E-04
CGA:  32    -0.947944566427E+03   -0.39524E-03   -0.39549E-03  5056   0.885E-03-0.736E-05
CGA:  33    -0.947944773442E+03   -0.20701E-03   -0.20692E-03  5056   0.424E-03 0.679E-05
CGA:  34    -0.947944877227E+03   -0.10378E-03   -0.10353E-03  5056   0.204E-03 0.124E-04
CGA:  35    -0.947944930807E+03   -0.53580E-04   -0.53293E-04  5056   0.101E-03 0.906E-05
CGA:  36    -0.947944959437E+03   -0.28630E-04   -0.28462E-04  5056   0.526E-04 0.371E-05
SDA:  37    -0.947944974883E+03   -0.15446E-04   -0.15437E-04  5056   0.302E-04 0.152E-06
CGA:  38    -0.947944986058E+03   -0.11175E-04   -0.11368E-04  5056   0.122E-04-0.131E-05
CGA:  39    -0.947944989167E+03   -0.31098E-05   -0.31475E-05  5056   0.752E-05-0.113E-05
   1 F= -.94794499E+03 E0= -.94794499E+03  d E =-.937314E-12
