 vasp.6.4.2 20Jul23 (build Nov 12 2023 22:16:35) complex                         
 executed on              LinuxNV date 2025.05.31  20:18:29
 running    4 mpi-ranks, on    1 nodes
 distrk:  each k-point on    1 cores,    4 groups
 distr:  one band on NCORE=   1 cores,    1 groups
 OpenACC runtime initialized ...    4 GPUs detected


--------------------------------------------------------------------------------------------------------


 INCAR:
   PREC = Normal
   ENCUT = 450
   NELM = 300
   IBRION = -1
   ISPIN = 1
   NSW = 0
   ISIF = 2
   EDIFF = 1E-5
   EDIFFG = -5E-3
   ISTART = 0
   ICHARG = 0
   ISMEAR = 0
   SIGMA = 0.05
   LWAVE = .T.
   LCHARG = .T.
   LREAL = Auto
   LPLANE = .TRUE.
   NPAR = 1
   KPAR = 4
   NCORE = 1
   ICORELEVEL = 1
   ISYM = 0

 POTCAR:    PAW_PBE Zn 06Sep2000                  
 POTCAR:    PAW_PBE Zn 06Sep2000                  
   SHA256 =  501fddbd8274dd8e9725d4f3de27861d7f1e553a7e18441bc79fed8f346e7f23 Zn/POTCAR             
   COPYR  = (c) Copyright 06Sep2000 Georg Kresse                                                    
   COPYR  = This file is part of the software VASP. Any use, copying, and all other rights are regul
   COPYR  = If you do not have a valid VASP license, you may not use, copy or distribute this file. 
   VRHFIN =Zn: d10 p2                                                                               
   LEXCH  = PE                                                                                      
   EATOM  =  1748.8345 eV,  128.5357 Ry                                                             
                                                                                                    
   TITEL  = PAW_PBE Zn 06Sep2000                                                                    
   LULTRA =        F    use ultrasoft PP ?                                                          
   IUNSCR =        1    unscreen: 0-lin 1-nonlin 2-no                                               
   RPACOR =    2.000    partial core radius                                                         
   POMASS =   65.390; ZVAL   =   12.000    mass and valenz                                          
   RCORE  =    2.300    outmost cutoff radius                                                       
   RWIGS  =    2.400; RWIGS  =    1.270    wigner-seitz radius (au A)                               
   ENMAX  =  276.723; ENMIN  =  207.542 eV                                                          
   RCLOC  =    1.828    cutoff for local pot                                                        
   LCOR   =        T    correct aug charges                                                         
   LPAW   =        T    paw PP                                                                      
   EAUG   =  575.892                                                                                
   DEXC   =    0.000                                                                                
   RMAX   =    2.347    core radius for proj-oper                                                   
   RAUG   =    1.300    factor for augmentation sphere                                              
   RDEP   =    2.324    radius for radial grids                                                     
   RDEPT  =    1.788    core radius for aug-charge                                                  
                                                                                                    
   Atomic configuration                                                                             
    9 entries                                                                                       
     n  l   j            E        occ.                                                              
     1  0  0.50     -9524.6913   2.0000                                                             
     2  0  0.50     -1158.1882   2.0000                                                             
     2  1  1.50     -1003.8506   6.0000                                                             
     3  0  0.50      -129.2194   2.0000                                                             
     3  1  1.50       -83.3890   6.0000                                                             
     3  2  2.50       -10.1410  10.0000                                                             
     4  0  0.50        -5.9785   2.0000                                                             
     4  1  0.50        -4.0817   0.0000                                                             
     4  3  2.50        -1.3606   0.0000                                                             
   Description                                                                                      
     l       E           TYP  RCUT    TYP  RCUT                                                     
     2    -10.1410010     23  2.300                                                                 
     2    -11.5015836     23  2.300                                                                 
     0     -5.9785163     23  2.300                                                                 
     0      1.1858015     23  2.300                                                                 
     1     -2.7211652     23  2.300                                                                 
     1     13.2444212     23  2.300                                                                 
  local pseudopotential read in
  partial core-charges read in
  partial kinetic energy density read in
  atomic valenz-charges read in
  non local Contribution for L=            2  read in
    real space projection operators read in
  non local Contribution for L=            2  read in
    real space projection operators read in
  non local Contribution for L=            0  read in
    real space projection operators read in
  non local Contribution for L=            0  read in
    real space projection operators read in
  non local Contribution for L=            1  read in
    real space projection operators read in
  non local Contribution for L=            1  read in
    real space projection operators read in
    PAW grid and wavefunctions read in
 
   number of l-projection  operators is LMAX  =            6
   number of lm-projection operators is LMMAX =           18
 
 -----------------------------------------------------------------------------
|                                                                             |
|               ----> ADVICE to this user running VASP <----                  |
|                                                                             |
|     You have a (more or less) 'small supercell' and for smaller cells       |
|     it is recommended to use the reciprocal-space projection scheme!        |
|     The real-space optimization is not efficient for small cells and it     |
|     is also less accurate ...                                               |
|     Therefore, set LREAL=.FALSE. in the INCAR file.                         |
|                                                                             |
 -----------------------------------------------------------------------------

 Optimization of the real space projectors (new method)

 maximal supplied QI-value         = 16.25
 optimisation between [QCUT,QGAM] = [ 10.73, 21.61] = [ 32.22,130.83] Ry 
 Optimized for a Real-space Cutoff    1.38 Angstroem

   l    n(q)    QCUT    max X(q) W(low)/X(q) W(high)/X(q)  e(spline) 
   2      8    10.726    46.356    0.30E-03    0.23E-03    0.13E-06
   2      8    10.726    41.843    0.32E-03    0.24E-03    0.13E-06
   0      9    10.726    48.958    0.40E-03    0.22E-03    0.59E-07
   0      9    10.726    32.776    0.38E-03    0.21E-03    0.56E-07
   1      8    10.726    17.787    0.28E-03    0.23E-03    0.20E-06
   1      8    10.726    14.435    0.25E-03    0.19E-03    0.18E-06
  PAW_PBE Zn 06Sep2000                  :
 energy of atom  1       EATOM=-1748.8345
 kinetic energy error for atom=    0.0040 (will be added to EATOM!!)
 
 
 POSCAR: Zn2
  positions in direct lattice
  velocities in cartesian coordinates
 exchange correlation table for  LEXCH =        8
   RHO(1)=    0.500       N(1)  =     2000
   RHO(2)=  100.500       N(2)  =     4000
 


--------------------------------------------------------------------------------------------------------


 ion  position               nearest neighbor table
   1  0.333  0.667  0.250-   2 2.87   2 2.87   2 2.87   2 2.87   2 2.87   2 2.87
   2  0.667  0.333  0.750-   1 2.87   1 2.87   1 2.87   1 2.87   1 2.87   1 2.87
 

IMPORTANT INFORMATION: All symmetrisations will be switched off!
NOSYMM: (Re-)initialisation of all symmetry stuff for point group C_1.


----------------------------------------------------------------------------------------

                                     Primitive cell                                     

  volume of cell :      28.8451

  direct lattice vectors                    reciprocal lattice vectors
     1.307179901 -2.264102003  0.000000000     0.382502821 -0.220838107  0.000000000
     1.307179901  2.264102003  0.000000000     0.382502821  0.220838107 -0.000000000
     0.000000000  0.000000000  4.873161020    -0.000000000  0.000000000  0.205205614

  length of vectors
     2.614359801  2.614359801  4.873161020     0.441676214  0.441676214  0.205205614

  position of ions in fractional coordinates (direct lattice)
     0.333333333  0.666666667  0.250000000
     0.666666667  0.333333333  0.750000000

  ion indices of the primitive-cell ions
   primitive index   ion index
                 1           1
                 2           2

----------------------------------------------------------------------------------------

 
 
 KPOINTS: Automatic mesh                          

Automatic generation of k-mesh.
 Grid dimensions read from file:
 generate k-points for:    2    2    2

 Generating k-lattice:

  Cartesian coordinates                     Fractional coordinates (reciprocal lattice)
     0.191251411 -0.110419053  0.000000000     0.500000000  0.000000000  0.000000000
     0.191251411  0.110419053 -0.000000000     0.000000000  0.500000000  0.000000000
    -0.000000000  0.000000000  0.102602807     0.000000000  0.000000000  0.500000000

  Length of vectors
     0.220838107  0.220838107  0.102602807

  Shift w.r.t. Gamma in fractional coordinates (k-lattice)
     0.000000000  0.000000000  0.000000000

 
 Subroutine IBZKPT returns following result:
 ===========================================
 
 Found      8 irreducible k-points:
 
 Following reciprocal coordinates:
            Coordinates               Weight
  0.000000  0.000000  0.000000      1.000000
  0.500000  0.000000  0.000000      1.000000
  0.000000  0.500000  0.000000      1.000000
  0.500000  0.500000  0.000000      1.000000
  0.000000  0.000000  0.500000      1.000000
  0.500000  0.000000  0.500000      1.000000
  0.000000  0.500000  0.500000      1.000000
  0.500000  0.500000  0.500000      1.000000
 
 Following cartesian coordinates:
            Coordinates               Weight
  0.000000 -0.000000  0.000000      1.000000
  0.191251 -0.110419  0.000000      1.000000
  0.191251  0.110419  0.000000      1.000000
  0.382503  0.000000  0.000000      1.000000
  0.000000 -0.000000  0.102603      1.000000
  0.191251 -0.110419  0.102603      1.000000
  0.191251  0.110419  0.102603      1.000000
  0.382503  0.000000  0.102603      1.000000
 


--------------------------------------------------------------------------------------------------------




 Dimension of arrays:
   k-points           NKPTS =      8   k-points in BZ     NKDIM =      8   number of bands    NBANDS=     16
   number of dos      NEDOS =    301   number of ions     NIONS =      2
   non local maximal  LDIM  =      6   non local SUM 2l+1 LMDIM =     18
   total plane-waves  NPLWV =   5488
   max r-space proj   IRMAX =   2148   max aug-charges    IRDMAX=   5870
   dimension x,y,z NGX =    14 NGY =   14 NGZ =   28
   dimension x,y,z NGXF=    28 NGYF=   28 NGZF=   56
   support grid    NGXF=    28 NGYF=   28 NGZF=   56
   ions per type =               2
   NGX,Y,Z   is equivalent  to a cutoff of   8.90,  8.90,  9.55 a.u.
   NGXF,Y,Z  is equivalent  to a cutoff of  17.81, 17.81, 19.10 a.u.

 SYSTEM =  unknown system                          
 POSCAR =  Zn2                                     

 Startparameter for this run:
   NWRITE =      2    write-flag & timer
   PREC   = normal    normal or accurate (medium, high low for compatibility)
   ISTART =      0    job   : 0-new  1-cont  2-samecut
   ICHARG =      0    charge: 1-file 2-atom 10-const
   ISPIN  =      1    spin polarized calculation?
   LNONCOLLINEAR =      F non collinear calculations
   LSORBIT =      F    spin-orbit coupling
   INIWAV =      1    electr: 0-lowe 1-rand  2-diag
   LASPH  =      F    aspherical Exc in radial PAW
 Electronic Relaxation 1
   ENCUT  =  450.0 eV  33.07 Ry    5.75 a.u.   4.52  4.52  8.43*2*pi/ulx,y,z
   ENINI  =  450.0     initial cutoff
   ENAUG  =  575.9 eV  augmentation charge cutoff
   NELM   =    300;   NELMIN=  2; NELMDL= -5     # of ELM steps 
   EDIFF  = 0.1E-04   stopping-criterion for ELM
   LREAL  =      T    real-space projection
   NLSPLINE    = F    spline interpolate recip. space projectors
   LCOMPAT=      F    compatible to vasp.4.4
   GGA_COMPAT  = T    GGA compatible to vasp.4.4-vasp.4.6
   LMAXPAW     = -100 max onsite density
   LMAXMIX     =    2 max onsite mixed and CHGCAR
   VOSKOWN=      0    Vosko Wilk Nusair interpolation
   ROPT   =   -0.00050
 Ionic relaxation
   EDIFFG = -.5E-02   stopping-criterion for IOM
   NSW    =      0    number of steps for IOM
   NBLOCK =      1;   KBLOCK =      1    inner block; outer block 
   IBRION =     -1    ionic relax: 0-MD 1-quasi-New 2-CG
   NFREE  =      0    steps in history (QN), initial steepest desc. (CG)
   ISIF   =      2    stress and relaxation
   IWAVPR =     10    prediction:  0-non 1-charg 2-wave 3-comb
   ISYM   =      0    0-nonsym 1-usesym 2-fastsym
   LCORR  =      T    Harris-Foulkes like correction to forces

   POTIM  = 0.5000    time-step for ionic-motion
   TEIN   =    0.0    initial temperature
   TEBEG  =    0.0;   TEEND  =   0.0 temperature during run
   SMASS  =  -3.00    Nose mass-parameter (am)
   estimated Nose-frequenzy (Omega)   =  0.10E-29 period in steps = 0.13E+47 mass=  -0.156E-27a.u.
   SCALEE = 1.0000    scale energy and forces
   NPACO  =    256;   APACO  = 10.0  distance and # of slots for P.C.
   PSTRESS=    0.0 pullay stress

  Mass of Ions in am
   POMASS =  65.39
  Ionic Valenz
   ZVAL   =  12.00
  Atomic Wigner-Seitz radii
   RWIGS  =  -1.00
  virtual crystal weights 
   VCA    =   1.00
   NELECT =      24.0000    total number of electrons
   NUPDOWN=      -1.0000    fix difference up-down

 DOS related values:
   EMIN   =  10.00;   EMAX   =-10.00  energy-range for DOS
   EFERMI =   0.00;   METHOD = LEGACY      
   ISMEAR =     0;   SIGMA  =   0.05  broadening in eV -4-tet -1-fermi 0-gaus

 Electronic relaxation 2 (details)
   IALGO  =     38    algorithm
   LDIAG  =      T    sub-space diagonalisation (order eigenvalues)
   LSUBROT=      F    optimize rotation matrix (better conditioning)
   TURBO    =      0    0=normal 1=particle mesh
   IRESTART =      0    0=no restart 2=restart with 2 vectors
   NREBOOT  =      0    no. of reboots
   NMIN     =      0    reboot dimension
   EREF     =   0.00    reference energy to select bands
   IMIX   =      4    mixing-type and parameters
     AMIX     =   0.40;   BMIX     =  1.00
     AMIX_MAG =   1.60;   BMIX_MAG =  1.00
     AMIN     =   0.10
     WC   =   100.;   INIMIX=   1;  MIXPRE=   1;  MAXMIX= -45

 Intra band minimization:
   WEIMIN = 0.0000     energy-eigenvalue tresh-hold
   EBREAK =  0.16E-06  absolut break condition
   DEPER  =   0.30     relativ break condition  

   TIME   =   0.40     timestep for ELM

  volume/ion in A,a.u.               =      14.42        97.33
  Fermi-wavevector in a.u.,A,eV,Ry     =   1.539765  2.909735 32.257744  2.370877
  Thomas-Fermi vector in A             =   2.645947
 
 Write flags
   LWAVE        =      T    write WAVECAR
   LDOWNSAMPLE  =      F    k-point downsampling of WAVECAR
   LCHARG       =      T    write CHGCAR
   LVTOT        =      F    write LOCPOT, total local potential
   LVHAR        =      F    write LOCPOT, Hartree potential only
   LELF         =      F    write electronic localiz. function (ELF)
   LORBIT       =      0    0 simple, 1 ext, 2 COOP (PROOUT), +10 PAW based schemes


 Dipole corrections
   LMONO  =      F    monopole corrections only (constant potential shift)
   LDIPOL =      F    correct potential (dipole corrections)
   IDIPOL =      0    1-x, 2-y, 3-z, 4-all directions 
   EPSILON=  1.0000000 bulk dielectric constant

 Core level calculations are selected ICORELEVEL =  1
 Exchange correlation treatment:
   GGA     =    --    GGA type
   LEXCH   =     8    internal setting for exchange type
   LIBXC   =     F    Libxc                    
   VOSKOWN =     0    Vosko Wilk Nusair interpolation
   LHFCALC =     F    Hartree Fock is set to
   LHFONE  =     F    Hartree Fock one center treatment
   AEXX    =    0.0000 exact exchange contribution

 Linear response parameters
   LEPSILON=     F    determine dielectric tensor
   LRPA    =     F    only Hartree local field effects (RPA)
   LNABLA  =     F    use nabla operator in PAW spheres
   LVEL    =     F    velocity operator in full k-point grid
   CSHIFT  =0.1000    complex shift for real part using Kramers Kronig
   OMEGAMAX=  -1.0    maximum frequency
   DEG_THRESHOLD= 0.2000000E-02 threshold for treating states as degnerate
   RTIME   =   -0.100 relaxation time in fs
  (WPLASMAI=    0.000 imaginary part of plasma frequency in eV, 0.658/RTIME)
   DFIELD  = 0.0000000 0.0000000 0.0000000 field for delta impulse in time
 
  Optional k-point grid parameters
   LKPOINTS_OPT  =     F    use optional k-point grid
   KPOINTS_OPT_MODE=     1    mode for optional k-point grid
 
 Orbital magnetization related:
   ORBITALMAG=     F  switch on orbital magnetization
   LCHIMAG   =     F  perturbation theory with respect to B field
   DQ        =  0.001000  dq finite difference perturbation B field
   LLRAUG    =     F  two centre corrections for induced B field
   LBONE     =     F  B-component reconstruction in AE one-centre
   LVGVCALC  =     T  calculate vGv susceptibility
   LVGVAPPL  =     F  apply vGv susceptibility instead of pGv for G=0

 Random number generation:
   RANDOM_GENERATOR = DEFAULT
   PCG_SEED         = not used


--------------------------------------------------------------------------------------------------------


 Static calculation
 charge density and potential will be updated during run
 non-spin polarized calculation
 Variant of blocked Davidson
 Davidson routine will perform the subspace rotation
 perform sub-space diagonalisation
    after iterative eigenvector-optimisation
 modified Broyden-mixing scheme, WC =      100.0
 initial mixing is a Kerker type mixing with AMIX =  0.4000 and BMIX =      1.0000
 Hartree-type preconditioning will be used
 using additional bands             4
 real space projection scheme for non local part
 use partial core corrections
 calculate Harris-corrections to forces 
   (improved forces if not selfconsistent)
 use gradient corrections 
 use of overlap-Matrix (Vanderbilt PP)
 Gauss-broadening in eV      SIGMA  =   0.05


--------------------------------------------------------------------------------------------------------


  energy-cutoff  :      450.00
  volume of cell :       28.85
      direct lattice vectors                 reciprocal lattice vectors
     1.307179901 -2.264102003  0.000000000     0.382502821 -0.220838107  0.000000000
     1.307179901  2.264102003  0.000000000     0.382502821  0.220838107 -0.000000000
     0.000000000  0.000000000  4.873161020    -0.000000000  0.000000000  0.205205614

  length of vectors
     2.614359801  2.614359801  4.873161020     0.441676214  0.441676214  0.205205614


 
 k-points in units of 2pi/SCALE and weight: Automatic mesh                          
   0.00000000 -0.00000000  0.00000000       0.125
   0.19125141 -0.11041905  0.00000000       0.125
   0.19125141  0.11041905  0.00000000       0.125
   0.38250282  0.00000000  0.00000000       0.125
   0.00000000 -0.00000000  0.10260281       0.125
   0.19125141 -0.11041905  0.10260281       0.125
   0.19125141  0.11041905  0.10260281       0.125
   0.38250282  0.00000000  0.10260281       0.125
 
 k-points in reciprocal lattice and weights: Automatic mesh                          
   0.00000000  0.00000000  0.00000000       0.125
   0.50000000  0.00000000  0.00000000       0.125
   0.00000000  0.50000000  0.00000000       0.125
   0.50000000  0.50000000  0.00000000       0.125
   0.00000000  0.00000000  0.50000000       0.125
   0.50000000  0.00000000  0.50000000       0.125
   0.00000000  0.50000000  0.50000000       0.125
   0.50000000  0.50000000  0.50000000       0.125
 
 position of ions in fractional coordinates (direct lattice) 
   0.33333333  0.66666667  0.25000000
   0.66666667  0.33333333  0.75000000
 
 position of ions in cartesian coordinates  (Angst):
   1.30717990  0.75470067  1.21829026
   1.30717990 -0.75470067  3.65487077
 


--------------------------------------------------------------------------------------------------------


 k-point   1 :   0.0000 0.0000 0.0000  plane waves:     647
 k-point   2 :   0.5000 0.0000 0.0000  plane waves:     616
 k-point   3 :   0.0000 0.5000 0.0000  plane waves:     616
 k-point   4 :   0.5000 0.5000 0.0000  plane waves:     616
 k-point   5 :   0.0000 0.0000 0.5000  plane waves:     616
 k-point   6 :   0.5000 0.0000 0.5000  plane waves:     616
 k-point   7 :   0.0000 0.5000 0.5000  plane waves:     616
 k-point   8 :   0.5000 0.5000 0.5000  plane waves:     616

 maximum and minimum number of plane-waves per node :       647      616

 maximum number of plane-waves:       647
 maximum index in each direction: 
   IXMAX=    4   IYMAX=    4   IZMAX=    8
   IXMIN=   -5   IYMIN=   -5   IZMIN=   -8


 serial   3D FFT for wavefunctions
 parallel 3D FFT for charge:
    minimum data exchange during FFTs selected (reduces bandwidth)


 total amount of memory used by VASP MPI-rank0    36060. kBytes
=======================================================================

   base      :      30000. kBytes
   nonlr-proj:        711. kBytes
   fftplans  :       1540. kBytes
   grid      :       2380. kBytes
   one-center:         31. kBytes
   wavefun   :       1398. kBytes
 
     INWAV:  cpu time      0.0000: real time      0.0001
 Broyden mixing: mesh for mixing (old mesh)
   NGX =  9   NGY =  9   NGZ = 17
  (NGX  = 28   NGY  = 28   NGZ  = 56)
  gives a total of   1377 points

 charge density for first step will be calculated from the start-wavefunctions


--------------------------------------------------------------------------------------------------------


 Maximum index for non-local projection operator          2022
 Maximum index for augmentation-charges          5508 (set IRDMAX)


--------------------------------------------------------------------------------------------------------


 initial charge from wavefunction
 First call to EWALD:  gamma=   0.578
 Maximum number of real-space cells 4x 4x 2
 Maximum number of reciprocal cells 2x 2x 4

    FEWALD:  cpu time      0.0010: real time      0.0010


--------------------------------------- Ionic step        1  -------------------------------------------




--------------------------------------- Iteration      1(   1)  ---------------------------------------


    POTLOK:  cpu time      0.0208: real time      0.0208
    SETDIJ:  cpu time      0.0044: real time      0.0044
     EDDAV:  cpu time      0.0874: real time      0.0874
       DOS:  cpu time      0.0002: real time      0.0002
    --------------------------------------------
      LOOP:  cpu time      0.1128: real time      0.1128

 eigenvalue-minimisations  :   280
 total energy-change (2. order) :-0.9515638E+03  (-0.2891891E+04)
 number of electron      24.0000010 magnetization 
 augmentation part        2.9692509 magnetization 

 Free energy of the ion-electron system (eV)
  ---------------------------------------------------
  alpha Z        PSCENC =       219.48591142
  Ewald energy   TEWEN  =     -2453.45788842
  -Hartree energ DENC   =       -52.54125128
  -exchange      EXHF   =         0.00000000
  -V(xc)+E(xc)   XCENC  =        72.31486775
  PAW double counting   =      6060.72351435    -6100.65108640
  entropy T*S    EENTRO =        -0.00000000
  eigenvalues    EBANDS =     -2195.09880914
  atomic energy  EATOM  =      3497.66097711
  Solvation  Ediel_sol  =         0.00000000
  ---------------------------------------------------
  free energy    TOTEN  =      -951.56376462 eV

  energy without entropy =     -951.56376462  energy(sigma->0) =     -951.56376462


--------------------------------------------------------------------------------------------------------




--------------------------------------- Iteration      1(   2)  ---------------------------------------


     EDDAV:  cpu time      0.0633: real time      0.0640
       DOS:  cpu time      0.0002: real time      0.0002
    --------------------------------------------
      LOOP:  cpu time      0.0635: real time      0.0642

 eigenvalue-minimisations  :   344
 total energy-change (2. order) :-0.2792946E+03  (-0.2790201E+03)
 number of electron      24.0000010 magnetization 
 augmentation part        2.9692509 magnetization 

 Free energy of the ion-electron system (eV)
  ---------------------------------------------------
  alpha Z        PSCENC =       219.48591142
  Ewald energy   TEWEN  =     -2453.45788842
  -Hartree energ DENC   =       -52.54125128
  -exchange      EXHF   =         0.00000000
  -V(xc)+E(xc)   XCENC  =        72.31486775
  PAW double counting   =      6060.72351435    -6100.65108640
  entropy T*S    EENTRO =        -0.00000000
  eigenvalues    EBANDS =     -2474.39337825
  atomic energy  EATOM  =      3497.66097711
  Solvation  Ediel_sol  =         0.00000000
  ---------------------------------------------------
  free energy    TOTEN  =     -1230.85833373 eV

  energy without entropy =    -1230.85833373  energy(sigma->0) =    -1230.85833373


--------------------------------------------------------------------------------------------------------




--------------------------------------- Iteration      1(   3)  ---------------------------------------


     EDDAV:  cpu time      0.0552: real time      0.0555
       DOS:  cpu time      0.0002: real time      0.0002
    --------------------------------------------
      LOOP:  cpu time      0.0554: real time      0.0557

 eigenvalue-minimisations  :   320
 total energy-change (2. order) :-0.2105342E+02  (-0.2105257E+02)
 number of electron      24.0000010 magnetization 
 augmentation part        2.9692509 magnetization 

 Free energy of the ion-electron system (eV)
  ---------------------------------------------------
  alpha Z        PSCENC =       219.48591142
  Ewald energy   TEWEN  =     -2453.45788842
  -Hartree energ DENC   =       -52.54125128
  -exchange      EXHF   =         0.00000000
  -V(xc)+E(xc)   XCENC  =        72.31486775
  PAW double counting   =      6060.72351435    -6100.65108640
  entropy T*S    EENTRO =        -0.00000000
  eigenvalues    EBANDS =     -2495.44679694
  atomic energy  EATOM  =      3497.66097711
  Solvation  Ediel_sol  =         0.00000000
  ---------------------------------------------------
  free energy    TOTEN  =     -1251.91175242 eV

  energy without entropy =    -1251.91175242  energy(sigma->0) =    -1251.91175242


--------------------------------------------------------------------------------------------------------




--------------------------------------- Iteration      1(   4)  ---------------------------------------


     EDDAV:  cpu time      0.0778: real time      0.0782
       DOS:  cpu time      0.0002: real time      0.0002
    --------------------------------------------
      LOOP:  cpu time      0.0780: real time      0.0784

 eigenvalue-minimisations  :   464
 total energy-change (2. order) :-0.6647390E+00  (-0.6647289E+00)
 number of electron      24.0000010 magnetization 
 augmentation part        2.9692509 magnetization 

 Free energy of the ion-electron system (eV)
  ---------------------------------------------------
  alpha Z        PSCENC =       219.48591142
  Ewald energy   TEWEN  =     -2453.45788842
  -Hartree energ DENC   =       -52.54125128
  -exchange      EXHF   =         0.00000000
  -V(xc)+E(xc)   XCENC  =        72.31486775
  PAW double counting   =      6060.72351435    -6100.65108640
  entropy T*S    EENTRO =        -0.00000000
  eigenvalues    EBANDS =     -2496.11153594
  atomic energy  EATOM  =      3497.66097711
  Solvation  Ediel_sol  =         0.00000000
  ---------------------------------------------------
  free energy    TOTEN  =     -1252.57649142 eV

  energy without entropy =    -1252.57649142  energy(sigma->0) =    -1252.57649142


--------------------------------------------------------------------------------------------------------




--------------------------------------- Iteration      1(   5)  ---------------------------------------


     EDDAV:  cpu time      0.0398: real time      0.0402
       DOS:  cpu time      0.0002: real time      0.0002
    CHARGE:  cpu time      0.0075: real time      0.0075
    MIXING:  cpu time      0.0014: real time      0.0014
    --------------------------------------------
      LOOP:  cpu time      0.0489: real time      0.0493

 eigenvalue-minimisations  :   296
 total energy-change (2. order) :-0.2183921E-02  (-0.2183907E-02)
 number of electron      24.0000050 magnetization 
 augmentation part       14.4518245 magnetization 

 Broyden mixing:
  rms(total) = 0.60805E+02    rms(broyden)= 0.60803E+02
  rms(prec ) = 0.65231E+02
  weight for this iteration     100.00

 Free energy of the ion-electron system (eV)
  ---------------------------------------------------
  alpha Z        PSCENC =       219.48591142
  Ewald energy   TEWEN  =     -2453.45788842
  -Hartree energ DENC   =       -52.54125128
  -exchange      EXHF   =         0.00000000
  -V(xc)+E(xc)   XCENC  =        72.31486775
  PAW double counting   =      6060.72351435    -6100.65108640
  entropy T*S    EENTRO =        -0.00000000
  eigenvalues    EBANDS =     -2496.11371986
  atomic energy  EATOM  =      3497.66097711
  Solvation  Ediel_sol  =         0.00000000
  ---------------------------------------------------
  free energy    TOTEN  =     -1252.57867534 eV

  energy without entropy =    -1252.57867534  energy(sigma->0) =    -1252.57867534


--------------------------------------------------------------------------------------------------------




--------------------------------------- Iteration      1(   6)  ---------------------------------------


    POTLOK:  cpu time      0.0032: real time      0.0036
    SETDIJ:  cpu time      0.0035: real time      0.0035
     EDDAV:  cpu time      0.0402: real time      0.0402
       DOS:  cpu time      0.0002: real time      0.0002
    CHARGE:  cpu time      0.0072: real time      0.0072
    MIXING:  cpu time      0.0014: real time      0.0014
    --------------------------------------------
      LOOP:  cpu time      0.0557: real time      0.0561

 eigenvalue-minimisations  :   304
 total energy-change (2. order) : 0.1011935E+04  (-0.1019735E+03)
 number of electron      24.0000057 magnetization 
 augmentation part       16.4342505 magnetization 

 Broyden mixing:
  rms(total) = 0.21220E+02    rms(broyden)= 0.21219E+02
  rms(prec ) = 0.23774E+02
  weight for this iteration     100.00

 eigenvalues of (default mixing * dielectric matrix)
  average eigenvalue GAMMA=   0.7550
  0.7550

 Free energy of the ion-electron system (eV)
  ---------------------------------------------------
  alpha Z        PSCENC =       219.48591142
  Ewald energy   TEWEN  =     -2453.45788842
  -Hartree energ DENC   =      -393.27986612
  -exchange      EXHF   =         0.00000000
  -V(xc)+E(xc)   XCENC  =        90.50287553
  PAW double counting   =    210092.71745123  -210319.87915170
  entropy T*S    EENTRO =        -0.00000000
  eigenvalues    EBANDS =      -974.39400619
  atomic energy  EATOM  =      3497.66097711
  Solvation  Ediel_sol  =         0.00000000
  ---------------------------------------------------
  free energy    TOTEN  =      -240.64369714 eV

  energy without entropy =     -240.64369714  energy(sigma->0) =     -240.64369714


--------------------------------------------------------------------------------------------------------




--------------------------------------- Iteration      1(   7)  ---------------------------------------


    POTLOK:  cpu time      0.0032: real time      0.0035
    SETDIJ:  cpu time      0.0036: real time      0.0036
     EDDAV:  cpu time      0.0408: real time      0.0408
       DOS:  cpu time      0.0002: real time      0.0002
    CHARGE:  cpu time      0.0072: real time      0.0072
    MIXING:  cpu time      0.0015: real time      0.0015
    --------------------------------------------
      LOOP:  cpu time      0.0564: real time      0.0567

 eigenvalue-minimisations  :   272
 total energy-change (2. order) : 0.1740551E+03  (-0.2058631E+02)
 number of electron      24.0000059 magnetization 
 augmentation part       17.2991827 magnetization 

 Broyden mixing:
  rms(total) = 0.21070E+02    rms(broyden)= 0.21070E+02
  rms(prec ) = 0.22026E+02
  weight for this iteration     100.00

 eigenvalues of (default mixing * dielectric matrix)
  average eigenvalue GAMMA=   0.8428
  0.8428  0.8428

 Free energy of the ion-electron system (eV)
  ---------------------------------------------------
  alpha Z        PSCENC =       219.48591142
  Ewald energy   TEWEN  =     -2453.45788842
  -Hartree energ DENC   =      -600.36984895
  -exchange      EXHF   =         0.00000000
  -V(xc)+E(xc)   XCENC  =        99.79711271
  PAW double counting   =    125708.19814650  -126042.86707473
  entropy T*S    EENTRO =        -0.00000000
  eigenvalues    EBANDS =      -495.03589215
  atomic energy  EATOM  =      3497.66097711
  Solvation  Ediel_sol  =         0.00000000
  ---------------------------------------------------
  free energy    TOTEN  =       -66.58855651 eV

  energy without entropy =      -66.58855651  energy(sigma->0) =      -66.58855651


--------------------------------------------------------------------------------------------------------




--------------------------------------- Iteration      1(   8)  ---------------------------------------


    POTLOK:  cpu time      0.0031: real time      0.0035
    SETDIJ:  cpu time      0.0036: real time      0.0036
     EDDAV:  cpu time      0.0437: real time      0.0437
       DOS:  cpu time      0.0004: real time      0.0004
    CHARGE:  cpu time      0.0072: real time      0.0072
    MIXING:  cpu time      0.0014: real time      0.0014
    --------------------------------------------
      LOOP:  cpu time      0.0595: real time      0.0599

 eigenvalue-minimisations  :   320
 total energy-change (2. order) : 0.6114853E+02  (-0.1376473E+02)
 number of electron      24.0000056 magnetization 
 augmentation part       16.5496514 magnetization 

 Broyden mixing:
  rms(total) = 0.10640E+02    rms(broyden)= 0.10640E+02
  rms(prec ) = 0.10905E+02
  weight for this iteration     100.00

 eigenvalues of (default mixing * dielectric matrix)
  average eigenvalue GAMMA=   1.5793
  1.0809  1.8285  1.8285

 Free energy of the ion-electron system (eV)
  ---------------------------------------------------
  alpha Z        PSCENC =       219.48591142
  Ewald energy   TEWEN  =     -2453.45788842
  -Hartree energ DENC   =      -805.99976958
  -exchange      EXHF   =         0.00000000
  -V(xc)+E(xc)   XCENC  =       108.73435816
  PAW double counting   =     32202.51222625   -32599.51452405
  entropy T*S    EENTRO =        -0.00940129
  eigenvalues    EBANDS =      -174.85191629
  atomic energy  EATOM  =      3497.66097711
  Solvation  Ediel_sol  =         0.00000000
  ---------------------------------------------------
  free energy    TOTEN  =        -5.44002669 eV

  energy without entropy =       -5.43062540  energy(sigma->0) =       -5.43532604


--------------------------------------------------------------------------------------------------------




--------------------------------------- Iteration      1(   9)  ---------------------------------------


    POTLOK:  cpu time      0.0046: real time      0.0050
    SETDIJ:  cpu time      0.0036: real time      0.0036
     EDDAV:  cpu time      0.0438: real time      0.0438
       DOS:  cpu time      0.0004: real time      0.0004
    CHARGE:  cpu time      0.0072: real time      0.0072
    MIXING:  cpu time      0.0014: real time      0.0014
    --------------------------------------------
      LOOP:  cpu time      0.0611: real time      0.0615

 eigenvalue-minimisations  :   344
 total energy-change (2. order) : 0.3918373E+01  (-0.1958951E+01)
 number of electron      24.0000056 magnetization 
 augmentation part       16.2890111 magnetization 

 Broyden mixing:
  rms(total) = 0.33104E+01    rms(broyden)= 0.33104E+01
  rms(prec ) = 0.35711E+01
  weight for this iteration     100.00

 eigenvalues of (default mixing * dielectric matrix)
  average eigenvalue GAMMA=   1.4516
  1.9730  1.7164  1.1625  0.9543

 Free energy of the ion-electron system (eV)
  ---------------------------------------------------
  alpha Z        PSCENC =       219.48591142
  Ewald energy   TEWEN  =     -2453.45788842
  -Hartree energ DENC   =      -881.90960948
  -exchange      EXHF   =         0.00000000
  -V(xc)+E(xc)   XCENC  =       111.55408766
  PAW double counting   =      8570.46438947    -8939.73972669
  entropy T*S    EENTRO =        -0.00963696
  eigenvalues    EBANDS =      -125.57015772
  atomic energy  EATOM  =      3497.66097711
  Solvation  Ediel_sol  =         0.00000000
  ---------------------------------------------------
  free energy    TOTEN  =        -1.52165360 eV

  energy without entropy =       -1.51201664  energy(sigma->0) =       -1.51683512


--------------------------------------------------------------------------------------------------------




--------------------------------------- Iteration      1(  10)  ---------------------------------------


    POTLOK:  cpu time      0.0030: real time      0.0034
    SETDIJ:  cpu time      0.0036: real time      0.0036
     EDDAV:  cpu time      0.0397: real time      0.0397
       DOS:  cpu time      0.0004: real time      0.0004
    CHARGE:  cpu time      0.0071: real time      0.0071
    MIXING:  cpu time      0.0015: real time      0.0015
    --------------------------------------------
      LOOP:  cpu time      0.0554: real time      0.0557

 eigenvalue-minimisations  :   296
 total energy-change (2. order) : 0.1195470E+01  (-0.7764539E+00)
 number of electron      24.0000054 magnetization 
 augmentation part       15.9165942 magnetization 

 Broyden mixing:
  rms(total) = 0.30232E+00    rms(broyden)= 0.30230E+00
  rms(prec ) = 0.48216E+00
  weight for this iteration     100.00

 eigenvalues of (default mixing * dielectric matrix)
  average eigenvalue GAMMA=   1.3469
  1.8846  1.8846  1.1189  1.1189  0.7277

 Free energy of the ion-electron system (eV)
  ---------------------------------------------------
  alpha Z        PSCENC =       219.48591142
  Ewald energy   TEWEN  =     -2453.45788842
  -Hartree energ DENC   =      -933.72989966
  -exchange      EXHF   =         0.00000000
  -V(xc)+E(xc)   XCENC  =       113.71139900
  PAW double counting   =      3074.21201759    -3436.45407553
  entropy T*S    EENTRO =        -0.00962588
  eigenvalues    EBANDS =       -81.74499899
  atomic energy  EATOM  =      3497.66097711
  Solvation  Ediel_sol  =         0.00000000
  ---------------------------------------------------
  free energy    TOTEN  =        -0.32618336 eV

  energy without entropy =       -0.31655749  energy(sigma->0) =       -0.32137043


--------------------------------------------------------------------------------------------------------




--------------------------------------- Iteration      1(  11)  ---------------------------------------


    POTLOK:  cpu time      0.0031: real time      0.0034
    SETDIJ:  cpu time      0.0036: real time      0.0036
     EDDAV:  cpu time      0.0430: real time      0.0430
       DOS:  cpu time      0.0004: real time      0.0004
    CHARGE:  cpu time      0.0072: real time      0.0072
    MIXING:  cpu time      0.0015: real time      0.0015
    --------------------------------------------
      LOOP:  cpu time      0.0588: real time      0.0591

 eigenvalue-minimisations  :   336
 total energy-change (2. order) : 0.5460658E-01  (-0.1010935E+00)
 number of electron      24.0000054 magnetization 
 augmentation part       15.9854452 magnetization 

 Broyden mixing:
  rms(total) = 0.19086E+00    rms(broyden)= 0.19086E+00
  rms(prec ) = 0.32665E+00
  weight for this iteration     100.00

 eigenvalues of (default mixing * dielectric matrix)
  average eigenvalue GAMMA=   1.3080
  1.9287  1.9287  1.3130  1.3130  0.8285  0.5361

 Free energy of the ion-electron system (eV)
  ---------------------------------------------------
  alpha Z        PSCENC =       219.48591142
  Ewald energy   TEWEN  =     -2453.45788842
  -Hartree energ DENC   =      -928.69353273
  -exchange      EXHF   =         0.00000000
  -V(xc)+E(xc)   XCENC  =       113.44180028
  PAW double counting   =      3230.88560696    -3590.30276020
  entropy T*S    EENTRO =        -0.00964091
  eigenvalues    EBANDS =       -89.28205030
  atomic energy  EATOM  =      3497.66097711
  Solvation  Ediel_sol  =         0.00000000
  ---------------------------------------------------
  free energy    TOTEN  =        -0.27157679 eV

  energy without entropy =       -0.26193588  energy(sigma->0) =       -0.26675633


--------------------------------------------------------------------------------------------------------




--------------------------------------- Iteration      1(  12)  ---------------------------------------


    POTLOK:  cpu time      0.0031: real time      0.0034
    SETDIJ:  cpu time      0.0037: real time      0.0036
     EDDAV:  cpu time      0.0437: real time      0.0437
       DOS:  cpu time      0.0004: real time      0.0004
    CHARGE:  cpu time      0.0072: real time      0.0072
    MIXING:  cpu time      0.0015: real time      0.0015
    --------------------------------------------
      LOOP:  cpu time      0.0597: real time      0.0599

 eigenvalue-minimisations  :   320
 total energy-change (2. order) :-0.8105872E-02  (-0.5012443E-01)
 number of electron      24.0000055 magnetization 
 augmentation part       16.0326344 magnetization 

 Broyden mixing:
  rms(total) = 0.15407E+00    rms(broyden)= 0.15406E+00
  rms(prec ) = 0.29343E+00
  weight for this iteration     100.00

 eigenvalues of (default mixing * dielectric matrix)
  average eigenvalue GAMMA=   1.2775
  2.4058  1.6705  1.6705  1.0802  0.8675  0.8675  0.3807

 Free energy of the ion-electron system (eV)
  ---------------------------------------------------
  alpha Z        PSCENC =       219.48591142
  Ewald energy   TEWEN  =     -2453.45788842
  -Hartree energ DENC   =      -927.64309641
  -exchange      EXHF   =         0.00000000
  -V(xc)+E(xc)   XCENC  =       113.33614024
  PAW double counting   =      3206.56794401    -3562.98850948
  entropy T*S    EENTRO =        -0.00967218
  eigenvalues    EBANDS =       -93.23148894
  atomic energy  EATOM  =      3497.66097711
  Solvation  Ediel_sol  =         0.00000000
  ---------------------------------------------------
  free energy    TOTEN  =        -0.27968266 eV

  energy without entropy =       -0.27001048  energy(sigma->0) =       -0.27484657


--------------------------------------------------------------------------------------------------------




--------------------------------------- Iteration      1(  13)  ---------------------------------------


    POTLOK:  cpu time      0.0030: real time      0.0035
    SETDIJ:  cpu time      0.0035: real time      0.0035
     EDDAV:  cpu time      0.0442: real time      0.0441
       DOS:  cpu time      0.0004: real time      0.0004
    CHARGE:  cpu time      0.0073: real time      0.0073
    MIXING:  cpu time      0.0017: real time      0.0017
    --------------------------------------------
      LOOP:  cpu time      0.0601: real time      0.0605

 eigenvalue-minimisations  :   336
 total energy-change (2. order) : 0.1376689E-01  (-0.1237257E-01)
 number of electron      24.0000054 magnetization 
 augmentation part       15.9756987 magnetization 

 Broyden mixing:
  rms(total) = 0.11724E+00    rms(broyden)= 0.11724E+00
  rms(prec ) = 0.14308E+00
  weight for this iteration     100.00

 eigenvalues of (default mixing * dielectric matrix)
  average eigenvalue GAMMA=   1.3005
  2.5791  1.8659  1.8659  1.0373  1.0373  0.9948  0.6755  0.3478

 Free energy of the ion-electron system (eV)
  ---------------------------------------------------
  alpha Z        PSCENC =       219.48591142
  Ewald energy   TEWEN  =     -2453.45788842
  -Hartree energ DENC   =      -933.88353460
  -exchange      EXHF   =         0.00000000
  -V(xc)+E(xc)   XCENC  =       113.60376564
  PAW double counting   =      2946.76296334    -3303.47673424
  entropy T*S    EENTRO =        -0.01307978
  eigenvalues    EBANDS =       -86.94829625
  atomic energy  EATOM  =      3497.66097711
  Solvation  Ediel_sol  =         0.00000000
  ---------------------------------------------------
  free energy    TOTEN  =        -0.26591577 eV

  energy without entropy =       -0.25283600  energy(sigma->0) =       -0.25937588


--------------------------------------------------------------------------------------------------------




--------------------------------------- Iteration      1(  14)  ---------------------------------------


    POTLOK:  cpu time      0.0030: real time      0.0035
    SETDIJ:  cpu time      0.0036: real time      0.0036
     EDDAV:  cpu time      0.0435: real time      0.0435
       DOS:  cpu time      0.0004: real time      0.0004
    CHARGE:  cpu time      0.0072: real time      0.0072
    MIXING:  cpu time      0.0017: real time      0.0017
    --------------------------------------------
      LOOP:  cpu time      0.0595: real time      0.0600

 eigenvalue-minimisations  :   304
 total energy-change (2. order) : 0.4731726E-02  (-0.1974739E-02)
 number of electron      24.0000054 magnetization 
 augmentation part       15.9956145 magnetization 

 Broyden mixing:
  rms(total) = 0.36023E-01    rms(broyden)= 0.36023E-01
  rms(prec ) = 0.45482E-01
  weight for this iteration     100.00

 eigenvalues of (default mixing * dielectric matrix)
  average eigenvalue GAMMA=   1.2664
  2.5832  1.8612  1.8612  1.0879  1.0879  0.9567  0.8704  0.7377  0.3515

 Free energy of the ion-electron system (eV)
  ---------------------------------------------------
  alpha Z        PSCENC =       219.48591142
  Ewald energy   TEWEN  =     -2453.45788842
  -Hartree energ DENC   =      -933.23763848
  -exchange      EXHF   =         0.00000000
  -V(xc)+E(xc)   XCENC  =       113.55210826
  PAW double counting   =      2997.53865338    -3353.14818400
  entropy T*S    EENTRO =        -0.01319580
  eigenvalues    EBANDS =       -88.64192752
  atomic energy  EATOM  =      3497.66097711
  Solvation  Ediel_sol  =         0.00000000
  ---------------------------------------------------
  free energy    TOTEN  =        -0.26118405 eV

  energy without entropy =       -0.24798825  energy(sigma->0) =       -0.25458615


--------------------------------------------------------------------------------------------------------




--------------------------------------- Iteration      1(  15)  ---------------------------------------


    POTLOK:  cpu time      0.0032: real time      0.0035
    SETDIJ:  cpu time      0.0036: real time      0.0036
     EDDAV:  cpu time      0.0409: real time      0.0409
       DOS:  cpu time      0.0005: real time      0.0005
    CHARGE:  cpu time      0.0072: real time      0.0072
    MIXING:  cpu time      0.0017: real time      0.0017
    --------------------------------------------
      LOOP:  cpu time      0.0569: real time      0.0572

 eigenvalue-minimisations  :   320
 total energy-change (2. order) : 0.1039894E-03  (-0.3123455E-03)
 number of electron      24.0000054 magnetization 
 augmentation part       15.9989452 magnetization 

 Broyden mixing:
  rms(total) = 0.19886E-01    rms(broyden)= 0.19886E-01
  rms(prec ) = 0.31882E-01
  weight for this iteration     100.00

 eigenvalues of (default mixing * dielectric matrix)
  average eigenvalue GAMMA=   1.2810
  2.5056  2.2062  1.5184  1.5184  1.0959  1.0959  0.9398  0.7884  0.7884  0.3529

 Free energy of the ion-electron system (eV)
  ---------------------------------------------------
  alpha Z        PSCENC =       219.48591142
  Ewald energy   TEWEN  =     -2453.45788842
  -Hartree energ DENC   =      -933.11981856
  -exchange      EXHF   =         0.00000000
  -V(xc)+E(xc)   XCENC  =       113.54432406
  PAW double counting   =      3014.39163841    -3369.80922400
  entropy T*S    EENTRO =        -0.01319870
  eigenvalues    EBANDS =       -88.94380138
  atomic energy  EATOM  =      3497.66097711
  Solvation  Ediel_sol  =         0.00000000
  ---------------------------------------------------
  free energy    TOTEN  =        -0.26108006 eV

  energy without entropy =       -0.24788136  energy(sigma->0) =       -0.25448071


--------------------------------------------------------------------------------------------------------




--------------------------------------- Iteration      1(  16)  ---------------------------------------


    POTLOK:  cpu time      0.0031: real time      0.0034
    SETDIJ:  cpu time      0.0036: real time      0.0036
     EDDAV:  cpu time      0.0436: real time      0.0436
       DOS:  cpu time      0.0004: real time      0.0004
    CHARGE:  cpu time      0.0071: real time      0.0071
    MIXING:  cpu time      0.0018: real time      0.0018
    --------------------------------------------
      LOOP:  cpu time      0.0597: real time      0.0600

 eigenvalue-minimisations  :   328
 total energy-change (2. order) :-0.8432635E-04  (-0.2699211E-03)
 number of electron      24.0000054 magnetization 
 augmentation part       16.0033419 magnetization 

 Broyden mixing:
  rms(total) = 0.11806E-01    rms(broyden)= 0.11805E-01
  rms(prec ) = 0.27822E-01
  weight for this iteration     100.00

 eigenvalues of (default mixing * dielectric matrix)
  average eigenvalue GAMMA=   1.3115
  2.6811  2.0702  2.0702  1.8589  1.2642  1.0155  1.0155  0.9283  0.6898  0.3547
  0.4784

 Free energy of the ion-electron system (eV)
  ---------------------------------------------------
  alpha Z        PSCENC =       219.48591142
  Ewald energy   TEWEN  =     -2453.45788842
  -Hartree energ DENC   =      -932.83924694
  -exchange      EXHF   =         0.00000000
  -V(xc)+E(xc)   XCENC  =       113.52959121
  PAW double counting   =      3037.87174565    -3393.15532491
  entropy T*S    EENTRO =        -0.01320159
  eigenvalues    EBANDS =       -89.34372791
  atomic energy  EATOM  =      3497.66097711
  Solvation  Ediel_sol  =         0.00000000
  ---------------------------------------------------
  free energy    TOTEN  =        -0.26116438 eV

  energy without entropy =       -0.24796280  energy(sigma->0) =       -0.25456359


--------------------------------------------------------------------------------------------------------




--------------------------------------- Iteration      1(  17)  ---------------------------------------


    POTLOK:  cpu time      0.0031: real time      0.0034
    SETDIJ:  cpu time      0.0036: real time      0.0036
     EDDAV:  cpu time      0.0435: real time      0.0435
       DOS:  cpu time      0.0004: real time      0.0004
    CHARGE:  cpu time      0.0071: real time      0.0071
    MIXING:  cpu time      0.0019: real time      0.0019
    --------------------------------------------
      LOOP:  cpu time      0.0596: real time      0.0599

 eigenvalue-minimisations  :   280
 total energy-change (2. order) : 0.1160218E-03  (-0.4627601E-04)
 number of electron      24.0000054 magnetization 
 augmentation part       15.9989197 magnetization 

 Broyden mixing:
  rms(total) = 0.40779E-02    rms(broyden)= 0.40779E-02
  rms(prec ) = 0.13242E-01
  weight for this iteration     100.00

 eigenvalues of (default mixing * dielectric matrix)
  average eigenvalue GAMMA=   1.3061
  2.7087  2.5153  1.8539  1.8539  1.1951  1.1951  1.0018  0.9124  0.8475  0.7213
  0.3542  0.5140

 Free energy of the ion-electron system (eV)
  ---------------------------------------------------
  alpha Z        PSCENC =       219.48591142
  Ewald energy   TEWEN  =     -2453.45788842
  -Hartree energ DENC   =      -933.19414354
  -exchange      EXHF   =         0.00000000
  -V(xc)+E(xc)   XCENC  =       113.54671894
  PAW double counting   =      3033.70858831    -3389.10192059
  entropy T*S    EENTRO =        -0.01323724
  eigenvalues    EBANDS =       -88.89605435
  atomic energy  EATOM  =      3497.66097711
  Solvation  Ediel_sol  =         0.00000000
  ---------------------------------------------------
  free energy    TOTEN  =        -0.26104836 eV

  energy without entropy =       -0.24781112  energy(sigma->0) =       -0.25442974


--------------------------------------------------------------------------------------------------------




--------------------------------------- Iteration      1(  18)  ---------------------------------------


    POTLOK:  cpu time      0.0031: real time      0.0034
    SETDIJ:  cpu time      0.0036: real time      0.0036
     EDDAV:  cpu time      0.0375: real time      0.0374
       DOS:  cpu time      0.0004: real time      0.0004
    CHARGE:  cpu time      0.0072: real time      0.0072
    MIXING:  cpu time      0.0019: real time      0.0019
    --------------------------------------------
      LOOP:  cpu time      0.0536: real time      0.0540

 eigenvalue-minimisations  :   264
 total energy-change (2. order) : 0.1529173E-04  (-0.1307118E-04)
 number of electron      24.0000054 magnetization 
 augmentation part       15.9998376 magnetization 

 Broyden mixing:
  rms(total) = 0.18580E-02    rms(broyden)= 0.18579E-02
  rms(prec ) = 0.29465E-02
  weight for this iteration     100.00

 eigenvalues of (default mixing * dielectric matrix)
  average eigenvalue GAMMA=   1.2877
  2.5906  2.5906  1.8678  1.8678  1.3022  1.3022  1.0022  0.9539  0.9539  0.7063
  0.7063  0.3541  0.5420

 Free energy of the ion-electron system (eV)
  ---------------------------------------------------
  alpha Z        PSCENC =       219.48591142
  Ewald energy   TEWEN  =     -2453.45788842
  -Hartree energ DENC   =      -933.12013300
  -exchange      EXHF   =         0.00000000
  -V(xc)+E(xc)   XCENC  =       113.54306411
  PAW double counting   =      3037.55210561    -3392.92325486
  entropy T*S    EENTRO =        -0.01324992
  eigenvalues    EBANDS =       -88.98856512
  atomic energy  EATOM  =      3497.66097711
  Solvation  Ediel_sol  =         0.00000000
  ---------------------------------------------------
  free energy    TOTEN  =        -0.26103307 eV

  energy without entropy =       -0.24778315  energy(sigma->0) =       -0.25440811


--------------------------------------------------------------------------------------------------------




--------------------------------------- Iteration      1(  19)  ---------------------------------------


    POTLOK:  cpu time      0.0030: real time      0.0035
    SETDIJ:  cpu time      0.0035: real time      0.0035
     EDDAV:  cpu time      0.0320: real time      0.0320
       DOS:  cpu time      0.0005: real time      0.0005
    --------------------------------------------
      LOOP:  cpu time      0.0698: real time      0.0702

 eigenvalue-minimisations  :   152
 total energy-change (2. order) : 0.8137055E-06  (-0.1171192E-05)
 number of electron      24.0000054 magnetization 
 augmentation part       15.9998376 magnetization 

 Free energy of the ion-electron system (eV)
  ---------------------------------------------------
  alpha Z        PSCENC =       219.48591142
  Ewald energy   TEWEN  =     -2453.45788842
  -Hartree energ DENC   =      -933.12673512
  -exchange      EXHF   =         0.00000000
  -V(xc)+E(xc)   XCENC  =       113.54345454
  PAW double counting   =      3036.47257173    -3391.84903860
  entropy T*S    EENTRO =        -0.01325024
  eigenvalues    EBANDS =       -88.97703468
  atomic energy  EATOM  =      3497.66097711
  Solvation  Ediel_sol  =         0.00000000
  ---------------------------------------------------
  free energy    TOTEN  =        -0.26103226 eV

  energy without entropy =       -0.24778201  energy(sigma->0) =       -0.25440714


--------------------------------------------------------------------------------------------------------




 the core state eigenenergies are
   1-  1s  -9519.0182  2s  -1152.5722  2p   -998.2254  3s   -123.4363  3p    -77.5844
     
   2-  1s  -9519.0188  2s  -1152.5728  2p   -998.2259  3s   -123.4367  3p    -77.5847
     
 
 E-fermi :   1.4896     XC(G=0): -11.8602     alpha+bet : -7.8494

 Fermi energy:         1.4895822626

 k-point     1 :       0.0000    0.0000    0.0000
  band No.  band energies     occupation 
      1      -7.3561      2.00000
      2      -5.4881      2.00000
      3      -4.7438      2.00000
      4      -4.4811      2.00000
      5      -4.4811      2.00000
      6      -4.4273      2.00000
      7      -4.4273      2.00000
      8      -4.0783      2.00000
      9      -4.0783      2.00000
     10      -3.8564      2.00000
     11      -3.8564      2.00000
     12      -0.4516      2.00000
     13       0.3862      2.00000
     14      17.4338      0.00000
     15      21.1661      0.00000
     16      21.6983      0.00000

 k-point     2 :       0.5000    0.0000    0.0000
  band No.  band energies     occupation 
      1      -5.2864      2.00000
      2      -5.1897      2.00000
      3      -5.0357      2.00000
      4      -4.5135      2.00000
      5      -4.3321      2.00000
      6      -4.3202      2.00000
      7      -3.9872      2.00000
      8      -3.8718      2.00000
      9      -3.6457      2.00000
     10      -3.6248      2.00000
     11       0.4767      2.00000
     12       1.2762      2.00000
     13       6.2079      0.00000
     14       7.0619      0.00000
     15       7.8624      0.00000
     16       9.2797      0.00000

 k-point     3 :       0.0000    0.5000    0.0000
  band No.  band energies     occupation 
      1      -5.2864      2.00000
      2      -5.1897      2.00000
      3      -5.0357      2.00000
      4      -4.5135      2.00000
      5      -4.3321      2.00000
      6      -4.3202      2.00000
      7      -3.9872      2.00000
      8      -3.8718      2.00000
      9      -3.6457      2.00000
     10      -3.6248      2.00000
     11       0.4767      2.00000
     12       1.2762      2.00000
     13       6.2079      0.00000
     14       7.0619      0.00000
     15       7.8624      0.00000
     16       9.2797      0.00000

 k-point     4 :       0.5000    0.5000    0.0000
  band No.  band energies     occupation 
      1      -5.2863      2.00000
      2      -5.1897      2.00000
      3      -5.0357      2.00000
      4      -4.5135      2.00000
      5      -4.3321      2.00000
      6      -4.3202      2.00000
      7      -3.9872      2.00000
      8      -3.8718      2.00000
      9      -3.6457      2.00000
     10      -3.6249      2.00000
     11       0.4767      2.00000
     12       1.2762      2.00000
     13       6.2079      0.00000
     14       7.0619      0.00000
     15       7.8623      0.00000
     16       9.2797      0.00000

 k-point     5 :       0.0000    0.0000    0.5000
  band No.  band energies     occupation 
      1      -6.0434      2.00000
      2      -6.0431      2.00000
      3      -4.4735      2.00000
      4      -4.4735      2.00000
      5      -4.4731      2.00000
      6      -4.4731      2.00000
      7      -4.4489      2.00000
      8      -4.4487      2.00000
      9      -3.9479      2.00000
     10      -3.9479      2.00000
     11      -3.9476      2.00000
     12      -3.9476      2.00000
     13       8.1419      0.00000
     14       8.1420      0.00000
     15      23.0472      0.00000
     16      23.0473      0.00000

 k-point     6 :       0.5000    0.0000    0.5000
  band No.  band energies     occupation 
      1      -5.2657      2.00000
      2      -5.2655      2.00000
      3      -4.9469      2.00000
      4      -4.9468      2.00000
      5      -4.1101      2.00000
      6      -4.1098      2.00000
      7      -3.8792      2.00000
      8      -3.8790      2.00000
      9      -3.6345      2.00000
     10      -3.6341      2.00000
     11       1.4552      1.66881
     12       1.4555      1.66494
     13       3.7047      0.00000
     14       3.7049      0.00000
     15      13.9117      0.00000
     16      13.9118      0.00000

 k-point     7 :       0.0000    0.5000    0.5000
  band No.  band energies     occupation 
      1      -5.2657      2.00000
      2      -5.2655      2.00000
      3      -4.9469      2.00000
      4      -4.9468      2.00000
      5      -4.1101      2.00000
      6      -4.1098      2.00000
      7      -3.8792      2.00000
      8      -3.8790      2.00000
      9      -3.6345      2.00000
     10      -3.6341      2.00000
     11       1.4552      1.66888
     12       1.4555      1.66495
     13       3.7047      0.00000
     14       3.7049      0.00000
     15      13.9117      0.00000
     16      13.9118      0.00000

 k-point     8 :       0.5000    0.5000    0.5000
  band No.  band energies     occupation 
      1      -5.2657      2.00000
      2      -5.2655      2.00000
      3      -4.9469      2.00000
      4      -4.9468      2.00000
      5      -4.1101      2.00000
      6      -4.1097      2.00000
      7      -3.8792      2.00000
      8      -3.8791      2.00000
      9      -3.6345      2.00000
     10      -3.6341      2.00000
     11       1.4553      1.66813
     12       1.4555      1.66429
     13       3.7046      0.00000
     14       3.7049      0.00000
     15      13.9117      0.00000
     16      13.9118      0.00000


--------------------------------------------------------------------------------------------------------


 soft charge-density along one line, spin component            1
         0         1         2         3         4         5         6         7         8         9
 total charge-density along one line
 
 pseudopotential strength for first ion, spin component:            1
-10.282   0.000   0.000   0.000   0.000 -10.616   0.000   0.000
  0.000 -10.298   0.000  -0.000  -0.000   0.000 -10.631   0.000
  0.000   0.000 -10.296   0.000  -0.000   0.000   0.000 -10.630
  0.000  -0.000   0.000 -10.298   0.000   0.000  -0.000   0.000
  0.000  -0.000  -0.000   0.000 -10.282   0.000  -0.000  -0.000
-10.616   0.000   0.000   0.000   0.000 -10.876   0.000   0.000
  0.000 -10.631   0.000  -0.000  -0.000   0.000 -10.891   0.000
  0.000   0.000 -10.630   0.000  -0.000   0.000   0.000 -10.890
  0.000  -0.000   0.000 -10.631   0.000   0.000  -0.000   0.000
  0.000  -0.000  -0.000   0.000 -10.616   0.000  -0.000  -0.000
  0.000  -0.000  -0.003  -0.000   0.000   0.000  -0.000  -0.004
  0.000  -0.000  -0.005  -0.000   0.000   0.000  -0.000  -0.006
  0.000   0.000  -0.000  -0.000  -0.001   0.000   0.000  -0.000
 -0.000   0.000   0.000   0.000  -0.000  -0.000   0.000   0.000
 -0.001  -0.000  -0.000   0.000   0.000  -0.001  -0.000  -0.000
  0.000   0.000  -0.000  -0.000  -0.001   0.000   0.000  -0.000
 -0.000   0.000   0.000   0.000  -0.000  -0.000   0.000   0.000
 -0.001  -0.000  -0.000   0.000   0.000  -0.000  -0.000  -0.000
 total augmentation occupancy for first ion, spin component:            1
  3.138   0.000   0.000   0.000  -0.000  -1.129  -0.000  -0.000  -0.000   0.000  -0.000   0.000  -0.000  -0.000  -0.162   0.000
  0.000   2.346   0.000   0.000   0.000  -0.000  -0.325  -0.000  -0.000  -0.000  -0.000   0.000  -0.000  -0.000  -0.000  -0.000
  0.000   0.000   3.748   0.000  -0.000  -0.000  -0.000  -1.615  -0.000   0.000   0.280  -0.145   0.000  -0.000   0.000  -0.000
  0.000   0.000   0.000   2.346   0.000  -0.000  -0.000  -0.000  -0.325  -0.000  -0.000  -0.000  -0.000  -0.000  -0.000   0.000
 -0.000   0.000  -0.000   0.000   3.138   0.000  -0.000   0.000  -0.000  -1.129   0.000  -0.000  -0.162  -0.000  -0.000   0.009
 -1.129  -0.000  -0.000  -0.000   0.000   1.097   0.000   0.000   0.000  -0.000   0.000  -0.000   0.000  -0.000   0.148  -0.000
 -0.000  -0.325  -0.000  -0.000  -0.000   0.000   0.283   0.000   0.000   0.000   0.000   0.000   0.000   0.000  -0.000  -0.000
 -0.000  -0.000  -1.615  -0.000   0.000   0.000   0.000   1.472   0.000  -0.000  -0.273   0.153  -0.000   0.000   0.000   0.000
 -0.000  -0.000  -0.000  -0.325  -0.000   0.000   0.000   0.000   0.283   0.000   0.000   0.000   0.000   0.000   0.000  -0.000
  0.000  -0.000   0.000  -0.000  -1.129  -0.000   0.000  -0.000   0.000   1.097   0.000  -0.000   0.148  -0.000  -0.000  -0.010
 -0.000  -0.000   0.280  -0.000   0.000   0.000   0.000  -0.273   0.000   0.000   2.062  -0.463  -0.000   0.000   0.000   0.000
  0.000   0.000  -0.145  -0.000  -0.000  -0.000   0.000   0.153   0.000  -0.000  -0.463   0.149  -0.000  -0.000   0.000  -0.000
 -0.000  -0.000   0.000  -0.000  -0.162   0.000   0.000  -0.000   0.000   0.148  -0.000  -0.000   0.458  -0.000  -0.000  -0.044
 -0.000  -0.000  -0.000  -0.000  -0.000  -0.000   0.000   0.000   0.000  -0.000   0.000  -0.000  -0.000   0.250  -0.000   0.000
 -0.162  -0.000   0.000  -0.000  -0.000   0.148  -0.000   0.000   0.000  -0.000   0.000   0.000  -0.000  -0.000   0.458  -0.000
  0.000  -0.000  -0.000   0.000   0.009  -0.000  -0.000   0.000  -0.000  -0.010   0.000  -0.000  -0.044   0.000  -0.000   0.005
  0.000   0.000  -0.000   0.000   0.000   0.000  -0.000  -0.000  -0.000   0.000   0.000   0.000   0.000  -0.038   0.000  -0.000
  0.009   0.000   0.000   0.000   0.000  -0.010  -0.000  -0.000  -0.000  -0.000   0.000  -0.000  -0.000   0.000  -0.044   0.000


------------------------ aborting loop because EDIFF is reached ----------------------------------------


    CHARGE:  cpu time      0.0092: real time      0.0092
    FORLOC:  cpu time      0.0002: real time      0.0002
    FORNL :  cpu time      0.0311: real time      0.0311
    STRESS:  cpu time      0.0957: real time      0.0957
    FORCOR:  cpu time      0.0026: real time      0.0026
    FORHAR:  cpu time      0.0008: real time      0.0008
    MIXING:  cpu time      0.0028: real time      0.0028
    OFIELD:  cpu time      0.0000: real time      0.0000

  FORCE on cell =-STRESS in cart. coord.  units (eV):
  Direction    XX          YY          ZZ          XY          YZ          ZX
  --------------------------------------------------------------------------------------
  Alpha Z   219.48591   219.48591   219.48591
  Ewald    -761.51293  -761.51293  -930.43236    -0.00000    -0.00000     0.00000
  Hartree   345.74569   345.74247   241.65439     0.00009    -0.00001    -0.00000
  E(xc)    -144.09515  -144.09535  -144.25543    -0.00000     0.00000     0.00000
  Local     181.26577   181.27512   453.76670    -0.00016     0.00002     0.00001
  n-local   -65.83319   -65.83330   -67.26916     0.00001    -0.00000    -0.00000
  augment    83.20142    83.19739    83.67823    -0.00004     0.00002     0.00002
  Kinetic   145.33199   145.32951   138.33816     0.00005    -0.00001    -0.00001
  Fock        0.00000     0.00000     0.00000     0.00000     0.00000     0.00000
  -------------------------------------------------------------------------------------
  Total       3.58950     3.58882    -5.03356    -0.00005     0.00002     0.00001
  in kB     199.37606   199.33830  -279.58507    -0.00251     0.00138     0.00073
  external pressure =       39.71 kB  Pullay stress =        0.00 kB


 VOLUME and BASIS-vectors are now :
 -----------------------------------------------------------------------------
  energy-cutoff  :      450.00
  volume of cell :       28.85
      direct lattice vectors                 reciprocal lattice vectors
     1.307179901 -2.264102003  0.000000000     0.382502821 -0.220838107  0.000000000
     1.307179901  2.264102003  0.000000000     0.382502821  0.220838107 -0.000000000
     0.000000000  0.000000000  4.873161020    -0.000000000  0.000000000  0.205205614

  length of vectors
     2.614359801  2.614359801  4.873161020     0.441676214  0.441676214  0.205205614


 FORCES acting on ions
    electron-ion (+dipol)            ewald-force                    non-local-force                 convergence-correction
 -----------------------------------------------------------------------------------------------
   0.903E-04 -.465E-03 0.110E-01   -.111E-13 0.439E-12 -.485E-13   -.147E-03 0.518E-03 0.481E-02   0.566E-04 0.187E-03 -.159E-01
   0.184E-03 0.675E-03 -.111E-01   -.506E-14 -.437E-12 0.485E-13   0.298E-03 -.265E-03 -.526E-02   -.549E-03 -.628E-03 0.159E-01
 -----------------------------------------------------------------------------------------------
   0.274E-03 0.210E-03 -.296E-04   -.162E-13 0.180E-14 -.192E-17   0.150E-03 0.253E-03 -.450E-03   -.492E-03 -.441E-03 0.197E-04
 
 
 POSITION                                       TOTAL-FORCE (eV/Angst)
 -----------------------------------------------------------------------------------
      1.30718      0.75470      1.21829         0.000033      0.000229      0.000166
      1.30718     -0.75470      3.65487        -0.000033     -0.000229     -0.000166
 -----------------------------------------------------------------------------------
    total drift:                               -0.000068      0.000022     -0.000460


--------------------------------------------------------------------------------------------------------



  FREE ENERGIE OF THE ION-ELECTRON SYSTEM (eV)
  ---------------------------------------------------
  free  energy   TOTEN  =        -0.26103226 eV

  energy  without entropy=       -0.24778201  energy(sigma->0) =       -0.25440714
 


--------------------------------------------------------------------------------------------------------


    POTLOK:  cpu time      0.0077: real time      0.0077


--------------------------------------------------------------------------------------------------------


 writing wavefunctions
     LOOP+:  cpu time      1.3683: real time      1.5524
    4ORBIT:  cpu time      0.0000: real time      0.0000

 total amount of memory used by VASP MPI-rank0    36060. kBytes
=======================================================================

   base      :      30000. kBytes
   nonlr-proj:        711. kBytes
   fftplans  :       1540. kBytes
   grid      :       2380. kBytes
   one-center:         31. kBytes
   wavefun   :       1398. kBytes
 
  
  
 General timing and accounting informations for this job:
 ========================================================
  
                  Total CPU time used (sec):        5.056
                            User time (sec):        3.228
                          System time (sec):        1.828
                         Elapsed time (sec):        6.797
  
                   Maximum memory used (kb):     3570752.
                   Average memory used (kb):          N/A
  
                          Minor page faults:        59288
                          Major page faults:            2
                 Voluntary context switches:         3838
