 vasp.6.4.2 20Jul23 (build Nov 12 2023 22:16:35) complex                         
 executed on              LinuxNV date 2025.05.31  20:18:38
 running    4 mpi-ranks, on    1 nodes
 distrk:  each k-point on    1 cores,    4 groups
 distr:  one band on NCORE=   1 cores,    1 groups
 OpenACC runtime initialized ...    4 GPUs detected


--------------------------------------------------------------------------------------------------------


 INCAR:
   PREC = Normal
   ENCUT = 450
   NELM = 500
   IBRION = -1
   ISPIN = 1
   NSW = 0
   ISIF = 2
   EDIFF = 1E-5
   EDIFFG = -5E-3
   ISTART = 1
   ICHARG = 1
   ISMEAR = 0
   SIGMA = 0.05
   LWAVE = .T.
   LCHARG = .T.
   LREAL = Auto
   LPLANE = .TRUE.
   NPAR = 1
   KPAR = 4
   NCORE = 1
   ALGO = All
   LHFCALC = .TRUE.
   HSE06 = .TRUE.
   HFSCREEN = 0.2
   TIME = 0.4
   AEXX = 0.32
   LMAXFOCK = 4
   PRECFOCK = Fast
   ICORELEVEL = 1
   ISYM = 0

 POTCAR:    PAW_PBE Zn 06Sep2000                  
 POTCAR:    PAW_PBE Zn 06Sep2000                  
   SHA256 =  501fddbd8274dd8e9725d4f3de27861d7f1e553a7e18441bc79fed8f346e7f23 Zn/POTCAR             
   COPYR  = (c) Copyright 06Sep2000 Georg Kresse                                                    
   COPYR  = This file is part of the software VASP. Any use, copying, and all other rights are regul
   COPYR  = If you do not have a valid VASP license, you may not use, copy or distribute this file. 
   VRHFIN =Zn: d10 p2                                                                               
   LEXCH  = PE                                                                                      
   EATOM  =  1748.8345 eV,  128.5357 Ry                                                             
                                                                                                    
   TITEL  = PAW_PBE Zn 06Sep2000                                                                    
   LULTRA =        F    use ultrasoft PP ?                                                          
   IUNSCR =        1    unscreen: 0-lin 1-nonlin 2-no                                               
   RPACOR =    2.000    partial core radius                                                         
   POMASS =   65.390; ZVAL   =   12.000    mass and valenz                                          
   RCORE  =    2.300    outmost cutoff radius                                                       
   RWIGS  =    2.400; RWIGS  =    1.270    wigner-seitz radius (au A)                               
   ENMAX  =  276.723; ENMIN  =  207.542 eV                                                          
   RCLOC  =    1.828    cutoff for local pot                                                        
   LCOR   =        T    correct aug charges                                                         
   LPAW   =        T    paw PP                                                                      
   EAUG   =  575.892                                                                                
   DEXC   =    0.000                                                                                
   RMAX   =    2.347    core radius for proj-oper                                                   
   RAUG   =    1.300    factor for augmentation sphere                                              
   RDEP   =    2.324    radius for radial grids                                                     
   RDEPT  =    1.788    core radius for aug-charge                                                  
                                                                                                    
   Atomic configuration                                                                             
    9 entries                                                                                       
     n  l   j            E        occ.                                                              
     1  0  0.50     -9524.6913   2.0000                                                             
     2  0  0.50     -1158.1882   2.0000                                                             
     2  1  1.50     -1003.8506   6.0000                                                             
     3  0  0.50      -129.2194   2.0000                                                             
     3  1  1.50       -83.3890   6.0000                                                             
     3  2  2.50       -10.1410  10.0000                                                             
     4  0  0.50        -5.9785   2.0000                                                             
     4  1  0.50        -4.0817   0.0000                                                             
     4  3  2.50        -1.3606   0.0000                                                             
   Description                                                                                      
     l       E           TYP  RCUT    TYP  RCUT                                                     
     2    -10.1410010     23  2.300                                                                 
     2    -11.5015836     23  2.300                                                                 
     0     -5.9785163     23  2.300                                                                 
     0      1.1858015     23  2.300                                                                 
     1     -2.7211652     23  2.300                                                                 
     1     13.2444212     23  2.300                                                                 
  local pseudopotential read in
  partial core-charges read in
  partial kinetic energy density read in
  atomic valenz-charges read in
  non local Contribution for L=            2  read in
    real space projection operators read in
  non local Contribution for L=            2  read in
    real space projection operators read in
  non local Contribution for L=            0  read in
    real space projection operators read in
  non local Contribution for L=            0  read in
    real space projection operators read in
  non local Contribution for L=            1  read in
    real space projection operators read in
  non local Contribution for L=            1  read in
    real space projection operators read in
    PAW grid and wavefunctions read in
 
   number of l-projection  operators is LMAX  =            6
   number of lm-projection operators is LMMAX =           18
 
 -----------------------------------------------------------------------------
|                                                                             |
|               ----> ADVICE to this user running VASP <----                  |
|                                                                             |
|     You have a (more or less) 'small supercell' and for smaller cells       |
|     it is recommended to use the reciprocal-space projection scheme!        |
|     The real-space optimization is not efficient for small cells and it     |
|     is also less accurate ...                                               |
|     Therefore, set LREAL=.FALSE. in the INCAR file.                         |
|                                                                             |
 -----------------------------------------------------------------------------

 Optimization of the real space projectors (new method)

 maximal supplied QI-value         = 16.25
 optimisation between [QCUT,QGAM] = [ 10.73, 21.61] = [ 32.22,130.83] Ry 
 Optimized for a Real-space Cutoff    1.38 Angstroem

   l    n(q)    QCUT    max X(q) W(low)/X(q) W(high)/X(q)  e(spline) 
   2      8    10.726    46.356    0.30E-03    0.23E-03    0.13E-06
   2      8    10.726    41.843    0.32E-03    0.24E-03    0.13E-06
   0      9    10.726    48.958    0.40E-03    0.22E-03    0.59E-07
   0      9    10.726    32.776    0.38E-03    0.21E-03    0.56E-07
   1      8    10.726    17.787    0.28E-03    0.23E-03    0.20E-06
   1      8    10.726    14.435    0.25E-03    0.19E-03    0.18E-06
  PAW_PBE Zn 06Sep2000                  :
 energy of atom  1       EATOM=-1748.8345
 kinetic energy error for atom=    0.0040 (will be added to EATOM!!)
 
 
 POSCAR: Zn2
  positions in direct lattice
  velocities in cartesian coordinates
 exchange correlation table for  LEXCH =        8
   RHO(1)=    0.500       N(1)  =     2000
   RHO(2)=  100.500       N(2)  =     4000
 


--------------------------------------------------------------------------------------------------------


 ion  position               nearest neighbor table
   1  0.333  0.667  0.250-   2 2.87   2 2.87   2 2.87   2 2.87   2 2.87   2 2.87
   2  0.667  0.333  0.750-   1 2.87   1 2.87   1 2.87   1 2.87   1 2.87   1 2.87
 

IMPORTANT INFORMATION: All symmetrisations will be switched off!
NOSYMM: (Re-)initialisation of all symmetry stuff for point group C_1.


----------------------------------------------------------------------------------------

                                     Primitive cell                                     

  volume of cell :      28.8451

  direct lattice vectors                    reciprocal lattice vectors
     1.307179901 -2.264102003  0.000000000     0.382502821 -0.220838107  0.000000000
     1.307179901  2.264102003  0.000000000     0.382502821  0.220838107 -0.000000000
     0.000000000  0.000000000  4.873161020    -0.000000000  0.000000000  0.205205614

  length of vectors
     2.614359801  2.614359801  4.873161020     0.441676214  0.441676214  0.205205614

  position of ions in fractional coordinates (direct lattice)
     0.333333333  0.666666667  0.250000000
     0.666666667  0.333333333  0.750000000

  ion indices of the primitive-cell ions
   primitive index   ion index
                 1           1
                 2           2

----------------------------------------------------------------------------------------

 
 
 KPOINTS: Automatic mesh                          

Automatic generation of k-mesh.
 Grid dimensions read from file:
 generate k-points for:    2    2    2

 Generating k-lattice:

  Cartesian coordinates                     Fractional coordinates (reciprocal lattice)
     0.191251411 -0.110419053  0.000000000     0.500000000  0.000000000  0.000000000
     0.191251411  0.110419053 -0.000000000     0.000000000  0.500000000  0.000000000
    -0.000000000  0.000000000  0.102602807     0.000000000  0.000000000  0.500000000

  Length of vectors
     0.220838107  0.220838107  0.102602807

  Shift w.r.t. Gamma in fractional coordinates (k-lattice)
     0.000000000  0.000000000  0.000000000

 
 Subroutine IBZKPT returns following result:
 ===========================================
 
 Found      8 irreducible k-points:
 
 Following reciprocal coordinates:
            Coordinates               Weight
  0.000000  0.000000  0.000000      1.000000
  0.500000  0.000000  0.000000      1.000000
  0.000000  0.500000  0.000000      1.000000
  0.500000  0.500000  0.000000      1.000000
  0.000000  0.000000  0.500000      1.000000
  0.500000  0.000000  0.500000      1.000000
  0.000000  0.500000  0.500000      1.000000
  0.500000  0.500000  0.500000      1.000000
 
 Following cartesian coordinates:
            Coordinates               Weight
  0.000000 -0.000000  0.000000      1.000000
  0.191251 -0.110419  0.000000      1.000000
  0.191251  0.110419  0.000000      1.000000
  0.382503  0.000000  0.000000      1.000000
  0.000000 -0.000000  0.102603      1.000000
  0.191251 -0.110419  0.102603      1.000000
  0.191251  0.110419  0.102603      1.000000
  0.382503  0.000000  0.102603      1.000000
 
 
 Subroutine IBZKPT_HF returns following result:
 ==============================================
 
 Found      8 k-points in 1st BZ
 the following      8 k-points will be used (e.g. in the exchange kernel)
 Following reciprocal coordinates:   # in IRBZ
  0.000000  0.000000  0.000000    0.12500000   1 t-inv F
  0.500000  0.000000  0.000000    0.12500000   2 t-inv F
  0.000000  0.500000  0.000000    0.12500000   3 t-inv F
  0.500000  0.500000  0.000000    0.12500000   4 t-inv F
  0.000000  0.000000  0.500000    0.12500000   5 t-inv F
  0.500000  0.000000  0.500000    0.12500000   6 t-inv F
  0.000000  0.500000  0.500000    0.12500000   7 t-inv F
  0.500000  0.500000  0.500000    0.12500000   8 t-inv F


--------------------------------------------------------------------------------------------------------




 Dimension of arrays:
   k-points           NKPTS =      8   k-points in BZ     NKDIM =      8   number of bands    NBANDS=     16
   number of dos      NEDOS =    301   number of ions     NIONS =      2
   non local maximal  LDIM  =      6   non local SUM 2l+1 LMDIM =     18
   total plane-waves  NPLWV =   5488
   max r-space proj   IRMAX =   2148   max aug-charges    IRDMAX=   5870
   dimension x,y,z NGX =    14 NGY =   14 NGZ =   28
   dimension x,y,z NGXF=    28 NGYF=   28 NGZF=   56
   support grid    NGXF=    28 NGYF=   28 NGZF=   56
   ions per type =               2
   NGX,Y,Z   is equivalent  to a cutoff of   8.90,  8.90,  9.55 a.u.
   NGXF,Y,Z  is equivalent  to a cutoff of  17.81, 17.81, 19.10 a.u.

 SYSTEM =  unknown system                          
 POSCAR =  Zn2                                     

 Startparameter for this run:
   NWRITE =      2    write-flag & timer
   PREC   = normal    normal or accurate (medium, high low for compatibility)
   ISTART =      1    job   : 0-new  1-cont  2-samecut
   ICHARG =      1    charge: 1-file 2-atom 10-const
   ISPIN  =      1    spin polarized calculation?
   LNONCOLLINEAR =      F non collinear calculations
   LSORBIT =      F    spin-orbit coupling
   INIWAV =      1    electr: 0-lowe 1-rand  2-diag
   LASPH  =      F    aspherical Exc in radial PAW
 Electronic Relaxation 1
   ENCUT  =  450.0 eV  33.07 Ry    5.75 a.u.   4.52  4.52  8.43*2*pi/ulx,y,z
   ENINI  =  450.0     initial cutoff
   ENAUG  =  575.9 eV  augmentation charge cutoff
   NELM   =    500;   NELMIN=  2; NELMDL=  0     # of ELM steps 
   EDIFF  = 0.1E-04   stopping-criterion for ELM
   LREAL  =      T    real-space projection
   NLSPLINE    = F    spline interpolate recip. space projectors
   LCOMPAT=      F    compatible to vasp.4.4
   GGA_COMPAT  = T    GGA compatible to vasp.4.4-vasp.4.6
   LMAXPAW     = -100 max onsite density
   LMAXMIX     =    2 max onsite mixed and CHGCAR
   VOSKOWN=      0    Vosko Wilk Nusair interpolation
   ROPT   =   -0.00050
 Ionic relaxation
   EDIFFG = -.5E-02   stopping-criterion for IOM
   NSW    =      0    number of steps for IOM
   NBLOCK =      1;   KBLOCK =      1    inner block; outer block 
   IBRION =     -1    ionic relax: 0-MD 1-quasi-New 2-CG
   NFREE  =      0    steps in history (QN), initial steepest desc. (CG)
   ISIF   =      2    stress and relaxation
   IWAVPR =     10    prediction:  0-non 1-charg 2-wave 3-comb
   ISYM   =      0    0-nonsym 1-usesym 2-fastsym
   LCORR  =      T    Harris-Foulkes like correction to forces

   POTIM  = 0.5000    time-step for ionic-motion
   TEIN   =    0.0    initial temperature
   TEBEG  =    0.0;   TEEND  =   0.0 temperature during run
   SMASS  =  -3.00    Nose mass-parameter (am)
   estimated Nose-frequenzy (Omega)   =  0.10E-29 period in steps = 0.13E+47 mass=  -0.156E-27a.u.
   SCALEE = 1.0000    scale energy and forces
   NPACO  =    256;   APACO  = 10.0  distance and # of slots for P.C.
   PSTRESS=    0.0 pullay stress

  Mass of Ions in am
   POMASS =  65.39
  Ionic Valenz
   ZVAL   =  12.00
  Atomic Wigner-Seitz radii
   RWIGS  =  -1.00
  virtual crystal weights 
   VCA    =   1.00
   NELECT =      24.0000    total number of electrons
   NUPDOWN=      -1.0000    fix difference up-down

 DOS related values:
   EMIN   =  10.00;   EMAX   =-10.00  energy-range for DOS
   EFERMI =   0.00;   METHOD = LEGACY      
   ISMEAR =     0;   SIGMA  =   0.05  broadening in eV -4-tet -1-fermi 0-gaus

 Electronic relaxation 2 (details)
   IALGO  =     58    algorithm
   LDIAG  =      T    sub-space diagonalisation (order eigenvalues)
   LSUBROT=      F    optimize rotation matrix (better conditioning)
   TURBO    =      0    0=normal 1=particle mesh
   IRESTART =      0    0=no restart 2=restart with 2 vectors
   NREBOOT  =      0    no. of reboots
   NMIN     =      0    reboot dimension
   EREF     =   0.00    reference energy to select bands
   IMIX   =      4    mixing-type and parameters
     AMIX     =   0.40;   BMIX     =  1.00
     AMIX_MAG =   1.60;   BMIX_MAG =  1.00
     AMIN     =   0.10
     WC   =   100.;   INIMIX=   1;  MIXPRE=   1;  MAXMIX= -45

 Intra band minimization:
   WEIMIN = 0.0000     energy-eigenvalue tresh-hold
   EBREAK =  0.16E-06  absolut break condition
   DEPER  =   0.30     relativ break condition  

   TIME   =   0.40     timestep for ELM

  volume/ion in A,a.u.               =      14.42        97.33
  Fermi-wavevector in a.u.,A,eV,Ry     =   1.539765  2.909735 32.257744  2.370877
  Thomas-Fermi vector in A             =   2.645947
 
 Write flags
   LWAVE        =      T    write WAVECAR
   LDOWNSAMPLE  =      F    k-point downsampling of WAVECAR
   LCHARG       =      T    write CHGCAR
   LVTOT        =      F    write LOCPOT, total local potential
   LVHAR        =      F    write LOCPOT, Hartree potential only
   LELF         =      F    write electronic localiz. function (ELF)
   LORBIT       =      0    0 simple, 1 ext, 2 COOP (PROOUT), +10 PAW based schemes


 Dipole corrections
   LMONO  =      F    monopole corrections only (constant potential shift)
   LDIPOL =      F    correct potential (dipole corrections)
   IDIPOL =      0    1-x, 2-y, 3-z, 4-all directions 
   EPSILON=  1.0000000 bulk dielectric constant

 Core level calculations are selected ICORELEVEL =  1
 Exchange correlation treatment:
   GGA     =    --    GGA type
   LEXCH   =     8    internal setting for exchange type
   LIBXC   =     F    Libxc                    
   VOSKOWN =     0    Vosko Wilk Nusair interpolation
   EXXOEP  =     0    0=HF, 1=EXX-LHF (local Hartree Fock) 2=EXX OEP
   LHFCALC =     T    Hartree Fock is set to
   LSYMGRAD=     F    symmetrize gradient (conserves proper symmetry)
   PRECFOCK=fast      Normal, Fast or Accurate (Low or Medium for compatibility)
   LRHFCALC=     F    long range Hartree Fock
   LRSCOR  =     F    long range correlation only (use DFT for short range part)
   LTHOMAS =     F    Thomas Fermi screening in HF
   LMODELHF=     F    short range full HF, long range fraction AEXX
   FOCKCORR=     1    mode to apply convergence corrections
   LFOCKACE=     T    use Adeptively-Compressed-Exchange operator
   ENCUT4O =  -1.0   cutoff for four orbital integrals eV
   LMAXFOCK=     4    L truncation for augmentation on plane wave grid
   LMAXFOCKAE=  -1    L truncation for all-electron charge restoration on plane wave grid
   NMAXFOCKAE=   1    number of basis functions for all-electron charge restoration
   LFOCKAEDFT=     F  apply the AE augmentation even for DFT
   NKREDX  =     1    reduce k-point grid by
   NKREDY  =     1    reduce k-point grid by
   NKREDZ  =     1    reduce k-point grid by
   SHIFTRED=     F    shift reduced grid of Gamma
   HFKIDENT=     F    idential grid for each k-point
   ODDONLY =     F    use only odd q-grid points
   EVENONLY=     F    use only even q-grid points
   HFALPHA =   -1.0000 decay constant for conv. correction
   MCALPHA =    0.0000 extent of test-charge in conv. correction in multipole expansion
   AEXX    =    0.3200 exact exchange contribution
   HFSCREEN=    0.2000 screening length (either q_TF or 0.3 A-1)
   HFSCREENC=   0.2000 screening length for correlation (either q_TF or 0.3 A-1)
   HFRCUT  =    0.0000 spherical cutoff for potential kernel
   ALDAX   =    0.6800 LDA exchange part
   AGGAX   =    0.6800 GGA exchange part
   ALDAC   =    1.0000 LDA correlation
   AGGAC   =    1.0000 GGA correlation
   ENCUTFOCK=  -1.0 apply spherical cutoff to Coloumb kernel
   NBANDSGWLOW=     1    first orbital included in HF term
   NBLOCK_FOCK=    64    blocking factor in FOCK_ACC

 Linear response parameters
   LEPSILON=     F    determine dielectric tensor
   LRPA    =     F    only Hartree local field effects (RPA)
   LNABLA  =     F    use nabla operator in PAW spheres
   LVEL    =     F    velocity operator in full k-point grid
   CSHIFT  =0.1000    complex shift for real part using Kramers Kronig
   OMEGAMAX=  -1.0    maximum frequency
   DEG_THRESHOLD= 0.2000000E-02 threshold for treating states as degnerate
   RTIME   =   -0.100 relaxation time in fs
  (WPLASMAI=    0.000 imaginary part of plasma frequency in eV, 0.658/RTIME)
   DFIELD  = 0.0000000 0.0000000 0.0000000 field for delta impulse in time
 
  Optional k-point grid parameters
   LKPOINTS_OPT  =     F    use optional k-point grid
   KPOINTS_OPT_MODE=     1    mode for optional k-point grid
 
 Orbital magnetization related:
   ORBITALMAG=     F  switch on orbital magnetization
   LCHIMAG   =     F  perturbation theory with respect to B field
   DQ        =  0.001000  dq finite difference perturbation B field
   LLRAUG    =     F  two centre corrections for induced B field
   LBONE     =     F  B-component reconstruction in AE one-centre
   LVGVCALC  =     T  calculate vGv susceptibility
   LVGVAPPL  =     F  apply vGv susceptibility instead of pGv for G=0

 Random number generation:
   RANDOM_GENERATOR = DEFAULT
   PCG_SEED         = not used


--------------------------------------------------------------------------------------------------------


 Static calculation
 charge density and potential will be updated during run
 non-spin polarized calculation
 Conjugate gradient for all bands (Freysoldt, et al. PRB 79, 241103 (2009))
 preconditioned conjugated gradient                                        
 perform sub-space diagonalisation
    before iterative eigenvector-optimisation
 modified Broyden-mixing scheme, WC =      100.0
 initial mixing is a Kerker type mixing with AMIX =  0.4000 and BMIX =      1.0000
 Hartree-type preconditioning will be used
 using additional bands             4
 real space projection scheme for non local part
 use partial core corrections
 no Harris-corrections to forces 
 use gradient corrections 
 use of overlap-Matrix (Vanderbilt PP)
 Gauss-broadening in eV      SIGMA  =   0.05


--------------------------------------------------------------------------------------------------------


  energy-cutoff  :      450.00
  volume of cell :       28.85
      direct lattice vectors                 reciprocal lattice vectors
     1.307179901 -2.264102003  0.000000000     0.382502821 -0.220838107  0.000000000
     1.307179901  2.264102003  0.000000000     0.382502821  0.220838107 -0.000000000
     0.000000000  0.000000000  4.873161020    -0.000000000  0.000000000  0.205205614

  length of vectors
     2.614359801  2.614359801  4.873161020     0.441676214  0.441676214  0.205205614


 
 old parameters found on file WAVECAR:
  energy-cutoff  :      450.00
  volume of cell :       28.85
      direct lattice vectors                 reciprocal lattice vectors
     1.307179901 -2.264102003  0.000000000     0.382502821 -0.220838107  0.000000000
     1.307179901  2.264102003  0.000000000     0.382502821  0.220838107 -0.000000000
     0.000000000  0.000000000  4.873161020    -0.000000000  0.000000000  0.205205614

  length of vectors

 
 k-points in units of 2pi/SCALE and weight: Automatic mesh                          
   0.00000000 -0.00000000  0.00000000       0.125
   0.19125141 -0.11041905  0.00000000       0.125
   0.19125141  0.11041905  0.00000000       0.125
   0.38250282  0.00000000  0.00000000       0.125
   0.00000000 -0.00000000  0.10260281       0.125
   0.19125141 -0.11041905  0.10260281       0.125
   0.19125141  0.11041905  0.10260281       0.125
   0.38250282  0.00000000  0.10260281       0.125
 
 k-points in reciprocal lattice and weights: Automatic mesh                          
   0.00000000  0.00000000  0.00000000       0.125
   0.50000000  0.00000000  0.00000000       0.125
   0.00000000  0.50000000  0.00000000       0.125
   0.50000000  0.50000000  0.00000000       0.125
   0.00000000  0.00000000  0.50000000       0.125
   0.50000000  0.00000000  0.50000000       0.125
   0.00000000  0.50000000  0.50000000       0.125
   0.50000000  0.50000000  0.50000000       0.125
 
 position of ions in fractional coordinates (direct lattice) 
   0.33333333  0.66666667  0.25000000
   0.66666667  0.33333333  0.75000000
 
 position of ions in cartesian coordinates  (Angst):
   1.30717990  0.75470067  1.21829026
   1.30717990 -0.75470067  3.65487077
 


--------------------------------------------------------------------------------------------------------


 k-point   1 :   0.0000 0.0000 0.0000  plane waves:     647
 k-point   2 :   0.5000 0.0000 0.0000  plane waves:     616
 k-point   3 :   0.0000 0.5000 0.0000  plane waves:     616
 k-point   4 :   0.5000 0.5000 0.0000  plane waves:     616
 k-point   5 :   0.0000 0.0000 0.5000  plane waves:     616
 k-point   6 :   0.5000 0.0000 0.5000  plane waves:     616
 k-point   7 :   0.0000 0.5000 0.5000  plane waves:     616
 k-point   8 :   0.5000 0.5000 0.5000  plane waves:     616

 maximum and minimum number of plane-waves per node :       647      616

 maximum number of plane-waves:       647
 maximum index in each direction: 
   IXMAX=    4   IYMAX=    4   IZMAX=    8
   IXMIN=   -5   IYMIN=   -5   IZMIN=   -8


 serial   3D FFT for wavefunctions
 parallel 3D FFT for charge:
    minimum data exchange during FFTs selected (reduces bandwidth)


 FFT grid for exact exchange (Hartree Fock) 
  NGX = 12; NGY = 12; NGZ = 24

 
 Radii for the augmentation spheres in the non-local exchange
 for species   1 augmentation radius   1.285 (default was   0.952)
       energy cutoff for augmentation   1800.0
 Maximum index for augmentation-charges in exchange          1069
  SETUP_FOCK is finished

 total amount of memory used by VASP MPI-rank0    39427. kBytes
=======================================================================

   base      :      30000. kBytes
   nonlr-proj:       1218. kBytes
   fftplans  :       1540. kBytes
   grid      :       2380. kBytes
   one-center:         31. kBytes
   HF        :         64. kBytes
   wavefun   :       4194. kBytes
 
     INWAV:  cpu time      0.0062: real time      0.0068
 Broyden mixing: mesh for mixing (old mesh)
   NGX =  9   NGY =  9   NGZ = 17
  (NGX  = 28   NGY  = 28   NGZ  = 56)
  gives a total of   1377 points

 initial charge density was supplied:
 number of electron      24.0000054 magnetization 
 charge density for first step will be calculated from the start-wavefunctions


--------------------------------------------------------------------------------------------------------


 Maximum index for non-local projection operator          2022
 Maximum index for augmentation-charges          5508 (set IRDMAX)


--------------------------------------------------------------------------------------------------------


 initial charge from wavefunction
 First call to EWALD:  gamma=   0.578
 Maximum number of real-space cells 4x 4x 2
 Maximum number of reciprocal cells 2x 2x 4

    FEWALD:  cpu time      0.0010: real time      0.0010


--------------------------------------- Ionic step        1  -------------------------------------------




--------------------------------------- Iteration      1(   1)  ---------------------------------------


    POTLOK:  cpu time      0.1092: real time      0.1091
    SETDIJ:  cpu time      0.1078: real time      0.1078
    TRIAL :  cpu time      0.2552: real time      0.2633
    CORREC:  cpu time      0.3593: real time      0.3593
    CHARGE:  cpu time      0.0077: real time      0.0077
    --------------------------------------------
      LOOP:  cpu time      0.8438: real time      0.8517

 eigenvalue-minimisations  :     0
 total energy-change (2. order) :-0.7150253E+00  (-0.1311860E+00)
 number of electron      24.0000055 magnetization 
 augmentation part       16.1258945 magnetization 

 Free energy of the ion-electron system (eV)
  ---------------------------------------------------
  alpha Z        PSCENC =       219.48591142
  Ewald energy   TEWEN  =     -2453.45788842
  -Hartree energ DENC   =      -933.14254347
  -exchange      EXHF   =        84.77048514
  -V(xc)+E(xc)   XCENC  =        78.43448183
  PAW double counting   =      3070.69042815    -3392.54920116
  entropy T*S    EENTRO =        -0.01324997
  eigenvalues    EBANDS =      -167.89790753
  atomic energy  EATOM  =      3492.96445902
  ---------------------------------------------------
  free energy    TOTEN  =        -0.71502525 eV

  energy without entropy =       -0.70177528  energy(sigma->0) =       -0.70840027
  exchange ACFDT corr.  =        -0.12098606  see jH, gK, PRB 81, 115126


--------------------------------------------------------------------------------------------------------




--------------------------------------- Iteration      1(   2)  ---------------------------------------


    POTLOK:  cpu time      0.0724: real time      0.0724
    SETDIJ:  cpu time      0.0945: real time      0.0945
    TRIAL :  cpu time      0.1693: real time      0.1692
    CORREC:  cpu time      0.3357: real time      0.3356
    CHARGE:  cpu time      0.0071: real time      0.0071
    --------------------------------------------
      LOOP:  cpu time      0.6792: real time      0.6800

 eigenvalue-minimisations  :     0
 total energy-change (2. order) :-0.1309608E+00  (-0.8299651E-01)
 number of electron      24.0000055 magnetization 
 augmentation part       16.1610785 magnetization 

 Free energy of the ion-electron system (eV)
  ---------------------------------------------------
  alpha Z        PSCENC =       219.48591142
  Ewald energy   TEWEN  =     -2453.45788842
  -Hartree energ DENC   =      -945.67143102
  -exchange      EXHF   =        85.23275076
  -V(xc)+E(xc)   XCENC  =        78.85508841
  PAW double counting   =      3108.79723311    -3437.17861783
  entropy T*S    EENTRO =        -0.01323974
  eigenvalues    EBANDS =      -149.86024156
  atomic energy  EATOM  =      3492.96445902
  ---------------------------------------------------
  free energy    TOTEN  =        -0.84598608 eV

  energy without entropy =       -0.83274634  energy(sigma->0) =       -0.83936621
  exchange ACFDT corr.  =        -0.12129373  see jH, gK, PRB 81, 115126


--------------------------------------------------------------------------------------------------------




--------------------------------------- Iteration      1(   3)  ---------------------------------------


    POTLOK:  cpu time      0.0549: real time      0.0548
    SETDIJ:  cpu time      0.1150: real time      0.1150
    TRIAL :  cpu time      0.1670: real time      0.1669
    CORREC:  cpu time      0.3402: real time      0.3401
    CHARGE:  cpu time      0.0071: real time      0.0071
    --------------------------------------------
      LOOP:  cpu time      0.6843: real time      0.6848

 eigenvalue-minimisations  :     0
 total energy-change (2. order) :-0.8555593E-01  (-0.8690287E-02)
 number of electron      24.0000055 magnetization 
 augmentation part       16.1686184 magnetization 

 Free energy of the ion-electron system (eV)
  ---------------------------------------------------
  alpha Z        PSCENC =       219.48591142
  Ewald energy   TEWEN  =     -2453.45788842
  -Hartree energ DENC   =      -944.88504237
  -exchange      EXHF   =        85.30670192
  -V(xc)+E(xc)   XCENC  =        78.83383723
  PAW double counting   =      3184.37208300    -3510.16253224
  entropy T*S    EENTRO =        -0.01312805
  eigenvalues    EBANDS =      -153.37583183
  atomic energy  EATOM  =      3492.96445902
  ---------------------------------------------------
  free energy    TOTEN  =        -0.93154201 eV

  energy without entropy =       -0.91841396  energy(sigma->0) =       -0.92497798
  exchange ACFDT corr.  =        -0.12176774  see jH, gK, PRB 81, 115126


--------------------------------------------------------------------------------------------------------




--------------------------------------- Iteration      1(   4)  ---------------------------------------


    POTLOK:  cpu time      0.0544: real time      0.0544
    SETDIJ:  cpu time      0.1083: real time      0.1083
    TRIAL :  cpu time      0.1656: real time      0.1655
    CORREC:  cpu time      0.3253: real time      0.3253
    CHARGE:  cpu time      0.0071: real time      0.0071
    --------------------------------------------
      LOOP:  cpu time      0.6609: real time      0.6611

 eigenvalue-minimisations  :     0
 total energy-change (2. order) :-0.8771981E-02  (-0.8542767E-02)
 number of electron      24.0000055 magnetization 
 augmentation part       16.1759650 magnetization 

 Free energy of the ion-electron system (eV)
  ---------------------------------------------------
  alpha Z        PSCENC =       219.48591142
  Ewald energy   TEWEN  =     -2453.45788842
  -Hartree energ DENC   =      -945.62880072
  -exchange      EXHF   =        85.34213893
  -V(xc)+E(xc)   XCENC  =        78.85777741
  PAW double counting   =      3185.20984914    -3511.25634848
  entropy T*S    EENTRO =        -0.01324729
  eigenvalues    EBANDS =      -152.44428425
  atomic energy  EATOM  =      3492.96445902
  ---------------------------------------------------
  free energy    TOTEN  =        -0.94031399 eV

  energy without entropy =       -0.92706669  energy(sigma->0) =       -0.93369034
  exchange ACFDT corr.  =        -0.12154379  see jH, gK, PRB 81, 115126


--------------------------------------------------------------------------------------------------------




--------------------------------------- Iteration      1(   5)  ---------------------------------------


    POTLOK:  cpu time      0.0538: real time      0.0538
    SETDIJ:  cpu time      0.1035: real time      0.1035
    TRIAL :  cpu time      0.1657: real time      0.1657
    CORREC:  cpu time      0.3192: real time      0.3321
    CHARGE:  cpu time      0.0071: real time      0.0071
    --------------------------------------------
      LOOP:  cpu time      0.6497: real time      0.6631

 eigenvalue-minimisations  :     0
 total energy-change (2. order) :-0.8453227E-02  (-0.1807415E-02)
 number of electron      24.0000055 magnetization 
 augmentation part       16.1760513 magnetization 

 Free energy of the ion-electron system (eV)
  ---------------------------------------------------
  alpha Z        PSCENC =       219.48591142
  Ewald energy   TEWEN  =     -2453.45788842
  -Hartree energ DENC   =      -946.49501487
  -exchange      EXHF   =        85.37911238
  -V(xc)+E(xc)   XCENC  =        78.88539507
  PAW double counting   =      3182.40825451    -3508.80052246
  entropy T*S    EENTRO =        -0.01323500
  eigenvalues    EBANDS =      -151.30522657
  atomic energy  EATOM  =      3492.96445902
  ---------------------------------------------------
  free energy    TOTEN  =        -0.94876721 eV

  energy without entropy =       -0.93553221  energy(sigma->0) =       -0.94214971
  exchange ACFDT corr.  =        -0.12140352  see jH, gK, PRB 81, 115126


--------------------------------------------------------------------------------------------------------




--------------------------------------- Iteration      1(   6)  ---------------------------------------


    POTLOK:  cpu time      0.0487: real time      0.0487
    SETDIJ:  cpu time      0.1219: real time      0.1219
    TRIAL :  cpu time      0.1662: real time      0.1782
    CORREC:  cpu time      0.3330: real time      0.3330
    CHARGE:  cpu time      0.0071: real time      0.0071
    --------------------------------------------
      LOOP:  cpu time      0.6771: real time      0.6895

 eigenvalue-minimisations  :     0
 total energy-change (2. order) :-0.1813786E-02  (-0.4417372E-03)
 number of electron      24.0000055 magnetization 
 augmentation part       16.1765112 magnetization 

 Free energy of the ion-electron system (eV)
  ---------------------------------------------------
  alpha Z        PSCENC =       219.48591142
  Ewald energy   TEWEN  =     -2453.45788842
  -Hartree energ DENC   =      -946.62603482
  -exchange      EXHF   =        85.38944187
  -V(xc)+E(xc)   XCENC  =        78.88870468
  PAW double counting   =      3177.39738389    -3503.66098071
  entropy T*S    EENTRO =        -0.01323623
  eigenvalues    EBANDS =      -151.31834293
  atomic energy  EATOM  =      3492.96445902
  ---------------------------------------------------
  free energy    TOTEN  =        -0.95058100 eV

  energy without entropy =       -0.93734477  energy(sigma->0) =       -0.94396288
  exchange ACFDT corr.  =        -0.12096654  see jH, gK, PRB 81, 115126


--------------------------------------------------------------------------------------------------------




--------------------------------------- Iteration      1(   7)  ---------------------------------------


    POTLOK:  cpu time      0.0525: real time      0.0525
    SETDIJ:  cpu time      0.1121: real time      0.1120
    TRIAL :  cpu time      0.1656: real time      0.1656
    CORREC:  cpu time      0.3209: real time      0.3209
    CHARGE:  cpu time      0.0071: real time      0.0071
    --------------------------------------------
      LOOP:  cpu time      0.6584: real time      0.6588

 eigenvalue-minimisations  :     0
 total energy-change (2. order) :-0.4398310E-03  (-0.6740190E-03)
 number of electron      24.0000055 magnetization 
 augmentation part       16.1799119 magnetization 

 Free energy of the ion-electron system (eV)
  ---------------------------------------------------
  alpha Z        PSCENC =       219.48591142
  Ewald energy   TEWEN  =     -2453.45788842
  -Hartree energ DENC   =      -946.70550240
  -exchange      EXHF   =        85.39385028
  -V(xc)+E(xc)   XCENC  =        78.89115405
  PAW double counting   =      3175.78581555    -3502.03970215
  entropy T*S    EENTRO =        -0.01302464
  eigenvalues    EBANDS =      -151.25588195
  atomic energy  EATOM  =      3492.96445902
  ---------------------------------------------------
  free energy    TOTEN  =        -0.95102083 eV

  energy without entropy =       -0.93799620  energy(sigma->0) =       -0.94450851
  exchange ACFDT corr.  =        -0.12042749  see jH, gK, PRB 81, 115126


--------------------------------------------------------------------------------------------------------




--------------------------------------- Iteration      1(   8)  ---------------------------------------


    POTLOK:  cpu time      0.0680: real time      0.0680
    SETDIJ:  cpu time      0.0996: real time      0.0995
    TRIAL :  cpu time      0.1659: real time      0.1658
    CORREC:  cpu time      0.3347: real time      0.3346
    CHARGE:  cpu time      0.0071: real time      0.0071
    --------------------------------------------
      LOOP:  cpu time      0.6755: real time      0.6759

 eigenvalue-minimisations  :     0
 total energy-change (2. order) :-0.7001324E-03  ( 0.1423088E-02)
 number of electron      24.0000055 magnetization 
 augmentation part       16.1845491 magnetization 

 Free energy of the ion-electron system (eV)
  ---------------------------------------------------
  alpha Z        PSCENC =       219.48591142
  Ewald energy   TEWEN  =     -2453.45788842
  -Hartree energ DENC   =      -947.05378352
  -exchange      EXHF   =        85.41051640
  -V(xc)+E(xc)   XCENC  =        78.90326352
  PAW double counting   =      3172.12382652    -3498.52816990
  entropy T*S    EENTRO =        -0.01077076
  eigenvalues    EBANDS =      -150.78683137
  atomic energy  EATOM  =      3492.96445902
  ---------------------------------------------------
  free energy    TOTEN  =        -0.95172096 eV

  energy without entropy =       -0.94095021  energy(sigma->0) =       -0.94633559
  exchange ACFDT corr.  =        -0.11375621  see jH, gK, PRB 81, 115126


--------------------------------------------------------------------------------------------------------




--------------------------------------- Iteration      1(   9)  ---------------------------------------


    POTLOK:  cpu time      0.0698: real time      0.0698
    SETDIJ:  cpu time      0.0972: real time      0.0972
    TRIAL :  cpu time      0.1661: real time      0.1661
    CORREC:  cpu time      0.3243: real time      0.3242
    CHARGE:  cpu time      0.0071: real time      0.0071
    --------------------------------------------
      LOOP:  cpu time      0.6648: real time      0.6652

 eigenvalue-minimisations  :     0
 total energy-change (2. order) :-0.4958935E-02  (-0.1684046E-01)
 number of electron      24.0000055 magnetization 
 augmentation part       16.1725315 magnetization 

 Free energy of the ion-electron system (eV)
  ---------------------------------------------------
  alpha Z        PSCENC =       219.48591142
  Ewald energy   TEWEN  =     -2453.45788842
  -Hartree energ DENC   =      -947.48694398
  -exchange      EXHF   =        85.44577363
  -V(xc)+E(xc)   XCENC  =        78.91884138
  PAW double counting   =      3164.97456211    -3491.52212555
  entropy T*S    EENTRO =        -0.00723556
  eigenvalues    EBANDS =      -150.26849874
  atomic energy  EATOM  =      3492.96445902
  ---------------------------------------------------
  free energy    TOTEN  =        -0.95667990 eV

  energy without entropy =       -0.94944434  energy(sigma->0) =       -0.95306212
  exchange ACFDT corr.  =        -0.08865870  see jH, gK, PRB 81, 115126


--------------------------------------------------------------------------------------------------------




--------------------------------------- Iteration      1(  10)  ---------------------------------------


    POTLOK:  cpu time      0.0660: real time      0.0660
    SETDIJ:  cpu time      0.0913: real time      0.0913
    TRIAL :  cpu time      0.7858: real time      0.7856
    CORREC:  cpu time      0.3390: real time      0.3389
    CHARGE:  cpu time      0.0073: real time      0.0073
    --------------------------------------------
      LOOP:  cpu time      1.2896: real time      1.2904

 eigenvalue-minimisations  :     0
 total energy-change (2. order) :-0.1540576E-01  (-0.2817912E-02)
 number of electron      24.0000055 magnetization 
 augmentation part       16.1809422 magnetization 

 Free energy of the ion-electron system (eV)
  ---------------------------------------------------
  alpha Z        PSCENC =       219.48591142
  Ewald energy   TEWEN  =     -2453.45788842
  -Hartree energ DENC   =      -946.10238360
  -exchange      EXHF   =        85.41621326
  -V(xc)+E(xc)   XCENC  =        78.87170028
  PAW double counting   =      3170.06306192    -3495.80005984
  entropy T*S    EENTRO =        -0.00699840
  eigenvalues    EBANDS =      -152.40586413
  atomic energy  EATOM  =      3492.96445902
  ---------------------------------------------------
  free energy    TOTEN  =        -0.97208566 eV

  energy without entropy =       -0.96508726  energy(sigma->0) =       -0.96858646
  exchange ACFDT corr.  =        -0.05661357  see jH, gK, PRB 81, 115126


--------------------------------------------------------------------------------------------------------




--------------------------------------- Iteration      1(  11)  ---------------------------------------


    POTLOK:  cpu time      0.0560: real time      0.0560
    SETDIJ:  cpu time      0.1113: real time      0.1113
    TRIAL :  cpu time      0.1821: real time      0.1820
    CORREC:  cpu time      0.3264: real time      0.3263
    CHARGE:  cpu time      0.0071: real time      0.0071
    --------------------------------------------
      LOOP:  cpu time      0.6831: real time      0.6835

 eigenvalue-minimisations  :     0
 total energy-change (2. order) :-0.2629333E-02  ( 0.2904059E+00)
 number of electron      24.0000055 magnetization 
 augmentation part       16.1799061 magnetization 

 Free energy of the ion-electron system (eV)
  ---------------------------------------------------
  alpha Z        PSCENC =       219.48591142
  Ewald energy   TEWEN  =     -2453.45788842
  -Hartree energ DENC   =      -947.04604187
  -exchange      EXHF   =        85.44682438
  -V(xc)+E(xc)   XCENC  =        78.90353322
  PAW double counting   =      3172.95077380    -3499.33884363
  entropy T*S    EENTRO =        -0.00672697
  eigenvalues    EBANDS =      -150.87644451
  atomic energy  EATOM  =      3492.96445902
  ---------------------------------------------------
  free energy    TOTEN  =        -0.97471500 eV

  energy without entropy =       -0.96798803  energy(sigma->0) =       -0.97135151
  exchange ACFDT corr.  =        -0.05440124  see jH, gK, PRB 81, 115126


--------------------------------------------------------------------------------------------------------




--------------------------------------- Iteration      1(  12)  ---------------------------------------


    POTLOK:  cpu time      0.0601: real time      0.0601
    SETDIJ:  cpu time      0.1113: real time      0.1112
    TRIAL :  cpu time      0.1656: real time      0.1776
    CORREC:  cpu time      0.3298: real time      0.3425
    CHARGE:  cpu time      0.0071: real time      0.0071
    --------------------------------------------
      LOOP:  cpu time      0.6740: real time      0.6991

 eigenvalue-minimisations  :     0
 total energy-change (2. order) :-0.2322170E-02  ( 0.3628005E-02)
 number of electron      24.0000055 magnetization 
 augmentation part       16.1784566 magnetization 

 Free energy of the ion-electron system (eV)
  ---------------------------------------------------
  alpha Z        PSCENC =       219.48591142
  Ewald energy   TEWEN  =     -2453.45788842
  -Hartree energ DENC   =      -946.90187583
  -exchange      EXHF   =        85.44250022
  -V(xc)+E(xc)   XCENC  =        78.89897651
  PAW double counting   =      3174.17525586    -3500.53189455
  entropy T*S    EENTRO =        -0.00558029
  eigenvalues    EBANDS =      -151.04575443
  atomic energy  EATOM  =      3492.96445902
  ---------------------------------------------------
  free energy    TOTEN  =        -0.97703717 eV

  energy without entropy =       -0.97145688  energy(sigma->0) =       -0.97424702
  exchange ACFDT corr.  =        -0.05038243  see jH, gK, PRB 81, 115126


--------------------------------------------------------------------------------------------------------




--------------------------------------- Iteration      1(  13)  ---------------------------------------


    POTLOK:  cpu time      0.0542: real time      0.0541
    SETDIJ:  cpu time      0.1182: real time      0.1182
    TRIAL :  cpu time      0.1661: real time      0.1660
    CORREC:  cpu time      1.3080: real time      1.3076
    CHARGE:  cpu time      0.0071: real time      0.0071
    --------------------------------------------
      LOOP:  cpu time      1.6537: real time      1.6537

 eigenvalue-minimisations  :     0
 total energy-change (2. order) :-0.7401324E-02  (-0.2740718E-04)
 number of electron      24.0000055 magnetization 
 augmentation part       16.1837092 magnetization 

 Free energy of the ion-electron system (eV)
  ---------------------------------------------------
  alpha Z        PSCENC =       219.48591142
  Ewald energy   TEWEN  =     -2453.45788842
  -Hartree energ DENC   =      -946.74947614
  -exchange      EXHF   =        85.44598538
  -V(xc)+E(xc)   XCENC  =        78.89380961
  PAW double counting   =      3174.13614543    -3500.37766003
  entropy T*S    EENTRO =        -0.00000000
  eigenvalues    EBANDS =      -151.32014447
  atomic energy  EATOM  =      3492.96445902
  ---------------------------------------------------
  free energy    TOTEN  =        -0.98443849 eV

  energy without entropy =       -0.98443849  energy(sigma->0) =       -0.98443849
  exchange ACFDT corr.  =        -0.03824669  see jH, gK, PRB 81, 115126


--------------------------------------------------------------------------------------------------------




--------------------------------------- Iteration      1(  14)  ---------------------------------------


    POTLOK:  cpu time      0.0633: real time      0.0633
    SETDIJ:  cpu time      0.1122: real time      0.1122
    TRIAL :  cpu time      0.1657: real time      0.1656
    CORREC:  cpu time      0.3234: real time      0.3233
    CHARGE:  cpu time      0.0071: real time      0.0071
    --------------------------------------------
      LOOP:  cpu time      0.6719: real time      0.6722

 eigenvalue-minimisations  :     0
 total energy-change (2. order) :-0.2605955E-01  (-0.1211162E-02)
 number of electron      24.0000055 magnetization 
 augmentation part       16.1772560 magnetization 

 Free energy of the ion-electron system (eV)
  ---------------------------------------------------
  alpha Z        PSCENC =       219.48591142
  Ewald energy   TEWEN  =     -2453.45788842
  -Hartree energ DENC   =      -947.43655164
  -exchange      EXHF   =        85.49946882
  -V(xc)+E(xc)   XCENC  =        78.91722023
  PAW double counting   =      3174.55536955    -3501.27123081
  entropy T*S    EENTRO =        -0.00000000
  eigenvalues    EBANDS =      -150.26725622
  atomic energy  EATOM  =      3492.96445902
  ---------------------------------------------------
  free energy    TOTEN  =        -1.01049804 eV

  energy without entropy =       -1.01049804  energy(sigma->0) =       -1.01049804
  exchange ACFDT corr.  =        -0.00000000  see jH, gK, PRB 81, 115126


--------------------------------------------------------------------------------------------------------




--------------------------------------- Iteration      1(  15)  ---------------------------------------


    POTLOK:  cpu time      0.0517: real time      0.0517
    SETDIJ:  cpu time      0.1120: real time      0.1119
    TRIAL :  cpu time      0.1655: real time      0.1655
    CORREC:  cpu time      0.3353: real time      0.3352
    CHARGE:  cpu time      0.0071: real time      0.0071
    --------------------------------------------
      LOOP:  cpu time      0.6718: real time      0.6720

 eigenvalue-minimisations  :     0
 total energy-change (2. order) :-0.1209210E-02  (-0.2018280E-03)
 number of electron      24.0000055 magnetization 
 augmentation part       16.1774555 magnetization 

 Free energy of the ion-electron system (eV)
  ---------------------------------------------------
  alpha Z        PSCENC =       219.48591142
  Ewald energy   TEWEN  =     -2453.45788842
  -Hartree energ DENC   =      -946.69959918
  -exchange      EXHF   =        85.47516333
  -V(xc)+E(xc)   XCENC  =        78.89239800
  PAW double counting   =      3174.08267060    -3500.34289987
  entropy T*S    EENTRO =        -0.00000000
  eigenvalues    EBANDS =      -151.41192215
  atomic energy  EATOM  =      3492.96445902
  ---------------------------------------------------
  free energy    TOTEN  =        -1.01170725 eV

  energy without entropy =       -1.01170725  energy(sigma->0) =       -1.01170725
  exchange ACFDT corr.  =        -0.00000000  see jH, gK, PRB 81, 115126


--------------------------------------------------------------------------------------------------------




--------------------------------------- Iteration      1(  16)  ---------------------------------------


    POTLOK:  cpu time      0.0480: real time      0.0480
    SETDIJ:  cpu time      0.1163: real time      0.1163
    TRIAL :  cpu time      0.1652: real time      0.1651
    CORREC:  cpu time      0.3234: real time      0.3233
    CHARGE:  cpu time      0.0072: real time      0.0072
    --------------------------------------------
      LOOP:  cpu time      0.6602: real time      0.6605

 eigenvalue-minimisations  :     0
 total energy-change (2. order) :-0.2018384E-03  (-0.1838826E-03)
 number of electron      24.0000055 magnetization 
 augmentation part       16.1776562 magnetization 

 Free energy of the ion-electron system (eV)
  ---------------------------------------------------
  alpha Z        PSCENC =       219.48591142
  Ewald energy   TEWEN  =     -2453.45788842
  -Hartree energ DENC   =      -946.73623121
  -exchange      EXHF   =        85.47714539
  -V(xc)+E(xc)   XCENC  =        78.89345965
  PAW double counting   =      3174.17322492    -3500.44415254
  entropy T*S    EENTRO =        -0.00000000
  eigenvalues    EBANDS =      -151.36783732
  atomic energy  EATOM  =      3492.96445902
  ---------------------------------------------------
  free energy    TOTEN  =        -1.01190909 eV

  energy without entropy =       -1.01190909  energy(sigma->0) =       -1.01190909
  exchange ACFDT corr.  =        -0.00000000  see jH, gK, PRB 81, 115126


--------------------------------------------------------------------------------------------------------




--------------------------------------- Iteration      1(  17)  ---------------------------------------


    POTLOK:  cpu time      0.0693: real time      0.0693
    SETDIJ:  cpu time      0.0937: real time      0.0937
    TRIAL :  cpu time      0.1651: real time      0.1650
    CORREC:  cpu time      0.3328: real time      0.3327
    CHARGE:  cpu time      0.0071: real time      0.0071
    --------------------------------------------
      LOOP:  cpu time      0.6682: real time      0.6685

 eigenvalue-minimisations  :     0
 total energy-change (2. order) :-0.1839050E-03  (-0.3060567E-04)
 number of electron      24.0000055 magnetization 
 augmentation part       16.1778147 magnetization 

 Free energy of the ion-electron system (eV)
  ---------------------------------------------------
  alpha Z        PSCENC =       219.48591142
  Ewald energy   TEWEN  =     -2453.45788842
  -Hartree energ DENC   =      -946.75365204
  -exchange      EXHF   =        85.47853634
  -V(xc)+E(xc)   XCENC  =        78.89406875
  PAW double counting   =      3174.27090241    -3500.56459841
  entropy T*S    EENTRO =        -0.00000000
  eigenvalues    EBANDS =      -151.32983206
  atomic energy  EATOM  =      3492.96445902
  ---------------------------------------------------
  free energy    TOTEN  =        -1.01209300 eV

  energy without entropy =       -1.01209300  energy(sigma->0) =       -1.01209300
  exchange ACFDT corr.  =        -0.00000000  see jH, gK, PRB 81, 115126


--------------------------------------------------------------------------------------------------------




--------------------------------------- Iteration      1(  18)  ---------------------------------------


    POTLOK:  cpu time      0.0532: real time      0.0532
    SETDIJ:  cpu time      0.1185: real time      0.1185
    TRIAL :  cpu time      0.1646: real time      0.1660
    CORREC:  cpu time      0.3339: real time      0.3462
    CHARGE:  cpu time      0.0071: real time      0.0071
    --------------------------------------------
      LOOP:  cpu time      0.6776: real time      0.6919

 eigenvalue-minimisations  :     0
 total energy-change (2. order) :-0.3051293E-04  (-0.8053192E-05)
 number of electron      24.0000055 magnetization 
 augmentation part       16.1778322 magnetization 

 Free energy of the ion-electron system (eV)
  ---------------------------------------------------
  alpha Z        PSCENC =       219.48591142
  Ewald energy   TEWEN  =     -2453.45788842
  -Hartree energ DENC   =      -946.76083185
  -exchange      EXHF   =        85.47932368
  -V(xc)+E(xc)   XCENC  =        78.89433865
  PAW double counting   =      3174.28774821    -3500.57432404
  entropy T*S    EENTRO =        -0.00000000
  eigenvalues    EBANDS =      -151.33086018
  atomic energy  EATOM  =      3492.96445902
  ---------------------------------------------------
  free energy    TOTEN  =        -1.01212351 eV

  energy without entropy =       -1.01212351  energy(sigma->0) =       -1.01212351
  exchange ACFDT corr.  =        -0.00000000  see jH, gK, PRB 81, 115126


--------------------------------------------------------------------------------------------------------




--------------------------------------- Iteration      1(  19)  ---------------------------------------


    POTLOK:  cpu time      0.0679: real time      0.0679
    SETDIJ:  cpu time      0.0942: real time      0.0942
    TRIAL :  cpu time      0.1652: real time      0.1722
    CORREC:  cpu time      0.3252: real time      0.3252
    CHARGE:  cpu time      0.0071: real time      0.0071
    --------------------------------------------
      LOOP:  cpu time      0.6599: real time      0.6673

 eigenvalue-minimisations  :     0
 total energy-change (2. order) :-0.8005967E-05  (-0.1547361E-04)
 number of electron      24.0000055 magnetization 
 augmentation part       16.1777812 magnetization 

 Free energy of the ion-electron system (eV)
  ---------------------------------------------------
  alpha Z        PSCENC =       219.48591142
  Ewald energy   TEWEN  =     -2453.45788842
  -Hartree energ DENC   =      -946.75884063
  -exchange      EXHF   =        85.47940824
  -V(xc)+E(xc)   XCENC  =        78.89429411
  PAW double counting   =      3174.24958588    -3500.53194336
  entropy T*S    EENTRO =        -0.00000000
  eigenvalues    EBANDS =      -151.33711776
  atomic energy  EATOM  =      3492.96445902
  ---------------------------------------------------
  free energy    TOTEN  =        -1.01213151 eV

  energy without entropy =       -1.01213151  energy(sigma->0) =       -1.01213151
  exchange ACFDT corr.  =        -0.00000000  see jH, gK, PRB 81, 115126


--------------------------------------------------------------------------------------------------------




--------------------------------------- Iteration      1(  20)  ---------------------------------------


    POTLOK:  cpu time      0.0456: real time      0.0456
    SETDIJ:  cpu time      0.1203: real time      0.1203
    TRIAL :  cpu time      0.1655: real time      0.1655
    CORREC:  cpu time      0.3337: real time      0.3337
    CHARGE:  cpu time      0.0071: real time      0.0071
    --------------------------------------------
      LOOP:  cpu time      0.6725: real time      0.6728

 eigenvalue-minimisations  :     0
 total energy-change (2. order) :-0.1551490E-04  (-0.5401785E-04)
 number of electron      24.0000055 magnetization 
 augmentation part       16.1781406 magnetization 

 Free energy of the ion-electron system (eV)
  ---------------------------------------------------
  alpha Z        PSCENC =       219.48591142
  Ewald energy   TEWEN  =     -2453.45788842
  -Hartree energ DENC   =      -946.74882770
  -exchange      EXHF   =        85.47915026
  -V(xc)+E(xc)   XCENC  =        78.89401343
  PAW double counting   =      3174.08368606    -3500.36102975
  entropy T*S    EENTRO =        -0.00000000
  eigenvalues    EBANDS =      -151.35162134
  atomic energy  EATOM  =      3492.96445902
  ---------------------------------------------------
  free energy    TOTEN  =        -1.01214703 eV

  energy without entropy =       -1.01214703  energy(sigma->0) =       -1.01214703
  exchange ACFDT corr.  =        -0.00000000  see jH, gK, PRB 81, 115126


--------------------------------------------------------------------------------------------------------




--------------------------------------- Iteration      1(  21)  ---------------------------------------


    POTLOK:  cpu time      0.0505: real time      0.0505
    SETDIJ:  cpu time      0.1051: real time      0.1051
    TRIAL :  cpu time      0.1652: real time      0.1651
    CORREC:  cpu time      0.3281: real time      0.3280
    CHARGE:  cpu time      0.0071: real time      0.0071
    --------------------------------------------
      LOOP:  cpu time      0.6561: real time      0.6566

 eigenvalue-minimisations  :     0
 total energy-change (2. order) :-0.5251260E-04  (-0.5254532E-04)
 number of electron      24.0000055 magnetization 
 augmentation part       16.1769647 magnetization 

 Free energy of the ion-electron system (eV)
  ---------------------------------------------------
  alpha Z        PSCENC =       219.48591142
  Ewald energy   TEWEN  =     -2453.45788842
  -Hartree energ DENC   =      -946.79083157
  -exchange      EXHF   =        85.48036537
  -V(xc)+E(xc)   XCENC  =        78.89549075
  PAW double counting   =      3173.75226382    -3500.06734364
  entropy T*S    EENTRO =        -0.00000000
  eigenvalues    EBANDS =      -151.27462629
  atomic energy  EATOM  =      3492.96445902
  ---------------------------------------------------
  free energy    TOTEN  =        -1.01219954 eV

  energy without entropy =       -1.01219954  energy(sigma->0) =       -1.01219954
  exchange ACFDT corr.  =        -0.00000000  see jH, gK, PRB 81, 115126


--------------------------------------------------------------------------------------------------------




--------------------------------------- Iteration      1(  22)  ---------------------------------------


    POTLOK:  cpu time      0.0578: real time      0.0577
    SETDIJ:  cpu time      0.0976: real time      0.0975
    TRIAL :  cpu time      0.1650: real time      0.1650
    CORREC:  cpu time      0.3213: real time      0.3212
    CHARGE:  cpu time      0.0071: real time      0.0071
    --------------------------------------------
      LOOP:  cpu time      0.6489: real time      0.6494

 eigenvalue-minimisations  :     0
 total energy-change (2. order) :-0.5264971E-04  (-0.4139911E-04)
 number of electron      24.0000055 magnetization 
 augmentation part       16.1779295 magnetization 

 Free energy of the ion-electron system (eV)
  ---------------------------------------------------
  alpha Z        PSCENC =       219.48591142
  Ewald energy   TEWEN  =     -2453.45788842
  -Hartree energ DENC   =      -946.65667356
  -exchange      EXHF   =        85.47580835
  -V(xc)+E(xc)   XCENC  =        78.89093911
  PAW double counting   =      3173.68418598    -3499.92079023
  entropy T*S    EENTRO =        -0.00000000
  eigenvalues    EBANDS =      -151.47820387
  atomic energy  EATOM  =      3492.96445902
  ---------------------------------------------------
  free energy    TOTEN  =        -1.01225219 eV

  energy without entropy =       -1.01225219  energy(sigma->0) =       -1.01225219
  exchange ACFDT corr.  =        -0.00000000  see jH, gK, PRB 81, 115126


--------------------------------------------------------------------------------------------------------




--------------------------------------- Iteration      1(  23)  ---------------------------------------


    POTLOK:  cpu time      0.0647: real time      0.0646
    SETDIJ:  cpu time      0.0943: real time      0.0943
    TRIAL :  cpu time      0.1648: real time      0.1647
    CORREC:  cpu time      0.3343: real time      0.3342
    CHARGE:  cpu time      0.0071: real time      0.0071
    --------------------------------------------
      LOOP:  cpu time      0.6652: real time      0.6656

 eigenvalue-minimisations  :     0
 total energy-change (2. order) :-0.4155564E-04  (-0.4420994E-04)
 number of electron      24.0000055 magnetization 
 augmentation part       16.1778589 magnetization 

 Free energy of the ion-electron system (eV)
  ---------------------------------------------------
  alpha Z        PSCENC =       219.48591142
  Ewald energy   TEWEN  =     -2453.45788842
  -Hartree energ DENC   =      -946.76770187
  -exchange      EXHF   =        85.47959051
  -V(xc)+E(xc)   XCENC  =        78.89456965
  PAW double counting   =      3174.02380468    -3500.32328865
  entropy T*S    EENTRO =        -0.00000000
  eigenvalues    EBANDS =      -151.31175007
  atomic energy  EATOM  =      3492.96445902
  ---------------------------------------------------
  free energy    TOTEN  =        -1.01229375 eV

  energy without entropy =       -1.01229375  energy(sigma->0) =       -1.01229375
  exchange ACFDT corr.  =        -0.00000000  see jH, gK, PRB 81, 115126


--------------------------------------------------------------------------------------------------------




--------------------------------------- Iteration      1(  24)  ---------------------------------------


    POTLOK:  cpu time      0.0464: real time      0.0464
    SETDIJ:  cpu time      0.1097: real time      0.1097
    TRIAL :  cpu time      0.1655: real time      0.1655
    CORREC:  cpu time      0.3314: real time      0.3313
    CHARGE:  cpu time      0.0073: real time      0.0073
    --------------------------------------------
      LOOP:  cpu time      0.6608: real time      0.6609

 eigenvalue-minimisations  :     0
 total energy-change (2. order) :-0.4424057E-04  (-0.5261063E-04)
 number of electron      24.0000055 magnetization 
 augmentation part       16.1772577 magnetization 

 Free energy of the ion-electron system (eV)
  ---------------------------------------------------
  alpha Z        PSCENC =       219.48591142
  Ewald energy   TEWEN  =     -2453.45788842
  -Hartree energ DENC   =      -946.75583549
  -exchange      EXHF   =        85.47926898
  -V(xc)+E(xc)   XCENC  =        78.89407511
  PAW double counting   =      3174.44384063    -3500.73102096
  entropy T*S    EENTRO =        -0.00000000
  eigenvalues    EBANDS =      -151.33514828
  atomic energy  EATOM  =      3492.96445902
  ---------------------------------------------------
  free energy    TOTEN  =        -1.01233799 eV

  energy without entropy =       -1.01233799  energy(sigma->0) =       -1.01233799
  exchange ACFDT corr.  =        -0.00000000  see jH, gK, PRB 81, 115126


--------------------------------------------------------------------------------------------------------




--------------------------------------- Iteration      1(  25)  ---------------------------------------


    POTLOK:  cpu time      0.0566: real time      0.0566
    SETDIJ:  cpu time      0.1129: real time      0.1129
    TRIAL :  cpu time      0.1663: real time      0.1664
    CORREC:  cpu time      0.3203: real time      0.3324
    CHARGE:  cpu time      0.0071: real time      0.0071
    --------------------------------------------
      LOOP:  cpu time      0.6652: real time      0.6778

 eigenvalue-minimisations  :     0
 total energy-change (2. order) :-0.5270384E-04  (-0.4712530E-04)
 number of electron      24.0000055 magnetization 
 augmentation part       16.1784036 magnetization 

 Free energy of the ion-electron system (eV)
  ---------------------------------------------------
  alpha Z        PSCENC =       219.48591142
  Ewald energy   TEWEN  =     -2453.45788842
  -Hartree energ DENC   =      -946.68791073
  -exchange      EXHF   =        85.47690732
  -V(xc)+E(xc)   XCENC  =        78.89172148
  PAW double counting   =      3174.64569793    -3500.89023108
  entropy T*S    EENTRO =        -0.00000000
  eigenvalues    EBANDS =      -151.44105762
  atomic energy  EATOM  =      3492.96445902
  ---------------------------------------------------
  free energy    TOTEN  =        -1.01239069 eV

  energy without entropy =       -1.01239069  energy(sigma->0) =       -1.01239069
  exchange ACFDT corr.  =        -0.00000000  see jH, gK, PRB 81, 115126


--------------------------------------------------------------------------------------------------------




--------------------------------------- Iteration      1(  26)  ---------------------------------------


    POTLOK:  cpu time      0.0625: real time      0.0625
    SETDIJ:  cpu time      0.0947: real time      0.0946
    TRIAL :  cpu time      0.1673: real time      0.1674
    CORREC:  cpu time      0.3255: real time      0.3254
    CHARGE:  cpu time      0.0073: real time      0.0073
    --------------------------------------------
      LOOP:  cpu time      0.6574: real time      0.6579

 eigenvalue-minimisations  :     0
 total energy-change (2. order) :-0.4707588E-04  (-0.3738195E-04)
 number of electron      24.0000055 magnetization 
 augmentation part       16.1777322 magnetization 

 Free energy of the ion-electron system (eV)
  ---------------------------------------------------
  alpha Z        PSCENC =       219.48591142
  Ewald energy   TEWEN  =     -2453.45788842
  -Hartree energ DENC   =      -946.82832970
  -exchange      EXHF   =        85.48152985
  -V(xc)+E(xc)   XCENC  =        78.89637749
  PAW double counting   =      3174.68141035    -3501.00731464
  entropy T*S    EENTRO =        -0.00000000
  eigenvalues    EBANDS =      -151.22859313
  atomic energy  EATOM  =      3492.96445902
  ---------------------------------------------------
  free energy    TOTEN  =        -1.01243777 eV

  energy without entropy =       -1.01243777  energy(sigma->0) =       -1.01243777
  exchange ACFDT corr.  =        -0.00000000  see jH, gK, PRB 81, 115126


--------------------------------------------------------------------------------------------------------




--------------------------------------- Iteration      1(  27)  ---------------------------------------


    POTLOK:  cpu time      0.0545: real time      0.0544
    SETDIJ:  cpu time      0.1142: real time      0.1142
    TRIAL :  cpu time      0.1648: real time      0.1647
    CORREC:  cpu time      0.3224: real time      0.3225
    CHARGE:  cpu time      0.0073: real time      0.0073
    --------------------------------------------
      LOOP:  cpu time      0.6634: real time      0.6638

 eigenvalue-minimisations  :     0
 total energy-change (2. order) :-0.3726821E-04  (-0.2154271E-04)
 number of electron      24.0000055 magnetization 
 augmentation part       16.1778549 magnetization 

 Free energy of the ion-electron system (eV)
  ---------------------------------------------------
  alpha Z        PSCENC =       219.48591142
  Ewald energy   TEWEN  =     -2453.45788842
  -Hartree energ DENC   =      -946.76158108
  -exchange      EXHF   =        85.47926356
  -V(xc)+E(xc)   XCENC  =        78.89410430
  PAW double counting   =      3174.33562659    -3500.61508448
  entropy T*S    EENTRO =        -0.00000000
  eigenvalues    EBANDS =      -151.33728595
  atomic energy  EATOM  =      3492.96445902
  ---------------------------------------------------
  free energy    TOTEN  =        -1.01247504 eV

  energy without entropy =       -1.01247504  energy(sigma->0) =       -1.01247504
  exchange ACFDT corr.  =        -0.00000000  see jH, gK, PRB 81, 115126


--------------------------------------------------------------------------------------------------------




--------------------------------------- Iteration      1(  28)  ---------------------------------------


    POTLOK:  cpu time      0.0535: real time      0.0534
    SETDIJ:  cpu time      0.1074: real time      0.1076
    TRIAL :  cpu time      0.1655: real time      0.1654
    CORREC:  cpu time      0.3235: real time      0.3237
    CHARGE:  cpu time      0.0071: real time      0.0071
    --------------------------------------------
      LOOP:  cpu time      0.6572: real time      0.6578

 eigenvalue-minimisations  :     0
 total energy-change (2. order) :-0.2154903E-04  (-0.9837548E-05)
 number of electron      24.0000055 magnetization 
 augmentation part       16.1778558 magnetization 

 Free energy of the ion-electron system (eV)
  ---------------------------------------------------
  alpha Z        PSCENC =       219.48591142
  Ewald energy   TEWEN  =     -2453.45788842
  -Hartree energ DENC   =      -946.77467090
  -exchange      EXHF   =        85.47970156
  -V(xc)+E(xc)   XCENC  =        78.89459395
  PAW double counting   =      3174.10107613    -3500.38840115
  entropy T*S    EENTRO =        -0.00000000
  eigenvalues    EBANDS =      -151.31727818
  atomic energy  EATOM  =      3492.96445902
  ---------------------------------------------------
  free energy    TOTEN  =        -1.01249659 eV

  energy without entropy =       -1.01249659  energy(sigma->0) =       -1.01249659
  exchange ACFDT corr.  =        -0.00000000  see jH, gK, PRB 81, 115126


--------------------------------------------------------------------------------------------------------




--------------------------------------- Iteration      1(  29)  ---------------------------------------


    POTLOK:  cpu time      0.0550: real time      0.0550
    SETDIJ:  cpu time      0.1173: real time      0.1173
    TRIAL :  cpu time      0.1656: real time      0.1656
    CORREC:  cpu time      0.3216: real time      0.3215
    EDDIAG:  cpu time      0.1252: real time      0.1252
    CHARGE:  cpu time      0.0072: real time      0.0072
    --------------------------------------------
      LOOP:  cpu time      0.9223: real time      0.9226

 eigenvalue-minimisations  :     0
 total energy-change (2. order) :-0.9902337E-05  (-0.6029668E-05)
 number of electron      24.0000055 magnetization 
 augmentation part       16.1777486 magnetization 

 Free energy of the ion-electron system (eV)
  ---------------------------------------------------
  alpha Z        PSCENC =       219.48591142
  Ewald energy   TEWEN  =     -2453.45788842
  -Hartree energ DENC   =      -946.76814219
  -exchange      EXHF   =        85.47878529
  -V(xc)+E(xc)   XCENC  =        78.89444008
  PAW double counting   =      3174.05485444    -3500.33155530
  entropy T*S    EENTRO =        -0.00000000
  eigenvalues    EBANDS =      -151.32348949
  atomic energy  EATOM  =      3492.96445902
  ---------------------------------------------------
  free energy    TOTEN  =        -1.01250649 eV

  energy without entropy =       -1.01250649  energy(sigma->0) =       -1.01250649
  exchange ACFDT corr.  =        -0.00000000  see jH, gK, PRB 81, 115126


--------------------------------------------------------------------------------------------------------


  average scaling for gradient   1.0240


 the core state eigenenergies are
   1-  1s  -9517.1660  2s  -1150.7638  2p   -996.3967  3s   -122.3340  3p    -76.5266
     
   2-  1s  -9517.1594  2s  -1150.7575  2p   -996.3903  3s   -122.3305  3p    -76.5232
     
 
 E-fermi :   1.0562     XC(G=0):  -9.0407     alpha+bet : -7.8494

 Fermi energy:         1.0561516945

 k-point     1 :       0.0000    0.0000    0.0000
  band No.  band energies     occupation 
      1      -9.0461      2.00000
      2      -8.2636      2.00000
      3      -7.7465      2.00000
      4      -7.4513      2.00000
      5      -7.4443      2.00000
      6      -7.3977      2.00000
      7      -7.3908      2.00000
      8      -7.0501      2.00000
      9      -7.0184      2.00000
     10      -6.8085      2.00000
     11      -6.7752      2.00000
     12      -1.1211      2.00000
     13      -0.2555      2.00000
     14      18.8856      0.00000
     15      22.4500      0.00000
     16      23.3086      0.00000

 k-point     2 :       0.5000    0.0000    0.0000
  band No.  band energies     occupation 
      1      -8.2444      2.00000
      2      -8.0613      2.00000
      3      -7.9583      2.00000
      4      -7.4310      2.00000
      5      -7.2965      2.00000
      6      -7.2919      2.00000
      7      -6.9381      2.00000
      8      -6.8100      2.00000
      9      -6.5868      2.00000
     10      -6.5651      2.00000
     11      -0.4177      2.00000
     12       0.5324      2.00000
     13       7.0134      0.00000
     14       7.6774      0.00000
     15       8.9392      0.00000
     16       9.8107      0.00000

 k-point     3 :       0.0000    0.5000    0.0000
  band No.  band energies     occupation 
      1      -8.2444      2.00000
      2      -8.0613      2.00000
      3      -7.9583      2.00000
      4      -7.4310      2.00000
      5      -7.2965      2.00000
      6      -7.2919      2.00000
      7      -6.9381      2.00000
      8      -6.8100      2.00000
      9      -6.5868      2.00000
     10      -6.5651      2.00000
     11      -0.4177      2.00000
     12       0.5324      2.00000
     13       7.0134      0.00000
     14       7.6774      0.00000
     15       8.9392      0.00000
     16       9.8107      0.00000

 k-point     4 :       0.5000    0.5000    0.0000
  band No.  band energies     occupation 
      1      -8.2228      2.00000
      2      -8.0536      2.00000
      3      -7.9769      2.00000
      4      -7.4367      2.00000
      5      -7.2842      2.00000
      6      -7.2751      2.00000
      7      -6.9399      2.00000
      8      -6.7856      2.00000
      9      -6.5896      2.00000
     10      -6.5683      2.00000
     11      -0.1348      2.00000
     12       0.7800      2.00000
     13       7.0859      0.00000
     14       7.7575      0.00000
     15       8.9863      0.00000
     16       9.9127      0.00000

 k-point     5 :       0.0000    0.0000    0.5000
  band No.  band energies     occupation 
      1      -8.2331      2.00000
      2      -8.2283      2.00000
      3      -7.4449      2.00000
      4      -7.4422      2.00000
      5      -7.4403      2.00000
      6      -7.4365      2.00000
      7      -6.9105      2.00000
      8      -6.9067      2.00000
      9      -6.8789      2.00000
     10      -6.8761      2.00000
     11      -6.6773      2.00000
     12      -6.6701      2.00000
     13       8.6912      0.00000
     14       8.6984      0.00000
     15      24.7479      0.00000
     16      24.7652      0.00000

 k-point     6 :       0.5000    0.0000    0.5000
  band No.  band energies     occupation 
      1      -8.1622      2.00000
      2      -8.1549      2.00000
      3      -7.9080      2.00000
      4      -7.9059      2.00000
      5      -7.0635      2.00000
      6      -7.0604      2.00000
      7      -6.8361      2.00000
      8      -6.8340      2.00000
      9      -6.5757      2.00000
     10      -6.5728      2.00000
     11       0.6357      2.00000
     12       0.6791      2.00000
     13       4.1371      0.00000
     14       4.1743      0.00000
     15      15.2013      0.00000
     16      15.2025      0.00000

 k-point     7 :       0.0000    0.5000    0.5000
  band No.  band energies     occupation 
      1      -8.1622      2.00000
      2      -8.1549      2.00000
      3      -7.9080      2.00000
      4      -7.9059      2.00000
      5      -7.0635      2.00000
      6      -7.0604      2.00000
      7      -6.8361      2.00000
      8      -6.8340      2.00000
      9      -6.5757      2.00000
     10      -6.5727      2.00000
     11       0.6357      2.00000
     12       0.6791      2.00000
     13       4.1371      0.00000
     14       4.1743      0.00000
     15      15.2013      0.00000
     16      15.2025      0.00000

 k-point     8 :       0.5000    0.5000    0.5000
  band No.  band energies     occupation 
      1      -8.1577      2.00000
      2      -8.1477      2.00000
      3      -7.9143      2.00000
      4      -7.9027      2.00000
      5      -7.0397      2.00000
      6      -7.0369      2.00000
      7      -6.8575      2.00000
      8      -6.8540      2.00000
      9      -6.5790      2.00000
     10      -6.5760      2.00000
     11       0.6700      2.00000
     12       1.3751      0.00000
     13       4.1006      0.00000
     14       4.1688      0.00000
     15      15.1934      0.00000
     16      15.2496      0.00000


--------------------------------------------------------------------------------------------------------


 soft charge-density along one line, spin component            1
         0         1         2         3         4         5         6         7         8         9
 total charge-density along one line
 
 pseudopotential strength for first ion, spin component:            1
 -6.036   0.000  -0.000  -0.001  -0.000  -6.630   0.000  -0.000
  0.000  -6.072  -0.000   0.000   0.001   0.000  -6.664  -0.000
 -0.000  -0.000  -6.068   0.000  -0.016  -0.000  -0.000  -6.660
 -0.001   0.000   0.000  -6.045   0.000  -0.001   0.000   0.000
 -0.000   0.001  -0.016   0.000  -6.035  -0.000   0.001  -0.015
 -6.630   0.000  -0.000  -0.001  -0.000  -7.134   0.000  -0.000
  0.000  -6.664  -0.000   0.000   0.001   0.000  -7.167  -0.000
 -0.000  -0.000  -6.660   0.000  -0.015  -0.000  -0.000  -7.163
 -0.001   0.000   0.000  -6.638   0.000  -0.001   0.000   0.000
 -0.000   0.001  -0.015   0.000  -6.628  -0.000   0.001  -0.015
 -0.000  -0.000  -0.007  -0.000   0.001  -0.000  -0.000  -0.006
 -0.000  -0.000  -0.010  -0.000   0.002  -0.000  -0.000  -0.010
  0.000   0.000  -0.000  -0.000   0.003   0.000   0.000  -0.000
 -0.000   0.000  -0.000   0.000  -0.000  -0.000   0.000  -0.000
  0.004  -0.000  -0.000  -0.000   0.000   0.004  -0.000  -0.000
  0.000   0.000  -0.000  -0.000   0.005   0.000   0.000  -0.000
 -0.000   0.000  -0.000   0.000  -0.000  -0.000   0.000  -0.000
  0.005  -0.000  -0.000  -0.000   0.000   0.005  -0.000  -0.000
 total augmentation occupancy for first ion, spin component:            1
  3.162  -0.000  -0.000   0.000   0.000  -1.063   0.000   0.000   0.000   0.000  -0.000   0.000  -0.000  -0.000  -0.224   0.000
 -0.000   2.461  -0.000   0.000  -0.000   0.000  -0.351   0.000  -0.000   0.000   0.000   0.000  -0.004  -0.024   0.000   0.001
 -0.000  -0.000   3.983   0.000  -0.002   0.000   0.000  -1.741  -0.000   0.001   0.279  -0.127   0.022   0.001   0.000  -0.004
  0.000   0.000   0.000   2.485  -0.000   0.000  -0.000   0.000  -0.374   0.000   0.000  -0.000  -0.000  -0.000  -0.000   0.000
  0.000  -0.000  -0.002  -0.000   3.172  -0.000   0.000   0.001  -0.000  -1.072   0.006  -0.009  -0.170   0.002  -0.000   0.016
 -1.063   0.000   0.000   0.000  -0.000   0.948  -0.000   0.000  -0.000  -0.000   0.000  -0.000  -0.000   0.000   0.209   0.000
  0.000  -0.351   0.000  -0.000   0.000  -0.000   0.227  -0.001   0.000  -0.000  -0.000   0.000   0.003   0.020  -0.000  -0.000
  0.000   0.000  -1.741   0.000   0.001   0.000  -0.001   1.493  -0.000  -0.001  -0.286   0.141  -0.019  -0.001   0.000   0.003
  0.000  -0.000  -0.000  -0.374  -0.000  -0.000   0.000  -0.000   0.248  -0.000  -0.000   0.000  -0.000   0.000   0.000   0.000
  0.000   0.000   0.001   0.000  -1.072  -0.000  -0.000  -0.001  -0.000   0.958   0.002   0.002   0.162  -0.001  -0.000  -0.021
 -0.000   0.000   0.279   0.000   0.006   0.000  -0.000  -0.286  -0.000   0.002   2.900  -0.892  -0.024  -0.001  -0.000   0.003
  0.000   0.000  -0.127  -0.000  -0.009  -0.000   0.000   0.141   0.000   0.002  -0.892   0.297   0.002   0.000   0.000  -0.000
 -0.000  -0.004   0.022  -0.000  -0.170  -0.000   0.003  -0.019  -0.000   0.162  -0.024   0.002   0.491  -0.003  -0.000  -0.077
 -0.000  -0.024   0.001  -0.000   0.002   0.000   0.020  -0.001   0.000  -0.001  -0.001   0.000  -0.003   0.287  -0.000   0.000
 -0.224   0.000   0.000  -0.000  -0.000   0.209  -0.000   0.000   0.000  -0.000  -0.000   0.000  -0.000  -0.000   0.607   0.000
  0.000   0.001  -0.004   0.000   0.016   0.000  -0.000   0.003   0.000  -0.021   0.003  -0.000  -0.077   0.000   0.000   0.012
  0.000   0.005  -0.000   0.000  -0.000  -0.000  -0.003   0.000  -0.000   0.000   0.000  -0.000   0.000  -0.060   0.000  -0.000
  0.025   0.000  -0.000   0.000   0.000  -0.027   0.000   0.000  -0.000   0.000   0.000  -0.000   0.000   0.000  -0.093  -0.000


------------------------ aborting loop because EDIFF is reached ----------------------------------------


    FORLOC:  cpu time      0.0002: real time      0.0002
    FORHF :  cpu time      0.4308: real time      0.4307
    FORNL :  cpu time      0.0312: real time      0.0312
    STRESS:  cpu time      0.0952: real time      0.0952
    FORCOR:  cpu time      0.0576: real time      0.0576
    OFIELD:  cpu time      0.0006: real time      0.0006

  FORCE on cell =-STRESS in cart. coord.  units (eV):
  Direction    XX          YY          ZZ          XY          YZ          ZX
  --------------------------------------------------------------------------------------
  Alpha Z   219.48591   219.48591   219.48591
  Ewald    -761.51293  -761.51293  -930.43236    -0.00000    -0.00000     0.00000
  Hartree   353.01162   349.41439   244.32219     0.00001    -0.07408     0.00005
  E(xc)     -99.39754   -99.41012   -99.43786     0.00000    -0.00059    -0.00000
  Local     179.42192   185.73142   459.38838    -0.00001     0.13048    -0.00008
  n-local   177.70735   177.15877   176.67547     0.00000    -0.00993     0.00001
  augment    47.61344    46.83374    46.92443     0.00000    -0.01735     0.00000
  Kinetic   146.34020   142.39888   137.63996    -0.00002    -0.10689     0.00001
  Fock     -257.78068  -258.09741  -259.97264     0.00000    -0.00794     0.00001
  -------------------------------------------------------------------------------------
  Total       4.88928     2.00265    -5.40652    -0.00002    -0.08630    -0.00000
  in kB     271.57104   111.23579  -300.30062    -0.00104    -4.79344    -0.00007
  external pressure =       27.50 kB  Pullay stress =        0.00 kB


 VOLUME and BASIS-vectors are now :
 -----------------------------------------------------------------------------
  energy-cutoff  :      450.00
  volume of cell :       28.85
      direct lattice vectors                 reciprocal lattice vectors
     1.307179901 -2.264102003  0.000000000     0.382502821 -0.220838107  0.000000000
     1.307179901  2.264102003  0.000000000     0.382502821  0.220838107 -0.000000000
     0.000000000  0.000000000  4.873161020    -0.000000000  0.000000000  0.205205614

  length of vectors
     2.614359801  2.614359801  4.873161020     0.441676214  0.441676214  0.205205614


 FORCES acting on ions:
    Electron-Ion                     Ewald-Force                    Non-Local-Force
 -----------------------------------------------------------------------------------------------
   0.304E-04 -.822E+00 -.955E-02   -.111E-13 0.439E-12 -.485E-13   -.108E-03 0.887E+00 0.122E-01
   0.738E-04 0.817E+00 0.932E-02   -.506E-14 -.437E-12 0.485E-13   -.166E-03 -.886E+00 -.120E-01
 -----------------------------------------------------------------------------------------------
   0.105E-03 -.506E-02 -.226E-03   -.162E-13 0.180E-14 -.192E-17   -.273E-03 0.981E-03 0.182E-03
 
 
 POSITION                                       TOTAL-FORCE (eV/Angst)
 -----------------------------------------------------------------------------------
      1.30718      0.75470      1.21829        -0.000007      0.200010      0.006623
      1.30718     -0.75470      3.65487         0.000007     -0.200010     -0.006623
 -----------------------------------------------------------------------------------
    total drift:                               -0.000157     -0.003059      0.000175


--------------------------------------------------------------------------------------------------------



  FREE ENERGIE OF THE ION-ELECTRON SYSTEM (eV)
  ---------------------------------------------------
  free  energy   TOTEN  =        -1.01250649 eV

  energy  without entropy=       -1.01250649  energy(sigma->0) =       -1.01250649
 


--------------------------------------------------------------------------------------------------------


    POTLOK:  cpu time      0.1716: real time      0.1716


--------------------------------------------------------------------------------------------------------


 writing wavefunctions
     LOOP+:  cpu time     22.2907: real time     22.4106
    4ORBIT:  cpu time      0.0000: real time      0.0000

 total amount of memory used by VASP MPI-rank0    41879. kBytes
=======================================================================

   base      :      30000. kBytes
   nonlr-proj:       1551. kBytes
   fftplans  :       1540. kBytes
   grid      :       2380. kBytes
   one-center:         31. kBytes
   HF        :         64. kBytes
   wavefun   :       4194. kBytes
   fock_wrk  :       2119. kBytes
 
  
  
 General timing and accounting informations for this job:
 ========================================================
  
                  Total CPU time used (sec):       29.187
                            User time (sec):       27.330
                          System time (sec):        1.857
                         Elapsed time (sec):       31.421
  
                   Maximum memory used (kb):     3340864.
                   Average memory used (kb):          N/A
  
                          Minor page faults:        60964
                          Major page faults:            6
                 Voluntary context switches:         5359
