<?xml version="1.0" encoding="ISO-8859-1"?>
<modeling>
 <generator>
  <i name="program" type="string">vasp </i>
  <i name="version" type="string">6.4.2  </i>
  <i name="subversion" type="string">20Jul23 (build Nov 12 2023 22:16:35) complex                          parallel </i>
  <i name="platform" type="string">LinuxNV </i>
  <i name="date" type="string">2025 05 31 </i>
  <i name="time" type="string">20:18:38 </i>
 </generator>
 <incar>
  <i type="int" name="ISTART">     1</i>
  <i type="string" name="PREC">Normal</i>
  <i type="string" name="ALGO">All</i>
  <i type="int" name="ISPIN">     1</i>
  <i type="int" name="ICHARG">     1</i>
  <i type="int" name="NELM">   500</i>
  <i type="int" name="IBRION">    -1</i>
  <i name="EDIFF">      0.00001000</i>
  <i name="EDIFFG">     -0.00500000</i>
  <i type="int" name="NSW">     0</i>
  <i type="int" name="ISIF">     2</i>
  <i type="int" name="ISYM">     0</i>
  <i name="ENCUT">    450.00000000</i>
  <i type="string" name="LREAL">Auto</i>
  <i type="logical" name="LPLANE"> T  </i>
  <i name="TIME">      0.40000000</i>
  <i type="int" name="ISMEAR">     0</i>
  <i name="SIGMA">      0.05000000</i>
  <i type="logical" name="LWAVE"> T  </i>
  <i type="logical" name="LCHARG"> T  </i>
  <i type="int" name="ICORELEVEL">     1</i>
  <i name="HFSCREEN">      0.20000000</i>
  <i type="logical" name="LHFCALC"> T  </i>
  <i type="int" name="LMAXFOCK">     4</i>
  <i name="AEXX">      0.32000000</i>
  <i type="string" name="PRECFOCK">Fast</i>
 </incar>
 <primitive_cell>
  <structure name="primitive_cell" >
   <crystal>
    <varray name="basis" >
     <v>       1.30717990      -2.26410200       0.00000000 </v>
     <v>       1.30717990       2.26410200       0.00000000 </v>
     <v>       0.00000000       0.00000000       4.87316102 </v>
    </varray>
    <i name="volume">     28.84510390 </i>
    <varray name="rec_basis" >
     <v>       0.38250282      -0.22083811       0.00000000 </v>
     <v>       0.38250282       0.22083811      -0.00000000 </v>
     <v>      -0.00000000       0.00000000       0.20520561 </v>
    </varray>
   </crystal>
   <varray name="positions" >
    <v>       0.33333333       0.66666667       0.25000000 </v>
    <v>       0.66666667       0.33333333       0.75000000 </v>
   </varray>
  </structure>
  <varray name="primitive_index" >
   <v type="int" >        1 </v>
   <v type="int" >        2 </v>
  </varray>
 </primitive_cell>
 <kpoints>
  <generation param="Gamma">
   <v type="int" name="divisions">       2        2        2 </v>
   <v name="usershift">      0.00000000       0.00000000       0.00000000 </v>
   <v name="genvec1">      0.50000000       0.00000000       0.00000000 </v>
   <v name="genvec2">      0.00000000       0.50000000       0.00000000 </v>
   <v name="genvec3">      0.00000000       0.00000000       0.50000000 </v>
   <v name="shift">      0.00000000       0.00000000       0.00000000 </v>
  </generation>
  <varray name="kpointlist" >
   <v>       0.00000000       0.00000000       0.00000000 </v>
   <v>       0.50000000       0.00000000       0.00000000 </v>
   <v>       0.00000000       0.50000000       0.00000000 </v>
   <v>       0.50000000       0.50000000       0.00000000 </v>
   <v>       0.00000000       0.00000000       0.50000000 </v>
   <v>       0.50000000       0.00000000       0.50000000 </v>
   <v>       0.00000000       0.50000000       0.50000000 </v>
   <v>       0.50000000       0.50000000       0.50000000 </v>
  </varray>
  <varray name="weights" >
   <v>       0.12500000 </v>
   <v>       0.12500000 </v>
   <v>       0.12500000 </v>
   <v>       0.12500000 </v>
   <v>       0.12500000 </v>
   <v>       0.12500000 </v>
   <v>       0.12500000 </v>
   <v>       0.12500000 </v>
  </varray>
 </kpoints>
 <parameters>
  <separator name="general" >
   <i type="string" name="SYSTEM">unknown system</i>
   <i type="logical" name="LCOMPAT"> F  </i>
  </separator>
  <separator name="electronic" >
   <i type="string" name="PREC">normal</i>
   <i name="ENMAX">    450.00000000</i>
   <i name="ENAUG">    575.89200000</i>
   <i name="EDIFF">      0.00001000</i>
   <i type="int" name="IALGO">    58</i>
   <i type="int" name="IWAVPR">    10</i>
   <i type="int" name="NBANDS">    16</i>
   <i type="int" name="NBANDSLOW">    -1</i>
   <i type="int" name="NBANDSHIGH">    -1</i>
   <i name="NELECT">     24.00000000</i>
   <i type="int" name="TURBO">     0</i>
   <i type="int" name="IRESTART">     0</i>
   <i type="int" name="NREBOOT">     0</i>
   <i type="int" name="NMIN">     0</i>
   <i name="EREF">      0.00000000</i>
   <separator name="electronic smearing" >
    <i type="int" name="ISMEAR">     0</i>
    <i name="SIGMA">      0.05000000</i>
    <i name="KSPACING">      0.50000000</i>
    <i type="logical" name="KGAMMA"> T  </i>
    <i type="logical" name="KBLOWUP"> T  </i>
   </separator>
   <separator name="electronic projectors" >
    <i type="logical" name="LREAL"> T  </i>
    <v name="ROPT">     -0.00050000</v>
    <i type="int" name="LMAXPAW">  -100</i>
    <i type="int" name="LMAXMIX">     2</i>
    <i type="logical" name="NLSPLINE"> F  </i>
   </separator>
   <separator name="electronic startup" >
    <i type="int" name="ISTART">     1</i>
    <i type="int" name="ICHARG">     1</i>
    <i type="int" name="INIWAV">     1</i>
   </separator>
   <separator name="electronic spin" >
    <i type="int" name="ISPIN">     1</i>
    <i type="logical" name="LNONCOLLINEAR"> F  </i>
    <v name="MAGMOM">      1.00000000      1.00000000</v>
    <i name="NUPDOWN">     -1.00000000</i>
    <i type="logical" name="LSORBIT"> F  </i>
    <v name="SAXIS">      0.00000000      0.00000000      1.00000000</v>
    <i type="logical" name="LSPIRAL"> F  </i>
    <v name="QSPIRAL">      0.00000000      0.00000000      0.00000000</v>
    <i type="logical" name="LZEROZ"> F  </i>
   </separator>
   <separator name="electronic exchange-correlation" >
    <i type="logical" name="LASPH"> F  </i>
    <i type="logical" name="LMETAGGA"> F  </i>
   </separator>
   <separator name="electronic convergence" >
    <i type="int" name="NELM">   500</i>
    <i type="int" name="NELMDL">     0</i>
    <i type="int" name="NELMIN">     2</i>
    <i name="ENINI">    450.00000000</i>
    <separator name="electronic convergence detail" >
     <i type="logical" name="LDIAG"> T  </i>
     <i type="logical" name="LSUBROT"> F  </i>
     <i name="WEIMIN">      0.00000000</i>
     <i name="EBREAK">      0.00000016</i>
     <i name="DEPER">      0.30000000</i>
     <i type="int" name="NRMM">     4</i>
     <i name="TIME">      0.40000000</i>
    </separator>
   </separator>
   <separator name="electronic mixer" >
    <i name="AMIX">      0.40000000</i>
    <i name="BMIX">      1.00000000</i>
    <i name="AMIN">      0.10000000</i>
    <i name="AMIX_MAG">      1.60000000</i>
    <i name="BMIX_MAG">      1.00000000</i>
    <separator name="electronic mixer details" >
     <i type="int" name="IMIX">     4</i>
     <i type="logical" name="MIXFIRST"> F  </i>
     <i type="int" name="MAXMIX">   -45</i>
     <i name="WC">    100.00000000</i>
     <i type="int" name="INIMIX">     1</i>
     <i type="int" name="MIXPRE">     1</i>
     <i type="int" name="MREMOVE">     5</i>
    </separator>
   </separator>
   <separator name="electronic dipolcorrection" >
    <i type="logical" name="LDIPOL"> F  </i>
    <i type="logical" name="LMONO"> F  </i>
    <i type="int" name="IDIPOL">     0</i>
    <i name="EPSILON">      1.00000000</i>
    <v name="DIPOL">   -100.00000000   -100.00000000   -100.00000000</v>
    <i name="EFIELD">      0.00000000</i>
   </separator>
  </separator>
  <separator name="grids" >
   <i type="int" name="NGX">    14</i>
   <i type="int" name="NGY">    14</i>
   <i type="int" name="NGZ">    28</i>
   <i type="int" name="NGXF">    28</i>
   <i type="int" name="NGYF">    28</i>
   <i type="int" name="NGZF">    56</i>
   <i type="logical" name="ADDGRID"> F  </i>
  </separator>
  <separator name="ionic" >
   <i type="int" name="NSW">     0</i>
   <i type="int" name="IBRION">    -1</i>
   <i type="int" name="MDALGO">     0</i>
   <i type="int" name="ISIF">     2</i>
   <i name="PSTRESS">      0.00000000</i>
   <i name="EDIFFG">     -0.00500000</i>
   <i type="int" name="NFREE">     0</i>
   <i name="POTIM">      0.50000000</i>
   <i name="SMASS">     -3.00000000</i>
   <i name="SCALEE">      1.00000000</i>
  </separator>
  <separator name="ionic md" >
   <i name="TEBEG">      0.00010000</i>
   <i name="TEEND">      0.00010000</i>
   <i type="int" name="NBLOCK">     1</i>
   <i type="int" name="KBLOCK">     1</i>
   <i type="int" name="NPACO">   256</i>
   <i name="APACO">     10.00000000</i>
  </separator>
  <separator name="symmetry" >
   <i type="int" name="ISYM">     0</i>
   <i name="SYMPREC">      0.00001000</i>
  </separator>
  <separator name="dos" >
   <i type="int" name="LORBIT">     0</i>
   <v name="RWIGS">     -1.00000000</v>
   <i type="int" name="NEDOS">   301</i>
   <i name="EMIN">     10.00000000</i>
   <i name="EMAX">    -10.00000000</i>
   <i name="EFERMI">      0.00000000</i>
  </separator>
  <separator name="writing" >
   <i type="int" name="NWRITE">     2</i>
   <i type="logical" name="LWAVE"> T  </i>
   <i type="logical" name="LDOWNSAMPLE"> F  </i>
   <i type="logical" name="LCHARG"> T  </i>
   <i type="logical" name="LPARD"> F  </i>
   <i type="logical" name="LVTOT"> F  </i>
   <i type="logical" name="LVHAR"> F  </i>
   <i type="logical" name="LELF"> F  </i>
   <i type="logical" name="LOPTICS"> F  </i>
   <v name="STM">      0.00000000      0.00000000      0.00000000      0.00000000      0.00000000      0.00000000      0.00000000</v>
  </separator>
  <separator name="performance" >
   <i type="int" name="NPAR">     1</i>
   <i type="int" name="NSIM">     4</i>
   <i type="int" name="NBLK">    -1</i>
   <i type="logical" name="LPLANE"> T  </i>
   <i type="logical" name="LSCALAPACK"> T  </i>
   <i type="logical" name="LSCAAWARE"> F  </i>
   <i type="logical" name="LSCALU"> F  </i>
   <i type="logical" name="LASYNC"> F  </i>
   <i type="logical" name="LORBITALREAL"> F  </i>
  </separator>
  <separator name="miscellaneous" >
   <i type="int" name="IDIOT">     3</i>
   <i type="int" name="PHON_NSTRUCT">    -1</i>
   <i type="logical" name="LMUSIC"> F  </i>
   <v name="POMASS">     65.39000000</v>
   <v name="DARWINR">      0.00000000</v>
   <v name="DARWINV">      1.00000000</v>
   <i type="logical" name="LCORR"> T  </i>
  </separator>
  <i type="logical" name="GGA_COMPAT"> T  </i>
  <i type="logical" name="LBERRY"> F  </i>
  <i type="int" name="ICORELEVEL">     1</i>
  <i type="int" name="CLNT">     1</i>
  <i type="int" name="CLN">     1</i>
  <i type="int" name="CLL">     0</i>
  <i name="CLZ">      0.00000000</i>
  <i type="logical" name="LDAU"> F  </i>
  <i type="int" name="I_CONSTRAINED_M">     0</i>
  <separator name="electronic exchange-correlation" >
   <i type="string" name="GGA">--</i>
   <i type="int" name="VOSKOWN">     0</i>
   <i type="logical" name="LHFCALC"> T  </i>
   <i type="string" name="PRECFOCK">fast</i>
   <i type="logical" name="LSYMGRAD"> F  </i>
   <i type="logical" name="LHFONE"> F  </i>
   <i type="logical" name="LRHFCALC"> F  </i>
   <i type="logical" name="LTHOMAS"> F  </i>
   <i type="logical" name="LMODELHF"> F  </i>
   <i type="logical" name="LFOCKACE"> T  </i>
   <i name="ENCUT4O">     -1.00000000</i>
   <i type="int" name="EXXOEP">     0</i>
   <i type="int" name="FOURORBIT">     0</i>
   <i name="AEXX">      0.32000000</i>
   <i name="HFALPHA">     -1.00000000</i>
   <i name="MCALPHA">      0.00000000</i>
   <i name="ALDAX">      0.68000000</i>
   <i name="AGGAX">      0.68000000</i>
   <i name="ALDAC">      1.00000000</i>
   <i name="AGGAC">      1.00000000</i>
   <i type="int" name="NKREDX">     1</i>
   <i type="int" name="NKREDY">     1</i>
   <i type="int" name="NKREDZ">     1</i>
   <i type="logical" name="SHIFTRED"> F  </i>
   <i type="logical" name="ODDONLY"> F  </i>
   <i type="logical" name="EVENONLY"> F  </i>
   <i type="int" name="LMAXFOCK">     4</i>
   <i type="int" name="NMAXFOCKAE">     1</i>
   <i type="logical" name="LFOCKAEDFT"> F  </i>
   <i name="HFSCREEN">      0.20000000</i>
   <i name="HFSCREENC">      0.20000000</i>
   <i type="int" name="NBANDSGWLOW">     1</i>
  </separator>
  <separator name="vdW DFT" >
   <i type="logical" name="LUSE_VDW"> F  </i>
   <i type="int" name="IVDW_NL">     1</i>
   <i type="logical" name="LSPIN_VDW"> F  </i>
   <i name="Zab_VDW">     -0.84910000</i>
   <i name="PARAM1">      0.12340000</i>
   <i name="PARAM2">      1.00000000</i>
   <i name="PARAM3">      0.00000000</i>
  </separator>
  <separator name="model GW" >
   <i type="int" name="MODEL_GW">     0</i>
   <i name="MODEL_EPS0">      8.65353117</i>
   <i name="MODEL_ALPHA">      1.00000000</i>
  </separator>
  <separator name="linear response parameters" >
   <i type="logical" name="LEPSILON"> F  </i>
   <i type="logical" name="LRPA"> F  </i>
   <i type="logical" name="LNABLA"> F  </i>
   <i type="logical" name="LVEL"> F  </i>
   <i name="CSHIFT">      0.10000000</i>
   <i name="OMEGAMAX">     -1.00000000</i>
   <i name="DEG_THRESHOLD">      0.00200000</i>
   <i name="RTIME">     -0.10000000</i>
   <i name="WPLASMAI">      0.00000000</i>
   <v name="DFIELD">      0.00000000      0.00000000      0.00000000</v>
   <v name="WPLASMA">      0.00000000      0.00000000      0.00000000      0.00000000      0.00000000      0.00000000      0.00000000      0.00000000      0.00000000</v>
  </separator>
  <separator name="orbital magnetization" >
   <i type="logical" name="NUCIND"> F  </i>
   <v name="MAGPOS">      0.00000000      0.00000000      0.00000000</v>
   <i type="logical" name="LNICSALL"> T  </i>
   <i type="logical" name="ORBITALMAG"> F  </i>
   <i type="logical" name="LMAGBLOCH"> F  </i>
   <i type="logical" name="LCHIMAG"> F  </i>
   <i type="logical" name="LGAUGE"> T  </i>
   <i type="int" name="MAGATOM">     0</i>
   <v name="MAGDIPOL">      0.00000000      0.00000000      0.00000000</v>
   <v name="AVECCONST">      0.00000000      0.00000000      0.00000000</v>
  </separator>
  <separator name="response functions" >
   <i type="logical" name="LALL_IN_ONE"> F  </i>
   <i type="int" name="IALL_IN_ONE">    -1</i>
   <i type="int" name="NBANDS_WAVE">    -1</i>
   <i type="logical" name="LFINITE_TEMPERATURE"> F  </i>
   <i type="logical" name="LADDER"> F  </i>
   <i type="logical" name="LRPAFORCE"> F  </i>
   <i type="logical" name="LFXC"> F  </i>
   <i type="logical" name="LHARTREE"> T  </i>
   <i type="int" name="IBSE">     0</i>
   <v type="int" name="KPOINT">    -1     0     0     0</v>
   <i type="logical" name="LTCTC"> F  </i>
   <i type="logical" name="LTCTE"> F  </i>
   <i type="logical" name="LTETE"> F  </i>
   <i type="logical" name="LTRIPLET"> F  </i>
   <i type="logical" name="LFXCEPS"> F  </i>
   <i type="logical" name="LFXHEG"> F  </i>
   <i type="int" name="NATURALO">     2</i>
   <i type="logical" name="LHOLEGF"> F  </i>
   <i type="logical" name="L2ORDER"> F  </i>
   <i type="logical" name="LDMP1"> F  </i>
   <i type="logical" name="LMP2LT"> F  </i>
   <i type="logical" name="LSMP2LT"> F  </i>
   <i type="logical" name="LGWLF"> F  </i>
   <i name="ENCUTGW">     -1.60000002</i>
   <i name="ENCUTGWSOFT">     -1.60000002</i>
   <i name="ENCUTLF">     -1.00000000</i>
   <i type="logical" name="LESF_SPLINES"> F  </i>
   <i type="int" name="LMAXMP2">    -1</i>
   <i name="SCISSOR">      0.00000000</i>
   <i type="int" name="NOMEGA">     0</i>
   <i type="int" name="NOMEGAR">     0</i>
   <i type="int" name="NBANDSGW">    -1</i>
   <i type="int" name="NBANDSO">    -1</i>
   <i type="int" name="NBANDSV">    -1</i>
   <i type="int" name="NELMGW">     1</i>
   <i type="int" name="NELMHF">     1</i>
   <i type="int" name="DIM">     3</i>
   <i type="int" name="IESPILON">     4</i>
   <i type="int" name="ANTIRES">     0</i>
   <i name="OMEGAMAX">    -30.00000000</i>
   <i name="OMEGAMIN">    -30.00000000</i>
   <i name="OMEGATL">   -200.00000000</i>
   <i type="int" name="OMEGAGRID">     0</i>
   <i name="CSHIFT">     -0.10000000</i>
   <i type="logical" name="LSELFENERGY"> F  </i>
   <i type="logical" name="LSPECTRAL"> F  </i>
   <i type="logical" name="LSPECTRALGW"> F  </i>
   <i type="logical" name="LSINGLES"> F  </i>
   <i type="logical" name="LFERMIGW"> F  </i>
   <i type="logical" name="ODDONLYGW"> F  </i>
   <i type="logical" name="EVENONLYGW"> F  </i>
   <i type="int" name="NKREDLFX">     1</i>
   <i type="int" name="NKREDLFY">     1</i>
   <i type="int" name="NKREDLFZ">     1</i>
   <i type="int" name="MAXMEM">  2800</i>
   <i type="int" name="TELESCOPE">     0</i>
   <i type="int" name="NTAUPAR">    -1</i>
   <i type="int" name="NOMEGAPAR">    -1</i>
   <i name="DAMP_NEWTON">      0.80000001</i>
   <i name="LAMBDA">      1.00000000</i>
  </separator>
  <separator name="External order field" >
   <i name="OFIELD_KAPPA">      0.00000000</i>
   <v name="OFIELD_K">      0.00000000      0.00000000      0.00000000</v>
   <i name="OFIELD_Q6_NEAR">      0.00000000</i>
   <i name="OFIELD_Q6_FAR">      0.00000000</i>
   <i name="OFIELD_A">      0.00000000</i>
  </separator>
  <separator name="optional k-points parameters" >
   <i type="int" name="KPOINTS_OPT_MODE">     1</i>
   <i type="logical" name="LKPOINTS_OPT"> F  </i>
  </separator>
 </parameters>
 <atominfo>
  <atoms>       2 </atoms>
  <types>       1 </types>
  <array name="atoms" >
   <dimension dim="1">ion</dimension>
   <field type="string">element</field>
   <field type="int">atomtype</field>
   <set>
    <rc><c>Zn</c><c>   1</c></rc>
    <rc><c>Zn</c><c>   1</c></rc>
   </set>
  </array>
  <array name="atomtypes" >
   <dimension dim="1">type</dimension>
   <field type="int">atomspertype</field>
   <field type="string">element</field>
   <field>mass</field>
   <field>valence</field>
   <field type="string">pseudopotential</field>
   <set>
    <rc><c>   2</c><c>Zn</c><c>     65.39000000</c><c>     12.00000000</c><c>  PAW_PBE Zn 06Sep2000                  </c></rc>
   </set>
  </array>
 </atominfo>
 <structure name="initialpos" >
  <crystal>
   <varray name="basis" >
    <v>       1.30717990      -2.26410200       0.00000000 </v>
    <v>       1.30717990       2.26410200       0.00000000 </v>
    <v>       0.00000000       0.00000000       4.87316102 </v>
   </varray>
   <i name="volume">     28.84510390 </i>
   <varray name="rec_basis" >
    <v>       0.38250282      -0.22083811       0.00000000 </v>
    <v>       0.38250282       0.22083811      -0.00000000 </v>
    <v>      -0.00000000       0.00000000       0.20520561 </v>
   </varray>
  </crystal>
  <varray name="positions" >
   <v>       0.33333333       0.66666667       0.25000000 </v>
   <v>       0.66666667       0.33333333       0.75000000 </v>
  </varray>
 </structure>
 <calculation>
  <scstep>
   <time name="total">    0.84    0.85</time>
   <energy>
    <i name="alphaZ">    219.48591142 </i>
    <i name="ewald">  -2453.45788842 </i>
    <i name="hartreedc">   -933.14254347 </i>
    <i name="XCdc">     78.43448183 </i>
    <i name="pawpsdc">   3070.69042815 </i>
    <i name="pawaedc">  -3392.54920116 </i>
    <i name="eentropy">     -0.01324997 </i>
    <i name="bandstr">   -167.89790753 </i>
    <i name="atom">   3492.96445902 </i>
    <i name="e_fr_energy">     -0.71502525 </i>
    <i name="e_wo_entrp">     -0.70177528 </i>
    <i name="e_0_energy">     -0.70840027 </i>
   </energy>
  </scstep>
  <scstep>
   <time name="total">    0.68    0.68</time>
   <energy>
    <i name="e_fr_energy">     -0.84598608 </i>
    <i name="e_wo_entrp">     -0.83274634 </i>
    <i name="e_0_energy">     -0.83936621 </i>
   </energy>
  </scstep>
  <scstep>
   <time name="total">    0.68    0.68</time>
   <energy>
    <i name="e_fr_energy">     -0.93154201 </i>
    <i name="e_wo_entrp">     -0.91841396 </i>
    <i name="e_0_energy">     -0.92497798 </i>
   </energy>
  </scstep>
  <scstep>
   <time name="total">    0.66    0.66</time>
   <energy>
    <i name="e_fr_energy">     -0.94031399 </i>
    <i name="e_wo_entrp">     -0.92706669 </i>
    <i name="e_0_energy">     -0.93369034 </i>
   </energy>
  </scstep>
  <scstep>
   <time name="total">    0.65    0.66</time>
   <energy>
    <i name="e_fr_energy">     -0.94876721 </i>
    <i name="e_wo_entrp">     -0.93553221 </i>
    <i name="e_0_energy">     -0.94214971 </i>
   </energy>
  </scstep>
  <scstep>
   <time name="total">    0.68    0.69</time>
   <energy>
    <i name="e_fr_energy">     -0.95058100 </i>
    <i name="e_wo_entrp">     -0.93734477 </i>
    <i name="e_0_energy">     -0.94396288 </i>
   </energy>
  </scstep>
  <scstep>
   <time name="total">    0.66    0.66</time>
   <energy>
    <i name="e_fr_energy">     -0.95102083 </i>
    <i name="e_wo_entrp">     -0.93799620 </i>
    <i name="e_0_energy">     -0.94450851 </i>
   </energy>
  </scstep>
  <scstep>
   <time name="total">    0.68    0.68</time>
   <energy>
    <i name="e_fr_energy">     -0.95172096 </i>
    <i name="e_wo_entrp">     -0.94095021 </i>
    <i name="e_0_energy">     -0.94633559 </i>
   </energy>
  </scstep>
  <scstep>
   <time name="total">    0.66    0.67</time>
   <energy>
    <i name="e_fr_energy">     -0.95667990 </i>
    <i name="e_wo_entrp">     -0.94944434 </i>
    <i name="e_0_energy">     -0.95306212 </i>
   </energy>
  </scstep>
  <scstep>
   <time name="total">    1.29    1.29</time>
   <energy>
    <i name="e_fr_energy">     -0.97208566 </i>
    <i name="e_wo_entrp">     -0.96508726 </i>
    <i name="e_0_energy">     -0.96858646 </i>
   </energy>
  </scstep>
  <scstep>
   <time name="total">    0.68    0.68</time>
   <energy>
    <i name="e_fr_energy">     -0.97471500 </i>
    <i name="e_wo_entrp">     -0.96798803 </i>
    <i name="e_0_energy">     -0.97135151 </i>
   </energy>
  </scstep>
  <scstep>
   <time name="total">    0.67    0.70</time>
   <energy>
    <i name="e_fr_energy">     -0.97703717 </i>
    <i name="e_wo_entrp">     -0.97145688 </i>
    <i name="e_0_energy">     -0.97424702 </i>
   </energy>
  </scstep>
  <scstep>
   <time name="total">    1.65    1.65</time>
   <energy>
    <i name="e_fr_energy">     -0.98443849 </i>
    <i name="e_wo_entrp">     -0.98443849 </i>
    <i name="e_0_energy">     -0.98443849 </i>
   </energy>
  </scstep>
  <scstep>
   <time name="total">    0.67    0.67</time>
   <energy>
    <i name="e_fr_energy">     -1.01049804 </i>
    <i name="e_wo_entrp">     -1.01049804 </i>
    <i name="e_0_energy">     -1.01049804 </i>
   </energy>
  </scstep>
  <scstep>
   <time name="total">    0.67    0.67</time>
   <energy>
    <i name="e_fr_energy">     -1.01170725 </i>
    <i name="e_wo_entrp">     -1.01170725 </i>
    <i name="e_0_energy">     -1.01170725 </i>
   </energy>
  </scstep>
  <scstep>
   <time name="total">    0.66    0.66</time>
   <energy>
    <i name="e_fr_energy">     -1.01190909 </i>
    <i name="e_wo_entrp">     -1.01190909 </i>
    <i name="e_0_energy">     -1.01190909 </i>
   </energy>
  </scstep>
  <scstep>
   <time name="total">    0.67    0.67</time>
   <energy>
    <i name="e_fr_energy">     -1.01209300 </i>
    <i name="e_wo_entrp">     -1.01209300 </i>
    <i name="e_0_energy">     -1.01209300 </i>
   </energy>
  </scstep>
  <scstep>
   <time name="total">    0.68    0.69</time>
   <energy>
    <i name="e_fr_energy">     -1.01212351 </i>
    <i name="e_wo_entrp">     -1.01212351 </i>
    <i name="e_0_energy">     -1.01212351 </i>
   </energy>
  </scstep>
  <scstep>
   <time name="total">    0.66    0.67</time>
   <energy>
    <i name="e_fr_energy">     -1.01213151 </i>
    <i name="e_wo_entrp">     -1.01213151 </i>
    <i name="e_0_energy">     -1.01213151 </i>
   </energy>
  </scstep>
  <scstep>
   <time name="total">    0.67    0.67</time>
   <energy>
    <i name="e_fr_energy">     -1.01214703 </i>
    <i name="e_wo_entrp">     -1.01214703 </i>
    <i name="e_0_energy">     -1.01214703 </i>
   </energy>
  </scstep>
  <scstep>
   <time name="total">    0.66    0.66</time>
   <energy>
    <i name="e_fr_energy">     -1.01219954 </i>
    <i name="e_wo_entrp">     -1.01219954 </i>
    <i name="e_0_energy">     -1.01219954 </i>
   </energy>
  </scstep>
  <scstep>
   <time name="total">    0.65    0.65</time>
   <energy>
    <i name="e_fr_energy">     -1.01225219 </i>
    <i name="e_wo_entrp">     -1.01225219 </i>
    <i name="e_0_energy">     -1.01225219 </i>
   </energy>
  </scstep>
  <scstep>
   <time name="total">    0.67    0.67</time>
   <energy>
    <i name="e_fr_energy">     -1.01229375 </i>
    <i name="e_wo_entrp">     -1.01229375 </i>
    <i name="e_0_energy">     -1.01229375 </i>
   </energy>
  </scstep>
  <scstep>
   <time name="total">    0.66    0.66</time>
   <energy>
    <i name="e_fr_energy">     -1.01233799 </i>
    <i name="e_wo_entrp">     -1.01233799 </i>
    <i name="e_0_energy">     -1.01233799 </i>
   </energy>
  </scstep>
  <scstep>
   <time name="total">    0.67    0.68</time>
   <energy>
    <i name="e_fr_energy">     -1.01239069 </i>
    <i name="e_wo_entrp">     -1.01239069 </i>
    <i name="e_0_energy">     -1.01239069 </i>
   </energy>
  </scstep>
  <scstep>
   <time name="total">    0.66    0.66</time>
   <energy>
    <i name="e_fr_energy">     -1.01243777 </i>
    <i name="e_wo_entrp">     -1.01243777 </i>
    <i name="e_0_energy">     -1.01243777 </i>
   </energy>
  </scstep>
  <scstep>
   <time name="total">    0.66    0.66</time>
   <energy>
    <i name="e_fr_energy">     -1.01247504 </i>
    <i name="e_wo_entrp">     -1.01247504 </i>
    <i name="e_0_energy">     -1.01247504 </i>
   </energy>
  </scstep>
  <scstep>
   <time name="total">    0.66    0.66</time>
   <energy>
    <i name="e_fr_energy">     -1.01249659 </i>
    <i name="e_wo_entrp">     -1.01249659 </i>
    <i name="e_0_energy">     -1.01249659 </i>
   </energy>
  </scstep>
  <scstep>
   <time name="total">    0.92    0.92</time>
   <energy>
    <i name="alphaZ">    219.48591142 </i>
    <i name="ewald">  -2453.45788842 </i>
    <i name="hartreedc">   -946.76814219 </i>
    <i name="XCdc">     78.89444008 </i>
    <i name="pawpsdc">   3174.05485444 </i>
    <i name="pawaedc">  -3500.33155530 </i>
    <i name="eentropy">     -0.00000000 </i>
    <i name="bandstr">   -151.32348949 </i>
    <i name="atom">   3492.96445902 </i>
    <i name="e_fr_energy">     -1.01250649 </i>
    <i name="e_wo_entrp">     -1.01250649 </i>
    <i name="e_0_energy">     -1.01250649 </i>
   </energy>
  </scstep>
  <structure>
   <crystal>
    <varray name="basis" >
     <v>       1.30717990      -2.26410200       0.00000000 </v>
     <v>       1.30717990       2.26410200       0.00000000 </v>
     <v>       0.00000000       0.00000000       4.87316102 </v>
    </varray>
    <i name="volume">     28.84510390 </i>
    <varray name="rec_basis" >
     <v>       0.38250282      -0.22083811       0.00000000 </v>
     <v>       0.38250282       0.22083811      -0.00000000 </v>
     <v>      -0.00000000       0.00000000       0.20520561 </v>
    </varray>
   </crystal>
   <varray name="positions" >
    <v>       0.33333333       0.66666667       0.25000000 </v>
    <v>       0.66666667       0.33333333       0.75000000 </v>
   </varray>
  </structure>
  <varray name="forces" >
   <v>      -0.00000679       0.20000980       0.00662298 </v>
   <v>       0.00000679      -0.20000980      -0.00662298 </v>
  </varray>
  <varray name="stress" >
   <v>     271.57103890      -0.00104051      -0.00007381 </v>
   <v>      -0.00104064     111.23579235      -4.79344128 </v>
   <v>      -0.00007527      -4.79344361    -300.30061706 </v>
  </varray>
  <energy>
   <i name="e_fr_energy">     -1.01250649 </i>
   <i name="e_wo_entrp">     -1.01250649 </i>
   <i name="e_0_energy">     -1.01250649 </i>
  </energy>
  <time name="totalsc">   22.29   22.41</time>
  <eigenvalues>
   <array>
    <dimension dim="1">band</dimension>
    <dimension dim="2">kpoint</dimension>
    <dimension dim="3">spin</dimension>
    <field>eigene</field>
    <field>occ</field>
    <set>
     <set comment="spin 1">
      <set comment="kpoint 1">
       <r>   -9.0461    1.0000 </r>
       <r>   -8.2636    1.0000 </r>
       <r>   -7.7465    1.0000 </r>
       <r>   -7.4513    1.0000 </r>
       <r>   -7.4443    1.0000 </r>
       <r>   -7.3977    1.0000 </r>
       <r>   -7.3908    1.0000 </r>
       <r>   -7.0501    1.0000 </r>
       <r>   -7.0184    1.0000 </r>
       <r>   -6.8085    1.0000 </r>
       <r>   -6.7752    1.0000 </r>
       <r>   -1.1211    1.0000 </r>
       <r>   -0.2555    1.0000 </r>
       <r>   18.8856    0.0000 </r>
       <r>   22.4500    0.0000 </r>
       <r>   23.3086    0.0000 </r>
      </set>
      <set comment="kpoint 2">
       <r>   -8.2444    1.0000 </r>
       <r>   -8.0613    1.0000 </r>
       <r>   -7.9583    1.0000 </r>
       <r>   -7.4310    1.0000 </r>
       <r>   -7.2965    1.0000 </r>
       <r>   -7.2919    1.0000 </r>
       <r>   -6.9381    1.0000 </r>
       <r>   -6.8100    1.0000 </r>
       <r>   -6.5868    1.0000 </r>
       <r>   -6.5651    1.0000 </r>
       <r>   -0.4177    1.0000 </r>
       <r>    0.5324    1.0000 </r>
       <r>    7.0134    0.0000 </r>
       <r>    7.6774    0.0000 </r>
       <r>    8.9392    0.0000 </r>
       <r>    9.8107    0.0000 </r>
      </set>
      <set comment="kpoint 3">
       <r>   -8.2444    1.0000 </r>
       <r>   -8.0613    1.0000 </r>
       <r>   -7.9583    1.0000 </r>
       <r>   -7.4310    1.0000 </r>
       <r>   -7.2965    1.0000 </r>
       <r>   -7.2919    1.0000 </r>
       <r>   -6.9381    1.0000 </r>
       <r>   -6.8100    1.0000 </r>
       <r>   -6.5868    1.0000 </r>
       <r>   -6.5651    1.0000 </r>
       <r>   -0.4177    1.0000 </r>
       <r>    0.5324    1.0000 </r>
       <r>    7.0134    0.0000 </r>
       <r>    7.6774    0.0000 </r>
       <r>    8.9392    0.0000 </r>
       <r>    9.8107    0.0000 </r>
      </set>
      <set comment="kpoint 4">
       <r>   -8.2228    1.0000 </r>
       <r>   -8.0536    1.0000 </r>
       <r>   -7.9769    1.0000 </r>
       <r>   -7.4367    1.0000 </r>
       <r>   -7.2842    1.0000 </r>
       <r>   -7.2751    1.0000 </r>
       <r>   -6.9399    1.0000 </r>
       <r>   -6.7856    1.0000 </r>
       <r>   -6.5896    1.0000 </r>
       <r>   -6.5683    1.0000 </r>
       <r>   -0.1348    1.0000 </r>
       <r>    0.7800    1.0000 </r>
       <r>    7.0859    0.0000 </r>
       <r>    7.7575    0.0000 </r>
       <r>    8.9863    0.0000 </r>
       <r>    9.9127    0.0000 </r>
      </set>
      <set comment="kpoint 5">
       <r>   -8.2331    1.0000 </r>
       <r>   -8.2283    1.0000 </r>
       <r>   -7.4449    1.0000 </r>
       <r>   -7.4422    1.0000 </r>
       <r>   -7.4403    1.0000 </r>
       <r>   -7.4365    1.0000 </r>
       <r>   -6.9105    1.0000 </r>
       <r>   -6.9067    1.0000 </r>
       <r>   -6.8789    1.0000 </r>
       <r>   -6.8761    1.0000 </r>
       <r>   -6.6773    1.0000 </r>
       <r>   -6.6701    1.0000 </r>
       <r>    8.6912    0.0000 </r>
       <r>    8.6984    0.0000 </r>
       <r>   24.7479    0.0000 </r>
       <r>   24.7652    0.0000 </r>
      </set>
      <set comment="kpoint 6">
       <r>   -8.1622    1.0000 </r>
       <r>   -8.1549    1.0000 </r>
       <r>   -7.9080    1.0000 </r>
       <r>   -7.9059    1.0000 </r>
       <r>   -7.0635    1.0000 </r>
       <r>   -7.0604    1.0000 </r>
       <r>   -6.8361    1.0000 </r>
       <r>   -6.8340    1.0000 </r>
       <r>   -6.5757    1.0000 </r>
       <r>   -6.5728    1.0000 </r>
       <r>    0.6357    1.0000 </r>
       <r>    0.6791    1.0000 </r>
       <r>    4.1371    0.0000 </r>
       <r>    4.1743    0.0000 </r>
       <r>   15.2013    0.0000 </r>
       <r>   15.2025    0.0000 </r>
      </set>
      <set comment="kpoint 7">
       <r>   -8.1622    1.0000 </r>
       <r>   -8.1549    1.0000 </r>
       <r>   -7.9080    1.0000 </r>
       <r>   -7.9059    1.0000 </r>
       <r>   -7.0635    1.0000 </r>
       <r>   -7.0604    1.0000 </r>
       <r>   -6.8361    1.0000 </r>
       <r>   -6.8340    1.0000 </r>
       <r>   -6.5757    1.0000 </r>
       <r>   -6.5727    1.0000 </r>
       <r>    0.6357    1.0000 </r>
       <r>    0.6791    1.0000 </r>
       <r>    4.1371    0.0000 </r>
       <r>    4.1743    0.0000 </r>
       <r>   15.2013    0.0000 </r>
       <r>   15.2025    0.0000 </r>
      </set>
      <set comment="kpoint 8">
       <r>   -8.1577    1.0000 </r>
       <r>   -8.1477    1.0000 </r>
       <r>   -7.9143    1.0000 </r>
       <r>   -7.9027    1.0000 </r>
       <r>   -7.0397    1.0000 </r>
       <r>   -7.0369    1.0000 </r>
       <r>   -6.8575    1.0000 </r>
       <r>   -6.8540    1.0000 </r>
       <r>   -6.5790    1.0000 </r>
       <r>   -6.5760    1.0000 </r>
       <r>    0.6700    1.0000 </r>
       <r>    1.3751    0.0000 </r>
       <r>    4.1006    0.0000 </r>
       <r>    4.1688    0.0000 </r>
       <r>   15.1934    0.0000 </r>
       <r>   15.2496    0.0000 </r>
      </set>
     </set>
    </set>
   </array>
  </eigenvalues>
  <separator name="orbital magnetization" >
   <v name="MAGDIPOLOUT">      0.00000000      0.00000000      0.00000000</v>
  </separator>
  <dos>
   <i name="efermi">      1.05645211 </i>
   <total>
    <array>
     <dimension dim="1">gridpoints</dimension>
     <dimension dim="2">spin</dimension>
     <field>energy</field>
     <field>total</field>
     <field>integrated</field>
     <set>
      <set comment="spin 1">
       <r>   -10.7367     0.0000     0.0000 </r>
       <r>   -10.6127     0.0000     0.0000 </r>
       <r>   -10.4887     0.0000     0.0000 </r>
       <r>   -10.3647     0.0000     0.0000 </r>
       <r>   -10.2408     0.0000     0.0000 </r>
       <r>   -10.1168     0.0000     0.0000 </r>
       <r>    -9.9928     0.0000     0.0000 </r>
       <r>    -9.8688     0.0000     0.0000 </r>
       <r>    -9.7449     0.0000     0.0000 </r>
       <r>    -9.6209     0.0000     0.0000 </r>
       <r>    -9.4969     0.0000     0.0000 </r>
       <r>    -9.3729     0.0000     0.0000 </r>
       <r>    -9.2490     0.0000     0.0000 </r>
       <r>    -9.1250     0.0259     0.0032 </r>
       <r>    -9.0010     1.7867     0.2247 </r>
       <r>    -8.8770     0.2039     0.2500 </r>
       <r>    -8.7531     0.0000     0.2500 </r>
       <r>    -8.6291     0.0000     0.2500 </r>
       <r>    -8.5051     0.0000     0.2500 </r>
       <r>    -8.3811     0.0012     0.2501 </r>
       <r>    -8.2572     3.8849     0.7318 </r>
       <r>    -8.1332    17.3009     2.8767 </r>
       <r>    -8.0092     9.2565     4.0242 </r>
       <r>    -7.8852    14.6531     5.8408 </r>
       <r>    -7.7613     3.9813     6.3344 </r>
       <r>    -7.6373     1.3334     6.4997 </r>
       <r>    -7.5133     0.3732     6.5460 </r>
       <r>    -7.3893    18.5981     8.8517 </r>
       <r>    -7.2654    12.2439    10.3697 </r>
       <r>    -7.1414     3.1852    10.7645 </r>
       <r>    -7.0174    12.7933    12.3506 </r>
       <r>    -6.8934    13.6960    14.0485 </r>
       <r>    -6.7695    23.2373    16.9294 </r>
       <r>    -6.6455     6.4311    17.7267 </r>
       <r>    -6.5215    22.7964    20.5529 </r>
       <r>    -6.3975     1.5902    20.7500 </r>
       <r>    -6.2736     0.0000    20.7500 </r>
       <r>    -6.1496     0.0000    20.7500 </r>
       <r>    -6.0256     0.0000    20.7500 </r>
       <r>    -5.9016     0.0000    20.7500 </r>
       <r>    -5.7777     0.0000    20.7500 </r>
       <r>    -5.6537     0.0000    20.7500 </r>
       <r>    -5.5297     0.0000    20.7500 </r>
       <r>    -5.4057     0.0000    20.7500 </r>
       <r>    -5.2818     0.0000    20.7500 </r>
       <r>    -5.1578     0.0000    20.7500 </r>
       <r>    -5.0338     0.0000    20.7500 </r>
       <r>    -4.9098     0.0000    20.7500 </r>
       <r>    -4.7859     0.0000    20.7500 </r>
       <r>    -4.6619     0.0000    20.7500 </r>
       <r>    -4.5379     0.0000    20.7500 </r>
       <r>    -4.4139     0.0000    20.7500 </r>
       <r>    -4.2900     0.0000    20.7500 </r>
       <r>    -4.1660     0.0000    20.7500 </r>
       <r>    -4.0420     0.0000    20.7500 </r>
       <r>    -3.9180     0.0000    20.7500 </r>
       <r>    -3.7941     0.0000    20.7500 </r>
       <r>    -3.6701     0.0000    20.7500 </r>
       <r>    -3.5461     0.0000    20.7500 </r>
       <r>    -3.4221     0.0000    20.7500 </r>
       <r>    -3.2982     0.0000    20.7500 </r>
       <r>    -3.1742     0.0000    20.7500 </r>
       <r>    -3.0502     0.0000    20.7500 </r>
       <r>    -2.9262     0.0000    20.7500 </r>
       <r>    -2.8023     0.0000    20.7500 </r>
       <r>    -2.6783     0.0000    20.7500 </r>
       <r>    -2.5543     0.0000    20.7500 </r>
       <r>    -2.4303     0.0000    20.7500 </r>
       <r>    -2.3064     0.0000    20.7500 </r>
       <r>    -2.1824     0.0000    20.7500 </r>
       <r>    -2.0584     0.0000    20.7500 </r>
       <r>    -1.9344     0.0000    20.7500 </r>
       <r>    -1.8105     0.0000    20.7500 </r>
       <r>    -1.6865     0.0000    20.7500 </r>
       <r>    -1.5625     0.0000    20.7500 </r>
       <r>    -1.4385     0.0000    20.7500 </r>
       <r>    -1.3146     0.0000    20.7500 </r>
       <r>    -1.1906     0.0499    20.7562 </r>
       <r>    -1.0666     1.8426    20.9846 </r>
       <r>    -0.9426     0.1240    21.0000 </r>
       <r>    -0.8187     0.0000    21.0000 </r>
       <r>    -0.6947     0.0000    21.0000 </r>
       <r>    -0.5707     0.0000    21.0000 </r>
       <r>    -0.4467     0.8286    21.1027 </r>
       <r>    -0.3228     3.2474    21.5053 </r>
       <r>    -0.1988     1.9350    21.7452 </r>
       <r>    -0.0748     1.9646    21.9888 </r>
       <r>     0.0492     0.0904    22.0000 </r>
       <r>     0.1731     0.0000    22.0000 </r>
       <r>     0.2971     0.0000    22.0000 </r>
       <r>     0.4211     0.0033    22.0004 </r>
       <r>     0.5451     2.5981    22.3225 </r>
       <r>     0.6690     7.3201    23.2300 </r>
       <r>     0.7930     5.4882    23.9104 </r>
       <r>     0.9170     0.7225    24.0000 </r>
       <r>     1.0410     0.0001    24.0000 </r>
       <r>     1.1649     0.0000    24.0000 </r>
       <r>     1.2889     0.0149    24.0019 </r>
       <r>     1.4129     1.7145    24.2144 </r>
       <r>     1.5369     0.2871    24.2500 </r>
       <r>     1.6608     0.0000    24.2500 </r>
       <r>     1.7848     0.0000    24.2500 </r>
       <r>     1.9088     0.0000    24.2500 </r>
       <r>     2.0328     0.0000    24.2500 </r>
       <r>     2.1567     0.0000    24.2500 </r>
       <r>     2.2807     0.0000    24.2500 </r>
       <r>     2.4047     0.0000    24.2500 </r>
       <r>     2.5287     0.0000    24.2500 </r>
       <r>     2.6526     0.0000    24.2500 </r>
       <r>     2.7766     0.0000    24.2500 </r>
       <r>     2.9006     0.0000    24.2500 </r>
       <r>     3.0246     0.0000    24.2500 </r>
       <r>     3.1485     0.0000    24.2500 </r>
       <r>     3.2725     0.0000    24.2500 </r>
       <r>     3.3965     0.0000    24.2500 </r>
       <r>     3.5205     0.0000    24.2500 </r>
       <r>     3.6444     0.0000    24.2500 </r>
       <r>     3.7684     0.0000    24.2500 </r>
       <r>     3.8924     0.0000    24.2500 </r>
       <r>     4.0164     0.0186    24.2523 </r>
       <r>     4.1403     4.9999    24.8722 </r>
       <r>     4.2643     7.0512    25.7463 </r>
       <r>     4.3883     0.0296    25.7500 </r>
       <r>     4.5123     0.0000    25.7500 </r>
       <r>     4.6362     0.0000    25.7500 </r>
       <r>     4.7602     0.0000    25.7500 </r>
       <r>     4.8842     0.0000    25.7500 </r>
       <r>     5.0082     0.0000    25.7500 </r>
       <r>     5.1321     0.0000    25.7500 </r>
       <r>     5.2561     0.0000    25.7500 </r>
       <r>     5.3801     0.0000    25.7500 </r>
       <r>     5.5041     0.0000    25.7500 </r>
       <r>     5.6280     0.0000    25.7500 </r>
       <r>     5.7520     0.0000    25.7500 </r>
       <r>     5.8760     0.0000    25.7500 </r>
       <r>     5.9999     0.0000    25.7500 </r>
       <r>     6.1239     0.0000    25.7500 </r>
       <r>     6.2479     0.0000    25.7500 </r>
       <r>     6.3719     0.0000    25.7500 </r>
       <r>     6.4958     0.0000    25.7500 </r>
       <r>     6.6198     0.0000    25.7500 </r>
       <r>     6.7438     0.0000    25.7500 </r>
       <r>     6.8678     0.0001    25.7500 </r>
       <r>     6.9917     1.0966    25.8860 </r>
       <r>     7.1157     4.5435    26.4492 </r>
       <r>     7.2397     0.4095    26.5000 </r>
       <r>     7.3637     0.0000    26.5000 </r>
       <r>     7.4876     0.0000    26.5000 </r>
       <r>     7.6116     0.1266    26.5157 </r>
       <r>     7.7356     4.2459    27.0421 </r>
       <r>     7.8596     1.6732    27.2495 </r>
       <r>     7.9835     0.0039    27.2500 </r>
       <r>     8.1075     0.0000    27.2500 </r>
       <r>     8.2315     0.0000    27.2500 </r>
       <r>     8.3555     0.0000    27.2500 </r>
       <r>     8.4794     0.0000    27.2500 </r>
       <r>     8.6034     0.0205    27.2525 </r>
       <r>     8.7274     3.2897    27.6604 </r>
       <r>     8.8514     0.7492    27.7533 </r>
       <r>     8.9753     4.1526    28.2681 </r>
       <r>     9.0993     1.8692    28.4998 </r>
       <r>     9.2233     0.0014    28.5000 </r>
       <r>     9.3473     0.0000    28.5000 </r>
       <r>     9.4712     0.0000    28.5000 </r>
       <r>     9.5952     0.0000    28.5000 </r>
       <r>     9.7192     0.0194    28.5024 </r>
       <r>     9.8432     3.3393    28.9164 </r>
       <r>     9.9671     2.5662    29.2345 </r>
       <r>    10.0911     0.1247    29.2500 </r>
       <r>    10.2151     0.0000    29.2500 </r>
       <r>    10.3391     0.0000    29.2500 </r>
       <r>    10.4630     0.0000    29.2500 </r>
       <r>    10.5870     0.0000    29.2500 </r>
       <r>    10.7110     0.0000    29.2500 </r>
       <r>    10.8350     0.0000    29.2500 </r>
       <r>    10.9589     0.0000    29.2500 </r>
       <r>    11.0829     0.0000    29.2500 </r>
       <r>    11.2069     0.0000    29.2500 </r>
       <r>    11.3309     0.0000    29.2500 </r>
       <r>    11.4548     0.0000    29.2500 </r>
       <r>    11.5788     0.0000    29.2500 </r>
       <r>    11.7028     0.0000    29.2500 </r>
       <r>    11.8268     0.0000    29.2500 </r>
       <r>    11.9507     0.0000    29.2500 </r>
       <r>    12.0747     0.0000    29.2500 </r>
       <r>    12.1987     0.0000    29.2500 </r>
       <r>    12.3227     0.0000    29.2500 </r>
       <r>    12.4466     0.0000    29.2500 </r>
       <r>    12.5706     0.0000    29.2500 </r>
       <r>    12.6946     0.0000    29.2500 </r>
       <r>    12.8186     0.0000    29.2500 </r>
       <r>    12.9425     0.0000    29.2500 </r>
       <r>    13.0665     0.0000    29.2500 </r>
       <r>    13.1905     0.0000    29.2500 </r>
       <r>    13.3145     0.0000    29.2500 </r>
       <r>    13.4384     0.0000    29.2500 </r>
       <r>    13.5624     0.0000    29.2500 </r>
       <r>    13.6864     0.0000    29.2500 </r>
       <r>    13.8104     0.0000    29.2500 </r>
       <r>    13.9343     0.0000    29.2500 </r>
       <r>    14.0583     0.0000    29.2500 </r>
       <r>    14.1823     0.0000    29.2500 </r>
       <r>    14.3063     0.0000    29.2500 </r>
       <r>    14.4302     0.0000    29.2500 </r>
       <r>    14.5542     0.0000    29.2500 </r>
       <r>    14.6782     0.0000    29.2500 </r>
       <r>    14.8022     0.0000    29.2500 </r>
       <r>    14.9261     0.0000    29.2500 </r>
       <r>    15.0501     0.0001    29.2500 </r>
       <r>    15.1741     2.3619    29.5428 </r>
       <r>    15.2981     9.5358    30.7250 </r>
       <r>    15.4220     0.2014    30.7500 </r>
       <r>    15.5460     0.0000    30.7500 </r>
       <r>    15.6700     0.0000    30.7500 </r>
       <r>    15.7940     0.0000    30.7500 </r>
       <r>    15.9179     0.0000    30.7500 </r>
       <r>    16.0419     0.0000    30.7500 </r>
       <r>    16.1659     0.0000    30.7500 </r>
       <r>    16.2899     0.0000    30.7500 </r>
       <r>    16.4138     0.0000    30.7500 </r>
       <r>    16.5378     0.0000    30.7500 </r>
       <r>    16.6618     0.0000    30.7500 </r>
       <r>    16.7858     0.0000    30.7500 </r>
       <r>    16.9097     0.0000    30.7500 </r>
       <r>    17.0337     0.0000    30.7500 </r>
       <r>    17.1577     0.0000    30.7500 </r>
       <r>    17.2817     0.0000    30.7500 </r>
       <r>    17.4056     0.0000    30.7500 </r>
       <r>    17.5296     0.0000    30.7500 </r>
       <r>    17.6536     0.0000    30.7500 </r>
       <r>    17.7776     0.0000    30.7500 </r>
       <r>    17.9015     0.0000    30.7500 </r>
       <r>    18.0255     0.0000    30.7500 </r>
       <r>    18.1495     0.0000    30.7500 </r>
       <r>    18.2735     0.0000    30.7500 </r>
       <r>    18.3974     0.0000    30.7500 </r>
       <r>    18.5214     0.0000    30.7500 </r>
       <r>    18.6454     0.0000    30.7500 </r>
       <r>    18.7694     0.0010    30.7501 </r>
       <r>    18.8933     1.1828    30.8968 </r>
       <r>    19.0173     0.8325    31.0000 </r>
       <r>    19.1413     0.0002    31.0000 </r>
       <r>    19.2653     0.0000    31.0000 </r>
       <r>    19.3892     0.0000    31.0000 </r>
       <r>    19.5132     0.0000    31.0000 </r>
       <r>    19.6372     0.0000    31.0000 </r>
       <r>    19.7612     0.0000    31.0000 </r>
       <r>    19.8851     0.0000    31.0000 </r>
       <r>    20.0091     0.0000    31.0000 </r>
       <r>    20.1331     0.0000    31.0000 </r>
       <r>    20.2571     0.0000    31.0000 </r>
       <r>    20.3810     0.0000    31.0000 </r>
       <r>    20.5050     0.0000    31.0000 </r>
       <r>    20.6290     0.0000    31.0000 </r>
       <r>    20.7530     0.0000    31.0000 </r>
       <r>    20.8769     0.0000    31.0000 </r>
       <r>    21.0009     0.0000    31.0000 </r>
       <r>    21.1249     0.0000    31.0000 </r>
       <r>    21.2489     0.0000    31.0000 </r>
       <r>    21.3728     0.0000    31.0000 </r>
       <r>    21.4968     0.0000    31.0000 </r>
       <r>    21.6208     0.0000    31.0000 </r>
       <r>    21.7448     0.0000    31.0000 </r>
       <r>    21.8687     0.0000    31.0000 </r>
       <r>    21.9927     0.0000    31.0000 </r>
       <r>    22.1167     0.0000    31.0000 </r>
       <r>    22.2407     0.0000    31.0000 </r>
       <r>    22.3646     0.0159    31.0020 </r>
       <r>    22.4886     1.7235    31.2156 </r>
       <r>    22.6126     0.2772    31.2500 </r>
       <r>    22.7366     0.0000    31.2500 </r>
       <r>    22.8605     0.0000    31.2500 </r>
       <r>    22.9845     0.0000    31.2500 </r>
       <r>    23.1085     0.0000    31.2500 </r>
       <r>    23.2325     0.0314    31.2539 </r>
       <r>    23.3564     1.8072    31.4779 </r>
       <r>    23.4804     0.1779    31.5000 </r>
       <r>    23.6044     0.0000    31.5000 </r>
       <r>    23.7284     0.0000    31.5000 </r>
       <r>    23.8523     0.0000    31.5000 </r>
       <r>    23.9763     0.0000    31.5000 </r>
       <r>    24.1003     0.0000    31.5000 </r>
       <r>    24.2243     0.0000    31.5000 </r>
       <r>    24.3482     0.0000    31.5000 </r>
       <r>    24.4722     0.0000    31.5000 </r>
       <r>    24.5962     0.0000    31.5000 </r>
       <r>    24.7202     0.6402    31.5794 </r>
       <r>    24.8441     3.3604    31.9960 </r>
       <r>    24.9681     0.0324    32.0000 </r>
       <r>    25.0921     0.0000    32.0000 </r>
       <r>    25.2161     0.0000    32.0000 </r>
       <r>    25.3400     0.0000    32.0000 </r>
       <r>    25.4640     0.0000    32.0000 </r>
       <r>    25.5880     0.0000    32.0000 </r>
       <r>    25.7120     0.0000    32.0000 </r>
       <r>    25.8359     0.0000    32.0000 </r>
       <r>    25.9599     0.0000    32.0000 </r>
       <r>    26.0839     0.0000    32.0000 </r>
       <r>    26.2079     0.0000    32.0000 </r>
       <r>    26.3318     0.0000    32.0000 </r>
       <r>    26.4558     0.0000    32.0000 </r>
      </set>
     </set>
    </array>
   </total>
  </dos>
 </calculation>
 <structure name="finalpos" >
  <crystal>
   <varray name="basis" >
    <v>       1.30717990      -2.26410200       0.00000000 </v>
    <v>       1.30717990       2.26410200       0.00000000 </v>
    <v>       0.00000000       0.00000000       4.87316102 </v>
   </varray>
   <i name="volume">     28.84510390 </i>
   <varray name="rec_basis" >
    <v>       0.38250282      -0.22083811       0.00000000 </v>
    <v>       0.38250282       0.22083811      -0.00000000 </v>
    <v>      -0.00000000       0.00000000       0.20520561 </v>
   </varray>
  </crystal>
  <varray name="positions" >
   <v>       0.33333333       0.66666667       0.25000000 </v>
   <v>       0.66666667       0.33333333       0.75000000 </v>
  </varray>
 </structure>
</modeling>
