       N       E                     dE             d eps       ncg     rms          ort
SDA:   1    -0.715904855530E+03   -0.71590E+03    0.00000E+00   696   0.481E+03 0.000E+00
CGA:   2    -0.869028592432E+03   -0.15312E+03   -0.15393E+03   696   0.252E+03-0.250E+01
CGA:   3    -0.923534258057E+03   -0.54506E+02   -0.54437E+02   696   0.658E+02 0.839E+01
CGA:   4    -0.944386069192E+03   -0.20852E+02   -0.20332E+02   696   0.208E+02 0.388E+01
CGA:   5    -0.950409605924E+03   -0.60235E+01   -0.60110E+01   696   0.800E+01 0.135E+00
CGA:   6    -0.953311837404E+03   -0.29022E+01   -0.29033E+01   696   0.381E+01-0.658E-02
CGA:   7    -0.954399928870E+03   -0.10881E+01   -0.10921E+01   696   0.138E+01-0.501E-01
CGA:   8    -0.954811805895E+03   -0.41188E+00   -0.41478E+00   696   0.445E+00-0.298E-01
CGA:   9    -0.954918939568E+03   -0.10713E+00   -0.10723E+00   696   0.159E+00-0.369E-02
CGA:  10    -0.954956996123E+03   -0.38057E-01   -0.38063E-01   696   0.560E-01-0.250E-03
CGA:  11    -0.954971650696E+03   -0.14655E-01   -0.14654E-01   696   0.216E-01 0.684E-04
CGA:  12    -0.954981331641E+03   -0.96809E-02   -0.97154E-02   696   0.113E+00-0.155E-03
CGA:  13    -0.955237748487E+03   -0.25642E+00    0.36752E-02   696   0.964E+01 0.714E+00
CGA:  14    -0.956013756610E+03   -0.77601E+00   -0.14114E+01   696   0.269E+00 0.195E+00
CGA:  15    -0.956170110680E+03   -0.15635E+00   -0.14740E+00   696   0.230E+00 0.288E-01
CGA:  16    -0.956226490871E+03   -0.56380E-01   -0.56537E-01   696   0.832E-01 0.175E-02
CGA:  17    -0.956257153300E+03   -0.30662E-01   -0.30373E-01   696   0.307E-01 0.199E-02
CGA:  18    -0.956267481821E+03   -0.10329E-01   -0.10298E-01   696   0.126E-01 0.330E-03
CGA:  19    -0.956270464668E+03   -0.29828E-02   -0.29840E-02   696   0.393E-02 0.260E-04
CGA:  20    -0.956271665669E+03   -0.12010E-02   -0.12023E-02   696   0.144E-02-0.283E-04
CGA:  21    -0.956272099900E+03   -0.43423E-03   -0.43410E-03   696   0.570E-03 0.302E-05
CGA:  22    -0.956272267016E+03   -0.16712E-03   -0.16699E-03   696   0.233E-03 0.431E-05
CGA:  23    -0.956272343790E+03   -0.76774E-04   -0.76985E-04   696   0.107E-03-0.332E-05
CGA:  24    -0.956272376542E+03   -0.32752E-04   -0.32769E-04   696   0.446E-04-0.393E-06
CGA:  25    -0.956272388976E+03   -0.12434E-04   -0.12433E-04   696   0.210E-04 0.162E-06
CGA:  26    -0.956272394794E+03   -0.58178E-05   -0.58168E-05   696   0.938E-05 0.210E-06
   1 F= -.95627239E+03 E0= -.95627239E+03  d E =-.214217E-12  mag=    -1.0000
