Ga48 O72                                
    1.000000000000000     
     0.0000000000000000   12.2804734172212839    0.0000000000000000
     9.1427020537309431    0.0000000000000000    0.0000000000000000
     0.0000000000000000   -2.7682617730220320  -11.3006977184464645
   Ga   O    P 
    47    71     1
Direct
  0.6568225466271471  0.0000000000000000  0.1558723375305675
  0.6605028042242651  0.0000000000000000  0.6569682865302653
  0.6585667303061271  0.3330587518769192  0.1578583073124733
  0.6606497306544910  0.3334676858291488  0.6567348315929635
  0.6585667303061271  0.6669412481230808  0.1578583073124733
  0.6606497306544910  0.6665323141708512  0.6567348315929635
  0.8385751813008966  0.1635743877514741  0.3417855252497120
  0.8411877121783320  0.1664231470822273  0.8440564766206791
  0.8436397125491695  0.5000000000000000  0.3432300224494824
  0.8405677835115668  0.5000000000000000  0.8434604850993637
  0.8385751813008966  0.8364256122485259  0.3417855252497120
  0.8411877121783320  0.8335768529177727  0.8440564766206791
  0.5908990887129377  0.1671091280858121  0.3986771903112256
  0.5929674696882614  0.1667762812631892  0.8983298688252646
  0.5906310961213919  0.5000000000000000  0.3981175106380093
  0.5928974908450968  0.5000000000000000  0.8987861432906286
  0.5908990887129377  0.8328908719141879  0.3986771903112256
  0.5929674696882614  0.8332237187368108  0.8983298688252646
  0.9096533802388791  0.0000000000000000  0.1031888026719940
  0.9083152539605095  0.0000000000000000  0.6028128349374526
  0.9079536272672399  0.3338995121902784  0.1014592671244117
  0.9107257156315427  0.3330018343087886  0.6039930191122309
  0.9079536272672399  0.6661004878097216  0.1014592671244117
  0.9107257156315427  0.6669981656912114  0.6039930191122309
  0.1573269657815715  0.1707104903891903  0.1562619185248195
  0.1591053612388791  0.1751475589688027  0.6680212485675128
  0.1585986485078195  0.5000000000000000  0.1584692086088779
  0.1605142763774623  0.5000000000000000  0.6574240292257088
  0.1573269657815715  0.8292895096108026  0.1562619185248195
  0.1591053612388791  0.8248524410311973  0.6680212485675128
  0.3427449880444584  0.0000000000000000  0.3465879961674787
  0.3436068694907988  0.0000000000000000  0.8442808258494026
  0.3402007197631036  0.3334039610803288  0.3459144241184049
  0.3433203243148810  0.3345260312325067  0.8473007002148023
  0.3402007197631036  0.6665960389196712  0.3459144241184049
  0.3433203243148810  0.6654739687674933  0.8473007002148023
  0.0923682998599205  0.0000000000000000  0.9006201808509289
  0.0924634761702379  0.3291626321136860  0.3997499214693434
  0.0905510952290953  0.3341984713747195  0.9002198840753550
  0.0924634761702379  0.6708373678863140  0.3997499214693434
  0.0905510952290953  0.6658015286252805  0.9002198840753550
  0.4066136486389098  0.1663323658202884  0.1040923564078682
  0.4111752874758352  0.1670253312384418  0.6036397638798832
  0.4086767072428898  0.5000000000000000  0.1056912072584595
  0.4097957682333515  0.5000000000000000  0.6039586413799611
  0.4066136486389098  0.8336676341797116  0.1040923564078682
  0.4111752874758352  0.8329746687615582  0.6036397638798832
  0.9962517771736756  0.1676559592030742  0.1289012418281672
  0.9988608284449469  0.1644033218030074  0.6236177017550943
  0.9962872245455898  0.5000000000000000  0.1269791854690894
  0.9984197038598879  0.5000000000000000  0.6287696405565200
  0.9962517771736756  0.8323440407969258  0.1289012418281672
  0.9988608284449469  0.8355966781969926  0.6236177017550943
  0.5038063031949989  0.0000000000000000  0.3741308637096168
  0.5050100174150032  0.0000000000000000  0.8736602928315023
  0.5023697041769140  0.3332854342329981  0.3737848965298056
  0.5045827617841354  0.3331646724377251  0.8735408244502096
  0.5023697041769140  0.6667145657670019  0.3737848965298056
  0.5045827617841354  0.6668353275622749  0.8735408244502096
  0.6718106980681355  0.1667814440771238  0.2808497359143090
  0.6733068106753706  0.1665248989672676  0.7803045715104773
  0.6748604909457043  0.5000000000000000  0.2825832664800387
  0.6729784907651535  0.5000000000000000  0.7800350793316895
  0.6718106980681355  0.8332185559228762  0.2808497359143090
  0.6733068106753706  0.8334751010327324  0.7803045715104773
  0.8277405548343211  0.0000000000000000  0.2205876415252277
  0.8288280295592045  0.0000000000000000  0.7206759979340163
  0.8303618742785588  0.3303254676946423  0.2218631911311775
  0.8291076606044925  0.3327567317693081  0.7203371009636825
  0.8303618742785588  0.6696745323053577  0.2218631911311775
  0.8291076606044925  0.6672432682306919  0.7203371009636825
  0.8324282310476363  0.0000000000000000  0.4456495810212786
  0.8327764380980511  0.0000000000000000  0.9468340299140579
  0.8420094126233977  0.3298178351413128  0.4448431566554234
  0.8308237378867744  0.3332232384332272  0.9456033576457230
  0.8420094126233977  0.6701821648586872  0.4448431566554234
  0.8308237378867744  0.6667767615667728  0.9456033576457230
  0.6685888945497354  0.1668034647292558  0.0555067797011404
  0.6701637107942773  0.1669664785257794  0.5543509767947583
  0.6690218050153547  0.5000000000000000  0.0563970803477929
  0.6712395078977806  0.5000000000000000  0.5537374869103928
  0.6685888945497354  0.8331965352707442  0.0555067797011404
  0.6701637107942773  0.8330335214742206  0.5543509767947583
  0.4947190302000166  0.0000000000000000  0.1284518245106554
  0.4980622341883745  0.0000000000000000  0.6275432782220918
  0.4954197853840583  0.3323756499507624  0.1294165651671619
  0.4977771622423148  0.3337577606187025  0.6275279816547439
  0.4954197853840583  0.6676243500492376  0.1294165651671619
  0.4977771622423148  0.6662422393812975  0.6275279816547439
  0.0166623015347085  0.1409044919941564  0.3744204893491485
  0.0044940343410644  0.1665893782156331  0.8728817416550640
  0.0071775353827164  0.5000000000000000  0.3735888296827383
  0.0030023782095867  0.5000000000000000  0.8740719186284949
  0.0166623015347085  0.8590955080058436  0.3744204893491485
  0.0044940343410644  0.8334106217843669  0.8728817416550640
  0.1621139398512881  0.0000000000000000  0.2937164575825832
  0.1709412161732331  0.0000000000000000  0.7762503436252643
  0.1710303311730925  0.3316534376091269  0.2811675452544620
  0.1736609209381257  0.3358164390646650  0.7838609672070547
  0.1710303311730925  0.6683465623908731  0.2811675452544620
  0.1736609209381257  0.6641835609353350  0.7838609672070547
  0.3238463013168413  0.1628217244594339  0.2221523392658824
  0.3257706189708500  0.1631231040130317  0.7178196454750463
  0.3263726666151001  0.5000000000000000  0.2225133079135020
  0.3278294943698157  0.5000000000000000  0.7211277911692591
  0.3238463013168413  0.8371782755405661  0.2221523392658824
  0.3257706189708500  0.8368768959869683  0.7178196454750463
  0.3306545184845291  0.1655261413964197  0.4479660027018681
  0.3306942729558315  0.1657703324826016  0.9460295977370876
  0.3295011150287195  0.5000000000000000  0.4480166546566622
  0.3330691030747062  0.5000000000000000  0.9484442874390240
  0.3306545184845291  0.8344738586035803  0.4479660027018681
  0.3306942729558315  0.8342296675173984  0.9460295977370876
  0.1659316549463554  0.0000000000000000  0.0600412557519050
  0.1698704573015775  0.3346627159163944  0.0555986084098663
  0.1675682047000819  0.3300919474226163  0.5560610720398955
  0.1698704573015775  0.6653372840836056  0.0555986084098663
  0.1675682047000819  0.6699080525773837  0.5560610720398955
  0.1021349794349078  0.0000000000000000  0.4063308038896452
 
  0.00000000E+00  0.00000000E+00  0.00000000E+00
  0.00000000E+00  0.00000000E+00  0.00000000E+00
  0.00000000E+00  0.00000000E+00  0.00000000E+00
  0.00000000E+00  0.00000000E+00  0.00000000E+00
  0.00000000E+00  0.00000000E+00  0.00000000E+00
  0.00000000E+00  0.00000000E+00  0.00000000E+00
  0.00000000E+00  0.00000000E+00  0.00000000E+00
  0.00000000E+00  0.00000000E+00  0.00000000E+00
  0.00000000E+00  0.00000000E+00  0.00000000E+00
  0.00000000E+00  0.00000000E+00  0.00000000E+00
  0.00000000E+00  0.00000000E+00  0.00000000E+00
  0.00000000E+00  0.00000000E+00  0.00000000E+00
  0.00000000E+00  0.00000000E+00  0.00000000E+00
  0.00000000E+00  0.00000000E+00  0.00000000E+00
  0.00000000E+00  0.00000000E+00  0.00000000E+00
  0.00000000E+00  0.00000000E+00  0.00000000E+00
  0.00000000E+00  0.00000000E+00  0.00000000E+00
  0.00000000E+00  0.00000000E+00  0.00000000E+00
  0.00000000E+00  0.00000000E+00  0.00000000E+00
  0.00000000E+00  0.00000000E+00  0.00000000E+00
  0.00000000E+00  0.00000000E+00  0.00000000E+00
  0.00000000E+00  0.00000000E+00  0.00000000E+00
  0.00000000E+00  0.00000000E+00  0.00000000E+00
  0.00000000E+00  0.00000000E+00  0.00000000E+00
  0.00000000E+00  0.00000000E+00  0.00000000E+00
  0.00000000E+00  0.00000000E+00  0.00000000E+00
  0.00000000E+00  0.00000000E+00  0.00000000E+00
  0.00000000E+00  0.00000000E+00  0.00000000E+00
  0.00000000E+00  0.00000000E+00  0.00000000E+00
  0.00000000E+00  0.00000000E+00  0.00000000E+00
  0.00000000E+00  0.00000000E+00  0.00000000E+00
  0.00000000E+00  0.00000000E+00  0.00000000E+00
  0.00000000E+00  0.00000000E+00  0.00000000E+00
  0.00000000E+00  0.00000000E+00  0.00000000E+00
  0.00000000E+00  0.00000000E+00  0.00000000E+00
  0.00000000E+00  0.00000000E+00  0.00000000E+00
  0.00000000E+00  0.00000000E+00  0.00000000E+00
  0.00000000E+00  0.00000000E+00  0.00000000E+00
  0.00000000E+00  0.00000000E+00  0.00000000E+00
  0.00000000E+00  0.00000000E+00  0.00000000E+00
  0.00000000E+00  0.00000000E+00  0.00000000E+00
  0.00000000E+00  0.00000000E+00  0.00000000E+00
  0.00000000E+00  0.00000000E+00  0.00000000E+00
  0.00000000E+00  0.00000000E+00  0.00000000E+00
  0.00000000E+00  0.00000000E+00  0.00000000E+00
  0.00000000E+00  0.00000000E+00  0.00000000E+00
  0.00000000E+00  0.00000000E+00  0.00000000E+00
  0.00000000E+00  0.00000000E+00  0.00000000E+00
  0.00000000E+00  0.00000000E+00  0.00000000E+00
  0.00000000E+00  0.00000000E+00  0.00000000E+00
  0.00000000E+00  0.00000000E+00  0.00000000E+00
  0.00000000E+00  0.00000000E+00  0.00000000E+00
  0.00000000E+00  0.00000000E+00  0.00000000E+00
  0.00000000E+00  0.00000000E+00  0.00000000E+00
  0.00000000E+00  0.00000000E+00  0.00000000E+00
  0.00000000E+00  0.00000000E+00  0.00000000E+00
  0.00000000E+00  0.00000000E+00  0.00000000E+00
  0.00000000E+00  0.00000000E+00  0.00000000E+00
  0.00000000E+00  0.00000000E+00  0.00000000E+00
  0.00000000E+00  0.00000000E+00  0.00000000E+00
  0.00000000E+00  0.00000000E+00  0.00000000E+00
  0.00000000E+00  0.00000000E+00  0.00000000E+00
  0.00000000E+00  0.00000000E+00  0.00000000E+00
  0.00000000E+00  0.00000000E+00  0.00000000E+00
  0.00000000E+00  0.00000000E+00  0.00000000E+00
  0.00000000E+00  0.00000000E+00  0.00000000E+00
  0.00000000E+00  0.00000000E+00  0.00000000E+00
  0.00000000E+00  0.00000000E+00  0.00000000E+00
  0.00000000E+00  0.00000000E+00  0.00000000E+00
  0.00000000E+00  0.00000000E+00  0.00000000E+00
  0.00000000E+00  0.00000000E+00  0.00000000E+00
  0.00000000E+00  0.00000000E+00  0.00000000E+00
  0.00000000E+00  0.00000000E+00  0.00000000E+00
  0.00000000E+00  0.00000000E+00  0.00000000E+00
  0.00000000E+00  0.00000000E+00  0.00000000E+00
  0.00000000E+00  0.00000000E+00  0.00000000E+00
  0.00000000E+00  0.00000000E+00  0.00000000E+00
  0.00000000E+00  0.00000000E+00  0.00000000E+00
  0.00000000E+00  0.00000000E+00  0.00000000E+00
  0.00000000E+00  0.00000000E+00  0.00000000E+00
  0.00000000E+00  0.00000000E+00  0.00000000E+00
  0.00000000E+00  0.00000000E+00  0.00000000E+00
  0.00000000E+00  0.00000000E+00  0.00000000E+00
  0.00000000E+00  0.00000000E+00  0.00000000E+00
  0.00000000E+00  0.00000000E+00  0.00000000E+00
  0.00000000E+00  0.00000000E+00  0.00000000E+00
  0.00000000E+00  0.00000000E+00  0.00000000E+00
  0.00000000E+00  0.00000000E+00  0.00000000E+00
  0.00000000E+00  0.00000000E+00  0.00000000E+00
  0.00000000E+00  0.00000000E+00  0.00000000E+00
  0.00000000E+00  0.00000000E+00  0.00000000E+00
  0.00000000E+00  0.00000000E+00  0.00000000E+00
  0.00000000E+00  0.00000000E+00  0.00000000E+00
  0.00000000E+00  0.00000000E+00  0.00000000E+00
  0.00000000E+00  0.00000000E+00  0.00000000E+00
  0.00000000E+00  0.00000000E+00  0.00000000E+00
  0.00000000E+00  0.00000000E+00  0.00000000E+00
  0.00000000E+00  0.00000000E+00  0.00000000E+00
  0.00000000E+00  0.00000000E+00  0.00000000E+00
  0.00000000E+00  0.00000000E+00  0.00000000E+00
  0.00000000E+00  0.00000000E+00  0.00000000E+00
  0.00000000E+00  0.00000000E+00  0.00000000E+00
  0.00000000E+00  0.00000000E+00  0.00000000E+00
  0.00000000E+00  0.00000000E+00  0.00000000E+00
  0.00000000E+00  0.00000000E+00  0.00000000E+00
  0.00000000E+00  0.00000000E+00  0.00000000E+00
  0.00000000E+00  0.00000000E+00  0.00000000E+00
  0.00000000E+00  0.00000000E+00  0.00000000E+00
  0.00000000E+00  0.00000000E+00  0.00000000E+00
  0.00000000E+00  0.00000000E+00  0.00000000E+00
  0.00000000E+00  0.00000000E+00  0.00000000E+00
  0.00000000E+00  0.00000000E+00  0.00000000E+00
  0.00000000E+00  0.00000000E+00  0.00000000E+00
  0.00000000E+00  0.00000000E+00  0.00000000E+00
  0.00000000E+00  0.00000000E+00  0.00000000E+00
  0.00000000E+00  0.00000000E+00  0.00000000E+00
  0.00000000E+00  0.00000000E+00  0.00000000E+00
  0.00000000E+00  0.00000000E+00  0.00000000E+00
  0.00000000E+00  0.00000000E+00  0.00000000E+00
