Ga48 O72                                
    1.000000000000000     
     0.0000000000000000   12.2804734172212839    0.0000000000000000
     9.1427020537309431    0.0000000000000000    0.0000000000000000
     0.0000000000000000   -2.7682617730220320  -11.3006977184464645
   Ga   O    P 
    47    71     1
Direct
  0.6568225466271483 -0.0000000000000000  0.1558723375305672
  0.6605028042242664 -0.0000000000000000  0.6569682865302682
  0.6585667303061276  0.3330587518769173  0.1578583073124756
  0.6606497306544883  0.3334676858291519  0.6567348315929615
  0.6585667303061276  0.6669412481230829  0.1578583073124756
  0.6606497306544883  0.6665323141708480  0.6567348315929615
  0.8385751813008954  0.1635743877514729  0.3417855252497100
  0.8411877121783327  0.1664231470822241  0.8440564766206805
  0.8436397125491669  0.5000000000000000  0.3432300224494840
  0.8405677835115647  0.5000000000000000  0.8434604850993613
  0.8385751813008954  0.8364256122485273  0.3417855252497100
  0.8411877121783327  0.8335768529177756  0.8440564766206805
  0.5908990887129411  0.1671091280858128  0.3986771903112279
  0.5929674696882625  0.1667762812631866  0.8983298688252612
  0.5906310961213912  0.5000000000000000  0.3981175106380105
  0.5928974908450988  0.5000000000000000  0.8987861432906293
  0.5908990887129411  0.8328908719141874  0.3986771903112279
  0.5929674696882625  0.8332237187368133  0.8983298688252612
  0.9096533802388767 -0.0000000000000000  0.1031888026719972
  0.9083152539605105 -0.0000000000000000  0.6028128349374521
  0.9079536272672366  0.3338995121902757  0.1014592671244084
  0.9107257156315441  0.3330018343087897  0.6039930191122286
  0.9079536272672366  0.6661004878097241  0.1014592671244084
  0.9107257156315441  0.6669981656912102  0.6039930191122286
  0.1573269657815701  0.1707104903891937  0.1562619185248218
  0.1591053612388809  0.1751475589687997  0.6680212485675111
  0.1585986485078172  0.5000000000000000  0.1584692086088789
  0.1605142763774595  0.5000000000000000  0.6574240292257089
  0.1573269657815701  0.8292895096108058  0.1562619185248218
  0.1591053612388809  0.8248524410312004  0.6680212485675111
  0.3427449880444550 -0.0000000000000000  0.3465879961674765
  0.3436068694907998 -0.0000000000000000  0.8442808258494059
  0.3402007197631046  0.3334039610803305  0.3459144241184031
  0.3433203243148809  0.3345260312325098  0.8473007002147991
  0.3402007197631046  0.6665960389196699  0.3459144241184031
  0.3433203243148809  0.6654739687674903  0.8473007002147991
  0.0923682998599201 -0.0000000000000000  0.9006201808509262
  0.0924634761702360  0.3291626321136835  0.3997499214693424
  0.0905510952290964  0.3341984713747202  0.9002198840753524
  0.0924634761702360  0.6708373678863162  0.3997499214693424
  0.0905510952290964  0.6658015286252799  0.9002198840753524
  0.4066136486389093  0.1663323658202852  0.1040923564078669
  0.4111752874758381  0.1670253312384385  0.6036397638798855
  0.4086767072428867  0.5000000000000000  0.1056912072584582
  0.4097957682333500  0.5000000000000000  0.6039586413799582
  0.4066136486389093  0.8336676341797149  0.1040923564078669
  0.4111752874758381  0.8329746687615617  0.6036397638798855
  0.9962517771736753  0.1676559592030731  0.1289012418281666
  0.9988608284449498  0.1644033218030100  0.6236177017550977
  0.9962872245455917  0.5000000000000000  0.1269791854690862
  0.9984197038598901  0.5000000000000000  0.6287696405565214
  0.9962517771736753  0.8323440407969267  0.1289012418281666
  0.9988608284449498  0.8355966781969898  0.6236177017550977
  0.5038063031950009 -0.0000000000000000  0.3741308637096147
  0.5050100174150047 -0.0000000000000000  0.8736602928315021
  0.5023697041769126  0.3332854342329986  0.3737848965298060
  0.5045827617841356  0.3331646724377218  0.8735408244502081
  0.5023697041769126  0.6667145657670013  0.3737848965298060
  0.5045827617841356  0.6668353275622784  0.8735408244502081
  0.6718106980681369  0.1667814440771252  0.2808497359143082
  0.6733068106753692  0.1665248989672666  0.7803045715104792
  0.6748604909457038  0.5000000000000000  0.2825832664800353
  0.6729784907651529  0.5000000000000000  0.7800350793316928
  0.6718106980681369  0.8332185559228744  0.2808497359143082
  0.6733068106753692  0.8334751010327334  0.7803045715104792
  0.8277405548343237 -0.0000000000000000  0.2205876415252284
  0.8288280295592066 -0.0000000000000000  0.7206759979340150
  0.8303618742785610  0.3303254676946458  0.2218631911311788
  0.8291076606044938  0.3327567317693051  0.7203371009636834
  0.8303618742785610  0.6696745323053549  0.2218631911311788
  0.8291076606044938  0.6672432682306948  0.7203371009636834
  0.8324282310476371 -0.0000000000000000  0.4456495810212761
  0.8327764380980481 -0.0000000000000000  0.9468340299140571
  0.8420094126234001  0.3298178351413147  0.4448431566554200
  0.8308237378867739  0.3332232384332255  0.9456033576457227
  0.8420094126234001  0.6701821648586858  0.4448431566554200
  0.8308237378867739  0.6667767615667747  0.9456033576457227
  0.6685888945497375  0.1668034647292539  0.0555067797011414
  0.6701637107942741  0.1669664785257778  0.5543509767947584
  0.6690218050153574  0.5000000000000000  0.0563970803477944
  0.6712395078977794  0.5000000000000000  0.5537374869103961
  0.6685888945497375  0.8331965352707462  0.0555067797011414
  0.6701637107942741  0.8330335214742226  0.5543509767947584
  0.4947190302000155 -0.0000000000000000  0.1284518245106519
  0.4980622341883769 -0.0000000000000000  0.6275432782220882
  0.4954197853840596  0.3323756499507607  0.1294165651671624
  0.4977771622423162  0.3337577606187050  0.6275279816547417
  0.4954197853840596  0.6676243500492393  0.1294165651671624
  0.4977771622423162  0.6662422393812950  0.6275279816547417
  0.0166623015347066  0.1409044919941550  0.3744204893491487
  0.0044940343410653  0.1665893782156328  0.8728817416550673
  0.0071775353827170  0.5000000000000000  0.3735888296827370
  0.0030023782095887  0.5000000000000000  0.8740719186284923
  0.0166623015347066  0.8590955080058444  0.3744204893491487
  0.0044940343410653  0.8334106217843676  0.8728817416550673
  0.1621139398512875 -0.0000000000000000  0.2937164575825842
  0.1709412161732298 -0.0000000000000000  0.7762503436252636
  0.1710303311730938  0.3316534376091237  0.2811675452544627
  0.1736609209381273  0.3358164390646632  0.7838609672070543
  0.1710303311730938  0.6683465623908759  0.2811675452544627
  0.1736609209381273  0.6641835609353371  0.7838609672070543
  0.3238463013168437  0.1628217244594312  0.2221523392658808
  0.3257706189708481  0.1631231040130309  0.7178196454750463
  0.3263726666151014  0.5000000000000000  0.2225133079135000
  0.3278294943698171  0.5000000000000000  0.7211277911692571
  0.3238463013168436  0.8371782755405692  0.2221523392658808
  0.3257706189708481  0.8368768959869690  0.7178196454750463
  0.3306545184845273  0.1655261413964185  0.4479660027018715
  0.3306942729558323  0.1657703324825986  0.9460295977370902
  0.3295011150287224  0.5000000000000000  0.4480166546566606
  0.3330691030747049  0.5000000000000000  0.9484442874390212
  0.3306545184845273  0.8344738586035820  0.4479660027018715
  0.3306942729558323  0.8342296675174014  0.9460295977370902
  0.1659316549463524 -0.0000000000000000  0.0600412557519072
  0.1698704573015760  0.3346627159163939  0.0555986084098629
  0.1675682047000824  0.3300919474226132  0.5560610720398985
  0.1698704573015760  0.6653372840836055  0.0555986084098629
  0.1675682047000824  0.6699080525773864  0.5560610720398985
  0.1021349794349090 -0.0000000000000000  0.4063308038896423
 
  0.00000000E+00  0.00000000E+00  0.00000000E+00
  0.00000000E+00  0.00000000E+00  0.00000000E+00
  0.00000000E+00  0.00000000E+00  0.00000000E+00
  0.00000000E+00  0.00000000E+00  0.00000000E+00
  0.00000000E+00  0.00000000E+00  0.00000000E+00
  0.00000000E+00  0.00000000E+00  0.00000000E+00
  0.00000000E+00  0.00000000E+00  0.00000000E+00
  0.00000000E+00  0.00000000E+00  0.00000000E+00
  0.00000000E+00  0.00000000E+00  0.00000000E+00
  0.00000000E+00  0.00000000E+00  0.00000000E+00
  0.00000000E+00  0.00000000E+00  0.00000000E+00
  0.00000000E+00  0.00000000E+00  0.00000000E+00
  0.00000000E+00  0.00000000E+00  0.00000000E+00
  0.00000000E+00  0.00000000E+00  0.00000000E+00
  0.00000000E+00  0.00000000E+00  0.00000000E+00
  0.00000000E+00  0.00000000E+00  0.00000000E+00
  0.00000000E+00  0.00000000E+00  0.00000000E+00
  0.00000000E+00  0.00000000E+00  0.00000000E+00
  0.00000000E+00  0.00000000E+00  0.00000000E+00
  0.00000000E+00  0.00000000E+00  0.00000000E+00
  0.00000000E+00  0.00000000E+00  0.00000000E+00
  0.00000000E+00  0.00000000E+00  0.00000000E+00
  0.00000000E+00  0.00000000E+00  0.00000000E+00
  0.00000000E+00  0.00000000E+00  0.00000000E+00
  0.00000000E+00  0.00000000E+00  0.00000000E+00
  0.00000000E+00  0.00000000E+00  0.00000000E+00
  0.00000000E+00  0.00000000E+00  0.00000000E+00
  0.00000000E+00  0.00000000E+00  0.00000000E+00
  0.00000000E+00  0.00000000E+00  0.00000000E+00
  0.00000000E+00  0.00000000E+00  0.00000000E+00
  0.00000000E+00  0.00000000E+00  0.00000000E+00
  0.00000000E+00  0.00000000E+00  0.00000000E+00
  0.00000000E+00  0.00000000E+00  0.00000000E+00
  0.00000000E+00  0.00000000E+00  0.00000000E+00
  0.00000000E+00  0.00000000E+00  0.00000000E+00
  0.00000000E+00  0.00000000E+00  0.00000000E+00
  0.00000000E+00  0.00000000E+00  0.00000000E+00
  0.00000000E+00  0.00000000E+00  0.00000000E+00
  0.00000000E+00  0.00000000E+00  0.00000000E+00
  0.00000000E+00  0.00000000E+00  0.00000000E+00
  0.00000000E+00  0.00000000E+00  0.00000000E+00
  0.00000000E+00  0.00000000E+00  0.00000000E+00
  0.00000000E+00  0.00000000E+00  0.00000000E+00
  0.00000000E+00  0.00000000E+00  0.00000000E+00
  0.00000000E+00  0.00000000E+00  0.00000000E+00
  0.00000000E+00  0.00000000E+00  0.00000000E+00
  0.00000000E+00  0.00000000E+00  0.00000000E+00
  0.00000000E+00  0.00000000E+00  0.00000000E+00
  0.00000000E+00  0.00000000E+00  0.00000000E+00
  0.00000000E+00  0.00000000E+00  0.00000000E+00
  0.00000000E+00  0.00000000E+00  0.00000000E+00
  0.00000000E+00  0.00000000E+00  0.00000000E+00
  0.00000000E+00  0.00000000E+00  0.00000000E+00
  0.00000000E+00  0.00000000E+00  0.00000000E+00
  0.00000000E+00  0.00000000E+00  0.00000000E+00
  0.00000000E+00  0.00000000E+00  0.00000000E+00
  0.00000000E+00  0.00000000E+00  0.00000000E+00
  0.00000000E+00  0.00000000E+00  0.00000000E+00
  0.00000000E+00  0.00000000E+00  0.00000000E+00
  0.00000000E+00  0.00000000E+00  0.00000000E+00
  0.00000000E+00  0.00000000E+00  0.00000000E+00
  0.00000000E+00  0.00000000E+00  0.00000000E+00
  0.00000000E+00  0.00000000E+00  0.00000000E+00
  0.00000000E+00  0.00000000E+00  0.00000000E+00
  0.00000000E+00  0.00000000E+00  0.00000000E+00
  0.00000000E+00  0.00000000E+00  0.00000000E+00
  0.00000000E+00  0.00000000E+00  0.00000000E+00
  0.00000000E+00  0.00000000E+00  0.00000000E+00
  0.00000000E+00  0.00000000E+00  0.00000000E+00
  0.00000000E+00  0.00000000E+00  0.00000000E+00
  0.00000000E+00  0.00000000E+00  0.00000000E+00
  0.00000000E+00  0.00000000E+00  0.00000000E+00
  0.00000000E+00  0.00000000E+00  0.00000000E+00
  0.00000000E+00  0.00000000E+00  0.00000000E+00
  0.00000000E+00  0.00000000E+00  0.00000000E+00
  0.00000000E+00  0.00000000E+00  0.00000000E+00
  0.00000000E+00  0.00000000E+00  0.00000000E+00
  0.00000000E+00  0.00000000E+00  0.00000000E+00
  0.00000000E+00  0.00000000E+00  0.00000000E+00
  0.00000000E+00  0.00000000E+00  0.00000000E+00
  0.00000000E+00  0.00000000E+00  0.00000000E+00
  0.00000000E+00  0.00000000E+00  0.00000000E+00
  0.00000000E+00  0.00000000E+00  0.00000000E+00
  0.00000000E+00  0.00000000E+00  0.00000000E+00
  0.00000000E+00  0.00000000E+00  0.00000000E+00
  0.00000000E+00  0.00000000E+00  0.00000000E+00
  0.00000000E+00  0.00000000E+00  0.00000000E+00
  0.00000000E+00  0.00000000E+00  0.00000000E+00
  0.00000000E+00  0.00000000E+00  0.00000000E+00
  0.00000000E+00  0.00000000E+00  0.00000000E+00
  0.00000000E+00  0.00000000E+00  0.00000000E+00
  0.00000000E+00  0.00000000E+00  0.00000000E+00
  0.00000000E+00  0.00000000E+00  0.00000000E+00
  0.00000000E+00  0.00000000E+00  0.00000000E+00
  0.00000000E+00  0.00000000E+00  0.00000000E+00
  0.00000000E+00  0.00000000E+00  0.00000000E+00
  0.00000000E+00  0.00000000E+00  0.00000000E+00
  0.00000000E+00  0.00000000E+00  0.00000000E+00
  0.00000000E+00  0.00000000E+00  0.00000000E+00
  0.00000000E+00  0.00000000E+00  0.00000000E+00
  0.00000000E+00  0.00000000E+00  0.00000000E+00
  0.00000000E+00  0.00000000E+00  0.00000000E+00
  0.00000000E+00  0.00000000E+00  0.00000000E+00
  0.00000000E+00  0.00000000E+00  0.00000000E+00
  0.00000000E+00  0.00000000E+00  0.00000000E+00
  0.00000000E+00  0.00000000E+00  0.00000000E+00
  0.00000000E+00  0.00000000E+00  0.00000000E+00
  0.00000000E+00  0.00000000E+00  0.00000000E+00
  0.00000000E+00  0.00000000E+00  0.00000000E+00
  0.00000000E+00  0.00000000E+00  0.00000000E+00
  0.00000000E+00  0.00000000E+00  0.00000000E+00
  0.00000000E+00  0.00000000E+00  0.00000000E+00
  0.00000000E+00  0.00000000E+00  0.00000000E+00
  0.00000000E+00  0.00000000E+00  0.00000000E+00
  0.00000000E+00  0.00000000E+00  0.00000000E+00
  0.00000000E+00  0.00000000E+00  0.00000000E+00
  0.00000000E+00  0.00000000E+00  0.00000000E+00
  0.00000000E+00  0.00000000E+00  0.00000000E+00
  0.00000000E+00  0.00000000E+00  0.00000000E+00
