       N       E                     dE             d eps       ncg     rms          rms(c)
DAV:   1     0.122738535432E+05    0.12274E+05   -0.58323E+05 10528   0.706E+03
DAV:   2    -0.311090165386E+05   -0.43383E+05   -0.41727E+05 13408   0.120E+03
DAV:   3    -0.356818212167E+05   -0.45728E+04   -0.41672E+04 14328   0.355E+02
DAV:   4    -0.361931802801E+05   -0.51136E+03   -0.44111E+03 16968   0.104E+02
DAV:   5    -0.362431398344E+05   -0.49960E+02   -0.44647E+02 19872   0.320E+01    0.735E+02
DAV:   6    -0.108652987110E+05    0.25378E+05   -0.21595E+04 14504   0.247E+02    0.609E+02
DAV:   7    -0.464582179178E+04    0.62195E+04   -0.71539E+03 16146   0.166E+02    0.294E+02
DAV:   8    -0.133044250330E+04    0.33154E+04   -0.10569E+04 14352   0.260E+02    0.233E+02
DAV:   9    -0.762447624314E+03    0.56799E+03   -0.17789E+03 15528   0.150E+02    0.165E+02
DAV:  10    -0.768266334217E+03   -0.58187E+01   -0.11568E+03 14560   0.789E+01    0.141E+02
DAV:  11    -0.827915952048E+03   -0.59650E+02   -0.68187E+02 14064   0.554E+01    0.727E+01
DAV:  12    -0.735127556733E+03    0.92788E+02   -0.21651E+02 13848   0.684E+01    0.881E+01
DAV:  13    -0.727889612597E+03    0.72379E+01   -0.78852E+01 14816   0.285E+01    0.812E+01
DAV:  14    -0.724851014944E+03    0.30386E+01   -0.18013E+01 14616   0.222E+01    0.662E+01
DAV:  15    -0.720534548743E+03    0.43165E+01   -0.21091E+01 15032   0.141E+01    0.485E+01
DAV:  16    -0.720302659701E+03    0.23189E+00   -0.65624E+00 13456   0.830E+00    0.396E+01
DAV:  17    -0.719708280477E+03    0.59438E+00   -0.17614E+00 13208   0.425E+00    0.320E+01
DAV:  18    -0.718796698532E+03    0.91158E+00   -0.93504E-01 15504   0.574E+00    0.217E+01
DAV:  19    -0.718199405045E+03    0.59729E+00   -0.79099E-01 14888   0.406E+00    0.164E+01
DAV:  20    -0.717963408193E+03    0.23600E+00   -0.51097E-01 13696   0.231E+00    0.122E+01
DAV:  21    -0.717841030707E+03    0.12238E+00   -0.18490E-01 14328   0.217E+00    0.970E+00
DAV:  22    -0.717649659886E+03    0.19137E+00   -0.18080E-01 15296   0.382E+00    0.378E+00
DAV:  23    -0.717651079695E+03   -0.14198E-02   -0.31226E-01 12192   0.189E+00    0.358E+00
DAV:  24    -0.717632751977E+03    0.18328E-01   -0.41195E-02 15432   0.128E+00    0.151E+00
DAV:  25    -0.717631857849E+03    0.89413E-03   -0.55758E-02 15168   0.112E+00    0.120E+00
DAV:  26    -0.717630188757E+03    0.16691E-02   -0.10390E-02 16056   0.128E+00    0.338E-01
DAV:  27    -0.717633800463E+03   -0.36117E-02   -0.40928E-02 12016   0.866E-01    0.396E-01
DAV:  28    -0.717634059809E+03   -0.25935E-03   -0.44891E-03 14280   0.194E-01    0.356E-01
DAV:  29    -0.717634044048E+03    0.15761E-04   -0.59371E-04 12056   0.665E-02    0.316E-01
DAV:  30    -0.717634004202E+03    0.39847E-04   -0.12502E-04 13976   0.111E-01    0.366E-01
DAV:  31    -0.717633673246E+03    0.33096E-03   -0.57980E-04 15696   0.422E-01    0.244E-01
DAV:  32    -0.717633552425E+03    0.12082E-03   -0.25952E-04 14472   0.203E-01    0.811E-02
DAV:  33    -0.717633504874E+03    0.47551E-04   -0.18227E-04 14056   0.717E-02    0.837E-02
DAV:  34    -0.717633478247E+03    0.26626E-04   -0.56534E-05  9008   0.521E-02    0.811E-02
DAV:  35    -0.717633425776E+03    0.52471E-04   -0.42305E-05  9808   0.113E-01    0.295E-02
DAV:  36    -0.717633415152E+03    0.10625E-04   -0.64114E-05 10000   0.633E-02    0.171E-02
DAV:  37    -0.717633419793E+03   -0.46409E-05   -0.60876E-05  8152   0.181E-02
   1 F= -.71763342E+03 E0= -.71763342E+03  d E =-.386570E-10
