       N       E                     dE             d eps       ncg     rms          ort
DAV:   1    -0.182801967593E+05   -0.18280E+05   -0.55137E+05   625   0.748E+03
DAV:   2    -0.626530478117E+05   -0.44373E+05   -0.42866E+05   625   0.123E+03
DAV:   3    -0.676025639245E+05   -0.49495E+04   -0.45238E+04   625   0.375E+02
DAV:   4    -0.683347360339E+05   -0.73217E+03   -0.65570E+03   625   0.119E+02
DAV:   5    -0.387816649806E+05    0.29553E+05   -0.62000E+02   625   0.558E+01
SDA:   6     0.293180753805E+05    0.68100E+05   -0.62000E+02   625   0.890E+05 0.000E+00
CGA:   7     0.115530916185E+05   -0.17765E+05   -0.18543E+05   625   0.606E+05-0.213E+05
CGA:   8     0.505361314698E+04   -0.64995E+04   -0.60980E+04   625   0.245E+05 0.130E+05
CGA:   9     0.373978179963E+04   -0.13138E+04   -0.30542E+04   625   0.177E+05 0.133E+04
CGA:  10     0.182898976689E+04   -0.19108E+04   -0.23651E+04   625   0.685E+04 0.140E+04
CGA:  11     0.589193804355E+03   -0.12398E+04   -0.12702E+04   625   0.374E+04 0.681E+03
CGA:  12    -0.141993211521E+03   -0.73119E+03   -0.74116E+03   625   0.141E+04 0.600E+03
CGA:  13    -0.548704844745E+03   -0.40671E+03   -0.38673E+03   625   0.620E+03 0.242E+03
CGA:  14    -0.765657636092E+03   -0.21695E+03   -0.22122E+03   625   0.324E+03-0.306E+02
CGA:  15    -0.855887302270E+03   -0.90230E+02   -0.93444E+02   625   0.166E+03-0.269E+02
CGA:  16    -0.893875434463E+03   -0.37988E+02   -0.38008E+02   625   0.796E+02-0.972E+00
CGA:  17    -0.914017453876E+03   -0.20142E+02   -0.20272E+02   625   0.407E+02-0.161E+01
CGA:  18    -0.924829806788E+03   -0.10812E+02   -0.10793E+02   625   0.228E+02 0.216E+00
CGA:  19    -0.931127595367E+03   -0.62978E+01   -0.62984E+01   625   0.129E+02-0.197E-01
CGA:  20    -0.934763447636E+03   -0.36359E+01   -0.36394E+01   625   0.700E+01-0.365E-01
CGA:  21    -0.936751468291E+03   -0.19880E+01   -0.19900E+01   625   0.368E+01-0.464E-02
CGA:  22    -0.937753822603E+03   -0.10024E+01   -0.10003E+01   625   0.201E+01 0.385E-01
CGA:  23    -0.938295985867E+03   -0.54216E+00   -0.54137E+00   625   0.113E+01 0.156E-01
CGA:  24    -0.938570813059E+03   -0.27483E+00   -0.27475E+00   625   0.543E+00 0.359E-02
CGA:  25    -0.938717508040E+03   -0.14669E+00   -0.14670E+00   625   0.307E+00-0.116E-04
CGA:  26    -0.938809281047E+03   -0.91773E-01   -0.91785E-01   625   0.171E+00-0.918E-04
CGA:  27    -0.938859388233E+03   -0.50107E-01   -0.50107E-01   625   0.972E-01-0.135E-04
CGA:  28    -0.938887919069E+03   -0.28531E-01   -0.28538E-01   625   0.580E-01-0.116E-03
CGA:  29    -0.938902671477E+03   -0.14752E-01   -0.14754E-01   625   0.283E-01-0.655E-04
CGA:  30    -0.938910058327E+03   -0.73869E-02   -0.73855E-02   625   0.152E-01 0.629E-04
CGA:  31    -0.938914465948E+03   -0.44076E-02   -0.44024E-02   625   0.855E-02 0.104E-03
CGA:  32    -0.938916969849E+03   -0.25039E-02   -0.25011E-02   625   0.496E-02 0.570E-04
CGA:  33    -0.938918483748E+03   -0.15139E-02   -0.15135E-02   625   0.307E-02 0.703E-05
CGA:  34    -0.938919326787E+03   -0.84304E-03   -0.84321E-03   625   0.165E-02-0.634E-05
CGA:  35    -0.938919764292E+03   -0.43750E-03   -0.43751E-03   625   0.885E-03 0.122E-06
CGA:  36    -0.938920009570E+03   -0.24528E-03   -0.24527E-03   625   0.480E-03 0.375E-06
SDA:  37    -0.938920148956E+03   -0.13939E-03   -0.13957E-03   625   0.283E-03-0.464E-05
CGA:  38    -0.938920276537E+03   -0.12758E-03   -0.12890E-03   625   0.140E-03-0.648E-05
CGA:  39    -0.938920321549E+03   -0.45012E-04   -0.45099E-04   625   0.533E-04-0.131E-05
CGA:  40    -0.938920338010E+03   -0.16461E-04   -0.16390E-04   625   0.175E-04 0.159E-05
CGA:  41    -0.938920343752E+03   -0.57424E-05   -0.57791E-05   625   0.681E-05-0.696E-06
   1 F= -.93892034E+03 E0= -.93890624E+03  d E =-.282095E-01
