Ga8 O12                                 
    1.000000000000000     
     0.0000000000000000   12.2804737091000007    0.0000000000000000
     9.1427011490000005    0.0000000000000000    0.0000000000000000
     0.0000000000000000   -2.7682616411000001  -11.3006974810000003
   Ga   O    N    Fe
    47    71     1     1
Direct
  0.6585957559980926  0.0000001106801264  0.1577848102304955
  0.6586101819264343  0.0000001155857632  0.6569849220444652
  0.6578651379343441  0.3364978530096892  0.1603747949571925
  0.6585194252158715  0.3330581490909594  0.6557749318422381
  0.6578650688499721  0.6635024283398181  0.1603730750963734
  0.6585195307194880  0.6669423300188839  0.6557749789965044
  0.8412435750308092  0.1665977040441362  0.3428834241267609
  0.8409066292313057  0.1666230483984279  0.8433139658010873
  0.8355633419633008  0.5000003901827910  0.3441070313011991
  0.8406749016622257  0.5000002808319337  0.8432633331387649
  0.8412433877999277  0.8334025136522953  0.3428838583634644
  0.8409067471664855  0.8333773963290625  0.8433141861267615
  0.5909340581508360  0.1687073305915590  0.3976019778387609
  0.5917163499591851  0.1671760492461942  0.8994424071573661
  0.5911591625236454  0.5000001752685961  0.8975285392673129
  0.5909330574870140  0.8312921083971716  0.3976010016340297
  0.5917160013179483  0.8328243399138842  0.8994416143293833
  0.9091021953686749  0.0000002487334640  0.1025686937633452
  0.9091248982487841  0.0000004824020152  0.6024221885914969
  0.9085857130695274  0.3330973909998178  0.1026609687952273
  0.9102929095655483  0.3328621775535723  0.6032346611129142
  0.9085858106726903  0.6669030586862803  0.1026613199188233
  0.9102935017799041  0.6671374142582849  0.6032352731077140
  0.1592354343555655  0.1669027068244944  0.1571545629476816
  0.1594197732768734  0.1666853170051397  0.6564991890829219
  0.1587767667964286  0.5000001189186420  0.1568022920383996
  0.1596695508973554  0.4999945479301502  0.6562718365379538
  0.1592353760685370  0.8330978403892715  0.1571538697188259
  0.1594191597966699  0.8333115999272991  0.6564984700477439
  0.3419991590366465  0.0000004348654130  0.3431116016630824
  0.3411998610521252  0.9999997389814297  0.8425852101107907
  0.3422567612819947  0.3347678481531062  0.3434625655551713
  0.3410939169830058  0.3336760070368783  0.8436246018507845
  0.3422561652263596  0.6652310174008420  0.3434598035398722
  0.3410929098783768  0.6663244101663608  0.8436234130254761
  0.0919478995708261  0.0000001217658010  0.3978144925234659
  0.0918289709035776  0.0000002662442782  0.8977817098315981
  0.0896924068935547  0.3343695687820087  0.3969221377314369
  0.0912807365040322  0.3333134703338985  0.8976548753237594
  0.0896925646009450  0.6656304077650717  0.3969222677298916
  0.0912811668071214  0.6666869817922603  0.8976542978538973
  0.4072820029804731  0.1659204976458142  0.1010892011539184
  0.4087240142777304  0.1666347816540252  0.6021045789704615
  0.4091946379029636  0.5000002422041447  0.1030929624075796
  0.4095032081505749  0.5000004239009357  0.6015694615299907
  0.4072822330769483  0.8340798877895139  0.1010892318092331
  0.4087236475357798  0.8333652647440530  0.6021038521579314
  0.9969165514995098  0.1664669724906389  0.1262691300531600
  0.9973753142195392  0.1659903146928912  0.6286233241385304
  0.9962980048123313  0.5000001531398084  0.1263861387854917
  0.9972260296997391  0.4999994096058344  0.6284079028908920
  0.9969165779277702  0.8335335336058662  0.1262693202913496
  0.9973746740331109  0.8340101654465997  0.6286239643042748
  0.5040663338589582  0.0000002484213297  0.3734791126236701
  0.5040324927038355  0.0000002929409533  0.8732271514554029
  0.5049585385301967  0.3371439609082145  0.3733104318285427
  0.5032660082917104  0.3331949512855559  0.8715055499895712
  0.5049581665746672  0.6628559428530565  0.3733068084733944
  0.5032657331860122  0.6668052521177898  0.8715056976933866
  0.6728276906056792  0.1633983646610773  0.2815426912408512
  0.6725391323788941  0.1667395362286257  0.7810262847278366
  0.6724683343367843  0.5000002364141949  0.7796572457497746
  0.6728277470150843  0.8366021128354575  0.2815427134735273
  0.6725393109843196  0.8332608794951497  0.7810260944327752
  0.8282417636207811  0.0000002080811470  0.2195767309353727
  0.8275283320417586  0.0000002072599230  0.7196404479262384
  0.8295432317188727  0.3301742884292977  0.2203610142583088
  0.8275285288766838  0.3336809317900631  0.7192501236452173
  0.8295433750985808  0.6698260462790842  0.2203615469725122
  0.8275286017321619  0.6663193820448257  0.7192502372894154
  0.8338203728524789  0.0000002901861151  0.4460473324617880
  0.8319512954681656  0.0000002788148024  0.9458937578490350
  0.8336776904414194  0.3309486374818391  0.4475986513021653
  0.8329671749957370  0.3330596350016108  0.9454897407176404
  0.8336778822912052  0.6690515687177268  0.4475993986636411
  0.8329671609990683  0.6669407717692195  0.9454900126890919
  0.6673158279395182  0.1679488302423664  0.0561262016037745
  0.6675261868558167  0.1661129894004887  0.5546103556040265
  0.6703419056191393  0.4999998822896927  0.0520279164450699
  0.6623608838799839  0.5000001363134530  0.5523843500229262
  0.6673157896609823  0.8320516819703343  0.0561255595949035
  0.6675255146043924  0.8338870953968467  0.5546096828234397
  0.4951399259401867  0.0000002207805281  0.1265307062940906
  0.4960328658786040  0.9999998773293584  0.6277942110616692
  0.4936372866235459  0.3317291548900485  0.1229875337164330
  0.4959831505447809  0.3328546612252126  0.6275845683046057
  0.4936373540968617  0.6682712635725920  0.1229878746335800
  0.4959832150581818  0.6671458726095523  0.6275847377984007
  0.0044453457853706  0.1660867258514500  0.3730347252385897
  0.0038508244635977  0.1664499708101346  0.8727880355842004
  0.0011517263172678  0.4999999738808683  0.3729022069852093
  0.0037397560195416  0.5000002427031873  0.8726782012782266
  0.0044452713621581  0.8339134191314130  0.3730348841388746
  0.0038508745788945  0.8335504684652619  0.8727885097174664
  0.1731553367762402  0.0000000308231449  0.2805173633601115
  0.1725148954588391  0.9999998946843647  0.7799677869408868
  0.1723538173776618  0.3335904979305724  0.2805132113972917
  0.1726174301787893  0.3334543262250733  0.7802534411412410
  0.1723534888447915  0.6664098241052372  0.2805126172257673
  0.1726172845065506  0.6665444125611373  0.7802528829366295
  0.3275127412911587  0.1668526021195618  0.2197544365552844
  0.3273467773615124  0.1666789494129759  0.7192081092724223
  0.3267745542427605  0.4999997107115703  0.2194762934158945
  0.3275871120310825  0.4999994953730322  0.7190331717578573
  0.3275120846898858  0.8331481419752365  0.2197533892415038
  0.3273465255748746  0.8333213827299915  0.7192072432281051
  0.3327761159618134  0.1670943846219402  0.4453269679154488
  0.3303483379132999  0.1660060010737325  0.9444552662302215
  0.3301974610866694  0.5000001225561803  0.4459660000548311
  0.3315231960068701  0.5000001795239513  0.9456966619550187
  0.3327790079327642  0.8329047929414557  0.4453256262902698
  0.3303485084749695  0.8339942249830941  0.9444552913568529
  0.1687691039009209  0.0000004504058211  0.0544628291825902
  0.1691454949054290  0.9999993620320282  0.5542689771672897
  0.1682132664380589  0.3333056220354536  0.0542048804901469
  0.1673849384162693  0.3332759308913680  0.5536689110919610
  0.1682132406137526  0.6666946158341887  0.0542046390348219
  0.1673842676625270  0.6667202287472449  0.5536695678776979
  0.6681810036094475  0.5000006837268387  0.2794095146791733
  0.5968825872227157  0.5000004936777671  0.3943076598088098
 
  0.00000000E+00  0.00000000E+00  0.00000000E+00
  0.00000000E+00  0.00000000E+00  0.00000000E+00
  0.00000000E+00  0.00000000E+00  0.00000000E+00
  0.00000000E+00  0.00000000E+00  0.00000000E+00
  0.00000000E+00  0.00000000E+00  0.00000000E+00
  0.00000000E+00  0.00000000E+00  0.00000000E+00
  0.00000000E+00  0.00000000E+00  0.00000000E+00
  0.00000000E+00  0.00000000E+00  0.00000000E+00
  0.00000000E+00  0.00000000E+00  0.00000000E+00
  0.00000000E+00  0.00000000E+00  0.00000000E+00
  0.00000000E+00  0.00000000E+00  0.00000000E+00
  0.00000000E+00  0.00000000E+00  0.00000000E+00
  0.00000000E+00  0.00000000E+00  0.00000000E+00
  0.00000000E+00  0.00000000E+00  0.00000000E+00
  0.00000000E+00  0.00000000E+00  0.00000000E+00
  0.00000000E+00  0.00000000E+00  0.00000000E+00
  0.00000000E+00  0.00000000E+00  0.00000000E+00
  0.00000000E+00  0.00000000E+00  0.00000000E+00
  0.00000000E+00  0.00000000E+00  0.00000000E+00
  0.00000000E+00  0.00000000E+00  0.00000000E+00
  0.00000000E+00  0.00000000E+00  0.00000000E+00
  0.00000000E+00  0.00000000E+00  0.00000000E+00
  0.00000000E+00  0.00000000E+00  0.00000000E+00
  0.00000000E+00  0.00000000E+00  0.00000000E+00
  0.00000000E+00  0.00000000E+00  0.00000000E+00
  0.00000000E+00  0.00000000E+00  0.00000000E+00
  0.00000000E+00  0.00000000E+00  0.00000000E+00
  0.00000000E+00  0.00000000E+00  0.00000000E+00
  0.00000000E+00  0.00000000E+00  0.00000000E+00
  0.00000000E+00  0.00000000E+00  0.00000000E+00
  0.00000000E+00  0.00000000E+00  0.00000000E+00
  0.00000000E+00  0.00000000E+00  0.00000000E+00
  0.00000000E+00  0.00000000E+00  0.00000000E+00
  0.00000000E+00  0.00000000E+00  0.00000000E+00
  0.00000000E+00  0.00000000E+00  0.00000000E+00
  0.00000000E+00  0.00000000E+00  0.00000000E+00
  0.00000000E+00  0.00000000E+00  0.00000000E+00
  0.00000000E+00  0.00000000E+00  0.00000000E+00
  0.00000000E+00  0.00000000E+00  0.00000000E+00
  0.00000000E+00  0.00000000E+00  0.00000000E+00
  0.00000000E+00  0.00000000E+00  0.00000000E+00
  0.00000000E+00  0.00000000E+00  0.00000000E+00
  0.00000000E+00  0.00000000E+00  0.00000000E+00
  0.00000000E+00  0.00000000E+00  0.00000000E+00
  0.00000000E+00  0.00000000E+00  0.00000000E+00
  0.00000000E+00  0.00000000E+00  0.00000000E+00
  0.00000000E+00  0.00000000E+00  0.00000000E+00
  0.00000000E+00  0.00000000E+00  0.00000000E+00
  0.00000000E+00  0.00000000E+00  0.00000000E+00
  0.00000000E+00  0.00000000E+00  0.00000000E+00
  0.00000000E+00  0.00000000E+00  0.00000000E+00
  0.00000000E+00  0.00000000E+00  0.00000000E+00
  0.00000000E+00  0.00000000E+00  0.00000000E+00
  0.00000000E+00  0.00000000E+00  0.00000000E+00
  0.00000000E+00  0.00000000E+00  0.00000000E+00
  0.00000000E+00  0.00000000E+00  0.00000000E+00
  0.00000000E+00  0.00000000E+00  0.00000000E+00
  0.00000000E+00  0.00000000E+00  0.00000000E+00
  0.00000000E+00  0.00000000E+00  0.00000000E+00
  0.00000000E+00  0.00000000E+00  0.00000000E+00
  0.00000000E+00  0.00000000E+00  0.00000000E+00
  0.00000000E+00  0.00000000E+00  0.00000000E+00
  0.00000000E+00  0.00000000E+00  0.00000000E+00
  0.00000000E+00  0.00000000E+00  0.00000000E+00
  0.00000000E+00  0.00000000E+00  0.00000000E+00
  0.00000000E+00  0.00000000E+00  0.00000000E+00
  0.00000000E+00  0.00000000E+00  0.00000000E+00
  0.00000000E+00  0.00000000E+00  0.00000000E+00
  0.00000000E+00  0.00000000E+00  0.00000000E+00
  0.00000000E+00  0.00000000E+00  0.00000000E+00
  0.00000000E+00  0.00000000E+00  0.00000000E+00
  0.00000000E+00  0.00000000E+00  0.00000000E+00
  0.00000000E+00  0.00000000E+00  0.00000000E+00
  0.00000000E+00  0.00000000E+00  0.00000000E+00
  0.00000000E+00  0.00000000E+00  0.00000000E+00
  0.00000000E+00  0.00000000E+00  0.00000000E+00
  0.00000000E+00  0.00000000E+00  0.00000000E+00
  0.00000000E+00  0.00000000E+00  0.00000000E+00
  0.00000000E+00  0.00000000E+00  0.00000000E+00
  0.00000000E+00  0.00000000E+00  0.00000000E+00
  0.00000000E+00  0.00000000E+00  0.00000000E+00
  0.00000000E+00  0.00000000E+00  0.00000000E+00
  0.00000000E+00  0.00000000E+00  0.00000000E+00
  0.00000000E+00  0.00000000E+00  0.00000000E+00
  0.00000000E+00  0.00000000E+00  0.00000000E+00
  0.00000000E+00  0.00000000E+00  0.00000000E+00
  0.00000000E+00  0.00000000E+00  0.00000000E+00
  0.00000000E+00  0.00000000E+00  0.00000000E+00
  0.00000000E+00  0.00000000E+00  0.00000000E+00
  0.00000000E+00  0.00000000E+00  0.00000000E+00
  0.00000000E+00  0.00000000E+00  0.00000000E+00
  0.00000000E+00  0.00000000E+00  0.00000000E+00
  0.00000000E+00  0.00000000E+00  0.00000000E+00
  0.00000000E+00  0.00000000E+00  0.00000000E+00
  0.00000000E+00  0.00000000E+00  0.00000000E+00
  0.00000000E+00  0.00000000E+00  0.00000000E+00
  0.00000000E+00  0.00000000E+00  0.00000000E+00
  0.00000000E+00  0.00000000E+00  0.00000000E+00
  0.00000000E+00  0.00000000E+00  0.00000000E+00
  0.00000000E+00  0.00000000E+00  0.00000000E+00
  0.00000000E+00  0.00000000E+00  0.00000000E+00
  0.00000000E+00  0.00000000E+00  0.00000000E+00
  0.00000000E+00  0.00000000E+00  0.00000000E+00
  0.00000000E+00  0.00000000E+00  0.00000000E+00
  0.00000000E+00  0.00000000E+00  0.00000000E+00
  0.00000000E+00  0.00000000E+00  0.00000000E+00
  0.00000000E+00  0.00000000E+00  0.00000000E+00
  0.00000000E+00  0.00000000E+00  0.00000000E+00
  0.00000000E+00  0.00000000E+00  0.00000000E+00
  0.00000000E+00  0.00000000E+00  0.00000000E+00
  0.00000000E+00  0.00000000E+00  0.00000000E+00
  0.00000000E+00  0.00000000E+00  0.00000000E+00
  0.00000000E+00  0.00000000E+00  0.00000000E+00
  0.00000000E+00  0.00000000E+00  0.00000000E+00
  0.00000000E+00  0.00000000E+00  0.00000000E+00
  0.00000000E+00  0.00000000E+00  0.00000000E+00
  0.00000000E+00  0.00000000E+00  0.00000000E+00
  0.00000000E+00  0.00000000E+00  0.00000000E+00
  0.00000000E+00  0.00000000E+00  0.00000000E+00
  0.00000000E+00  0.00000000E+00  0.00000000E+00
